# el_label, x, y, sXX, sYY, sZZ, sXY
1.000000000000000000e+00 6.122885513305664062e+01 3.435455703735351562e+01 -7.397316932678222656e+00 -2.031021833419799805e+00 -2.828501701354980469e+00 -2.361070871353149414e+00
2.000000000000000000e+00 6.102985000610351562e+01 3.435818481445312500e+01 -1.728845357894897461e+00 8.362830281257629395e-01 -2.677687108516693115e-01 9.510088562965393066e-01
3.000000000000000000e+00 6.083084106445312500e+01 3.436181640625000000e+01 -2.816921710968017578e+00 -4.636180996894836426e-01 -9.841619729995727539e-01 1.447615325450897217e-01
4.000000000000000000e+00 6.063183212280273438e+01 3.436544418334960938e+01 -2.831821203231811523e+00 1.750033646821975708e-01 -7.970453500747680664e-01 4.348258078098297119e-01
5.000000000000000000e+00 6.123350524902343750e+01 3.429633712768554688e+01 8.975304603576660156e+00 -2.634546279907226562e+00 1.902227640151977539e+00 2.038746029138565063e-01
6.000000000000000000e+00 6.103759765625000000e+01 3.426115417480468750e+01 2.399552583694458008e+00 -3.474637120962142944e-02 7.094418406486511230e-01 7.955798506736755371e-01
7.000000000000000000e+00 6.084169387817382812e+01 3.422597122192382812e+01 2.637245655059814453e+00 4.614506959915161133e-01 9.296089410781860352e-01 1.639694571495056152e+00
8.000000000000000000e+00 6.064578628540039062e+01 3.419078826904296875e+01 1.436877846717834473e+00 -1.393716484308242798e-01 3.892518579959869385e-01 9.259054660797119141e-01
9.000000000000000000e+00 6.124940490722656250e+01 3.424013519287109375e+01 1.587261962890625000e+01 6.319135427474975586e-01 4.951360225677490234e+00 6.885485172271728516e+00
1.000000000000000000e+01 6.106409454345703125e+01 3.416748809814453125e+01 9.185107231140136719e+00 4.257579743862152100e-01 2.883259534835815430e+00 3.877822637557983398e+00
1.100000000000000000e+01 6.087878417968750000e+01 3.409484100341796875e+01 6.090881347656250000e+00 1.053580045700073242e+00 2.143338441848754883e+00 3.303860187530517578e+00
1.200000000000000000e+01 6.069347763061523438e+01 3.402219009399414062e+01 5.254858493804931641e+00 1.164900183677673340e+00 1.925927639007568359e+00 3.180388450622558594e+00
1.300000000000000000e+01 6.127593612670898438e+01 3.418810653686523438e+01 1.896636009216308594e+01 6.185394287109375000e+00 7.545526504516601562e+00 1.263328456878662109e+01
1.400000000000000000e+01 6.110831451416015625e+01 3.408077239990234375e+01 1.193276786804199219e+01 3.760237216949462891e+00 4.707901477813720703e+00 8.169427871704101562e+00
1.500000000000000000e+01 6.094069671630859375e+01 3.397343826293945312e+01 9.301192283630371094e+00 3.072014808654785156e+00 3.711962223052978516e+00 6.336207866668701172e+00
1.600000000000000000e+01 6.077307510375976562e+01 3.386610031127929688e+01 7.406889438629150391e+00 2.793969154357910156e+00 3.060257673263549805e+00 5.508898258209228516e+00
1.700000000000000000e+01 6.131209182739257812e+01 3.414223861694335938e+01 1.814181327819824219e+01 1.396037483215332031e+01 9.630656242370605469e+00 1.699423408508300781e+01
1.800000000000000000e+01 6.116857528686523438e+01 3.400432586669921875e+01 1.281355857849121094e+01 8.750451087951660156e+00 6.469202995300292969e+00 1.175808334350585938e+01
1.900000000000000000e+01 6.102505874633789062e+01 3.386640930175781250e+01 9.905444145202636719e+00 7.053804397583007812e+00 5.087774276733398438e+00 9.247679710388183594e+00
2.000000000000000000e+01 6.088154220581054688e+01 3.372849655151367188e+01 8.384904861450195312e+00 5.803675174713134766e+00 4.256574153900146484e+00 7.929776668548583984e+00
2.100000000000000000e+01 6.135648345947265625e+01 3.410428619384765625e+01 1.564850044250488281e+01 2.256316566467285156e+01 1.146350002288818359e+01 1.902071189880371094e+01
2.200000000000000000e+01 6.124256515502929688e+01 3.394107055664062500e+01 1.153546333312988281e+01 1.506996440887451172e+01 7.981628417968750000e+00 1.374015808105468750e+01
2.300000000000000000e+01 6.112864303588867188e+01 3.377785491943359375e+01 9.359005928039550781e+00 1.197098350524902344e+01 6.398996829986572266e+00 1.141466808319091797e+01
2.400000000000000000e+01 6.101472091674804688e+01 3.361464309692382812e+01 7.696710586547851562e+00 1.046778488159179688e+01 5.449348449707031250e+00 9.635236740112304688e+00
2.500000000000000000e+01 6.140741729736328125e+01 3.407570266723632812e+01 1.221975517272949219e+01 3.096633338928222656e+01 1.295582675933837891e+01 1.841700935363769531e+01
2.600000000000000000e+01 6.132744979858398438e+01 3.389343261718750000e+01 9.650815963745117188e+00 2.176220703125000000e+01 9.423907279968261719e+00 1.401450729370117188e+01
2.700000000000000000e+01 6.124748229980468750e+01 3.371116256713867188e+01 7.716772556304931641e+00 1.729015350341796875e+01 7.502078056335449219e+00 1.183063888549804688e+01
2.800000000000000000e+01 6.116751861572265625e+01 3.352889251708984375e+01 6.585694313049316406e+00 1.519909191131591797e+01 6.535436153411865234e+00 1.060361671447753906e+01
2.900000000000000000e+01 6.146294021606445312e+01 3.405758285522460938e+01 9.726696968078613281e+00 3.834314346313476562e+01 1.442095279693603516e+01 1.540469264984130859e+01
3.000000000000000000e+01 6.141999053955078125e+01 3.386323165893554688e+01 7.418828964233398438e+00 2.764293861389160156e+01 1.051852989196777344e+01 1.257765483856201172e+01
3.100000000000000000e+01 6.137703704833984375e+01 3.366888046264648438e+01 6.213787555694580078e+00 2.280792427062988281e+01 8.706513404846191406e+00 1.071431922912597656e+01
3.200000000000000000e+01 6.133408355712890625e+01 3.347452926635742188e+01 5.022033214569091797e+00 1.907146263122558594e+01 7.228048801422119141e+00 9.563722610473632812e+00
3.300000000000000000e+01 6.152092742919921875e+01 3.405061721801757812e+01 8.211501121520996094e+00 4.341769790649414062e+01 1.548875904083251953e+01 1.092040729522705078e+01
3.400000000000000000e+01 6.151663589477539062e+01 3.385162353515625000e+01 6.376408100128173828e+00 3.253176879882812500e+01 1.167245292663574219e+01 9.631858825683593750e+00
3.500000000000000000e+01 6.151234054565429688e+01 3.365262985229492188e+01 4.798791885375976562e+00 2.704703140258789062e+01 9.553747177124023438e+00 8.478603363037109375e+00
3.600000000000000000e+01 6.150804901123046875e+01 3.345363235473632812e+01 3.863815069198608398e+00 2.378480720520019531e+01 8.294587135314941406e+00 7.208439826965332031e+00
3.700000000000000000e+01 6.157916259765625000e+01 3.405507278442382812e+01 8.887937545776367188e+00 4.618813705444335938e+01 1.652282142639160156e+01 5.830883979797363281e+00
3.800000000000000000e+01 6.161368942260742188e+01 3.385905075073242188e+01 6.200720787048339844e+00 3.562586975097656250e+01 1.254797649383544922e+01 5.967892169952392578e+00
3.900000000000000000e+01 6.164822006225585938e+01 3.366302871704101562e+01 4.670951843261718750e+00 3.008408355712890625e+01 1.042651081085205078e+01 5.321861743927001953e+00
4.000000000000000000e+01 6.168275070190429688e+01 3.346700668334960938e+01 3.418529510498046875e+00 2.710541534423828125e+01 9.157183647155761719e+00 5.053677558898925781e+00
4.100000000000000000e+01 6.163541412353515625e+01 3.407078552246093750e+01 1.123408031463623047e+01 4.662740707397460938e+01 1.735844612121582031e+01 1.202982664108276367e+00
4.200000000000000000e+01 6.170744323730468750e+01 3.388523483276367188e+01 7.465056419372558594e+00 3.691395187377929688e+01 1.331370258331298828e+01 2.148371458053588867e+00
4.300000000000000000e+01 6.177947616577148438e+01 3.369968414306640625e+01 5.617728710174560547e+00 3.166670989990234375e+01 1.118533134460449219e+01 2.157556295394897461e+00
4.400000000000000000e+01 6.185150527954101562e+01 3.351413345336914062e+01 4.585762500762939453e+00 2.797978019714355469e+01 9.769662857055664062e+00 2.369128465652465820e+00
4.500000000000000000e+01 6.168753051757812500e+01 3.409714508056640625e+01 1.484529209136962891e+01 4.523316955566406250e+01 1.802353858947753906e+01 -2.299994945526123047e+00
4.600000000000000000e+01 6.179430770874023438e+01 3.392916870117187500e+01 9.920254707336425781e+00 3.664979171752929688e+01 1.397101402282714844e+01 -1.013015985488891602e+00
4.700000000000000000e+01 6.190108489990234375e+01 3.376119232177734375e+01 7.679141998291015625e+00 3.150538063049316406e+01 1.175535678863525391e+01 -6.131736636161804199e-01
4.800000000000000000e+01 6.200785827636718750e+01 3.359321594238281250e+01 6.545127391815185547e+00 2.804347991943359375e+01 1.037658214569091797e+01 -4.689334928989410400e-01
4.900000000000000000e+01 6.173352050781250000e+01 3.413314819335937500e+01 1.904633712768554688e+01 4.284853363037109375e+01 1.856846046447753906e+01 -4.230059623718261719e+00
5.000000000000000000e+01 6.187095260620117188e+01 3.398917388916015625e+01 1.317203807830810547e+01 3.506136703491210938e+01 1.447002124786376953e+01 -3.028951644897460938e+00
5.100000000000000000e+01 6.200838851928710938e+01 3.384519577026367188e+01 1.040149116516113281e+01 3.032431030273437500e+01 1.221774101257324219e+01 -2.550686359405517578e+00
5.200000000000000000e+01 6.214582443237304688e+01 3.370122146606445312e+01 8.808281898498535156e+00 2.726542663574218750e+01 1.082211208343505859e+01 -2.294103384017944336e+00
5.300000000000000000e+01 6.177161788940429688e+01 3.417741394042968750e+01 2.301960945129394531e+01 4.015160369873046875e+01 1.895136451721191406e+01 -4.555778980255126953e+00
5.400000000000000000e+01 6.193445587158203125e+01 3.406294631958007812e+01 1.674406242370605469e+01 3.282931137084960938e+01 1.487201213836669922e+01 -3.699609041213989258e+00
5.500000000000000000e+01 6.209729003906250000e+01 3.394848251342773438e+01 1.324221420288085938e+01 2.854808998107910156e+01 1.253709125518798828e+01 -3.148265361785888672e+00
5.600000000000000000e+01 6.226012420654296875e+01 3.383401870727539062e+01 1.115021705627441406e+01 2.570500755310058594e+01 1.105656719207763672e+01 -2.865214109420776367e+00
5.700000000000000000e+01 6.180037307739257812e+01 3.422824859619140625e+01 2.635376930236816406e+01 3.774929809570312500e+01 1.923092079162597656e+01 -3.463497400283813477e+00
5.800000000000000000e+01 6.198237609863281250e+01 3.414767456054687500e+01 1.977211380004882812e+01 3.062783813476562500e+01 1.511998558044433594e+01 -3.045562744140625000e+00
5.900000000000000000e+01 6.216437911987304688e+01 3.406710052490234375e+01 1.604891395568847656e+01 2.664245414733886719e+01 1.280741024017333984e+01 -2.478583097457885742e+00
6.000000000000000000e+01 6.234638214111328125e+01 3.398653030395507812e+01 1.319664764404296875e+01 2.378303718566894531e+01 1.109390544891357422e+01 -2.083225488662719727e+00
6.100000000000000000e+01 6.181867599487304688e+01 3.428371047973632812e+01 2.851934623718261719e+01 3.618242263793945312e+01 1.941053009033203125e+01 -1.410435795783996582e+00
6.200000000000000000e+01 6.201288604736328125e+01 3.424011230468750000e+01 2.188459396362304688e+01 2.890167999267578125e+01 1.523588180541992188e+01 -1.254653811454772949e+00
6.300000000000000000e+01 6.220709228515625000e+01 3.419651412963867188e+01 1.792531776428222656e+01 2.524363899230957031e+01 1.295068740844726562e+01 -8.826859593391418457e-01
6.400000000000000000e+01 6.240129852294921875e+01 3.415291595458984375e+01 1.542672443389892578e+01 2.227357292175292969e+01 1.131008911132812500e+01 -6.862553358078002930e-01
6.500000000000000000e+01 6.182583618164062500e+01 3.434167480468750000e+01 2.918624496459960938e+01 3.526155853271484375e+01 1.933434104919433594e+01 1.221689343452453613e+00
6.600000000000000000e+01 6.202481460571289062e+01 3.433671951293945312e+01 2.265163230895996094e+01 2.853011703491210938e+01 1.535452461242675781e+01 1.091816782951354980e+00
6.700000000000000000e+01 6.222379684448242188e+01 3.433176422119140625e+01 1.873658561706542969e+01 2.424223899841308594e+01 1.289364719390869141e+01 1.241172432899475098e+00
6.800000000000000000e+01 6.242277526855468750e+01 3.432680892944335938e+01 1.618464279174804688e+01 2.234094429016113281e+01 1.155767631530761719e+01 9.697054028511047363e-01
6.900000000000000000e+01 6.182157135009765625e+01 3.439992523193359375e+01 2.858459663391113281e+01 3.611239624023437500e+01 1.940909767150878906e+01 3.833899021148681641e+00
7.000000000000000000e+01 6.201770782470703125e+01 3.443379974365234375e+01 2.171198081970214844e+01 2.863456344604492188e+01 1.510396385192871094e+01 3.610115051269531250e+00
7.100000000000000000e+01 6.221384811401367188e+01 3.446767807006835938e+01 1.819144439697265625e+01 2.501602172851562500e+01 1.296224021911621094e+01 3.025100708007812500e+00
7.200000000000000000e+01 6.240998458862304688e+01 3.450155258178710938e+01 1.552318382263183594e+01 2.230614280700683594e+01 1.134879779815673828e+01 3.150330066680908203e+00
7.300000000000000000e+01 6.180605316162109375e+01 3.445622634887695312e+01 2.611909675598144531e+01 3.728913879394531250e+01 1.902247047424316406e+01 6.249388694763183594e+00
7.400000000000000000e+01 6.199184036254882812e+01 3.452764129638671875e+01 1.966510391235351562e+01 3.053305244445800781e+01 1.505944728851318359e+01 5.299108982086181641e+00
7.500000000000000000e+01 6.217762756347656250e+01 3.459905242919921875e+01 1.581725978851318359e+01 2.609912490844726562e+01 1.257491493225097656e+01 4.624168395996093750e+00
7.600000000000000000e+01 6.236341857910156250e+01 3.467046737670898438e+01 1.418215847015380859e+01 2.340760421752929688e+01 1.127692890167236328e+01 4.046712398529052734e+00
7.700000000000000000e+01 6.177986526489257812e+01 3.450843429565429688e+01 2.280460929870605469e+01 3.992229461669921875e+01 1.881807136535644531e+01 7.477845668792724609e+00
7.800000000000000000e+01 6.194819641113281250e+01 3.461465072631835938e+01 1.606716346740722656e+01 3.257430648803710938e+01 1.459244060516357422e+01 6.182522296905517578e+00
7.900000000000000000e+01 6.211652755737304688e+01 3.472086715698242188e+01 1.300547695159912109e+01 2.828392982482910156e+01 1.238682174682617188e+01 5.109817981719970703e+00
8.000000000000000000e+01 6.228485870361328125e+01 3.482707977294921875e+01 1.052228736877441406e+01 2.504962158203125000e+01 1.067157268524169922e+01 4.121423244476318359e+00
8.100000000000000000e+01 6.174401855468750000e+01 3.455454254150390625e+01 1.822745513916015625e+01 4.272741317749023438e+01 1.828646087646484375e+01 7.440059185028076172e+00
8.200000000000000000e+01 6.188845062255859375e+01 3.469149780273437500e+01 1.229892730712890625e+01 3.501793670654296875e+01 1.419505977630615234e+01 5.638073921203613281e+00
8.300000000000000000e+01 6.203288269042968750e+01 3.482844924926757812e+01 9.352005004882812500e+00 3.029063224792480469e+01 1.189279174804687500e+01 4.428640842437744141e+00
8.400000000000000000e+01 6.217731475830078125e+01 3.496540451049804688e+01 7.056662559509277344e+00 2.728245925903320312e+01 1.030173683166503906e+01 3.884718418121337891e+00
8.500000000000000000e+01 6.169987869262695312e+01 3.459278869628906250e+01 1.345108318328857422e+01 4.548995208740234375e+01 1.768231010437011719e+01 5.684694290161132812e+00
8.600000000000000000e+01 6.181488418579101562e+01 3.475524139404296875e+01 8.596402168273925781e+00 3.671831893920898438e+01 1.359441566467285156e+01 3.607307672500610352e+00
8.700000000000000000e+01 6.192988967895507812e+01 3.491769409179687500e+01 5.907550334930419922e+00 3.193018722534179688e+01 1.135132122039794922e+01 2.829709529876708984e+00
8.800000000000000000e+01 6.204489898681640625e+01 3.508014678955078125e+01 4.673305511474609375e+00 2.856113433837890625e+01 9.970332145690917969e+00 2.429080963134765625e+00
8.900000000000000000e+01 6.164913558959960938e+01 3.462171173095703125e+01 9.298346519470214844e+00 4.718401718139648438e+01 1.694470787048339844e+01 2.219443321228027344e+00
9.000000000000000000e+01 6.173031616210937500e+01 3.480344390869140625e+01 5.441372871398925781e+00 3.738542938232421875e+01 1.284804058074951172e+01 3.977324366569519043e-01
9.100000000000000000e+01 6.181149673461914062e+01 3.498517990112304688e+01 3.681637763977050781e+00 3.200841140747070312e+01 1.070701503753662109e+01 2.389087378978729248e-01
9.200000000000000000e+01 6.189267730712890625e+01 3.516691207885742188e+01 2.537207126617431641e+00 2.892991638183593750e+01 9.440136909484863281e+00 4.252735525369644165e-02
9.300000000000000000e+01 6.159373474121093750e+01 3.464020156860351562e+01 6.153175354003906250e+00 4.710499954223632812e+01 1.597745227813720703e+01 -2.637843132019042969e+00
9.400000000000000000e+01 6.163798141479492188e+01 3.483426284790039062e+01 3.772458314895629883e+00 3.631320571899414062e+01 1.202569961547851562e+01 -3.428166389465332031e+00
9.500000000000000000e+01 6.168222808837890625e+01 3.502832412719726562e+01 2.323077201843261719e+00 3.060726737976074219e+01 9.879103660583496094e+00 -3.168701171875000000e+00
9.600000000000000000e+01 6.172647476196289062e+01 3.522238540649414062e+01 1.675808072090148926e+00 2.717422294616699219e+01 8.655009269714355469e+00 -2.584955215454101562e+00
9.700000000000000000e+01 6.153579330444335938e+01 3.464755249023437500e+01 5.081821441650390625e+00 4.465921783447265625e+01 1.492231178283691406e+01 -7.972912311553955078e+00
9.800000000000000000e+01 6.154141616821289062e+01 3.484651565551757812e+01 3.281774520874023438e+00 3.327680969238281250e+01 1.096757507324218750e+01 -7.392909526824951172e+00
9.900000000000000000e+01 6.154703521728515625e+01 3.504547500610351562e+01 2.358494520187377930e+00 2.771361732482910156e+01 9.021633148193359375e+00 -6.425430297851562500e+00
1.000000000000000000e+02 6.155265808105468750e+01 3.524443817138671875e+01 1.603107333183288574e+00 2.369440269470214844e+01 7.589252948760986328e+00 -5.783558845520019531e+00
1.010000000000000000e+02 6.147753143310546875e+01 3.464348220825195312e+01 5.836474895477294922e+00 3.953657531738281250e+01 1.361191558837890625e+01 -1.293867301940917969e+01
1.020000000000000000e+02 6.144431304931640625e+01 3.483973312377929688e+01 4.223954200744628906e+00 2.852993774414062500e+01 9.826168060302734375e+00 -1.054524326324462891e+01
1.030000000000000000e+02 6.141109085083007812e+01 3.503598022460937500e+01 3.247721910476684570e+00 2.318973159790039062e+01 7.931236267089843750e+00 -9.090435028076171875e+00
1.040000000000000000e+02 6.137786865234375000e+01 3.523223114013671875e+01 2.340502738952636719e+00 2.012654685974121094e+01 6.740114688873291016e+00 -8.157283782958984375e+00
1.050000000000000000e+02 6.142118072509765625e+01 3.462815093994140625e+01 8.143360137939453125e+00 3.213087844848632812e+01 1.208227157592773438e+01 -1.634736251831054688e+01
1.060000000000000000e+02 6.135038757324218750e+01 3.481417465209960938e+01 6.092061996459960938e+00 2.227035903930664062e+01 8.508726119995117188e+00 -1.229845714569091797e+01
1.070000000000000000e+02 6.127959442138671875e+01 3.500020217895507812e+01 4.522092819213867188e+00 1.796857070922851562e+01 6.747198581695556641e+00 -1.042674922943115234e+01
1.080000000000000000e+02 6.120880126953125000e+01 3.518622970581054688e+01 3.787411928176879883e+00 1.559429168701171875e+01 5.814510822296142578e+00 -8.969347953796386719e+00
1.090000000000000000e+02 6.136888885498046875e+01 3.460213851928710938e+01 1.130020904541015625e+01 2.330278968811035156e+01 1.038089942932128906e+01 -1.723593330383300781e+01
1.100000000000000000e+02 6.126323318481445312e+01 3.477082061767578125e+01 7.866027832031250000e+00 1.530597972869873047e+01 6.951602458953857422e+00 -1.238125419616699219e+01
1.110000000000000000e+02 6.115757751464843750e+01 3.493950653076171875e+01 6.012873649597167969e+00 1.233517742156982422e+01 5.504415035247802734e+00 -9.772028923034667969e+00
1.120000000000000000e+02 6.105192184448242188e+01 3.510819244384765625e+01 4.667703628540039062e+00 1.075483608245849609e+01 4.626761913299560547e+00 -8.581952095031738281e+00
1.130000000000000000e+02 6.132265853881835938e+01 3.456644058227539062e+01 1.384552192687988281e+01 1.370931625366210938e+01 8.266451835632324219e+00 -1.552957153320312500e+01
1.140000000000000000e+02 6.118618774414062500e+01 3.471133041381835938e+01 8.776329994201660156e+00 8.820193290710449219e+00 5.278956890106201172e+00 -1.009079265594482422e+01
1.150000000000000000e+02 6.104971313476562500e+01 3.485622024536132812e+01 6.575613021850585938e+00 7.081206798553466797e+00 4.097045898437500000e+00 -8.013538360595703125e+00
1.160000000000000000e+02 6.091324234008789062e+01 3.500110626220703125e+01 4.997344017028808594e+00 6.272043704986572266e+00 3.380816459655761719e+00 -6.481184005737304688e+00
1.170000000000000000e+02 6.128426742553710938e+01 3.452243041992187500e+01 1.388282299041748047e+01 5.491165637969970703e+00 5.812196731567382812e+00 -1.090660476684570312e+01
1.180000000000000000e+02 6.112219619750976562e+01 3.463797760009765625e+01 8.105244636535644531e+00 3.188817739486694336e+00 3.388218641281127930e+00 -6.452462196350097656e+00
1.190000000000000000e+02 6.096012878417968750e+01 3.475352478027343750e+01 5.144728660583496094e+00 3.513093233108520508e+00 2.597346544265747070e+00 -4.754760265350341797e+00
1.200000000000000000e+02 6.079806137084960938e+01 3.486907196044921875e+01 4.206110954284667969e+00 3.017055273056030273e+00 2.166949748992919922e+00 -4.545257568359375000e+00
1.210000000000000000e+02 6.125517272949218750e+01 3.447178649902343750e+01 1.065717411041259766e+01 -1.747329950332641602e+00 2.672953128814697266e+00 -4.010400295257568359e+00
1.220000000000000000e+02 6.107371139526367188e+01 3.455357360839843750e+01 3.437127113342285156e+00 1.073897242546081543e+00 1.353307366371154785e+00 -1.970024228096008301e+00
1.230000000000000000e+02 6.089225006103515625e+01 3.463535690307617188e+01 2.844607353210449219e+00 1.375077128410339355e+00 1.265905380249023438e+00 -2.612577915191650391e+00
1.240000000000000000e+02 6.071078872680664062e+01 3.471714019775390625e+01 1.641975760459899902e+00 8.067027330398559570e-01 7.346035242080688477e-01 -1.679130911827087402e+00
1.250000000000000000e+02 6.123649978637695312e+01 3.441645050048828125e+01 -3.006577968597412109e+00 -3.080251455307006836e+00 -1.826048851013183594e+00 2.638141870498657227e+00
1.260000000000000000e+02 6.104258728027343750e+01 3.446134185791015625e+01 -2.459590137004852295e-01 1.074976086616516113e+00 2.487051188945770264e-01 -7.454013228416442871e-01
1.270000000000000000e+02 6.084867477416992188e+01 3.450623321533203125e+01 -1.577889680862426758e+00 -2.883799374103546143e-01 -5.598809123039245605e-01 1.129046455025672913e-01
1.280000000000000000e+02 6.065476226806640625e+01 3.455112457275390625e+01 -2.055564880371093750e+00 1.328737586736679077e-01 -5.768073201179504395e-01 4.918547347187995911e-02
1.290000000000000000e+02 5.691049194335937500e+01 3.371953582763671875e+01 -6.111281514167785645e-01 1.632412523031234741e-01 -1.343660801649093628e-01 -1.218138709664344788e-01
1.300000000000000000e+02 5.658882522583007812e+01 3.460900115966796875e+01 -1.940626263618469238e+00 1.782128587365150452e-02 -5.768414735794067383e-01 8.388450741767883301e-02
1.310000000000000000e+02 5.825450897216796875e+01 3.361340713500976562e+01 4.083549976348876953e-02 7.060442119836807251e-02 3.343197703361511230e-02 3.642051517963409424e-01
1.320000000000000000e+02 5.566596603393554688e+01 3.400065612792968750e+01 -8.831477165222167969e-01 1.709073036909103394e-01 -2.136721163988113403e-01 -3.370764851570129395e-01
1.330000000000000000e+02 5.812232971191406250e+01 3.339734649658203125e+01 5.187841057777404785e-01 2.230817079544067383e-01 2.225597500801086426e-01 4.614032506942749023e-01
1.340000000000000000e+02 5.836254501342773438e+01 3.415291595458984375e+01 -1.520172595977783203e+00 1.389242708683013916e-01 -4.143745005130767822e-01 9.383299201726913452e-02
1.350000000000000000e+02 5.633504486083984375e+01 3.389831924438476562e+01 -8.495441079139709473e-01 1.438386291265487671e-01 -2.117116451263427734e-01 -2.231908291578292847e-01
1.360000000000000000e+02 5.585787963867187500e+01 3.472041702270507812e+01 -1.561822533607482910e+00 1.829183846712112427e-02 -4.630591869354248047e-01 2.944742143154144287e-02
1.370000000000000000e+02 5.833737182617187500e+01 3.378998565673828125e+01 -3.863564133644104004e-01 9.592024236917495728e-02 -8.713085204362869263e-02 2.757330536842346191e-01
1.380000000000000000e+02 5.816484832763671875e+01 3.408420562744140625e+01 -1.321027636528015137e+00 1.265871524810791016e-01 -3.583321571350097656e-01 1.424196660518646240e-01
1.390000000000000000e+02 5.728594970703125000e+01 3.401403427124023438e+01 -1.090959548950195312e+00 7.517083734273910522e-02 -3.047365844249725342e-01 -1.509359199553728104e-02
1.400000000000000000e+02 5.833345413208007812e+01 3.435765457153320312e+01 -2.164200544357299805e+00 1.591888964176177979e-01 -6.015034914016723633e-01 1.391325443983078003e-01
1.410000000000000000e+02 5.780500030517578125e+01 3.365462112426757812e+01 -1.761010885238647461e-01 1.570327579975128174e-01 -5.720498040318489075e-03 1.963047832250595093e-01
1.420000000000000000e+02 5.783145523071289062e+01 3.442582321166992188e+01 -2.381253480911254883e+00 -1.776411011815071106e-02 -7.197052836418151855e-01 1.348165273666381836e-01
1.430000000000000000e+02 5.821997451782226562e+01 3.390980529785156250e+01 -8.413310050964355469e-01 8.271989971399307251e-02 -2.275833338499069214e-01 1.801042407751083374e-01
1.440000000000000000e+02 5.836912918090820312e+01 3.396259307861328125e+01 -9.024248123168945312e-01 1.134231388568878174e-01 -2.367005050182342529e-01 1.188334822654724121e-01
1.450000000000000000e+02 5.771958160400390625e+01 3.403975296020507812e+01 -1.303988218307495117e+00 -7.124928291887044907e-03 -3.933339416980743408e-01 1.193812638521194458e-01
1.460000000000000000e+02 5.739971542358398438e+01 3.358338928222656250e+01 -1.905614435672760010e-01 2.585137188434600830e-01 2.038568258285522461e-02 4.735138267278671265e-02
1.470000000000000000e+02 5.806959915161132812e+01 3.424303817749023438e+01 -1.862198710441589355e+00 1.370669603347778320e-01 -5.175395607948303223e-01 1.361522227525711060e-01
1.480000000000000000e+02 5.731355285644531250e+01 3.454404067993164062e+01 -2.302990436553955078e+00 5.532749928534030914e-03 -6.892372965812683105e-01 1.346719264984130859e-01
1.490000000000000000e+02 5.805368423461914062e+01 3.379894638061523438e+01 -5.511209368705749512e-01 3.598696365952491760e-02 -1.545401960611343384e-01 2.811301648616790771e-01
1.500000000000000000e+02 5.824277114868164062e+01 3.460693359375000000e+01 -3.015908479690551758e+00 5.229733884334564209e-02 -8.890833258628845215e-01 3.013157546520233154e-01
1.510000000000000000e+02 5.798354721069335938e+01 3.403451538085937500e+01 -1.284672617912292480e+00 7.006260007619857788e-02 -3.643829822540283203e-01 2.101229429244995117e-01
1.520000000000000000e+02 6.027535247802734375e+01 3.314259719848632812e+01 4.944845199584960938e+00 4.341141223907470703e+00 2.785795927047729492e+00 5.390651226043701172e+00
1.530000000000000000e+02 6.153860092163085938e+01 3.331928253173828125e+01 3.448519468307495117e+00 2.276105499267578125e+01 7.862872600555419922e+00 6.783018589019775391e+00
1.540000000000000000e+02 6.248870849609375000e+01 3.387628173828125000e+01 1.190649986267089844e+01 2.215568161010742188e+01 1.021865463256835938e+01 -2.501388072967529297e+00
1.550000000000000000e+02 6.278071212768554688e+01 3.424269866943359375e+01 1.150137233734130859e+01 1.940815734863281250e+01 9.272858619689941406e+00 5.866929888725280762e-01
1.560000000000000000e+02 6.260713195800781250e+01 3.453904724121093750e+01 1.447978115081787109e+01 2.088375091552734375e+01 1.060905933380126953e+01 2.960999488830566406e+00
1.570000000000000000e+02 6.240311813354492188e+01 3.504035568237304688e+01 7.244626522064208984e+00 2.370564651489257812e+01 9.285081863403320312e+00 3.789499998092651367e+00
1.580000000000000000e+02 6.113906478881835938e+01 3.540959548950195312e+01 2.556844949722290039e+00 1.402314662933349609e+01 4.973997592926025391e+00 -7.999564647674560547e+00
1.590000000000000000e+02 5.866458892822265625e+01 3.482979202270507812e+01 -3.749801635742187500e+00 -2.134510129690170288e-01 -1.188975811004638672e+00 3.974142074584960938e-01
1.600000000000000000e+02 6.179021072387695312e+01 3.303075408935546875e+01 2.139569759368896484e+00 2.169760131835937500e+01 7.151151180267333984e+00 4.535241603851318359e+00
1.610000000000000000e+02 6.111275863647460938e+01 3.302798843383789062e+01 3.887353420257568359e+00 1.429153251647949219e+01 5.453665733337402344e+00 8.008206367492675781e+00
1.620000000000000000e+02 5.962767791748046875e+01 3.443157958984375000e+01 -3.291999578475952148e+00 -5.288698896765708923e-02 -1.003466010093688965e+00 3.599019348621368408e-01
1.630000000000000000e+02 5.846688461303710938e+01 3.332663726806640625e+01 1.045176386833190918e+00 5.227921605110168457e-01 4.703905582427978516e-01 8.516212701797485352e-01
1.640000000000000000e+02 5.960975265502929688e+01 3.416037750244140625e+01 -1.044307827949523926e+00 4.364587366580963135e-02 -3.001985847949981689e-01 4.444040954113006592e-01
1.650000000000000000e+02 6.184741592407226562e+01 3.319518661499023438e+01 2.727819681167602539e+00 2.449051284790039062e+01 8.165499687194824219e+00 3.506400108337402344e+00
1.660000000000000000e+02 6.089442825317382812e+01 3.326147842407226562e+01 5.711838245391845703e+00 1.017907333374023438e+01 4.767273426055908203e+00 8.208611488342285156e+00
1.670000000000000000e+02 6.049435043334960938e+01 3.395861816406250000e+01 3.928182840347290039e+00 5.538550019264221191e-01 1.344611406326293945e+00 2.435624361038208008e+00
1.680000000000000000e+02 5.897035217285156250e+01 3.428464508056640625e+01 -2.128940582275390625e+00 3.516381233930587769e-02 -6.281329989433288574e-01 2.419192492961883545e-01
1.690000000000000000e+02 5.883514022827148438e+01 3.608451461791992188e+01 4.151383042335510254e-01 1.115117907524108887e+00 4.590768814086914062e-01 -9.465215206146240234e-01
1.700000000000000000e+02 5.926184844970703125e+01 3.478350067138671875e+01 -3.539662122726440430e+00 3.850055113434791565e-02 -1.050348520278930664e+00 4.359013736248016357e-01
1.710000000000000000e+02 6.063163757324218750e+01 3.584570693969726562e+01 2.380078792572021484e+00 7.391714572906494141e+00 2.931538105010986328e+00 -5.783689022064208984e+00
1.720000000000000000e+02 6.140727615356445312e+01 3.573018264770507812e+01 3.557552099227905273e-01 1.823439788818359375e+01 5.577045917510986328e+00 -6.240392208099365234e+00
1.730000000000000000e+02 5.888629531860351562e+01 3.523163986206054688e+01 -1.646030426025390625e+00 9.253909438848495483e-02 -4.660473763942718506e-01 1.476407051086425781e-01
1.740000000000000000e+02 5.982165527343750000e+01 3.593240356445312500e+01 1.711140394210815430e+00 2.921838521957397461e+00 1.389893651008605957e+00 -3.044097661972045898e+00
1.750000000000000000e+02 5.986575317382812500e+01 3.470323181152343750e+01 -3.206340789794921875e+00 -7.283572852611541748e-02 -9.837529659271240234e-01 3.115002214908599854e-01
1.760000000000000000e+02 6.062275314331054688e+01 3.498778152465820312e+01 3.064091205596923828e+00 2.541738510131835938e+00 1.681748986244201660e+00 -3.623793840408325195e+00
1.770000000000000000e+02 6.046089172363281250e+01 3.459407043457031250e+01 -2.424344778060913086e+00 3.279566532000899315e-03 -7.263195514678955078e-01 1.903071403503417969e-01
1.780000000000000000e+02 6.260886764526367188e+01 3.432509994506835938e+01 1.306231117248535156e+01 2.081955337524414062e+01 1.016455936431884766e+01 1.296937704086303711e+00
1.790000000000000000e+02 6.228012466430664062e+01 3.524705886840820312e+01 4.935625553131103516e+00 2.485342597961425781e+01 8.936715126037597656e+00 2.750665426254272461e+00
1.800000000000000000e+02 6.206216430664062500e+01 3.559675979614257812e+01 8.067727088928222656e-01 2.352767944335937500e+01 7.300335884094238281e+00 -7.528438568115234375e-01
1.810000000000000000e+02 6.043441772460937500e+01 3.437233352661132812e+01 -3.010931253433227539e+00 -1.612123996019363403e-01 -9.516431093215942383e-01 3.406090736389160156e-01
1.820000000000000000e+02 6.003562927246093750e+01 3.439817428588867188e+01 -3.194424867630004883e+00 -8.167736977338790894e-02 -9.828307032585144043e-01 3.780196607112884521e-01
1.830000000000000000e+02 6.069552993774414062e+01 3.358684539794921875e+01 6.799621582031250000e+00 4.835483551025390625e+00 3.490531682968139648e+00 6.782876968383789062e+00
1.840000000000000000e+02 6.115447998046875000e+01 3.329816818237304688e+01 5.135661125183105469e+00 1.469487857818603516e+01 5.949162006378173828e+00 9.374278068542480469e+00
1.850000000000000000e+02 6.166517639160156250e+01 3.327899551391601562e+01 3.201436281204223633e+00 2.424942779541015625e+01 8.235259056091308594e+00 5.143783569335937500e+00
1.860000000000000000e+02 6.237890625000000000e+01 3.373348617553710938e+01 1.012592220306396484e+01 2.369386100769042969e+01 1.014593505859375000e+01 -2.132950305938720703e+00
1.870000000000000000e+02 5.878556442260742188e+01 3.433685302734375000e+01 -2.361447811126708984e+00 -7.792939990758895874e-02 -7.318131923675537109e-01 2.826637625694274902e-01
1.880000000000000000e+02 5.863114547729492188e+01 3.457934951782226562e+01 -3.359483957290649414e+00 -2.326024770736694336e-01 -1.077625989913940430e+00 4.191277325153350830e-01
1.890000000000000000e+02 6.263895034790039062e+01 3.491981887817382812e+01 8.687875747680664062e+00 2.126513671875000000e+01 8.985903739929199219e+00 3.852669477462768555e+00
1.900000000000000000e+02 6.119313812255859375e+01 3.578462219238281250e+01 1.548703312873840332e+00 1.480557918548583984e+01 4.906284809112548828e+00 -6.534151077270507812e+00
1.910000000000000000e+02 6.021836853027343750e+01 3.589215850830078125e+01 1.877312064170837402e+00 4.972753047943115234e+00 2.055019617080688477e+00 -4.238330841064453125e+00
1.920000000000000000e+02 6.093707656860351562e+01 3.529456710815429688e+01 3.778505563735961914e+00 9.495124816894531250e+00 3.982089042663574219e+00 -7.265493392944335938e+00
1.930000000000000000e+02 6.251374816894531250e+01 3.525291442871093750e+01 6.088106155395507812e+00 2.195367050170898438e+01 8.412532806396484375e+00 3.578557491302490234e+00
1.940000000000000000e+02 6.174545288085937500e+01 3.550630569458007812e+01 9.664843082427978516e-01 2.311464118957519531e+01 7.224337577819824219e+00 -3.077435731887817383e+00
1.950000000000000000e+02 6.158789825439453125e+01 3.542634963989257812e+01 1.407369732856750488e+00 2.192488479614257812e+01 6.999676227569580078e+00 -4.787857532501220703e+00
1.960000000000000000e+02 6.283425521850585938e+01 3.455467987060546875e+01 1.200831317901611328e+01 1.879199790954589844e+01 9.240093231201171875e+00 2.378229379653930664e+00
1.970000000000000000e+02 6.176453781127929688e+01 3.537708282470703125e+01 1.243294835090637207e+00 2.557827758789062500e+01 8.046471595764160156e+00 -2.703232526779174805e+00
1.980000000000000000e+02 6.166147994995117188e+01 3.571392059326171875e+01 7.089192867279052734e-01 1.915769195556640625e+01 5.959983348846435547e+00 -4.087667942047119141e+00
1.990000000000000000e+02 6.138032150268554688e+01 3.545817947387695312e+01 1.660908818244934082e+00 1.835247421264648438e+01 6.004014968872070312e+00 -7.145865917205810547e+00
2.000000000000000000e+02 6.011765289306640625e+01 3.490452957153320312e+01 -3.422610163688659668e-01 4.093413054943084717e-01 2.012408711016178131e-02 -8.620398044586181641e-01
2.010000000000000000e+02 6.223476028442382812e+01 3.357460021972656250e+01 7.555785179138183594e+00 2.622506523132324219e+01 1.013425540924072266e+01 -1.997116684913635254e+00
2.020000000000000000e+02 6.270886993408203125e+01 3.373843002319335938e+01 1.034651756286621094e+01 2.020559310913085938e+01 9.165633201599121094e+00 -2.167809724807739258e+00
2.030000000000000000e+02 6.270536422729492188e+01 3.404645156860351562e+01 1.211629486083984375e+01 2.022539329528808594e+01 9.702507019042968750e+00 -1.158119916915893555e+00
2.040000000000000000e+02 6.226250457763671875e+01 3.343790054321289062e+01 6.223631858825683594e+00 2.461043167114257812e+01 9.250218391418457031e+00 -1.037648558616638184e+00
2.050000000000000000e+02 6.234431457519531250e+01 3.328129196166992188e+01 4.935966491699218750e+00 2.268283843994140625e+01 8.285641670227050781e+00 -1.154528260231018066e+00
2.060000000000000000e+02 6.206020355224609375e+01 3.345879364013671875e+01 6.022955894470214844e+00 2.568546867370605469e+01 9.512527465820312500e+00 -1.984741985797882080e-01
2.070000000000000000e+02 6.137008666992187500e+01 3.329000854492187500e+01 4.069020748138427734e+00 1.900629615783691406e+01 6.922595024108886719e+00 8.115521430969238281e+00
2.080000000000000000e+02 6.024766921997070312e+01 3.415264892578125000e+01 1.980047971010208130e-01 -2.969878166913986206e-02 5.049180611968040466e-02 7.830110788345336914e-01
2.090000000000000000e+02 6.083087921142578125e+01 3.583878326416015625e+01 2.081494331359863281e+00 9.998353004455566406e+00 3.623954296112060547e+00 -6.021614551544189453e+00
2.100000000000000000e+02 5.922995758056640625e+01 3.602281951904296875e+01 7.741075158119201660e-01 1.774781823158264160e+00 7.646667957305908203e-01 -1.543053388595581055e+00
2.110000000000000000e+02 5.962448883056640625e+01 3.595871353149414062e+01 1.419319868087768555e+00 2.575505733489990234e+00 1.198447704315185547e+00 -2.552583217620849609e+00
2.120000000000000000e+02 5.919405364990234375e+01 3.578782653808593750e+01 3.661812245845794678e-01 1.162985920906066895e+00 4.587501585483551025e-01 -1.042753458023071289e+00
2.130000000000000000e+02 6.042380905151367188e+01 3.586269760131835938e+01 2.292880296707153320e+00 5.950908660888671875e+00 2.473136663436889648e+00 -5.074494361877441406e+00
2.140000000000000000e+02 5.887623977661132812e+01 3.502610015869140625e+01 -2.695242404937744141e+00 -7.464501261711120605e-02 -8.309662342071533203e-01 3.140435516834259033e-01
2.150000000000000000e+02 5.966608810424804688e+01 3.474156188964843750e+01 -3.345932483673095703e+00 3.796288743615150452e-02 -9.923908710479736328e-01 3.677816689014434814e-01
2.160000000000000000e+02 5.953839874267578125e+01 3.538961410522460938e+01 1.277773641049861908e-02 7.456092238426208496e-01 2.275160849094390869e-01 -1.007495880126953125e+00
2.170000000000000000e+02 6.006506347656250000e+01 3.466625595092773438e+01 -3.001538515090942383e+00 7.590854167938232422e-02 -8.776890039443969727e-01 2.716383934020996094e-01
2.180000000000000000e+02 6.052544784545898438e+01 3.479497528076171875e+01 9.201301336288452148e-01 7.741015553474426270e-01 5.082694888114929199e-01 -1.541527628898620605e+00
2.190000000000000000e+02 6.032486724853515625e+01 3.486739349365234375e+01 2.810239791870117188e-01 5.837381482124328613e-01 2.594286203384399414e-01 -1.118660926818847656e+00
2.200000000000000000e+02 5.942263793945312500e+01 3.445220947265625000e+01 -3.307235002517700195e+00 -2.541023492813110352e-02 -9.997935891151428223e-01 3.632602691650390625e-01
2.210000000000000000e+02 5.852410507202148438e+01 3.375504684448242188e+01 -1.811058223247528076e-01 1.784548312425613403e-01 -7.952977903187274933e-04 3.233981728553771973e-01
2.220000000000000000e+02 5.983261108398437500e+01 3.441423416137695312e+01 -3.256447315216064453e+00 -6.339317187666893005e-04 -9.771243333816528320e-01 3.805007338523864746e-01
2.230000000000000000e+02 5.882748794555664062e+01 3.455136108398437500e+01 -3.319623947143554688e+00 3.479387983679771423e-02 -9.854490160942077637e-01 3.538439869880676270e-01
2.240000000000000000e+02 5.859832763671875000e+01 3.436948013305664062e+01 -2.373683214187622070e+00 -1.667609810829162598e-01 -7.621333003044128418e-01 2.384618371725082397e-01
2.250000000000000000e+02 5.856480789184570312e+01 3.416367340087890625e+01 -1.575700879096984863e+00 2.581353113055229187e-02 -4.649662077426910400e-01 7.167664915323257446e-02
2.260000000000000000e+02 5.943714904785156250e+01 3.341486740112304688e+01 2.397674560546875000e+00 7.994168996810913086e-01 9.591274261474609375e-01 1.862679481506347656e+00
2.270000000000000000e+02 5.964966583251953125e+01 3.318983840942382812e+01 3.431453943252563477e+00 1.643400073051452637e+00 1.522456288337707520e+00 2.915387630462646484e+00
2.280000000000000000e+02 6.069908905029296875e+01 3.307385253906250000e+01 5.386221408843994141e+00 8.023503303527832031e+00 4.022917270660400391e+00 7.596284389495849609e+00
2.290000000000000000e+02 6.050075149536132812e+01 3.312310791015625000e+01 5.199501037597656250e+00 5.827282428741455078e+00 3.308035135269165039e+00 6.371608257293701172e+00
2.300000000000000000e+02 6.088463592529296875e+01 3.303661346435546875e+01 4.863035678863525391e+00 1.114034080505371094e+01 4.801012992858886719e+00 8.004848480224609375e+00
2.310000000000000000e+02 6.032399749755859375e+01 3.342477798461914062e+01 5.339778900146484375e+00 3.078028202056884766e+00 2.525342226028442383e+00 4.842089176177978516e+00
2.320000000000000000e+02 5.985338973999023438e+01 3.317526245117187500e+01 3.918674707412719727e+00 2.233017444610595703e+00 1.845507621765136719e+00 3.509575366973876953e+00
2.330000000000000000e+02 5.908406448364257812e+01 3.324707412719726562e+01 2.120393753051757812e+00 7.758395075798034668e-01 8.688699603080749512e-01 1.578040122985839844e+00
2.340000000000000000e+02 5.964615249633789062e+01 3.342530822753906250e+01 2.920012712478637695e+00 1.034636855125427246e+00 1.186394810676574707e+00 2.211733579635620117e+00
2.350000000000000000e+02 6.082110595703125000e+01 3.344844818115234375e+01 6.810038089752197266e+00 8.210759162902832031e+00 4.506239414215087891e+00 8.481583595275878906e+00
2.360000000000000000e+02 5.867486953735351562e+01 3.331020355224609375e+01 1.230261206626892090e+00 4.915613234043121338e-01 5.165467858314514160e-01 9.289716482162475586e-01
2.370000000000000000e+02 5.871163940429687500e+01 3.524998855590820312e+01 -1.761919498443603516e+00 -9.117879904806613922e-03 -5.313112139701843262e-01 3.141389787197113037e-01
2.380000000000000000e+02 5.906027221679687500e+01 3.479365539550781250e+01 -3.599494457244873047e+00 -1.238558441400527954e-01 -1.117005109786987305e+00 4.489766359329223633e-01
2.390000000000000000e+02 5.873912429809570312e+01 3.545701599121093750e+01 -1.010323047637939453e+00 2.430451065301895142e-01 -2.301833927631378174e-01 1.306701917201280594e-02
2.400000000000000000e+02 5.877156829833984375e+01 3.566381454467773438e+01 -4.917154610157012939e-01 4.265701174736022949e-01 -1.954360306262969971e-02 -1.681903451681137085e-01
2.410000000000000000e+02 5.874114227294921875e+01 3.376921463012695312e+01 1.722242124378681183e-02 2.178500443696975708e-01 7.052174210548400879e-02 4.614465832710266113e-01
2.420000000000000000e+02 5.871572494506835938e+01 3.354011535644531250e+01 7.580401301383972168e-01 3.935185074806213379e-01 3.454675972461700439e-01 7.609708309173583984e-01
2.430000000000000000e+02 5.889095306396484375e+01 3.329396438598632812e+01 1.667729616165161133e+00 7.073598504066467285e-01 7.125268578529357910e-01 1.290758728981018066e+00
2.440000000000000000e+02 5.902379989624023438e+01 3.451823425292968750e+01 -3.312948465347290039e+00 -7.828654348850250244e-02 -1.017370462417602539e+00 3.648677170276641846e-01
2.450000000000000000e+02 6.023656463623046875e+01 3.438391494750976562e+01 -3.102339029312133789e+00 2.129483036696910858e-02 -9.243133068084716797e-01 3.925953209400177002e-01
2.460000000000000000e+02 6.001950073242187500e+01 3.591129684448242188e+01 1.801615238189697266e+00 3.605195999145507812e+00 1.622043371200561523e+00 -3.417134046554565430e+00
2.470000000000000000e+02 5.899794769287109375e+01 3.583539199829101562e+01 2.333230674266815186e-01 9.187483191490173340e-01 3.456214070320129395e-01 -8.417794704437255859e-01
2.480000000000000000e+02 5.903223419189453125e+01 3.605497741699218750e+01 4.339673817157745361e-01 1.321341156959533691e+00 5.265925526618957520e-01 -1.116742610931396484e+00
2.490000000000000000e+02 5.946405410766601562e+01 3.476862335205078125e+01 -3.457499027252197266e+00 -9.155050665140151978e-02 -1.064714908599853516e+00 3.842445015907287598e-01
2.500000000000000000e+02 5.937904739379882812e+01 3.388525390625000000e+01 3.421022593975067139e-01 1.811629980802536011e-01 1.569795757532119751e-01 7.417007088661193848e-01
2.510000000000000000e+02 5.961182022094726562e+01 3.390174102783203125e+01 6.908035874366760254e-01 1.528415232896804810e-01 2.530935406684875488e-01 8.730590939521789551e-01
2.520000000000000000e+02 5.925741958618164062e+01 3.320796203613281250e+01 2.624760150909423828e+00 1.011952996253967285e+00 1.091013908386230469e+00 1.972918987274169922e+00
2.530000000000000000e+02 6.056863021850585938e+01 3.375270843505859375e+01 6.174562931060791016e+00 2.516960382461547852e+00 2.607456922531127930e+00 4.829000473022460938e+00
2.540000000000000000e+02 5.915500259399414062e+01 3.381753921508789062e+01 2.604599297046661377e-01 1.500984877347946167e-01 1.231675297021865845e-01 6.376296281814575195e-01
2.550000000000000000e+02 6.076477432250976562e+01 3.515398406982421875e+01 3.993285179138183594e+00 5.370686531066894531e+00 2.809191465377807617e+00 -6.007333278656005859e+00
2.560000000000000000e+02 6.044919586181640625e+01 3.416420745849609375e+01 9.301173686981201172e-01 1.613283753395080566e-01 3.274337053298950195e-01 1.028948187828063965e+00
2.570000000000000000e+02 6.027728652954101562e+01 3.392182159423828125e+01 3.028779745101928711e+00 6.302793622016906738e-01 1.097717761993408203e+00 2.025643587112426758e+00
2.580000000000000000e+02 6.031957626342773438e+01 3.368334579467773438e+01 4.810766696929931641e+00 1.750151038169860840e+00 1.968275308609008789e+00 3.547014236450195312e+00
2.590000000000000000e+02 5.880464553833007812e+01 3.587265396118164062e+01 -9.995682537555694580e-02 1.025893330574035645e+00 2.777809202671051025e-01 -6.530910730361938477e-01
2.600000000000000000e+02 6.027231216430664062e+01 3.520441055297851562e+01 1.823568344116210938e+00 1.877781629562377930e+00 1.110404968261718750e+00 -2.668634176254272461e+00
2.610000000000000000e+02 5.939157867431640625e+01 3.573208618164062500e+01 6.482657194137573242e-01 1.361651539802551270e+00 6.029751896858215332e-01 -1.429393649101257324e+00
2.620000000000000000e+02 5.949447631835937500e+01 3.507663345336914062e+01 -1.373280763626098633e+00 3.321715593338012695e-01 -3.123327493667602539e-01 -2.286384850740432739e-01
2.630000000000000000e+02 6.006142807006835938e+01 3.315963363647460938e+01 4.570352554321289062e+00 3.022227287292480469e+00 2.277773857116699219e+00 4.446734905242919922e+00
2.640000000000000000e+02 5.962955856323242188e+01 3.365868377685546875e+01 2.054771423339843750e+00 5.280012488365173340e-01 7.748318314552307129e-01 1.575185775756835938e+00
2.650000000000000000e+02 5.906960296630859375e+01 3.502736282348632812e+01 -2.423952579498291016e+00 8.642368763685226440e-02 -7.012586593627929688e-01 2.256505191326141357e-01
2.660000000000000000e+02 6.042156219482421875e+01 3.507710266113281250e+01 2.143841028213500977e+00 2.073047637939453125e+00 1.265066623687744141e+00 -3.026854515075683594e+00
2.670000000000000000e+02 5.888137054443359375e+01 3.407682037353515625e+01 -1.154942631721496582e+00 -1.160144060850143433e-02 -3.499632179737091064e-01 2.926146984100341797e-01
2.680000000000000000e+02 5.932944869995117188e+01 3.547193145751953125e+01 -1.962267160415649414e-01 7.758535742759704590e-01 1.738880574703216553e-01 -7.707311511039733887e-01
2.690000000000000000e+02 5.999787139892578125e+01 3.564344406127929688e+01 1.815128207206726074e+00 2.726742267608642578e+00 1.362561225891113281e+00 -3.101313352584838867e+00
2.700000000000000000e+02 5.917855834960937500e+01 3.357958602905273438e+01 1.327776074409484863e+00 4.092402160167694092e-01 5.211048722267150879e-01 1.125668168067932129e+00
2.710000000000000000e+02 5.985856246948242188e+01 3.342655944824218750e+01 3.587349891662597656e+00 1.404873013496398926e+00 1.497666835784912109e+00 2.857989311218261719e+00
2.720000000000000000e+02 6.003969955444335938e+01 3.415142440795898438e+01 -3.377378582954406738e-01 1.089572235941886902e-01 -6.863419711589813232e-02 6.580611467361450195e-01
2.730000000000000000e+02 6.005617904663085938e+01 3.391011047363281250e+01 2.062802553176879883e+00 3.649725019931793213e-01 7.283325195312500000e-01 1.455662369728088379e+00
2.740000000000000000e+02 6.248181533813476562e+01 3.368082046508789062e+01 1.003395557403564453e+01 2.209157180786132812e+01 9.637658119201660156e+00 -2.360592603683471680e+00
2.750000000000000000e+02 5.849916076660156250e+01 3.354247665405273438e+01 4.230019748210906982e-01 3.488757014274597168e-01 2.315632998943328857e-01 5.593471527099609375e-01
2.760000000000000000e+02 5.894112014770507812e+01 3.354008483886718750e+01 1.021610736846923828e+00 3.831363022327423096e-01 4.214240908622741699e-01 8.870945572853088379e-01
2.770000000000000000e+02 5.873035049438476562e+01 3.397024154663085938e+01 -7.069330811500549316e-01 8.336965739727020264e-02 -1.870690286159515381e-01 1.875262707471847534e-01
2.780000000000000000e+02 5.922658157348632812e+01 3.337824630737304688e+01 2.040116310119628906e+00 7.009810805320739746e-01 8.223292231559753418e-01 1.571024179458618164e+00
2.790000000000000000e+02 5.944898605346679688e+01 3.320214462280273438e+01 2.942222833633422852e+00 1.266141891479492188e+00 1.262509346008300781e+00 2.333860397338867188e+00
2.800000000000000000e+02 6.008056259155273438e+01 3.342518615722656250e+01 4.300130367279052734e+00 1.977064847946166992e+00 1.883158564567565918e+00 3.559781312942504883e+00
2.810000000000000000e+02 5.854165267944335938e+01 3.396112823486328125e+01 -7.985893487930297852e-01 9.682747721672058105e-02 -2.105285525321960449e-01 1.618568599224090576e-01
2.820000000000000000e+02 6.056878280639648438e+01 3.339450836181640625e+01 6.132923126220703125e+00 5.260188102722167969e+00 3.417933464050292969e+00 6.247166156768798828e+00
2.830000000000000000e+02 6.136603164672851562e+01 3.299765014648437500e+01 2.852216005325317383e+00 1.731659507751464844e+01 6.050643444061279297e+00 6.821639537811279297e+00
2.840000000000000000e+02 6.203157806396484375e+01 3.331994247436523438e+01 4.542710304260253906e+00 2.437752151489257812e+01 8.676069259643554688e+00 1.441261887550354004e+00
2.850000000000000000e+02 6.186040115356445312e+01 3.329648208618164062e+01 3.118886947631835938e+00 2.583317375183105469e+01 8.685618400573730469e+00 3.160381078720092773e+00
2.860000000000000000e+02 5.895484924316406250e+01 3.562617111206054688e+01 -3.584733009338378906e-01 7.264077663421630859e-01 1.103803366422653198e-01 -4.913364052772521973e-01
2.870000000000000000e+02 5.942757034301757812e+01 3.598964309692382812e+01 1.114090085029602051e+00 2.209986925125122070e+00 9.972231388092041016e-01 -2.056725502014160156e+00
2.880000000000000000e+02 5.907597351074218750e+01 3.538712692260742188e+01 -7.068035602569580078e-01 4.290590882301330566e-01 -8.332335203886032104e-02 -2.970871329307556152e-01
2.890000000000000000e+02 5.979336547851562500e+01 3.565284347534179688e+01 1.376974344253540039e+00 2.061232089996337891e+00 1.031461954116821289e+00 -2.442318439483642578e+00
2.900000000000000000e+02 6.000119400024414062e+01 3.536568069458007812e+01 1.336880445480346680e+00 1.644310951232910156e+00 8.943573832511901855e-01 -2.197782039642333984e+00
2.910000000000000000e+02 5.905501174926757812e+01 3.522462081909179688e+01 -1.608018517494201660e+00 9.136591851711273193e-02 -4.549957811832427979e-01 8.799419552087783813e-02
2.920000000000000000e+02 5.868850326538085938e+01 3.504099655151367188e+01 -2.612435579299926758e+00 -9.873468428850173950e-02 -8.133510947227478027e-01 3.584751486778259277e-01
2.930000000000000000e+02 5.886099243164062500e+01 3.480898666381835938e+01 -3.636302947998046875e+00 2.592912875115871429e-02 -1.083112120628356934e+00 4.820226728916168213e-01
2.940000000000000000e+02 5.927423095703125000e+01 3.506239318847656250e+01 -1.858652353286743164e+00 9.563311189413070679e-02 -5.289057493209838867e-01 2.029223367571830750e-02
2.950000000000000000e+02 5.972480010986328125e+01 3.504202651977539062e+01 -9.780158400535583496e-01 2.761903107166290283e-01 -2.105476558208465576e-01 -4.895080029964447021e-01
2.960000000000000000e+02 6.026472473144531250e+01 3.463297653198242188e+01 -2.742308855056762695e+00 -5.561654269695281982e-02 -8.393776416778564453e-01 1.780339181423187256e-01
2.970000000000000000e+02 6.007856750488281250e+01 3.512075805664062500e+01 6.521657705307006836e-01 1.026283144950866699e+00 5.035346746444702148e-01 -1.682258009910583496e+00
2.980000000000000000e+02 6.063355636596679688e+01 3.533297729492187500e+01 3.496333599090576172e+00 5.439245700836181641e+00 2.680673837661743164e+00 -5.329704761505126953e+00
2.990000000000000000e+02 5.916375350952148438e+01 3.421012115478515625e+01 -1.676293253898620605e+00 -1.684464886784553528e-02 -5.079413652420043945e-01 3.222454786300659180e-01
3.000000000000000000e+02 5.922113418579101562e+01 3.448202133178710938e+01 -3.312629938125610352e+00 -2.983369864523410797e-02 -1.002739071846008301e+00 3.483642041683197021e-01
3.010000000000000000e+02 5.938271331787109375e+01 3.416551208496093750e+01 -1.320816397666931152e+00 8.272161707282066345e-03 -3.937632739543914795e-01 3.405957818031311035e-01
3.020000000000000000e+02 5.982740402221679688e+01 3.415542984008789062e+01 -7.413392066955566406e-01 -1.144315488636493683e-02 -2.258347123861312866e-01 5.046048760414123535e-01
3.030000000000000000e+02 6.019832229614257812e+01 3.564617919921875000e+01 2.226981878280639648e+00 3.599962234497070312e+00 1.748083233833312988e+00 -3.809274196624755859e+00
3.040000000000000000e+02 6.038927459716796875e+01 3.545071792602539062e+01 2.824880361557006836e+00 3.867138385772705078e+00 2.007605552673339844e+00 -4.321103572845458984e+00
3.050000000000000000e+02 6.039053344726562500e+01 3.563511657714843750e+01 2.415908098220825195e+00 5.018789291381835938e+00 2.230409145355224609e+00 -4.698130130767822266e+00
3.060000000000000000e+02 6.101733398437500000e+01 3.582838821411132812e+01 1.664182066917419434e+00 1.201546859741210938e+01 4.103895187377929688e+00 -6.218348979949951172e+00
3.070000000000000000e+02 6.067861938476562500e+01 3.562051773071289062e+01 2.871273279190063477e+00 7.075924396514892578e+00 2.984159231185913086e+00 -5.687988758087158203e+00
3.080000000000000000e+02 6.085651779174804688e+01 3.562660980224609375e+01 2.707677602767944336e+00 9.892276763916015625e+00 3.779986381530761719e+00 -6.850245952606201172e+00
3.090000000000000000e+02 6.196535110473632812e+01 3.531541824340820312e+01 2.369702100753784180e+00 2.663845634460449219e+01 8.702447891235351562e+00 6.469628959894180298e-02
3.100000000000000000e+02 5.983514404296875000e+01 3.390712738037109375e+01 1.272211074829101562e+00 2.817476689815521240e-01 4.661876261234283447e-01 1.149628043174743652e+00
3.110000000000000000e+02 6.079738235473632812e+01 3.545903778076171875e+01 3.360068559646606445e+00 8.141630172729492188e+00 3.450509786605834961e+00 -6.658371448516845703e+00
3.120000000000000000e+02 6.215244293212890625e+01 3.519499969482421875e+01 4.046351432800292969e+00 2.678130722045898438e+01 9.248297691345214844e+00 2.462220668792724609e+00
3.130000000000000000e+02 6.155920028686523438e+01 3.318075561523437500e+01 2.954841136932373047e+00 2.129723548889160156e+01 7.275623321533203125e+00 6.088050365447998047e+00
3.140000000000000000e+02 6.170016098022460938e+01 3.334401321411132812e+01 3.170072078704833984e+00 2.588357353210449219e+01 8.716094017028808594e+00 4.574355602264404297e+00
3.150000000000000000e+02 6.202534866333007812e+01 3.543722915649414062e+01 1.700830578804016113e+00 2.538485717773437500e+01 8.125706672668457031e+00 -1.533015221357345581e-01
3.160000000000000000e+02 6.228654098510742188e+01 3.505134582519531250e+01 6.783536911010742188e+00 2.539614677429199219e+01 9.653904914855957031e+00 3.600443363189697266e+00
3.170000000000000000e+02 6.239756774902343750e+01 3.491870880126953125e+01 8.461068153381347656e+00 2.356595802307128906e+01 9.608107566833496094e+00 3.946950912475585938e+00
3.180000000000000000e+02 6.252154159545898438e+01 3.476215362548828125e+01 1.201833724975585938e+01 2.182091331481933594e+01 1.015177536010742188e+01 3.622345685958862305e+00
3.190000000000000000e+02 6.259326553344726562e+01 3.416744232177734375e+01 1.466826725006103516e+01 2.094806289672851562e+01 1.068489933013916016e+01 -1.180139660835266113e+00
3.200000000000000000e+02 6.188294982910156250e+01 3.338563537597656250e+01 3.584922313690185547e+00 2.632964706420898438e+01 8.974370956420898438e+00 3.100530862808227539e+00
3.210000000000000000e+02 6.105947113037109375e+01 3.563681030273437500e+01 2.115526199340820312e+00 1.297644519805908203e+01 4.527591228485107422e+00 -6.654945850372314453e+00
3.220000000000000000e+02 5.873509979248046875e+01 3.414413833618164062e+01 -1.532064199447631836e+00 -4.790632799267768860e-02 -4.739911556243896484e-01 1.980484575033187866e-01
3.230000000000000000e+02 6.007551956176757812e+01 3.367122268676757812e+01 3.594908237457275391e+00 1.107426762580871582e+00 1.410700440406799316e+00 2.643155813217163086e+00
3.240000000000000000e+02 5.959046936035156250e+01 3.568328094482421875e+01 1.003393650054931641e+00 1.686114549636840820e+00 8.068524599075317383e-01 -1.914681196212768555e+00
3.250000000000000000e+02 5.977024841308593750e+01 3.535283660888671875e+01 5.911508798599243164e-01 1.107738137245178223e+00 5.096666812896728516e-01 -1.503033638000488281e+00
3.260000000000000000e+02 6.053346252441406250e+01 3.552705383300781250e+01 2.835163116455078125e+00 5.639745712280273438e+00 2.542472600936889648e+00 -5.251754760742187500e+00
3.270000000000000000e+02 5.940998458862304688e+01 3.363567352294921875e+01 1.630251765251159668e+00 4.383317828178405762e-01 6.205750703811645508e-01 1.258987426757812500e+00
3.280000000000000000e+02 5.895245742797851562e+01 3.377206420898437500e+01 2.286190688610076904e-01 2.035998106002807617e-01 1.296656578779220581e-01 6.283959746360778809e-01
3.290000000000000000e+02 5.904214859008789062e+01 3.397766113281250000e+01 -5.643887519836425781e-01 9.164281934499740601e-02 -1.418237835168838501e-01 3.664445579051971436e-01
3.300000000000000000e+02 5.891169357299804688e+01 3.542794036865234375e+01 -8.951359391212463379e-01 2.464971244335174561e-01 -1.945916414260864258e-01 -7.411827147006988525e-02
3.310000000000000000e+02 5.914071273803710938e+01 3.556845855712890625e+01 -2.323240339756011963e-01 7.016019821166992188e-01 1.407833844423294067e-01 -6.692053079605102539e-01
3.320000000000000000e+02 5.921328735351562500e+01 3.528319168090820312e+01 -9.975133538246154785e-01 3.411096036434173584e-01 -1.969211250543594360e-01 -2.941956818103790283e-01
3.330000000000000000e+02 5.984931945800781250e+01 3.366677093505859375e+01 2.679024696350097656e+00 7.051523327827453613e-01 1.015253067016601562e+00 1.945684194564819336e+00
3.340000000000000000e+02 6.021045303344726562e+01 3.541598510742187500e+01 2.214831113815307617e+00 2.620007991790771484e+00 1.450451731681823730e+00 -3.340543985366821289e+00
3.350000000000000000e+02 6.045063781738281250e+01 3.526435470581054688e+01 2.975289344787597656e+00 3.299140214920043945e+00 1.882328867912292480e+00 -4.098336219787597656e+00
3.360000000000000000e+02 5.992845535278320312e+01 3.496407699584960938e+01 -8.112398386001586914e-01 4.398300349712371826e-01 -1.114229485392570496e-01 -5.937551259994506836e-01
3.370000000000000000e+02 5.738721466064453125e+01 3.600663375854492188e+01 -8.078392744064331055e-01 1.266947090625762939e-01 -2.043433785438537598e-01 3.938274979591369629e-01
3.380000000000000000e+02 5.689410400390625000e+01 3.533106994628906250e+01 -2.221887350082397461e+00 -8.216449618339538574e-02 -6.912155747413635254e-01 6.092675328254699707e-01
3.390000000000000000e+02 5.851297760009765625e+01 3.546485900878906250e+01 -1.247210264205932617e+00 4.246138036251068115e-02 -3.614246845245361328e-01 1.466786116361618042e-01
3.400000000000000000e+02 5.790402984619140625e+01 3.547173309326171875e+01 -1.632220745086669922e+00 2.799347043037414551e-02 -4.812681972980499268e-01 2.939276397228240967e-01
3.410000000000000000e+02 5.846760940551757812e+01 3.586276245117187500e+01 -4.597007334232330322e-01 2.040729522705078125e-01 -7.668833434581756592e-02 -1.764374375343322754e-01
3.420000000000000000e+02 5.844335556030273438e+01 3.612423324584960938e+01 -3.174103051424026489e-02 6.863912940025329590e-01 1.963950842618942261e-01 -5.097946524620056152e-01
3.430000000000000000e+02 5.614957046508789062e+01 3.591056823730468750e+01 -1.034845232963562012e+00 -7.757224142551422119e-02 -3.337252438068389893e-01 7.725663185119628906e-01
3.440000000000000000e+02 5.798995208740234375e+01 3.514078521728515625e+01 -2.937123298645019531e+00 -1.962997317314147949e-01 -9.400268793106079102e-01 5.153526067733764648e-01
3.450000000000000000e+02 5.607332611083984375e+01 3.540533065795898438e+01 -1.624242663383483887e+00 -1.321769356727600098e-01 -5.269258618354797363e-01 5.363813042640686035e-01
3.460000000000000000e+02 5.849829483032226562e+01 3.527759170532226562e+01 -1.750356674194335938e+00 1.428917795419692993e-01 -4.822394847869873047e-01 2.235324829816818237e-01
3.470000000000000000e+02 5.844727325439453125e+01 3.510050964355468750e+01 -2.613767147064208984e+00 1.677314937114715576e-01 -7.338106632232666016e-01 4.727272987365722656e-01
3.480000000000000000e+02 5.848377609252929688e+01 3.564576721191406250e+01 -7.271750569343566895e-01 1.253367215394973755e-01 -1.805514991283416748e-01 -1.050926074385643005e-01
3.490000000000000000e+02 5.754257583618164062e+01 3.516144561767578125e+01 -2.776632070541381836e+00 -7.316376268863677979e-02 -8.549387454986572266e-01 5.895932912826538086e-01
3.500000000000000000e+02 5.826866531372070312e+01 3.549007034301757812e+01 -1.381144165992736816e+00 3.481543958187103271e-01 -3.098969161510467529e-01 2.177836373448371887e-02
3.510000000000000000e+02 5.618642807006835938e+01 3.634819793701171875e+01 -5.648156404495239258e-01 3.600683063268661499e-02 -1.586426347494125366e-01 7.496537566184997559e-01
3.520000000000000000e+02 5.829109573364257812e+01 3.490381622314453125e+01 -3.376021623611450195e+00 7.565289270132780075e-03 -1.010536909103393555e+00 6.328516006469726562e-01
3.530000000000000000e+02 5.799678802490234375e+01 3.588899993896484375e+01 -6.867616772651672363e-01 3.201914727687835693e-01 -1.099710687994956970e-01 1.563874632120132446e-01
3.540000000000000000e+02 5.676307296752929688e+01 3.619450378417968750e+01 -7.728235125541687012e-01 8.426431566476821899e-02 -2.065677493810653687e-01 6.243522167205810547e-01
3.550000000000000000e+02 5.827462768554687500e+01 3.525912475585937500e+01 -2.235447883605957031e+00 2.701393067836761475e-01 -5.895925760269165039e-01 3.212473094463348389e-01
3.560000000000000000e+02 5.534315109252929688e+01 3.605359268188476562e+01 -6.919189095497131348e-01 -3.428582847118377686e-01 -3.104331791400909424e-01 8.140446543693542480e-01
3.570000000000000000e+02 5.520254516601562500e+01 3.556430816650390625e+01 -8.500714898109436035e-01 -1.395427882671356201e-01 -2.968842983245849609e-01 4.328757822513580322e-01
3.580000000000000000e+02 5.395702362060546875e+01 3.700276947021484375e+01 8.020893484354019165e-02 -1.136829376220703125e+00 -3.169861435890197754e-01 2.354706376791000366e-01
3.590000000000000000e+02 5.450627136230468750e+01 3.593141555786132812e+01 -3.155599534511566162e-01 -2.760951220989227295e-01 -1.774965226650238037e-01 4.232620298862457275e-01
3.600000000000000000e+02 5.542396545410156250e+01 3.652476501464843750e+01 -4.745792746543884277e-01 -2.557867169380187988e-01 -2.191098034381866455e-01 9.599580168724060059e-01
3.610000000000000000e+02 5.400501251220703125e+01 3.659320068359375000e+01 -8.234265446662902832e-02 -7.744771242141723633e-01 -2.570459246635437012e-01 2.993803024291992188e-01
3.620000000000000000e+02 5.406952667236328125e+01 3.583044052124023438e+01 -1.575754731893539429e-01 -8.759279549121856689e-02 -7.355047762393951416e-02 1.180287897586822510e-01
3.630000000000000000e+02 5.458778381347656250e+01 3.679760742187500000e+01 -2.587669193744659424e-01 -8.149949312210083008e-01 -3.221285641193389893e-01 8.151190876960754395e-01
3.640000000000000000e+02 5.399515914916992188e+01 3.623024749755859375e+01 9.987343801185488701e-04 -4.008581936359405518e-01 -1.199578419327735901e-01 2.167205661535263062e-01
3.650000000000000000e+02 5.460736465454101562e+01 3.635026550292968750e+01 -2.619746327400207520e-01 -3.979207277297973633e-01 -1.979686170816421509e-01 6.325804591178894043e-01
3.660000000000000000e+02 5.344662094116210938e+01 3.479689788818359375e+01 -2.980943024158477783e-01 -2.003455013036727905e-01 -1.495319455862045288e-01 -2.389498203992843628e-01
3.670000000000000000e+02 5.366340637207031250e+01 3.510863113403320312e+01 -1.411799043416976929e-01 -5.730445310473442078e-02 -5.954530835151672363e-02 -1.924947798252105713e-01
3.680000000000000000e+02 5.494368743896484375e+01 3.414394760131835938e+01 -8.244803547859191895e-01 1.902793496847152710e-01 -1.902603060007095337e-01 -4.177240431308746338e-01
3.690000000000000000e+02 5.424127578735351562e+01 3.501722717285156250e+01 -4.714877605438232422e-01 2.533379755914211273e-02 -1.338461935520172119e-01 -1.661319136619567871e-01
3.700000000000000000e+02 5.503524398803710938e+01 3.488909530639648438e+01 -9.555110335350036621e-01 6.118183210492134094e-02 -2.682987451553344727e-01 -4.648911207914352417e-02
3.710000000000000000e+02 5.318430709838867188e+01 3.449492645263671875e+01 -3.239356279373168945e-01 -3.320805132389068604e-01 -1.968048512935638428e-01 -3.723549246788024902e-01
3.720000000000000000e+02 5.394946670532226562e+01 3.541463851928710938e+01 -1.935818791389465332e-01 -7.759033469483256340e-04 -5.830733478069305420e-02 -1.267662085592746735e-02
3.730000000000000000e+02 5.366458129882812500e+01 3.433396148681640625e+01 -5.167235732078552246e-01 -1.156323254108428955e-01 -1.897067576646804810e-01 -4.195282459259033203e-01
3.740000000000000000e+02 5.396925354003906250e+01 3.460595321655273438e+01 -5.749949216842651367e-01 5.401812493801116943e-02 -1.562930345535278320e-01 -3.039774000644683838e-01
3.750000000000000000e+02 5.424771118164062500e+01 3.423815917968750000e+01 -7.528060674667358398e-01 1.442566215991973877e-01 -1.825648397207260132e-01 -4.296895563602447510e-01
3.760000000000000000e+02 5.297754287719726562e+01 3.411214828491210938e+01 -4.566987752914428711e-01 -5.338622927665710449e-01 -2.971683144569396973e-01 -4.944289326667785645e-01
3.770000000000000000e+02 5.582935714721679688e+01 3.268347549438476562e+01 1.773912459611892700e-01 4.635220766067504883e-01 1.922739893198013306e-01 -7.579550147056579590e-02
3.780000000000000000e+02 5.621731567382812500e+01 3.326802062988281250e+01 -1.409291177988052368e-01 2.957504987716674805e-01 4.644641280174255371e-02 -2.002527713775634766e-01
3.790000000000000000e+02 5.245178985595703125e+01 3.341329574584960938e+01 -5.562395453453063965e-01 -8.076226711273193359e-01 -4.091586470603942871e-01 -7.073950171470642090e-01
3.800000000000000000e+02 4.946739196777343750e+01 3.016645050048828125e+01 -9.205784201622009277e-01 -9.020246267318725586e-01 -5.467809438705444336e-01 -9.044207930564880371e-01
3.810000000000000000e+02 4.741981506347656250e+01 2.827091217041015625e+01 -9.575512409210205078e-01 -7.954578995704650879e-01 -5.259027481079101562e-01 -8.757212758064270020e-01
3.820000000000000000e+02 5.999349212646484375e+01 1.717613601684570312e+01 -8.045794367790222168e-01 5.880252838134765625e+00 1.522702097892761230e+00 7.882724404335021973e-01
3.830000000000000000e+02 6.761782073974609375e+01 1.114612483978271484e+01 -5.480182766914367676e-01 7.287607192993164062e+00 2.021876573562622070e+00 -4.971055313944816589e-02
3.840000000000000000e+02 7.177787780761718750e+01 4.715710163116455078e+00 -1.668299883604049683e-01 7.831820487976074219e+00 2.299497127532958984e+00 1.589957624673843384e-02
3.850000000000000000e+02 7.805403137207031250e+01 -2.837496519088745117e+00 -5.332652945071458817e-03 9.090251922607421875e+00 2.725475788116455078e+00 3.494779765605926514e-02
3.860000000000000000e+02 7.934164428710937500e+01 2.770870923995971680e+00 -4.177885595709085464e-03 9.512440681457519531e+00 2.852478981018066406e+00 -1.635828241705894470e-02
3.870000000000000000e+02 7.806059265136718750e+01 4.144008636474609375e+00 -1.536899432539939880e-02 9.197449684143066406e+00 2.754624366760253906e+00 -1.916751638054847717e-02
3.880000000000000000e+02 7.939223480224609375e+01 8.345919609069824219e+00 -5.219612270593643188e-03 9.475248336791992188e+00 2.841008663177490234e+00 -4.636914655566215515e-02
3.890000000000000000e+02 7.314978790283203125e+01 1.634612464904785156e+01 -3.910724222660064697e-01 8.181347846984863281e+00 2.337082624435424805e+00 -6.584014296531677246e-01
3.900000000000000000e+02 6.367458724975585938e+01 2.894084548950195312e+01 -5.708761811256408691e-01 1.184508228302001953e+01 3.382261753082275391e+00 2.993668615818023682e-01
3.910000000000000000e+02 5.797594833374023438e+01 3.304797363281250000e+01 1.005801320075988770e+00 5.257271528244018555e-01 4.594585299491882324e-01 6.997262835502624512e-01
3.920000000000000000e+02 5.694578933715820312e+01 2.932266044616699219e+01 1.074393033981323242e+00 2.877190113067626953e+00 1.185474872589111328e+00 1.966224908828735352e+00
3.930000000000000000e+02 5.498380279541015625e+01 2.831272888183593750e+01 5.334492921829223633e-01 1.872432827949523926e+00 7.217646241188049316e-01 1.197140336036682129e+00
3.940000000000000000e+02 3.278895187377929688e+01 -1.422236061096191406e+01 -9.094894677400588989e-02 -3.098941743373870850e-01 -1.202529370784759521e-01 1.893916428089141846e-01
3.950000000000000000e+02 3.336783599853515625e+01 -1.070014286041259766e+01 1.864084154367446899e-01 -1.022699773311614990e-01 2.524152956902980804e-02 -2.916229143738746643e-02
3.960000000000000000e+02 4.067721557617187500e+01 -1.045198154449462891e+01 1.935570687055587769e-01 9.317449927330017090e-01 3.375906050205230713e-01 -3.302450850605964661e-02
3.970000000000000000e+02 4.680445098876953125e+01 -1.116328048706054688e+01 6.040693819522857666e-02 2.218179464340209961e+00 6.835759282112121582e-01 6.305062770843505859e-02
3.980000000000000000e+02 6.118222427368164062e+01 -1.010456752777099609e+01 -6.376904994249343872e-02 5.350140571594238281e+00 1.585911393165588379e+00 3.221823871135711670e-01
3.990000000000000000e+02 6.786048889160156250e+01 -1.228465938568115234e+01 -3.999473154544830322e-02 6.713778972625732422e+00 2.002135276794433594e+00 2.910901010036468506e-01
4.000000000000000000e+02 7.283847808837890625e+01 -1.088198947906494141e+01 -1.810658350586891174e-02 7.760784626007080078e+00 2.322803497314453125e+00 2.076001167297363281e-01
4.010000000000000000e+02 7.933631896972656250e+01 -1.254792690277099609e+01 1.761762192472815514e-03 9.045064926147460938e+00 2.714048147201538086e+00 1.504031289368867874e-02
4.020000000000000000e+02 7.806716156005859375e+01 -9.785458564758300781e+00 -6.077110767364501953e-03 8.879030227661132812e+00 2.661885976791381836e+00 5.748829618096351624e-02
4.030000000000000000e+02 7.936810302734375000e+01 -5.588555335998535156e+00 -2.888181013986468315e-03 9.312266349792480469e+00 2.792813539505004883e+00 4.248554352670907974e-03
4.040000000000000000e+02 7.154444885253906250e+01 -2.649759054183959961e+00 -6.768197566270828247e-02 7.640269279479980469e+00 2.271776199340820312e+00 1.739544123411178589e-01
4.050000000000000000e+02 6.649326324462890625e+01 -3.398342609405517578e+00 -1.072939932346343994e-01 6.529375553131103516e+00 1.926624417304992676e+00 2.711167931556701660e-01
4.060000000000000000e+02 6.019838333129882812e+01 -3.769378900527954102e+00 -1.143504232168197632e-01 5.130171775817871094e+00 1.504746437072753906e+00 3.388620018959045410e-01
4.070000000000000000e+02 4.646213150024414062e+01 -6.047533512115478516e+00 9.929310530424118042e-02 2.034659624099731445e+00 6.401858329772949219e-01 1.588177233934402466e-01
4.080000000000000000e+02 4.159847640991210938e+01 -6.543820858001708984e+00 2.103861719369888306e-01 1.041447043418884277e+00 3.755499422550201416e-01 4.714998602867126465e-02
4.090000000000000000e+02 3.510913467407226562e+01 -6.801475048065185547e+00 3.416537642478942871e-01 1.673290506005287170e-02 1.075159981846809387e-01 -3.695379942655563354e-02
4.100000000000000000e+02 2.743551063537597656e+01 -6.124070644378662109e+00 3.918576538562774658e-01 2.206315845251083374e-01 1.837467700242996216e-01 -4.115218222141265869e-01
4.110000000000000000e+02 2.540802955627441406e+01 -4.239364147186279297e+00 6.471638083457946777e-01 5.854859352111816406e-01 3.697949349880218506e-01 -7.947911024093627930e-01
4.120000000000000000e+02 2.930217361450195312e+01 -5.351451873779296875e+00 5.155317783355712891e-01 -1.600355505943298340e-01 1.066488698124885559e-01 -2.122148275375366211e-01
4.130000000000000000e+02 3.234801101684570312e+01 -1.132270526885986328e+01 5.165080353617668152e-02 -1.776344478130340576e-01 -3.779509291052818298e-02 2.395327389240264893e-02
4.140000000000000000e+02 3.132264518737792969e+01 -1.193829917907714844e+01 -1.814046315848827362e-02 -2.306254208087921143e-01 -7.462976127862930298e-02 1.233374178409576416e-01
4.150000000000000000e+02 3.236998748779296875e+01 1.294247150421142578e+01 -1.108914732933044434e+00 -1.189551591873168945e+00 -6.895399093627929688e-01 -1.168582916259765625e+00
4.160000000000000000e+02 3.183011436462402344e+01 1.236119174957275391e+01 -1.175530552864074707e+00 -1.311288952827453613e+00 -7.460458278656005859e-01 -1.237114906311035156e+00
4.170000000000000000e+02 3.209988784790039062e+01 1.265423965454101562e+01 -1.119150161743164062e+00 -1.251228332519531250e+00 -7.111135721206665039e-01 -1.187374472618103027e+00
4.180000000000000000e+02 3.127645492553710938e+01 1.178493785858154297e+01 -1.363473892211914062e+00 -1.302845954895019531e+00 -7.998959422111511230e-01 -1.303518056869506836e+00
4.190000000000000000e+02 3.070799827575683594e+01 1.123182868957519531e+01 -1.377277493476867676e+00 -1.142578125000000000e+00 -7.559567093849182129e-01 -1.251473426818847656e+00
4.200000000000000000e+02 3.068680381774902344e+01 7.437411785125732422e+00 -7.273918986320495605e-01 -1.047333836555480957e+00 -5.324177145957946777e-01 -9.654066562652587891e-01
4.210000000000000000e+02 2.990155792236328125e+01 6.028816699981689453e+00 -1.367318272590637207e+00 -8.142199516296386719e-01 -6.544614434242248535e-01 -1.006261825561523438e+00
4.220000000000000000e+02 3.047296714782714844e+01 6.249869346618652344e+00 -1.137138485908508301e+00 -7.743288874626159668e-01 -5.734401941299438477e-01 -9.946615099906921387e-01
4.230000000000000000e+02 2.296898078918457031e+01 1.523137569427490234e+00 -2.150430440902709961e+00 -3.848395943641662598e-01 -7.605810165405273438e-01 -1.172051191329956055e+00
4.240000000000000000e+02 2.214444732666015625e+01 1.245833158493041992e+00 -2.174886703491210938e+00 -4.504283964633941650e-01 -7.875944972038269043e-01 -1.510396122932434082e+00
4.250000000000000000e+02 1.993838691711425781e+01 -7.974907159805297852e-01 -3.481725692749023438e+00 -3.428599119186401367e+00 -2.073097467422485352e+00 -2.445264816284179688e+00
4.260000000000000000e+02 2.036420249938964844e+01 5.228504911065101624e-02 -1.260125756263732910e+00 -1.860458135604858398e+00 -9.361751675605773926e-01 -2.305200815200805664e+00
4.270000000000000000e+02 1.589663696289062500e+01 -2.490963220596313477e+00 -1.246244430541992188e+00 -6.603144407272338867e-01 -5.719676613807678223e-01 -7.480447888374328613e-01
4.280000000000000000e+02 1.171103382110595703e+01 -2.214037656784057617e+00 -6.318113207817077637e-01 -1.535520143806934357e-02 -1.941499561071395874e-01 -2.528976500034332275e-01
4.290000000000000000e+02 1.097280025482177734e+01 -2.105434417724609375e+00 -5.257223844528198242e-01 -1.323466561734676361e-02 -1.616871207952499390e-01 -2.002336829900741577e-01
4.300000000000000000e+02 9.973127365112304688e+00 -6.660252094268798828e+00 -2.179917544126510620e-01 -2.566255331039428711e-01 -1.423851847648620605e-01 -4.710028767585754395e-01
4.310000000000000000e+02 7.128589153289794922e+00 -1.907220077514648438e+01 6.813666224479675293e-02 -6.022841334342956543e-01 -1.602442413568496704e-01 -2.744800448417663574e-01
4.320000000000000000e+02 7.898844718933105469e+00 -2.447071647644042969e+01 6.738682091236114502e-02 -6.542032957077026367e-01 -1.760449558496475220e-01 -2.135162800550460815e-01
4.330000000000000000e+02 8.258689880371093750e+00 -4.108533477783203125e+01 4.293178394436836243e-02 -7.990967035293579102e-01 -2.268494665622711182e-01 -2.103149518370628357e-02
4.340000000000000000e+02 9.196318626403808594e+00 -3.842042160034179688e+01 6.134806945919990540e-02 -7.186163663864135742e-01 -1.971804946660995483e-01 -4.927503317594528198e-02
4.350000000000000000e+02 1.785738563537597656e+01 -4.089890670776367188e+01 1.968869417905807495e-01 -1.509359776973724365e-01 1.378529146313667297e-02 -3.948880732059478760e-02
4.360000000000000000e+02 1.472203063964843750e+01 -3.034281349182128906e+01 1.475017219781875610e-01 -2.990764081478118896e-01 -4.547241330146789551e-02 -1.943522393703460693e-01
4.370000000000000000e+02 1.763626480102539062e+01 -2.471970939636230469e+01 1.815435141324996948e-01 -6.622263789176940918e-02 3.459626063704490662e-02 -2.706409096717834473e-01
4.380000000000000000e+02 1.897344970703125000e+01 -1.693139648437500000e+01 2.037722915410995483e-01 1.745191030204296112e-02 6.636726111173629761e-02 -2.798311710357666016e-01
4.390000000000000000e+02 2.228794860839843750e+01 -1.320063877105712891e+01 2.000558972358703613e-01 4.321901798248291016e-01 1.896738260984420776e-01 -2.647977173328399658e-01
4.400000000000000000e+02 1.973286437988281250e+01 -8.209147453308105469e+00 1.123761758208274841e-01 -6.704629212617874146e-02 1.359896454960107803e-02 -5.607993900775909424e-02
4.410000000000000000e+02 1.901265907287597656e+01 -1.012023162841796875e+01 1.932485103607177734e-01 -1.124946624040603638e-01 2.422615326941013336e-02 -1.946321129798889160e-01
4.420000000000000000e+02 1.939241981506347656e+01 -6.835075378417968750e+00 -5.070075765252113342e-02 -4.048833549022674561e-01 -1.366752237081527710e-01 -8.723809570074081421e-02
4.430000000000000000e+02 1.899789047241210938e+01 -3.983171463012695312e+00 -3.261312544345855713e-01 -1.743441581726074219e+00 -6.208718419075012207e-01 -3.929501473903656006e-01
4.440000000000000000e+02 1.905467033386230469e+01 -6.837241053581237793e-01 -2.180505275726318359e+00 -1.432378768920898438e+00 -1.083865284919738770e+00 -1.341479182243347168e+00
4.450000000000000000e+02 1.920997238159179688e+01 -5.626730322837829590e-01 -2.372892379760742188e+00 -1.868415713310241699e+00 -1.272392392158508301e+00 -1.420000076293945312e+00
4.460000000000000000e+02 1.023698806762695312e+01 -2.000587701797485352e+00 -4.317264556884765625e-01 8.411337621510028839e-03 -1.269945353269577026e-01 -1.631023585796356201e-01
4.470000000000000000e+02 3.767101526260375977e+00 -1.982234358787536621e+00 -5.001863092184066772e-02 -1.865977793931961060e-02 -2.060352265834808350e-02 -3.569681197404861450e-02
4.480000000000000000e+02 1.716503500938415527e+00 -1.063957309722900391e+01 -7.813596748746931553e-04 -3.590416908264160156e-01 -1.079469174146652222e-01 -1.175310760736465454e-01
4.490000000000000000e+02 2.031105279922485352e+00 -1.767162513732910156e+01 5.982153117656707764e-03 -7.574424743652343750e-01 -2.254380881786346436e-01 -1.126471385359764099e-01
4.500000000000000000e+02 6.418743133544921875e-01 -2.477869224548339844e+01 -4.199763498036190867e-05 -1.158561229705810547e+00 -3.475809693336486816e-01 -2.204493992030620575e-02
4.510000000000000000e+02 7.491823434829711914e-01 -3.179601478576660156e+01 5.460023414343595505e-03 -1.340474605560302734e+00 -4.005043804645538330e-01 -1.163379009813070297e-02
4.520000000000000000e+02 2.900050401687622070e+00 -3.784815597534179688e+01 2.159489877521991730e-02 -1.231008529663085938e+00 -3.628240823745727539e-01 1.930841390276327729e-04
4.530000000000000000e+02 8.184753060340881348e-01 -3.733919906616210938e+01 1.305136643350124359e-02 -1.370781421661376953e+00 -4.073190391063690186e-01 9.708871133625507355e-03
4.540000000000000000e+02 2.339981651306152344e+01 -3.843420028686523438e+01 3.254013955593109131e-01 1.728668808937072754e-01 1.494804769754409790e-01 -1.201193630695343018e-01
4.550000000000000000e+02 2.273207092285156250e+01 -4.117964935302734375e+01 3.219401240348815918e-01 1.274537146091461182e-01 1.348181515932083130e-01 -2.897640876471996307e-02
4.560000000000000000e+02 2.434663772583007812e+01 -3.297672653198242188e+01 3.008367419242858887e-01 2.942617237567901611e-01 1.785295456647872925e-01 -2.582647204399108887e-01
4.570000000000000000e+02 2.638269233703613281e+01 -2.028099250793457031e+01 1.701231002807617188e-01 6.181582212448120117e-01 2.364843934774398804e-01 -3.250739276409149170e-01
4.580000000000000000e+02 2.578185844421386719e+01 -2.200500679016113281e+01 1.786208152770996094e-01 5.604524612426757812e-01 2.217219918966293335e-01 -3.284554481506347656e-01
4.590000000000000000e+02 2.373480033874511719e+01 -1.554549121856689453e+01 2.163351327180862427e-01 4.814119338989257812e-01 2.093241214752197266e-01 -3.057808876037597656e-01
4.600000000000000000e+02 2.336761093139648438e+01 -1.734870147705078125e+01 1.814509928226470947e-01 4.312713146209716797e-01 1.838166862726211548e-01 -2.951563596725463867e-01
4.610000000000000000e+02 3.206423187255859375e+01 -4.112363815307617188e+01 7.873546481132507324e-01 3.958901166915893555e-01 3.549734354019165039e-01 -9.639357030391693115e-02
4.620000000000000000e+02 3.061131858825683594e+01 -3.665643692016601562e+01 4.564177691936492920e-01 5.198589563369750977e-01 2.928830087184906006e-01 -3.219922482967376709e-01
4.630000000000000000e+02 3.735784912109375000e+01 -3.765904235839843750e+01 9.518278241157531738e-01 5.996576547622680664e-01 4.654456377029418945e-01 -5.249406099319458008e-01
4.640000000000000000e+02 3.262863159179687500e+01 -3.260351562500000000e+01 4.713445603847503662e-01 7.491281628608703613e-01 3.661417961120605469e-01 -5.657790899276733398e-01
4.650000000000000000e+02 3.176300621032714844e+01 -3.148167419433593750e+01 4.399381875991821289e-01 8.498806953430175781e-01 3.869456648826599121e-01 -5.391877889633178711e-01
4.660000000000000000e+02 3.116951751708984375e+01 -3.355218887329101562e+01 4.278197288513183594e-01 6.621082425117492676e-01 3.269784152507781982e-01 -4.107960164546966553e-01
4.670000000000000000e+02 2.983090782165527344e+01 -2.774662780761718750e+01 2.101139128208160400e-01 7.904424071311950684e-01 3.001669049263000488e-01 -4.126505851745605469e-01
4.680000000000000000e+02 2.811796379089355469e+01 -2.397362899780273438e+01 1.972887367010116577e-01 7.273887991905212402e-01 2.774032652378082275e-01 -3.697100877761840820e-01
4.690000000000000000e+02 4.335409927368164062e+01 -3.966942596435546875e+01 1.850123643875122070e+00 1.426675796508789062e+00 9.830398559570312500e-01 9.019314050674438477e-01
4.700000000000000000e+02 4.577265930175781250e+01 -4.100658798217773438e+01 1.001424908638000488e+00 3.204778194427490234e+00 1.261860966682434082e+00 7.976400852203369141e-02
4.710000000000000000e+02 4.464797592163085938e+01 -3.761486053466796875e+01 1.258155345916748047e+00 4.455902099609375000e+00 1.714217185974121094e+00 1.026205420494079590e+00
4.720000000000000000e+02 4.593065261840820312e+01 -3.832067489624023438e+01 1.069144606590270996e+00 3.677083730697631836e+00 1.423868536949157715e+00 2.107753306627273560e-01
4.730000000000000000e+02 5.217474746704101562e+01 -3.849883270263671875e+01 7.818517684936523438e-01 4.032051563262939453e+00 1.444170951843261719e+00 1.363748311996459961e-01
4.740000000000000000e+02 5.579578399658203125e+01 -3.469794464111328125e+01 4.547986686229705811e-01 4.490742683410644531e+00 1.483662486076354980e+00 3.245060145854949951e-01
4.750000000000000000e+02 5.485412216186523438e+01 -2.224628829956054688e+01 -5.770447105169296265e-02 4.267857074737548828e+00 1.263045787811279297e+00 2.628420889377593994e-01
4.760000000000000000e+02 5.530998229980468750e+01 -2.001688194274902344e+01 -8.405201137065887451e-02 4.280584812164306641e+00 1.258959889411926270e+00 2.611963152885437012e-01
4.770000000000000000e+02 5.449119949340820312e+01 -1.887464332580566406e+01 -8.446300774812698364e-02 4.088830947875976562e+00 1.201310396194458008e+00 2.190739661455154419e-01
4.780000000000000000e+02 5.012695312500000000e+01 -2.033906745910644531e+01 -1.151375919580459595e-01 3.249212741851806641e+00 9.402225017547607422e-01 8.301669359207153320e-02
4.790000000000000000e+02 4.883996963500976562e+01 -2.058817863464355469e+01 -1.129977479577064514e-01 2.974931716918945312e+00 8.585802316665649414e-01 3.934285789728164673e-02
4.800000000000000000e+02 4.763873672485351562e+01 -2.519435501098632812e+01 -1.362860798835754395e-01 2.892357587814331055e+00 8.268214464187622070e-01 1.329579669982194901e-02
4.810000000000000000e+02 4.619010543823242188e+01 -2.969174003601074219e+01 -6.759084016084671021e-02 2.948858022689819336e+00 8.643801808357238770e-01 -8.166837692260742188e-02
4.820000000000000000e+02 4.783627319335937500e+01 -3.279141616821289062e+01 3.297072947025299072e-01 3.567410469055175781e+00 1.169135332107543945e+00 2.958285808563232422e-01
4.830000000000000000e+02 5.879441070556640625e+01 -3.569668579101562500e+01 4.163897931575775146e-01 4.979014396667480469e+00 1.618621230125427246e+00 2.376341521739959717e-01
4.840000000000000000e+02 6.228169250488281250e+01 -4.063891601562500000e+01 3.897683620452880859e-01 5.482511043548583984e+00 1.761683821678161621e+00 8.665310591459274292e-02
4.850000000000000000e+02 6.541014099121093750e+01 -2.553448677062988281e+01 4.616461694240570068e-02 6.158165454864501953e+00 1.861299037933349609e+00 3.377912640571594238e-01
4.860000000000000000e+02 6.466746520996093750e+01 -1.629376220703125000e+01 -3.438195586204528809e-02 6.050945758819580078e+00 1.804969191551208496e+00 3.317872881889343262e-01
4.870000000000000000e+02 6.636239624023437500e+01 -1.588889598846435547e+01 -3.218009695410728455e-02 6.385891437530517578e+00 1.906113386154174805e+00 3.266791403293609619e-01
4.880000000000000000e+02 6.247822189331054688e+01 -3.687354278564453125e+01 3.303191363811492920e-01 5.541396617889404297e+00 1.761514663696289062e+00 2.078855484724044800e-01
4.890000000000000000e+02 7.180753326416015625e+01 -4.087498092651367188e+01 9.942258894443511963e-02 7.035877704620361328e+00 2.140590190887451172e+00 3.483780473470687866e-02
4.900000000000000000e+02 7.260609436035156250e+01 -2.938758468627929688e+01 3.524368256330490112e-02 7.310013771057128906e+00 2.203577280044555664e+00 2.076945900917053223e-01
4.910000000000000000e+02 7.141729736328125000e+01 -1.814970397949218750e+01 -5.332986824214458466e-03 7.324245452880859375e+00 2.195673704147338867e+00 2.625648081302642822e-01
4.920000000000000000e+02 7.267371368408203125e+01 -1.821796417236328125e+01 -8.191915228962898254e-03 7.570675849914550781e+00 2.268745183944702148e+00 2.390075027942657471e-01
4.930000000000000000e+02 7.798784637451171875e+01 -4.163204574584960938e+01 5.793767422437667847e-02 7.902442932128906250e+00 2.388114213943481445e+00 1.620129309594631195e-02
4.940000000000000000e+02 7.816204833984375000e+01 -3.704034042358398438e+01 9.355523623526096344e-03 7.970754623413085938e+00 2.394032955169677734e+00 5.101850628852844238e-02
4.950000000000000000e+02 7.931999969482421875e+01 -3.344778823852539062e+01 4.088619258254766464e-03 8.200507164001464844e+00 2.461378812789916992e+00 1.486486010253429413e-02
4.960000000000000000e+02 7.793814086914062500e+01 -3.066500282287597656e+01 5.880911834537982941e-03 8.076146125793457031e+00 2.424608230590820312e+00 6.295350193977355957e-02
4.970000000000000000e+02 7.936047363281250000e+01 -2.647640228271484375e+01 2.588723553344607353e-03 8.449573516845703125e+00 2.535648822784423828e+00 2.190439216792583466e-02
4.980000000000000000e+02 7.804956054687500000e+01 -2.372502899169921875e+01 -2.920721191912889481e-03 8.350009918212890625e+00 2.504126787185668945e+00 7.504170387983322144e-02
4.990000000000000000e+02 7.797465515136718750e+01 -1.675017166137695312e+01 -2.665231004357337952e-04 8.605738639831542969e+00 2.581641674041748047e+00 7.478737086057662964e-02
5.000000000000000000e+02 7.934346771240234375e+01 -2.230859947204589844e+01 -3.200274426490068436e-03 8.629536628723144531e+00 2.587900876998901367e+00 2.095400169491767883e-02
5.010000000000000000e+02 7.818616485595703125e+01 1.108880138397216797e+01 -2.517199702560901642e-02 9.060219764709472656e+00 2.710514307022094727e+00 -1.415267586708068848e-01
5.020000000000000000e+02 7.937802886962890625e+01 1.669265556335449219e+01 -1.033192407339811325e-02 8.696681976318359375e+00 2.605905055999755859e+00 -1.386492103338241577e-01
5.030000000000000000e+02 7.297654724121093750e+01 2.369025230407714844e+01 -3.447709679603576660e-01 8.131118774414062500e+00 2.335904359817504883e+00 -1.389201045036315918e+00
5.040000000000000000e+02 6.221764373779296875e+01 3.225351715087890625e+01 1.344568014144897461e+00 1.802163505554199219e+01 5.809861183166503906e+00 1.794318914413452148e+00
5.050000000000000000e+02 6.137512207031250000e+01 3.269274139404296875e+01 2.192190647125244141e+00 1.619638442993164062e+01 5.516572475433349609e+00 6.366394519805908203e+00
5.060000000000000000e+02 6.140422821044921875e+01 3.241542434692382812e+01 1.711784958839416504e+00 1.578535747528076172e+01 5.249142646789550781e+00 5.792235374450683594e+00
5.070000000000000000e+02 7.812330627441406250e+01 1.802956008911132812e+01 -4.719641059637069702e-02 8.303519248962402344e+00 2.476896762847900391e+00 -3.917942345142364502e-01
5.080000000000000000e+02 7.937302398681640625e+01 2.367657852172851562e+01 -1.778054167516529560e-03 6.882037162780761719e+00 2.064077615737915039e+00 -2.399367392063140869e-01
5.090000000000000000e+02 6.930598449707031250e+01 3.151887893676757812e+01 1.565739154815673828e+00 9.349550247192382812e+00 3.274586677551269531e+00 -1.431683659553527832e+00
5.100000000000000000e+02 6.346104049682617188e+01 3.322463607788085938e+01 6.261287212371826172e+00 1.673586082458496094e+01 6.899144172668457031e+00 -2.049518585205078125e+00
5.110000000000000000e+02 6.346915817260742188e+01 3.393041610717773438e+01 8.607214927673339844e+00 1.607113456726074219e+01 7.403504848480224609e+00 -7.771238088607788086e-01
5.120000000000000000e+02 6.259646606445312500e+01 3.294643783569335938e+01 3.849359989166259766e+00 2.018733215332031250e+01 7.211007595062255859e+00 -1.106037378311157227e+00
5.130000000000000000e+02 7.685478973388671875e+01 2.222533988952636719e+01 -9.977967292070388794e-02 7.563868045806884766e+00 2.239226579666137695e+00 -8.464867472648620605e-01
5.140000000000000000e+02 7.932958221435546875e+01 2.927767562866210938e+01 9.288515895605087280e-03 4.820091724395751953e+00 1.448814034461975098e+00 -2.544780075550079346e-01
5.150000000000000000e+02 7.035974884033203125e+01 3.519355773925781250e+01 1.551206827163696289e+00 8.803365707397460938e+00 3.106371641159057617e+00 -6.669425219297409058e-02
5.160000000000000000e+02 6.266760635375976562e+01 3.625414276123046875e+01 1.084394693374633789e+00 1.919373130798339844e+01 6.083437919616699219e+00 1.075948715209960938e+00
5.170000000000000000e+02 6.309600067138671875e+01 3.557119369506835938e+01 4.208541393280029297e+00 1.890273284912109375e+01 6.933382034301757812e+00 3.259136915206909180e+00
5.180000000000000000e+02 6.350984573364257812e+01 3.476964569091796875e+01 8.469341278076171875e+00 1.588061523437500000e+01 7.304986953735351562e+00 1.843722701072692871e+00
5.190000000000000000e+02 7.929051971435546875e+01 3.207872772216796875e+01 2.805861271917819977e-02 3.998939037322998047e+00 1.208099246025085449e+00 -1.684600561857223511e-01
5.200000000000000000e+02 7.902128601074218750e+01 3.753920745849609375e+01 -4.234932363033294678e-02 3.472812652587890625e+00 1.029138922691345215e+00 -1.112755946815013885e-02
5.210000000000000000e+02 7.454046630859375000e+01 3.767544555664062500e+01 3.038578629493713379e-01 6.549597263336181641e+00 2.056036472320556641e+00 -2.327003180980682373e-01
5.220000000000000000e+02 7.718052673339843750e+01 3.716684722900390625e+01 1.131182312965393066e-01 4.927730560302734375e+00 1.512254714965820312e+00 -8.278360962867736816e-02
5.230000000000000000e+02 5.913581848144531250e+01 3.639784622192382812e+01 1.154692292213439941e+00 2.189216613769531250e+00 1.003172636032104492e+00 -1.860940814018249512e+00
5.240000000000000000e+02 5.694422912597656250e+01 3.740414810180664062e+01 1.037415489554405212e-01 1.169697284698486328e+00 3.820316791534423828e-01 1.579021215438842773e-01
5.250000000000000000e+02 5.633885574340820312e+01 3.740927505493164062e+01 -1.093344986438751221e-01 1.972389072179794312e-01 2.637132443487644196e-02 6.579887270927429199e-01
5.260000000000000000e+02 5.419157791137695312e+01 3.773574447631835938e+01 -6.936885714530944824e-01 -1.743487954139709473e+00 -7.311529517173767090e-01 9.423498511314392090e-01
5.270000000000000000e+02 5.398369216918945312e+01 3.739517211914062500e+01 -2.707307040691375732e-01 -1.943840146064758301e+00 -6.643712520599365234e-01 5.191926956176757812e-01
5.280000000000000000e+02 5.628546524047851562e+01 3.684767150878906250e+01 -3.720651865005493164e-01 2.084100693464279175e-01 -4.909653589129447937e-02 8.144936561584472656e-01
5.290000000000000000e+02 5.373155212402343750e+01 3.824618148803710938e+01 -1.394532322883605957e+00 -2.608915090560913086e+00 -1.201034188270568848e+00 1.534299492835998535e+00
5.300000000000000000e+02 5.377074432373046875e+01 3.916313552856445312e+01 1.600182950496673584e-01 -1.493043184280395508e+00 -3.999074697494506836e-01 5.856698751449584961e-01
5.310000000000000000e+02 5.300164031982421875e+01 3.912795257568359375e+01 -6.018186211585998535e-01 -9.252170324325561523e-01 -4.581107199192047119e-01 8.208147287368774414e-01
5.320000000000000000e+02 5.253227233886718750e+01 3.900502395629882812e+01 -6.952735781669616699e-01 -1.150131225585937500e-01 -2.430860102176666260e-01 5.996179580688476562e-01
5.330000000000000000e+02 5.130390548706054688e+01 3.847877883911132812e+01 2.172539234161376953e-01 -9.687291830778121948e-02 3.611430153250694275e-02 1.942732036113739014e-01
5.340000000000000000e+02 5.207728958129882812e+01 3.892007827758789062e+01 -1.631510406732559204e-01 -2.000955045223236084e-01 -1.089739650487899780e-01 3.597996234893798828e-01
5.350000000000000000e+02 4.903367614746093750e+01 3.739386749267578125e+01 2.535977959632873535e-01 1.350902579724788666e-02 8.013204485177993774e-02 9.408722072839736938e-02
5.360000000000000000e+02 4.938923263549804688e+01 3.753656768798828125e+01 2.616877257823944092e-01 4.034062847495079041e-02 9.060850739479064941e-02 8.157432079315185547e-02
5.370000000000000000e+02 4.529961013793945312e+01 3.504401397705078125e+01 1.009457483887672424e-01 5.093095451593399048e-02 4.556300863623619080e-02 7.445238530635833740e-02
5.380000000000000000e+02 4.290087509155273438e+01 3.578575134277343750e+01 9.419492632150650024e-02 4.715730249881744385e-02 4.240566864609718323e-02 5.760092660784721375e-02
5.390000000000000000e+02 4.164152145385742188e+01 3.848824310302734375e+01 1.011153981089591980e-01 4.618254303932189941e-02 4.418938234448432922e-02 2.979486994445323944e-02
5.400000000000000000e+02 3.170572853088378906e+01 3.852035140991210938e+01 3.456963598728179932e-02 6.959856301546096802e-02 3.125045821070671082e-02 1.623455435037612915e-02
5.410000000000000000e+02 1.756274414062500000e+01 4.104234313964843750e+01 -5.057745613157749176e-03 3.406844288110733032e-02 8.703209459781646729e-03 1.113359001465141773e-03
5.420000000000000000e+02 2.023399353027343750e+00 3.676857757568359375e+01 -2.928234753198921680e-04 -1.043503731489181519e-01 -3.139295801520347595e-02 -3.981567919254302979e-03
5.430000000000000000e+02 6.405672430992126465e-01 3.324617004394531250e+01 -5.131848738528788090e-04 -1.239675804972648621e-01 -3.734422847628593445e-02 -1.497128512710332870e-03
5.440000000000000000e+02 1.980391383171081543e+00 3.029643630981445312e+01 -5.040267715230584145e-04 -1.165629848837852478e-01 -3.512010350823402405e-02 -6.026516202837228775e-03
5.450000000000000000e+02 6.251304745674133301e-01 2.758407592773437500e+01 -3.207724075764417648e-04 -1.425704509019851685e-01 -4.286736622452735901e-02 -2.689598128199577332e-03
5.460000000000000000e+02 1.807920098304748535e+00 2.600761795043945312e+01 -9.919309522956609726e-04 -1.319300681352615356e-01 -3.987660259008407593e-02 -8.214198052883148193e-03
5.470000000000000000e+02 5.907767772674560547e+00 1.874876022338867188e+01 -1.367233227938413620e-03 -6.463880091905593872e-02 -1.980181038379669189e-02 -2.282171137630939484e-02
5.480000000000000000e+02 1.690566635131835938e+01 6.682705879211425781e+00 2.051002085208892822e-01 2.163056880235671997e-01 1.264217644929885864e-01 2.160912007093429565e-01
5.490000000000000000e+02 2.142565727233886719e+01 1.127831077575683594e+01 1.456740647554397583e-01 1.544951796531677246e-01 9.005077183246612549e-02 1.500232815742492676e-01
5.500000000000000000e+02 2.476729774475097656e+01 1.472669219970703125e+01 1.194905564188957214e-01 1.103164404630661011e-01 6.894209980964660645e-02 1.165725886821746826e-01
5.510000000000000000e+02 2.622631645202636719e+01 1.614373397827148438e+01 1.067513152956962585e-01 1.182070299983024597e-01 6.748750060796737671e-02 1.118934527039527893e-01
5.520000000000000000e+02 2.497365951538085938e+01 1.570206642150878906e+01 1.051260456442832947e-01 1.154011860489845276e-01 6.615816801786422729e-02 1.142021194100379944e-01
5.530000000000000000e+02 3.078967857360839844e+01 2.060963058471679688e+01 8.575553447008132935e-02 8.490285277366638184e-02 5.119751393795013428e-02 8.511006832122802734e-02
5.540000000000000000e+02 2.527831268310546875e+01 2.875851821899414062e+01 2.156185731291770935e-02 8.779490739107131958e-02 3.280702978372573853e-02 4.787848517298698425e-02
5.550000000000000000e+02 1.461490345001220703e+01 3.041582298278808594e+01 -7.651044987142086029e-03 3.183748573064804077e-02 7.255931850522756577e-03 6.296170409768819809e-03
5.560000000000000000e+02 1.348983860015869141e+01 3.194852828979492188e+01 -8.584074676036834717e-03 1.533484458923339844e-02 2.025231020525097847e-03 4.013376892544329166e-04
5.570000000000000000e+02 6.380712509155273438e+00 3.142527198791503906e+01 -4.395859315991401672e-03 -6.029623001813888550e-02 -1.940762624144554138e-02 -9.645490907132625580e-03
5.580000000000000000e+02 1.330693817138671875e+01 3.814184188842773438e+01 -7.976088672876358032e-03 4.831186030060052872e-03 -9.434708044864237309e-04 -2.742257784120738506e-04
5.590000000000000000e+02 2.071630954742431641e+00 4.160862350463867188e+01 -4.072678275406360626e-03 -1.019803583621978760e-01 -3.181590884923934937e-02 -1.145062735304236412e-03
5.600000000000000000e+02 5.491480231285095215e-01 2.052630043029785156e+01 4.621018888428807259e-04 -1.853426545858383179e-01 -5.546416342258453369e-02 -4.322788678109645844e-03
5.610000000000000000e+02 1.654798865318298340e+00 1.622449874877929688e+01 1.292966655455529690e-03 -1.858736127614974976e-01 -5.537419393658638000e-02 -1.200276613235473633e-02
5.620000000000000000e+02 5.995561599731445312e+00 1.172313117980957031e+01 3.911269828677177429e-02 -6.732313334941864014e-02 -8.463130332529544830e-03 -6.448931526392698288e-03
5.630000000000000000e+02 1.392952251434326172e+01 3.437745332717895508e+00 3.098938167095184326e-01 1.682584047317504883e+00 5.977433323860168457e-01 4.900385737419128418e-01
5.640000000000000000e+02 1.663099098205566406e+01 6.397118568420410156e+00 2.346253246068954468e-01 2.449839711189270020e-01 1.438827812671661377e-01 2.338502109050750732e-01
5.650000000000000000e+02 1.608396339416503906e+01 5.816689968109130859e+00 2.425605952739715576e-01 3.384488821029663086e-01 1.743028461933135986e-01 2.694258689880371094e-01
5.660000000000000000e+02 5.508149266242980957e-01 1.489610290527343750e+01 1.079544541426002979e-03 -2.304901033639907837e-01 -6.882316619157791138e-02 -3.936247900128364563e-03
5.670000000000000000e+02 1.595396399497985840e+00 9.244844436645507812e+00 8.809724822640419006e-03 -1.874674111604690552e-01 -5.359730497002601624e-02 2.094344794750213623e-02
5.680000000000000000e+02 8.317188262939453125e+00 2.481845378875732422e+00 -1.005691885948181152e-01 -1.861777603626251221e-01 -8.602408319711685181e-02 2.879663407802581787e-01
5.690000000000000000e+02 1.128942775726318359e+01 1.590983510017395020e+00 -3.669351339340209961e-02 -4.347991645336151123e-01 -1.414477974176406860e-01 4.914176166057586670e-01
5.700000000000000000e+02 9.778354644775390625e+00 1.802133798599243164e+00 -2.203639149665832520e-01 -2.823474705219268799e-01 -1.508134156465530396e-01 4.024156033992767334e-01
5.710000000000000000e+02 2.276918411254882812e+00 4.438457012176513672e+00 -2.824468538165092468e-03 -9.257426112890243530e-02 -2.861961908638477325e-02 7.274740934371948242e-02
5.720000000000000000e+02 5.265137553215026855e-01 6.417898654937744141e+00 2.358186757192015648e-04 -1.577538400888442993e-01 -4.725540801882743835e-02 1.675288006663322449e-02
5.730000000000000000e+02 5.445017814636230469e+00 1.854069232940673828e+00 -1.334651261568069458e-01 -3.343249112367630005e-02 -5.006928741931915283e-02 1.245942711830139160e-01
5.740000000000000000e+02 1.053060054779052734e+01 1.730458259582519531e+00 -1.618521362543106079e-01 -3.966062068939208984e-01 -1.675375103950500488e-01 4.756341278553009033e-01
5.750000000000000000e+02 1.384610462188720703e+01 1.708380222320556641e+00 1.731806635856628418e+00 3.146229028701782227e+00 1.463410615921020508e+00 -1.614167571067810059e+00
5.760000000000000000e+02 1.375322151184082031e+01 2.134767532348632812e+00 6.185064315795898438e-01 3.140550851821899414e+00 1.127717137336730957e+00 -9.643035531044006348e-01
5.770000000000000000e+02 1.412070465087890625e+01 1.342780947685241699e+00 2.976897954940795898e+00 2.949027538299560547e+00 1.777777671813964844e+00 -2.217485904693603516e+00
5.780000000000000000e+02 1.541033554077148438e+01 8.580549359321594238e-01 8.322567939758300781e+00 2.120924293994903564e-01 2.560398101806640625e+00 -7.532049417495727539e-01
5.790000000000000000e+02 3.137670326232910156e+01 2.117180252075195312e+01 8.248360455036163330e-02 7.661516219377517700e-02 4.772963002324104309e-02 7.959864288568496704e-02
5.800000000000000000e+02 3.284032440185546875e+01 2.991258621215820312e+01 5.052967742085456848e-02 7.961285859346389771e-02 3.904275968670845032e-02 5.728180333971977234e-02
5.810000000000000000e+02 2.801146125793457031e+01 3.828337478637695312e+01 2.255195379257202148e-02 7.179218530654907227e-02 2.830324135720729828e-02 1.771943643689155579e-02
5.820000000000000000e+02 3.541479873657226562e+01 2.561086273193359375e+01 6.356155127286911011e-02 8.122758567333221436e-02 4.343673959374427795e-02 6.954851001501083374e-02
5.830000000000000000e+02 3.862487030029296875e+01 3.698686599731445312e+01 7.957656681537628174e-02 5.652816966176033020e-02 4.083142057061195374e-02 3.713229671120643616e-02
5.840000000000000000e+02 4.559270477294921875e+01 3.531622314453125000e+01 1.032305136322975159e-01 5.431937053799629211e-02 4.726496338844299316e-02 7.309520244598388672e-02
5.850000000000000000e+02 3.602132415771484375e+01 -1.692643356323242188e+01 -4.827974364161491394e-02 -3.223969042301177979e-02 -2.415583096444606781e-02 8.586803823709487915e-02
5.860000000000000000e+02 4.044322967529296875e+01 -2.419303512573242188e+01 -4.964575543999671936e-02 6.496679782867431641e-01 1.800066679716110229e-01 -1.079549416899681091e-01
5.870000000000000000e+02 4.057008743286132812e+01 -2.729113769531250000e+01 4.100362956523895264e-02 4.718893766403198242e-01 1.538679003715515137e-01 -1.755272299051284790e-01
5.880000000000000000e+02 3.986685943603515625e+01 -1.707955741882324219e+01 7.315070834010839462e-03 7.556172013282775879e-01 2.288796901702880859e-01 -7.120129466056823730e-02
5.890000000000000000e+02 4.073946380615234375e+01 -1.464943218231201172e+01 7.695247977972030640e-02 9.751620888710021973e-01 3.156343698501586914e-01 -7.211902737617492676e-02
5.900000000000000000e+02 3.569073867797851562e+01 -1.889904403686523438e+01 -1.088139340281486511e-01 -2.386584132909774780e-01 -1.042417064309120178e-01 1.755212545394897461e-01
5.910000000000000000e+02 3.423111343383789062e+01 -1.654953193664550781e+01 -1.065326482057571411e-01 -3.114580512046813965e-01 -1.253972053527832031e-01 1.979887187480926514e-01
5.920000000000000000e+02 4.305777740478515625e+01 -2.598696136474609375e+01 -8.753990381956100464e-02 1.513646960258483887e+00 4.278320968151092529e-01 -2.310353815555572510e-01
5.930000000000000000e+02 4.181200790405273438e+01 -2.662769317626953125e+01 -2.341156080365180969e-02 1.032190918922424316e+00 3.026338219642639160e-01 -2.302247881889343262e-01
5.940000000000000000e+02 4.501848983764648438e+01 -3.611281967163085938e+01 5.570437312126159668e-01 4.642062664031982422e+00 1.559731960296630859e+00 1.836109161376953125e-01
5.950000000000000000e+02 3.829900360107421875e+01 -4.150571060180664062e+01 1.500312447547912598e+00 3.854513764381408691e-01 5.657291412353515625e-01 -2.206763327121734619e-01
5.960000000000000000e+02 6.527709197998046875e+01 2.864519882202148438e+01 -3.037730455398559570e-01 1.145787429809570312e+01 3.346230506896972656e+00 -8.156646490097045898e-01
5.970000000000000000e+02 7.320039367675781250e+01 2.521001243591308594e+01 -1.914122700691223145e-01 7.974784851074218750e+00 2.335011720657348633e+00 -1.499904155731201172e+00
5.980000000000000000e+02 6.534049987792968750e+01 3.453720092773437500e+01 4.934066295623779297e+00 1.241897583007812500e+01 5.205912590026855469e+00 5.030812621116638184e-01
5.990000000000000000e+02 4.619454574584960938e+01 2.663173484802246094e+01 -8.117488622665405273e-01 -7.415765523910522461e-01 -4.659976363182067871e-01 -7.991451621055603027e-01
6.000000000000000000e+02 4.833140563964843750e+01 2.219730186462402344e+01 -3.100934028625488281e-01 5.681422948837280273e-01 7.741466164588928223e-02 1.127838790416717529e-01
6.010000000000000000e+02 4.885441589355468750e+01 1.505364799499511719e+01 -2.866753339767456055e-01 1.725997090339660645e+00 4.317965507507324219e-01 4.031082987785339355e-01
6.020000000000000000e+02 4.855489730834960938e+01 -9.677019119262695312e-01 -4.770841449499130249e-03 2.391674041748046875e+00 7.160709500312805176e-01 2.914702296257019043e-01
6.030000000000000000e+02 4.672043609619140625e+01 1.773910045623779297e+00 -4.698091372847557068e-02 1.900226473808288574e+00 5.559736490249633789e-01 2.744114100933074951e-01
6.040000000000000000e+02 6.064336776733398438e+01 1.410413146018981934e+00 -2.180257290601730347e-01 5.308904647827148438e+00 1.527263641357421875e+00 3.507565557956695557e-01
6.050000000000000000e+02 5.916282272338867188e+01 1.342975854873657227e+00 -2.148755490779876709e-01 4.921165466308593750e+00 1.411886930465698242e+00 3.889257907867431641e-01
6.060000000000000000e+02 6.041295623779296875e+01 8.730997085571289062e+00 -4.819663763046264648e-01 5.445708751678466797e+00 1.489122748374938965e+00 4.488044977188110352e-01
6.070000000000000000e+02 6.070562362670898438e+01 1.706033515930175781e+01 -8.434171676635742188e-01 6.129557609558105469e+00 1.585842132568359375e+00 6.937276721000671387e-01
6.080000000000000000e+02 4.806776046752929688e+01 2.246118164062500000e+01 -3.362142741680145264e-01 4.423241317272186279e-01 3.183295950293540955e-02 4.271916300058364868e-02
6.090000000000000000e+02 4.016785430908203125e+01 2.144949913024902344e+01 -9.539709091186523438e-01 -7.942242026329040527e-01 -5.244585275650024414e-01 -8.877914547920227051e-01
6.100000000000000000e+02 4.596550369262695312e+01 2.692482566833496094e+01 -8.687641620635986328e-01 -8.183372616767883301e-01 -5.061303973197937012e-01 -8.505749702453613281e-01
6.110000000000000000e+02 4.568224716186523438e+01 2.664787864685058594e+01 -8.552277088165283203e-01 -8.432770371437072754e-01 -5.095514059066772461e-01 -8.600935339927673340e-01
6.120000000000000000e+02 3.345769882202148438e+01 1.353700542449951172e+01 -1.122976422309875488e+00 -1.219809770584106445e+00 -7.028358578681945801e-01 -1.141865491867065430e+00
6.130000000000000000e+02 3.320622634887695312e+01 1.378933429718017578e+01 -1.222455739974975586e+00 -1.267410993576049805e+00 -7.469599843025207520e-01 -1.227495193481445312e+00
6.140000000000000000e+02 3.377182006835937500e+01 6.217079639434814453e+00 -7.290775775909423828e-01 -4.465551674365997314e-01 -3.526898324489593506e-01 -5.048269629478454590e-01
6.150000000000000000e+02 3.253699493408203125e+01 5.622837066650390625e+00 -8.524138927459716797e-01 -5.069653987884521484e-01 -4.078137874603271484e-01 -5.639430880546569824e-01
6.160000000000000000e+02 4.142976379394531250e+01 -7.043342590332031250e-01 6.805498898029327393e-02 9.087892174720764160e-01 2.930532693862915039e-01 1.424643248319625854e-01
6.170000000000000000e+02 4.076002883911132812e+01 3.023423552513122559e-01 1.707099936902523041e-02 7.686834335327148438e-01 2.357263267040252686e-01 1.234843656420707703e-01
6.180000000000000000e+02 6.666127777099609375e+01 1.762606048583984375e+01 -9.391845464706420898e-01 7.842197418212890625e+00 2.070903778076171875e+00 -2.192728668451309204e-01
6.190000000000000000e+02 6.758396911621093750e+01 1.825940322875976562e+01 -9.245277643203735352e-01 8.041733741760253906e+00 2.135161638259887695e+00 -3.855700790882110596e-01
6.200000000000000000e+02 7.324806976318359375e+01 1.774840164184570312e+01 -4.064009785652160645e-01 8.178621292114257812e+00 2.331666231155395508e+00 -7.843527197837829590e-01
6.210000000000000000e+02 3.922017669677734375e+01 1.233430576324462891e+01 -6.130831837654113770e-01 -2.078898400068283081e-01 -2.462919056415557861e-01 -4.368392527103424072e-01
6.220000000000000000e+02 3.877415847778320312e+01 2.003217124938964844e+01 -7.611380815505981445e-01 -9.932748079299926758e-01 -5.263238549232482910e-01 -8.902024626731872559e-01
6.230000000000000000e+02 6.003157043457031250e+01 1.014249992370605469e+01 -5.342777967453002930e-01 5.402531147003173828e+00 1.460476040840148926e+00 4.799152612686157227e-01
6.240000000000000000e+02 7.342790985107421875e+01 1.074513816833496094e+01 -2.255368977785110474e-01 8.209188461303710938e+00 2.395095586776733398e+00 -2.557748854160308838e-01
6.250000000000000000e+02 7.229631805419921875e+01 1.056057357788085938e+01 -2.890494465827941895e-01 8.037233352661132812e+00 2.324455261230468750e+00 -2.370284497737884521e-01
6.260000000000000000e+02 6.779948425292968750e+01 9.827023506164550781e+00 -4.683811068534851074e-01 7.239240169525146484e+00 2.031257629394531250e+00 -1.667029596865177155e-02
6.270000000000000000e+02 7.218284606933593750e+01 1.619948625564575195e+00 -1.066624075174331665e-01 7.856771469116210938e+00 2.325032711029052734e+00 9.014490246772766113e-02
6.280000000000000000e+02 6.529331970214843750e+01 2.100309133529663086e+00 -2.327151298522949219e-01 6.385050296783447266e+00 1.845700502395629883e+00 2.444354593753814697e-01
6.290000000000000000e+02 1.268721294403076172e+01 -1.032404613494873047e+01 7.059905678033828735e-02 -4.390417039394378662e-01 -1.105327978730201721e-01 -5.032239556312561035e-01
6.300000000000000000e+02 1.950705909729003906e+01 -1.807015991210937500e+01 1.938114464282989502e-01 9.189777076244354248e-02 8.571276813745498657e-02 -2.740716934204101562e-01
6.310000000000000000e+02 5.707789063453674316e-01 -1.068272686004638672e+01 -4.876703489571809769e-03 -3.522202372550964355e-01 -1.071290895342826843e-01 -4.027655348181724548e-02
6.320000000000000000e+02 1.647191810607910156e+01 -2.368209648132324219e+01 1.695390045642852783e-01 -1.347414702177047729e-01 1.043926179409027100e-02 -2.770234942436218262e-01
6.330000000000000000e+02 7.662641048431396484e+00 -2.303989219665527344e+01 6.892190128564834595e-02 -6.438206434249877930e-01 -1.724696159362792969e-01 -2.261139750480651855e-01
6.340000000000000000e+02 6.775672435760498047e-01 -1.772737693786621094e+01 4.031456075608730316e-03 -8.282750844955444336e-01 -2.472731024026870728e-01 -3.982217982411384583e-02
6.350000000000000000e+02 1.818990898132324219e+01 -3.368407058715820312e+01 2.075804471969604492e-01 -8.418582379817962646e-02 3.701838478446006775e-02 -1.693504452705383301e-01
6.360000000000000000e+02 6.928898334503173828e+00 -3.113920593261718750e+01 3.907752782106399536e-02 -7.913386225700378418e-01 -2.256783396005630493e-01 -1.197445690631866455e-01
6.370000000000000000e+02 2.402899742126464844e+01 -2.540804672241210938e+01 2.012790739536285400e-01 3.963493108749389648e-01 1.792885214090347290e-01 -3.148447275161743164e-01
6.380000000000000000e+02 6.464117765426635742e-01 -2.337770080566406250e+01 3.003970487043261528e-03 -1.105310201644897461e+00 -3.306918740272521973e-01 -2.560362964868545532e-02
6.390000000000000000e+02 2.475634765625000000e+01 -3.076160812377929688e+01 2.693944275379180908e-01 3.538310527801513672e-01 1.869676411151885986e-01 -2.839791774749755859e-01
6.400000000000000000e+02 7.206236720085144043e-01 -3.038453102111816406e+01 -1.829024986363947392e-03 -1.313856124877929688e+00 -3.947055637836456299e-01 -1.560618821531534195e-02
6.410000000000000000e+02 7.336005401611328125e+01 -3.146810722351074219e+01 4.539347812533378601e-02 7.382806301116943359e+00 2.228459835052490234e+00 1.835439652204513550e-01
6.420000000000000000e+02 6.668460083007812500e+01 -3.350306701660156250e+01 1.595031768083572388e-01 6.269948959350585938e+00 1.928835749626159668e+00 2.489209324121475220e-01
6.430000000000000000e+02 7.270150756835937500e+01 -2.423317337036132812e+01 1.028575655072927475e-02 7.427490711212158203e+00 2.231333017349243164e+00 2.370596230030059814e-01
6.440000000000000000e+02 6.787341308593750000e+01 -2.323360252380371094e+01 1.503714825958013535e-02 6.598260402679443359e+00 1.983989238739013672e+00 3.333308100700378418e-01
6.450000000000000000e+02 4.677485275268554688e+01 -2.396169471740722656e+01 -1.596798300743103027e-01 2.641435384750366211e+00 7.445266246795654297e-01 -5.579848214983940125e-02
6.460000000000000000e+02 5.627912521362304688e+01 -2.141098976135253906e+01 -6.110882386565208435e-02 4.516129016876220703e+00 1.336506128311157227e+00 2.823987007141113281e-01
6.470000000000000000e+02 4.632210540771484375e+01 -3.389947509765625000e+01 4.210657477378845215e-01 3.728463888168334961e+00 1.244858980178833008e+00 1.279837042093276978e-01
6.480000000000000000e+02 7.324762725830078125e+01 -4.683056354522705078e+00 -3.907052800059318542e-02 7.974695682525634766e+00 2.380687475204467773e+00 1.579583585262298584e-01
6.490000000000000000e+02 7.169950103759765625e+01 -1.054798412322998047e+01 -2.753395587205886841e-02 7.526195049285888672e+00 2.249598264694213867e+00 2.270537614822387695e-01
6.500000000000000000e+02 6.623604583740234375e+01 -2.212022066116333008e+00 -1.319320350885391235e-01 6.500716686248779297e+00 1.910635352134704590e+00 2.607035636901855469e-01
6.510000000000000000e+02 6.782594299316406250e+01 -1.079246330261230469e+01 -4.245359823107719421e-02 6.715512752532958984e+00 2.001917600631713867e+00 2.894810736179351807e-01
6.520000000000000000e+02 6.122626495361328125e+01 -4.393831729888916016e+00 -1.146471202373504639e-01 5.372488498687744141e+00 1.577352523803710938e+00 3.328042924404144287e-01
6.530000000000000000e+02 5.239013671875000000e+01 -1.137691688537597656e+01 -1.126783527433872223e-02 3.449210882186889648e+00 1.031382918357849121e+00 1.873596608638763428e-01
6.540000000000000000e+02 4.803340530395507812e+01 -3.988517284393310547e+00 6.230777502059936523e-02 2.335466146469116211e+00 7.193321585655212402e-01 2.266795635223388672e-01
6.550000000000000000e+02 4.575070571899414062e+01 -1.077952194213867188e+01 9.805922955274581909e-02 1.984121918678283691e+00 6.246543526649475098e-01 4.408952593803405762e-02
6.560000000000000000e+02 4.067307281494140625e+01 -6.579155445098876953e+00 2.324635982513427734e-01 8.785285949707031250e-01 3.332976400852203369e-01 4.578070715069770813e-02
6.570000000000000000e+02 3.955849075317382812e+01 -1.063128089904785156e+01 2.030625492334365845e-01 7.240822315216064453e-01 2.781434357166290283e-01 -5.483273044228553772e-02
6.580000000000000000e+02 3.589722442626953125e+01 -6.074656486511230469e+00 3.445607423782348633e-01 1.165125742554664612e-01 1.383219957351684570e-01 -1.718624308705329895e-02
6.590000000000000000e+02 2.250357818603515625e+01 4.092110443115234375e+01 5.125465802848339081e-03 5.983025580644607544e-02 1.948671601712703705e-02 4.895002115517854691e-03
6.600000000000000000e+02 2.435552787780761719e+01 2.822621345520019531e+01 1.804092712700366974e-02 8.782181888818740845e-02 3.175882250070571899e-02 4.556058347225189209e-02
6.610000000000000000e+02 7.562184333801269531e+00 2.935634040832519531e+01 -6.950822193175554276e-03 -4.304287582635879517e-02 -1.499811001121997833e-02 -1.165815163403749466e-02
6.620000000000000000e+02 6.122409820556640625e+00 2.374771118164062500e+01 -5.655404180288314819e-03 -6.237751618027687073e-02 -2.040987648069858551e-02 -1.855469495058059692e-02
6.630000000000000000e+02 1.763618087768554688e+01 1.314294147491455078e+01 6.817946583032608032e-02 1.752538681030273438e-01 7.303000241518020630e-02 1.065505594015121460e-01
6.640000000000000000e+02 1.390780544281005859e+01 2.593480300903320312e+01 -7.294959854334592819e-03 4.444539174437522888e-02 1.114512979984283447e-02 7.302894257009029388e-03
6.650000000000000000e+02 1.310664463043212891e+01 2.496890640258789062e+01 -7.310969289392232895e-03 3.974682837724685669e-02 9.730757214128971100e-03 3.827900625765323639e-03
6.660000000000000000e+02 2.752839088439941406e+01 2.294220542907714844e+01 5.068089812994003296e-02 9.854961186647415161e-02 4.476915299892425537e-02 7.438276708126068115e-02
6.670000000000000000e+02 2.594791793823242188e+01 2.184265518188476562e+01 5.130188912153244019e-02 1.065402925014495850e-01 4.735265672206878662e-02 7.725884020328521729e-02
6.680000000000000000e+02 3.694629669189453125e+01 2.744040679931640625e+01 6.531430780887603760e-02 8.604250103235244751e-02 4.540704190731048584e-02 7.218330353498458862e-02
6.690000000000000000e+02 7.797843933105468750e+00 2.212015533447265625e+01 -5.983597133308649063e-03 -3.017678856849670410e-02 -1.084811612963676453e-02 -1.836525835096836090e-02
6.700000000000000000e+02 7.038098335266113281e+00 1.624698066711425781e+01 5.940542556345462799e-03 -3.354627266526222229e-02 -8.281718939542770386e-03 -2.123321779072284698e-02
6.710000000000000000e+02 1.925987625122070312e+01 1.455938434600830078e+01 7.127322256565093994e-02 1.549290716648101807e-01 6.786068528890609741e-02 1.035969853401184082e-01
6.720000000000000000e+02 5.900896549224853516e+00 1.038547134399414062e+01 5.755732581019401550e-02 -7.886803895235061646e-02 -6.393213756382465363e-03 2.768305595964193344e-03
6.730000000000000000e+02 5.194873809814453125e+01 3.279185104370117188e+01 -7.082747817039489746e-01 -1.055935859680175781e+00 -5.292631983757019043e-01 -8.598170876502990723e-01
6.740000000000000000e+02 5.416316604614257812e+01 3.372166061401367188e+01 -6.538885831832885742e-01 1.324962824583053589e-01 -1.564176827669143677e-01 -4.956908822059631348e-01
6.750000000000000000e+02 5.518962097167968750e+01 3.307860565185546875e+01 -3.269773125648498535e-01 3.145927190780639648e-01 -3.715376835316419601e-03 -3.718069195747375488e-01
6.760000000000000000e+02 5.144073867797851562e+01 3.217346191406250000e+01 -8.456768393516540527e-01 -1.086084008216857910e+00 -5.795282721519470215e-01 -9.448121786117553711e-01
6.770000000000000000e+02 5.117342376708984375e+01 3.187206459045410156e+01 -8.893154859542846680e-01 -1.060694217681884766e+00 -5.850029587745666504e-01 -9.505928158760070801e-01
6.780000000000000000e+02 5.169898986816406250e+01 3.248072052001953125e+01 -7.894340753555297852e-01 -1.100422978401184082e+00 -5.669571161270141602e-01 -9.087629318237304688e-01
6.790000000000000000e+02 5.089853286743164062e+01 3.157703971862792969e+01 -9.081680774688720703e-01 -1.016271471977233887e+00 -5.773318409919738770e-01 -9.522868990898132324e-01
6.800000000000000000e+02 5.061769104003906250e+01 3.128775405883789062e+01 -9.220301508903503418e-01 -9.844430685043334961e-01 -5.719419717788696289e-01 -9.387181997299194336e-01
6.810000000000000000e+02 4.917905807495117188e+01 2.989047431945800781e+01 -9.284132719039916992e-01 -8.907465934753417969e-01 -5.457479357719421387e-01 -9.083922505378723145e-01
6.820000000000000000e+02 4.859881591796875000e+01 2.934284782409667969e+01 -9.605710506439208984e-01 -8.691082596778869629e-01 -5.489038228988647461e-01 -9.098523855209350586e-01
6.830000000000000000e+02 4.830552291870117188e+01 2.907208633422851562e+01 -9.730812311172485352e-01 -8.540832996368408203e-01 -5.481493473052978516e-01 -9.020624160766601562e-01
6.840000000000000000e+02 4.801055908203125000e+01 2.880353927612304688e+01 -9.733060598373413086e-01 -8.279821872711181641e-01 -5.403864383697509766e-01 -8.967101573944091797e-01
6.850000000000000000e+02 4.683244705200195312e+01 2.773788261413574219e+01 -9.240298867225646973e-01 -7.831270694732666016e-01 -5.121470689773559570e-01 -8.572801351547241211e-01
6.860000000000000000e+02 4.654112243652343750e+01 2.746934890747070312e+01 -9.054620862007141113e-01 -7.896953225135803223e-01 -5.085472464561462402e-01 -8.497259020805358887e-01
6.870000000000000000e+02 4.625197601318359375e+01 2.719851112365722656e+01 -8.848229646682739258e-01 -7.975803613662719727e-01 -5.047209858894348145e-01 -8.496086597442626953e-01
6.880000000000000000e+02 4.540262985229492188e+01 2.636733627319335938e+01 -8.541121482849121094e-01 -8.823422193527221680e-01 -5.209363102912902832e-01 -8.753466010093688965e-01
6.890000000000000000e+02 4.512616729736328125e+01 2.608326911926269531e+01 -8.715445995330810547e-01 -9.272456765174865723e-01 -5.396370887756347656e-01 -9.032583236694335938e-01
6.900000000000000000e+02 4.311893463134765625e+01 2.414190673828125000e+01 -1.073344945907592773e+00 -8.758249282836914062e-01 -5.847509503364562988e-01 -9.683538079261779785e-01
6.910000000000000000e+02 4.252648925781250000e+01 2.360723876953125000e+01 -1.038458466529846191e+00 -8.662011027336120605e-01 -5.713978409767150879e-01 -9.533143639564514160e-01
6.920000000000000000e+02 4.194201278686523438e+01 2.306549835205078125e+01 -1.036278128623962402e+00 -9.016630649566650391e-01 -5.813823342323303223e-01 -9.672711491584777832e-01
6.930000000000000000e+02 4.165121078491210938e+01 2.279213905334472656e+01 -1.060343146324157715e+00 -9.162636995315551758e-01 -5.929820537567138672e-01 -9.814589023590087891e-01
6.940000000000000000e+02 4.135853958129882812e+01 2.251970863342285156e+01 -1.089731693267822266e+00 -9.125918149948120117e-01 -6.006970405578613281e-01 -9.862816333770751953e-01
6.950000000000000000e+02 4.076337051391601562e+01 2.198366928100585938e+01 -1.072698831558227539e+00 -8.387865424156188965e-01 -5.734456181526184082e-01 -9.464604258537292480e-01
6.960000000000000000e+02 3.987714385986328125e+01 2.117565917968750000e+01 -8.938922882080078125e-01 -8.061130642890930176e-01 -5.100015997886657715e-01 -8.708111643791198730e-01
6.970000000000000000e+02 3.959293746948242188e+01 2.089682769775390625e+01 -8.447313308715820312e-01 -8.351712226867675781e-01 -5.039707422256469727e-01 -8.632959127426147461e-01
6.980000000000000000e+02 3.931488418579101562e+01 2.061387062072753906e+01 -8.036237359046936035e-01 -8.761510252952575684e-01 -5.039324164390563965e-01 -8.643335700035095215e-01
6.990000000000000000e+02 3.934669494628906250e+01 1.997581863403320312e+01 -7.875244021415710449e-01 -8.762773871421813965e-01 -4.991405308246612549e-01 -8.893470764160156250e-01
7.000000000000000000e+02 3.851053619384765625e+01 1.973361968994140625e+01 -7.633545994758605957e-01 -1.065761804580688477e+00 -5.487349629402160645e-01 -9.144766926765441895e-01
7.010000000000000000e+02 3.825086975097656250e+01 1.943120002746582031e+01 -7.782865166664123535e-01 -1.134760022163391113e+00 -5.739139318466186523e-01 -9.483972191810607910e-01
7.020000000000000000e+02 3.904215240478515625e+01 2.032584762573242188e+01 -7.763876914978027344e-01 -9.303104281425476074e-01 -5.120094418525695801e-01 -8.713386058807373047e-01
7.030000000000000000e+02 3.878498077392578125e+01 1.941123390197753906e+01 -7.974343895912170410e-01 -9.703234434127807617e-01 -5.303273200988769531e-01 -9.150351881980895996e-01
7.040000000000000000e+02 3.748601150512695312e+01 1.851321983337402344e+01 -9.013128280639648438e-01 -1.291777491569519043e+00 -6.579270958900451660e-01 -1.068528294563293457e+00
7.050000000000000000e+02 3.722941589355468750e+01 1.820845031738281250e+01 -9.519249200820922852e-01 -1.302254319190979004e+00 -6.762537956237792969e-01 -1.101477384567260742e+00
7.060000000000000000e+02 3.670523834228515625e+01 1.760762023925781250e+01 -1.014287114143371582e+00 -1.272197484970092773e+00 -6.859453916549682617e-01 -1.128589034080505371e+00
7.070000000000000000e+02 3.643870162963867188e+01 1.731114387512207031e+01 -1.027322888374328613e+00 -1.255634188652038574e+00 -6.848871111869812012e-01 -1.130315303802490234e+00
7.080000000000000000e+02 3.696911239624023438e+01 1.790654182434082031e+01 -9.910816550254821777e-01 -1.292118906974792480e+00 -6.849601864814758301e-01 -1.120058298110961914e+00
7.090000000000000000e+02 3.536005783081054688e+01 1.613654518127441406e+01 -1.049110293388366699e+00 -1.233460187911987305e+00 -6.847711801528930664e-01 -1.135878324508666992e+00
7.100000000000000000e+02 3.508958435058593750e+01 1.584402179718017578e+01 -1.044816017150878906e+00 -1.230654597282409668e+00 -6.826412081718444824e-01 -1.136601448059082031e+00
7.110000000000000000e+02 3.482023620605468750e+01 1.555126285552978516e+01 -1.039326667785644531e+00 -1.236562490463256836e+00 -6.827667355537414551e-01 -1.135979890823364258e+00
7.120000000000000000e+02 3.428749465942382812e+01 1.496196651458740234e+01 -1.045610785484313965e+00 -1.284860610961914062e+00 -6.991414427757263184e-01 -1.159995555877685547e+00
7.130000000000000000e+02 3.402294540405273438e+01 1.466458606719970703e+01 -1.080126643180847168e+00 -1.320014715194702148e+00 -7.200424075126647949e-01 -1.190525174140930176e+00
7.140000000000000000e+02 3.375630187988281250e+01 1.436797332763671875e+01 -1.139237523078918457e+00 -1.340544819831848145e+00 -7.439346909523010254e-01 -1.219344615936279297e+00
7.150000000000000000e+02 3.348449325561523438e+01 1.407572650909423828e+01 -1.195482492446899414e+00 -1.320883393287658691e+00 -7.549098134040832520e-01 -1.238490343093872070e+00
7.160000000000000000e+02 3.292427444458007812e+01 1.350699329376220703e+01 -1.196831822395324707e+00 -1.204919099807739258e+00 -7.205252647399902344e-01 -1.202075600624084473e+00
7.170000000000000000e+02 3.101379394531250000e+01 1.100017356872558594e+01 -1.302979111671447754e+00 -1.147588372230529785e+00 -7.351702451705932617e-01 -1.181672334671020508e+00
7.180000000000000000e+02 3.050569725036621094e+01 8.999396324157714844e+00 -1.149841547012329102e+00 -9.386233091354370117e-01 -6.265394687652587891e-01 -8.555873632431030273e-01
7.190000000000000000e+02 3.009522247314453125e+01 9.587140083312988281e+00 -1.341298222541809082e+00 -9.435815811157226562e-01 -6.854639053344726562e-01 -1.041647791862487793e+00
7.200000000000000000e+02 2.943313217163085938e+01 1.004480266571044922e+01 -1.455610871315002441e+00 -1.059133648872375488e+00 -7.544233798980712891e-01 -1.256153821945190430e+00
7.210000000000000000e+02 2.913752555847167969e+01 9.872532844543457031e+00 -1.528273224830627441e+00 -1.221405744552612305e+00 -8.249036669731140137e-01 -1.427633643150329590e+00
7.220000000000000000e+02 2.885642814636230469e+01 9.638393402099609375e+00 -1.618545055389404297e+00 -1.448659896850585938e+00 -9.201614856719970703e-01 -1.520361542701721191e+00
7.230000000000000000e+02 2.959400558471679688e+01 9.133900642395019531e+00 -1.521277308464050293e+00 -8.255252838134765625e-01 -7.040407657623291016e-01 -8.705143928527832031e-01
7.240000000000000000e+02 2.797870254516601562e+01 8.813936233520507812e+00 -3.297549247741699219e+00 -1.911123275756835938e+00 -1.562601804733276367e+00 -2.454524278640747070e+00
7.250000000000000000e+02 2.861049652099609375e+01 9.374103546142578125e+00 -2.002029418945312500e+00 -1.562692403793334961e+00 -1.069416522979736328e+00 -1.711864948272705078e+00
7.260000000000000000e+02 2.835379600524902344e+01 8.796111106872558594e+00 -2.837272882461547852e+00 -1.115268707275390625e+00 -1.185762524604797363e+00 -1.694724559783935547e+00
7.270000000000000000e+02 2.771314430236816406e+01 8.554718017578125000e+00 -3.707973241806030273e+00 -2.147000789642333984e+00 -1.756492257118225098e+00 -2.957827806472778320e+00
7.280000000000000000e+02 2.727041435241699219e+01 8.159408569335937500e+00 -3.879349470138549805e+00 -2.430149078369140625e+00 -1.892849564552307129e+00 -3.081199169158935547e+00
7.290000000000000000e+02 2.679916191101074219e+01 7.842544555664062500e+00 -4.235536098480224609e+00 -2.656850337982177734e+00 -2.067715883255004883e+00 -3.907279491424560547e+00
7.300000000000000000e+02 2.632369041442871094e+01 7.528412818908691406e+00 -5.675177574157714844e+00 -3.088884115219116211e+00 -2.629218578338623047e+00 -4.123182773590087891e+00
7.310000000000000000e+02 2.598006057739257812e+01 7.298244953155517578e+00 -6.238076686859130859e+00 -3.248589277267456055e+00 -2.845999717712402344e+00 -4.232384204864501953e+00
7.320000000000000000e+02 2.616610527038574219e+01 7.424701690673828125e+00 -5.480182170867919922e+00 -3.658001899719238281e+00 -2.741455078125000000e+00 -4.399679660797119141e+00
7.330000000000000000e+02 2.648073196411132812e+01 7.650238037109375000e+00 -5.203137397766113281e+00 -3.488810062408447266e+00 -2.607584238052368164e+00 -4.323865413665771484e+00
7.340000000000000000e+02 2.664261054992675781e+01 7.755420207977294922e+00 -5.364346981048583984e+00 -3.465095758438110352e+00 -2.648832798004150391e+00 -3.906192064285278320e+00
7.350000000000000000e+02 2.673066902160644531e+01 7.884767055511474609e+00 -4.895272254943847656e+00 -3.394642591476440430e+00 -2.486974477767944336e+00 -4.258838176727294922e+00
7.360000000000000000e+02 2.691510009765625000e+01 7.947913169860839844e+00 -4.960394382476806641e+00 -3.129261970520019531e+00 -2.426897048950195312e+00 -3.569941282272338867e+00
7.370000000000000000e+02 2.707943534851074219e+01 8.053480148315429688e+00 -4.364988327026367188e+00 -2.834800958633422852e+00 -2.159936904907226562e+00 -3.558442354202270508e+00
7.380000000000000000e+02 2.733045387268066406e+01 8.364109039306640625e+00 -4.376303672790527344e+00 -2.959076166152954102e+00 -2.200613975524902344e+00 -3.557106494903564453e+00
7.390000000000000000e+02 2.755171966552734375e+01 8.395728111267089844e+00 -4.134829044342041016e+00 -2.234487056732177734e+00 -1.910794854164123535e+00 -2.928487062454223633e+00
7.400000000000000000e+02 2.888070297241210938e+01 5.128927230834960938e+00 -1.603305459022521973e+00 -9.909003376960754395e-01 -7.782617211341857910e-01 -8.861410617828369141e-01
7.410000000000000000e+02 2.892897415161132812e+01 5.481995105743408203e+00 -1.644949674606323242e+00 -1.095744848251342773e+00 -8.222083449363708496e-01 -9.491766691207885742e-01
7.420000000000000000e+02 2.640074729919433594e+01 3.882727861404418945e+00 -2.050427198410034180e+00 -7.279404997825622559e-01 -8.335103392601013184e-01 -1.095840096473693848e+00
7.430000000000000000e+02 2.690266990661621094e+01 4.192690372467041016e+00 -1.966598153114318848e+00 -8.186460137367248535e-01 -8.355732560157775879e-01 -1.096377015113830566e+00
7.440000000000000000e+02 2.597185897827148438e+01 3.153852224349975586e+00 -1.972752094268798828e+00 -5.945973396301269531e-01 -7.702048420906066895e-01 -9.466042518615722656e-01
7.450000000000000000e+02 2.485914039611816406e+01 2.911631584167480469e+00 -2.265043497085571289e+00 -5.762028694152832031e-01 -8.523738980293273926e-01 -1.084163069725036621e+00
7.460000000000000000e+02 2.280096817016601562e+01 1.664549827575683594e+00 -2.308594942092895508e+00 -5.059325695037841797e-01 -8.443582653999328613e-01 -1.297815561294555664e+00
7.470000000000000000e+02 2.183576202392578125e+01 1.037941336631774902e+00 -2.090464353561401367e+00 -5.261382460594177246e-01 -7.849807739257812500e-01 -1.675654411315917969e+00
7.480000000000000000e+02 2.207834815979003906e+01 9.709609746932983398e-01 -2.078410387039184570e+00 -3.840498924255371094e-01 -7.387380599975585938e-01 -1.553688049316406250e+00
7.490000000000000000e+02 2.083446121215820312e+01 2.522695660591125488e-01 -1.961838722229003906e+00 -1.751818180084228516e+00 -1.114097118377685547e+00 -2.593121528625488281e+00
7.500000000000000000e+02 2.002680969238281250e+01 -4.584261402487754822e-02 -2.002827167510986328e+00 -2.127689123153686523e+00 -1.239154934883117676e+00 -1.770053267478942871e+00
7.510000000000000000e+02 1.989602661132812500e+01 -3.276323378086090088e-01 -1.973984122276306152e+00 -2.267394542694091797e+00 -1.272413611412048340e+00 -1.580553531646728516e+00
7.520000000000000000e+02 1.870682334899902344e+01 -9.618195891380310059e-01 -2.004879951477050781e+00 -1.184826970100402832e+00 -9.569120407104492188e-01 -1.394476890563964844e+00
7.530000000000000000e+02 1.888951110839843750e+01 -8.162217140197753906e-01 -2.314365863800048828e+00 -1.540151596069335938e+00 -1.156355261802673340e+00 -1.464008927345275879e+00
7.540000000000000000e+02 1.816372680664062500e+01 -1.195306181907653809e+00 -1.952048778533935547e+00 -9.561177492141723633e-01 -8.724499344825744629e-01 -1.216109752655029297e+00
7.550000000000000000e+02 1.850213241577148438e+01 -1.068882584571838379e+00 -2.062332630157470703e+00 -1.241462230682373047e+00 -9.911384582519531250e-01 -1.330889105796813965e+00
7.560000000000000000e+02 1.786631011962890625e+01 -1.388625741004943848e+00 -1.870943903923034668e+00 -9.429663419723510742e-01 -8.441730737686157227e-01 -1.088455200195312500e+00
7.570000000000000000e+02 1.807481765747070312e+01 -1.456690073013305664e+00 -1.887736678123474121e+00 -9.587194919586181641e-01 -8.539368510246276855e-01 -1.160569787025451660e+00
7.580000000000000000e+02 1.738872909545898438e+01 -1.780212759971618652e+00 -1.663820624351501465e+00 -8.222596645355224609e-01 -7.458240985870361328e-01 -9.143049120903015137e-01
7.590000000000000000e+02 1.756215095520019531e+01 -1.648961544036865234e+00 -1.829747080802917480e+00 -8.670679330825805664e-01 -8.090444803237915039e-01 -9.735708832740783691e-01
7.600000000000000000e+02 1.682055282592773438e+01 -2.118089437484741211e+00 -1.494134902954101562e+00 -8.013384342193603516e-01 -6.886419653892517090e-01 -8.614969849586486816e-01
7.610000000000000000e+02 1.644070243835449219e+01 -2.378903388977050781e+00 -1.305874824523925781e+00 -8.340905308723449707e-01 -6.419895887374877930e-01 -8.123953342437744141e-01
7.620000000000000000e+02 1.747013282775878906e+01 -2.216567993164062500e+00 -1.432990312576293945e+00 -9.495077133178710938e-01 -7.147493958473205566e-01 -8.340446352958679199e-01
7.630000000000000000e+02 1.245535659790039062e+01 -2.319286346435546875e+00 -7.499743700027465820e-01 -6.876994669437408447e-02 -2.456233054399490356e-01 -3.116901516914367676e-01
7.640000000000000000e+02 1.326490688323974609e+01 -2.395495891571044922e+00 -8.927094936370849609e-01 -8.801398426294326782e-02 -2.942170500755310059e-01 -3.828540742397308350e-01
7.650000000000000000e+02 1.413805294036865234e+01 -2.441953420639038086e+00 -1.072142362594604492e+00 -2.142955958843231201e-01 -3.859313726425170898e-01 -5.303928256034851074e-01
7.660000000000000000e+02 1.100526428222656250e+01 -2.922106981277465820e+00 -5.279594659805297852e-01 -3.571958839893341064e-02 -1.691037118434906006e-01 -3.055759668350219727e-01
7.670000000000000000e+02 9.469570159912109375e+00 -1.939728856086730957e+00 -3.436876237392425537e-01 -7.187699433416128159e-03 -1.052625998854637146e-01 -1.365086287260055542e-01
7.680000000000000000e+02 8.664456367492675781e+00 -1.926665902137756348e+00 -2.791725993156433105e-01 -1.936918008141219616e-03 -8.433286100625991821e-02 -1.210568100214004517e-01
7.690000000000000000e+02 7.852060794830322266e+00 -1.925045251846313477e+00 -2.156362533569335938e-01 -1.684863865375518799e-02 -6.974546611309051514e-02 -1.064073145389556885e-01
7.700000000000000000e+02 7.036878108978271484e+00 -1.929923295974731445e+00 -1.733503937721252441e-01 -1.295937225222587585e-02 -5.589292943477630615e-02 -9.427000582218170166e-02
7.710000000000000000e+02 5.403072357177734375e+00 -1.949209690093994141e+00 -9.974114596843719482e-02 -1.746714115142822266e-02 -3.516248613595962524e-02 -6.521575897932052612e-02
7.720000000000000000e+02 2.945204734802246094e+00 -2.014742136001586914e+00 -3.053138591349124908e-02 -2.002529613673686981e-02 -1.516700442880392075e-02 -2.338153868913650513e-02
7.730000000000000000e+02 3.105872154235839844e+00 -3.003349304199218750e+00 -4.863435775041580200e-02 -3.712252900004386902e-02 -2.572706528007984161e-02 -4.676666855812072754e-02
7.740000000000000000e+02 2.114848613739013672e+00 -2.069526910781860352e+00 -1.707792840898036957e-02 -1.727402955293655396e-02 -1.030558720231056213e-02 -1.044082455337047577e-02
7.750000000000000000e+02 1.277829289436340332e+00 -2.145241022109985352e+00 -5.102518014609813690e-03 -6.811604835093021393e-03 -3.574236994609236717e-03 1.257594412891194224e-04
7.760000000000000000e+02 4.295293390750885010e-01 -2.196772575378417969e+00 -2.756890607997775078e-03 9.938281960785388947e-03 2.154417335987091064e-03 4.646445740945637226e-04
7.770000000000000000e+02 2.064824104309082031e+00 -4.163390731811523438e+01 -2.909037843346595764e-02 -1.318784356117248535e+00 -4.043624103069305420e-01 8.384120650589466095e-03
7.780000000000000000e+02 6.661031723022460938e+00 -3.831357955932617188e+01 4.625061899423599243e-02 -8.757467269897460938e-01 -2.488488405942916870e-01 -5.080079659819602966e-02
7.790000000000000000e+02 1.046575903892517090e+00 -3.866958236694335938e+01 -4.470869433134794235e-03 -1.353242397308349609e+00 -4.073139727115631104e-01 1.199804618954658508e-02
7.800000000000000000e+02 7.423073649406433105e-01 -3.460163116455078125e+01 8.370182476937770844e-03 -1.374230384826660156e+00 -4.097580611705780029e-01 -4.107170738279819489e-03
7.810000000000000000e+02 7.609071731567382812e-01 -3.320321655273437500e+01 -3.170773619785904884e-03 -1.361027359962463379e+00 -4.092594087123870850e-01 -1.015890575945377350e-02
7.820000000000000000e+02 6.897400021553039551e-01 -2.898213386535644531e+01 2.429187297821044922e-03 -1.281336069107055664e+00 -3.836720883846282959e-01 -1.612490043044090271e-02
7.830000000000000000e+02 6.643781065940856934e-01 -2.758419799804687500e+01 -1.282122917473316193e-03 -1.245269775390625000e+00 -3.739655911922454834e-01 -1.721514761447906494e-02
7.840000000000000000e+02 6.474075913429260254e-01 -2.618161010742187500e+01 2.960128476843237877e-03 -1.205186486244201660e+00 -3.606678843498229980e-01 -1.913062296807765961e-02
7.850000000000000000e+02 6.550204157829284668e-01 -2.197305107116699219e+01 -3.631201398093253374e-04 -1.045541644096374512e+00 -3.137714266777038574e-01 -2.807996422052383423e-02
7.860000000000000000e+02 6.637501716613769531e-01 -2.056223106384277344e+01 3.662643488496541977e-03 -9.803470373153686523e-01 -2.930053174495697021e-01 -3.193335235118865967e-02
7.870000000000000000e+02 1.993852257728576660e+00 -2.052355575561523438e+01 6.371511146426200867e-03 -8.934130668640136719e-01 -2.661124765872955322e-01 -9.142349660396575928e-02
7.880000000000000000e+02 6.786022186279296875e-01 -1.631044387817382812e+01 -1.352845458313822746e-03 -7.416522502899169922e-01 -2.229015231132507324e-01 -4.235195368528366089e-02
7.890000000000000000e+02 6.692858934402465820e-01 -1.489842605590820312e+01 3.440142609179019928e-03 -6.501881480216979980e-01 -1.940243989229202271e-01 -4.467337206006050110e-02
7.900000000000000000e+02 6.465338468551635742e-01 -1.349109268188476562e+01 -3.206062829121947289e-03 -5.535086989402770996e-01 -1.670144349336624146e-01 -4.470568895339965820e-02
7.910000000000000000e+02 1.954800963401794434e+00 -1.341643810272216797e+01 4.970138426870107651e-03 -5.271503329277038574e-01 -1.566540598869323730e-01 -1.312103867530822754e-01
7.920000000000000000e+02 5.325481891632080078e-01 -9.284832000732421875e+00 1.240710145793855190e-03 -2.539946436882019043e-01 -7.582617551088333130e-02 -3.604260459542274475e-02
7.930000000000000000e+02 5.040228366851806641e-01 -7.893665313720703125e+00 -5.592107307165861130e-03 -1.638717353343963623e-01 -5.083915218710899353e-02 -2.919657528400421143e-02
7.940000000000000000e+02 3.911217927932739258e+00 -2.930415391921997070e+00 -6.519396603107452393e-02 -4.235500842332839966e-02 -3.226469084620475769e-02 -6.441125273704528809e-02
7.950000000000000000e+02 4.060335636138916016e+00 -3.858236551284790039e+00 -7.933791726827621460e-02 -6.585536152124404907e-02 -4.355798289179801941e-02 -9.737731516361236572e-02
7.960000000000000000e+02 7.092573547363281250e+01 -3.762071228027343750e+01 1.050439104437828064e-01 6.917319774627685547e+00 2.106709241867065430e+00 1.152102202177047729e-01
7.970000000000000000e+02 5.617477416992187500e+01 -3.762287139892578125e+01 5.589917302131652832e-01 4.592658042907714844e+00 1.545494914054870605e+00 2.261421531438827515e-01
7.980000000000000000e+02 3.578170776367187500e+01 -4.021265792846679688e+01 1.132886528968811035e+00 3.100241124629974365e-01 4.328731894493103027e-01 -2.651713490486145020e-01
7.990000000000000000e+02 1.290507602691650391e+01 -4.089900970458984375e+01 1.176924183964729309e-01 -4.473079442977905273e-01 -9.888465702533721924e-02 -2.060437016189098358e-02
8.000000000000000000e+02 7.599729919433593750e+01 4.066240692138671875e+01 7.283968850970268250e-03 5.076423168182373047e+00 1.525112152099609375e+00 -3.190643191337585449e-01
8.010000000000000000e+02 7.809104919433593750e+01 4.176707839965820312e+01 -4.784642457962036133e-01 4.089296817779541016e+00 1.083249807357788086e+00 1.333666145801544189e-01
8.020000000000000000e+02 7.878479003906250000e+01 3.896496200561523438e+01 2.533588707447052002e-01 3.571218967437744141e+00 1.147373318672180176e+00 1.434416472911834717e-01
8.030000000000000000e+02 7.777779388427734375e+01 3.590455627441406250e+01 6.992433220148086548e-02 4.443036079406738281e+00 1.353888154029846191e+00 -1.903625279664993286e-01
8.040000000000000000e+02 7.930407714843750000e+01 3.481018447875976562e+01 1.718341372907161713e-02 3.550582885742187500e+00 1.070329904556274414e+00 -7.955759763717651367e-02
8.050000000000000000e+02 7.784075927734375000e+01 3.352993774414062500e+01 8.866806328296661377e-02 4.638629436492919922e+00 1.418189167976379395e+00 -3.670494258403778076e-01
8.060000000000000000e+02 7.929644012451171875e+01 3.345558547973632812e+01 2.276159450411796570e-02 3.734338045120239258e+00 1.127129912376403809e+00 -1.192054525017738342e-01
8.070000000000000000e+02 7.930558013916015625e+01 3.068174362182617188e+01 2.579383365809917450e-02 4.362780094146728516e+00 1.316572189331054688e+00 -2.205417603254318237e-01
8.080000000000000000e+02 7.683572387695312500e+01 2.781474494934082031e+01 3.339711949229240417e-02 6.406104564666748047e+00 1.931850433349609375e+00 -1.000248312950134277e+00
8.090000000000000000e+02 7.936676025390625000e+01 2.647013092041015625e+01 1.023232354782521725e-03 5.864375591278076172e+00 1.759619712829589844e+00 -2.622534036636352539e-01
8.100000000000000000e+02 7.688378143310546875e+01 2.502439117431640625e+01 -5.536492913961410522e-02 6.995201110839843750e+00 2.081950902938842773e+00 -9.679260253906250000e-01
8.110000000000000000e+02 7.937290954589843750e+01 2.507228088378906250e+01 -7.768688723444938660e-03 6.387587547302246094e+00 1.913945674896240234e+00 -2.527423799037933350e-01
8.120000000000000000e+02 7.937124633789062500e+01 2.088401031494140625e+01 -5.438638385385274887e-03 7.751387596130371094e+00 2.323784828186035156e+00 -2.037192285060882568e-01
8.130000000000000000e+02 7.937187957763671875e+01 1.948560333251953125e+01 -1.165935117751359940e-02 8.115952491760253906e+00 2.431288003921508789e+00 -1.832931637763977051e-01
8.140000000000000000e+02 7.811711883544921875e+01 1.943751144409179688e+01 -4.442846402525901794e-02 8.049023628234863281e+00 2.401378393173217773e+00 -4.535675644874572754e-01
8.150000000000000000e+02 7.937419891357421875e+01 1.808782005310058594e+01 -7.766378112137317657e-03 8.430987358093261719e+00 2.526966333389282227e+00 -1.600230634212493896e-01
8.160000000000000000e+02 7.938784790039062500e+01 1.390982723236083984e+01 -8.239078335464000702e-03 9.094106674194335938e+00 2.725760459899902344e+00 -9.990586340427398682e-02
8.170000000000000000e+02 7.939247894287109375e+01 1.251972389221191406e+01 -5.128123797476291656e-03 9.234702110290527344e+00 2.768872022628784180e+00 -8.369192481040954590e-02
8.180000000000000000e+02 7.939582824707031250e+01 1.112916374206542969e+01 -6.643355824053287506e-03 9.342515945434570312e+00 2.800761938095092773e+00 -6.959166377782821655e-02
8.190000000000000000e+02 7.938309478759765625e+01 6.953382015228271484e+00 -2.373718656599521637e-03 9.508049011230468750e+00 2.851702690124511719e+00 -3.727440163493156433e-02
8.200000000000000000e+02 7.936956787109375000e+01 5.559649467468261719e+00 -4.897641949355602264e-03 9.523082733154296875e+00 2.855455398559570312e+00 -2.900256961584091187e-02
8.210000000000000000e+02 7.935447692871093750e+01 4.165178775787353516e+00 -1.164368935860693455e-03 9.523344039916992188e+00 2.856653928756713867e+00 -2.205537632107734680e-02
8.220000000000000000e+02 7.933498382568359375e+01 -1.339533925056457520e-02 -2.741319825872778893e-03 9.466650009155273438e+00 2.839172601699829102e+00 -8.171567693352699280e-03
8.230000000000000000e+02 7.934134674072265625e+01 -1.406539082527160645e+00 -5.468720337375998497e-04 9.435605049133300781e+00 2.830517530441284180e+00 -4.555343650281429291e-03
8.240000000000000000e+02 7.808757781982421875e+01 -4.231754302978515625e+00 -7.264306768774986267e-03 9.058886528015136719e+00 2.715486526489257812e+00 4.179427400231361389e-02
8.250000000000000000e+02 7.936171722412109375e+01 -4.194541931152343750e+00 9.012267400976270437e-05 9.357980728149414062e+00 2.807421207427978516e+00 1.329776714555919170e-03
8.260000000000000000e+02 7.936453247070312500e+01 -8.374038696289062500e+00 -3.832096932455897331e-03 9.211855888366699219e+00 2.762407064437866211e+00 8.493373170495033264e-03
8.270000000000000000e+02 7.803307342529296875e+01 -1.117196178436279297e+01 -8.355915197171270847e-04 8.823459625244140625e+00 2.646787405014038086e+00 6.250341236591339111e-02
8.280000000000000000e+02 7.934548187255859375e+01 -1.115712738037109375e+01 -3.808691166341304779e-03 9.102313041687011719e+00 2.729551076889038086e+00 1.270928792655467987e-02
8.290000000000000000e+02 7.932545471191406250e+01 -1.533310890197753906e+01 7.239715196192264557e-04 8.928109169006347656e+00 2.678649902343750000e+00 1.810617372393608093e-02
8.300000000000000000e+02 7.797927093505859375e+01 -1.815654182434082031e+01 -2.292128745466470718e-03 8.551055908203125000e+00 2.564629077911376953e+00 7.535469532012939453e-02
8.310000000000000000e+02 7.932640075683593750e+01 -1.812724304199218750e+01 1.006544451229274273e-03 8.808213233947753906e+00 2.642765998840332031e+00 1.953345164656639099e-02
8.320000000000000000e+02 7.935116577148437500e+01 -2.369852638244628906e+01 2.763578668236732483e-03 8.569273948669433594e+00 2.571611404418945312e+00 2.168240584433078766e-02
8.330000000000000000e+02 7.807212066650390625e+01 -2.510248184204101562e+01 2.115048700943589211e-03 8.300032615661621094e+00 2.490644454956054688e+00 7.529079914093017578e-02
8.340000000000000000e+02 7.935796356201171875e+01 -2.508729553222656250e+01 -2.822292502969503403e-03 8.509081840515136719e+00 2.551877975463867188e+00 2.144772559404373169e-02
8.350000000000000000e+02 7.933856201171875000e+01 -2.926465225219726562e+01 4.179795272648334503e-03 8.336614608764648438e+00 2.502238273620605469e+00 2.022582665085792542e-02
8.360000000000000000e+02 7.786962890625000000e+01 -3.209523010253906250e+01 6.570036057382822037e-04 8.036505699157714844e+00 2.411148786544799805e+00 5.431374162435531616e-02
8.370000000000000000e+02 7.930380249023437500e+01 -3.206270217895507812e+01 1.433023368008434772e-03 8.242019653320312500e+00 2.473035812377929688e+00 2.057657204568386078e-02
8.380000000000000000e+02 7.941212463378906250e+01 -3.614274597167968750e+01 1.766592147760093212e-03 8.112369537353515625e+00 2.434240818023681641e+00 2.097319811582565308e-02
8.390000000000000000e+02 7.934040069580078125e+01 -3.745387649536132812e+01 -5.120365880429744720e-03 8.050492286682128906e+00 2.413611412048339844e+00 2.668575011193752289e-02
8.400000000000000000e+02 7.911307525634765625e+01 -3.874729537963867188e+01 -1.885692588984966278e-03 7.990630626678466797e+00 2.396623373031616211e+00 3.215218707919120789e-02
8.410000000000000000e+02 7.872067260742187500e+01 -4.007821655273437500e+01 -1.876403950154781342e-02 7.927164077758789062e+00 2.372519969940185547e+00 5.151484161615371704e-02
8.420000000000000000e+02 6.973567485809326172e+00 3.779790115356445312e+01 -3.893067128956317902e-03 -5.278630182147026062e-02 -1.700381003320217133e-02 -2.530443714931607246e-03
8.430000000000000000e+02 6.811232757568359375e+01 4.122393798828125000e+01 -9.926554560661315918e-01 1.185066699981689453e+01 3.257403373718261719e+00 3.634087741374969482e-01
8.440000000000000000e+02 3.698110878467559814e-01 2.191417455673217773e+00 -1.076565822586417198e-03 -1.629409566521644592e-02 -5.211198236793279648e-03 6.804870441555976868e-03
8.450000000000000000e+02 2.692505836486816406e+00 3.020404815673828125e+00 -2.552638575434684753e-02 -5.673163384199142456e-02 -2.467740699648857117e-02 7.457037270069122314e-02
8.460000000000000000e+02 5.489903450012207031e+00 2.564023971557617188e+00 -9.084656834602355957e-02 -6.547842919826507568e-02 -4.689749702811241150e-02 1.507300734519958496e-01
8.470000000000000000e+02 1.588289141654968262e+00 6.340823650360107422e+00 6.307801231741905212e-03 -1.381897628307342529e-01 -3.956459090113639832e-02 4.883023351430892944e-02
8.480000000000000000e+02 5.341637134552001953e-01 9.264515876770019531e+00 2.246520249173045158e-03 -2.252653539180755615e-01 -6.690564751625061035e-02 7.329252082854509354e-03
8.490000000000000000e+02 5.440509319305419922e-01 1.208067703247070312e+01 1.608907128684222698e-03 -2.423989772796630859e-01 -7.223702222108840942e-02 -5.024680285714566708e-04
8.500000000000000000e+02 1.635772109031677246e+00 1.203291416168212891e+01 4.657532088458538055e-03 -1.999041587114334106e-01 -5.857399106025695801e-02 5.342330769053660333e-05
8.510000000000000000e+02 5.505945086479187012e-01 1.630392074584960938e+01 -6.143053760752081871e-04 -2.199658304452896118e-01 -6.617403775453567505e-02 -4.336273297667503357e-03
8.520000000000000000e+02 1.648349881172180176e+00 1.762021255493164062e+01 -4.118999640922993422e-04 -1.780772656202316284e-01 -5.354674905538558960e-02 -1.241020392626523972e-02
8.530000000000000000e+02 5.487507581710815430e-01 1.771163749694824219e+01 7.334423135034739971e-04 -2.083801031112670898e-01 -6.229399889707565308e-02 -4.677489399909973145e-03
8.540000000000000000e+02 5.557457208633422852e-01 2.193382453918457031e+01 -5.980359856039285660e-04 -1.748238354921340942e-01 -5.262656509876251221e-02 -3.953665029257535934e-03
8.550000000000000000e+02 5.675602555274963379e-01 2.334250259399414062e+01 2.496392698958516121e-04 -1.652287840843200684e-01 -4.949374496936798096e-02 -3.690367098897695541e-03
8.560000000000000000e+02 1.698287606239318848e+00 2.319164848327636719e+01 -1.043305383063852787e-03 -1.458667218685150146e-01 -4.407301172614097595e-02 -1.002775505185127258e-02
8.570000000000000000e+02 5.843412280082702637e-01 2.475347518920898438e+01 -4.222936695441603661e-04 -1.566808074712753296e-01 -4.713092744350433350e-02 -3.324278863146901131e-03
8.580000000000000000e+02 6.435934901237487793e-01 2.900232315063476562e+01 2.683292041183449328e-05 -1.368846297264099121e-01 -4.105733707547187805e-02 -2.460700459778308868e-03
8.590000000000000000e+02 6.551194787025451660e-01 3.042138862609863281e+01 -3.188456175848841667e-04 -1.320301145315170288e-01 -3.970469161868095398e-02 -2.052613766863942146e-03
8.600000000000000000e+02 3.236198186874389648e+00 2.869017601013183594e+01 -1.669149962253868580e-03 -1.036324426531791687e-01 -3.159047663211822510e-02 -9.998498484492301941e-03
8.610000000000000000e+02 6.548774838447570801e-01 3.183764076232910156e+01 1.672653306741267443e-04 -1.277185678482055664e-01 -3.826539218425750732e-02 -1.990136224776506424e-03
8.620000000000000000e+02 6.162540316581726074e-01 3.599932098388671875e+01 -5.880718817934393883e-04 -1.165310218930244446e-01 -3.513572737574577332e-02 -1.489836606197059155e-03
8.630000000000000000e+02 7.336261868476867676e-01 3.732717514038085938e+01 9.274840122088789940e-04 -1.120455861091613770e-01 -3.333543241024017334e-02 -2.334853168576955795e-03
8.640000000000000000e+02 1.000307917594909668e+00 3.863422012329101562e+01 -6.241605296963825822e-05 -1.076559871435165405e-01 -3.231552243232727051e-02 -2.693802351132035255e-03
8.650000000000000000e+02 1.403180599212646484e+00 4.000318908691406250e+01 9.846093598753213882e-04 -1.035280227661132812e-01 -3.076302446424961090e-02 -3.632076550275087357e-03
8.660000000000000000e+02 9.043811798095703125e+00 1.818207025527954102e+00 -2.597749829292297363e-01 -2.186056673526763916e-01 -1.435142010450363159e-01 3.651697933673858643e-01
8.670000000000000000e+02 8.318466186523437500e+00 1.826494574546813965e+00 -2.754742801189422607e-01 -1.236043497920036316e-01 -1.197235956788063049e-01 2.907348573207855225e-01
8.680000000000000000e+02 7.597174644470214844e+00 1.832314372062683105e+00 -2.403439581394195557e-01 -9.221675246953964233e-02 -9.976821392774581909e-02 2.321555763483047485e-01
8.690000000000000000e+02 6.878092288970947266e+00 1.837725043296813965e+00 -2.039586156606674194e-01 -5.801119655370712280e-02 -7.859094440937042236e-02 1.848646551370620728e-01
8.700000000000000000e+02 4.729725837707519531e+00 1.871742725372314453e+00 -1.032411977648735046e-01 -3.404784947633743286e-02 -4.118671268224716187e-02 1.045327931642532349e-01
8.710000000000000000e+02 4.012456417083740234e+00 1.902836441993713379e+00 -7.791121304035186768e-02 -2.549464441835880280e-02 -3.102175705134868622e-02 8.454030752182006836e-02
8.720000000000000000e+02 3.291173219680786133e+00 1.951591491699218750e+00 -5.466198548674583435e-02 -2.982390113174915314e-02 -2.534576691687107086e-02 6.887625902891159058e-02
8.730000000000000000e+02 1.837278723716735840e+00 2.088569402694702148e+00 -2.143814787268638611e-02 -2.971165999770164490e-02 -1.534494291990995407e-02 3.656570613384246826e-02
8.740000000000000000e+02 1.106285929679870605e+00 2.149878263473510742e+00 -8.996034972369670868e-03 -2.689144387841224670e-02 -1.076624356210231781e-02 2.057828195393085480e-02
8.750000000000000000e+02 1.210544776916503906e+01 3.396848201751708984e+00 6.015775203704833984e-01 3.172420263290405273e-01 2.756458520889282227e-01 -3.028284609317779541e-01
8.760000000000000000e+02 1.367944526672363281e+01 2.594662427902221680e+00 4.848260879516601562e-01 2.846708536148071289e+00 9.994603395462036133e-01 -3.984481692314147949e-01
8.770000000000000000e+02 1.457905769348144531e+01 1.086561083793640137e+00 5.240775108337402344e+00 2.439809799194335938e+00 2.304175376892089844e+00 -3.042914628982543945e+00
8.780000000000000000e+02 1.507569408416748047e+01 8.763206005096435547e-01 9.006496429443359375e+00 9.868578910827636719e-01 2.998006343841552734e+00 -2.450626373291015625e+00
8.790000000000000000e+02 1.373755550384521484e+01 3.045820236206054688e+00 3.352802395820617676e-01 2.335727453231811523e+00 8.013022541999816895e-01 1.178677007555961609e-01
8.800000000000000000e+02 1.415855884552001953e+01 3.788028478622436523e+00 4.032963514328002930e-01 1.181785106658935547e+00 4.755244255065917969e-01 5.586694478988647461e-01
8.810000000000000000e+02 1.531836509704589844e+01 4.910066604614257812e+00 2.062147259712219238e-01 2.820921838283538818e-01 1.464920789003372192e-01 2.601802349090576172e-01
8.820000000000000000e+02 1.473495483398437500e+01 4.937172889709472656e+00 2.049793154001235962e-01 5.014828443527221680e-01 2.119386494159698486e-01 3.372477591037750244e-01
8.830000000000000000e+02 1.582927227020263672e+01 5.510474205017089844e+00 2.044050842523574829e-01 3.401804566383361816e-01 1.633756607770919800e-01 2.623662054538726807e-01
8.840000000000000000e+02 1.558088207244873047e+01 5.202721595764160156e+00 1.893024444580078125e-01 3.084042966365814209e-01 1.493120193481445312e-01 2.465237528085708618e-01
8.850000000000000000e+02 1.717405128479003906e+01 6.974300861358642578e+00 1.893900930881500244e-01 2.100382596254348755e-01 1.198285073041915894e-01 2.004118561744689941e-01
8.860000000000000000e+02 1.770367050170898438e+01 7.569365978240966797e+00 1.721330136060714722e-01 2.120306938886642456e-01 1.152491122484207153e-01 1.911898702383041382e-01
8.870000000000000000e+02 1.825208854675292969e+01 8.159726142883300781e+00 1.772461384534835815e-01 2.166876494884490967e-01 1.181801334023475647e-01 1.919921934604644775e-01
8.880000000000000000e+02 1.878323364257812500e+01 9.323313713073730469e+00 1.574954092502593994e-01 1.940490901470184326e-01 1.054633483290672302e-01 1.673143804073333740e-01
8.890000000000000000e+02 1.853698348999023438e+01 8.452868461608886719e+00 1.830711364746093750e-01 2.115006595849990845e-01 1.183715388178825378e-01 1.940442472696304321e-01
8.900000000000000000e+02 1.911735343933105469e+01 9.028927803039550781e+00 1.849468648433685303e-01 1.783914715051651001e-01 1.090015023946762085e-01 1.798907071352005005e-01
8.910000000000000000e+02 1.969853973388671875e+01 9.595524787902832031e+00 1.544849425554275513e-01 1.504173278808593750e-01 9.147068113088607788e-02 1.571120619773864746e-01
8.920000000000000000e+02 2.028425216674804688e+01 1.015516948699951172e+01 1.364447325468063354e-01 1.572966724634170532e-01 8.812242001295089722e-02 1.499550193548202515e-01
8.930000000000000000e+02 2.057024192810058594e+01 1.043836021423339844e+01 1.391713619232177734e-01 1.655396223068237305e-01 9.141328930854797363e-02 1.510847061872482300e-01
8.940000000000000000e+02 1.999121475219726562e+01 9.875555992126464844e+00 1.422988772392272949e-01 1.511342078447341919e-01 8.802992850542068481e-02 1.507485955953598022e-01
8.950000000000000000e+02 1.962909317016601562e+01 1.026792240142822266e+01 1.384709477424621582e-01 1.651633977890014648e-01 9.109030663967132568e-02 1.594022363424301147e-01
8.960000000000000000e+02 2.085313796997070312e+01 1.072187423706054688e+01 1.439332216978073120e-01 1.677094846963882446e-01 9.349281340837478638e-02 1.543245762586593628e-01
8.970000000000000000e+02 2.199432563781738281e+01 1.183247947692871094e+01 1.330309063196182251e-01 1.446313709020614624e-01 8.329868316650390625e-02 1.407926976680755615e-01
8.980000000000000000e+02 2.253842353820800781e+01 1.240832805633544922e+01 1.290121227502822876e-01 1.494732648134231567e-01 8.354561775922775269e-02 1.397589743137359619e-01
8.990000000000000000e+02 2.280498504638671875e+01 1.270243549346923828e+01 1.322973370552062988e-01 1.516382545232772827e-01 8.518067747354507446e-02 1.403958499431610107e-01
9.000000000000000000e+02 2.307286834716796875e+01 1.299718952178955078e+01 1.353472322225570679e-01 1.498142182826995850e-01 8.554843813180923462e-02 1.414557844400405884e-01
9.010000000000000000e+02 2.334458923339843750e+01 1.329042434692382812e+01 1.387298107147216797e-01 1.458647996187210083e-01 8.537838608026504517e-02 1.401447951793670654e-01
9.020000000000000000e+02 2.362099266052246094e+01 1.358116149902343750e+01 1.397758871316909790e-01 1.392281353473663330e-01 8.370120823383331299e-02 1.379451751708984375e-01
9.030000000000000000e+02 2.390204048156738281e+01 1.386939620971679688e+01 1.394368559122085571e-01 1.317206919193267822e-01 8.134726434946060181e-02 1.335303932428359985e-01
9.040000000000000000e+02 2.418756484985351562e+01 1.415555667877197266e+01 1.351715028285980225e-01 1.229682862758636475e-01 7.744193822145462036e-02 1.280967444181442261e-01
9.050000000000000000e+02 2.505796241760253906e+01 1.501298904418945312e+01 1.118778735399246216e-01 1.089471578598022461e-01 6.624750792980194092e-02 1.127577498555183411e-01
9.060000000000000000e+02 2.564239120483398438e+01 1.558083248138427734e+01 1.051355749368667603e-01 1.136328503489494324e-01 6.563052535057067871e-02 1.106550693511962891e-01
9.070000000000000000e+02 2.593531799316406250e+01 1.586289882659912109e+01 1.052511185407638550e-01 1.166999638080596924e-01 6.658532470464706421e-02 1.111605763435363770e-01
9.080000000000000000e+02 2.651576805114746094e+01 1.642313385009765625e+01 1.085312515497207642e-01 1.178939715027809143e-01 6.792756915092468262e-02 1.123279258608818054e-01
9.090000000000000000e+02 2.709375190734863281e+01 1.697635841369628906e+01 1.116373986005783081e-01 1.127938851714134216e-01 6.732938438653945923e-02 1.110827699303627014e-01
9.100000000000000000e+02 2.738414764404296875e+01 1.725019836425781250e+01 1.116935312747955322e-01 1.081570833921432495e-01 6.595518440008163452e-02 1.090238243341445923e-01
9.110000000000000000e+02 2.767529869079589844e+01 1.752275276184082031e+01 1.099812984466552734e-01 1.032162681221961975e-01 6.395927071571350098e-02 1.059772819280624390e-01
9.120000000000000000e+02 2.825533103942871094e+01 1.807000160217285156e+01 1.037123575806617737e-01 9.560557454824447632e-02 5.979537963867187500e-02 9.966065734624862671e-02
9.130000000000000000e+02 2.796609687805175781e+01 1.779567527770996094e+01 1.071204841136932373e-01 9.879986196756362915e-02 6.177610531449317932e-02 1.027487888932228088e-01
9.140000000000000000e+02 2.854275321960449219e+01 1.834535408020019531e+01 1.006596982479095459e-01 9.331136196851730347e-02 5.819131806492805481e-02 9.711544215679168701e-02
9.150000000000000000e+02 2.939545059204101562e+01 1.917293548583984375e+01 9.238652139902114868e-02 8.859655261039733887e-02 5.429492145776748657e-02 9.096809476613998413e-02
9.160000000000000000e+02 2.967210388183593750e+01 1.945838165283203125e+01 8.994507789611816406e-02 8.761850744485855103e-02 5.326907709240913391e-02 8.900903910398483276e-02
9.170000000000000000e+02 2.994639778137207031e+01 1.974604225158691406e+01 8.760952204465866089e-02 8.673916757106781006e-02 5.230460688471794128e-02 8.763877302408218384e-02
9.180000000000000000e+02 3.282427978515625000e+01 2.257381820678710938e+01 5.888075008988380432e-02 8.091655373573303223e-02 4.193919152021408081e-02 6.920316815376281738e-02
9.190000000000000000e+02 3.309157562255859375e+01 2.286705017089843750e+01 6.102727353572845459e-02 8.456969261169433594e-02 4.367908835411071777e-02 7.201974093914031982e-02
9.200000000000000000e+02 3.254421234130859375e+01 2.229171562194824219e+01 5.839310213923454285e-02 7.385780662298202515e-02 3.967527300119400024e-02 6.863971799612045288e-02
9.210000000000000000e+02 3.360613250732421875e+01 2.346491241455078125e+01 6.266012787818908691e-02 8.236373960971832275e-02 4.350715875625610352e-02 7.276133447885513306e-02
9.220000000000000000e+02 3.385773468017578125e+01 2.376711082458496094e+01 6.201594695448875427e-02 8.101265877485275269e-02 4.290858283638954163e-02 6.990698724985122681e-02
9.230000000000000000e+02 3.434120178222656250e+01 2.440220069885253906e+01 5.918543785810470581e-02 8.372317254543304443e-02 4.287258163094520569e-02 6.902933120727539062e-02
9.240000000000000000e+02 3.458857727050781250e+01 2.471898651123046875e+01 5.816154927015304565e-02 8.488862961530685425e-02 4.291505366563796997e-02 7.230780273675918579e-02
9.250000000000000000e+02 3.485650634765625000e+01 2.502367973327636719e+01 6.331259757280349731e-02 8.757945150136947632e-02 4.526761546730995178e-02 7.110822945833206177e-02
9.260000000000000000e+02 3.513482284545898438e+01 2.532025718688964844e+01 6.271383166313171387e-02 8.344116061925888062e-02 4.384649544954299927e-02 7.338051497936248779e-02
9.270000000000000000e+02 3.569011306762695312e+01 2.590042114257812500e+01 5.853166431188583374e-02 7.619819045066833496e-02 4.041895642876625061e-02 6.930273026227951050e-02
9.280000000000000000e+02 3.595563125610351562e+01 2.619502830505371094e+01 5.680783838033676147e-02 7.773832976818084717e-02 4.036385193467140198e-02 6.590295583009719849e-02
9.290000000000000000e+02 3.645492553710937500e+01 2.681091499328613281e+01 5.730344727635383606e-02 8.442315459251403809e-02 4.251797869801521301e-02 6.820467114448547363e-02
9.300000000000000000e+02 3.669807434082031250e+01 2.712597465515136719e+01 5.997710302472114563e-02 8.580239117145538330e-02 4.373384639620780945e-02 7.181292027235031128e-02
9.310000000000000000e+02 3.746907043457031250e+01 2.805824661254882812e+01 6.976925581693649292e-02 7.887633144855499268e-02 4.459367692470550537e-02 7.118626683950424194e-02
9.320000000000000000e+02 3.720325088500976562e+01 2.775157928466796875e+01 6.667403876781463623e-02 8.209457993507385254e-02 4.463058710098266602e-02 7.351762801408767700e-02
9.330000000000000000e+02 3.889677429199218750e+01 2.953671646118164062e+01 6.232386082410812378e-02 6.233568489551544189e-02 3.739786520600318909e-02 6.790957599878311157e-02
9.340000000000000000e+02 3.802226257324218750e+01 2.865458869934082031e+01 6.948615610599517822e-02 7.168967276811599731e-02 4.235275089740753174e-02 6.715736538171768188e-02
9.350000000000000000e+02 3.774258804321289062e+01 2.835892105102539062e+01 6.736886501312255859e-02 7.372608035802841187e-02 4.232848435640335083e-02 7.147622108459472656e-02
9.360000000000000000e+02 3.978672790527343750e+01 3.035308456420898438e+01 6.815172731876373291e-02 6.424421817064285278e-02 3.971878439188003540e-02 6.385415792465209961e-02
9.370000000000000000e+02 4.039158630371093750e+01 3.093877792358398438e+01 7.014133781194686890e-02 5.842755362391471863e-02 3.857066854834556580e-02 6.146314367651939392e-02
9.380000000000000000e+02 4.008347702026367188e+01 3.063679504394531250e+01 6.889425963163375854e-02 5.998116359114646912e-02 3.866262733936309814e-02 6.410492211580276489e-02
9.390000000000000000e+02 4.101843643188476562e+01 3.136487388610839844e+01 6.820274144411087036e-02 5.509306117892265320e-02 3.698874264955520630e-02 6.034081801772117615e-02
9.400000000000000000e+02 4.071656417846679688e+01 3.154329490661621094e+01 6.342790275812149048e-02 5.527464300394058228e-02 3.561076521873474121e-02 6.154075637459754944e-02
9.410000000000000000e+02 4.157497406005859375e+01 3.191404533386230469e+01 6.997836381196975708e-02 5.347895622253417969e-02 3.703719377517700195e-02 5.837560445070266724e-02
9.420000000000000000e+02 4.187272262573242188e+01 3.218583679199218750e+01 6.726758927106857300e-02 5.134621262550354004e-02 3.558414056897163391e-02 6.194445490837097168e-02
9.430000000000000000e+02 4.248098373413085938e+01 3.271487045288085938e+01 7.025470584630966187e-02 4.948730394244194031e-02 3.592260181903839111e-02 6.321369856595993042e-02
9.440000000000000000e+02 4.214724731445312500e+01 3.303227996826171875e+01 7.617346197366714478e-02 5.332560837268829346e-02 3.884971886873245239e-02 5.682489648461341858e-02
9.450000000000000000e+02 4.279167938232421875e+01 3.297296905517578125e+01 7.719665765762329102e-02 5.323760211467742920e-02 3.913027793169021606e-02 5.798489600419998169e-02
9.460000000000000000e+02 4.341562652587890625e+01 3.348218154907226562e+01 8.034709841012954712e-02 5.134269222617149353e-02 3.950693830847740173e-02 5.828131362795829773e-02
9.470000000000000000e+02 4.402468490600585938e+01 3.400488662719726562e+01 8.534137904644012451e-02 5.139137431979179382e-02 4.101982340216636658e-02 5.886315554380416870e-02
9.480000000000000000e+02 4.497006988525390625e+01 3.484692382812500000e+01 1.006940230727195740e-01 4.469287768006324768e-02 4.361607134342193604e-02 6.989282369613647461e-02
9.490000000000000000e+02 4.673527526855468750e+01 3.720402908325195312e+01 2.009497880935668945e-01 3.734634816646575928e-02 7.148884236812591553e-02 7.268352806568145752e-02
9.500000000000000000e+02 4.766620635986328125e+01 3.777591705322265625e+01 2.060825973749160767e-01 5.156726390123367310e-02 7.729495316743850708e-02 5.959444120526313782e-02
9.510000000000000000e+02 4.823675155639648438e+01 3.722091674804687500e+01 2.344474643468856812e-01 2.417962439358234406e-02 7.758812606334686279e-02 1.063041836023330688e-01
9.520000000000000000e+02 4.991804885864257812e+01 3.819517898559570312e+01 2.196949422359466553e-01 1.472585368901491165e-02 7.032623887062072754e-02 9.881454706192016602e-02
9.530000000000000000e+02 5.026336288452148438e+01 3.829993820190429688e+01 2.280534952878952026e-01 4.108883440494537354e-02 8.074270188808441162e-02 7.470591366291046143e-02
9.540000000000000000e+02 5.057199096679687500e+01 3.844719314575195312e+01 1.662302017211914062e-01 8.799230679869651794e-03 5.250883102416992188e-02 1.037920266389846802e-01
9.550000000000000000e+02 5.089028930664062500e+01 3.802877426147460938e+01 4.845915138721466064e-01 9.012403339147567749e-02 1.724146604537963867e-01 8.559908717870712280e-02
9.560000000000000000e+02 5.386524963378906250e+01 3.793399047851562500e+01 -8.605725765228271484e-01 -2.852897405624389648e+00 -1.114040970802307129e+00 1.022530674934387207e+00
9.570000000000000000e+02 5.431663513183593750e+01 3.806818771362304688e+01 -1.092074990272521973e+00 -1.044017076492309570e+00 -6.408275961875915527e-01 9.533891677856445312e-01
9.580000000000000000e+02 5.698059844970703125e+01 3.677460479736328125e+01 -1.890815794467926025e-01 3.953931033611297607e-01 6.189345568418502808e-02 3.617419302463531494e-01
9.590000000000000000e+02 5.837392807006835938e+01 3.661724472045898438e+01 5.583434104919433594e-01 1.342282414436340332e+00 5.701877474784851074e-01 -7.970851063728332520e-01
9.600000000000000000e+02 5.886421585083007812e+01 3.650618743896484375e+01 8.428457379341125488e-01 1.849570631980895996e+00 8.077248930931091309e-01 -1.530631899833679199e+00
9.610000000000000000e+02 5.948788833618164062e+01 3.618231582641601562e+01 1.540567755699157715e+00 2.883645772933959961e+00 1.327264070510864258e+00 -2.438295841217041016e+00
9.620000000000000000e+02 5.963306808471679688e+01 3.614567565917968750e+01 1.628843784332275391e+00 2.881217718124389648e+00 1.353018403053283691e+00 -2.840594053268432617e+00
9.630000000000000000e+02 5.977261734008789062e+01 3.616111755371093750e+01 1.833154797554016113e+00 3.528193950653076172e+00 1.608404636383056641e+00 -3.283317804336547852e+00
9.640000000000000000e+02 6.028750228881835938e+01 3.611667251586914062e+01 2.136951208114624023e+00 5.937766551971435547e+00 2.422415494918823242e+00 -4.791451454162597656e+00
9.650000000000000000e+02 5.933760452270507812e+01 3.627179718017578125e+01 1.376878976821899414e+00 2.496180057525634766e+00 1.161917686462402344e+00 -2.155301094055175781e+00
9.660000000000000000e+02 6.078698348999023438e+01 3.603924179077148438e+01 1.446650385856628418e+00 9.310573577880859375e+00 3.227167129516601562e+00 -5.518269538879394531e+00
9.670000000000000000e+02 6.062403106689453125e+01 3.604208374023437500e+01 1.851967692375183105e+00 7.825516700744628906e+00 2.903245210647583008e+00 -5.507943153381347656e+00
9.680000000000000000e+02 6.095206832885742188e+01 3.608100509643554688e+01 1.077130913734436035e+00 1.145538806915283203e+01 3.759755849838256836e+00 -5.599034786224365234e+00
9.690000000000000000e+02 6.140619277954101562e+01 3.615971755981445312e+01 2.231354117393493652e-01 1.603532981872558594e+01 4.877539634704589844e+00 -4.750618457794189453e+00
9.700000000000000000e+02 6.115528869628906250e+01 3.613689422607421875e+01 4.930716753005981445e-01 1.396825790405273438e+01 4.338398933410644531e+00 -5.660029411315917969e+00
9.710000000000000000e+02 6.044606781005859375e+01 3.282556533813476562e+01 4.478235721588134766e+00 6.760842800140380859e+00 3.371723651885986328e+00 6.268512725830078125e+00
9.720000000000000000e+02 5.839329147338867188e+01 3.301444244384765625e+01 1.465028762817382812e+00 5.759054422378540039e-01 6.122802495956420898e-01 1.057102203369140625e+00
9.730000000000000000e+02 5.680340194702148438e+01 3.320628356933593750e+01 2.787624672055244446e-02 2.741026282310485840e-01 9.059365838766098022e-02 2.283344790339469910e-02
9.740000000000000000e+02 5.566167831420898438e+01 3.329363250732421875e+01 -3.164749443531036377e-01 3.011105060577392578e-01 -4.609331954270601273e-03 -3.462058603763580322e-01
9.750000000000000000e+02 5.274291610717773438e+01 3.372303390502929688e+01 -5.125024318695068359e-01 -6.391730308532714844e-01 -3.455026447772979736e-01 -5.938461422920227051e-01
9.760000000000000000e+02 2.444098663330078125e+01 -3.235083818435668945e+00 1.181052327156066895e+00 8.898876309394836426e-01 6.212819814682006836e-01 -7.859383821487426758e-01
9.770000000000000000e+02 2.846274757385253906e+01 -7.174242973327636719e+00 4.158610105514526367e-01 1.701118350028991699e-01 1.757918596267700195e-01 -2.210784554481506348e-01
9.780000000000000000e+02 3.031214332580566406e+01 -7.862098693847656250e+00 3.572056293487548828e-01 -1.132767945528030396e-01 7.317865639925003052e-02 -1.360034495592117310e-01
9.790000000000000000e+02 2.927921104431152344e+01 -8.367133140563964844e+00 1.344056576490402222e-01 2.452842518687248230e-02 4.768022522330284119e-02 -1.351983547210693359e-01
9.800000000000000000e+02 3.166555023193359375e+01 -1.019919109344482422e+01 1.443112194538116455e-01 -1.550932377576828003e-01 -3.234605537727475166e-03 -1.407923363149166107e-02
9.810000000000000000e+02 3.351548004150390625e+01 -1.537894439697265625e+01 -1.226184591650962830e-01 -3.294849991798400879e-01 -1.356310397386550903e-01 1.881279796361923218e-01
9.820000000000000000e+02 3.495238494873046875e+01 -1.772456169128417969e+01 -1.196130141615867615e-01 -2.834424078464508057e-01 -1.209166273474693298e-01 1.829800009727478027e-01
9.830000000000000000e+02 3.641761016845703125e+01 -2.008188629150390625e+01 -1.076738387346267700e-01 -1.818518191576004028e-01 -8.685769885778427124e-02 1.462504714727401733e-01
9.840000000000000000e+02 3.777688598632812500e+01 -2.250101280212402344e+01 -6.824814528226852417e-02 -3.029441647231578827e-02 -2.956276759505271912e-02 7.631609588861465454e-02
9.850000000000000000e+02 3.917272186279296875e+01 -2.490174102783203125e+01 -3.248791769146919250e-02 1.809596121311187744e-01 4.454150795936584473e-02 -2.286157943308353424e-02
9.860000000000000000e+02 4.105154800415039062e+01 -2.225955581665039062e+01 -7.006041705608367920e-02 9.174272418022155762e-01 2.542100548744201660e-01 -1.131226867437362671e-01
9.870000000000000000e+02 4.250423049926757812e+01 -2.782246017456054688e+01 -9.364081546664237976e-03 1.296716332435607910e+00 3.862056732177734375e-01 -3.162926733493804932e-01
9.880000000000000000e+02 4.201003265380859375e+01 -2.963310050964355469e+01 1.666568815708160400e-01 9.820788502693176270e-01 3.446207344532012939e-01 -4.256637096405029297e-01
9.890000000000000000e+02 4.343656539916992188e+01 -3.200348281860351562e+01 3.019221723079681396e-01 2.027841091156005859e+00 6.989290118217468262e-01 -7.589712738990783691e-01
9.900000000000000000e+02 4.414342880249023438e+01 -3.323759460449218750e+01 4.294037222862243652e-01 3.204648733139038086e+00 1.090215802192687988e+00 -7.598437666893005371e-01
9.910000000000000000e+02 4.469229888916015625e+01 -3.459160232543945312e+01 3.271661400794982910e-01 4.100551605224609375e+00 1.328315377235412598e+00 -4.775179028511047363e-01
9.920000000000000000e+02 3.819443893432617188e+01 -3.876995086669921875e+01 1.236927509307861328e+00 5.046364068984985352e-01 5.224691629409790039e-01 -7.446572184562683105e-01
9.930000000000000000e+02 3.648066329956054688e+01 -3.673850631713867188e+01 5.116146206855773926e-01 5.399802327156066895e-01 3.154784440994262695e-01 -6.064717173576354980e-01
9.940000000000000000e+02 3.442382812500000000e+01 -3.479369735717773438e+01 5.518592000007629395e-01 5.812395215034484863e-01 3.399296104907989502e-01 -5.450391769409179688e-01
9.950000000000000000e+02 3.353683090209960938e+01 -3.368767166137695312e+01 5.241810679435729980e-01 6.518937349319458008e-01 3.528224527835845947e-01 -5.332795977592468262e-01
9.960000000000000000e+02 3.040345191955566406e+01 -2.901361274719238281e+01 2.668476998805999756e-01 8.355683684349060059e-01 3.307248055934906006e-01 -4.407962858676910400e-01
9.970000000000000000e+02 3.103392028808593750e+01 -3.026652145385742188e+01 3.215608000755310059e-01 8.655611276626586914e-01 3.561365604400634766e-01 -5.003662109375000000e-01
9.980000000000000000e+02 2.697186851501464844e+01 -2.150408935546875000e+01 1.723447442054748535e-01 6.564556956291198730e-01 2.486401349306106567e-01 -3.409313857555389404e-01
9.990000000000000000e+02 2.523439407348632812e+01 -2.081342887878417969e+01 1.754481047391891479e-01 5.207039117813110352e-01 2.088456153869628906e-01 -3.282089829444885254e-01
1.000000000000000000e+03 2.755065536499023438e+01 -2.273319053649902344e+01 1.749244779348373413e-01 6.904727816581726074e-01 2.596191763877868652e-01 -3.514377474784851074e-01
1.001000000000000000e+03 2.512951850891113281e+01 -1.787471580505371094e+01 1.794607937335968018e-01 5.344961881637573242e-01 2.141871005296707153e-01 -3.058825731277465820e-01
1.002000000000000000e+03 2.300069236755371094e+01 -1.438395881652832031e+01 1.909937560558319092e-01 4.577952921390533447e-01 1.946367174386978149e-01 -3.182235956192016602e-01
1.003000000000000000e+03 2.088971328735351562e+01 -1.079163360595703125e+01 1.675239652395248413e-01 2.615377902984619141e-01 1.287185251712799072e-01 -1.837616711854934692e-01
1.004000000000000000e+03 2.022860336303710938e+01 -9.538923263549804688e+00 7.720432430505752563e-02 1.001621931791305542e-01 5.320995673537254333e-02 -1.707021743059158325e-01
1.005000000000000000e+03 1.733690834045410156e+01 -2.542006254196166992e+00 -1.334301829338073730e+00 -1.061605095863342285e+00 -7.187720537185668945e-01 -9.918861389160156250e-01
1.006000000000000000e+03 4.485072326660156250e+01 2.579695129394531250e+01 -9.138361811637878418e-01 -9.711917638778686523e-01 -5.655083656311035156e-01 -9.369204044342041016e-01
1.007000000000000000e+03 4.457321929931640625e+01 2.551094627380371094e+01 -9.715499281883239746e-01 -9.940382242202758789e-01 -5.896764397621154785e-01 -9.717158079147338867e-01
1.008000000000000000e+03 4.429098129272460938e+01 2.522837257385253906e+01 -1.029587626457214355e+00 -9.894822239875793457e-01 -6.057209968566894531e-01 -9.933500885963439941e-01
1.009000000000000000e+03 4.371076583862304688e+01 2.467836380004882812e+01 -1.084407091140747070e+00 -9.261520504951477051e-01 -6.031677126884460449e-01 -9.924870729446411133e-01
1.010000000000000000e+03 3.155652809143066406e+01 1.206894874572753906e+01 -1.277389287948608398e+00 -1.342221260070800781e+00 -7.858831882476806641e-01 -1.279382824897766113e+00
1.011000000000000000e+03 5.768214416503906250e+01 3.672045898437500000e+01 2.988317310810089111e-01 7.827681303024291992e-01 3.244799673557281494e-01 -2.401685118675231934e-01
1.012000000000000000e+03 5.940476226806640625e+01 3.683014297485351562e+01 1.215485692024230957e+00 3.705292224884033203e+00 1.476233363151550293e+00 -2.602094888687133789e+00
1.013000000000000000e+03 6.205517959594726562e+01 3.602069854736328125e+01 3.178803026676177979e-01 1.979629516601562500e+01 6.034252643585205078e+00 -8.295967578887939453e-01
1.014000000000000000e+03 6.044684982299804688e+01 3.606728363037109375e+01 2.051573514938354492e+00 6.801194190979003906e+00 2.655830383300781250e+00 -5.228883266448974609e+00
1.015000000000000000e+03 6.074452972412109375e+01 3.635031509399414062e+01 1.018680930137634277e+00 9.462193489074707031e+00 3.144262552261352539e+00 -4.985835552215576172e+00
1.016000000000000000e+03 6.138348388671875000e+01 3.679237365722656250e+01 -4.192910492420196533e-01 1.372584247589111328e+01 3.991965293884277344e+00 -4.373210430145263672e+00
1.017000000000000000e+03 2.912452697753906250e+01 5.538705348968505859e+00 -1.584300637245178223e+00 -1.005097031593322754e+00 -7.768192887306213379e-01 -9.099985957145690918e-01
1.018000000000000000e+03 2.954853820800781250e+01 5.760621070861816406e+00 -1.538166642189025879e+00 -8.716984391212463379e-01 -7.229595184326171875e-01 -9.065898656845092773e-01
1.019000000000000000e+03 2.810109519958496094e+01 4.908212661743164062e+00 -1.748206734657287598e+00 -1.033857345581054688e+00 -8.346192240715026855e-01 -1.052361011505126953e+00
1.020000000000000000e+03 2.865410423278808594e+01 4.846231937408447266e+00 -1.588372349739074707e+00 -9.868302345275878906e-01 -7.725607752799987793e-01 -8.888560533523559570e-01
1.021000000000000000e+03 2.797710609436035156e+01 4.603009700775146484e+00 -1.700386643409729004e+00 -9.400234222412109375e-01 -7.921230196952819824e-01 -9.833169579505920410e-01
1.022000000000000000e+03 2.624388694763183594e+01 3.766674280166625977e+00 -2.080520153045654297e+00 -7.070904970169067383e-01 -8.362831473350524902e-01 -1.082032918930053711e+00
1.023000000000000000e+03 2.152237319946289062e+01 7.532562017440795898e-01 -1.983425855636596680e+00 -5.366781353950500488e-01 -7.560311555862426758e-01 -1.835807800292968750e+00
1.024000000000000000e+03 2.126441001892089844e+01 -9.066640138626098633e-01 -4.790907204151153564e-01 2.793320119380950928e-01 -5.992761999368667603e-02 -1.009576201438903809e+00
1.025000000000000000e+03 1.937661170959472656e+01 -4.803057610988616943e-01 -2.192843437194824219e+00 -1.842855215072631836e+00 -1.210709571838378906e+00 -1.385692477226257324e+00
1.026000000000000000e+03 1.921145629882812500e+01 -8.594024181365966797e-01 -2.896143198013305664e+00 -1.837951660156250000e+00 -1.420228481292724609e+00 -1.760075092315673828e+00
1.027000000000000000e+03 1.934037780761718750e+01 -1.064289808273315430e+00 -1.926659703254699707e+00 -2.180408477783203125e+00 -1.232120394706726074e+00 -1.923313856124877930e+00
1.028000000000000000e+03 1.853196525573730469e+01 -1.452084541320800781e+00 -1.752723932266235352e+00 -1.433558821678161621e+00 -9.558848142623901367e-01 -1.318233370780944824e+00
1.029000000000000000e+03 1.921756362915039062e+01 -1.533905744552612305e+00 -1.560744524002075195e+00 -2.076134443283081055e+00 -1.091063618659973145e+00 -1.599994659423828125e+00
1.030000000000000000e+03 1.720738983154296875e+01 -1.935080647468566895e+00 -1.728971362113952637e+00 -8.591184020042419434e-01 -7.764269709587097168e-01 -8.821251988410949707e-01
1.031000000000000000e+03 1.779326820373535156e+01 -1.861150026321411133e+00 -1.585108876228332520e+00 -1.066738009452819824e+00 -7.955540418624877930e-01 -1.064325928688049316e+00
1.032000000000000000e+03 2.727079772949218750e+01 4.380666255950927734e+00 -1.899529695510864258e+00 -8.694463372230529785e-01 -8.306927680969238281e-01 -1.084834218025207520e+00
1.033000000000000000e+03 2.264119720458984375e+01 1.553963184356689453e+00 -2.268064498901367188e+00 -4.295718073844909668e-01 -8.092908859252929688e-01 -1.347757816314697266e+00
1.034000000000000000e+03 2.238314437866210938e+01 1.174994587898254395e+00 -2.105555534362792969e+00 -4.086527526378631592e-01 -7.542624473571777344e-01 -1.375565290451049805e+00
1.035000000000000000e+03 2.181687927246093750e+01 5.644750595092773438e-01 -1.916465282440185547e+00 -3.128894567489624023e-01 -6.688064336776733398e-01 -1.639707565307617188e+00
1.036000000000000000e+03 2.339019012451171875e+01 -2.300414323806762695e+00 1.049832940101623535e+00 8.179087042808532715e-01 5.603224635124206543e-01 -1.260466456413269043e+00
1.037000000000000000e+03 2.933707237243652344e+01 5.629183769226074219e+00 -1.561901450157165527e+00 -9.460997581481933594e-01 -7.524003386497497559e-01 -9.089552760124206543e-01
1.038000000000000000e+03 2.865130424499511719e+01 5.251120090484619141e+00 -1.647120356559753418e+00 -1.106172084808349609e+00 -8.259877562522888184e-01 -9.858288764953613281e-01
1.039000000000000000e+03 2.894302940368652344e+01 5.314111709594726562e+00 -1.586824536323547363e+00 -1.052101612091064453e+00 -7.916778326034545898e-01 -9.166277647018432617e-01
1.040000000000000000e+03 2.828749084472656250e+01 5.008878707885742188e+00 -1.721628785133361816e+00 -1.059458851814270020e+00 -8.343262672424316406e-01 -1.032336115837097168e+00
1.041000000000000000e+03 2.821513366699218750e+01 4.631560802459716797e+00 -1.665604114532470703e+00 -9.571790695190429688e-01 -7.868349552154541016e-01 -9.422292113304138184e-01
1.042000000000000000e+03 2.672836875915527344e+01 4.095399379730224609e+00 -1.990625619888305664e+00 -7.865826487541198730e-01 -8.331624865531921387e-01 -1.094781756401062012e+00
1.043000000000000000e+03 2.656650543212890625e+01 3.707315444946289062e+00 -1.944590687751770020e+00 -6.996207833290100098e-01 -7.932634353637695312e-01 -1.001454472541809082e+00
1.044000000000000000e+03 2.611545372009277344e+01 3.301901578903198242e+00 -1.977924942970275879e+00 -6.079512238502502441e-01 -7.757628560066223145e-01 -9.519497156143188477e-01
1.045000000000000000e+03 2.608024787902832031e+01 3.650488376617431641e+00 -2.071463584899902344e+00 -6.816173195838928223e-01 -8.259242177009582520e-01 -1.068076133728027344e+00
1.046000000000000000e+03 2.568723487854003906e+01 2.954217433929443359e+00 -1.962628006935119629e+00 -5.443187355995178223e-01 -7.520840167999267578e-01 -9.306414723396301270e-01
1.047000000000000000e+03 2.502514648437500000e+01 3.019047021865844727e+00 -2.231766462326049805e+00 -5.674645304679870605e-01 -8.397692441940307617e-01 -1.085849523544311523e+00
1.048000000000000000e+03 2.399689483642578125e+01 2.333549261093139648e+00 -2.278668403625488281e+00 -4.903882145881652832e-01 -8.307169675827026367e-01 -1.093486547470092773e+00
1.049000000000000000e+03 2.134057426452636719e+01 6.426200270652770996e-01 -1.830379843711853027e+00 -4.844669103622436523e-01 -6.944540143013000488e-01 -2.026322364807128906e+00
1.050000000000000000e+03 1.698905181884765625e+01 -2.384288311004638672e+00 -1.317621231079101562e+00 -7.618404626846313477e-01 -6.238384842872619629e-01 -7.831388115882873535e-01
1.051000000000000000e+03 1.663864898681640625e+01 -2.225762605667114258e+00 -1.406379342079162598e+00 -7.725682854652404785e-01 -6.536842584609985352e-01 -7.731454372406005859e-01
1.052000000000000000e+03 1.763007354736328125e+01 -2.012487888336181641e+00 -1.644542217254638672e+00 -1.031756162643432617e+00 -8.028895258903503418e-01 -9.761365056037902832e-01
1.053000000000000000e+03 2.452335739135742188e+01 2.690257072448730469e+00 -2.285247802734375000e+00 -5.611345767974853516e-01 -8.539146780967712402e-01 -1.095481038093566895e+00
1.054000000000000000e+03 2.777219963073730469e+01 4.730753421783447266e+00 -1.817230701446533203e+00 -9.626038074493408203e-01 -8.339503407478332520e-01 -1.087423205375671387e+00
1.055000000000000000e+03 1.805747795104980469e+01 -2.944927930831909180e+00 -8.455669283866882324e-01 -1.481024384498596191e+00 -6.979773640632629395e-01 -9.444975852966308594e-01
1.056000000000000000e+03 6.024314880371093750e+01 3.286036300659179688e+01 4.495079517364501953e+00 5.222524166107177734e+00 2.915281057357788086e+00 5.607733726501464844e+00
1.057000000000000000e+03 5.984481430053710938e+01 3.290618133544921875e+01 4.120319366455078125e+00 3.113069295883178711e+00 2.170016527175903320e+00 4.152861595153808594e+00
1.058000000000000000e+03 5.943316268920898438e+01 3.291104125976562500e+01 3.314522981643676758e+00 1.898130416870117188e+00 1.563796043395996094e+00 2.929703712463378906e+00
1.059000000000000000e+03 5.862786865234375000e+01 3.303604125976562500e+01 1.776070713996887207e+00 9.084990620613098145e-01 8.053709268569946289e-01 1.332071185111999512e+00
1.060000000000000000e+03 5.901129913330078125e+01 3.297105026245117188e+01 2.465827941894531250e+00 1.168413162231445312e+00 1.090272307395935059e+00 1.930213570594787598e+00
1.061000000000000000e+03 5.881822204589843750e+01 3.302127075195312500e+01 2.178859710693359375e+00 9.696200489997863770e-01 9.445438981056213379e-01 1.646214962005615234e+00
1.062000000000000000e+03 5.890797042846679688e+01 3.262369537353515625e+01 2.576275825500488281e+00 1.631996393203735352e+00 1.262481689453125000e+00 2.251572608947753906e+00
1.063000000000000000e+03 6.065834426879882812e+01 3.278324890136718750e+01 4.141814708709716797e+00 8.476671218872070312e+00 3.785546064376831055e+00 6.848481178283691406e+00
1.064000000000000000e+03 5.340383529663085938e+01 3.956031417846679688e+01 2.895387820899486542e-02 -1.337752938270568848e+00 -3.926397264003753662e-01 5.202787518501281738e-01
1.065000000000000000e+03 5.323278045654296875e+01 3.879745483398437500e+01 -1.412826895713806152e+00 -1.256675481796264648e+00 -8.008507490158081055e-01 1.006893634796142578e+00
1.066000000000000000e+03 5.350970458984375000e+01 3.854677581787109375e+01 -1.441033601760864258e+00 -1.969215989112854004e+00 -1.023074865341186523e+00 1.508250117301940918e+00
1.067000000000000000e+03 5.402249145507812500e+01 3.878829574584960938e+01 -6.257731318473815918e-01 -1.198409438133239746e+00 -5.472548007965087891e-01 4.859832525253295898e-01
1.068000000000000000e+03 3.099076652526855469e+01 1.151069831848144531e+01 -1.406847834587097168e+00 -1.225883722305297852e+00 -7.898194789886474609e-01 -1.284122943878173828e+00
1.069000000000000000e+03 5.628866195678710938e+01 3.272330856323242188e+01 2.954915463924407959e-01 4.593792259693145752e-01 2.264612317085266113e-01 1.877555809915065765e-02
1.070000000000000000e+03 3.318118286132812500e+01 1.325119304656982422e+01 -1.114492416381835938e+00 -1.200664877891540527e+00 -6.945471763610839844e-01 -1.148381471633911133e+00
1.071000000000000000e+03 3.264439392089843750e+01 1.322573947906494141e+01 -1.152644157409667969e+00 -1.177245497703552246e+00 -6.989669203758239746e-01 -1.171384692192077637e+00
1.072000000000000000e+03 3.238814926147460938e+01 1.239793395996093750e+01 -1.150710821151733398e+00 -1.163660883903503418e+00 -6.943114995956420898e-01 -1.171704173088073730e+00
1.073000000000000000e+03 3.989992904663085938e+01 2.054119682312011719e+01 -8.122012019157409668e-01 -8.177284002304077148e-01 -4.889788627624511719e-01 -8.759518861770629883e-01
1.074000000000000000e+03 5.168256378173828125e+01 3.187705993652343750e+01 -7.187051177024841309e-01 -8.349418044090270996e-01 -4.660940766334533691e-01 -7.344062924385070801e-01
1.075000000000000000e+03 4.017496490478515625e+01 2.083135986328125000e+01 -8.400701880455017090e-01 -8.035230636596679688e-01 -4.930779635906219482e-01 -8.757278323173522949e-01
1.076000000000000000e+03 4.046398925781250000e+01 2.171802520751953125e+01 -1.018791079521179199e+00 -8.052393794059753418e-01 -5.472091436386108398e-01 -9.145681858062744141e-01
1.077000000000000000e+03 2.978074645996093750e+01 1.024395179748535156e+01 -1.399840474128723145e+00 -1.054406642913818359e+00 -7.362741231918334961e-01 -1.198120951652526855e+00
1.078000000000000000e+03 3.014979743957519531e+01 1.055772113800048828e+01 -1.367664813995361328e+00 -1.061417102813720703e+00 -7.287245988845825195e-01 -1.188522577285766602e+00
1.079000000000000000e+03 5.401072692871093750e+01 3.319176864624023438e+01 -5.152609944343566895e-01 1.008236035704612732e-01 -1.243312209844589233e-01 -4.949079453945159912e-01
1.080000000000000000e+03 4.400313568115234375e+01 2.495097732543945312e+01 -1.067271709442138672e+00 -9.598082900047302246e-01 -6.081240177154541016e-01 -9.996227622032165527e-01
1.081000000000000000e+03 4.451675033569335938e+01 2.496935272216796875e+01 -9.536750912666320801e-01 -8.669382333755493164e-01 -5.461840033531188965e-01 -8.766101002693176270e-01
1.082000000000000000e+03 4.045414733886718750e+01 2.112068748474121094e+01 -8.720996379852294922e-01 -8.004919886589050293e-01 -5.017774701118469238e-01 -8.783097267150878906e-01
1.083000000000000000e+03 3.799447631835937500e+01 1.912610816955566406e+01 -8.083133101463317871e-01 -1.201260089874267578e+00 -6.028720140457153320e-01 -9.860994815826416016e-01
1.084000000000000000e+03 3.906527709960937500e+01 1.969459533691406250e+01 -7.881283760070800781e-01 -9.204522371292114258e-01 -5.125741958618164062e-01 -8.991213440895080566e-01
1.085000000000000000e+03 5.141397857666015625e+01 3.156650733947753906e+01 -7.265114784240722656e-01 -8.346637487411499023e-01 -4.683525860309600830e-01 -7.485455870628356934e-01
1.086000000000000000e+03 4.131747055053710938e+01 2.196190834045410156e+01 -9.760417342185974121e-01 -8.340202569961547852e-01 -5.430186390876770020e-01 -8.873482346534729004e-01
1.087000000000000000e+03 4.106245803833007812e+01 2.225010871887207031e+01 -1.098669171333312988e+00 -8.813320398330688477e-01 -5.940003395080566406e-01 -9.748504161834716797e-01
1.088000000000000000e+03 3.291416931152343750e+01 1.296514415740966797e+01 -1.102959990501403809e+00 -1.179162740707397461e+00 -6.846367716789245605e-01 -1.159766554832458496e+00
1.089000000000000000e+03 3.371186828613281250e+01 1.328344345092773438e+01 -1.071258425712585449e+00 -1.161862254142761230e+00 -6.699361801147460938e-01 -1.080213189125061035e+00
1.090000000000000000e+03 2.998573493957519531e+01 8.499996185302734375e+00 -9.913559556007385254e-01 -9.547910690307617188e-01 -5.838441252708435059e-01 -6.567319035530090332e-01
1.091000000000000000e+03 4.341555023193359375e+01 2.440923118591308594e+01 -1.083829879760742188e+00 -8.958112001419067383e-01 -5.938923358917236328e-01 -9.812918901443481445e-01
1.092000000000000000e+03 4.422929382324218750e+01 2.469133758544921875e+01 -9.725878238677978516e-01 -8.667967915534973145e-01 -5.518153905868530273e-01 -8.865922093391418457e-01
1.093000000000000000e+03 4.189837646484375000e+01 2.251423645019531250e+01 -9.968510270118713379e-01 -8.296291232109069824e-01 -5.479440689086914062e-01 -8.992327451705932617e-01
1.094000000000000000e+03 4.535851287841796875e+01 2.580877113342285156e+01 -8.595381975173950195e-01 -8.083341121673583984e-01 -5.003616809844970703e-01 -8.386894464492797852e-01
1.095000000000000000e+03 5.194070434570312500e+01 3.218943786621093750e+01 -6.976833343505859375e-01 -8.023979067802429199e-01 -4.500243663787841797e-01 -7.250662446022033691e-01
1.096000000000000000e+03 5.219538879394531250e+01 3.310380172729492188e+01 -6.346812248229980469e-01 -9.820082783699035645e-01 -4.850068390369415283e-01 -7.788581252098083496e-01
1.097000000000000000e+03 4.563588714599609375e+01 2.608531951904296875e+01 -8.322650194168090820e-01 -7.818413972854614258e-01 -4.842319190502166748e-01 -8.252384066581726074e-01
1.098000000000000000e+03 3.479787826538085938e+01 1.500181865692138672e+01 -1.026183843612670898e+00 -1.194510102272033691e+00 -6.662082076072692871e-01 -1.113379478454589844e+00
1.099000000000000000e+03 3.455279922485351562e+01 1.525752639770507812e+01 -1.033441424369812012e+00 -1.251535177230834961e+00 -6.854929924011230469e-01 -1.143900990486145020e+00
1.100000000000000000e+03 3.265368652343750000e+01 1.268100929260253906e+01 -1.120907068252563477e+00 -1.168068170547485352e+00 -6.866925954818725586e-01 -1.163850426673889160e+00
1.101000000000000000e+03 4.614685058593750000e+01 2.607281684875488281e+01 -7.733341455459594727e-01 -6.666640043258666992e-01 -4.319994449615478516e-01 -7.436054348945617676e-01
1.102000000000000000e+03 5.033242797851562500e+01 3.100308227539062500e+01 -9.212377071380615234e-01 -9.466275572776794434e-01 -5.603595972061157227e-01 -9.316996932029724121e-01
1.103000000000000000e+03 5.113590240478515625e+01 3.126211929321289062e+01 -7.395590543746948242e-01 -8.331677317619323730e-01 -4.718180298805236816e-01 -7.510380744934082031e-01
1.104000000000000000e+03 3.774025344848632812e+01 1.881966018676757812e+01 -8.496015071868896484e-01 -1.254487276077270508e+00 -6.312265992164611816e-01 -1.028743505477905273e+00
1.105000000000000000e+03 3.617040634155273438e+01 1.701630783081054688e+01 -1.034266591072082520e+00 -1.244426608085632324e+00 -6.836079359054565430e-01 -1.132225990295410156e+00
1.106000000000000000e+03 3.719686126708984375e+01 1.764370727539062500e+01 -9.529330730438232422e-01 -1.191129684448242188e+00 -6.432188153266906738e-01 -1.040372967720031738e+00
1.107000000000000000e+03 4.732939147949218750e+01 2.770532989501953125e+01 -8.366606235504150391e-01 -7.194990515708923340e-01 -4.668478965759277344e-01 -7.836828231811523438e-01
1.108000000000000000e+03 3.823970031738281250e+01 1.883320617675781250e+01 -8.416483402252197266e-01 -1.078063011169433594e+00 -5.759134292602539062e-01 -9.582223296165466309e-01
1.109000000000000000e+03 4.306000900268554688e+01 2.360172271728515625e+01 -9.768184423446655273e-01 -8.181784152984619141e-01 -5.384990572929382324e-01 -8.988566994667053223e-01
1.110000000000000000e+03 4.223318099975585938e+01 2.333758926391601562e+01 -1.027659535408020020e+00 -8.791686892509460449e-01 -5.720484852790832520e-01 -9.568646550178527832e-01
1.111000000000000000e+03 4.393895339965820312e+01 2.441611862182617188e+01 -9.818703532218933105e-01 -8.540921211242675781e-01 -5.507887601852416992e-01 -8.940828442573547363e-01
1.112000000000000000e+03 4.647644424438476562e+01 2.690248489379882812e+01 -8.148404359817504883e-01 -7.311489582061767578e-01 -4.637968242168426514e-01 -7.898832559585571289e-01
1.113000000000000000e+03 5.004451370239257812e+01 3.072200584411621094e+01 -9.220905900001525879e-01 -9.273858666419982910e-01 -5.548429489135742188e-01 -9.162405729293823242e-01
1.114000000000000000e+03 5.084950637817382812e+01 3.096568679809570312e+01 -7.443411946296691895e-01 -8.158534169197082520e-01 -4.680584073066711426e-01 -7.594098448753356934e-01
1.115000000000000000e+03 3.590097045898437500e+01 1.672246170043945312e+01 -1.041561603546142578e+00 -1.239948153495788574e+00 -6.844529509544372559e-01 -1.133361577987670898e+00
1.116000000000000000e+03 3.693475723266601562e+01 1.734555625915527344e+01 -9.689926505088806152e-01 -1.191455245018005371e+00 -6.481343507766723633e-01 -1.054052114486694336e+00
1.117000000000000000e+03 4.282215499877929688e+01 2.387494850158691406e+01 -1.056015133857727051e+00 -8.648583889007568359e-01 -5.762620568275451660e-01 -9.589791893959045410e-01
1.118000000000000000e+03 4.276733016967773438e+01 2.333144378662109375e+01 -9.738965034484863281e-01 -8.145430088043212891e-01 -5.365318655967712402e-01 -9.021233320236206055e-01
1.119000000000000000e+03 4.712547302246093750e+01 2.800481033325195312e+01 -9.438567161560058594e-01 -7.903581261634826660e-01 -5.202644467353820801e-01 -8.631426692008972168e-01
1.120000000000000000e+03 4.218731689453125000e+01 2.278835487365722656e+01 -9.878677725791931152e-01 -8.213617801666259766e-01 -5.427688956260681152e-01 -9.037643074989318848e-01
1.121000000000000000e+03 3.211632919311523438e+01 1.210808753967285156e+01 -1.199441313743591309e+00 -1.181193709373474121e+00 -7.141904830932617188e-01 -1.166869282722473145e+00
1.122000000000000000e+03 4.975582122802734375e+01 3.044352340698242188e+01 -9.160996675491333008e-01 -9.041770696640014648e-01 -5.460830330848693848e-01 -9.121794104576110840e-01
1.123000000000000000e+03 5.055658340454101562e+01 3.067662239074707031e+01 -7.564045190811157227e-01 -8.064875602722167969e-01 -4.688676297664642334e-01 -7.594355940818786621e-01
1.124000000000000000e+03 4.073787307739257812e+01 2.140453720092773438e+01 -9.085516929626464844e-01 -8.104490637779235840e-01 -5.157002210617065430e-01 -8.804888725280761719e-01
1.125000000000000000e+03 4.849485397338867188e+01 2.876789855957031250e+01 -8.453340530395507812e-01 -7.515160441398620605e-01 -4.790550172328948975e-01 -7.847324609756469727e-01
1.126000000000000000e+03 4.771504592895507812e+01 2.853686332702636719e+01 -9.701516628265380859e-01 -8.142139315605163574e-01 -5.353096723556518555e-01 -8.835748434066772461e-01
1.127000000000000000e+03 3.850944519042968750e+01 1.912418174743652344e+01 -8.159788250923156738e-01 -1.026735663414001465e+00 -5.528143048286437988e-01 -9.340857863426208496e-01
1.128000000000000000e+03 3.933984756469726562e+01 1.935128402709960938e+01 -7.933542132377624512e-01 -8.464727997779846191e-01 -4.919480979442596436e-01 -8.820779919624328613e-01
1.129000000000000000e+03 4.591429901123046875e+01 2.635943412780761719e+01 -8.171075582504272461e-01 -7.615978121757507324e-01 -4.736116230487823486e-01 -8.098233938217163086e-01
1.130000000000000000e+03 4.508066558837890625e+01 2.552995300292968750e+01 -8.928905725479125977e-01 -8.330081701278686523e-01 -5.177696347236633301e-01 -8.531319499015808105e-01
1.131000000000000000e+03 4.364678192138671875e+01 2.414340019226074219e+01 -9.846649169921875000e-01 -8.398755788803100586e-01 -5.473621487617492676e-01 -8.964818120002746582e-01
1.132000000000000000e+03 3.400629425048828125e+01 1.411632251739501953e+01 -1.110388398170471191e+00 -1.226116538047790527e+00 -7.009514570236206055e-01 -1.136431097984313965e+00
1.133000000000000000e+03 3.427228546142578125e+01 1.441310119628906250e+01 -1.082657337188720703e+00 -1.216422915458679199e+00 -6.897240877151489258e-01 -1.131481528282165527e+00
1.134000000000000000e+03 3.563073348999023438e+01 1.642929840087890625e+01 -1.046032905578613281e+00 -1.235639572143554688e+00 -6.845017671585083008e-01 -1.136163949966430664e+00
1.135000000000000000e+03 3.667023468017578125e+01 1.704919433593750000e+01 -9.805703759193420410e-01 -1.185809373855590820e+00 -6.499139070510864258e-01 -1.065495252609252930e+00
1.136000000000000000e+03 4.888985824584960938e+01 2.961578941345214844e+01 -9.463733434677124023e-01 -8.881384730339050293e-01 -5.503535270690917969e-01 -9.068652987480163574e-01
1.137000000000000000e+03 4.704377365112304688e+01 2.743899154663085938e+01 -8.291303515434265137e-01 -7.213888764381408691e-01 -4.651557803153991699e-01 -7.823178768157958984e-01
1.138000000000000000e+03 4.790708160400390625e+01 2.823596763610839844e+01 -8.480023145675659180e-01 -7.325597405433654785e-01 -4.741686284542083740e-01 -7.857735753059387207e-01
1.139000000000000000e+03 5.026057815551757812e+01 3.039383888244628906e+01 -7.633445858955383301e-01 -7.896478772163391113e-01 -4.658977389335632324e-01 -7.680746912956237793e-01
1.140000000000000000e+03 3.044959068298339844e+01 1.090206623077392578e+01 -1.362004160881042480e+00 -1.094237923622131348e+00 -7.368726134300231934e-01 -1.200577020645141602e+00
1.141000000000000000e+03 4.675953292846679688e+01 2.717148399353027344e+01 -8.203436136245727539e-01 -7.207275629043579102e-01 -4.623213410377502441e-01 -7.863363027572631836e-01
1.142000000000000000e+03 3.613488769531250000e+01 1.646170234680175781e+01 -9.985950589179992676e-01 -1.177250623703002930e+00 -6.527537107467651367e-01 -1.078716397285461426e+00
1.143000000000000000e+03 3.586539459228515625e+01 1.616937255859375000e+01 -1.004896044731140137e+00 -1.177335739135742188e+00 -6.546695232391357422e-01 -1.082531929016113281e+00
1.144000000000000000e+03 3.506165313720703125e+01 1.529354667663574219e+01 -1.011987209320068359e+00 -1.185732364654541016e+00 -6.593158841133117676e-01 -1.104058146476745605e+00
1.145000000000000000e+03 3.559592819213867188e+01 1.587717533111572266e+01 -1.006387472152709961e+00 -1.177759289741516113e+00 -6.552440524101257324e-01 -1.088717222213745117e+00
1.146000000000000000e+03 3.532769775390625000e+01 1.558518981933593750e+01 -1.009326696395874023e+00 -1.181611776351928711e+00 -6.572815179824829102e-01 -1.094060540199279785e+00
1.147000000000000000e+03 4.908439636230468750e+01 2.930316352844238281e+01 -8.254431486129760742e-01 -7.641400694847106934e-01 -4.768749773502349854e-01 -7.800553441047668457e-01
1.148000000000000000e+03 4.967089843750000000e+01 2.984287261962890625e+01 -7.928075790405273438e-01 -7.725692391395568848e-01 -4.696130454540252686e-01 -7.743818759918212891e-01
1.149000000000000000e+03 4.670392990112304688e+01 2.660923767089843750e+01 -7.499084472656250000e-01 -6.459422707557678223e-01 -4.187552034854888916e-01 -7.216767668724060059e-01
1.150000000000000000e+03 4.335357666015625000e+01 2.387223625183105469e+01 -9.812661409378051758e-01 -8.260658979415893555e-01 -5.421996116638183594e-01 -8.982179760932922363e-01
1.151000000000000000e+03 2.899087905883789062e+01 8.891906738281250000e+00 -1.895695805549621582e+00 -5.738343000411987305e-01 -7.408590316772460938e-01 -9.006915688514709473e-01
1.152000000000000000e+03 1.289892768859863281e+01 1.293091058731079102e+00 9.251725077629089355e-01 -2.208067774772644043e-01 2.113097310066223145e-01 3.289084434509277344e-01
1.153000000000000000e+03 1.318470954895019531e+01 2.148443460464477539e+00 1.289554834365844727e+00 1.604312300682067871e+00 8.681601285934448242e-01 -8.751889467239379883e-01
1.154000000000000000e+03 9.039463996887207031e+00 3.108259677886962891e+00 8.892758190631866455e-02 -2.485601305961608887e-01 -4.788976535201072693e-02 2.491552978754043579e-01
1.155000000000000000e+03 1.442817401885986328e+01 4.100883960723876953e+00 4.324548840522766113e-01 7.445586323738098145e-01 3.531040549278259277e-01 5.044838190078735352e-01
1.156000000000000000e+03 1.383529567718505859e+01 4.075376987457275391e+00 2.213804423809051514e-01 1.140773653984069824e+00 4.086462259292602539e-01 2.417730391025543213e-01
1.157000000000000000e+03 1.472622871398925781e+01 4.378985881805419922e+00 3.694662749767303467e-01 4.604727625846862793e-01 2.489817142486572266e-01 3.938018381595611572e-01
1.158000000000000000e+03 1.413393974304199219e+01 4.382712364196777344e+00 2.125633656978607178e-01 8.964250683784484863e-01 3.326965272426605225e-01 3.247676789760589600e-01
1.159000000000000000e+03 1.635364913940429688e+01 6.111392974853515625e+00 2.482015043497085571e-01 2.885905206203460693e-01 1.610376089811325073e-01 2.619065344333648682e-01
1.160000000000000000e+03 1.529291534423828125e+01 5.472975254058837891e+00 2.098605185747146606e-01 3.463154137134552002e-01 1.668527722358703613e-01 2.832862436771392822e-01
1.161000000000000000e+03 4.864135360717773438e+01 3.733155441284179688e+01 2.520374953746795654e-01 6.325796991586685181e-02 9.458863735198974609e-02 8.315347880125045776e-02
1.162000000000000000e+03 4.780907440185546875e+01 3.706455612182617188e+01 2.180389761924743652e-01 8.175416290760040283e-02 8.993794023990631104e-02 7.918065786361694336e-02
1.163000000000000000e+03 1.503038501739501953e+01 4.640002727508544922e+00 2.785071134567260742e-01 3.203695416450500488e-01 1.796630024909973145e-01 3.026386201381683350e-01
1.164000000000000000e+03 1.608496475219726562e+01 6.325049400329589844e+00 2.085636407136917114e-01 3.110767900943756104e-01 1.558921188116073608e-01 2.313289940357208252e-01
1.165000000000000000e+03 4.977378463745117188e+01 3.766738891601562500e+01 2.326953262090682983e-01 1.471646688878536224e-02 7.422354072332382202e-02 1.148919686675071716e-01
1.166000000000000000e+03 4.950797271728515625e+01 3.811882400512695312e+01 2.373430579900741577e-01 3.689876571297645569e-02 8.227254450321197510e-02 6.541631370782852173e-02
1.167000000000000000e+03 1.443729114532470703e+01 4.667962074279785156e+00 2.131634354591369629e-01 6.604495048522949219e-01 2.620838880538940430e-01 3.470998406410217285e-01
1.168000000000000000e+03 1.888711929321289062e+01 1.027034378051757812e+01 1.293137818574905396e-01 1.845292001962661743e-01 9.415289759635925293e-02 1.581909507513046265e-01
1.169000000000000000e+03 1.756814193725585938e+01 8.176074028015136719e+00 1.676767468452453613e-01 2.174915969371795654e-01 1.155505031347274780e-01 1.884304434061050415e-01
1.170000000000000000e+03 1.882592582702636719e+01 8.743070602416992188e+00 1.909869313240051270e-01 1.999016106128692627e-01 1.172665581107139587e-01 1.882115304470062256e-01
1.171000000000000000e+03 4.626553344726562500e+01 3.577995681762695312e+01 1.086280345916748047e-01 5.375887453556060791e-02 4.871607199311256409e-02 7.948576658964157104e-02
1.172000000000000000e+03 4.692282867431640625e+01 3.621425628662109375e+01 1.171194240450859070e-01 5.581559985876083374e-02 5.188050866127014160e-02 1.096701174974441528e-01
1.173000000000000000e+03 3.335034942626953125e+01 2.316546440124511719e+01 6.415201723575592041e-02 8.545544743537902832e-02 4.488223791122436523e-02 7.254954427480697632e-02
1.174000000000000000e+03 3.225887298583984375e+01 2.201218414306640625e+01 6.238744780421257019e-02 6.999149918556213379e-02 3.971368446946144104e-02 6.826893240213394165e-02
1.175000000000000000e+03 1.501982021331787109e+01 5.202186107635498047e+00 2.098013609647750854e-01 3.996852636337280273e-01 1.828459799289703369e-01 3.093526661396026611e-01
1.176000000000000000e+03 3.620964431762695312e+01 2.649906730651855469e+01 5.421653762459754944e-02 7.915452122688293457e-02 4.001131653785705566e-02 6.781837344169616699e-02
1.177000000000000000e+03 3.539246749877929688e+01 2.617105674743652344e+01 5.765237659215927124e-02 8.233525604009628296e-02 4.199628904461860657e-02 6.843701004981994629e-02
1.178000000000000000e+03 3.108090782165527344e+01 2.089261436462402344e+01 8.595815300941467285e-02 8.219636231660842896e-02 5.044635385274887085e-02 8.253321051597595215e-02
1.179000000000000000e+03 3.167442131042480469e+01 2.144905090332031250e+01 7.655587047338485718e-02 7.195428758859634399e-02 4.455304890871047974e-02 7.464912533760070801e-02
1.180000000000000000e+03 5.015776062011718750e+01 3.779319000244140625e+01 2.800986468791961670e-01 6.857044249773025513e-02 1.046007275581359863e-01 7.441658526659011841e-02
1.181000000000000000e+03 1.940886688232421875e+01 9.312367439270019531e+00 1.722958534955978394e-01 1.617276221513748169e-01 1.002070382237434387e-01 1.659654229879379272e-01
1.182000000000000000e+03 3.612937164306640625e+01 2.705269813537597656e+01 5.929366126656532288e-02 7.918876409530639648e-02 4.154472798109054565e-02 7.003539800643920898e-02
1.183000000000000000e+03 1.656827735900878906e+01 6.926601886749267578e+00 1.842624247074127197e-01 2.618778347969055176e-01 1.338420808315277100e-01 2.181597948074340820e-01
1.184000000000000000e+03 1.743882942199707031e+01 7.271416187286376953e+00 1.749519258737564087e-01 2.076011896133422852e-01 1.147659346461296082e-01 1.963643431663513184e-01
1.185000000000000000e+03 2.534930992126464844e+01 1.529773712158203125e+01 1.070883944630622864e-01 1.105502918362617493e-01 6.529160588979721069e-02 1.108507439494132996e-01
1.186000000000000000e+03 2.424438858032226562e+01 1.579170703887939453e+01 9.899058192968368530e-02 1.231617853045463562e-01 6.664571166038513184e-02 1.137537360191345215e-01
1.187000000000000000e+03 1.703233528137207031e+01 7.564683437347412109e+00 1.696368604898452759e-01 2.317725569009780884e-01 1.204228252172470093e-01 2.010219246149063110e-01
1.188000000000000000e+03 1.905099296569824219e+01 9.636924743652343750e+00 1.467728912830352783e-01 1.833823323249816895e-01 9.904656559228897095e-02 1.659316867589950562e-01
1.189000000000000000e+03 3.410296249389648438e+01 2.407970237731933594e+01 5.743638798594474792e-02 8.008074760437011719e-02 4.125514253973960876e-02 7.058975845575332642e-02
1.190000000000000000e+03 3.354002761840820312e+01 2.401748275756835938e+01 5.773611739277839661e-02 8.312536776065826416e-02 4.225844517350196838e-02 7.191164791584014893e-02
1.191000000000000000e+03 3.481192398071289062e+01 2.562569236755371094e+01 5.971168726682662964e-02 8.462204039096832275e-02 4.330011829733848572e-02 6.777711957693099976e-02
1.192000000000000000e+03 1.997174453735351562e+01 1.052061462402343750e+01 1.395985782146453857e-01 1.600771099328994751e-01 8.990270644426345825e-02 1.533460468053817749e-01
1.193000000000000000e+03 3.223650360107421875e+01 2.267141914367675781e+01 6.270841509103775024e-02 7.706784456968307495e-02 4.193288087844848633e-02 7.354670763015747070e-02
1.194000000000000000e+03 3.707110595703125000e+01 2.836104011535644531e+01 6.217158585786819458e-02 7.806546986103057861e-02 4.207111895084381104e-02 6.809559464454650879e-02
1.195000000000000000e+03 2.113814163208007812e+01 1.100207614898681641e+01 1.483550518751144409e-01 1.640541851520538330e-01 9.372277557849884033e-02 1.531366705894470215e-01
1.196000000000000000e+03 2.028544235229492188e+01 1.077612781524658203e+01 1.389358043670654297e-01 1.594613790512084961e-01 8.951915800571441650e-02 1.498081237077713013e-01
1.197000000000000000e+03 2.171229743957519531e+01 1.155369472503662109e+01 1.406291276216506958e-01 1.482020616531372070e-01 8.664935827255249023e-02 1.440149545669555664e-01
1.198000000000000000e+03 2.119045257568359375e+01 1.154203128814697266e+01 1.348568797111511230e-01 1.589023619890213013e-01 8.812777698040008545e-02 1.442695707082748413e-01
1.199000000000000000e+03 2.530417633056640625e+01 1.597633266448974609e+01 1.040007323026657104e-01 1.141675785183906555e-01 6.545048952102661133e-02 1.116030886769294739e-01
1.200000000000000000e+03 5.092717361450195312e+01 3.847845458984375000e+01 1.818950027227401733e-01 9.869971871376037598e-02 8.417841792106628418e-02 9.111702442169189453e-02
1.201000000000000000e+03 3.102585220336914062e+01 2.150824928283691406e+01 7.280457019805908203e-02 8.351802825927734375e-02 4.689677804708480835e-02 7.772564888000488281e-02
1.202000000000000000e+03 1.797362709045410156e+01 7.865240097045898438e+00 1.697463691234588623e-01 2.138950973749160767e-01 1.150924339890480042e-01 1.925572603940963745e-01
1.203000000000000000e+03 1.728347969055175781e+01 7.881033420562744141e+00 1.651513874530792236e-01 2.215607166290283203e-01 1.160136312246322632e-01 1.963921636343002319e-01
1.204000000000000000e+03 3.589907836914062500e+01 2.674487304687500000e+01 5.855979397892951965e-02 8.062842488288879395e-02 4.175646603107452393e-02 6.844787299633026123e-02
1.205000000000000000e+03 2.226939964294433594e+01 1.211751842498779297e+01 1.298877447843551636e-01 1.470457911491394043e-01 8.308006078004837036e-02 1.385151147842407227e-01
1.206000000000000000e+03 2.148051261901855469e+01 1.179872894287109375e+01 1.313860565423965454e-01 1.534249335527420044e-01 8.544329553842544556e-02 1.438076496124267578e-01
1.207000000000000000e+03 2.357007980346679688e+01 1.412381362915039062e+01 1.251246184110641479e-01 1.351031512022018433e-01 7.806833088397979736e-02 1.263277381658554077e-01
1.208000000000000000e+03 3.161209297180175781e+01 2.210260581970214844e+01 6.534388661384582520e-02 7.936444878578186035e-02 4.341249912977218628e-02 7.630610466003417969e-02
1.209000000000000000e+03 2.253807640075683594e+01 1.291236209869384766e+01 1.292844861745834351e-01 1.464495807886123657e-01 8.272022008895874023e-02 1.365525722503662109e-01
1.210000000000000000e+03 4.390967178344726562e+01 3.466997146606445312e+01 1.003345772624015808e-01 4.715019837021827698e-02 4.424543306231498718e-02 5.634285137057304382e-02
1.211000000000000000e+03 4.413246917724609375e+01 3.508414077758789062e+01 8.690528571605682373e-02 4.222716763615608215e-02 3.873973712325096130e-02 6.829071044921875000e-02
1.212000000000000000e+03 2.202879524230957031e+01 1.233625316619873047e+01 1.282963007688522339e-01 1.472198963165283203e-01 8.265485614538192749e-02 1.401523500680923462e-01
1.213000000000000000e+03 2.447659683227539062e+01 1.444076442718505859e+01 1.282481104135513306e-01 1.154727414250373840e-01 7.311625778675079346e-02 1.217540428042411804e-01
1.214000000000000000e+03 2.437981796264648438e+01 1.507849788665771484e+01 1.094874814152717590e-01 1.217374801635742188e-01 6.936749070882797241e-02 1.182773634791374207e-01
1.215000000000000000e+03 3.256670379638671875e+01 2.288715744018554688e+01 6.273968517780303955e-02 7.773025333881378174e-02 4.214097931981086731e-02 7.176546752452850342e-02
1.216000000000000000e+03 3.284194183349609375e+01 2.314451408386230469e+01 6.306769698858261108e-02 8.089434355497360229e-02 4.318861290812492371e-02 7.049378752708435059e-02
1.217000000000000000e+03 1.679694175720214844e+01 7.242307186126708984e+00 1.721211671829223633e-01 2.422585934400558472e-01 1.243139281868934631e-01 2.117578238248825073e-01
1.218000000000000000e+03 3.392681884765625000e+01 2.470782852172851562e+01 5.775921419262886047e-02 8.175750076770782471e-02 4.185501486063003540e-02 7.214547693729400635e-02
1.219000000000000000e+03 3.830331420898437500e+01 2.895158195495605469e+01 6.441449373960494995e-02 6.654006987810134888e-02 3.928637132048606873e-02 6.858798861503601074e-02
1.220000000000000000e+03 2.986313438415527344e+01 2.033226394653320312e+01 8.318302035331726074e-02 8.805833011865615845e-02 5.137240514159202576e-02 8.589560538530349731e-02
1.221000000000000000e+03 3.050352478027343750e+01 2.032336044311523438e+01 8.597426116466522217e-02 8.641376346349716187e-02 5.171640962362289429e-02 8.565746992826461792e-02
1.222000000000000000e+03 2.410585212707519531e+01 1.475325202941894531e+01 1.143442019820213318e-01 1.260728687047958374e-01 7.212512195110321045e-02 1.204712316393852234e-01
1.223000000000000000e+03 2.563426399230957031e+01 1.623893928527832031e+01 1.040343120694160461e-01 1.142046302556991577e-01 6.547167897224426270e-02 1.095397472381591797e-01
1.224000000000000000e+03 1.819776344299316406e+01 8.734446525573730469e+00 1.689143925905227661e-01 2.076014727354049683e-01 1.129547581076622009e-01 1.761157810688018799e-01
1.225000000000000000e+03 1.639274787902832031e+01 7.478240966796875000e+00 1.571846157312393188e-01 2.708732187747955322e-01 1.284173429012298584e-01 2.029251456260681152e-01
1.226000000000000000e+03 4.908021545410156250e+01 3.798010635375976562e+01 2.050339877605438232e-01 1.957646198570728302e-02 6.738313287496566772e-02 9.780514240264892578e-02
1.227000000000000000e+03 4.310408020019531250e+01 3.322806549072265625e+01 7.433295994997024536e-02 4.710111021995544434e-02 3.643022105097770691e-02 6.377201527357101440e-02
1.228000000000000000e+03 1.633401489257812500e+01 6.620803833007812500e+00 1.923577189445495605e-01 2.832529544830322266e-01 1.426831930875778198e-01 2.285654693841934204e-01
1.229000000000000000e+03 2.680457687377929688e+01 1.670070648193359375e+01 1.103563085198402405e-01 1.160590052604675293e-01 6.792459636926651001e-02 1.121615469455718994e-01
1.230000000000000000e+03 2.500481224060058594e+01 1.638314056396484375e+01 9.913150221109390259e-02 1.161501854658126831e-01 6.458450853824615479e-02 1.093431934714317322e-01
1.231000000000000000e+03 3.872387695312500000e+01 3.001290893554687500e+01 6.147773191332817078e-02 6.511310487985610962e-02 3.797724843025207520e-02 6.433972716331481934e-02
1.232000000000000000e+03 4.338091278076171875e+01 3.406697082519531250e+01 8.715590089559555054e-02 5.048785731196403503e-02 4.129312559962272644e-02 5.860287323594093323e-02
1.233000000000000000e+03 2.228617286682128906e+01 1.262028789520263672e+01 1.289980858564376831e-01 1.473359465599060059e-01 8.290021121501922607e-02 1.377370208501815796e-01
1.234000000000000000e+03 4.217449569702148438e+01 3.245254135131835938e+01 7.326494902372360229e-02 5.397212132811546326e-02 3.817111998796463013e-02 5.788564309477806091e-02
1.235000000000000000e+03 2.723722076416015625e+01 1.805245971679687500e+01 9.608940035104751587e-02 1.070612892508506775e-01 6.094520539045333862e-02 9.996630251407623291e-02
1.236000000000000000e+03 2.176055717468261719e+01 1.206230258941650391e+01 1.300374716520309448e-01 1.501220464706420898e-01 8.404785394668579102e-02 1.414482742547988892e-01
1.237000000000000000e+03 4.372321701049804688e+01 3.373928833007812500e+01 7.645549625158309937e-02 4.557662829756736755e-02 3.660963848233222961e-02 6.437605619430541992e-02
1.238000000000000000e+03 3.196982192993164062e+01 2.172893142700195312e+01 6.841460615396499634e-02 6.862264871597290039e-02 4.111117869615554810e-02 7.122915983200073242e-02
1.239000000000000000e+03 3.511134719848632812e+01 2.589769744873046875e+01 5.779682099819183350e-02 8.186583220958709717e-02 4.189879447221755981e-02 7.018738240003585815e-02
1.240000000000000000e+03 3.022269821166992188e+01 2.003485298156738281e+01 8.590620756149291992e-02 8.659376949071884155e-02 5.174999311566352844e-02 8.669321984052658081e-02
1.241000000000000000e+03 2.960186386108398438e+01 2.002753448486328125e+01 8.401245623826980591e-02 8.939630538225173950e-02 5.202262848615646362e-02 8.768269419670104980e-02
1.242000000000000000e+03 3.858343887329101562e+01 2.927085685729980469e+01 6.732372194528579712e-02 6.783393025398254395e-02 4.054729640483856201e-02 6.327680498361587524e-02
1.243000000000000000e+03 2.595465087890625000e+01 1.649689865112304688e+01 1.040638461709022522e-01 1.147619187831878662e-01 6.564772874116897583e-02 1.084146872162818909e-01
1.244000000000000000e+03 2.935581207275390625e+01 1.972209739685058594e+01 8.617644011974334717e-02 9.032884240150451660e-02 5.295158550143241882e-02 8.907449990510940552e-02
1.245000000000000000e+03 4.032088088989257812e+01 3.176832771301269531e+01 7.110450416803359985e-02 5.896550416946411133e-02 3.902100399136543274e-02 5.889207124710083008e-02
1.246000000000000000e+03 4.123950195312500000e+01 3.220075607299804688e+01 6.706444174051284790e-02 5.354893952608108521e-02 3.618401661515235901e-02 6.278201937675476074e-02
1.247000000000000000e+03 3.043135833740234375e+01 2.092768096923828125e+01 8.001361042261123657e-02 8.604475855827331543e-02 4.981750994920730591e-02 8.150807768106460571e-02
1.248000000000000000e+03 3.014110755920410156e+01 2.063322830200195312e+01 8.124355971813201904e-02 8.712208271026611328e-02 5.050969123840332031e-02 8.430646359920501709e-02
1.249000000000000000e+03 4.594122314453125000e+01 3.630131912231445312e+01 1.496401280164718628e-01 4.031198099255561829e-02 5.698563158512115479e-02 8.416566997766494751e-02
1.250000000000000000e+03 4.675814819335937500e+01 3.663111877441406250e+01 1.454724967479705811e-01 5.197312682867050171e-02 5.923368409276008606e-02 8.253370225429534912e-02
1.251000000000000000e+03 2.829623985290527344e+01 1.860783004760742188e+01 9.520989656448364258e-02 9.662833809852600098e-02 5.755146965384483337e-02 9.635558724403381348e-02
1.252000000000000000e+03 2.911367225646972656e+01 1.889396858215332031e+01 9.536521881818771362e-02 9.004896879196166992e-02 5.562425404787063599e-02 9.277786314487457275e-02
1.253000000000000000e+03 4.072400665283203125e+01 3.116249656677246094e+01 6.963956356048583984e-02 5.360146984457969666e-02 3.697231039404869080e-02 6.247622147202491760e-02
1.254000000000000000e+03 4.128427886962890625e+01 3.163802909851074219e+01 6.651789695024490356e-02 5.332031846046447754e-02 3.595146536827087402e-02 6.054854393005371094e-02
1.255000000000000000e+03 2.802117156982421875e+01 1.832841491699218750e+01 9.790904074907302856e-02 9.907456487417221069e-02 5.909508466720581055e-02 9.867455810308456421e-02
1.256000000000000000e+03 2.882879257202148438e+01 1.862008094787597656e+01 9.773591905832290649e-02 9.160745143890380859e-02 5.680301412940025330e-02 9.486165642738342285e-02
1.257000000000000000e+03 2.882628250122070312e+01 1.964478683471679688e+01 8.472684770822525024e-02 9.400606900453567505e-02 5.361987277865409851e-02 9.018976986408233643e-02
1.258000000000000000e+03 4.365431976318359375e+01 3.434798812866210938e+01 8.055248111486434937e-02 4.587043449282646179e-02 3.792687505483627319e-02 6.636533141136169434e-02
1.259000000000000000e+03 2.774171447753906250e+01 1.805418777465820312e+01 1.001023501157760620e-01 1.022825464606285095e-01 6.071546673774719238e-02 1.007631123065948486e-01
1.260000000000000000e+03 4.462207412719726562e+01 3.461555480957031250e+01 9.549907594919204712e-02 5.526592954993247986e-02 4.522950202226638794e-02 6.184156984090805054e-02
1.261000000000000000e+03 4.432168579101562500e+01 3.429053115844726562e+01 8.313421905040740967e-02 4.572395607829093933e-02 3.865745291113853455e-02 6.837280094623565674e-02
1.262000000000000000e+03 4.095767974853515625e+01 3.189210700988769531e+01 7.189103215932846069e-02 5.550139769911766052e-02 3.821773082017898560e-02 5.806262046098709106e-02
1.263000000000000000e+03 2.911112022399902344e+01 1.942250251770019531e+01 8.841004222631454468e-02 9.136357903480529785e-02 5.393208563327789307e-02 9.069491922855377197e-02
1.264000000000000000e+03 5.283259582519531250e+01 3.956980133056640625e+01 -1.272298842668533325e-01 -6.530077457427978516e-01 -2.340712994337081909e-01 5.698019266128540039e-01
1.265000000000000000e+03 5.131864547729492188e+01 3.910327148437500000e+01 1.405134215019643307e-03 7.957471162080764771e-02 2.429395541548728943e-02 1.509195566177368164e-01
1.266000000000000000e+03 4.979640579223632812e+01 3.868744277954101562e+01 1.619936823844909668e-01 2.877360209822654724e-02 5.723018571734428406e-02 7.320126891136169434e-02
1.267000000000000000e+03 5.966531753540039062e+01 3.258648300170898438e+01 3.687316417694091797e+00 3.420020103454589844e+00 2.132200956344604492e+00 4.070753574371337891e+00
1.268000000000000000e+03 5.680747985839843750e+01 3.269392013549804688e+01 6.200672984123229980e-01 5.036684870719909668e-01 3.371207416057586670e-01 2.370409071445465088e-01
1.269000000000000000e+03 5.739608383178710938e+01 3.312762069702148438e+01 4.367345273494720459e-01 3.798686563968658447e-01 2.449809610843658447e-01 2.726414501667022705e-01
1.270000000000000000e+03 5.475313949584960938e+01 3.350191116333007812e+01 -5.641247630119323730e-01 2.400701344013214111e-01 -9.721638262271881104e-02 -4.687550961971282959e-01
1.271000000000000000e+03 5.314804077148437500e+01 3.286948013305664062e+01 -5.457252264022827148e-01 -2.093904614448547363e-01 -2.265347093343734741e-01 -5.386686921119689941e-01
1.272000000000000000e+03 5.352555847167968750e+01 3.390653991699218750e+01 -6.019010543823242188e-01 -1.289788335561752319e-01 -2.192639559507369995e-01 -4.996405541896820068e-01
1.273000000000000000e+03 5.303887939453125000e+01 3.329431915283203125e+01 -6.019874811172485352e-01 -3.627997934818267822e-01 -2.894361913204193115e-01 -5.775960683822631836e-01
1.274000000000000000e+03 5.485213088989257812e+01 3.859355163574218750e+01 -5.341510772705078125e-01 -3.579384684562683105e-01 -2.676268517971038818e-01 4.697603285312652588e-01
1.275000000000000000e+03 5.898875808715820312e+01 3.783929061889648438e+01 1.012255787849426270e+00 3.606399774551391602e+00 1.385596632957458496e+00 -2.019095659255981445e+00
1.276000000000000000e+03 5.551088333129882812e+01 3.700490951538085938e+01 -4.113601446151733398e-01 -1.713157743215560913e-01 -1.748027801513671875e-01 8.624724149703979492e-01
1.277000000000000000e+03 5.900311279296875000e+01 3.711284255981445312e+01 1.268317699432373047e+00 3.210352659225463867e+00 1.343601107597351074e+00 -2.111130714416503906e+00
1.278000000000000000e+03 9.044741630554199219e+00 2.457005500793457031e+00 -5.748140066862106323e-02 -2.361623793840408325e-01 -8.809313178062438965e-02 3.064346611499786377e-01
1.279000000000000000e+03 7.600766658782958984e+00 2.501039743423461914e+00 -1.215204298496246338e-01 -1.256312727928161621e-01 -7.414551079273223877e-02 2.430634498596191406e-01
1.280000000000000000e+03 6.186583042144775391e+00 2.537990808486938477e+00 -1.061368137598037720e-01 -7.326520979404449463e-02 -5.382061004638671875e-02 1.748553514480590820e-01
1.281000000000000000e+03 6.160698890686035156e+00 1.844194173812866211e+00 -1.667424142360687256e-01 -5.079408735036849976e-02 -6.526094675064086914e-02 1.535000205039978027e-01
1.282000000000000000e+03 3.597313642501831055e+00 3.598650217056274414e+00 -2.297215163707733154e-02 -7.359602302312850952e-02 -2.897045202553272247e-02 1.043520942330360413e-01
1.283000000000000000e+03 6.890756130218505859e+00 2.518634080886840820e+00 -1.174447089433670044e-01 -1.015431135892868042e-01 -6.569635123014450073e-02 2.094321846961975098e-01
1.284000000000000000e+03 5.540816307067871094e+00 3.279966592788696289e+00 -4.333155602216720581e-02 -8.559071272611618042e-02 -3.867667913436889648e-02 1.570809632539749146e-01
1.285000000000000000e+03 1.585963249206542969e+00 7.831922531127929688e+00 9.892643429338932037e-03 -1.694136559963226318e-01 -4.785630106925964355e-02 3.376847133040428162e-02
1.286000000000000000e+03 1.201079130172729492e+00 3.461782217025756836e+00 -6.940283812582492828e-03 -6.011711061000823975e-02 -2.011721767485141754e-02 3.869676217436790466e-02
1.287000000000000000e+03 2.565436124801635742e+00 2.017040252685546875e+00 -3.660992905497550964e-02 -2.727526240050792694e-02 -1.916555687785148621e-02 5.141146853566169739e-02
1.288000000000000000e+03 1.029627418518066406e+01 -3.654249906539916992e+00 -4.364536702632904053e-01 -6.255670636892318726e-02 -1.497031152248382568e-01 -3.351493477821350098e-01
1.289000000000000000e+03 1.176150417327880859e+01 -3.005221605300903320e+00 -6.122516989707946777e-01 -8.896476775407791138e-02 -2.103649377822875977e-01 -3.623693883419036865e-01
1.290000000000000000e+03 9.498374938964843750e+00 -2.798400640487670898e+00 -3.785337805747985840e-01 -1.848543621599674225e-02 -1.191057637333869934e-01 -2.195540070533752441e-01
1.291000000000000000e+03 1.368073558807373047e+01 1.104369521141052246e+00 2.038094282150268555e+00 1.061084866523742676e+00 9.297537207603454590e-01 -3.726915419101715088e-01
1.292000000000000000e+03 1.207453155517578125e+01 1.451738476753234863e+00 2.514633834362030029e-01 -3.664033412933349609e-01 -3.448198363184928894e-02 4.924711287021636963e-01
1.293000000000000000e+03 1.353619289398193359e+01 5.034656524658203125e+00 9.815754741430282593e-02 7.806498408317565918e-01 2.636422216892242432e-01 7.218953967094421387e-02
1.294000000000000000e+03 1.256558513641357422e+01 2.520289897918701172e+00 9.443874359130859375e-01 3.176889717578887939e-01 3.786229193210601807e-01 -4.355310201644897461e-01
1.295000000000000000e+03 1.351561737060546875e+01 4.409985542297363281e+00 1.386111825704574585e-01 1.023936271667480469e+00 3.487642407417297363e-01 4.834505170583724976e-02
1.296000000000000000e+03 1.206268692016601562e+01 2.450565099716186523e+00 7.766358852386474609e-01 -9.901499003171920776e-02 2.032862603664398193e-01 -7.486654072999954224e-02
1.297000000000000000e+03 6.189222717285156250e+01 3.271039199829101562e+01 1.656691789627075195e+00 1.965597915649414062e+01 6.393801212310791016e+00 3.603988885879516602e+00
1.298000000000000000e+03 6.440093994140625000e+01 3.365012359619140625e+01 6.705304622650146484e+00 1.341419982910156250e+01 6.035851478576660156e+00 -8.003790974617004395e-01
1.299000000000000000e+03 6.317581558227539062e+01 3.703951644897460938e+01 1.409837603569030762e-01 1.669781684875488281e+01 5.051640033721923828e+00 1.308161497116088867e+00
1.300000000000000000e+03 6.238027191162109375e+01 3.696580886840820312e+01 -8.356567025184631348e-01 1.592851448059082031e+01 4.527857303619384766e+00 -1.231158494949340820e+00
1.301000000000000000e+03 3.032946395874023438e+01 7.862603187561035156e+00 -6.613178253173828125e-01 -1.104970335960388184e+00 -5.298864245414733887e-01 -8.392558097839355469e-01
1.302000000000000000e+03 3.142393112182617188e+01 7.843565464019775391e+00 -8.325814604759216309e-01 -9.342884421348571777e-01 -5.300609469413757324e-01 -8.314232230186462402e-01
1.303000000000000000e+03 3.046224021911621094e+01 6.842643260955810547e+00 -9.245426058769226074e-01 -9.277743101119995117e-01 -5.556950569152832031e-01 -1.060126900672912598e+00
1.304000000000000000e+03 6.457025146484375000e+01 3.547478866577148438e+01 4.932464599609375000e+00 1.403697681427001953e+01 5.690832614898681641e+00 2.094172239303588867e+00
1.305000000000000000e+03 3.086130142211914062e+01 8.011930465698242188e+00 -8.070532679557800293e-01 -9.962603449821472168e-01 -5.409941077232360840e-01 -7.873216271400451660e-01
1.306000000000000000e+03 3.112039566040039062e+01 6.761439323425292969e+00 -9.190427064895629883e-01 -8.112006783485412598e-01 -5.190730094909667969e-01 -8.792415261268615723e-01
1.307000000000000000e+03 6.028475189208984375e+01 3.835441207885742188e+01 -1.839698851108551025e-01 8.916063308715820312e+00 2.619627952575683594e+00 -2.608148574829101562e+00
1.308000000000000000e+03 6.166098022460937500e+01 3.610390472412109375e+01 -3.665733933448791504e-01 1.803883552551269531e+01 5.301678657531738281e+00 -4.594111442565917969e+00
1.309000000000000000e+03 6.123441314697265625e+01 3.217427825927734375e+01 1.765651822090148926e+00 1.353059291839599609e+01 4.588873386383056641e+00 5.525549888610839844e+00
1.310000000000000000e+03 6.177810668945312500e+01 3.211274719238281250e+01 8.294135928153991699e-01 1.682040786743164062e+01 5.294946193695068359e+00 3.600460290908813477e+00
1.311000000000000000e+03 8.720326423645019531e+00 -2.776578664779663086e+00 -3.031935095787048340e-01 -3.399398177862167358e-02 -1.011562421917915344e-01 -1.879917979240417480e-01
1.312000000000000000e+03 7.929426670074462891e+00 -2.777968406677246094e+00 -2.529605031013488770e-01 -2.513598650693893433e-02 -8.342894911766052246e-02 -1.647200435400009155e-01
1.313000000000000000e+03 6.220348358154296875e+00 -1.938381433486938477e+00 -1.292765289545059204e-01 -2.101166360080242157e-02 -4.508645832538604736e-02 -7.989118248224258423e-02
1.314000000000000000e+03 9.544107437133789062e+00 -3.621355772018432617e+00 -3.651972115039825439e-01 -7.443311810493469238e-02 -1.318891048431396484e-01 -2.910120487213134766e-01
1.315000000000000000e+03 4.585606575012207031e+00 -1.962686181068420410e+00 -6.906710565090179443e-02 -2.163962088525295258e-02 -2.721201814711093903e-02 -5.054067820310592651e-02
1.316000000000000000e+03 6.327662467956542969e+00 -2.820356607437133789e+00 -1.610140651464462280e-01 -3.417114913463592529e-02 -5.855556204915046692e-02 -1.236404180526733398e-01
1.317000000000000000e+03 4.178029537200927734e+00 -4.793055534362792969e+00 -7.691475003957748413e-02 -1.046295687556266785e-01 -5.446329712867736816e-02 -1.333232372999191284e-01
1.318000000000000000e+03 7.130979061126708984e+00 -2.794789791107177734e+00 -1.966953128576278687e-01 -3.927266597747802734e-02 -7.079039514064788818e-02 -1.433864533901214600e-01
1.319000000000000000e+03 1.602187156677246094e+00 -9.279146194458007812e+00 -9.809495881199836731e-03 -2.740237116813659668e-01 -8.514995872974395752e-02 -1.024688258767127991e-01
1.320000000000000000e+03 4.953357875347137451e-01 -6.504920959472656250e+00 7.527781417593359947e-04 -8.925238996744155884e-02 -2.654988504946231842e-02 -2.335297688841819763e-02
1.321000000000000000e+03 2.548369884490966797e+00 -4.021485805511474609e+00 -3.694210946559906006e-02 -5.702121183276176453e-02 -2.818899601697921753e-02 -5.550393089652061462e-02
1.322000000000000000e+03 5.119251608848571777e-01 -3.624682903289794922e+00 -2.402617596089839935e-03 -3.345947479829192162e-03 -1.724569476209580898e-03 -8.338090032339096069e-03
1.323000000000000000e+03 1.501422119140625000e+01 -2.476260423660278320e+00 -1.151462078094482422e+00 -3.886546492576599121e-01 -4.620350301265716553e-01 -6.539256572723388672e-01
1.324000000000000000e+03 1.505969715118408203e+01 -3.187854766845703125e+00 -9.515342712402343750e-01 -5.114818215370178223e-01 -4.389048516750335693e-01 -7.209039926528930664e-01
1.325000000000000000e+03 1.428209018707275391e+01 -3.997904539108276367e+00 -7.095313072204589844e-01 -4.235158860683441162e-01 -3.399141430854797363e-01 -6.873364448547363281e-01
1.326000000000000000e+03 1.253273582458496094e+01 -3.085988044738769531e+00 -7.018041014671325684e-01 -1.035500839352607727e-01 -2.416062653064727783e-01 -4.298954606056213379e-01
1.327000000000000000e+03 1.334691810607910156e+01 -3.148102760314941406e+00 -8.137005567550659180e-01 -2.051564902067184448e-01 -3.056571185588836670e-01 -5.304718017578125000e-01
1.328000000000000000e+03 5.733353424072265625e+01 3.845965576171875000e+01 4.684685170650482178e-01 2.207216739654541016e+00 8.027055263519287109e-01 -6.702277064323425293e-01
1.329000000000000000e+03 1.979341888427734375e+01 -1.492201209068298340e+00 -1.734475016593933105e+00 -3.855483293533325195e+00 -1.676987528800964355e+00 -2.298601388931274414e+00
1.330000000000000000e+03 2.228825187683105469e+01 -1.521299123764038086e+00 2.190926790237426758e+00 1.121140956878662109e+00 9.936203360557556152e-01 -1.000408291816711426e+00
1.331000000000000000e+03 2.101789283752441406e+01 4.006614089012145996e-01 -1.873630166053771973e+00 -6.794949769973754883e-01 -7.659375667572021484e-01 -2.474438667297363281e+00
1.332000000000000000e+03 1.773121833801269531e+01 -1.518703699111938477e+00 -1.790036678314208984e+00 -8.284424543380737305e-01 -7.855437397956848145e-01 -9.970850348472595215e-01
1.333000000000000000e+03 4.363267517089843750e+01 -3.864234924316406250e+01 1.911905288696289062e+00 2.179841518402099609e+00 1.227524042129516602e+00 1.370886325836181641e+00
1.334000000000000000e+03 4.168588256835937500e+01 -3.978654861450195312e+01 2.021667003631591797e+00 7.638567686080932617e-01 8.356571197509765625e-01 3.386656641960144043e-01
1.335000000000000000e+03 4.209873580932617188e+01 -4.163202667236328125e+01 1.664958596229553223e+00 1.507912993431091309e+00 9.518615007400512695e-01 2.015621513128280640e-01
1.336000000000000000e+03 4.271785354614257812e+01 -3.081138610839843750e+01 2.575196623802185059e-01 1.395574092864990234e+00 4.959281086921691895e-01 -5.556365251541137695e-01
1.337000000000000000e+03 3.971379470825195312e+01 -3.959420776367187500e+01 1.671702742576599121e+00 5.234524607658386230e-01 6.585465669631958008e-01 -4.958100616931915283e-01
1.338000000000000000e+03 3.063804435729980469e+01 -1.076721000671386719e+01 -2.795520983636379242e-02 -1.923129260540008545e-01 -6.608044356107711792e-02 5.215515196323394775e-02
1.339000000000000000e+03 3.086493301391601562e+01 -6.283309459686279297e+00 4.628347754478454590e-01 -2.052316516637802124e-01 7.728093862533569336e-02 -1.227182149887084961e-01
1.340000000000000000e+03 1.910847663879394531e+01 -5.438306331634521484e+00 1.044892445206642151e-01 -8.060570359230041504e-01 -2.104703336954116821e-01 -7.034650188870728016e-04
1.341000000000000000e+03 3.846604156494140625e+01 -2.370587539672851562e+01 -5.327045544981956482e-02 6.629054993391036987e-02 3.906028112396597862e-03 3.521315380930900574e-02
1.342000000000000000e+03 3.711045455932617188e+01 -2.128295135498046875e+01 -8.598838746547698975e-02 -1.110175400972366333e-01 -5.910177901387214661e-02 1.135138943791389465e-01
1.343000000000000000e+03 2.689348220825195312e+01 -3.044546508789062500e+01 3.141513168811798096e-01 4.945137798786163330e-01 2.425995320081710815e-01 -3.413296639919281006e-01
1.344000000000000000e+03 2.159048461914062500e+01 -1.200271034240722656e+01 1.351440846920013428e-01 3.330044448375701904e-01 1.404445618391036987e-01 -2.583069205284118652e-01
1.345000000000000000e+03 2.830263710021972656e+01 -4.034741401672363281e+00 4.943799972534179688e-01 -1.562860757112503052e-01 1.014281734824180603e-01 -2.338477075099945068e-01
1.346000000000000000e+03 2.455250930786132812e+01 -1.770540714263916016e+00 6.486270427703857422e-01 2.001413553953170776e-01 2.546305358409881592e-01 -5.701895356178283691e-01
1.347000000000000000e+03 3.206014633178710938e+01 -3.459248733520507812e+01 4.566224217414855957e-01 6.371369361877441406e-01 3.281278014183044434e-01 -4.617855250835418701e-01
1.348000000000000000e+03 1.851665878295898438e+01 -8.636347770690917969e+00 1.078977063298225403e-01 -3.544179201126098633e-01 -7.395606487989425659e-02 -2.635459899902343750e-01
1.349000000000000000e+03 3.547738265991210938e+01 -3.821524810791015625e+01 8.853882551193237305e-01 4.554092288017272949e-01 4.022392630577087402e-01 -4.598816037178039551e-01
1.350000000000000000e+03 3.204835510253906250e+01 -1.308284950256347656e+01 -9.318545460700988770e-02 -2.821281254291534424e-01 -1.125940680503845215e-01 1.469607800245285034e-01
1.351000000000000000e+03 3.016175079345703125e+01 -3.241003417968750000e+01 3.827058076858520508e-01 6.532464623451232910e-01 3.107856810092926025e-01 -3.975429534912109375e-01
1.352000000000000000e+03 2.637405967712402344e+01 -5.190036773681640625e+00 6.773951649665832520e-01 4.975296258926391602e-01 3.524774312973022461e-01 -4.692308604717254639e-01
1.353000000000000000e+03 4.715491867065429688e+01 -3.550963592529296875e+01 8.246684670448303223e-01 3.736824989318847656e+00 1.368448019027709961e+00 3.136863708496093750e-01
1.354000000000000000e+03 2.402195549011230469e+01 -1.848734855651855469e+01 1.703221201896667480e-01 4.416388273239135742e-01 1.835882812738418579e-01 -3.153060674667358398e-01
1.355000000000000000e+03 2.445711135864257812e+01 -1.669938850402832031e+01 1.699547022581100464e-01 4.784711599349975586e-01 1.945277601480484009e-01 -3.165950477123260498e-01
1.356000000000000000e+03 2.630908584594726562e+01 -2.321161270141601562e+01 1.933205127716064453e-01 5.873559713363647461e-01 2.342029362916946411e-01 -3.435474038124084473e-01
1.357000000000000000e+03 2.927189636230468750e+01 -2.647573852539062500e+01 2.061035335063934326e-01 7.521632313728332520e-01 2.874800264835357666e-01 -3.901197016239166260e-01
1.358000000000000000e+03 2.191861152648925781e+01 2.380785346031188965e-01 -1.442424058914184570e+00 1.787122488021850586e-01 -3.791135549545288086e-01 -1.452073931694030762e+00
1.359000000000000000e+03 2.876148605346679688e+01 -2.970133399963378906e+01 2.911776006221771240e-01 6.579097509384155273e-01 2.847262024879455566e-01 -4.093199372291564941e-01
1.360000000000000000e+03 2.126449394226074219e+01 -1.385282993316650391e+01 1.894720941781997681e-01 2.515487074851989746e-01 1.323062330484390259e-01 -2.696424126625061035e-01
1.361000000000000000e+03 2.827083778381347656e+01 -2.834632682800292969e+01 2.607637047767639160e-01 6.528479456901550293e-01 2.740834951400756836e-01 -3.927117288112640381e-01
1.362000000000000000e+03 2.595887374877929688e+01 -3.625960588455200195e+00 9.010389447212219238e-01 3.004722893238067627e-01 3.604533672332763672e-01 -5.086070895195007324e-01
1.363000000000000000e+03 2.576988983154296875e+01 -1.907006454467773438e+01 1.632970571517944336e-01 5.707364678382873535e-01 2.202100604772567749e-01 -3.227731287479400635e-01
1.364000000000000000e+03 3.976894760131835938e+01 -2.295206451416015625e+01 -6.044497340917587280e-02 5.087783336639404297e-01 1.345000118017196655e-01 -6.318827718496322632e-02
1.365000000000000000e+03 3.986701965332031250e+01 -2.610237312316894531e+01 5.455776583403348923e-03 3.169748187065124512e-01 9.672917425632476807e-02 -8.763051033020019531e-02
1.366000000000000000e+03 2.869641304016113281e+01 -2.521901321411132812e+01 1.978109925985336304e-01 7.377686500549316406e-01 2.806738913059234619e-01 -3.847777545452117920e-01
1.367000000000000000e+03 2.782309150695800781e+01 -2.699692535400390625e+01 2.092856168746948242e-01 6.493322253227233887e-01 2.575853466987609863e-01 -3.778938651084899902e-01
1.368000000000000000e+03 4.318728256225585938e+01 -2.901075935363769531e+01 1.514701638370752335e-02 1.630712628364562988e+00 4.937578737735748291e-01 -3.682270348072052002e-01
1.369000000000000000e+03 4.384025955200195312e+01 -3.019276428222656250e+01 4.287826642394065857e-02 2.019535303115844727e+00 6.187240481376647949e-01 -4.665521681308746338e-01
1.370000000000000000e+03 2.804270362854003906e+01 -5.089414119720458984e+00 6.173709034919738770e-01 4.977124556899070740e-02 2.001426517963409424e-01 -2.609305381774902344e-01
1.371000000000000000e+03 4.457053756713867188e+01 -3.135574531555175781e+01 6.570473313331604004e-02 2.744985580444335938e+00 8.432071208953857422e-01 -3.795286417007446289e-01
1.372000000000000000e+03 4.543158340454101562e+01 -3.255087661743164062e+01 1.536386311054229736e-01 3.269042491912841797e+00 1.026804327964782715e+00 -1.646219342947006226e-01
1.373000000000000000e+03 4.128519058227539062e+01 -2.846715927124023438e+01 1.028977781534194946e-01 6.817739605903625488e-01 2.354015260934829712e-01 -2.743625044822692871e-01
1.374000000000000000e+03 1.978848838806152344e+01 -1.143909454345703125e+01 1.683823764324188232e-01 4.256463423371315002e-02 6.328410655260086060e-02 -2.364584207534790039e-01
1.375000000000000000e+03 2.053687858581542969e+01 -1.266226196289062500e+01 2.022020518779754639e-01 1.967140734195709229e-01 1.196748390793800354e-01 -2.242518216371536255e-01
1.376000000000000000e+03 3.525653457641601562e+01 -1.578215217590332031e+01 -5.534513667225837708e-02 -9.812985360622406006e-02 -4.604249820113182068e-02 8.728321641683578491e-02
1.377000000000000000e+03 2.162604522705078125e+01 -1.686196517944335938e+01 1.883802264928817749e-01 2.919726073741912842e-01 1.441058516502380371e-01 -2.704022228717803955e-01
1.378000000000000000e+03 2.268551254272460938e+01 -1.620207023620605469e+01 1.732618808746337891e-01 3.762717247009277344e-01 1.648600846529006958e-01 -2.916997373104095459e-01
1.379000000000000000e+03 3.683426284790039062e+01 -1.807264328002929688e+01 -6.430178135633468628e-02 6.351801007986068726e-02 -2.351326693315058947e-04 5.912647768855094910e-02
1.380000000000000000e+03 3.452042770385742188e+01 -1.464081954956054688e+01 -1.894040033221244812e-02 -1.404786407947540283e-01 -4.782571271061897278e-02 9.037346392869949341e-02
1.381000000000000000e+03 3.538982391357421875e+01 -3.585773849487304688e+01 6.066115498542785645e-01 5.639241933822631836e-01 3.511607050895690918e-01 -5.521795153617858887e-01
1.382000000000000000e+03 3.373136520385742188e+01 -3.743989181518554688e+01 6.402733922004699707e-01 4.888401329517364502e-01 3.387340605258941650e-01 -4.515476822853088379e-01
1.383000000000000000e+03 3.378919219970703125e+01 -1.351850318908691406e+01 -1.616992056369781494e-02 -1.691683530807495117e-01 -5.560148134827613831e-02 6.910394877195358276e-02
1.384000000000000000e+03 1.831987190246582031e+01 -7.156597137451171875e+00 1.058027222752571106e-01 -5.226723551750183105e-01 -1.250608861446380615e-01 -1.905885338783264160e-01
1.385000000000000000e+03 3.789549255371093750e+01 -1.719495964050292969e+01 -1.330017484724521637e-02 3.225903809070587158e-01 9.278705716133117676e-02 -1.379480701871216297e-03
1.386000000000000000e+03 2.997632026672363281e+01 -9.571047782897949219e+00 8.389015495777130127e-02 -9.910655766725540161e-02 -4.564921837300062180e-03 6.803220137953758240e-03
1.387000000000000000e+03 3.099365997314453125e+01 -9.048615455627441406e+00 1.681015044450759888e-01 -1.312393993139266968e-01 1.105863135308027267e-02 -8.590054512023925781e-02
1.388000000000000000e+03 2.682532882690429688e+01 -2.443783378601074219e+01 1.952158659696578979e-01 6.076700091361999512e-01 2.408657521009445190e-01 -3.469874262809753418e-01
1.389000000000000000e+03 7.759494781494140625e+01 -3.800608062744140625e+01 -8.323198184370994568e-03 7.884567737579345703e+00 2.362873315811157227e+00 7.512375712394714355e-02
1.390000000000000000e+03 7.937083435058593750e+01 -3.480730819702148438e+01 -5.901269614696502686e-03 8.162157058715820312e+00 2.446876525878906250e+00 1.705173775553703308e-02
1.391000000000000000e+03 7.935479736328125000e+01 -2.786824226379394531e+01 -2.621215768158435822e-03 8.391034126281738281e+00 2.516523838043212891e+00 2.170232683420181274e-02
1.392000000000000000e+03 7.783567047119140625e+01 3.214409255981445312e+01 1.438595056533813477e-01 4.920335769653320312e+00 1.519258618354797363e+00 -4.898053109645843506e-01
1.393000000000000000e+03 7.922098541259765625e+01 3.615932083129882812e+01 5.160566791892051697e-02 3.479872703552246094e+00 1.059443473815917969e+00 -8.505059406161308289e-03
1.394000000000000000e+03 7.933626556396484375e+01 -2.091662216186523438e+01 2.041602740064263344e-03 8.688905715942382812e+00 2.607284307479858398e+00 2.005500905215740204e-02
1.395000000000000000e+03 7.807128143310546875e+01 -2.785822677612304688e+01 2.406166167929768562e-03 8.196857452392578125e+00 2.459779262542724609e+00 7.028307020664215088e-02
1.396000000000000000e+03 7.808457946777343750e+01 -2.647756385803222656e+01 -8.749150583753362298e-05 8.248828887939453125e+00 2.474622488021850586e+00 7.148531824350357056e-02
1.397000000000000000e+03 7.931648254394531250e+01 -3.066421127319335938e+01 -3.005180507898330688e-03 8.288029670715332031e+00 2.485507249832153320e+00 1.870386675000190735e-02
1.398000000000000000e+03 7.788774871826171875e+01 -3.351151657104492188e+01 1.555568538606166840e-03 8.010934829711914062e+00 2.403747320175170898e+00 6.100487709045410156e-02
1.399000000000000000e+03 7.385044097900390625e+01 -3.781229019165039062e+01 4.812496155500411987e-02 7.342833995819091797e+00 2.217287540435791016e+00 4.587314277887344360e-02
1.400000000000000000e+03 7.667760467529296875e+01 -3.902880859375000000e+01 3.194216114934533834e-04 7.855543613433837891e+00 2.356759071350097656e+00 5.139270424842834473e-02
1.401000000000000000e+03 7.815872192382812500e+01 1.385541152954101562e+01 -3.273467719554901123e-02 8.847786903381347656e+00 2.644515752792358398e+00 -2.241132855415344238e-01
1.402000000000000000e+03 7.938276672363281250e+01 1.530038070678710938e+01 -6.919905543327331543e-03 8.916427612304687500e+00 2.672852277755737305e+00 -1.179424449801445007e-01
1.403000000000000000e+03 7.811402893066406250e+01 2.084743499755859375e+01 -4.560462385416030884e-02 7.754987239837646484e+00 2.312814950942993164e+00 -5.178188085556030273e-01
1.404000000000000000e+03 7.937183380126953125e+01 2.228105545043945312e+01 -1.099185645580291748e-02 7.339002132415771484e+00 2.198403120040893555e+00 -2.239489108324050903e-01
1.405000000000000000e+03 7.790782928466796875e+01 3.071673583984375000e+01 1.038757860660552979e-01 5.215556144714355469e+00 1.595829606056213379e+00 -6.078605651855468750e-01
1.406000000000000000e+03 7.807213592529296875e+01 2.786146163940429688e+01 1.963043212890625000e-02 5.887898921966552734e+00 1.772258877754211426e+00 -6.933327317237854004e-01
1.407000000000000000e+03 7.935198211669921875e+01 2.787220954895019531e+01 3.421444271225482225e-04 5.333411693572998047e+00 1.600126147270202637e+00 -2.627250254154205322e-01
1.408000000000000000e+03 7.812364959716796875e+01 2.504931640625000000e+01 -1.743113435804843903e-02 6.678269863128662109e+00 1.998251676559448242e+00 -6.589767932891845703e-01
1.409000000000000000e+03 7.812016296386718750e+01 2.365240287780761719e+01 -3.385941311717033386e-02 7.065920829772949219e+00 2.109618425369262695e+00 -6.215853691101074219e-01
1.410000000000000000e+03 7.814429473876953125e+01 1.523940944671630859e+01 -3.954248502850532532e-02 8.699554443359375000e+00 2.598003625869750977e+00 -2.742018997669219971e-01
1.411000000000000000e+03 7.813246154785156250e+01 1.662967491149902344e+01 -4.147684946656227112e-02 8.520207405090332031e+00 2.543619155883789062e+00 -3.293471038341522217e-01
1.412000000000000000e+03 7.694920349121093750e+01 1.241251945495605469e+01 -7.251250743865966797e-02 8.738029479980468750e+00 2.599655151367187500e+00 -2.571756243705749512e-01
1.413000000000000000e+03 7.697635650634765625e+01 1.103905487060546875e+01 -6.542658805847167969e-02 8.812574386596679688e+00 2.624144315719604492e+00 -1.998506039381027222e-01
1.414000000000000000e+03 7.817833709716796875e+01 8.319844245910644531e+00 -1.840973086655139923e-02 9.173553466796875000e+00 2.746542930603027344e+00 -8.093959838151931763e-02
1.415000000000000000e+03 7.939628601074218750e+01 9.737757682800292969e+00 -3.706475254148244858e-03 9.421422004699707031e+00 2.825314760208129883e+00 -5.698400735855102539e-02
1.416000000000000000e+03 7.799488067626953125e+01 -4.480800032615661621e-02 -6.557616405189037323e-03 9.139630317687988281e+00 2.739921808242797852e+00 1.990976743400096893e-02
1.417000000000000000e+03 7.933485412597656250e+01 1.378353118896484375e+00 -3.516142605803906918e-04 9.492665290832519531e+00 2.847694158554077148e+00 -1.134628336876630783e-02
1.418000000000000000e+03 7.932951354980468750e+01 -1.393931007385253906e+01 -2.762789605185389519e-03 8.987028121948242188e+00 2.695279598236083984e+00 1.586859673261642456e-02
1.419000000000000000e+03 7.936911773681640625e+01 -6.981806278228759766e+00 1.414252561517059803e-03 9.263222694396972656e+00 2.779391050338745117e+00 6.070089060813188553e-03
1.420000000000000000e+03 7.933048248291015625e+01 -1.952278137207031250e+01 -1.797046628780663013e-03 8.748230934143066406e+00 2.623930215835571289e+00 2.010104991495609283e-02
1.421000000000000000e+03 7.799919891357421875e+01 2.928633308410644531e+01 5.038991943001747131e-02 5.530421733856201172e+00 1.674243569374084473e+00 -6.666486263275146484e-01
1.422000000000000000e+03 7.867465209960937500e+01 4.036020660400390625e+01 1.391624361276626587e-01 3.834651231765747070e+00 1.192144036293029785e+00 3.476836979389190674e-01
1.423000000000000000e+03 7.419931793212890625e+01 3.582696151733398438e+01 5.165778398513793945e-01 6.904441833496093750e+00 2.226305961608886719e+00 -3.953513801097869873e-01
1.424000000000000000e+03 7.625644683837890625e+01 3.378299713134765625e+01 3.185600340366363525e-01 5.675107955932617188e+00 1.798100471496582031e+00 -5.377956032752990723e-01
1.425000000000000000e+03 7.818943023681640625e+01 9.704803466796875000e+00 -2.379713580012321472e-02 9.128512382507324219e+00 2.731414556503295898e+00 -1.087817698717117310e-01
1.426000000000000000e+03 7.801758575439453125e+01 2.744553327560424805e+00 -9.882997721433639526e-03 9.180595397949218750e+00 2.751213550567626953e+00 -3.281248966231942177e-03
1.427000000000000000e+03 7.668217468261718750e+01 -1.496446251869201660e+00 -1.689345017075538635e-02 8.803473472595214844e+00 2.635973930358886719e+00 5.726591497659683228e-02
1.428000000000000000e+03 7.935167694091796875e+01 -2.800576686859130859e+00 -2.482415642589330673e-03 9.399167060852050781e+00 2.819005250930786133e+00 -1.416625804267823696e-03
1.429000000000000000e+03 7.810874176025390625e+01 -5.623559951782226562e+00 -1.780601334758102894e-03 9.021976470947265625e+00 2.706058740615844727e+00 4.510116204619407654e-02
1.430000000000000000e+03 7.935573577880859375e+01 -9.765952110290527344e+00 1.851021428592503071e-03 9.157907485961914062e+00 2.747927427291870117e+00 1.086064334958791733e-02
1.431000000000000000e+03 7.800405120849609375e+01 -1.255848598480224609e+01 -4.773694556206464767e-03 8.768959999084472656e+00 2.629255771636962891e+00 6.495229154825210571e-02
1.432000000000000000e+03 7.932444000244140625e+01 -1.673001670837402344e+01 -1.584536163136363029e-03 8.868049621582031250e+00 2.659939527511596680e+00 1.878570578992366791e-02
1.433000000000000000e+03 7.800740814208984375e+01 -2.095200729370117188e+01 -3.583146957680583000e-03 8.449382781982421875e+00 2.533740043640136719e+00 7.518845051527023315e-02
1.434000000000000000e+03 7.799028778076171875e+01 -1.955702400207519531e+01 1.601457130163908005e-03 8.499976158142089844e+00 2.550473451614379883e+00 7.426431030035018921e-02
1.435000000000000000e+03 1.408007383346557617e+00 -4.005169296264648438e+01 1.437073759734630585e-02 -1.329896807670593262e+00 -3.946578502655029297e-01 2.274186350405216217e-02
1.436000000000000000e+03 2.723090648651123047e+00 3.771534729003906250e+01 5.997914704494178295e-04 -9.741979092359542847e-02 -2.904599905014038086e-02 -5.151480436325073242e-03
1.437000000000000000e+03 6.162952184677124023e-01 3.463563919067382812e+01 5.875013885088264942e-04 -1.203157305717468262e-01 -3.591847047209739685e-02 -1.758562168106436729e-03
1.438000000000000000e+03 6.042627096176147461e-01 2.616773223876953125e+01 9.284382394980639219e-05 -1.491267681121826172e-01 -4.471017792820930481e-02 -3.062569536268711090e-03
1.439000000000000000e+03 1.935893535614013672e+00 2.885937881469726562e+01 -8.837481727823615074e-04 -1.208948791027069092e-01 -3.653359040617942810e-02 -6.545619107782840729e-03
1.440000000000000000e+03 7.271530032157897949e-01 -3.598740768432617188e+01 -4.470073617994785309e-03 -1.380197048187255859e+00 -4.154001474380493164e-01 -2.061613835394382477e-03
1.441000000000000000e+03 2.346122503280639648e+00 -3.300505065917968750e+01 1.323547493666410446e-02 -1.216583251953125000e+00 -3.610043227672576904e-01 -3.183937817811965942e-02
1.442000000000000000e+03 3.115903854370117188e+00 2.724447250366210938e+01 -1.977313077077269554e-03 -1.084640249609947205e-01 -3.313240036368370056e-02 -1.091737207025289536e-02
1.443000000000000000e+03 2.892570018768310547e+00 2.441491889953613281e+01 -2.041402040049433708e-03 -1.196151673793792725e-01 -3.649697080254554749e-02 -1.354381255805492401e-02
1.444000000000000000e+03 1.989991426467895508e+00 3.172980690002441406e+01 -6.330573814921081066e-04 -1.135140880942344666e-01 -3.424414247274398804e-02 -4.991896450519561768e-03
1.445000000000000000e+03 1.866886854171752930e+00 3.450763320922851562e+01 -4.470059357117861509e-04 -1.095137521624565125e-01 -3.298822790384292603e-02 -3.916627261787652969e-03
1.446000000000000000e+03 1.953322172164916992e+00 3.314587402343750000e+01 -1.042431395035237074e-04 -1.110526323318481445e-01 -3.334706276655197144e-02 -4.988302011042833328e-03
1.447000000000000000e+03 5.208541393280029297e+00 3.706809234619140625e+01 -1.598684815689921379e-03 -7.493831217288970947e-02 -2.296109870076179504e-02 -1.999798929318785667e-03
1.448000000000000000e+03 3.733638286590576172e+00 3.881848907470703125e+01 -5.361984949558973312e-04 -9.294069558382034302e-02 -2.804306708276271820e-02 -3.060776507481932640e-03
1.449000000000000000e+03 2.082561492919921875e+00 -2.878529548645019531e+01 -4.890623313258402050e-05 -1.154159069061279297e+00 -3.462623953819274902e-01 -5.087660253047943115e-02
1.450000000000000000e+03 1.947185873985290527e+00 -2.605517578125000000e+01 4.961621016263961792e-03 -1.094646334648132324e+00 -3.269054293632507324e-01 -5.890563130378723145e-02
1.451000000000000000e+03 2.293962478637695312e+00 -3.681616973876953125e+01 1.388459815643727779e-03 -1.262492060661315918e+00 -3.783310651779174805e-01 -6.010433658957481384e-03
1.452000000000000000e+03 5.473007559776306152e-01 1.911909675598144531e+01 -7.309242500923573971e-04 -1.966682970523834229e-01 -5.921976640820503235e-02 -4.470064304769039154e-03
1.453000000000000000e+03 5.486379265785217285e-01 1.348827648162841797e+01 -7.116735105228144675e-06 -2.386942803859710693e-01 -7.161042094230651855e-02 -2.410665387287735939e-03
1.454000000000000000e+03 5.334882736206054688e-01 7.848541736602783203e+00 2.291550859808921814e-03 -1.978078484535217285e-01 -5.865488946437835693e-02 1.343731209635734558e-02
1.455000000000000000e+03 2.041311264038085938e+00 -1.624093627929687500e+01 8.949439972639083862e-03 -6.838492751121520996e-01 -2.024699449539184570e-01 -1.240236014127731323e-01
1.456000000000000000e+03 3.752994298934936523e+00 -3.902598953247070312e+01 1.313348580151796341e-02 -1.219096779823303223e+00 -3.617890179157257080e-01 -1.912617124617099762e-02
1.457000000000000000e+03 4.351364135742187500e+00 -3.663434982299804688e+01 2.292433381080627441e-02 -1.120382428169250488e+00 -3.292374312877655029e-01 -4.138565808534622192e-02
1.458000000000000000e+03 2.281078338623046875e+00 -3.441469192504882812e+01 3.170499345287680626e-03 -1.243811488151550293e+00 -3.721922934055328369e-01 -2.558057941496372223e-02
1.459000000000000000e+03 2.268889904022216797e+00 -3.157872200012207031e+01 5.585939623415470123e-03 -1.195403575897216797e+00 -3.569453060626983643e-01 -4.279536381363868713e-02
1.460000000000000000e+03 2.004499673843383789e+00 -2.742653465270996094e+01 6.874649319797754288e-03 -1.128563165664672852e+00 -3.365065455436706543e-01 -5.334966257214546204e-02
1.461000000000000000e+03 3.370377302169799805e+00 -2.723243331909179688e+01 1.153240352869033813e-02 -1.017533779144287109e+00 -3.018004298210144043e-01 -9.023830294609069824e-02
1.462000000000000000e+03 1.975010156631469727e+00 -2.192993545532226562e+01 8.069114759564399719e-03 -9.523599147796630859e-01 -2.832872271537780762e-01 -8.317913860082626343e-02
1.463000000000000000e+03 1.933334469795227051e+00 -2.468347549438476562e+01 8.627643808722496033e-03 -1.052297115325927734e+00 -3.131008446216583252e-01 -6.778873503208160400e-02
1.464000000000000000e+03 3.327196121215820312e+00 -2.050165939331054688e+01 2.073738351464271545e-02 -8.166425824165344238e-01 -2.387715578079223633e-01 -1.470580548048019409e-01
1.465000000000000000e+03 6.714151501655578613e-01 -1.914604377746582031e+01 -2.951599708467256278e-05 -9.077462553977966309e-01 -2.723327279090881348e-01 -3.537676855921745300e-02
1.466000000000000000e+03 2.011996984481811523e+00 -1.910208320617675781e+01 1.013885810971260071e-02 -8.288957476615905762e-01 -2.456270605325698853e-01 -1.041032820940017700e-01
1.467000000000000000e+03 1.842867136001586914e+00 -1.202201461791992188e+01 -3.061878494918346405e-03 -4.435339868068695068e-01 -1.339787691831588745e-01 -1.254057437181472778e-01
1.468000000000000000e+03 6.113417148590087891e-01 -1.208597660064697266e+01 2.246303251013159752e-03 -4.538766145706176758e-01 -1.354890912771224976e-01 -4.383187741041183472e-02
1.469000000000000000e+03 1.488408684730529785e+00 -6.638469219207763672e+00 -1.267733983695507050e-02 -1.305274963378906250e-01 -4.296144843101501465e-02 -6.934406608343124390e-02
1.470000000000000000e+03 1.450126647949218750e+00 -3.433374643325805664e+00 -1.506704743951559067e-02 -2.994280122220516205e-02 -1.350295450538396835e-02 -2.148344554007053375e-02
1.471000000000000000e+03 5.366922616958618164e-01 -5.083095550537109375e+00 -4.642796237021684647e-03 -3.312387689948081970e-02 -1.133000198751688004e-02 -1.645791716873645782e-02
1.472000000000000000e+03 4.764811396598815918e-01 4.987841606140136719e+00 7.004069630056619644e-04 -1.104767695069313049e-01 -3.293291106820106506e-02 1.806726679205894470e-02
1.473000000000000000e+03 2.958263158798217773e+00 3.921734094619750977e+00 -1.273342780768871307e-02 -7.526119798421859741e-02 -2.639838866889476776e-02 8.974581956863403320e-02
1.474000000000000000e+03 1.614562749862670898e+00 1.063903045654296875e+01 7.385124452412128448e-03 -1.970650702714920044e-01 -5.690398067235946655e-02 8.252341300249099731e-03
1.475000000000000000e+03 5.382273793220520020e-01 1.067327976226806641e+01 1.057040295563638210e-03 -2.391068637371063232e-01 -7.141494750976562500e-02 3.089448437094688416e-03
1.476000000000000000e+03 1.651394963264465332e+00 1.342924594879150391e+01 3.652254585176706314e-03 -1.976857185363769531e-01 -5.821003764867782593e-02 -6.617197301238775253e-03
1.477000000000000000e+03 1.645709276199340820e+00 2.040529441833496094e+01 -1.006394042633473873e-03 -1.616948843002319336e-01 -4.881038516759872437e-02 -1.170059200376272202e-02
1.478000000000000000e+03 1.642277359962463379e+00 1.901393699645996094e+01 1.863274374045431614e-04 -1.699623167514801025e-01 -5.093279480934143066e-02 -1.235338952392339706e-02
1.479000000000000000e+03 1.747419834136962891e+00 2.459437942504882812e+01 -5.307653336785733700e-04 -1.385280191898345947e-01 -4.171763360500335693e-02 -9.147139266133308411e-03
1.480000000000000000e+03 2.721314048767089844e+01 4.056549549102783203e+00 -1.839295506477355957e+00 -8.045566678047180176e-01 -7.931556701660156250e-01 -9.901283979415893555e-01
1.481000000000000000e+03 2.297069168090820312e+01 1.745760798454284668e+00 -2.249876499176025391e+00 -4.485878944396972656e-01 -8.095392584800720215e-01 -1.256243705749511719e+00
1.482000000000000000e+03 2.662722396850585938e+01 3.349204301834106445e+00 -1.834462165832519531e+00 -6.481023430824279785e-01 -7.447693347930908203e-01 -8.877329826354980469e-01
1.483000000000000000e+03 2.519299507141113281e+01 3.120913743972778320e+00 -2.207807540893554688e+00 -6.024270653724670410e-01 -8.430703878402709961e-01 -1.062463521957397461e+00
1.484000000000000000e+03 2.362830734252929688e+01 2.145037412643432617e+00 -2.288264751434326172e+00 -4.803190231323242188e-01 -8.305751681327819824e-01 -1.171502709388732910e+00
1.485000000000000000e+03 2.315392875671386719e+01 1.846154928207397461e+00 -2.296708822250366211e+00 -5.061349868774414062e-01 -8.408531546592712402e-01 -1.211538553237915039e+00
1.486000000000000000e+03 1.700710487365722656e+01 -2.035011529922485352e+00 -1.512028455734252930e+00 -8.214616179466247559e-01 -7.000470161437988281e-01 -8.245754837989807129e-01
1.487000000000000000e+03 2.789418601989746094e+01 4.359400272369384766e+00 -1.699422717094421387e+00 -8.823145627975463867e-01 -7.745211720466613770e-01 -9.327414631843566895e-01
1.488000000000000000e+03 1.799794578552246094e+01 -1.679856300354003906e+00 -1.804110646247863770e+00 -1.083416461944580078e+00 -8.662581443786621094e-01 -1.196668028831481934e+00
1.489000000000000000e+03 2.547104263305664062e+01 2.956891536712646484e+00 -2.060807228088378906e+00 -5.629855990409851074e-01 -7.871378064155578613e-01 -9.523110985755920410e-01
1.490000000000000000e+03 2.435128402709960938e+01 2.575533151626586914e+00 -2.259471654891967773e+00 -4.988927245140075684e-01 -8.275092840194702148e-01 -1.060184717178344727e+00
1.491000000000000000e+03 2.345446586608886719e+01 1.885600447654724121e+00 -2.219441652297973633e+00 -4.107702076435089111e-01 -7.890635728836059570e-01 -1.129351735115051270e+00
1.492000000000000000e+03 2.381355857849121094e+01 2.226869344711303711e+00 -2.358989715576171875e+00 -5.055113434791564941e-01 -8.593503236770629883e-01 -1.129720568656921387e+00
1.493000000000000000e+03 2.575057792663574219e+01 3.392791032791137695e+00 -2.097860336303710938e+00 -6.345570683479309082e-01 -8.197252154350280762e-01 -1.046082258224487305e+00
1.494000000000000000e+03 2.763077163696289062e+01 4.599761486053466797e+00 -1.843996167182922363e+00 -9.458370804786682129e-01 -8.369499444961547852e-01 -1.087998747825622559e+00
1.495000000000000000e+03 6.004370117187500000e+01 3.289055252075195312e+01 4.328836917877197266e+00 4.123514175415039062e+00 2.535705327987670898e+00 4.863996505737304688e+00
1.496000000000000000e+03 5.922084426879882812e+01 3.293402862548828125e+01 2.852344512939453125e+00 1.543174028396606445e+00 1.318655610084533691e+00 2.414919376373291016e+00
1.497000000000000000e+03 6.065883636474609375e+01 3.248287963867187500e+01 3.493034839630126953e+00 9.265918731689453125e+00 3.827686071395874023e+00 6.548141479492187500e+00
1.498000000000000000e+03 2.198718070983886719e+01 1.139326572418212891e+00 -2.083987712860107422e+00 -5.093637704849243164e-01 -7.780054807662963867e-01 -1.605919718742370605e+00
1.499000000000000000e+03 2.029275131225585938e+01 -4.051454663276672363e-01 -3.145403861999511719e+00 -3.283253669738769531e+00 -1.928597331047058105e+00 -2.350492954254150391e+00
1.500000000000000000e+03 2.018334388732910156e+01 2.279066853225231171e-02 -1.826790690422058105e+00 -3.253070831298828125e+00 -1.523958444595336914e+00 -1.906108856201171875e+00
1.501000000000000000e+03 2.060044670104980469e+01 1.232569590210914612e-01 -1.473102211952209473e+00 -1.829819202423095703e+00 -9.908764362335205078e-01 -2.405169248580932617e+00
1.502000000000000000e+03 5.735124588012695312e+01 3.262627029418945312e+01 1.030285000801086426e+00 6.540110707283020020e-01 5.052888393402099609e-01 6.327630281448364258e-01
1.503000000000000000e+03 1.473834037780761719e+01 5.493536472320556641e+00 1.655394881963729858e-01 4.749691784381866455e-01 1.921526044607162476e-01 2.838305234909057617e-01
1.504000000000000000e+03 1.555966567993164062e+01 5.752570152282714844e+00 2.191100865602493286e-01 3.297413885593414307e-01 1.646554470062255859e-01 2.542976140975952148e-01
1.505000000000000000e+03 3.151802825927734375e+01 2.277552604675292969e+01 6.301954388618469238e-02 8.193389326333999634e-02 4.348603263497352600e-02 7.624202966690063477e-02
1.506000000000000000e+03 3.124905395507812500e+01 2.244056892395019531e+01 6.289006769657135010e-02 8.296030014753341675e-02 4.375511035323143005e-02 7.813348621129989624e-02
1.507000000000000000e+03 1.931392097473144531e+01 9.970259666442871094e+00 1.407779455184936523e-01 1.753855347633361816e-01 9.484904259443283081e-02 1.620337516069412231e-01
1.508000000000000000e+03 1.970351028442382812e+01 1.089736175537109375e+01 1.311464607715606689e-01 1.658479124307632446e-01 8.909831196069717407e-02 1.520490944385528564e-01
1.509000000000000000e+03 4.876823806762695312e+01 3.851511001586914062e+01 1.789759397506713867e-01 4.514297842979431152e-02 6.723567098379135132e-02 4.996706545352935791e-02
1.510000000000000000e+03 3.962517166137695312e+01 2.025658226013183594e+01 -7.969240546226501465e-01 -8.420046567916870117e-01 -4.916786253452301025e-01 -8.795176148414611816e-01
1.511000000000000000e+03 4.048460006713867188e+01 2.049997901916503906e+01 -7.932851314544677734e-01 -7.651125192642211914e-01 -4.675192832946777344e-01 -8.507327437400817871e-01
1.512000000000000000e+03 4.102645874023437500e+01 2.168412590026855469e+01 -9.450158476829528809e-01 -8.238180279731750488e-01 -5.306501388549804688e-01 -8.842439651489257812e-01
1.513000000000000000e+03 3.510999679565429688e+01 2.644768905639648438e+01 5.674397945404052734e-02 8.093688637018203735e-02 4.130426049232482910e-02 7.006932795047760010e-02
1.514000000000000000e+03 3.565444946289062500e+01 2.645090293884277344e+01 5.669711902737617493e-02 7.901724427938461304e-02 4.071430861949920654e-02 7.065682113170623779e-02
1.515000000000000000e+03 3.452608489990234375e+01 1.416525650024414062e+01 -1.051642060279846191e+00 -1.135851502418518066e+00 -6.562480926513671875e-01 -1.073739171028137207e+00
1.516000000000000000e+03 3.184137725830078125e+01 1.181302165985107422e+01 -1.240090966224670410e+00 -1.194090247154235840e+00 -7.302543520927429199e-01 -1.164826512336730957e+00
1.517000000000000000e+03 3.268173217773437500e+01 1.213823318481445312e+01 -1.127929925918579102e+00 -1.109032988548278809e+00 -6.710888743400573730e-01 -1.110760450363159180e+00
1.518000000000000000e+03 2.466437911987304688e+01 1.540194511413574219e+01 1.065955981612205505e-01 1.178513020277023315e-01 6.733407080173492432e-02 1.164293140172958374e-01
1.519000000000000000e+03 3.904119110107421875e+01 1.908483886718750000e+01 -8.095546364784240723e-01 -8.896930813789367676e-01 -5.097743272781372070e-01 -8.935936093330383301e-01
1.520000000000000000e+03 3.374723434448242188e+01 2.433888053894042969e+01 6.034541130065917969e-02 8.282250910997390747e-02 4.295037686824798584e-02 7.043363898992538452e-02
1.521000000000000000e+03 4.665836715698242188e+01 2.605390357971191406e+01 -7.044826745986938477e-01 -5.605432987213134766e-01 -3.795077800750732422e-01 -6.552978754043579102e-01
1.522000000000000000e+03 3.132148742675781250e+01 2.180183601379394531e+01 6.820839643478393555e-02 8.091229200363159180e-02 4.473620653152465820e-02 7.759720832109451294e-02
1.523000000000000000e+03 4.160854339599609375e+01 2.223867988586425781e+01 -9.945495128631591797e-01 -8.339825868606567383e-01 -5.485596060752868652e-01 -8.935884237289428711e-01
1.524000000000000000e+03 4.642530059814453125e+01 2.634114265441894531e+01 -7.589651346206665039e-01 -6.570126414299011230e-01 -4.247933328151702881e-01 -7.313195466995239258e-01
1.525000000000000000e+03 3.308963394165039062e+01 2.342479133605957031e+01 6.103417277336120605e-02 8.243206888437271118e-02 4.303987324237823486e-02 7.103913277387619019e-02
1.526000000000000000e+03 3.332136917114257812e+01 2.371762466430664062e+01 6.152322515845298767e-02 8.333583176136016846e-02 4.345771670341491699e-02 7.030549645423889160e-02
1.527000000000000000e+03 1.788252067565917969e+01 8.455080986022949219e+00 1.661372780799865723e-01 2.112845182418823242e-01 1.132265403866767883e-01 1.838589012622833252e-01
1.528000000000000000e+03 2.153427314758300781e+01 1.229175853729248047e+01 1.248554661870002747e-01 1.516025513410568237e-01 8.293740451335906982e-02 1.400151103734970093e-01
1.529000000000000000e+03 1.715282821655273438e+01 8.537106513977050781e+00 1.470976024866104126e-01 2.273879796266555786e-01 1.123456731438636780e-01 1.808580309152603149e-01
1.530000000000000000e+03 4.586895751953125000e+01 2.580390930175781250e+01 -7.949686050415039062e-01 -6.835269331932067871e-01 -4.435486793518066406e-01 -7.530500888824462891e-01
1.531000000000000000e+03 2.537103080749511719e+01 1.662071037292480469e+01 9.942661225795745850e-02 1.145661696791648865e-01 6.419783830642700195e-02 1.075313463807106018e-01
1.532000000000000000e+03 3.797594070434570312e+01 1.853878784179687500e+01 -8.734092712402343750e-01 -1.124963760375976562e+00 -5.995119214057922363e-01 -9.811381101608276367e-01
1.533000000000000000e+03 3.875267410278320312e+01 1.881358718872070312e+01 -8.288435339927673340e-01 -9.332964420318603516e-01 -5.286419987678527832e-01 -9.080672264099121094e-01
1.534000000000000000e+03 4.247663116455078125e+01 2.306066131591796875e+01 -9.791855216026306152e-01 -8.163204789161682129e-01 -5.386518239974975586e-01 -9.037673473358154297e-01
1.535000000000000000e+03 4.301312255859375000e+01 2.306027984619140625e+01 -9.115890860557556152e-01 -7.516865730285644531e-01 -4.989826977252960205e-01 -8.364151120185852051e-01
1.536000000000000000e+03 4.693492889404296875e+01 2.631926918029785156e+01 -6.897358298301696777e-01 -5.558743476867675781e-01 -3.736830651760101318e-01 -6.428161859512329102e-01
1.537000000000000000e+03 3.504481887817382812e+01 1.474979209899902344e+01 -1.008092761039733887e+00 -1.127590775489807129e+00 -6.407050490379333496e-01 -1.069357633590698242e+00
1.538000000000000000e+03 3.453541946411132812e+01 1.470890808105468750e+01 -1.048774480819702148e+00 -1.202746987342834473e+00 -6.754564046859741211e-01 -1.125853657722473145e+00
1.539000000000000000e+03 2.089310455322265625e+01 1.128742694854736328e+01 1.362512856721878052e-01 1.611845195293426514e-01 8.923074603080749512e-02 1.455169022083282471e-01
1.540000000000000000e+03 1.502038192749023438e+01 5.751187324523925781e+00 1.857276856899261475e-01 4.014053344726562500e-01 1.761399060487747192e-01 2.669103145599365234e-01
1.541000000000000000e+03 4.272520065307617188e+01 2.278737831115722656e+01 -9.166963696479797363e-01 -7.509856820106506348e-01 -5.003045797348022461e-01 -8.384897112846374512e-01
1.542000000000000000e+03 2.059123229980468750e+01 1.103216171264648438e+01 1.388203650712966919e-01 1.617675870656967163e-01 9.017638862133026123e-02 1.461280882358551025e-01
1.543000000000000000e+03 2.002680969238281250e+01 1.112899494171142578e+01 1.317031383514404297e-01 1.630186140537261963e-01 8.841652423143386841e-02 1.467537134885787964e-01
1.544000000000000000e+03 3.127974128723144531e+01 1.125759124755859375e+01 -1.280158877372741699e+00 -1.180739760398864746e+00 -7.382695674896240234e-01 -1.173407435417175293e+00
1.545000000000000000e+03 4.698207473754882812e+01 2.687621879577636719e+01 -7.464166879653930664e-01 -6.433346867561340332e-01 -4.169254302978515625e-01 -7.115836739540100098e-01
1.546000000000000000e+03 4.761695098876953125e+01 2.797087478637695312e+01 -8.447559475898742676e-01 -7.286254167556762695e-01 -4.720144271850585938e-01 -7.823630571365356445e-01
1.547000000000000000e+03 3.530500030517578125e+01 1.503875160217285156e+01 -9.925370812416076660e-01 -1.124803543090820312e+00 -6.352021694183349609e-01 -1.059743642807006836e+00
1.548000000000000000e+03 4.330311965942382812e+01 2.333324623107910156e+01 -9.067490100860595703e-01 -7.549225687980651855e-01 -4.985014796257019043e-01 -8.318797349929809570e-01
1.549000000000000000e+03 1.595552253723144531e+01 7.667158126831054688e+00 1.358805000782012939e-01 2.917586266994476318e-01 1.282917261123657227e-01 1.918615847826004028e-01
1.550000000000000000e+03 1.611594772338867188e+01 8.057374954223632812e+00 1.331043541431427002e-01 2.757778167724609375e-01 1.226646527647972107e-01 1.826980113983154297e-01
1.551000000000000000e+03 3.635431289672851562e+01 2.736983299255371094e+01 6.272777169942855835e-02 8.133774995803833008e-02 4.321965575218200684e-02 6.767614185810089111e-02
1.552000000000000000e+03 3.771589279174804688e+01 1.824157333374023438e+01 -9.054301381111145020e-01 -1.158506631851196289e+00 -6.191810369491577148e-01 -1.003531217575073242e+00
1.553000000000000000e+03 4.725992202758789062e+01 2.714231109619140625e+01 -7.449800372123718262e-01 -6.380037069320678711e-01 -4.148951172828674316e-01 -7.050471305847167969e-01
1.554000000000000000e+03 6.041283798217773438e+01 3.645354843139648438e+01 1.244464993476867676e+00 7.277664661407470703e+00 2.556638956069946289e+00 -4.607045650482177734e+00
1.555000000000000000e+03 2.383651351928710938e+01 1.443536376953125000e+01 1.203025355935096741e-01 1.307387202978134155e-01 7.531237602233886719e-02 1.229991391301155090e-01
1.556000000000000000e+03 3.240509414672851562e+01 1.185746860504150391e+01 -1.159310817718505859e+00 -1.102499485015869141e+00 -6.785430908203125000e-01 -1.101962089538574219e+00
1.557000000000000000e+03 2.202595329284667969e+01 1.282775497436523438e+01 1.247070282697677612e-01 1.465701162815093994e-01 8.138314634561538696e-02 1.358237713575363159e-01
1.558000000000000000e+03 4.359384536743164062e+01 2.360656738281250000e+01 -9.054441452026367188e-01 -7.609965801239013672e-01 -4.999322295188903809e-01 -8.241142034530639648e-01
1.559000000000000000e+03 2.626615142822265625e+01 1.675369262695312500e+01 1.046251803636550903e-01 1.147797778248786926e-01 6.582148373126983643e-02 1.076899468898773193e-01
1.560000000000000000e+03 2.571144294738769531e+01 1.685571670532226562e+01 9.984724223613739014e-02 1.140667796134948730e-01 6.417420506477355957e-02 1.056949719786643982e-01
1.561000000000000000e+03 2.922212028503417969e+01 2.030002021789550781e+01 8.055432140827178955e-02 9.179984033107757568e-02 5.170624703168869019e-02 8.688452839851379395e-02
1.562000000000000000e+03 4.075087356567382812e+01 2.080779266357421875e+01 -8.132520914077758789e-01 -7.688390016555786133e-01 -4.746273458003997803e-01 -8.432813286781311035e-01
1.563000000000000000e+03 4.480051040649414062e+01 2.524954032897949219e+01 -9.274478554725646973e-01 -8.558352589607238770e-01 -5.349849462509155273e-01 -8.643819093704223633e-01
1.564000000000000000e+03 4.559101104736328125e+01 2.553301239013671875e+01 -8.202310800552368164e-01 -6.999975442886352539e-01 -4.560686051845550537e-01 -7.625437974929809570e-01
1.565000000000000000e+03 5.047179031372070312e+01 3.006524276733398438e+01 -6.297299265861511230e-01 -6.479450464248657227e-01 -3.833025097846984863e-01 -6.142579913139343262e-01
1.566000000000000000e+03 4.996496200561523438e+01 3.011644554138183594e+01 -7.781396508216857910e-01 -7.855447530746459961e-01 -4.691053330898284912e-01 -7.683925628662109375e-01
1.567000000000000000e+03 1.444732379913330078e+01 5.236027240753173828e+00 1.522876471281051636e-01 5.779385566711425781e-01 2.190678715705871582e-01 2.795992791652679443e-01
1.568000000000000000e+03 2.900652122497558594e+01 1.996334838867187500e+01 8.209819346666336060e-02 9.280944615602493286e-02 5.247228965163230896e-02 8.861405402421951294e-02
1.569000000000000000e+03 4.819995880126953125e+01 2.850135612487792969e+01 -8.503611683845520020e-01 -7.461728453636169434e-01 -4.789602160453796387e-01 -7.834183573722839355e-01
1.570000000000000000e+03 4.937771606445312500e+01 2.957200622558593750e+01 -8.118751049041748047e-01 -7.729706764221191406e-01 -4.754537343978881836e-01 -7.744845747947692871e-01
1.571000000000000000e+03 3.556758499145507812e+01 1.532904815673828125e+01 -9.794147014617919922e-01 -1.120765089988708496e+00 -6.300539374351501465e-01 -1.051268815994262695e+00
1.572000000000000000e+03 3.417124938964843750e+01 2.505884552001953125e+01 6.092652678489685059e-02 8.288381993770599365e-02 4.314310476183891296e-02 6.884752213954925537e-02
1.573000000000000000e+03 3.449737930297851562e+01 2.535009002685546875e+01 5.968917906284332275e-02 8.217072486877441406e-02 4.255796968936920166e-02 7.004660367965698242e-02
1.574000000000000000e+03 2.829927253723144531e+01 1.917303848266601562e+01 8.762109279632568359e-02 9.743326902389526367e-02 5.551631003618240356e-02 9.315498918294906616e-02
1.575000000000000000e+03 4.753818130493164062e+01 2.740761184692382812e+01 -7.453079819679260254e-01 -6.420510411262512207e-01 -4.162077009677886963e-01 -6.971670985221862793e-01
1.576000000000000000e+03 3.583337402343750000e+01 1.562007522583007812e+01 -9.738383889198303223e-01 -1.117812871932983398e+00 -6.274953484535217285e-01 -1.040839672088623047e+00
1.577000000000000000e+03 3.610174942016601562e+01 1.591082477569580078e+01 -9.670528769493103027e-01 -1.113838315010070801e+00 -6.242673397064208984e-01 -1.033107280731201172e+00
1.578000000000000000e+03 3.640343093872070312e+01 1.675473785400390625e+01 -9.915528893470764160e-01 -1.181097388267517090e+00 -6.517950892448425293e-01 -1.072280287742614746e+00
1.579000000000000000e+03 3.637102508544921875e+01 1.620097732543945312e+01 -9.615765213966369629e-01 -1.112260341644287109e+00 -6.221510767936706543e-01 -1.023497819900512695e+00
1.580000000000000000e+03 4.243896484375000000e+01 2.251353073120117188e+01 -9.224659800529479980e-01 -7.545455098152160645e-01 -5.031034350395202637e-01 -8.357004523277282715e-01
1.581000000000000000e+03 2.777945899963378906e+01 1.857852745056152344e+01 9.234450012445449829e-02 1.018404513597488403e-01 5.825548619031906128e-02 9.695325791835784912e-02
1.582000000000000000e+03 3.964462661743164062e+01 1.961768913269042969e+01 -7.820395231246948242e-01 -8.119387626647949219e-01 -4.781934916973114014e-01 -8.704954385757446289e-01
1.583000000000000000e+03 4.388413238525390625e+01 2.388028144836425781e+01 -9.036111235618591309e-01 -7.661032080650329590e-01 -5.009142756462097168e-01 -8.161409497261047363e-01
1.584000000000000000e+03 2.857083129882812500e+01 1.888477897644042969e+01 9.320125728845596313e-02 9.452951699495315552e-02 5.631923303008079529e-02 9.444370120763778687e-02
1.585000000000000000e+03 2.803665542602539062e+01 1.886545562744140625e+01 9.034498035907745361e-02 9.932944923639297485e-02 5.690233036875724792e-02 9.533875435590744019e-02
1.586000000000000000e+03 2.884736633300781250e+01 1.914833831787109375e+01 9.059831500053405762e-02 9.307694435119628906e-02 5.510257929563522339e-02 9.249331057071685791e-02
1.587000000000000000e+03 3.663951873779296875e+01 1.649187088012695312e+01 -9.525883197784423828e-01 -1.110382914543151855e+00 -6.188913583755493164e-01 -1.015275835990905762e+00
1.588000000000000000e+03 1.324962234497070312e+01 3.400691747665405273e+00 4.022220373153686523e-01 1.407122373580932617e+00 5.428033471107482910e-01 -3.256182074546813965e-01
1.589000000000000000e+03 3.126249122619628906e+01 9.830941200256347656e+00 -1.139360785484313965e+00 -1.001652359962463379e+00 -6.423039436340332031e-01 -9.703682661056518555e-01
1.590000000000000000e+03 3.053022384643554688e+01 9.976248741149902344e+00 -1.259625792503356934e+00 -1.022645235061645508e+00 -6.846812963485717773e-01 -1.061117053031921387e+00
1.591000000000000000e+03 3.072767066955566406e+01 2.121790122985839844e+01 7.662684470415115356e-02 8.459956198930740356e-02 4.836792126297950745e-02 7.998879998922348022e-02
1.592000000000000000e+03 2.976524162292480469e+01 2.094728660583496094e+01 7.637357711791992188e-02 8.952873200178146362e-02 4.977069050073623657e-02 8.261962234973907471e-02
1.593000000000000000e+03 2.745611953735351562e+01 1.778692054748535156e+01 1.024295687675476074e-01 1.056269407272338867e-01 6.241695210337638855e-02 1.028457805514335632e-01
1.594000000000000000e+03 4.781826400756835938e+01 2.767210769653320312e+01 -7.449437975883483887e-01 -6.407307386398315430e-01 -4.157023429870605469e-01 -6.932990550994873047e-01
1.595000000000000000e+03 4.839102554321289062e+01 2.819958496093750000e+01 -7.400234937667846680e-01 -6.466675400733947754e-01 -4.160073101520538330e-01 -6.810171008110046387e-01
1.596000000000000000e+03 5.077749252319335938e+01 3.034906196594238281e+01 -6.104000806808471680e-01 -6.427673101425170898e-01 -3.759502172470092773e-01 -6.049377918243408203e-01
1.597000000000000000e+03 3.919183349609375000e+01 3.052636528015136719e+01 6.370238214731216431e-02 6.562752276659011841e-02 3.879897296428680420e-02 6.250975281000137329e-02
1.598000000000000000e+03 3.945922851562500000e+01 3.009679412841796875e+01 6.603945046663284302e-02 6.294844299554824829e-02 3.869636729359626770e-02 6.561327725648880005e-02
1.599000000000000000e+03 2.716521453857421875e+01 1.752566719055175781e+01 1.038041114807128906e-01 1.090639308094978333e-01 6.386040896177291870e-02 1.043749824166297913e-01
1.600000000000000000e+03 3.745688629150390625e+01 1.794277954101562500e+01 -9.325816631317138672e-01 -1.182151794433593750e+00 -6.344200372695922852e-01 -1.022249698638916016e+00
1.601000000000000000e+03 3.237076187133789062e+01 2.318190193176269531e+01 6.337386369705200195e-02 7.867790013551712036e-02 4.261552914977073669e-02 7.299803197383880615e-02
1.602000000000000000e+03 2.146936416625976562e+01 3.446153104305267334e-01 -1.751622200012207031e+00 -2.702810466289520264e-01 -6.065709590911865234e-01 -1.869476437568664551e+00
1.603000000000000000e+03 2.170220947265625000e+01 -5.940734148025512695e-01 -6.518873572349548340e-01 7.338298559188842773e-01 2.458274923264980316e-02 -1.173102378845214844e+00
1.604000000000000000e+03 1.832423973083496094e+01 -1.915960311889648438e+00 -1.512295722961425781e+00 -1.257959961891174316e+00 -8.310766816139221191e-01 -1.104424715042114258e+00
1.605000000000000000e+03 1.887222862243652344e+01 -1.311721205711364746e+00 -1.856450915336608887e+00 -1.815064549446105957e+00 -1.101454615592956543e+00 -1.516663432121276855e+00
1.606000000000000000e+03 2.239460372924804688e+01 9.530346393585205078e-01 -1.903388023376464844e+00 -2.304005622863769531e-01 -6.401365399360656738e-01 -1.311281085014343262e+00
1.607000000000000000e+03 2.657071304321289062e+01 1.701034164428710938e+01 1.048663407564163208e-01 1.137233451008796692e-01 6.557690352201461792e-02 1.068639382719993591e-01
1.608000000000000000e+03 2.459930038452148438e+01 1.613146591186523438e+01 9.793586283922195435e-02 1.193922013044357300e-01 6.519842147827148438e-02 1.115939766168594360e-01
1.609000000000000000e+03 2.279052543640136719e+01 1.321033668518066406e+01 1.303497999906539917e-01 1.458716690540313721e-01 8.286643773317337036e-02 1.343350559473037720e-01
1.610000000000000000e+03 2.178948402404785156e+01 1.255086517333984375e+01 1.252086311578750610e-01 1.492740362882614136e-01 8.234480023384094238e-02 1.376837342977523804e-01
1.611000000000000000e+03 5.941708755493164062e+01 3.252373504638671875e+01 3.387219190597534180e+00 2.844038486480712891e+00 1.869377255439758301e+00 3.503879070281982422e+00
1.612000000000000000e+03 5.108184814453125000e+01 3.064145469665527344e+01 -5.996695756912231445e-01 -6.434116363525390625e-01 -3.729243576526641846e-01 -5.866520404815673828e-01
1.613000000000000000e+03 3.787430572509765625e+01 2.932305526733398438e+01 6.602478772401809692e-02 7.258702814579010010e-02 4.158354550600051880e-02 6.404287368059158325e-02
1.614000000000000000e+03 1.849954223632812500e+01 9.023074150085449219e+00 1.639039814472198486e-01 2.004334628582000732e-01 1.093012318015098572e-01 1.727092564105987549e-01
1.615000000000000000e+03 3.373469924926757812e+01 1.382398128509521484e+01 -1.128417491912841797e+00 -1.231031179428100586e+00 -7.078346014022827148e-01 -1.134275317192077637e+00
1.616000000000000000e+03 3.426453781127929688e+01 1.386270046234130859e+01 -1.070240616798400879e+00 -1.145862102508544922e+00 -6.648308038711547852e-01 -1.069366097450256348e+00
1.617000000000000000e+03 3.319510269165039062e+01 1.271063899993896484e+01 -1.080575346946716309e+00 -1.132629156112670898e+00 -6.639613509178161621e-01 -1.108057379722595215e+00
1.618000000000000000e+03 4.487503814697265625e+01 3.540059661865234375e+01 9.926535934209823608e-02 3.917522355914115906e-02 4.153217375278472900e-02 6.990259140729904175e-02
1.619000000000000000e+03 4.552607345581054688e+01 3.674267959594726562e+01 1.114690378308296204e-01 2.747550420463085175e-02 4.168336093425750732e-02 5.788005515933036804e-02
1.620000000000000000e+03 3.690572738647460938e+01 1.678490829467773438e+01 -9.443638324737548828e-01 -1.109334230422973633e+00 -6.161094307899475098e-01 -1.003622531890869141e+00
1.621000000000000000e+03 4.088611984252929688e+01 3.249155807495117188e+01 7.152189314365386963e-02 5.719311535358428955e-02 3.861450403928756714e-02 5.657338351011276245e-02
1.622000000000000000e+03 3.871082305908203125e+01 3.054546165466308594e+01 6.838840991258621216e-02 6.561776995658874512e-02 4.020185396075248718e-02 6.179026514291763306e-02
1.623000000000000000e+03 3.917562484741210938e+01 2.980559158325195312e+01 6.623962521553039551e-02 6.840860098600387573e-02 4.039447009563446045e-02 6.216761097311973572e-02
1.624000000000000000e+03 4.592491149902343750e+01 3.555493927001953125e+01 1.051447466015815735e-01 5.309548601508140564e-02 4.747207090258598328e-02 7.338136434555053711e-02
1.625000000000000000e+03 5.137770080566406250e+01 3.094544601440429688e+01 -5.862429141998291016e-01 -6.338800191879272461e-01 -3.660368919372558594e-01 -5.794265270233154297e-01
1.626000000000000000e+03 2.477217102050781250e+01 1.680528259277343750e+01 9.311079233884811401e-02 1.173843592405319214e-01 6.314854323863983154e-02 1.065140217542648315e-01
1.627000000000000000e+03 4.215381240844726562e+01 2.223795890808105469e+01 -9.208981990814208984e-01 -7.609779834747314453e-01 -5.045628547668457031e-01 -8.315808773040771484e-01
1.628000000000000000e+03 4.102197265625000000e+01 2.110351371765136719e+01 -8.353103995323181152e-01 -7.750453948974609375e-01 -4.831067621707916260e-01 -8.384186625480651855e-01
1.629000000000000000e+03 4.130049514770507812e+01 2.139280509948730469e+01 -8.623107671737670898e-01 -7.787370085716247559e-01 -4.923143386840820312e-01 -8.324295878410339355e-01
1.630000000000000000e+03 5.243758010864257812e+01 3.279494857788085938e+01 -6.417526006698608398e-01 -6.659818291664123535e-01 -3.923203349113464355e-01 -6.744952201843261719e-01
1.631000000000000000e+03 5.218966674804687500e+01 3.249798583984375000e+01 -6.771965622901916504e-01 -7.623708248138427734e-01 -4.318702220916748047e-01 -7.017393112182617188e-01
1.632000000000000000e+03 4.183427810668945312e+01 3.276660537719726562e+01 7.034758478403091431e-02 5.106482654809951782e-02 3.642372041940689087e-02 6.250121444463729858e-02
1.633000000000000000e+03 3.006744575500488281e+01 2.124923324584960938e+01 7.356767356395721436e-02 8.865657448768615723e-02 4.866727441549301147e-02 8.139957487583160400e-02
1.634000000000000000e+03 4.417357635498046875e+01 2.415491676330566406e+01 -9.012853503227233887e-01 -7.707434296607971191e-01 -5.016086697578430176e-01 -8.053405880928039551e-01
1.635000000000000000e+03 4.446170043945312500e+01 2.443086242675781250e+01 -8.951518535614013672e-01 -7.679507732391357422e-01 -4.989307820796966553e-01 -7.947433590888977051e-01
1.636000000000000000e+03 2.751468086242675781e+01 1.830759620666503906e+01 9.468705207109451294e-02 1.041978374123573303e-01 5.966546759009361267e-02 9.881779551506042480e-02
1.637000000000000000e+03 3.682234954833984375e+01 2.802594757080078125e+01 6.501163542270660400e-02 8.068377524614334106e-02 4.370862245559692383e-02 6.668370217084884644e-02
1.638000000000000000e+03 3.716871643066406250e+01 1.708020210266113281e+01 -9.337436556816101074e-01 -1.104796648025512695e+00 -6.115621328353881836e-01 -9.916380643844604492e-01
1.639000000000000000e+03 3.742859268188476562e+01 1.737653923034667969e+01 -9.236809611320495605e-01 -1.096223115921020508e+00 -6.059712171554565430e-01 -9.768021702766418457e-01
1.640000000000000000e+03 4.278262710571289062e+01 3.354484558105468750e+01 7.971354573965072632e-02 5.246559157967567444e-02 3.965374082326889038e-02 5.681283771991729736e-02
1.641000000000000000e+03 4.214546966552734375e+01 3.362570571899414062e+01 7.864107191562652588e-02 5.262038856744766235e-02 3.937843814492225647e-02 5.595287680625915527e-02
1.642000000000000000e+03 3.536483383178710938e+01 2.670368766784667969e+01 5.745175108313560486e-02 8.188925683498382568e-02 4.180230200290679932e-02 6.798943132162094116e-02
1.643000000000000000e+03 4.308935928344726562e+01 3.380056762695312500e+01 7.854790240526199341e-02 4.604413732886314392e-02 3.737761080265045166e-02 6.390524655580520630e-02
1.644000000000000000e+03 3.156236648559570312e+01 1.152672004699707031e+01 -1.272758483886718750e+00 -1.201924085617065430e+00 -7.424047589302062988e-01 -1.160326123237609863e+00
1.645000000000000000e+03 2.304656410217285156e+01 1.351208305358886719e+01 1.298100948333740234e-01 1.430964618921279907e-01 8.187196403741836548e-02 1.325170397758483887e-01
1.646000000000000000e+03 3.213746261596679688e+01 1.155160236358642578e+01 -1.191782116889953613e+00 -1.110137939453125000e+00 -6.905760169029235840e-01 -1.085276484489440918e+00
1.647000000000000000e+03 3.348888397216796875e+01 2.486701393127441406e+01 6.091776117682456970e-02 8.259339630603790283e-02 4.305334761738777161e-02 7.047042995691299438e-02
1.648000000000000000e+03 4.158404541015625000e+01 2.167825508117675781e+01 -8.892918229103088379e-01 -7.754127383232116699e-01 -4.994113743305206299e-01 -8.286709189414978027e-01
1.649000000000000000e+03 5.193345260620117188e+01 3.158159637451171875e+01 -5.868155956268310547e-01 -5.944237709045410156e-01 -3.543718159198760986e-01 -5.706694126129150391e-01
1.650000000000000000e+03 2.125851631164550781e+01 1.205087375640869141e+01 1.262888908386230469e-01 1.559074521064758301e-01 8.465890586376190186e-02 1.403414011001586914e-01
1.651000000000000000e+03 2.096609306335449219e+01 1.182020378112792969e+01 1.267267763614654541e-01 1.584281921386718750e-01 8.554649353027343750e-02 1.413004845380783081e-01
1.652000000000000000e+03 3.483026504516601562e+01 2.619497108459472656e+01 5.696250498294830322e-02 8.366975933313369751e-02 4.218968003988265991e-02 6.757684797048568726e-02
1.653000000000000000e+03 3.451962661743164062e+01 2.595083236694335938e+01 5.781134590506553650e-02 8.193265646696090698e-02 4.192319884896278381e-02 6.901452690362930298e-02
1.654000000000000000e+03 3.760641860961914062e+01 2.900839042663574219e+01 6.122218444943428040e-02 7.330022752285003662e-02 4.035672545433044434e-02 6.815219670534133911e-02
1.655000000000000000e+03 2.330659103393554688e+01 1.381653785705566406e+01 1.287398636341094971e-01 1.397277414798736572e-01 8.054027706384658813e-02 1.294770985841751099e-01
1.656000000000000000e+03 2.225536727905273438e+01 1.311787414550781250e+01 1.248871982097625732e-01 1.457385420799255371e-01 8.118771761655807495e-02 1.326925903558731079e-01
1.657000000000000000e+03 3.329648971557617188e+01 1.212536716461181641e+01 -1.062443614006042480e+00 -1.052159428596496582e+00 -6.343809366226196289e-01 -1.036228895187377930e+00
1.658000000000000000e+03 2.297612762451171875e+01 1.404071521759033203e+01 1.190893426537513733e-01 1.400128304958343506e-01 7.773065567016601562e-02 1.244665086269378662e-01
1.659000000000000000e+03 3.037422943115234375e+01 2.153881835937500000e+01 7.109627872705459595e-02 8.780640363693237305e-02 4.767080396413803101e-02 7.906576991081237793e-02
1.660000000000000000e+03 5.166171264648437500e+01 3.126102256774902344e+01 -5.875977277755737305e-01 -6.253687143325805664e-01 -3.638899326324462891e-01 -5.706562399864196777e-01
1.661000000000000000e+03 2.372440147399902344e+01 1.502992439270019531e+01 1.061806902289390564e-01 1.308816224336624146e-01 7.111869007349014282e-02 1.179362833499908447e-01
1.662000000000000000e+03 2.322493934631347656e+01 1.436054515838623047e+01 1.154137253761291504e-01 1.375568956136703491e-01 7.589118927717208862e-02 1.218078061938285828e-01
1.663000000000000000e+03 3.343917465209960938e+01 1.300250148773193359e+01 -1.066669702529907227e+00 -1.148798704147338867e+00 -6.646405458450317383e-01 -1.096732020378112793e+00
1.664000000000000000e+03 1.659417343139648438e+01 7.838004112243652344e+00 1.489094793796539307e-01 2.548367381095886230e-01 1.211238652467727661e-01 1.972201019525527954e-01
1.665000000000000000e+03 3.658385467529296875e+01 2.769478607177734375e+01 6.210694089531898499e-02 8.033717423677444458e-02 4.273323714733123779e-02 6.900486350059509277e-02
1.666000000000000000e+03 3.097040939331054688e+01 2.212923622131347656e+01 6.542881578207015991e-02 8.522465825080871582e-02 4.519604146480560303e-02 7.765082269906997681e-02
1.667000000000000000e+03 5.387726211547851562e+01 3.268566131591796875e+01 -3.956294655799865723e-01 1.023722141981124878e-01 -8.797717839479446411e-02 -4.238590896129608154e-01
1.668000000000000000e+03 3.260144042968750000e+01 2.341380882263183594e+01 6.112689152359962463e-02 8.052911609411239624e-02 4.249680414795875549e-02 7.204417139291763306e-02
1.669000000000000000e+03 5.219183349609375000e+01 3.189958572387695312e+01 -5.936174988746643066e-01 -5.649936199188232422e-01 -3.475833237171173096e-01 -5.651416778564453125e-01
1.670000000000000000e+03 3.096320724487304688e+01 1.024771308898925781e+01 -1.221974492073059082e+00 -1.044234037399291992e+00 -6.798625588417053223e-01 -1.072520256042480469e+00
1.671000000000000000e+03 3.122716140747070312e+01 1.076168727874755859e+01 -1.220098614692687988e+00 -1.095490336418151855e+00 -6.946766972541809082e-01 -1.093957424163818359e+00
1.672000000000000000e+03 3.666070175170898438e+01 2.864277648925781250e+01 6.331939250230789185e-02 7.842389494180679321e-02 4.252298548817634583e-02 6.347918510437011719e-02
1.673000000000000000e+03 3.296240234375000000e+01 1.185539150238037109e+01 -1.084933161735534668e+00 -1.044474363327026367e+00 -6.388222575187683105e-01 -1.045801997184753418e+00
1.674000000000000000e+03 1.555939292907714844e+01 6.273641586303710938e+00 1.925569474697113037e-01 3.368740677833557129e-01 1.588293015956878662e-01 2.297064214944839478e-01
1.675000000000000000e+03 1.582414817810058594e+01 6.037065505981445312e+00 2.135944515466690063e-01 3.229998946189880371e-01 1.609783023595809937e-01 2.411256730556488037e-01
1.676000000000000000e+03 1.868012237548828125e+01 9.911830902099609375e+00 1.361045837402343750e-01 1.927397996187210083e-01 9.865331649780273438e-02 1.599341928958892822e-01
1.677000000000000000e+03 3.014425849914550781e+01 5.641966342926025391e+00 -1.270153403282165527e+00 -7.293255329132080078e-01 -5.998436808586120605e-01 -8.362685441970825195e-01
1.678000000000000000e+03 2.980095481872558594e+01 5.490439414978027344e+00 -1.428817987442016602e+00 -7.830452919006347656e-01 -6.635590195655822754e-01 -8.358020186424255371e-01
1.679000000000000000e+03 4.742370223999023438e+01 3.682289123535156250e+01 1.754375845193862915e-01 6.053967028856277466e-02 7.079317420721054077e-02 1.071707829833030701e-01
1.680000000000000000e+03 4.601457214355468750e+01 3.714018249511718750e+01 1.674377173185348511e-01 2.365490235388278961e-02 5.732778459787368774e-02 4.670761153101921082e-02
1.681000000000000000e+03 4.811753845214843750e+01 3.831086730957031250e+01 1.677051484584808350e-01 2.998671680688858032e-02 5.930756032466888428e-02 7.345832884311676025e-02
1.682000000000000000e+03 1.602366638183593750e+01 6.824275016784667969e+00 1.735417246818542480e-01 3.052221834659576416e-01 1.436291784048080444e-01 2.139478772878646851e-01
1.683000000000000000e+03 1.580836391448974609e+01 6.537989139556884766e+00 1.811344623565673828e-01 3.200209438800811768e-01 1.503466218709945679e-01 2.218901962041854858e-01
1.684000000000000000e+03 1.414494895935058594e+01 4.971791744232177734e+00 1.304153501987457275e-01 7.223027944564819336e-01 2.558154463768005371e-01 2.524632215499877930e-01
1.685000000000000000e+03 1.250712108612060547e+01 3.608704328536987305e+00 4.807154834270477295e-01 6.374714374542236328e-01 3.354560732841491699e-01 -3.345598876476287842e-01
1.686000000000000000e+03 5.437133026123046875e+01 3.943895339965820312e+01 2.563425302505493164e-01 -6.571704745292663574e-01 -1.202483922243118286e-01 3.957031667232513428e-01
1.687000000000000000e+03 1.210444831848144531e+01 1.992211461067199707e+00 6.725046038627624512e-01 -2.425368577241897583e-01 1.289903223514556885e-01 1.747015863656997681e-01
1.688000000000000000e+03 1.354479789733886719e+01 3.747641563415527344e+00 2.269801944494247437e-01 1.453572273254394531e+00 5.041657686233520508e-01 4.318508878350257874e-02
1.689000000000000000e+03 5.485566329956054688e+01 3.764371490478515625e+01 -5.480443835258483887e-01 -5.255426764488220215e-01 -3.220761418342590332e-01 9.454274177551269531e-01
1.690000000000000000e+03 1.269870567321777344e+01 2.058806419372558594e+00 1.176981806755065918e+00 -4.731706902384757996e-02 3.388994038105010986e-01 -2.007236480712890625e-01
1.691000000000000000e+03 1.308884143829345703e+01 2.619807243347167969e+00 8.194146156311035156e-01 1.312570929527282715e+00 6.395956277847290039e-01 -5.646614432334899902e-01
1.692000000000000000e+03 5.349356079101562500e+01 3.334282684326171875e+01 -5.762944817543029785e-01 -1.114099398255348206e-01 -2.063113152980804443e-01 -5.489975214004516602e-01
1.693000000000000000e+03 5.768057632446289062e+01 3.753134918212890625e+01 5.515628457069396973e-01 1.578277349472045898e+00 6.389520764350891113e-01 -7.859049439430236816e-01
1.694000000000000000e+03 4.974501419067382812e+01 4.106211853027343750e+01 2.445759475231170654e-01 -1.695210486650466919e-01 2.251647040247917175e-02 3.190990164875984192e-02
1.695000000000000000e+03 5.066762161254882812e+01 3.935401535034179688e+01 7.228082418441772461e-02 -7.797317206859588623e-02 -1.707703107967972755e-03 1.799222528934478760e-01
1.696000000000000000e+03 6.093811035156250000e+01 3.662120819091796875e+01 2.280402183532714844e-01 1.161029529571533203e+01 3.551500558853149414e+00 -4.697911262512207031e+00
1.697000000000000000e+03 6.046490097045898438e+01 3.690377807617187500e+01 6.783912181854248047e-01 8.579628944396972656e+00 2.777405977249145508e+00 -4.104161739349365234e+00
1.698000000000000000e+03 5.591276550292968750e+01 3.177906036376953125e+01 6.981494426727294922e-01 7.655138373374938965e-01 4.390989840030670166e-01 3.728584647178649902e-01
1.699000000000000000e+03 5.633763504028320312e+01 3.220699691772460938e+01 7.062987089157104492e-01 6.564639210700988770e-01 4.088287949562072754e-01 2.923620343208312988e-01
1.700000000000000000e+03 5.484309387207031250e+01 3.267863845825195312e+01 -1.997579932212829590e-01 3.354246914386749268e-01 4.070000723004341125e-02 -3.147135376930236816e-01
1.701000000000000000e+03 5.543379211425781250e+01 3.252022552490234375e+01 1.315117180347442627e-01 4.686895012855529785e-01 1.800603717565536499e-01 -1.227196753025054932e-01
1.702000000000000000e+03 6.194879150390625000e+01 3.169986343383789062e+01 5.168396234512329102e-01 1.590555381774902344e+01 4.926717758178710938e+00 2.799354553222656250e+00
1.703000000000000000e+03 5.895680618286132812e+01 3.227032470703125000e+01 2.834199190139770508e+00 2.304238080978393555e+00 1.541531205177307129e+00 2.861869573593139648e+00
1.704000000000000000e+03 5.789977645874023438e+01 3.254680252075195312e+01 1.595469474792480469e+00 9.835803508758544922e-01 7.737149596214294434e-01 1.142677426338195801e+00
1.705000000000000000e+03 4.927651977539062500e+01 3.869028472900390625e+01 1.667436808347702026e-01 1.596022979356348515e-03 5.050191283226013184e-02 7.989013940095901489e-02
1.706000000000000000e+03 1.025638294219970703e+01 -2.849018812179565430e+00 -4.437548220157623291e-01 -4.151593893766403198e-02 -1.455812305212020874e-01 -2.563647031784057617e-01
1.707000000000000000e+03 4.659778976440429688e+01 3.601097106933593750e+01 1.275113970041275024e-01 6.368216872215270996e-02 5.735806748270988464e-02 7.925359904766082764e-02
1.708000000000000000e+03 5.447008132934570312e+01 3.296492767333984375e+01 -3.623006343841552734e-01 2.540675103664398193e-01 -3.246993198990821838e-02 -4.142315983772277832e-01
1.709000000000000000e+03 5.348399734497070312e+01 3.283194351196289062e+01 -5.141531825065612793e-01 -7.282483577728271484e-02 -1.760934144258499146e-01 -5.011906027793884277e-01
1.710000000000000000e+03 5.842884445190429688e+01 3.737268447875976562e+01 9.013630151748657227e-01 2.335637807846069336e+00 9.711002111434936523e-01 -1.311207413673400879e+00
1.711000000000000000e+03 8.317732810974121094e+00 3.146384000778198242e+00 2.617359720170497894e-02 -1.964393854141235352e-01 -5.107973888516426086e-02 2.371348738670349121e-01
1.712000000000000000e+03 6.907956600189208984e+00 3.211843729019165039e+00 -3.457158803939819336e-02 -1.239048838615417480e-01 -4.754294082522392273e-02 2.014192938804626465e-01
1.713000000000000000e+03 5.576537132263183594e+00 4.013647079467773438e+00 7.821079343557357788e-04 -1.098298877477645874e-01 -3.271433338522911072e-02 1.537814289331436157e-01
1.714000000000000000e+03 3.405618429183959961e+00 2.821417808532714844e+00 -4.164503514766693115e-02 -4.805909842252731323e-02 -2.691124007105827332e-02 9.010787308216094971e-02
1.715000000000000000e+03 4.798473834991455078e+00 2.608061790466308594e+00 -7.449023425579071045e-02 -5.138313397765159607e-02 -3.776201233267784119e-02 1.262562721967697144e-01
1.716000000000000000e+03 6.216308116912841797e+00 3.244392156600952148e+00 -4.306112229824066162e-02 -1.063286960124969482e-01 -4.481694474816322327e-02 1.817190945148468018e-01
1.717000000000000000e+03 9.796199798583984375e+00 2.418982982635498047e+00 2.869205735623836517e-02 -3.163876831531524658e-01 -8.630868792533874512e-02 3.354448676109313965e-01
1.718000000000000000e+03 4.238776206970214844e+00 3.422060012817382812e+00 -3.327520936727523804e-02 -6.968951225280761719e-02 -3.088941611349582672e-02 1.195995509624481201e-01
1.719000000000000000e+03 4.105940341949462891e+00 2.687620401382446289e+00 -5.693820863962173462e-02 -5.254852399230003357e-02 -3.284601867198944092e-02 1.082994416356086731e-01
1.720000000000000000e+03 1.961372017860412598e+00 3.260292291641235352e+00 -1.431209221482276917e-02 -5.814757198095321655e-02 -2.173789963126182556e-02 5.562139302492141724e-02
1.721000000000000000e+03 1.058841991424560547e+01 2.347392082214355469e+00 1.948689967393875122e-01 -3.665481209754943848e-01 -5.150373280048370361e-02 2.995025813579559326e-01
1.722000000000000000e+03 9.784376144409179688e+00 3.067472934722900391e+00 1.924393773078918457e-01 -2.877223193645477295e-01 -2.858488447964191437e-02 2.150778621435165405e-01
1.723000000000000000e+03 5.422333908081054688e+01 3.841927337646484375e+01 -8.419745564460754395e-01 -1.150422215461730957e+00 -5.977190136909484863e-01 5.241017341613769531e-01
1.724000000000000000e+03 5.494580459594726562e+01 3.811765289306640625e+01 -5.442138314247131348e-01 -4.399493038654327393e-01 -2.952489554882049561e-01 5.706613659858703613e-01
1.725000000000000000e+03 1.105006122589111328e+01 -3.711389064788818359e+00 -4.927959740161895752e-01 -1.124549955129623413e-01 -1.815752983093261719e-01 -3.874075412750244141e-01
1.726000000000000000e+03 1.420100402832031250e+01 -3.184580326080322266e+00 -8.761696815490722656e-01 -3.073170483112335205e-01 -3.550460040569305420e-01 -6.178423166275024414e-01
1.727000000000000000e+03 5.562227630615234375e+01 3.207143402099609375e+01 3.758806586265563965e-01 6.162548065185546875e-01 2.976406216621398926e-01 9.372442215681076050e-02
1.728000000000000000e+03 1.136252689361572266e+01 2.164727449417114258e+00 3.561165928840637207e-01 -3.937585651874542236e-01 -1.129258982837200165e-02 2.825962603092193604e-01
1.729000000000000000e+03 1.357984638214111328e+01 5.636430263519287109e+00 8.595979213714599609e-02 6.245510578155517578e-01 2.131532579660415649e-01 8.743234723806381226e-02
1.730000000000000000e+03 3.104042243957519531e+01 8.602462768554687500e+00 -9.687893986701965332e-01 -9.561733603477478027e-01 -5.774888396263122559e-01 -8.032494187355041504e-01
1.731000000000000000e+03 3.125060462951660156e+01 7.296000957489013672e+00 -8.598033785820007324e-01 -8.777335882186889648e-01 -5.212610960006713867e-01 -8.804942965507507324e-01
1.732000000000000000e+03 3.108682823181152344e+01 6.247612953186035156e+00 -9.987429976463317871e-01 -7.313035130500793457e-01 -5.190139412879943848e-01 -8.533705472946166992e-01
1.733000000000000000e+03 6.244729232788085938e+01 3.170744514465332031e+01 8.256651759147644043e-01 1.602253341674804688e+01 5.054459571838378906e+00 1.355705022811889648e+00
1.734000000000000000e+03 6.289650344848632812e+01 3.239767456054687500e+01 2.612653970718383789e+00 1.751997375488281250e+01 6.039788246154785156e+00 -4.783776104450225830e-01
1.735000000000000000e+03 4.443048477172851562e+01 3.648372268676757812e+01 1.054230183362960815e-01 2.843323722481727600e-02 4.015687480568885803e-02 5.860987305641174316e-02
1.736000000000000000e+03 4.554037857055664062e+01 3.615314102172851562e+01 1.384532451629638672e-01 4.123293235898017883e-02 5.390585213899612427e-02 7.155758887529373169e-02
1.737000000000000000e+03 1.591004657745361328e+01 -3.143479824066162109e+00 -9.899577498435974121e-01 -6.625450849533081055e-01 -4.957508444786071777e-01 -7.692998051643371582e-01
1.738000000000000000e+03 8.784049987792968750e+00 -3.615675926208496094e+00 -3.194516599178314209e-01 -5.045247450470924377e-02 -1.109712421894073486e-01 -2.550674974918365479e-01
1.739000000000000000e+03 5.521943092346191406e+00 -2.850450515747070312e+00 -1.201531887054443359e-01 -4.285294935107231140e-02 -4.890184104442596436e-02 -1.036434769630432129e-01
1.740000000000000000e+03 7.235252857208251953e+00 -3.668430805206298828e+00 -2.186043262481689453e-01 -5.609050020575523376e-02 -8.240845054388046265e-02 -1.962032467126846313e-01
1.741000000000000000e+03 4.716268539428710938e+00 -2.884739637374877930e+00 -9.461171925067901611e-02 -3.865830600261688232e-02 -3.998100757598876953e-02 -8.353762328624725342e-02
1.742000000000000000e+03 6.445449829101562500e+00 -3.712796926498413086e+00 -1.695743203163146973e-01 -6.916827708482742310e-02 -7.162278145551681519e-02 -1.709968447685241699e-01
1.743000000000000000e+03 5.649676322937011719e+00 -3.759910583496093750e+00 -1.396817117929458618e-01 -6.370417028665542603e-02 -6.101576238870620728e-02 -1.459208875894546509e-01
1.744000000000000000e+03 2.289653539657592773e+00 -3.143598318099975586e+00 -2.937826327979564667e-02 -3.703883662819862366e-02 -1.992513053119182587e-02 -3.398397192358970642e-02
1.745000000000000000e+03 3.533226251602172852e+00 -7.921047687530517578e+00 -3.489692881703376770e-02 -2.317511737346649170e-01 -7.999443262815475464e-02 -1.869790256023406982e-01
1.746000000000000000e+03 1.562241315841674805e+00 -5.351738452911376953e+00 -1.243574079126119614e-02 -8.295743167400360107e-02 -2.861795015633106232e-02 -5.239913985133171082e-02
1.747000000000000000e+03 1.057172584533691406e+01 3.037516832351684570e+00 3.566513955593109131e-01 -2.842985987663269043e-01 2.170584164559841156e-02 1.368989944458007812e-01
1.748000000000000000e+03 2.894744300842285156e+01 9.338438987731933594e+00 -1.951482176780700684e+00 -1.062570691108703613e+00 -9.042158722877502441e-01 -1.412648320198059082e+00
1.749000000000000000e+03 1.346345901489257812e+01 -4.778725624084472656e+00 -5.274619460105895996e-01 -3.746170699596405029e-01 -2.706237137317657471e-01 -6.441617608070373535e-01
1.750000000000000000e+03 1.342202281951904297e+01 -3.946539402008056641e+00 -6.561958193778991699e-01 -2.705389559268951416e-01 -2.780204415321350098e-01 -6.020584702491760254e-01
1.751000000000000000e+03 1.181515598297119141e+01 -3.786855936050415039e+00 -5.580525994300842285e-01 -1.188237294554710388e-01 -2.030628919601440430e-01 -4.481268227100372314e-01
1.752000000000000000e+03 1.260002803802490234e+01 -3.870862245559692383e+00 -6.251442432403564453e-01 -2.097096443176269531e-01 -2.504561543464660645e-01 -5.267499089241027832e-01
1.753000000000000000e+03 1.806833457946777344e+01 -5.827960014343261719e+00 -2.725462056696414948e-02 -9.499394297599792480e-01 -2.931582033634185791e-01 -3.915798068046569824e-01
1.754000000000000000e+03 5.466176223754882812e+01 3.722169494628906250e+01 -3.477706313133239746e-01 -7.950776219367980957e-01 -3.428544700145721436e-01 1.030577778816223145e+00
1.755000000000000000e+03 5.563375854492187500e+01 3.754359817504882812e+01 -2.844985425472259521e-01 4.525407403707504272e-02 -7.177334278821945190e-02 7.548252940177917480e-01
1.756000000000000000e+03 6.388405990600585938e+01 3.638694000244140625e+01 2.185793161392211914e+00 1.594801521301269531e+01 5.440142154693603516e+00 2.217152357101440430e+00
1.757000000000000000e+03 6.495668029785156250e+01 3.675594329833984375e+01 1.839771628379821777e+00 1.402540111541748047e+01 4.759552001953125000e+00 2.047228097915649414e+00
1.758000000000000000e+03 6.308113098144531250e+01 3.180386161804199219e+01 1.491929292678833008e+00 1.602533912658691406e+01 5.255180358886718750e+00 -1.458002328872680664e-01
1.759000000000000000e+03 6.374447631835937500e+01 3.256193923950195312e+01 3.964901924133300781e+00 1.578353118896484375e+01 5.924530029296875000e+00 -1.611281037330627441e+00
1.760000000000000000e+03 6.631452178955078125e+01 3.378160858154296875e+01 4.236905097961425781e+00 1.113789272308349609e+01 4.612439632415771484e+00 -5.875592827796936035e-01
1.761000000000000000e+03 2.254382514953613281e+01 -1.092827796936035156e+00 4.707933962345123291e-01 7.518674731254577637e-01 3.667982518672943115e-01 -6.860135197639465332e-01
1.762000000000000000e+03 1.930478668212890625e+01 -2.621810913085937500e+00 -2.465506047010421753e-01 -2.625943660736083984e+00 -8.617482781410217285e-01 -9.152514338493347168e-01
1.763000000000000000e+03 3.482140731811523438e+01 -1.275440406799316406e+01 9.576465189456939697e-02 -2.373766526579856873e-02 2.160809561610221863e-02 3.716661827638745308e-03
1.764000000000000000e+03 4.042115020751953125e+01 -2.095074272155761719e+01 -6.485156714916229248e-02 7.891153097152709961e-01 2.172791361808776855e-01 -8.577989041805267334e-02
1.765000000000000000e+03 2.353296852111816406e+01 -2.021762847900390625e+01 1.775324344635009766e-01 3.921855986118316650e-01 1.709154099225997925e-01 -3.142779171466827393e-01
1.766000000000000000e+03 2.963496017456054688e+01 -6.615949153900146484e+00 4.074461758136749268e-01 -8.327264338731765747e-02 9.725205600261688232e-02 -1.692798584699630737e-01
1.767000000000000000e+03 2.931645393371582031e+01 -4.217336654663085938e+00 5.477812290191650391e-01 -1.907143145799636841e-01 1.071200817823410034e-01 -1.006350219249725342e-01
1.768000000000000000e+03 2.464955329895019531e+01 -1.963959693908691406e+01 1.762716174125671387e-01 4.931810200214385986e-01 2.008357942104339600e-01 -3.109164237976074219e-01
1.769000000000000000e+03 2.406552886962890625e+01 -2.134160423278808594e+01 1.801945269107818604e-01 4.365656077861785889e-01 1.850280463695526123e-01 -3.104242980480194092e-01
1.770000000000000000e+03 3.305903244018554688e+01 -1.242247390747070312e+01 5.164306238293647766e-02 -1.783042550086975098e-01 -3.799835592508316040e-02 6.282100081443786621e-02
1.771000000000000000e+03 3.554081726074218750e+01 -1.386546134948730469e+01 3.728559240698814392e-02 3.401977568864822388e-02 2.139161154627799988e-02 7.952459156513214111e-03
1.772000000000000000e+03 2.284543800354003906e+01 -2.183634376525878906e+01 1.857568472623825073e-01 3.370797634124755859e-01 1.568509787321090698e-01 -3.124247491359710693e-01
1.773000000000000000e+03 2.360775756835937500e+01 -2.414761543273925781e+01 1.997668892145156860e-01 3.728623390197753906e-01 1.717887669801712036e-01 -3.190628886222839355e-01
1.774000000000000000e+03 2.227054214477539062e+01 -1.801209259033203125e+01 1.758233010768890381e-01 3.183558285236358643e-01 1.482537388801574707e-01 -2.929448485374450684e-01
1.775000000000000000e+03 4.059247076511383057e-01 3.580138444900512695e+00 -3.040921175852417946e-03 -5.671067163348197937e-02 -1.792547665536403656e-02 1.455802656710147858e-02
1.776000000000000000e+03 2.508536720275878906e+01 -2.716792106628417969e+00 7.545819282531738281e-01 3.985612094402313232e-01 3.459429442882537842e-01 -5.621534585952758789e-01
1.777000000000000000e+03 2.692248916625976562e+01 -4.410710811614990234e+00 5.623965263366699219e-01 1.399891674518585205e-01 2.107157111167907715e-01 -4.537353813648223877e-01
1.778000000000000000e+03 2.662557983398437500e+01 -2.883218574523925781e+01 2.490720301866531372e-01 5.153193473815917969e-01 2.293174117803573608e-01 -3.501533567905426025e-01
1.779000000000000000e+03 4.374639129638671875e+01 -2.719610786437988281e+01 -9.425406157970428467e-02 1.817445635795593262e+00 5.169574618339538574e-01 -2.460447400808334351e-01
1.780000000000000000e+03 4.170203399658203125e+01 -2.352411270141601562e+01 -7.667140662670135498e-02 1.075193047523498535e+00 2.995564937591552734e-01 -1.524263471364974976e-01
1.781000000000000000e+03 3.205531311035156250e+01 -8.528782844543457031e+00 3.144589662551879883e-01 -1.485825628042221069e-01 4.976291581988334656e-02 -9.365335851907730103e-02
1.782000000000000000e+03 2.638429450988769531e+01 -2.739887809753417969e+01 2.403276264667510986e-01 5.273653268814086914e-01 2.303078919649124146e-01 -3.476841747760772705e-01
1.783000000000000000e+03 2.734028434753417969e+01 -2.569374847412109375e+01 2.091975510120391846e-01 6.318058967590332031e-01 2.523010373115539551e-01 -3.557974398136138916e-01
1.784000000000000000e+03 4.446239089965820312e+01 -2.842311286926269531e+01 -9.064663201570510864e-02 2.165143013000488281e+00 6.223489046096801758e-01 -2.802213132381439209e-01
1.785000000000000000e+03 3.702251815795898438e+01 -1.611010551452636719e+01 -1.405330002307891846e-02 1.911186873912811279e-01 5.311961472034454346e-02 5.440134555101394653e-03
1.786000000000000000e+03 4.112446975708007812e+01 -2.541957473754882812e+01 -3.992734849452972412e-02 8.124717473983764648e-01 2.317633181810379028e-01 -1.677544862031936646e-01
1.787000000000000000e+03 4.360934448242187500e+01 -2.412835884094238281e+01 -1.131776124238967896e-01 1.683185100555419922e+00 4.710022509098052979e-01 -1.749192178249359131e-01
1.788000000000000000e+03 3.766102600097656250e+01 -1.922792816162109375e+01 -6.099981814622879028e-02 1.698556542396545410e-01 3.265674784779548645e-02 3.728174045681953430e-02
1.789000000000000000e+03 1.951422309875488281e+01 -1.336388778686523438e+01 2.071787565946578979e-01 3.044481389224529266e-02 7.128707319498062134e-02 -2.593116164207458496e-01
1.790000000000000000e+03 1.515419769287109375e+01 -6.996842861175537109e+00 -1.290212273597717285e-01 -5.967659354209899902e-01 -2.177361547946929932e-01 -6.117181181907653809e-01
1.791000000000000000e+03 3.910261917114257812e+01 -2.169449615478515625e+01 -6.120708957314491272e-02 3.909968733787536621e-01 9.893693774938583374e-02 -1.552676502615213394e-02
1.792000000000000000e+03 3.842014312744140625e+01 -2.043435859680175781e+01 -7.315360009670257568e-02 2.743214368820190430e-01 6.035035103559494019e-02 1.039901375770568848e-02
1.793000000000000000e+03 7.828985595703125000e+01 -3.602600479125976562e+01 -1.313094794750213623e-02 7.994744300842285156e+00 2.394484043121337891e+00 5.347866564989089966e-02
1.794000000000000000e+03 7.560041046142578125e+01 -3.755460357666015625e+01 6.570758298039436340e-03 7.660859584808349609e+00 2.300229072570800781e+00 3.386489674448966980e-02
1.795000000000000000e+03 7.665167999267578125e+01 -3.517788696289062500e+01 -5.525226239114999771e-03 7.801346302032470703e+00 2.338746309280395508e+00 7.517247647047042847e-02
1.796000000000000000e+03 7.734668731689453125e+01 -3.629491424560546875e+01 -3.763718763366341591e-03 7.872138500213623047e+00 2.360512495040893555e+00 5.836306139826774597e-02
1.797000000000000000e+03 7.537997436523437500e+01 -2.244980049133300781e+01 -1.641669659875333309e-03 7.923129558563232422e+00 2.376446485519409180e+00 1.666103452444076538e-01
1.798000000000000000e+03 7.801969909667968750e+01 -2.925295066833496094e+01 4.524887539446353912e-03 8.136907577514648438e+00 2.442429780960083008e+00 6.782799959182739258e-02
1.799000000000000000e+03 7.563242340087890625e+01 1.507550334930419922e+01 -1.710311472415924072e-01 8.396375656127929688e+00 2.467603445053100586e+00 -4.812386333942413330e-01
1.800000000000000000e+03 7.795491027832031250e+01 3.477902984619140625e+01 1.578494012355804443e-01 4.432742118835449219e+00 1.377177357673645020e+00 -2.226489484310150146e-01
1.801000000000000000e+03 7.632483673095703125e+01 3.219630050659179688e+01 3.198083341121673584e-01 5.832947254180908203e+00 1.845826625823974609e+00 -7.722934484481811523e-01
1.802000000000000000e+03 7.802763366699218750e+01 -2.234192657470703125e+01 5.080775008536875248e-04 8.398762702941894531e+00 2.519781112670898438e+00 7.538089156150817871e-02
1.803000000000000000e+03 7.673746490478515625e+01 -2.376743125915527344e+01 1.433936646208167076e-03 8.124170303344726562e+00 2.437681198120117188e+00 1.251958906650543213e-01
1.804000000000000000e+03 7.655532836914062500e+01 -3.060490608215332031e+01 1.752820052206516266e-02 7.873466491699218750e+00 2.367298364639282227e+00 1.066384240984916687e-01
1.805000000000000000e+03 7.806393432617187500e+01 -3.484109115600585938e+01 -1.924842828884720802e-03 7.995007514953613281e+00 2.397924661636352539e+00 5.190265551209449768e-02
1.806000000000000000e+03 7.672627258300781250e+01 -2.919680213928222656e+01 8.291475474834442139e-03 7.942110538482666016e+00 2.385120630264282227e+00 1.117317825555801392e-01
1.807000000000000000e+03 7.547231292724609375e+01 -2.520132827758789062e+01 1.204690779559314251e-03 7.871243000030517578e+00 2.361734151840209961e+00 1.650331467390060425e-01
1.808000000000000000e+03 7.681246185302734375e+01 -2.783186340332031250e+01 6.606420967727899551e-03 7.999309539794921875e+00 2.401774883270263672e+00 1.129681915044784546e-01
1.809000000000000000e+03 7.677963256835937500e+01 -2.513380432128906250e+01 2.241219393908977509e-03 8.086961746215820312e+00 2.426760911941528320e+00 1.177177950739860535e-01
1.810000000000000000e+03 7.626080322265625000e+01 -3.371756744384765625e+01 5.245106760412454605e-03 7.762690067291259766e+00 2.330380439758300781e+00 7.747706025838851929e-02
1.811000000000000000e+03 7.505225372314453125e+01 -4.021937942504882812e+01 5.339831858873367310e-02 7.558250427246093750e+00 2.283494710922241211e+00 -3.627183614298701286e-03
1.812000000000000000e+03 7.811512756347656250e+01 2.225299835205078125e+01 -3.595552593469619751e-02 7.425306797027587891e+00 2.216805219650268555e+00 -5.724315047264099121e-01
1.813000000000000000e+03 7.686642456054687500e+01 1.938236045837402344e+01 -1.161465719342231750e-01 8.039215087890625000e+00 2.376920461654663086e+00 -6.653694510459899902e-01
1.814000000000000000e+03 7.558501434326171875e+01 2.219751167297363281e+01 -1.802566796541213989e-01 7.735723018646240234e+00 2.266639947891235352e+00 -1.044825553894042969e+00
1.815000000000000000e+03 7.685742950439453125e+01 2.080723953247070312e+01 -1.086561009287834167e-01 7.814820289611816406e+00 2.311849117279052734e+00 -7.575012445449829102e-01
1.816000000000000000e+03 7.817385864257812500e+01 1.247228145599365234e+01 -3.109447658061981201e-02 8.967187881469726562e+00 2.680828094482421875e+00 -1.803351789712905884e-01
1.817000000000000000e+03 7.438188934326171875e+01 1.358033466339111328e+01 -2.344035059213638306e-01 8.320707321166992188e+00 2.425891160964965820e+00 -4.288490414619445801e-01
1.818000000000000000e+03 7.691915130615234375e+01 1.378743457794189453e+01 -8.511251956224441528e-02 8.644627571105957031e+00 2.567854404449462891e+00 -3.232080340385437012e-01
1.819000000000000000e+03 7.686563110351562500e+01 2.363049316406250000e+01 -7.741158455610275269e-02 7.286023139953613281e+00 2.162583351135253906e+00 -9.155962467193603516e-01
1.820000000000000000e+03 7.811191558837890625e+01 2.644977760314941406e+01 -8.326258510351181030e-03 6.281455993652343750e+00 1.881938934326171875e+00 -6.822013854980468750e-01
1.821000000000000000e+03 7.670653533935546875e+01 -2.238928604125976562e+01 -6.296135950833559036e-03 8.168627738952636719e+00 2.448699474334716797e+00 1.238884255290031433e-01
1.822000000000000000e+03 7.550308990478515625e+01 2.911425781250000000e+01 1.693320721387863159e-01 6.712198734283447266e+00 2.064459323883056641e+00 -1.198209524154663086e+00
1.823000000000000000e+03 7.815074920654296875e+01 6.932534694671630859e+00 -1.796521060168743134e-02 9.197125434875488281e+00 2.753748178482055664e+00 -5.762953311204910278e-02
1.824000000000000000e+03 7.533252716064453125e+01 -1.596587419509887695e+00 -3.630490228533744812e-02 8.486239433288574219e+00 2.534980297088623047e+00 8.804756402969360352e-02
1.825000000000000000e+03 7.809643554687500000e+01 -8.398672103881835938e+00 -1.546177198179066181e-03 8.931050300598144531e+00 2.678851127624511719e+00 5.275541171431541443e-02
1.826000000000000000e+03 7.810888671875000000e+01 5.540621757507324219e+00 -1.441407576203346252e-02 9.203844070434570312e+00 2.756829023361206055e+00 -3.810602426528930664e-02
1.827000000000000000e+03 7.546536254882812500e+01 4.182674407958984375e+00 -6.012653931975364685e-02 8.591099739074707031e+00 2.559292078018188477e+00 -1.155099179595708847e-02
1.828000000000000000e+03 7.560910034179687500e+01 -8.421181678771972656e+00 -1.026229094713926315e-02 8.391554832458496094e+00 2.514387845993041992e+00 1.294775754213333130e-01
1.829000000000000000e+03 7.797627258300781250e+01 -1.534396743774414062e+01 -4.423535428941249847e-03 8.659227371215820312e+00 2.596441268920898438e+00 7.115076482295989990e-02
1.830000000000000000e+03 7.399063110351562500e+01 -1.544899368286132812e+01 -1.033179089426994324e-02 7.870881557464599609e+00 2.358164787292480469e+00 1.976122409105300903e-01
1.831000000000000000e+03 7.667584228515625000e+01 -2.100149536132812500e+01 -1.124537666328251362e-03 8.208690643310546875e+00 2.462270021438598633e+00 1.219121664762496948e-01
1.832000000000000000e+03 7.685234069824218750e+01 5.543619632720947266e+00 -3.745805844664573669e-02 8.905062675476074219e+00 2.660281419754028320e+00 -4.363512992858886719e-02
1.833000000000000000e+03 7.801859283447265625e+01 -1.440380930900573730e+00 -8.431900292634963989e-03 9.115420341491699219e+00 2.732096433639526367e+00 2.765535563230514526e-02
1.834000000000000000e+03 7.675766754150390625e+01 -2.899504661560058594e+00 -1.765155978500843048e-02 8.786067008972167969e+00 2.630524635314941406e+00 6.947701424360275269e-02
1.835000000000000000e+03 7.678198242187500000e+01 -9.793706893920898438e+00 -6.011493969708681107e-03 8.601818084716796875e+00 2.578742027282714844e+00 9.895858913660049438e-02
1.836000000000000000e+03 7.663002777099609375e+01 -1.677652549743652344e+01 -6.744712591171264648e-03 8.343008995056152344e+00 2.500879287719726562e+00 1.236110255122184753e-01
1.837000000000000000e+03 7.518502807617187500e+01 3.054719352722167969e+01 3.414251506328582764e-01 6.643823146820068359e+00 2.095574617385864258e+00 -1.124790787696838379e+00
1.838000000000000000e+03 7.651641845703125000e+01 3.069307899475097656e+01 2.132233828306198120e-01 5.975506305694580078e+00 1.856619000434875488e+00 -8.964961171150207520e-01
1.839000000000000000e+03 7.687460327148437500e+01 1.796178245544433594e+01 -1.124816685914993286e-01 8.234341621398925781e+00 2.436558008193969727e+00 -5.671901106834411621e-01
1.840000000000000000e+03 7.562680816650390625e+01 1.931686019897460938e+01 -2.082070410251617432e-01 8.070990562438964844e+00 2.358834981918334961e+00 -8.088843822479248047e-01
1.841000000000000000e+03 7.698683929443359375e+01 9.669080734252929688e+00 -5.404010415077209473e-02 8.866022109985351562e+00 2.643594503402709961e+00 -1.499225646257400513e-01
1.842000000000000000e+03 7.692563629150390625e+01 6.926951408386230469e+00 -4.029955714941024780e-02 8.911714553833007812e+00 2.661424398422241211e+00 -7.439643889665603638e-02
1.843000000000000000e+03 7.799344635009765625e+01 1.348111748695373535e+00 -1.062654703855514526e-02 9.161327362060546875e+00 2.745210170745849609e+00 8.528140373528003693e-03
1.844000000000000000e+03 7.798529052734375000e+01 -1.394707202911376953e+01 -7.126568816602230072e-04 8.714080810546875000e+00 2.614010572433471680e+00 6.990775465965270996e-02
1.845000000000000000e+03 7.662808990478515625e+01 -1.535756492614746094e+01 -3.923024516552686691e-03 8.393589019775390625e+00 2.516899824142456055e+00 1.212364211678504944e-01
1.846000000000000000e+03 7.811188507080078125e+01 -7.012278079986572266e+00 -5.562825128436088562e-03 8.979601860046386719e+00 2.692211627960205078e+00 4.933108389377593994e-02
1.847000000000000000e+03 7.683963775634765625e+01 -8.416518211364746094e+00 -8.814480155706405640e-03 8.656228065490722656e+00 2.594224214553833008e+00 9.314391016960144043e-02
1.848000000000000000e+03 7.662595367431640625e+01 -8.948270976543426514e-02 -2.070071920752525330e-02 8.815371513366699219e+00 2.638401269912719727e+00 4.298632219433784485e-02
1.849000000000000000e+03 7.676158905029296875e+01 4.145027160644531250e+00 -3.314430266618728638e-02 8.885871887207031250e+00 2.655818462371826172e+00 -1.784683205187320709e-02
1.850000000000000000e+03 7.560919189453125000e+01 5.576775550842285156e+00 -6.465029716491699219e-02 8.628710746765136719e+00 2.569218158721923828e+00 -4.603494703769683838e-02
1.851000000000000000e+03 7.687010955810546875e+01 -7.044515132904052734e+00 -5.633147899061441422e-03 8.703280448913574219e+00 2.609294176101684570e+00 8.730299770832061768e-02
1.852000000000000000e+03 7.682438659667968750e+01 -4.289834022521972656e+00 -8.433052338659763336e-03 8.766771316528320312e+00 2.627501487731933594e+00 7.542160153388977051e-02
1.853000000000000000e+03 7.547532653808593750e+01 -3.003819465637207031e+00 -2.090037614107131958e-02 8.490739822387695312e+00 2.540951967239379883e+00 9.746358543634414673e-02
1.854000000000000000e+03 7.663086700439453125e+01 -1.395342350006103516e+01 -7.409041747450828552e-03 8.441141128540039062e+00 2.530119657516479492e+00 1.152786538004875183e-01
1.855000000000000000e+03 7.671329498291015625e+01 -1.117702865600585938e+01 -9.277013130486011505e-03 8.547808647155761719e+00 2.561559438705444336e+00 1.056758388876914978e-01
1.856000000000000000e+03 7.551237487792968750e+01 -9.779343605041503906e+00 -1.287193410098552704e-02 8.332584381103515625e+00 2.495913743972778320e+00 1.370643079280853271e-01
1.857000000000000000e+03 7.664564514160156250e+01 -1.960475349426269531e+01 -1.649827696382999420e-03 8.249622344970703125e+00 2.474391698837280273e+00 1.235275492072105408e-01
1.858000000000000000e+03 2.290971946716308594e+01 -1.912168312072753906e+01 1.784529983997344971e-01 3.753095567226409912e-01 1.661287695169448853e-01 -2.949049472808837891e-01
1.859000000000000000e+03 2.198088073730468750e+01 -1.503399085998535156e+01 2.047975957393646240e-01 3.435549437999725342e-01 1.645057648420333862e-01 -2.578745186328887939e-01
1.860000000000000000e+03 2.095582199096679688e+01 -1.568894767761230469e+01 1.927612572908401489e-01 2.056206911802291870e-01 1.195145845413208008e-01 -2.719824910163879395e-01
1.861000000000000000e+03 2.940282440185546875e+01 -3.103067398071289062e+01 3.602266013622283936e-01 6.562537550926208496e-01 3.049440979957580566e-01 -3.988023102283477783e-01
1.862000000000000000e+03 1.777854323387145996e+00 3.574622726440429688e+01 4.951266455464065075e-04 -1.082120612263679504e-01 -3.231507912278175354e-02 -4.197979811578989029e-03
1.863000000000000000e+03 4.798338890075683594e+00 3.317782211303710938e+01 -2.434110501781105995e-03 -7.889445126056671143e-02 -2.439856715500354767e-02 -7.469389587640762329e-03
1.864000000000000000e+03 2.804974079132080078e+00 3.584517288208007812e+01 -1.856760354712605476e-04 -9.813863039016723633e-02 -2.949729189276695251e-02 -5.021107848733663559e-03
1.865000000000000000e+03 3.335695505142211914e+00 3.015942192077636719e+01 -1.718482817523181438e-03 -9.994250535964965820e-02 -3.049829602241516113e-02 -8.581838570535182953e-03
1.866000000000000000e+03 1.873672723770141602e+00 2.742907142639160156e+01 -5.877290386706590652e-04 -1.259664893150329590e-01 -3.796626627445220947e-02 -7.490177173167467117e-03
1.867000000000000000e+03 3.381427526473999023e+00 3.164237213134765625e+01 -1.377811771817505360e-03 -9.712517261505126953e-02 -2.955089509487152100e-02 -7.747828494757413864e-03
1.868000000000000000e+03 3.156632661819458008e+00 3.455770492553710938e+01 -2.983099548146128654e-04 -9.709069132804870605e-02 -2.921669930219650269e-02 -6.218659691512584686e-03
1.869000000000000000e+03 5.839740753173828125e+00 2.819086074829101562e+01 -5.213402677327394485e-03 -6.669286638498306274e-02 -2.157188020646572113e-02 -1.337773352861404419e-02
1.870000000000000000e+03 5.263539314270019531e+00 4.019118499755859375e+01 -4.043868277221918106e-03 -7.419302314519882202e-02 -2.347106859087944031e-02 7.063192897476255894e-04
1.871000000000000000e+03 3.313892126083374023e+00 -3.589128494262695312e+01 2.539615891873836517e-02 -1.160741686820983887e+00 -3.406036794185638428e-01 -2.292820625007152557e-02
1.872000000000000000e+03 2.169105052947998047e+00 -3.016201591491699219e+01 7.912051863968372345e-03 -1.174859523773193359e+00 -3.500842452049255371e-01 -4.733639955520629883e-02
1.873000000000000000e+03 3.514905929565429688e+00 -2.854336357116699219e+01 1.408426184207201004e-02 -1.037633895874023438e+00 -3.070648908615112305e-01 -8.166553825139999390e-02
1.874000000000000000e+03 3.243136644363403320e+00 -2.591707229614257812e+01 1.789554767310619354e-02 -9.889982938766479492e-01 -2.913308441638946533e-01 -9.846119582653045654e-02
1.875000000000000000e+03 1.664232373237609863e+00 2.179652214050292969e+01 -2.926735614892095327e-04 -1.536010354757308960e-01 -4.616811126470565796e-02 -1.086594443768262863e-02
1.876000000000000000e+03 2.813573122024536133e+00 2.302644538879394531e+01 -1.520075835287570953e-03 -1.254821270704269409e-01 -3.810066357254981995e-02 -1.474993396550416946e-02
1.877000000000000000e+03 2.856843471527099609e+00 -1.053109359741210938e+01 -1.234563998878002167e-02 -3.549652099609375000e-01 -1.101932600140571594e-01 -1.812341213226318359e-01
1.878000000000000000e+03 3.375054121017456055e+00 -1.763517951965332031e+01 2.068099752068519592e-02 -7.012162804603576660e-01 -2.041605859994888306e-01 -1.781675815582275391e-01
1.879000000000000000e+03 2.022091388702392578e+00 -1.482137870788574219e+01 2.697679214179515839e-03 -6.055397987365722656e-01 -1.808526366949081421e-01 -1.284269541501998901e-01
1.880000000000000000e+03 2.747591257095336914e+00 1.753829574584960938e+01 8.660973398946225643e-04 -1.479109376668930054e-01 -4.411345347762107849e-02 -1.799071393907070160e-02
1.881000000000000000e+03 2.734308004379272461e+00 1.197934150695800781e+01 1.268225908279418945e-02 -1.631620079278945923e-01 -4.514392465353012085e-02 -4.418547614477574825e-04
1.882000000000000000e+03 3.342680215835571289e+00 -1.907648468017578125e+01 1.807948946952819824e-02 -7.606355547904968262e-01 -2.227668166160583496e-01 -1.588578969240188599e-01
1.883000000000000000e+03 3.302204370498657227e+00 -1.328941249847412109e+01 4.899483174085617065e-03 -5.013036131858825684e-01 -1.489212363958358765e-01 -2.033452093601226807e-01
1.884000000000000000e+03 1.518697977066040039e+00 -7.945018768310546875e+00 -6.852444726973772049e-03 -1.981341838836669922e-01 -6.149598956108093262e-02 -8.683183789253234863e-02
1.885000000000000000e+03 3.386840820312500000e+00 -4.815093994140625000e+00 -5.841511860489845276e-02 -9.494853764772415161e-02 -4.600909724831581116e-02 -1.053158864378929138e-01
1.886000000000000000e+03 4.411641597747802734e+00 4.760388851165771484e+00 1.179280038923025131e-02 -1.057719886302947998e-01 -2.819375507533550262e-02 1.149134337902069092e-01
1.887000000000000000e+03 2.629663944244384766e+00 7.861492633819580078e+00 2.183282561600208282e-02 -1.498540192842483521e-01 -3.840636089444160461e-02 4.798372462391853333e-02
1.888000000000000000e+03 1.656866550445556641e+00 1.482726192474365234e+01 1.250260043889284134e-03 -1.926743090152740479e-01 -5.742721259593963623e-02 -9.742046706378459930e-03
1.889000000000000000e+03 2.764626741409301758e+00 1.615239906311035156e+01 1.636107335798442364e-03 -1.524290889501571655e-01 -4.523789510130882263e-02 -1.648601330816745758e-02
1.890000000000000000e+03 2.650971889495849609e+00 9.231787681579589844e+00 2.127503231167793274e-02 -1.598782539367675781e-01 -4.158096387982368469e-02 2.809031866490840912e-02
1.891000000000000000e+03 2.538118362426757812e+00 -7.960422039031982422e+00 -2.448028884828090668e-02 -2.170899659395217896e-01 -7.247107475996017456e-02 -1.388816386461257935e-01
1.892000000000000000e+03 1.914749383926391602e+00 -4.399570465087890625e+00 -1.929010078310966492e-02 -5.838304013013839722e-02 -2.330194227397441864e-02 -4.478172957897186279e-02
1.893000000000000000e+03 3.319646358489990234e+00 -2.190897369384765625e+01 1.544385496526956558e-02 -8.668625950813293457e-01 -2.554256319999694824e-01 -1.300221830606460571e-01
1.894000000000000000e+03 5.303338050842285156e+00 -3.762253189086914062e+01 3.012432344257831573e-02 -1.031777858734130859e+00 -3.004960715770721436e-01 -6.882132589817047119e-02
1.895000000000000000e+03 2.761031866073608398e+00 2.165203094482421875e+01 -1.837453455664217472e-03 -1.315121054649353027e-01 -4.000486806035041809e-02 -1.598541252315044403e-02
1.896000000000000000e+03 2.669849634170532227e+00 -9.220986366271972656e+00 -1.328551676124334335e-02 -2.864259183406829834e-01 -8.991342782974243164e-02 -1.621620506048202515e-01
1.897000000000000000e+03 3.414466381072998047e+00 -1.617982292175292969e+01 1.577615365386009216e-02 -6.333978176116943359e-01 -1.852865070104598999e-01 -1.904101818799972534e-01
1.898000000000000000e+03 3.416875839233398438e+00 -1.472367858886718750e+01 1.430235337466001511e-02 -5.685746669769287109e-01 -1.662816852331161499e-01 -2.038428485393524170e-01
1.899000000000000000e+03 1.952234268188476562e+00 -2.331521606445312500e+01 3.609729697927832603e-03 -1.003836154937744141e+00 -3.000679314136505127e-01 -7.375106215476989746e-02
1.900000000000000000e+03 2.115134954452514648e+00 -3.572447586059570312e+01 2.456187270581722260e-02 -1.266689777374267578e+00 -3.726383745670318604e-01 -7.159877102822065353e-03
1.901000000000000000e+03 5.757522106170654297e+00 -3.219825363159179688e+01 3.204070031642913818e-02 -9.247866272926330566e-01 -2.678237855434417725e-01 -9.605378657579421997e-02
1.902000000000000000e+03 4.108738422393798828e+00 -3.283125686645507812e+01 1.729984767735004425e-02 -1.062828183174133301e+00 -3.136585056781768799e-01 -6.702896207571029663e-02
1.903000000000000000e+03 4.539586544036865234e+00 -2.462480545043945312e+01 2.779658325016498566e-02 -8.638725280761718750e-01 -2.508227825164794922e-01 -1.447909772396087646e-01
1.904000000000000000e+03 3.082593441009521484e+00 -1.189000225067138672e+01 2.512655220925807953e-03 -4.317465126514434814e-01 -1.287701576948165894e-01 -1.994348466396331787e-01
1.905000000000000000e+03 2.692087411880493164e+00 1.059930515289306641e+01 1.671591959893703461e-02 -1.635298579931259155e-01 -4.404418170452117920e-02 1.315523870289325714e-02
1.906000000000000000e+03 3.836297035217285156e+00 1.191646099090576172e+01 2.152823470532894135e-02 -1.304267346858978271e-01 -3.266954794526100159e-02 -5.630676168948411942e-04
1.907000000000000000e+03 2.763454914093017578e+00 1.336892604827880859e+01 7.525003049522638321e-03 -1.605651825666427612e-01 -4.591205716133117676e-02 -8.251009508967399597e-03
1.908000000000000000e+03 3.838145732879638672e+00 1.747571182250976562e+01 5.564368912018835545e-04 -1.176804900169372559e-01 -3.513721376657485962e-02 -2.117631584405899048e-02
1.909000000000000000e+03 1.616356849670410156e+01 -7.232651710510253906e+00 -1.489144563674926758e-02 -5.862960815429687500e-01 -1.803562641143798828e-01 -5.371767282485961914e-01
1.910000000000000000e+03 3.978580856323242188e+01 -1.955143356323242188e+01 -4.308984056115150452e-02 6.682531237602233887e-01 1.875489950180053711e-01 -5.994593352079391479e-02
1.911000000000000000e+03 3.046304130554199219e+01 -3.490700149536132812e+01 4.461808800697326660e-01 5.715878009796142578e-01 3.053306043148040771e-01 -3.685620427131652832e-01
1.912000000000000000e+03 3.270318603515625000e+01 -3.593142700195312500e+01 5.496777296066284180e-01 5.831743478775024414e-01 3.398556113243103027e-01 -4.276775717735290527e-01
1.913000000000000000e+03 3.407940673828125000e+01 -1.172311401367187500e+01 1.050137951970100403e-01 -6.746156513690948486e-02 1.126566808670759201e-02 -1.098888739943504333e-02
1.914000000000000000e+03 1.786847305297851562e+01 -1.098597049713134766e+01 2.084725052118301392e-01 -2.606632411479949951e-01 -1.565722376108169556e-02 -2.947203218936920166e-01
1.915000000000000000e+03 4.497975540161132812e+01 -2.962802314758300781e+01 -6.937088072299957275e-02 2.551115512847900391e+00 7.445233464241027832e-01 -2.197979837656021118e-01
1.916000000000000000e+03 2.455426406860351562e+01 1.736089825630187988e+00 -1.723390936851501465e+00 -3.311453163623809814e-01 -6.163609027862548828e-01 -7.147303819656372070e-01
1.917000000000000000e+03 2.809741592407226562e+01 -3.663646697998046875e+01 4.275192320346832275e-01 4.177948534488677979e-01 2.535942196846008301e-01 -2.638491392135620117e-01
1.918000000000000000e+03 2.656027984619140625e+01 -3.326932907104492188e+01 3.269821107387542725e-01 3.994112312793731689e-01 2.179180085659027100e-01 -2.794766426086425781e-01
1.919000000000000000e+03 2.857601356506347656e+01 -3.485306167602539062e+01 3.990730047225952148e-01 5.059626102447509766e-01 2.715106904506683350e-01 -3.087405860424041748e-01
1.920000000000000000e+03 1.754643630981445312e+01 -4.884096622467041016e+00 -3.394993543624877930e-01 -1.048621535301208496e+00 -4.164362549781799316e-01 -5.864051580429077148e-01
1.921000000000000000e+03 1.671322059631347656e+01 -5.454463481903076172e+00 -2.058146446943283081e-01 -8.122194409370422363e-01 -3.054102361202239990e-01 -6.506812572479248047e-01
1.922000000000000000e+03 1.721353530883789062e+01 -8.695762634277343750e+00 1.637161821126937866e-01 -4.537605345249176025e-01 -8.701330423355102539e-02 -3.406687974929809570e-01
1.923000000000000000e+03 1.678975105285644531e+01 -1.005926132202148438e+01 1.417656838893890381e-01 -3.778858780860900879e-01 -7.083605974912643433e-02 -3.657973706722259521e-01
1.924000000000000000e+03 3.050288772583007812e+01 -5.193448066711425781e+00 4.640518724918365479e-01 -2.100232839584350586e-01 7.620857656002044678e-02 -9.483941644430160522e-02
1.925000000000000000e+03 5.296684265136718750e+01 -3.385764312744140625e+01 4.808416366577148438e-01 4.130236625671386719e+00 1.383323550224304199e+00 3.455070257186889648e-01
1.926000000000000000e+03 4.869630813598632812e+01 -3.928094863891601562e+01 9.293969273567199707e-01 3.694060802459716797e+00 1.387037277221679688e+00 1.109854131937026978e-01
1.927000000000000000e+03 4.808310699462890625e+01 -3.729756546020507812e+01 9.992316365242004395e-01 3.691142797470092773e+00 1.407112360000610352e+00 1.632534116506576538e-01
1.928000000000000000e+03 5.174274921417236328e+00 -4.036365127563476562e+01 7.313185837119817734e-03 -1.053039789199829102e+00 -3.137179613113403320e-01 -3.713182359933853149e-02
1.929000000000000000e+03 2.500754928588867188e+01 1.655945301055908203e+00 -1.585872411727905273e+00 -3.264800310134887695e-01 -5.737057328224182129e-01 -6.423127055168151855e-01
1.930000000000000000e+03 2.450353622436523438e+01 2.332566022872924805e+00 -2.129989385604858398e+00 -4.846664965152740479e-01 -7.843967080116271973e-01 -9.930374026298522949e-01
1.931000000000000000e+03 2.348017311096191406e+01 1.244385123252868652e+00 -1.806875705718994141e+00 -1.317215412855148315e-01 -5.815792083740234375e-01 -8.995282053947448730e-01
1.932000000000000000e+03 2.484754180908203125e+01 2.573966026306152344e+00 -2.127575635910034180e+00 -5.168918371200561523e-01 -7.933402657508850098e-01 -9.817410707473754883e-01
1.933000000000000000e+03 2.556561851501464844e+01 3.282767057418823242e+00 -2.149303436279296875e+00 -6.132473349571228027e-01 -8.287652730941772461e-01 -1.038817405700683594e+00
1.934000000000000000e+03 2.432403373718261719e+01 2.189220428466796875e+00 -2.092677116394042969e+00 -4.152469635009765625e-01 -7.523772716522216797e-01 -9.465690255165100098e-01
1.935000000000000000e+03 2.432119178771972656e+01 1.780057549476623535e+00 -1.943333029747009277e+00 -3.149098157882690430e-01 -6.774728298187255859e-01 -8.177351355552673340e-01
1.936000000000000000e+03 2.629871368408203125e+01 3.104020595550537109e+00 -1.842980027198791504e+00 -5.889924168586730957e-01 -7.295917272567749023e-01 -8.562719225883483887e-01
1.937000000000000000e+03 2.745874404907226562e+01 4.481273651123046875e+00 -1.868821620941162109e+00 -8.988833427429199219e-01 -8.303114771842956543e-01 -1.079509496688842773e+00
1.938000000000000000e+03 2.848219299316406250e+01 5.116384506225585938e+00 -1.672921299934387207e+00 -1.061678051948547363e+00 -8.203797936439514160e-01 -9.866709113121032715e-01
1.939000000000000000e+03 2.889461135864257812e+01 4.897223949432373047e+00 -1.521110057830810547e+00 -9.349659681320190430e-01 -7.368227839469909668e-01 -8.230513930320739746e-01
1.940000000000000000e+03 6.041391372680664062e+01 3.227051925659179688e+01 3.300963401794433594e+00 8.013263702392578125e+00 3.394268274307250977e+00 5.907641887664794922e+00
1.941000000000000000e+03 5.978168869018554688e+01 3.228711700439453125e+01 3.471530437469482422e+00 4.651547908782958984e+00 2.436923503875732422e+00 4.569493293762207031e+00
1.942000000000000000e+03 6.089630508422851562e+01 3.272387313842773438e+01 3.412976026535034180e+00 1.149755954742431641e+01 4.473160743713378906e+00 7.178647518157958984e+00
1.943000000000000000e+03 2.270442199707031250e+01 6.046177744865417480e-01 -1.598261594772338867e+00 -7.574689388275146484e-02 -5.022025704383850098e-01 -1.127770543098449707e+00
1.944000000000000000e+03 2.359456062316894531e+01 -8.827587366104125977e-01 -2.899893745779991150e-02 3.782807290554046631e-01 1.047845408320426941e-01 -3.860676884651184082e-01
1.945000000000000000e+03 2.996246528625488281e+01 5.197433471679687500e+00 -1.315362691879272461e+00 -7.188494801521301270e-01 -6.102636456489562988e-01 -7.314339876174926758e-01
1.946000000000000000e+03 2.909878540039062500e+01 5.100061893463134766e+00 -1.495087265968322754e+00 -9.329214096069335938e-01 -7.284026145935058594e-01 -8.130126595497131348e-01
1.947000000000000000e+03 1.956726455688476562e+01 -8.412460088729858398e-01 -2.910740613937377930e+00 -2.815756320953369141e+00 -1.717949032783508301e+00 -1.856199026107788086e+00
1.948000000000000000e+03 3.190498161315917969e+01 2.241656112670898438e+01 6.327933818101882935e-02 7.721859216690063477e-02 4.214937984943389893e-02 7.608102262020111084e-02
1.949000000000000000e+03 3.133192825317382812e+01 2.341675567626953125e+01 6.016823276877403259e-02 8.440811932086944580e-02 4.337290674448013306e-02 7.517787814140319824e-02
1.950000000000000000e+03 1.937585830688476562e+01 1.067418479919433594e+01 1.301113069057464600e-01 1.732800751924514771e-01 9.101741015911102295e-02 1.547503620386123657e-01
1.951000000000000000e+03 3.282130813598632812e+01 2.367813110351562500e+01 6.183870881795883179e-02 8.174507319927215576e-02 4.307513684034347534e-02 7.047034800052642822e-02
1.952000000000000000e+03 3.087875366210937500e+01 2.274366378784179688e+01 6.205168366432189941e-02 8.596594631671905518e-02 4.440528899431228638e-02 7.699108123779296875e-02
1.953000000000000000e+03 1.845217323303222656e+01 9.587594985961914062e+00 1.415186524391174316e-01 1.979698389768600464e-01 1.018465459346771240e-01 1.631260663270950317e-01
1.954000000000000000e+03 4.021970748901367188e+01 2.018659210205078125e+01 -7.842220067977905273e-01 -7.731797695159912109e-01 -4.672205448150634766e-01 -8.570799231529235840e-01
1.955000000000000000e+03 3.559272384643554688e+01 2.698011779785156250e+01 5.811383575201034546e-02 7.870275527238845825e-02 4.104497656226158142e-02 7.011847198009490967e-02
1.956000000000000000e+03 3.295403289794921875e+01 1.241482067108154297e+01 -1.099986076354980469e+00 -1.118852496147155762e+00 -6.656515598297119141e-01 -1.114965200424194336e+00
1.957000000000000000e+03 3.529309463500976562e+01 1.397438621520996094e+01 -9.713740348815917969e-01 -1.001099705696105957e+00 -5.917420983314514160e-01 -9.668369293212890625e-01
1.958000000000000000e+03 2.034728240966796875e+01 1.136111927032470703e+01 1.301612406969070435e-01 1.609317511320114136e-01 8.732789754867553711e-02 1.438562422990798950e-01
1.959000000000000000e+03 1.978735351562500000e+01 1.149459838867187500e+01 1.214754283428192139e-01 1.653300374746322632e-01 8.604163676500320435e-02 1.430619359016418457e-01
1.960000000000000000e+03 3.847458648681640625e+01 1.853622055053710938e+01 -8.506904840469360352e-01 -9.794402122497558594e-01 -5.490391850471496582e-01 -9.213408827781677246e-01
1.961000000000000000e+03 2.603572082519531250e+01 1.709154891967773438e+01 9.956815093755722046e-02 1.134690493345260620e-01 6.391116231679916382e-02 1.043449863791465759e-01
1.962000000000000000e+03 1.682177352905273438e+01 8.218532562255859375e+00 1.485349386930465698e-01 2.417583465576171875e-01 1.170879900455474854e-01 1.860312670469284058e-01
1.963000000000000000e+03 1.620847892761230469e+01 7.139549732208251953e+00 1.605800539255142212e-01 2.857515811920166016e-01 1.338994950056076050e-01 2.107962965965270996e-01
1.964000000000000000e+03 3.320442581176757812e+01 2.425449562072753906e+01 6.071449816226959229e-02 8.256562799215316772e-02 4.298403859138488770e-02 7.060075551271438599e-02
1.965000000000000000e+03 3.599299621582031250e+01 2.760345268249511719e+01 5.957854911684989929e-02 7.842840999364852905e-02 4.140208661556243896e-02 6.821395456790924072e-02
1.966000000000000000e+03 4.661587905883789062e+01 2.550867462158203125e+01 -6.704582571983337402e-01 -4.720295965671539307e-01 -3.427463471889495850e-01 -5.844381451606750488e-01
1.967000000000000000e+03 3.820632553100585938e+01 1.825298500061035156e+01 -8.735778927803039551e-01 -1.018226146697998047e+00 -5.675411820411682129e-01 -9.357267618179321289e-01
1.968000000000000000e+03 3.927828979492187500e+01 1.875531005859375000e+01 -8.070236444473266602e-01 -8.135705590248107910e-01 -4.861782491207122803e-01 -8.624951839447021484e-01
1.969000000000000000e+03 4.610284042358398438e+01 2.552444267272949219e+01 -7.461457252502441406e-01 -5.834294557571411133e-01 -3.988725543022155762e-01 -6.753522753715515137e-01
1.970000000000000000e+03 2.132254219055175781e+01 1.251741886138916016e+01 1.209022626280784607e-01 1.532229036092758179e-01 8.223754912614822388e-02 1.364122331142425537e-01
1.971000000000000000e+03 3.155058288574218750e+01 1.098009777069091797e+01 -1.209145426750183105e+00 -1.118846535682678223e+00 -6.983975768089294434e-01 -1.083147287368774414e+00
1.972000000000000000e+03 3.268436813354492188e+01 1.162563419342041016e+01 -1.125666141510009766e+00 -1.055769681930541992e+00 -6.544307470321655273e-01 -1.043958902359008789e+00
1.973000000000000000e+03 3.417821502685546875e+01 2.571342468261718750e+01 5.785756185650825500e-02 8.330626040697097778e-02 4.234914854168891907e-02 6.758242845535278320e-02
1.974000000000000000e+03 1.789035415649414062e+01 9.020062446594238281e+00 1.516099274158477783e-01 2.087091654539108276e-01 1.080957278609275818e-01 1.702634990215301514e-01
1.975000000000000000e+03 2.175149536132812500e+01 1.302286529541015625e+01 1.199578270316123962e-01 1.480803787708282471e-01 8.041146397590637207e-02 1.323664188385009766e-01
1.976000000000000000e+03 2.514800834655761719e+01 1.700680160522460938e+01 9.424094110727310181e-02 1.157547831535339355e-01 6.299871951341629028e-02 1.046288087964057922e-01
1.977000000000000000e+03 3.171282386779785156e+01 2.316593933105468750e+01 6.049642339348793030e-02 8.090867102146148682e-02 4.242152720689773560e-02 7.596278190612792969e-02
1.978000000000000000e+03 4.326623916625976562e+01 2.279401397705078125e+01 -8.477306962013244629e-01 -6.817666888236999512e-01 -4.588492214679718018e-01 -7.673653364181518555e-01
1.979000000000000000e+03 4.355283355712890625e+01 2.306973648071289062e+01 -8.432994484901428223e-01 -6.833125948905944824e-01 -4.579836130142211914e-01 -7.600640058517456055e-01
1.980000000000000000e+03 4.744189834594726562e+01 2.629415702819824219e+01 -6.150802969932556152e-01 -4.514098167419433594e-01 -3.199470341205596924e-01 -5.456019639968872070e-01
1.981000000000000000e+03 3.555113601684570312e+01 1.478647994995117188e+01 -9.671251773834228516e-01 -1.058798193931579590e+00 -6.077769994735717773e-01 -1.011888623237609863e+00
1.982000000000000000e+03 3.478567504882812500e+01 1.446048450469970703e+01 -1.032123446464538574e+00 -1.132365584373474121e+00 -6.493467092514038086e-01 -1.071640253067016602e+00
1.983000000000000000e+03 4.186910247802734375e+01 2.195984458923339844e+01 -9.099169373512268066e-01 -7.700037956237792969e-01 -5.039762258529663086e-01 -8.271673321723937988e-01
1.984000000000000000e+03 3.794485855102539062e+01 1.796455192565917969e+01 -8.938333392143249512e-01 -1.053626060485839844e+00 -5.842378139495849609e-01 -9.485431313514709473e-01
1.985000000000000000e+03 4.531216430664062500e+01 2.526009178161621094e+01 -8.471061587333679199e-01 -7.218158841133117676e-01 -4.706766009330749512e-01 -7.683882713317871094e-01
1.986000000000000000e+03 4.582476425170898438e+01 2.525833511352539062e+01 -7.700438499450683594e-01 -6.009829640388488770e-01 -4.113080501556396484e-01 -6.815555691719055176e-01
1.987000000000000000e+03 2.947915649414062500e+01 2.062891387939453125e+01 7.765916734933853149e-02 9.096951037645339966e-02 5.058860406279563904e-02 8.523701876401901245e-02
1.988000000000000000e+03 3.067782783508300781e+01 2.182970428466796875e+01 6.783143430948257446e-02 8.627999573945999146e-02 4.623343050479888916e-02 7.896037399768829346e-02
1.989000000000000000e+03 4.720921325683593750e+01 2.658398818969726562e+01 -6.780894994735717773e-01 -5.491560101509094238e-01 -3.681736588478088379e-01 -6.319838166236877441e-01
1.990000000000000000e+03 3.399263381958007812e+01 1.356630039215087891e+01 -1.071024060249328613e+00 -1.155921578407287598e+00 -6.680836677551269531e-01 -1.074871897697448730e+00
1.991000000000000000e+03 3.529450988769531250e+01 1.450027465820312500e+01 -9.863205552101135254e-01 -1.061653494834899902e+00 -6.143922209739685059e-01 -1.016487717628479004e+00
1.992000000000000000e+03 3.812882232666015625e+01 2.964291763305664062e+01 5.700984224677085876e-02 6.952997297048568726e-02 3.796194493770599365e-02 6.675826013088226318e-02
1.993000000000000000e+03 3.741753387451171875e+01 3.060481262207031250e+01 6.108767166733741760e-02 7.230404019355773926e-02 4.001751542091369629e-02 6.185186654329299927e-02
1.994000000000000000e+03 2.066107559204101562e+01 1.159142875671386719e+01 1.294356733560562134e-01 1.607421189546585083e-01 8.705333620309829712e-02 1.413880139589309692e-01
1.995000000000000000e+03 4.270015335083007812e+01 2.224147605895996094e+01 -8.532343506813049316e-01 -6.876105070114135742e-01 -4.622534513473510742e-01 -7.706409096717834473e-01
1.996000000000000000e+03 4.748135757446289062e+01 2.684866142272949219e+01 -6.703259944915771484e-01 -5.498498678207397461e-01 -3.660527765750885010e-01 -6.207083463668823242e-01
1.997000000000000000e+03 4.810204696655273438e+01 2.793592834472656250e+01 -7.444071769714355469e-01 -6.474642157554626465e-01 -4.175614118576049805e-01 -6.854347586631774902e-01
1.998000000000000000e+03 2.860794639587402344e+01 2.015310859680175781e+01 7.879459112882614136e-02 9.622526913881301880e-02 5.250595882534980774e-02 8.813972771167755127e-02
1.999000000000000000e+03 3.185819435119628906e+01 1.124877548217773438e+01 -1.198179721832275391e+00 -1.115091919898986816e+00 -6.939814686775207520e-01 -1.083071112632751465e+00
2.000000000000000000e+03 3.580932235717773438e+01 1.507650470733642578e+01 -9.550694823265075684e-01 -1.056212782859802246e+00 -6.033846735954284668e-01 -1.002972722053527832e+00
2.001000000000000000e+03 2.937545776367187500e+01 2.127703857421875000e+01 7.046578824520111084e-02 9.241426736116409302e-02 4.886401444673538208e-02 8.242829144001007080e-02
2.002000000000000000e+03 2.775860023498535156e+01 1.909634590148925781e+01 8.594655990600585938e-02 1.017473414540290833e-01 5.630816891789436340e-02 9.371611475944519043e-02
2.003000000000000000e+03 2.858791923522949219e+01 1.941478729248046875e+01 8.673521876335144043e-02 9.541524946689605713e-02 5.464513972401618958e-02 9.191346913576126099e-02
2.004000000000000000e+03 2.248909759521484375e+01 1.341837120056152344e+01 1.236974075436592102e-01 1.438443213701248169e-01 8.026251941919326782e-02 1.302070021629333496e-01
2.005000000000000000e+03 2.194999504089355469e+01 1.331409549713134766e+01 1.186316907405853271e-01 1.456038504838943481e-01 7.927066087722778320e-02 1.298358291387557983e-01
2.006000000000000000e+03 1.900044822692871094e+01 1.066489028930664062e+01 1.250782459974288940e-01 1.800061017274856567e-01 9.152530878782272339e-02 1.527113765478134155e-01
2.007000000000000000e+03 1.819189071655273438e+01 9.289444923400878906e+00 1.492678672075271606e-01 2.051003724336624146e-01 1.063104718923568726e-01 1.645136922597885132e-01
2.008000000000000000e+03 2.752906036376953125e+01 1.881186294555664062e+01 8.801114559173583984e-02 1.034592241048812866e-01 5.744111165404319763e-02 9.551023691892623901e-02
2.009000000000000000e+03 2.549388504028320312e+01 1.721695709228515625e+01 9.431863576173782349e-02 1.141666993498802185e-01 6.254559755325317383e-02 1.031711623072624207e-01
2.010000000000000000e+03 2.850862693786621094e+01 1.974499702453613281e+01 8.163529634475708008e-02 9.632642567157745361e-02 5.338851734995841980e-02 9.031293541193008423e-02
2.011000000000000000e+03 4.384055328369140625e+01 2.334535980224609375e+01 -8.384323716163635254e-01 -6.839706897735595703e-01 -4.567209184169769287e-01 -7.507700324058532715e-01
2.012000000000000000e+03 5.016965484619140625e+01 2.978863334655761719e+01 -6.515291929244995117e-01 -6.428830027580261230e-01 -3.883236646652221680e-01 -6.281013488769531250e-01
2.013000000000000000e+03 5.067714309692382812e+01 2.973595428466796875e+01 -5.125273466110229492e-01 -4.900456368923187256e-01 -3.007718920707702637e-01 -4.707635343074798584e-01
2.014000000000000000e+03 4.004120254516601562e+01 3.135822296142578125e+01 6.330302357673645020e-02 5.997978895902633667e-02 3.698484227061271667e-02 6.304056197404861450e-02
2.015000000000000000e+03 3.975675964355468750e+01 3.100446510314941406e+01 6.914741545915603638e-02 6.285291910171508789e-02 3.960010036826133728e-02 6.065503880381584167e-02
2.016000000000000000e+03 4.898117065429687500e+01 2.872510147094726562e+01 -7.238917946815490723e-01 -6.479975581169128418e-01 -4.115668237209320068e-01 -6.639884114265441895e-01
2.017000000000000000e+03 4.957430267333984375e+01 2.925038337707519531e+01 -6.928067803382873535e-01 -6.442154645919799805e-01 -4.011066854000091553e-01 -6.472744941711425781e-01
2.018000000000000000e+03 3.919142150878906250e+01 3.092344474792480469e+01 7.011789828538894653e-02 6.485214829444885254e-02 4.049101099371910095e-02 6.159359961748123169e-02
2.019000000000000000e+03 3.607173156738281250e+01 1.536668872833251953e+01 -9.432982206344604492e-01 -1.051921486854553223e+00 -5.985658764839172363e-01 -9.939286112785339355e-01
2.020000000000000000e+03 2.355048179626464844e+01 1.564752483367919922e+01 9.598486870527267456e-02 1.301993429660797119e-01 6.785526126623153687e-02 1.131830140948295593e-01
2.021000000000000000e+03 2.347466659545898438e+01 1.468835735321044922e+01 1.106778606772422791e-01 1.342468112707138062e-01 7.347740232944488525e-02 1.196966543793678284e-01
2.022000000000000000e+03 4.291196060180664062e+01 3.498586273193359375e+01 8.268129080533981323e-02 4.550939425826072693e-02 3.845720365643501282e-02 5.463818833231925964e-02
2.023000000000000000e+03 4.304114532470703125e+01 3.437704086303710938e+01 8.306136727333068848e-02 4.362518712878227234e-02 3.800596669316291809e-02 6.140332296490669250e-02
2.024000000000000000e+03 3.453681564331054688e+01 1.361232471466064453e+01 -1.021199464797973633e+00 -1.073054432868957520e+00 -6.282761693000793457e-01 -1.013948321342468262e+00
2.025000000000000000e+03 3.633898544311523438e+01 1.565414619445800781e+01 -9.358512163162231445e-01 -1.048120260238647461e+00 -5.951914191246032715e-01 -9.823035597801208496e-01
2.026000000000000000e+03 3.660894775390625000e+01 1.593918800354003906e+01 -9.271530508995056152e-01 -1.042352080345153809e+00 -5.908515453338623047e-01 -9.721718430519104004e-01
2.027000000000000000e+03 2.012166404724121094e+01 1.170578193664550781e+01 1.225788891315460205e-01 1.629865020513534546e-01 8.566961437463760376e-02 1.401585042476654053e-01
2.028000000000000000e+03 3.744729995727539062e+01 2.968280601501464844e+01 5.781594291329383850e-02 7.062950730323791504e-02 3.853363543748855591e-02 6.390220671892166138e-02
2.029000000000000000e+03 3.687878036499023438e+01 1.622605323791503906e+01 -9.199458956718444824e-01 -1.036929011344909668e+00 -5.870624780654907227e-01 -9.594309329986572266e-01
2.030000000000000000e+03 4.879010772705078125e+01 2.903530120849609375e+01 -8.393876552581787109e-01 -7.634735107421875000e-01 -4.808583557605743408e-01 -7.795732021331787109e-01
2.031000000000000000e+03 3.620517349243164062e+01 2.793537902832031250e+01 6.297028064727783203e-02 7.945152372121810913e-02 4.272654280066490173e-02 6.492602825164794922e-02
2.032000000000000000e+03 4.775224685668945312e+01 2.711319160461425781e+01 -6.648808717727661133e-01 -5.457721948623657227e-01 -3.631959259510040283e-01 -6.113082170486450195e-01
2.033000000000000000e+03 4.829964065551757812e+01 2.763969039916992188e+01 -6.525788307189941406e-01 -5.463064312934875488e-01 -3.596655726432800293e-01 -5.917573571205139160e-01
2.034000000000000000e+03 1.793799209594726562e+01 -2.136130571365356445e+00 -1.590227007865905762e+00 -1.149079203605651855e+00 -8.217918276786804199e-01 -1.022405743598937988e+00
2.035000000000000000e+03 4.337759017944335938e+01 3.685692596435546875e+01 1.253070235252380371e-01 3.608030453324317932e-02 4.841619729995727539e-02 4.789847880601882935e-02
2.036000000000000000e+03 5.838341522216796875e+01 3.256833648681640625e+01 2.091980457305908203e+00 1.146230459213256836e+00 9.714632630348205566e-01 1.630619287490844727e+00
2.037000000000000000e+03 2.686997413635253906e+01 1.726737785339355469e+01 1.048398315906524658e-01 1.117918714880943298e-01 6.498950719833374023e-02 1.058371663093566895e-01
2.038000000000000000e+03 2.322143363952636719e+01 1.413441419601440430e+00 -2.011454105377197266e+00 -3.346199989318847656e-01 -7.038222551345825195e-01 -1.094770669937133789e+00
2.039000000000000000e+03 3.478389358520507812e+01 1.393114280700683594e+01 -1.017834901809692383e+00 -1.071760892868041992e+00 -6.268787384033203125e-01 -1.018037676811218262e+00
2.040000000000000000e+03 3.772693252563476562e+01 3.000775718688964844e+01 6.257632374763488770e-02 7.087260484695434570e-02 4.003467783331871033e-02 6.220202147960662842e-02
2.041000000000000000e+03 3.819899749755859375e+01 3.007131195068359375e+01 6.772113591432571411e-02 6.830303370952606201e-02 4.080725088715553284e-02 6.308954209089279175e-02
2.042000000000000000e+03 4.021780776977539062e+01 3.250346374511718750e+01 6.553164124488830566e-02 6.053510308265686035e-02 3.782002255320549011e-02 5.415764078497886658e-02
2.043000000000000000e+03 3.988022994995117188e+01 3.215960693359375000e+01 6.300771236419677734e-02 6.026062741875648499e-02 3.698050230741500854e-02 6.255229562520980835e-02
2.044000000000000000e+03 4.987117385864257812e+01 2.951755523681640625e+01 -6.753813028335571289e-01 -6.472721695899963379e-01 -3.967960476875305176e-01 -6.363272666931152344e-01
2.045000000000000000e+03 4.148226165771484375e+01 3.309796905517578125e+01 7.512624561786651611e-02 5.414494127035140991e-02 3.878135606646537781e-02 5.550797656178474426e-02
2.046000000000000000e+03 4.503140258789062500e+01 2.498501205444335938e+01 -8.688414692878723145e-01 -7.413921356201171875e-01 -4.830701053142547607e-01 -7.759127020835876465e-01
2.047000000000000000e+03 4.554603958129882812e+01 2.499027824401855469e+01 -7.910998463630676270e-01 -6.182370185852050781e-01 -4.228010475635528564e-01 -6.881843209266662598e-01
2.048000000000000000e+03 4.412780380249023438e+01 2.362063789367675781e+01 -8.356031179428100586e-01 -6.844875812530517578e-01 -4.560272097587585449e-01 -7.382280230522155762e-01
2.049000000000000000e+03 4.868482589721679688e+01 2.846290969848632812e+01 -7.352569699287414551e-01 -6.517942547798156738e-01 -4.161153733730316162e-01 -6.705685853958129883e-01
2.050000000000000000e+03 4.858290100097656250e+01 2.790093612670898438e+01 -6.454849839210510254e-01 -5.473891496658325195e-01 -3.578622639179229736e-01 -5.779429674148559570e-01
2.051000000000000000e+03 3.768662261962890625e+01 1.767195701599121094e+01 -9.104122519493103027e-01 -1.078182578086853027e+00 -5.965784192085266113e-01 -9.630305767059326172e-01
2.052000000000000000e+03 3.959303283691406250e+01 1.899988746643066406e+01 -7.884818911552429199e-01 -7.763432264328002930e-01 -4.694475233554840088e-01 -8.488113880157470703e-01
2.053000000000000000e+03 2.970052719116210938e+01 2.158992385864257812e+01 6.882962584495544434e-02 9.102179110050201416e-02 4.795542731881141663e-02 8.006354421377182007e-02
2.054000000000000000e+03 5.099268722534179688e+01 3.001898384094238281e+01 -4.827499091625213623e-01 -4.786893129348754883e-01 -2.884317636489868164e-01 -4.483179450035095215e-01
2.055000000000000000e+03 2.634842300415039062e+01 1.732925033569335938e+01 9.939908236265182495e-02 1.127982065081596375e-01 6.365918368101119995e-02 1.032809019088745117e-01
2.056000000000000000e+03 4.241984176635742188e+01 2.196397018432617188e+01 -8.493333458900451660e-01 -6.949442028999328613e-01 -4.632832705974578857e-01 -7.688748836517333984e-01
2.057000000000000000e+03 4.181142425537109375e+01 3.336757278442382812e+01 7.519011944532394409e-02 4.992751404643058777e-02 3.753529116511344910e-02 6.187038123607635498e-02
2.058000000000000000e+03 4.052222442626953125e+01 3.279478454589843750e+01 6.961564719676971436e-02 5.348745733499526978e-02 3.693093359470367432e-02 6.023675575852394104e-02
2.059000000000000000e+03 3.380088043212890625e+01 2.547253227233886719e+01 5.849102139472961426e-02 8.203898370265960693e-02 4.215900227427482605e-02 6.992831826210021973e-02
2.060000000000000000e+03 3.714566802978515625e+01 1.651724052429199219e+01 -9.109422564506530762e-01 -1.029138445854187012e+00 -5.820242166519165039e-01 -9.483596086502075195e-01
2.061000000000000000e+03 3.733171463012695312e+01 2.869177627563476562e+01 6.574847549200057983e-02 7.646045088768005371e-02 4.266268014907836914e-02 6.531409174203872681e-02
2.062000000000000000e+03 4.117539215087890625e+01 3.280865478515625000e+01 6.936892122030258179e-02 5.297897756099700928e-02 3.670436888933181763e-02 6.193945184350013733e-02
2.063000000000000000e+03 3.215771865844726562e+01 2.338938903808593750e+01 5.992198735475540161e-02 8.115506172180175781e-02 4.232311621308326721e-02 7.377573102712631226e-02
2.064000000000000000e+03 2.273010444641113281e+01 1.372653293609619141e+01 1.222586333751678467e-01 1.425210833549499512e-01 7.943391054868698120e-02 1.271296143531799316e-01
2.065000000000000000e+03 2.155270767211914062e+01 1.275297260284423828e+01 1.201046705245971680e-01 1.497325599193572998e-01 8.095116913318634033e-02 1.353451907634735107e-01
2.066000000000000000e+03 2.665241813659667969e+01 1.756884193420410156e+01 9.851899743080139160e-02 1.114008352160453796e-01 6.297595053911209106e-02 1.021365076303482056e-01
2.067000000000000000e+03 5.131405258178710938e+01 3.031196403503417969e+01 -4.621335864067077637e-01 -4.596435427665710449e-01 -2.765331566333770752e-01 -4.317550659179687500e-01
2.068000000000000000e+03 2.653016471862792969e+01 1.842317008972167969e+01 8.685956895351409912e-02 1.101009622216224670e-01 5.908815935254096985e-02 9.636233001947402954e-02
2.069000000000000000e+03 2.460309791564941406e+01 1.722781181335449219e+01 8.733871579170227051e-02 1.188913434743881226e-01 6.186901777982711792e-02 1.027324795722961426e-01
2.070000000000000000e+03 3.163586997985839844e+01 9.528000831604003906e+00 -1.053648471832275391e+00 -9.576182365417480469e-01 -6.033800244331359863e-01 -9.049724936485290527e-01
2.071000000000000000e+03 4.474788665771484375e+01 2.470804214477539062e+01 -8.857305645942687988e-01 -7.593360543251037598e-01 -4.935199916362762451e-01 -7.836742401123046875e-01
2.072000000000000000e+03 4.246665573120117188e+01 3.387203979492187500e+01 7.931140065193176270e-02 4.761950299143791199e-02 3.807927295565605164e-02 6.266263872385025024e-02
2.073000000000000000e+03 4.029954528808593750e+01 3.354600524902343750e+01 6.535124778747558594e-02 5.639410018920898438e-02 3.652360290288925171e-02 5.985183268785476685e-02
2.074000000000000000e+03 2.702308082580566406e+01 1.831927108764648438e+01 9.133227169513702393e-02 1.077811419963836670e-01 5.973402410745620728e-02 9.795369952917098999e-02
2.075000000000000000e+03 4.270565414428710938e+01 3.467067337036132812e+01 9.116295725107192993e-02 5.298903584480285645e-02 4.324559867382049561e-02 5.736524611711502075e-02
2.076000000000000000e+03 3.740778350830078125e+01 1.681172752380371094e+01 -9.042827486991882324e-01 -1.019645452499389648e+00 -5.771784782409667969e-01 -9.350352287292480469e-01
2.077000000000000000e+03 3.766506958007812500e+01 1.710671043395996094e+01 -8.957462906837463379e-01 -1.004946708679199219e+00 -5.702078938484191895e-01 -9.230632185935974121e-01
2.078000000000000000e+03 5.729177474975585938e+01 3.208988571166992188e+01 1.382961153984069824e+00 1.008613348007202148e+00 7.174723744392395020e-01 9.615675806999206543e-01
2.079000000000000000e+03 4.216150283813476562e+01 3.423768997192382812e+01 8.348327875137329102e-02 4.847951233386993408e-02 3.958883881568908691e-02 5.470796301960945129e-02
2.080000000000000000e+03 5.292007446289062500e+01 3.224358367919921875e+01 -4.898176193237304688e-01 -2.395081967115402222e-01 -2.187977433204650879e-01 -4.671561717987060547e-01
2.081000000000000000e+03 3.234601974487304688e+01 2.365980720520019531e+01 6.216152384877204895e-02 8.070182800292968750e-02 4.285900667309761047e-02 7.223492115736007690e-02
2.082000000000000000e+03 3.208235168457031250e+01 2.306081962585449219e+01 6.369691342115402222e-02 7.971535623073577881e-02 4.302368313074111938e-02 7.463374733924865723e-02
2.083000000000000000e+03 3.791939926147460938e+01 1.739919853210449219e+01 -8.871294260025024414e-01 -9.867919087409973145e-01 -5.621764063835144043e-01 -9.109318256378173828e-01
2.084000000000000000e+03 1.628039360046386719e+01 8.479115486145019531e+00 1.243193894624710083e-01 2.596605718135833740e-01 1.151939928531646729e-01 1.735458523035049438e-01
2.085000000000000000e+03 3.395792007446289062e+01 1.302251434326171875e+01 -1.033433198928833008e+00 -1.092454075813293457e+00 -6.377661824226379395e-01 -1.035811662673950195e+00
2.086000000000000000e+03 3.699211502075195312e+01 2.979617691040039062e+01 6.150679662823677063e-02 7.762588560581207275e-02 4.173980653285980225e-02 6.452059000730514526e-02
2.087000000000000000e+03 3.061944770812988281e+01 2.243516540527343750e+01 6.231882423162460327e-02 8.718889951705932617e-02 4.485231637954711914e-02 7.835517823696136475e-02
2.088000000000000000e+03 4.638065719604492188e+01 2.578899192810058594e+01 -7.240639328956604004e-01 -5.723970532417297363e-01 -3.889383077621459961e-01 -6.653370857238769531e-01
2.089000000000000000e+03 4.131780242919921875e+01 2.081246566772460938e+01 -7.813304662704467773e-01 -7.205020189285278320e-01 -4.505497217178344727e-01 -7.935788631439208984e-01
2.090000000000000000e+03 4.186116409301757812e+01 2.140068435668945312e+01 -8.204672336578369141e-01 -7.115163803100585938e-01 -4.595950841903686523e-01 -7.745441794395446777e-01
2.091000000000000000e+03 3.368492889404296875e+01 1.277338790893554688e+01 -1.043693065643310547e+00 -1.101513147354125977e+00 -6.435618400573730469e-01 -1.047464847564697266e+00
2.092000000000000000e+03 4.441436004638671875e+01 2.389590835571289062e+01 -8.319007754325866699e-01 -6.798473000526428223e-01 -4.535244107246398926e-01 -7.259098887443542480e-01
2.093000000000000000e+03 4.469989395141601562e+01 2.417132759094238281e+01 -8.280301690101623535e-01 -6.718988418579101562e-01 -4.499786794185638428e-01 -7.127659320831298828e-01
2.094000000000000000e+03 5.266704177856445312e+01 3.249977874755859375e+01 -5.930246114730834961e-01 -4.501826763153076172e-01 -3.129621744155883789e-01 -5.725101828575134277e-01
2.095000000000000000e+03 5.243598175048828125e+01 3.220898056030273438e+01 -5.881910324096679688e-01 -5.072851777076721191e-01 -3.286428749561309814e-01 -5.703226327896118164e-01
2.096000000000000000e+03 2.310498809814453125e+01 1.491692543029785156e+01 1.036083027720451355e-01 1.363421827554702759e-01 7.198514789342880249e-02 1.166233196854591370e-01
2.097000000000000000e+03 5.162488174438476562e+01 3.062731170654296875e+01 -4.554762542247772217e-01 -4.425162971019744873e-01 -2.693977653980255127e-01 -4.164080619812011719e-01
2.098000000000000000e+03 2.287160491943359375e+01 1.458127784729003906e+01 1.075702682137489319e-01 1.386105418205261230e-01 7.385424524545669556e-02 1.184917613863945007e-01
2.099000000000000000e+03 4.498403549194335938e+01 2.444668197631835938e+01 -8.202278017997741699e-01 -6.566306948661804199e-01 -4.430575370788574219e-01 -7.026441097259521484e-01
2.100000000000000000e+03 5.869096374511718750e+01 3.275196075439453125e+01 2.280479669570922852e+00 1.230119466781616211e+00 1.053179740905761719e+00 1.826726794242858887e+00
2.101000000000000000e+03 3.642885589599609375e+01 2.828108024597167969e+01 5.964690446853637695e-02 7.813745737075805664e-02 4.133530706167221069e-02 6.639539450407028198e-02
2.102000000000000000e+03 3.579401016235351562e+01 2.728440284729003906e+01 6.071941554546356201e-02 8.030531555414199829e-02 4.230741783976554871e-02 6.721811741590499878e-02
2.103000000000000000e+03 3.311982727050781250e+01 2.477000617980957031e+01 5.791608244180679321e-02 8.238364011049270630e-02 4.208991676568984985e-02 6.980224698781967163e-02
2.104000000000000000e+03 3.033930778503417969e+01 2.213886070251464844e+01 6.450517475605010986e-02 8.891691267490386963e-02 4.602662473917007446e-02 7.822445034980773926e-02
2.105000000000000000e+03 3.425916671752929688e+01 1.329770088195800781e+01 -1.029674768447875977e+00 -1.078847169876098633e+00 -6.325566172599792480e-01 -1.014414787292480469e+00
2.106000000000000000e+03 2.105383300781250000e+01 1.231244182586669922e+01 1.202873587608337402e-01 1.556873768568038940e-01 8.279241621494293213e-02 1.377161443233489990e-01
2.107000000000000000e+03 2.075864982604980469e+01 1.211515617370605469e+01 1.213916465640068054e-01 1.587268114089965820e-01 8.403553813695907593e-02 1.376235038042068481e-01
2.108000000000000000e+03 3.391830825805664062e+01 2.610624504089355469e+01 5.698345229029655457e-02 8.229500055313110352e-02 4.178353399038314819e-02 6.853707134723663330e-02
2.109000000000000000e+03 3.457857894897460938e+01 2.649377441406250000e+01 5.693709105253219604e-02 8.125854283571243286e-02 4.145869240164756775e-02 6.868012249469757080e-02
2.110000000000000000e+03 3.426939392089843750e+01 2.629028320312500000e+01 5.579535290598869324e-02 8.308249711990356445e-02 4.166335612535476685e-02 6.686957925558090210e-02
2.111000000000000000e+03 5.219305419921875000e+01 3.129356002807617188e+01 -4.605188071727752686e-01 -3.880108892917633057e-01 -2.545589208602905273e-01 -4.161799848079681396e-01
2.112000000000000000e+03 5.309862518310546875e+01 3.254203033447265625e+01 -5.301316976547241211e-01 -1.966377794742584229e-01 -2.180308401584625244e-01 -4.992250204086303711e-01
2.113000000000000000e+03 5.191642379760742188e+01 3.096139717102050781e+01 -4.491235613822937012e-01 -4.097177982330322266e-01 -2.576524019241333008e-01 -4.162157177925109863e-01
2.114000000000000000e+03 5.245503997802734375e+01 3.161726570129394531e+01 -4.682680070400238037e-01 -3.436184227466583252e-01 -2.435659170150756836e-01 -4.318044781684875488e-01
2.115000000000000000e+03 3.690738296508789062e+01 2.902646446228027344e+01 5.764678865671157837e-02 7.671252638101577759e-02 4.030779376626014709e-02 6.520731002092361450e-02
2.116000000000000000e+03 5.301169967651367188e+01 3.106089210510253906e+01 -1.999386250972747803e-01 3.959895670413970947e-02 -4.810190200805664062e-02 -1.642391532659530640e-01
2.117000000000000000e+03 5.269951629638671875e+01 3.193401908874511719e+01 -4.879344999790191650e-01 -2.970055341720581055e-01 -2.354820221662521362e-01 -4.446723759174346924e-01
2.118000000000000000e+03 1.529471015930175781e+01 6.012520790100097656e+00 1.899210214614868164e-01 3.581359684467315674e-01 1.644171029329299927e-01 2.498098462820053101e-01
2.119000000000000000e+03 1.478079891204833984e+01 6.568617820739746094e+00 1.280534118413925171e-01 4.030901789665222168e-01 1.593430787324905396e-01 1.985722482204437256e-01
2.120000000000000000e+03 3.139220809936523438e+01 1.044025039672851562e+01 -1.167160987854003906e+00 -1.068713188171386719e+00 -6.707622408866882324e-01 -1.036294460296630859e+00
2.121000000000000000e+03 1.845223236083984375e+01 1.048556613922119141e+01 1.200976744294166565e-01 1.929306089878082275e-01 9.390848129987716675e-02 1.510733067989349365e-01
2.122000000000000000e+03 1.830387878417968750e+01 1.013419246673583984e+01 1.251350343227386475e-01 1.968781203031539917e-01 9.660394489765167236e-02 1.553406864404678345e-01
2.123000000000000000e+03 1.385777664184570312e+01 5.294839382171630859e+00 1.014595106244087219e-01 6.874355673789978027e-01 2.366685122251510620e-01 1.517026126384735107e-01
2.124000000000000000e+03 1.581652450561523438e+01 7.305928230285644531e+00 1.479520201683044434e-01 3.066284954547882080e-01 1.363741606473922729e-01 1.979586184024810791e-01
2.125000000000000000e+03 1.529778957366943359e+01 6.534929275512695312e+00 1.615304946899414062e-01 3.546029925346374512e-01 1.548400521278381348e-01 2.198857963085174561e-01
2.126000000000000000e+03 5.986554718017578125e+01 3.698580932617187500e+01 1.112868666648864746e+00 5.349265098571777344e+00 1.938640117645263672e+00 -3.271093845367431641e+00
2.127000000000000000e+03 1.383269214630126953e+01 4.696053504943847656e+00 1.324340105056762695e-01 8.642702698707580566e-01 2.990112900733947754e-01 1.723749339580535889e-01
2.128000000000000000e+03 5.825554275512695312e+01 3.182183647155761719e+01 2.171916723251342773e+00 1.958717584609985352e+00 1.239190220832824707e+00 2.120984554290771484e+00
2.129000000000000000e+03 1.286765098571777344e+01 3.848534584045410156e+00 3.784002363681793213e-01 8.260375261306762695e-01 3.613313436508178711e-01 -2.779027819633483887e-01
2.130000000000000000e+03 1.238035869598388672e+01 2.970351219177246094e+00 7.462902665138244629e-01 4.069638252258300781e-01 3.459762334823608398e-01 -3.746646642684936523e-01
2.131000000000000000e+03 3.111477088928222656e+01 5.745306015014648438e+00 -1.070619702339172363e+00 -6.329460144042968750e-01 -5.110697150230407715e-01 -7.680412530899047852e-01
2.132000000000000000e+03 6.157225418090820312e+01 3.189317131042480469e+01 9.298097491264343262e-01 1.470838451385498047e+01 4.691458225250244141e+00 4.510146617889404297e+00
2.133000000000000000e+03 6.316817855834960938e+01 3.120664787292480469e+01 7.359080910682678223e-01 1.498462295532226562e+01 4.716159343719482422e+00 8.410188555717468262e-02
2.134000000000000000e+03 1.666741943359375000e+01 -3.088664293289184570e+00 -9.817836880683898926e-01 -9.255473613739013672e-01 -5.721992850303649902e-01 -8.232422471046447754e-01
2.135000000000000000e+03 1.731875038146972656e+01 -3.755222797393798828e+00 -7.023609876632690430e-01 -1.127542734146118164e+00 -5.489711165428161621e-01 -7.944645881652832031e-01
2.136000000000000000e+03 3.180717468261718750e+01 1.065163898468017578e+01 -1.135733962059020996e+00 -1.047904729843139648e+00 -6.550915837287902832e-01 -1.014890909194946289e+00
2.137000000000000000e+03 3.090859031677246094e+01 9.471446037292480469e+00 -1.146502137184143066e+00 -9.717910289764404297e-01 -6.354879736900329590e-01 -9.572509527206420898e-01
2.138000000000000000e+03 5.957917404174804688e+01 3.644986724853515625e+01 1.417996406555175781e+00 3.801731586456298828e+00 1.565918445587158203e+00 -2.882227659225463867e+00
2.139000000000000000e+03 4.631338882446289062e+01 3.652499008178710938e+01 1.366400569677352905e-01 5.295973643660545349e-02 5.687993764877319336e-02 9.429346770048141479e-02
2.140000000000000000e+03 4.339379501342773438e+01 3.822060012817382812e+01 9.673205018043518066e-02 2.536283619701862335e-02 3.662846609950065613e-02 2.642496675252914429e-02
2.141000000000000000e+03 5.631391906738281250e+01 3.171100425720214844e+01 8.738117814064025879e-01 9.113546013832092285e-01 5.355499386787414551e-01 5.622504353523254395e-01
2.142000000000000000e+03 5.594385147094726562e+01 3.220293426513671875e+01 4.991851150989532471e-01 6.016054153442382812e-01 3.302371501922607422e-01 1.456072479486465454e-01
2.143000000000000000e+03 1.034305953979492188e+01 -4.428568363189697266e+00 -3.913253545761108398e-01 -1.381373703479766846e-01 -1.588388234376907349e-01 -3.973641693592071533e-01
2.144000000000000000e+03 1.039120292663574219e+01 -5.170302867889404297e+00 -3.578178584575653076e-01 -1.535290628671646118e-01 -1.534040719270706177e-01 -4.409137070178985596e-01
2.145000000000000000e+03 3.169054794311523438e+01 6.668840885162353516e+00 -9.001780748367309570e-01 -7.262642979621887207e-01 -4.879327118396759033e-01 -7.889214158058166504e-01
2.146000000000000000e+03 5.645440292358398438e+01 3.127472114562988281e+01 1.145275235176086426e+00 1.218717098236083984e+00 7.091977000236511230e-01 9.355580806732177734e-01
2.147000000000000000e+03 5.679595184326171875e+01 3.216719055175781250e+01 9.898108243942260742e-01 8.238393068313598633e-01 5.440950393676757812e-01 5.933457612991333008e-01
2.148000000000000000e+03 2.938249588012695312e+01 5.181931018829345703e+00 -1.478190064430236816e+00 -8.718423843383789062e-01 -7.050097584724426270e-01 -7.977032065391540527e-01
2.149000000000000000e+03 2.900176429748535156e+01 4.640455722808837891e+00 -1.487015962600708008e+00 -8.614214658737182617e-01 -7.045312523841857910e-01 -7.544944882392883301e-01
2.150000000000000000e+03 2.138427543640136719e+01 7.193460315465927124e-02 -1.774562120437622070e+00 3.127505630254745483e-02 -5.229861140251159668e-01 -1.780694842338562012e+00
2.151000000000000000e+03 5.232854080200195312e+01 4.025736999511718750e+01 3.606329560279846191e-01 -5.270605087280273438e-01 -4.992826655507087708e-02 6.091892719268798828e-01
2.152000000000000000e+03 5.579150009155273438e+01 3.818251037597656250e+01 -5.937537550926208496e-02 2.834142446517944336e-01 6.721165776252746582e-02 5.256022214889526367e-01
2.153000000000000000e+03 5.780957031250000000e+01 3.199800491333007812e+01 1.791298151016235352e+00 1.439301013946533203e+00 9.691797494888305664e-01 1.519395470619201660e+00
2.154000000000000000e+03 1.109004974365234375e+01 -4.477303981781005859e+00 -4.460147917270660400e-01 -1.346229165792465210e-01 -1.741913110017776489e-01 -4.479730725288391113e-01
2.155000000000000000e+03 8.865489006042480469e+00 -4.439193725585937500e+00 -2.946364283561706543e-01 -1.096574142575263977e-01 -1.212881579995155334e-01 -3.142788112163543701e-01
2.156000000000000000e+03 6.186666870117187500e+01 3.657383346557617188e+01 -2.929408252239227295e-01 1.597142219543457031e+01 4.703544616699218750e+00 -2.221575975418090820e+00
2.157000000000000000e+03 8.315735816955566406e+00 3.829474449157714844e+00 1.138256341218948364e-01 -1.997784674167633057e-01 -2.578584849834442139e-02 1.881649196147918701e-01
2.158000000000000000e+03 7.608731746673583984e+00 3.180010318756103516e+00 -1.300735771656036377e-02 -1.630397886037826538e-01 -5.281414464116096497e-02 2.284853458404541016e-01
2.159000000000000000e+03 5.411964035034179688e+01 3.999373245239257812e+01 6.321614980697631836e-01 -1.061152935028076172e+00 -1.286974251270294189e-01 2.985708415508270264e-01
2.160000000000000000e+03 9.604762077331542969e+00 -4.416875362396240234e+00 -3.562923371791839600e-01 -9.344162791967391968e-02 -1.349201947450637817e-01 -3.514367938041687012e-01
2.161000000000000000e+03 7.628052711486816406e+00 4.587966442108154297e+00 1.177712380886077881e-01 -1.646321862936019897e-01 -1.405828725546598434e-02 1.444704532623291016e-01
2.162000000000000000e+03 6.927373409271240234e+00 3.919432878494262695e+00 3.440471738576889038e-02 -1.464481055736541748e-01 -3.361301496624946594e-02 1.822131723165512085e-01
2.163000000000000000e+03 7.618931770324707031e+00 3.874052047729492188e+00 6.761405616998672485e-02 -1.671756356954574585e-01 -2.986847236752510071e-02 1.845411807298660278e-01
2.164000000000000000e+03 3.807202577590942383e+00 5.583837032318115234e+00 2.674609050154685974e-02 -1.180595234036445618e-01 -2.739403024315834045e-02 9.615090489387512207e-02
2.165000000000000000e+03 4.883568286895751953e+00 3.330017328262329102e+00 -3.958036750555038452e-02 -7.970093190670013428e-02 -3.578438982367515564e-02 1.390199512243270874e-01
2.166000000000000000e+03 6.265108108520507812e+00 4.701216697692871094e+00 5.720343813300132751e-02 -1.350549310445785522e-01 -2.335544861853122711e-02 1.458939462900161743e-01
2.167000000000000000e+03 3.863939523696899414e+00 4.820827007293701172e+00 6.229251623153686523e-03 -1.018098518252372742e-01 -2.867417968809604645e-02 1.081977710127830505e-01
2.168000000000000000e+03 1.433114171028137207e+00 4.844474792480468750e+00 1.832112029660493135e-04 -1.009781509637832642e-01 -3.023848310112953186e-02 4.997358471155166626e-02
2.169000000000000000e+03 1.193464756011962891e+01 2.824201345443725586e+00 7.428715825080871582e-01 2.508785948157310486e-02 2.303878366947174072e-01 -2.094553560018539429e-01
2.170000000000000000e+03 1.124326419830322266e+01 3.055928707122802734e+00 5.382813215255737305e-01 -2.073861509561538696e-01 9.926854819059371948e-02 -1.607457734644412994e-02
2.171000000000000000e+03 1.155914497375488281e+01 2.603877067565917969e+00 5.850746035575866699e-01 -2.276199907064437866e-01 1.072363927960395813e-01 4.781389981508255005e-02
2.172000000000000000e+03 5.451478576660156250e+01 3.172876167297363281e+01 6.757282465696334839e-02 4.474498331546783447e-01 1.545068025588989258e-01 -5.796428769826889038e-02
2.173000000000000000e+03 5.506200790405273438e+01 3.226457214355468750e+01 5.717352032661437988e-02 4.405239522457122803e-01 1.493092477321624756e-01 -1.329514831304550171e-01
2.174000000000000000e+03 4.873569869995117188e+01 3.914735794067382812e+01 1.762035042047500610e-01 1.590670458972454071e-02 5.763306096196174622e-02 6.323289871215820312e-02
2.175000000000000000e+03 4.979625225067138672e+00 -4.744400501251220703e+00 -1.117799356579780579e-01 -9.917020052671432495e-02 -6.328504532575607300e-02 -1.613925993442535400e-01
2.176000000000000000e+03 5.780723571777343750e+00 -4.683111667633056641e+00 -1.368062049150466919e-01 -1.051538735628128052e-01 -7.258801907300949097e-02 -1.903636306524276733e-01
2.177000000000000000e+03 6.574828147888183594e+00 -4.615643501281738281e+00 -1.798560470342636108e-01 -9.383129328489303589e-02 -8.210620284080505371e-02 -2.188013941049575806e-01
2.178000000000000000e+03 8.014832496643066406e+00 -3.633555889129638672e+00 -2.567128241062164307e-01 -6.643545627593994141e-02 -9.694448858499526978e-02 -2.239138931035995483e-01
2.179000000000000000e+03 7.355571746826171875e+00 -4.547451019287109375e+00 -2.100832164287567139e-01 -1.032095700502395630e-01 -9.398783743381500244e-02 -2.495605945587158203e-01
2.180000000000000000e+03 3.285101652145385742e+00 -3.919225931167602539e+00 -5.047085136175155640e-02 -6.684549152851104736e-02 -3.519490361213684082e-02 -7.489616423845291138e-02
2.181000000000000000e+03 3.407433748245239258e+00 -5.763905048370361328e+00 -5.077286809682846069e-02 -1.363455951213836670e-01 -5.613553896546363831e-02 -1.329482942819595337e-01
2.182000000000000000e+03 2.623288393020629883e+00 -4.769987106323242188e+00 -3.168314695358276367e-02 -9.117700904607772827e-02 -3.685804829001426697e-02 -7.966253161430358887e-02
2.183000000000000000e+03 2.512734889984130859e+00 -5.660693645477294922e+00 -3.650379180908203125e-02 -1.159613355994224548e-01 -4.573953896760940552e-02 -9.511670470237731934e-02
2.184000000000000000e+03 1.808539581298828125e+01 -3.923599004745483398e+00 -4.210736751556396484e-01 -1.251432895660400391e+00 -5.017519593238830566e-01 -6.413483619689941406e-01
2.185000000000000000e+03 1.598299980163574219e+01 -3.903645038604736328e+00 -7.225064635276794434e-01 -7.668098211288452148e-01 -4.467948675155639648e-01 -7.837818861007690430e-01
2.186000000000000000e+03 4.427117919921875000e+01 3.570183563232421875e+01 1.168375462293624878e-01 4.316579177975654602e-02 4.800100252032279968e-02 5.387296527624130249e-02
2.187000000000000000e+03 1.043525981903076172e+01 3.741139650344848633e+00 3.876022398471832275e-01 -1.770604550838470459e-01 6.316252797842025757e-02 5.448342766612768173e-03
2.188000000000000000e+03 9.020209312438964844e+00 3.782568693161010742e+00 1.843784749507904053e-01 -2.209760397672653198e-01 -1.097926963120698929e-02 1.610742509365081787e-01
2.189000000000000000e+03 5.002871704101562500e+01 3.920025634765625000e+01 1.567775011062622070e-01 1.199982222169637680e-02 5.063319578766822815e-02 8.575402945280075073e-02
2.190000000000000000e+03 2.216133117675781250e+01 7.728330492973327637e-01 -1.887867689132690430e+00 -1.313039064407348633e-01 -6.057514548301696777e-01 -1.537170410156250000e+00
2.191000000000000000e+03 2.358403778076171875e+01 -1.613756418228149414e+00 1.126415371894836426e+00 5.793945789337158203e-01 5.117429494857788086e-01 -6.161210536956787109e-01
2.192000000000000000e+03 4.868096160888671875e+01 3.775465393066406250e+01 2.423256635665893555e-01 5.052338168025016785e-02 8.785471320152282715e-02 8.066818863153457642e-02
2.193000000000000000e+03 1.531150722503662109e+01 -5.944356441497802734e+00 -2.360928952693939209e-01 -6.013507843017578125e-01 -2.512331008911132812e-01 -6.573492884635925293e-01
2.194000000000000000e+03 6.475752258300781250e+01 3.274123001098632812e+01 4.364459991455078125e+00 1.335105133056640625e+01 5.314653396606445312e+00 -1.640103459358215332e+00
2.195000000000000000e+03 6.384938430786132812e+01 3.185023117065429688e+01 2.148632526397705078e+00 1.499669933319091797e+01 5.143599510192871094e+00 -1.161825776100158691e+00
2.196000000000000000e+03 1.185042762756347656e+01 -4.560025691986083984e+00 -4.854188859462738037e-01 -2.142843753099441528e-01 -2.099109739065170288e-01 -5.130753517150878906e-01
2.197000000000000000e+03 1.263496208190917969e+01 -4.666415214538574219e+00 -5.043577551841735840e-01 -2.453161329030990601e-01 -2.249021679162979126e-01 -5.737528204917907715e-01
2.198000000000000000e+03 1.621448516845703125e+01 -4.733022689819335938e+00 -4.800505638122558594e-01 -7.828730940818786621e-01 -3.788771033287048340e-01 -7.155289053916931152e-01
2.199000000000000000e+03 1.515275859832763672e+01 -3.998485803604125977e+00 -7.128892540931701660e-01 -5.604209303855895996e-01 -3.819930553436279297e-01 -7.279897928237915039e-01
2.200000000000000000e+03 1.695001220703125000e+01 -4.326150417327880859e+00 -4.888776540756225586e-01 -9.969350695610046387e-01 -4.457438290119171143e-01 -7.517336010932922363e-01
2.201000000000000000e+03 2.647923660278320312e+01 -3.013989210128784180e+00 6.171146035194396973e-01 2.442345954477787018e-02 1.924614310264587402e-01 -3.130766749382019043e-01
2.202000000000000000e+03 1.925875663757324219e+01 -1.520775699615478516e+01 2.126728743314743042e-01 2.611571922898292542e-02 7.163657993078231812e-02 -2.692345976829528809e-01
2.203000000000000000e+03 2.055914497375488281e+01 -1.750966453552246094e+01 1.899123936891555786e-01 1.642729490995407104e-01 1.062555983662605286e-01 -2.826702892780303955e-01
2.204000000000000000e+03 2.177691078186035156e+01 -1.983006477355957031e+01 1.847781389951705933e-01 2.676737010478973389e-01 1.357355564832687378e-01 -2.953783869743347168e-01
2.205000000000000000e+03 3.658275604248046875e+01 -1.310088729858398438e+01 1.219263672828674316e-01 2.132451236248016357e-01 1.005514487624168396e-01 -3.668111935257911682e-02
2.206000000000000000e+03 3.508155822753906250e+01 -1.091930675506591797e+01 2.159231901168823242e-01 5.936207249760627747e-02 8.258558064699172974e-02 -3.989537060260772705e-02
2.207000000000000000e+03 6.460758972167968750e+01 3.854553222656250000e+01 -8.818152546882629395e-01 1.417841148376464844e+01 3.988978624343872070e+00 1.182266712188720703e+00
2.208000000000000000e+03 6.204477691650390625e+01 4.140734100341796875e+01 -1.720499873161315918e+00 1.141987705230712891e+01 2.909813165664672852e+00 -3.434189856052398682e-01
2.209000000000000000e+03 3.625948333740234375e+01 -1.499868011474609375e+01 2.563247643411159515e-02 1.034199669957160950e-01 3.871573507785797119e-02 1.823817007243633270e-02
2.210000000000000000e+03 3.724674987792968750e+01 -1.424700164794921875e+01 5.877167731523513794e-02 2.857467830181121826e-01 1.033555343747138977e-01 -3.935974836349487305e-02
2.211000000000000000e+03 5.856035614013671875e+01 3.881657409667968750e+01 7.165918946266174316e-01 3.737811565399169922e+00 1.336320996284484863e+00 -1.881279706954956055e+00
2.212000000000000000e+03 5.565355682373046875e+01 3.888554763793945312e+01 1.749359965324401855e-01 2.120602130889892578e-01 1.160988584160804749e-01 1.279684454202651978e-01
2.213000000000000000e+03 3.436535644531250000e+01 -1.008753585815429688e+01 2.142967581748962402e-01 -3.379134461283683777e-02 5.415162444114685059e-02 -6.127547845244407654e-02
2.214000000000000000e+03 2.766936874389648438e+01 -2.851341009140014648e+00 4.468378424644470215e-01 -1.920780837535858154e-01 7.642792910337448120e-02 -1.526987701654434204e-01
2.215000000000000000e+03 3.380314636230468750e+01 -9.055457115173339844e+00 2.900324761867523193e-01 -6.859320402145385742e-02 6.643178313970565796e-02 -7.352545112371444702e-02
2.216000000000000000e+03 3.270927429199218750e+01 -9.626024246215820312e+00 1.964389979839324951e-01 -1.265555024147033691e-01 2.096504531800746918e-02 -6.381037831306457520e-02
2.217000000000000000e+03 2.246156692504882812e+01 -2.080592536926269531e+01 1.784103959798812866e-01 3.231863975524902344e-01 1.504790335893630981e-01 -2.980153262615203857e-01
2.218000000000000000e+03 4.500755691528320312e+01 -2.656576919555664062e+01 -1.398039460182189941e-01 2.219362735748291016e+00 6.238676309585571289e-01 -1.934663802385330200e-01
2.219000000000000000e+03 4.431297683715820312e+01 -2.535080146789550781e+01 -1.263666152954101562e-01 1.968256711959838867e+00 5.525670051574707031e-01 -1.753876656293869019e-01
2.220000000000000000e+03 4.232078933715820312e+01 -2.163191032409667969e+01 -8.425176143646240234e-02 1.285809397697448730e+00 3.604673147201538086e-01 -1.343154907226562500e-01
2.221000000000000000e+03 4.237390899658203125e+01 -2.476576232910156250e+01 -7.869725674390792847e-02 1.285276412963867188e+00 3.619737625122070312e-01 -1.859833300113677979e-01
2.222000000000000000e+03 2.166979217529296875e+01 -2.166452980041503906e+01 1.918651163578033447e-01 2.422949820756912231e-01 1.302480250597000122e-01 -2.964307665824890137e-01
2.223000000000000000e+03 2.454537963867187500e+01 -2.249759101867675781e+01 1.894905716180801392e-01 4.540816545486450195e-01 1.930716633796691895e-01 -3.266445398330688477e-01
2.224000000000000000e+03 4.294045257568359375e+01 -2.288821792602539062e+01 -9.816969931125640869e-02 1.474650263786315918e+00 4.129441678524017334e-01 -1.497743874788284302e-01
2.225000000000000000e+03 3.878515243530273438e+01 -1.625975418090820312e+01 7.290093228220939636e-03 5.265871882438659668e-01 1.601631939411163330e-01 -5.478643998503684998e-02
2.226000000000000000e+03 4.126364517211914062e+01 -1.894017410278320312e+01 -3.892018273472785950e-02 1.038386940956115723e+00 2.998400330543518066e-01 -9.248498082160949707e-02
2.227000000000000000e+03 2.113779640197753906e+01 -1.870693588256835938e+01 1.839031428098678589e-01 2.408608794212341309e-01 1.274292021989822388e-01 -2.823010087013244629e-01
2.228000000000000000e+03 2.548038101196289062e+01 -2.489113998413085938e+01 2.088268548250198364e-01 5.045111179351806641e-01 2.140013873577117920e-01 -3.332667052745819092e-01
2.229000000000000000e+03 2.733906364440917969e+01 -3.609486818313598633e+00 7.030179500579833984e-01 -4.591426998376846313e-02 1.971311122179031372e-01 -2.835025191307067871e-01
2.230000000000000000e+03 7.572048187255859375e+01 1.233286380767822266e+01 -1.346971541643142700e-01 8.539498329162597656e+00 2.521440505981445312e+00 -3.113239407539367676e-01
2.231000000000000000e+03 7.560393524169921875e+01 2.075854301452636719e+01 -2.015595585107803345e-01 7.915224075317382812e+00 2.314099311828613281e+00 -9.350707530975341797e-01
2.232000000000000000e+03 7.689614105224609375e+01 1.516499996185302734e+01 -9.328939765691757202e-02 8.532033920288085938e+00 2.531623363494873047e+00 -3.960675597190856934e-01
2.233000000000000000e+03 7.433959960937500000e+01 1.497216415405273438e+01 -2.581423223018646240e-01 8.282193183898925781e+00 2.407215356826782227e+00 -5.270909070968627930e-01
2.234000000000000000e+03 7.437668609619140625e+01 1.638771438598632812e+01 -2.892995476722717285e-01 8.237838745117187500e+00 2.384561777114868164e+00 -6.391832232475280762e-01
2.235000000000000000e+03 7.562913513183593750e+01 1.647020530700683594e+01 -1.878313720226287842e-01 8.309028625488281250e+00 2.436359167098999023e+00 -5.799700617790222168e-01
2.236000000000000000e+03 7.688277435302734375e+01 1.655489921569824219e+01 -1.062134206295013428e-01 8.395520210266113281e+00 2.486792087554931641e+00 -4.782152771949768066e-01
2.237000000000000000e+03 7.662100982666015625e+01 1.318050622940063477e+00 -2.131657488644123077e-02 8.834789276123046875e+00 2.644042015075683594e+00 2.940797992050647736e-02
2.238000000000000000e+03 7.520617675781250000e+01 -1.616386771202087402e-01 -3.590157628059387207e-02 8.494515419006347656e+00 2.537584066390991211e+00 7.035402208566665649e-02
2.239000000000000000e+03 7.697108459472656250e+01 8.299824714660644531e+00 -4.772045090794563293e-02 8.898336410522460938e+00 2.655184984207153320e+00 -1.092916056513786316e-01
2.240000000000000000e+03 7.571661376953125000e+01 6.939618110656738281e+00 -7.513860613107681274e-02 8.647782325744628906e+00 2.571793079376220703e+00 -8.446242660284042358e-02
2.241000000000000000e+03 7.399643707275390625e+01 -1.786525249481201172e+00 -4.320397228002548218e-02 8.184244155883789062e+00 2.442312002182006836e+00 1.118065416812896729e-01
2.242000000000000000e+03 7.577320098876953125e+01 1.097360324859619141e+01 -1.140927374362945557e-01 8.591956138610839844e+00 2.543359041213989258e+00 -2.379565387964248657e-01
2.243000000000000000e+03 7.442491149902343750e+01 -8.403487205505371094e+00 -2.009389549493789673e-02 8.141613960266113281e+00 2.436455965042114258e+00 1.597650945186614990e-01
2.244000000000000000e+03 7.528877258300781250e+01 -1.538360214233398438e+01 -1.248632464557886124e-02 8.125013351440429688e+00 2.433758020401000977e+00 1.659310907125473022e-01
2.245000000000000000e+03 7.667442321777343750e+01 2.732577085494995117e+00 -3.077864833176136017e-02 8.862580299377441406e+00 2.649540424346923828e+00 7.893471047282218933e-03
2.246000000000000000e+03 7.530935668945312500e+01 2.750682115554809570e+00 -5.455704405903816223e-02 8.543924331665039062e+00 2.546810150146484375e+00 1.845726557075977325e-02
2.247000000000000000e+03 7.579698944091796875e+01 9.627259254455566406e+00 -9.783987700939178467e-02 8.628623962402343750e+00 2.559235095977783203e+00 -1.793094873428344727e-01
2.248000000000000000e+03 7.558744812011718750e+01 -4.378188610076904297e+00 -2.045209147036075592e-02 8.488692283630371094e+00 2.540472030639648438e+00 1.048251017928123474e-01
2.249000000000000000e+03 7.686501312255859375e+01 -5.670618057250976562e+00 -1.070769596844911575e-02 8.740937232971191406e+00 2.619068861007690430e+00 8.152654767036437988e-02
2.250000000000000000e+03 7.565164947509765625e+01 -5.732748508453369141e+00 -1.348314620554447174e-02 8.470961570739746094e+00 2.537243366241455078e+00 1.134047955274581909e-01
2.251000000000000000e+03 7.449756622314453125e+01 3.389180755615234375e+01 6.309621930122375488e-01 6.644646167755126953e+00 2.182682514190673828e+00 -6.674011349678039551e-01
2.252000000000000000e+03 7.398374176025390625e+01 3.021184349060058594e+01 4.144826531410217285e-01 7.203327178955078125e+00 2.285342931747436523e+00 -1.306376218795776367e+00
2.253000000000000000e+03 7.528759002685546875e+01 -1.824035835266113281e+01 -4.914752673357725143e-03 8.042883872985839844e+00 2.411390781402587891e+00 1.651175320148468018e-01
2.254000000000000000e+03 7.538748168945312500e+01 -1.116100120544433594e+01 -1.110726594924926758e-02 8.265779495239257812e+00 2.476401805877685547e+00 1.450763046741485596e-01
2.255000000000000000e+03 7.665696716308593750e+01 -1.256390285491943359e+01 -3.460408654063940048e-03 8.491547584533691406e+00 2.546426296234130859e+00 1.133727654814720154e-01
2.256000000000000000e+03 7.527799987792968750e+01 -1.256325244903564453e+01 -1.142030768096446991e-02 8.213203430175781250e+00 2.460535049438476562e+00 1.513070464134216309e-01
2.257000000000000000e+03 7.530044555664062500e+01 -1.680925369262695312e+01 -4.532735620159655809e-04 8.084473609924316406e+00 2.425206184387207031e+00 1.660981923341751099e-01
2.258000000000000000e+03 7.528629302978515625e+01 -1.967265701293945312e+01 2.873253310099244118e-03 8.005484580993652344e+00 2.402507305145263672e+00 1.690874546766281128e-01
2.259000000000000000e+03 7.663251495361328125e+01 -1.819537353515625000e+01 2.166161779314279556e-03 8.296537399291992188e+00 2.489611148834228516e+00 1.251837015151977539e-01
2.260000000000000000e+03 7.548731231689453125e+01 -2.907610893249511719e+01 1.549217198044061661e-02 7.757740020751953125e+00 2.331969738006591797e+00 1.486397981643676758e-01
2.261000000000000000e+03 7.404653930664062500e+01 -2.249219322204589844e+01 1.094257342629134655e-03 7.690061092376708984e+00 2.307346582412719727e+00 2.031003087759017944e-01
2.262000000000000000e+03 7.565091705322265625e+01 2.501521492004394531e+01 -9.429877251386642456e-02 7.312424659729003906e+00 2.165437698364257812e+00 -1.199536919593811035e+00
2.263000000000000000e+03 7.454927062988281250e+01 2.639397430419921875e+01 -4.304906353354454041e-02 7.447207927703857422e+00 2.221247673034667969e+00 -1.402409911155700684e+00
2.264000000000000000e+03 7.425596618652343750e+01 -2.666237449645996094e+01 1.627448759973049164e-02 7.646652698516845703e+00 2.298878192901611328e+00 1.886219531297683716e-01
2.265000000000000000e+03 7.681580352783203125e+01 -2.648510169982910156e+01 1.963963964954018593e-03 8.049762725830078125e+00 2.415518045425415039e+00 1.181335225701332092e-01
2.266000000000000000e+03 7.540228271484375000e+01 -2.383072280883789062e+01 1.094940234906971455e-03 7.900012016296386719e+00 2.370332002639770508e+00 1.592067629098892212e-01
2.267000000000000000e+03 7.688485717773437500e+01 2.641413116455078125e+01 -1.166866812855005264e-02 6.689160346984863281e+00 2.003247499465942383e+00 -9.988421797752380371e-01
2.268000000000000000e+03 7.569519042968750000e+01 2.638166999816894531e+01 -3.021061047911643982e-02 7.085641384124755859e+00 2.116629362106323242e+00 -1.230021953582763672e+00
2.269000000000000000e+03 7.482532501220703125e+01 -3.192524337768554688e+01 3.384616598486900330e-02 7.591047286987304688e+00 2.287468194961547852e+00 1.391733735799789429e-01
2.270000000000000000e+03 7.560205841064453125e+01 -3.612516403198242188e+01 7.683150935918092728e-03 7.624921321868896484e+00 2.289781332015991211e+00 5.517109856009483337e-02
2.271000000000000000e+03 7.658311462402343750e+01 -3.699699783325195312e+01 -1.439272798597812653e-02 7.869451999664306641e+00 2.356517791748046875e+00 7.125942409038543701e-02
2.272000000000000000e+03 7.670892333984375000e+01 2.923897552490234375e+01 1.200099438428878784e-01 6.158867359161376953e+00 1.883663296699523926e+00 -9.771553277969360352e-01
2.273000000000000000e+03 7.566874694824218750e+01 2.773811912536621094e+01 6.307414174079895020e-02 6.862389087677001953e+00 2.077638864517211914e+00 -1.229493141174316406e+00
2.274000000000000000e+03 7.520304870605468750e+01 -3.041815757751464844e+01 2.614893950521945953e-02 7.673941135406494141e+00 2.310027122497558594e+00 1.478078067302703857e-01
2.275000000000000000e+03 7.433715057373046875e+01 -2.885549163818359375e+01 1.842137239873409271e-02 7.581949710845947266e+00 2.280111312866210938e+00 1.805835813283920288e-01
2.276000000000000000e+03 7.636110687255859375e+01 -3.209852218627929688e+01 1.353769004344940186e-02 7.791873455047607422e+00 2.341623306274414062e+00 9.769763052463531494e-02
2.277000000000000000e+03 7.479196166992187500e+01 3.210298919677734375e+01 4.996488690376281738e-01 6.659253120422363281e+00 2.147670507431030273e+00 -9.563231468200683594e-01
2.278000000000000000e+03 2.500719451904296875e+01 -2.368549537658691406e+01 1.904975473880767822e-01 4.843062162399291992e-01 2.024411261081695557e-01 -3.234163522720336914e-01
2.279000000000000000e+03 7.669331359863281250e+01 3.516109466552734375e+01 1.871457248926162720e-01 5.327583789825439453e+00 1.654418826103210449e+00 -3.784666955471038818e-01
2.280000000000000000e+03 3.891503906250000000e+01 -1.827674674987792969e+01 -4.051144048571586609e-02 5.160738825798034668e-01 1.426687389612197876e-01 -3.826271370053291321e-02
2.281000000000000000e+03 2.599169731140136719e+01 -2.610887908935546875e+01 2.038144618272781372e-01 5.249155759811401367e-01 2.186190187931060791e-01 -3.408400118350982666e-01
2.282000000000000000e+03 4.893892288208007812e+00 -1.462272357940673828e+01 2.413791045546531677e-02 -5.320705175399780273e-01 -1.523797810077667236e-01 -2.664471864700317383e-01
2.283000000000000000e+03 3.834184169769287109e+00 2.150723266601562500e+01 -2.392284106463193893e-03 -1.091827154159545898e-01 -3.347250074148178101e-02 -1.922751963138580322e-02
2.284000000000000000e+03 2.734259128570556641e+00 2.028490257263183594e+01 -9.486724738962948322e-04 -1.373188942670822144e-01 -4.148026928305625916e-02 -1.696549914777278900e-02
2.285000000000000000e+03 4.781108379364013672e+00 -1.616633605957031250e+01 3.243790194392204285e-02 -5.984498262405395508e-01 -1.698035746812820435e-01 -2.508445084095001221e-01
2.286000000000000000e+03 4.653452873229980469e+00 -2.048566246032714844e+01 3.178751468658447266e-02 -7.465651631355285645e-01 -2.144332975149154663e-01 -1.884426325559616089e-01
2.287000000000000000e+03 3.809157133102416992e+00 1.883382415771484375e+01 -8.107454632408916950e-04 -1.158526316285133362e-01 -3.499901294708251953e-02 -2.109499648213386536e-02
2.288000000000000000e+03 2.732427358627319336e+00 1.891590881347656250e+01 -1.059688976965844631e-03 -1.426347345113754272e-01 -4.310832917690277100e-02 -1.777401193976402283e-02
2.289000000000000000e+03 3.874180555343627930e+00 1.609634399414062500e+01 4.357085563242435455e-03 -1.204085499048233032e-01 -3.481543809175491333e-02 -2.011387422680854797e-02
2.290000000000000000e+03 2.771829843521118164e+00 1.476182651519775391e+01 4.786294884979724884e-03 -1.568627804517745972e-01 -4.562294483184814453e-02 -1.424171216785907745e-02
2.291000000000000000e+03 4.768838882446289062e+00 -2.695285797119140625e+01 2.958746440708637238e-02 -9.048752188682556152e-01 -2.625863254070281982e-01 -1.231134310364723206e-01
2.292000000000000000e+03 3.294811010360717773e+00 -2.328211402893066406e+01 1.535245962440967560e-02 -9.132871627807617188e-01 -2.693804204463958740e-01 -1.193188726902008057e-01
2.293000000000000000e+03 4.689681529998779297e+00 -2.189815521240234375e+01 3.443259373307228088e-02 -7.867595553398132324e-01 -2.256980836391448975e-01 -1.754207015037536621e-01
2.294000000000000000e+03 3.884688854217529297e+00 1.330721950531005859e+01 1.400181837379932404e-02 -1.257151067256927490e-01 -3.351398557424545288e-02 -1.129381917417049408e-02
2.295000000000000000e+03 4.009284973144531250e+00 2.421507072448730469e+01 -3.094552550464868546e-03 -1.001099720597267151e-01 -3.096135891973972321e-02 -1.652606762945652008e-02
2.296000000000000000e+03 4.160732269287109375e+00 2.560288047790527344e+01 -3.354851622134447098e-03 -9.535212814807891846e-02 -2.961209230124950409e-02 -1.504866033792495728e-02
2.297000000000000000e+03 4.541117191314697266e+00 2.847741317749023438e+01 -3.127759788185358047e-03 -8.569208532571792603e-02 -2.664595469832420349e-02 -1.178623456507921219e-02
2.298000000000000000e+03 6.111166000366210938e+00 -1.627804183959960938e+01 4.934322088956832886e-02 -5.667417645454406738e-01 -1.552195698022842407e-01 -2.855011522769927979e-01
2.299000000000000000e+03 4.690936565399169922e+00 -1.763342285156250000e+01 3.338244557380676270e-02 -6.519547700881958008e-01 -1.855717003345489502e-01 -2.244829237461090088e-01
2.300000000000000000e+03 6.220253944396972656e+00 -2.324857902526855469e+01 4.900988191366195679e-02 -7.392926812171936035e-01 -2.070848494768142700e-01 -1.946073323488235474e-01
2.301000000000000000e+03 4.726795673370361328e+00 -2.332900428771972656e+01 2.476240135729312897e-02 -8.235252499580383301e-01 -2.396288663148880005e-01 -1.561630815267562866e-01
2.302000000000000000e+03 3.235023975372314453e+00 -2.460598754882812500e+01 1.308168470859527588e-02 -9.526204466819763184e-01 -2.818616330623626709e-01 -1.059822589159011841e-01
2.303000000000000000e+03 3.957599639892578125e+00 -1.034338378906250000e+01 -1.354248635470867157e-02 -3.524612486362457275e-01 -1.098011210560798645e-01 -2.375327050685882568e-01
2.304000000000000000e+03 3.706659317016601562e+00 -9.102528572082519531e+00 -3.223965317010879517e-02 -2.854524850845336914e-01 -9.530764073133468628e-02 -2.124317884445190430e-01
2.305000000000000000e+03 4.716334819793701172e+00 -1.307723712921142578e+01 1.587113179266452789e-02 -4.777806699275970459e-01 -1.385728567838668823e-01 -2.755309939384460449e-01
2.306000000000000000e+03 2.996634006500244141e+00 2.582095718383789062e+01 -1.817404176108539104e-03 -1.136516183614730835e-01 -3.464070707559585571e-02 -1.232599467039108276e-02
2.307000000000000000e+03 4.949980735778808594e+00 2.267281913757324219e+01 -4.062230698764324188e-03 -8.450587838888168335e-02 -2.657043188810348511e-02 -1.963951997458934784e-02
2.308000000000000000e+03 3.900991678237915039e+00 2.285186767578125000e+01 -3.050209954380989075e-03 -1.050070151686668396e-01 -3.241716697812080383e-02 -1.801574416458606720e-02
2.309000000000000000e+03 4.848334789276123047e+00 1.047477531433105469e+01 4.362748563289642334e-02 -1.075157076120376587e-01 -1.916646584868431091e-02 1.116108242422342300e-02
2.310000000000000000e+03 3.616892576217651367e+00 -2.988866233825683594e+01 8.660390973091125488e-03 -1.050647854804992676e+00 -3.125962316989898682e-01 -7.481388002634048462e-02
2.311000000000000000e+03 5.072018146514892578e+00 -2.828313255310058594e+01 2.383196353912353516e-02 -9.102958440780639648e-01 -2.659391760826110840e-01 -1.158701851963996887e-01
2.312000000000000000e+03 6.031758785247802734e+00 3.516062927246093750e+01 -3.136409213766455650e-03 -6.360919773578643799e-02 -2.002368308603763580e-02 -5.513157695531845093e-03
2.313000000000000000e+03 3.874703407287597656e+00 3.637460708618164062e+01 8.683835767442360520e-05 -9.042666107416152954e-02 -2.710194699466228485e-02 -5.444076377898454666e-03
2.314000000000000000e+03 3.771735668182373047e+00 1.054743194580078125e+01 3.023073822259902954e-02 -1.347830742597579956e-01 -3.136570006608963013e-02 1.307613402605056763e-02
2.315000000000000000e+03 4.291859626770019531e+00 -1.165541744232177734e+01 -7.932435721158981323e-03 -4.089618921279907227e-01 -1.250682920217514038e-01 -2.567507326602935791e-01
2.316000000000000000e+03 4.262621402740478516e+00 -5.757897377014160156e+00 -8.117048442363739014e-02 -1.371293962001800537e-01 -6.548996269702911377e-02 -1.672714501619338989e-01
2.317000000000000000e+03 6.200210094451904297e+00 -3.008308029174804688e+01 3.178972005844116211e-02 -8.576925396919250488e-01 -2.477708458900451660e-01 -1.230701282620429993e-01
2.318000000000000000e+03 5.068738937377929688e+00 -2.964271926879882812e+01 2.782827615737915039e-02 -9.322482347488403320e-01 -2.713259756565093994e-01 -1.046326756477355957e-01
2.319000000000000000e+03 5.157494068145751953e+00 -3.089408302307128906e+01 1.889058388769626617e-02 -9.610329866409301758e-01 -2.826427221298217773e-01 -9.648077934980392456e-02
2.320000000000000000e+03 3.785674333572387695e+00 -3.130164527893066406e+01 1.941063627600669861e-02 -1.054480552673339844e+00 -3.105209767818450928e-01 -6.905571371316909790e-02
2.321000000000000000e+03 4.837461948394775391e+00 3.155754280090332031e+01 -2.785581629723310471e-03 -7.959944754838943481e-02 -2.471550926566123962e-02 -8.913016878068447113e-03
2.322000000000000000e+03 4.515890598297119141e+00 3.481057357788085938e+01 -9.436006657779216766e-04 -8.259094506502151489e-02 -2.506036311388015747e-02 -4.979123827069997787e-03
2.323000000000000000e+03 3.334572076797485352e+00 3.312273406982421875e+01 -8.648341172374784946e-04 -9.649554640054702759e-02 -2.920811437070369720e-02 -6.125174928456544876e-03
2.324000000000000000e+03 4.723178386688232422e+00 2.998842620849609375e+01 -2.958347555249929428e-03 -8.185465633869171143e-02 -2.544390037655830383e-02 -1.072224788367748260e-02
2.325000000000000000e+03 3.680742025375366211e+00 7.927398681640625000e+00 3.971583023667335510e-02 -1.352831721305847168e-01 -2.867020107805728912e-02 5.296308919787406921e-02
2.326000000000000000e+03 2.929610729217529297e+00 5.280327796936035156e+00 9.532835334539413452e-03 -1.079586297273635864e-01 -2.952773869037628174e-02 8.417059481143951416e-02
2.327000000000000000e+03 2.479225635528564453e+00 -6.758997440338134766e+00 -2.414074167609214783e-02 -1.625642180442810059e-01 -5.601149052381515503e-02 -1.160265877842903137e-01
2.328000000000000000e+03 6.822813987731933594e+00 -3.653605270385742188e+01 3.376265987753868103e-02 -8.697259426116943359e-01 -2.507889866828918457e-01 -5.944631248712539673e-02
2.329000000000000000e+03 4.558598327636718750e+01 -3.064638137817382812e+01 -2.019960805773735046e-02 2.892478942871093750e+00 8.616837859153747559e-01 -1.471821665763854980e-01
2.330000000000000000e+03 4.663843536376953125e+01 -2.854556465148925781e+01 -1.030190363526344299e-01 2.910190820693969727e+00 8.421515226364135742e-01 -8.207211270928382874e-03
2.331000000000000000e+03 2.491459465026855469e+01 -2.898412895202636719e+01 2.613085508346557617e-01 4.035679101943969727e-01 1.994629353284835815e-01 -3.208647370338439941e-01
2.332000000000000000e+03 1.772240638732910156e+01 -1.306151390075683594e+01 2.232771366834640503e-01 -1.825323402881622314e-01 1.222344208508729935e-02 -2.937061190605163574e-01
2.333000000000000000e+03 1.873158454895019531e+01 -1.219277000427246094e+01 2.102809250354766846e-01 -5.470698699355125427e-02 4.667218029499053955e-02 -2.420864105224609375e-01
2.334000000000000000e+03 3.314265060424804688e+01 -7.999402046203613281e+00 3.345555365085601807e-01 -1.203361526131629944e-01 6.426581740379333496e-02 -7.754060626029968262e-02
2.335000000000000000e+03 2.589439773559570312e+01 -1.283384323120117188e+00 1.958020180463790894e-01 -1.015903502702713013e-01 2.826349996030330658e-02 -1.936372369527816772e-01
2.336000000000000000e+03 2.284114837646484375e+01 1.150818586349487305e+00 -1.891677021980285645e+00 -2.350112944841384888e-01 -6.380065083503723145e-01 -1.141691565513610840e+00
2.337000000000000000e+03 4.661279678344726562e+01 -3.161287498474121094e+01 9.648013859987258911e-02 3.333606004714965820e+00 1.029025793075561523e+00 4.318175092339515686e-02
2.338000000000000000e+03 6.662194061279296875e+01 3.663559341430664062e+01 1.690600991249084473e+00 1.193102741241455078e+01 4.086488723754882812e+00 1.322248220443725586e+00
2.339000000000000000e+03 1.562032508850097656e+01 -9.494192123413085938e+00 1.420765668153762817e-01 -4.857700169086456299e-01 -1.031080335378646851e-01 -4.461748003959655762e-01
2.340000000000000000e+03 1.722809600830078125e+01 -7.324745655059814453e+00 3.097157180309295654e-02 -6.849195361137390137e-01 -1.961843967437744141e-01 -4.382364749908447266e-01
2.341000000000000000e+03 6.647395324707031250e+01 3.853234481811523438e+01 2.413737773895263672e-01 1.253473281860351562e+01 3.832832098007202148e+00 1.277881264686584473e+00
2.342000000000000000e+03 2.838534736633300781e+01 -3.319051742553710938e+01 3.906718492507934570e-01 5.382296442985534668e-01 2.786704599857330322e-01 -3.334256112575531006e-01
2.343000000000000000e+03 3.141629600524902344e+01 -7.409206390380859375e+00 3.652389347553253174e-01 -1.710802316665649414e-01 5.824760347604751587e-02 -1.105804815888404846e-01
2.344000000000000000e+03 3.250346755981445312e+01 -6.949695110321044922e+00 4.091499447822570801e-01 -1.683283448219299316e-01 7.224648445844650269e-02 -8.702462166547775269e-02
2.345000000000000000e+03 3.590692138671875000e+01 -1.187725257873535156e+01 1.457535326480865479e-01 1.355445384979248047e-01 8.438941836357116699e-02 -4.912406206130981445e-02
2.346000000000000000e+03 2.747085380554199219e+01 -4.128411483764648438e+01 4.754717648029327393e-01 3.160390257835388184e-01 2.374532371759414673e-01 -4.846468567848205566e-02
2.347000000000000000e+03 3.118378448486328125e+01 -3.865606689453125000e+01 6.563035845756530762e-01 4.383406937122344971e-01 3.283932805061340332e-01 -2.915886342525482178e-01
2.348000000000000000e+03 2.659318351745605469e+01 -3.532949829101562500e+01 3.868423402309417725e-01 3.773540556430816650e-01 2.292589247226715088e-01 -2.516583204269409180e-01
2.349000000000000000e+03 4.813576126098632812e+01 -4.142942810058593750e+01 9.249264001846313477e-01 3.592720270156860352e+00 1.355293989181518555e+00 2.495777420699596405e-02
2.350000000000000000e+03 2.473830223083496094e+01 -2.652087974548339844e+01 2.249587625265121460e-01 4.226253330707550049e-01 1.942752301692962646e-01 -3.231328427791595459e-01
2.351000000000000000e+03 2.025231361389160156e+01 -1.452246093750000000e+01 2.091972678899765015e-01 1.574946641921997070e-01 1.100075840950012207e-01 -2.437903583049774170e-01
2.352000000000000000e+03 5.167165374755859375e+01 -3.047553634643554688e+01 1.903307586908340454e-01 3.924720525741577148e+00 1.234515428543090820e+00 3.216671943664550781e-01
2.353000000000000000e+03 4.810837554931640625e+01 -2.905441284179687500e+01 -3.134540840983390808e-02 3.299885272979736328e+00 9.805619716644287109e-01 1.082865148782730103e-01
2.354000000000000000e+03 5.951756286621093750e+01 3.215440368652343750e+01 3.161104679107666016e+00 3.910284996032714844e+00 2.121416807174682617e+00 3.982680320739746094e+00
2.355000000000000000e+03 2.782295799255371094e+01 3.860682964324951172e+00 -1.581508398056030273e+00 -7.731842994689941406e-01 -7.064078450202941895e-01 -8.049440979957580566e-01
2.356000000000000000e+03 2.708358764648437500e+01 4.286937236785888672e+00 -1.923225283622741699e+00 -8.267702460289001465e-01 -8.249986767768859863e-01 -1.083195805549621582e+00
2.357000000000000000e+03 2.645171165466308594e+01 3.235696315765380859e+00 -1.836955904960632324e+00 -6.117368936538696289e-01 -7.346078753471374512e-01 -8.686773777008056641e-01
2.358000000000000000e+03 2.569457244873046875e+01 2.619917631149291992e+00 -1.878666520118713379e+00 -4.942041635513305664e-01 -7.118611931800842285e-01 -8.088872432708740234e-01
2.359000000000000000e+03 2.391757774353027344e+01 1.487099051475524902e+00 -1.887474417686462402e+00 -2.800154387950897217e-01 -6.502469778060913086e-01 -8.307275176048278809e-01
2.360000000000000000e+03 2.487205123901367188e+01 -2.278532534837722778e-01 -3.555968403816223145e-01 7.901182025671005249e-02 -8.297550678253173828e-02 -1.979484409093856812e-01
2.361000000000000000e+03 2.502152824401855469e+01 2.337881326675415039e+00 -1.977683305740356445e+00 -3.996982276439666748e-01 -7.132144570350646973e-01 -8.436042070388793945e-01
2.362000000000000000e+03 2.633065032958984375e+01 2.500809669494628906e+00 -1.665251493453979492e+00 -5.075693130493164062e-01 -6.518462300300598145e-01 -6.897957324981689453e-01
2.363000000000000000e+03 2.525699996948242188e+01 2.132493495941162109e+00 -1.751609325408935547e+00 -4.223854541778564453e-01 -6.521984338760375977e-01 -7.475712895393371582e-01
2.364000000000000000e+03 2.615830421447753906e+01 2.951890945434570312e+00 -1.836116194725036621e+00 -5.359048247337341309e-01 -7.116063237190246582e-01 -8.280375003814697266e-01
2.365000000000000000e+03 2.752836799621582031e+01 3.829019784927368164e+00 -1.691294789314270020e+00 -7.839002013206481934e-01 -7.425584793090820312e-01 -8.650761246681213379e-01
2.366000000000000000e+03 2.710731887817382812e+01 3.792214870452880859e+00 -1.807303905487060547e+00 -7.610539793968200684e-01 -7.705073356628417969e-01 -9.376950860023498535e-01
2.367000000000000000e+03 2.768234634399414062e+01 4.194222927093505859e+00 -1.721110105514526367e+00 -8.522022962570190430e-01 -7.719936966896057129e-01 -9.378873705863952637e-01
2.368000000000000000e+03 5.863625717163085938e+01 3.168033981323242188e+01 2.490496635437011719e+00 2.825891256332397461e+00 1.594916343688964844e+00 2.836175203323364258e+00
2.369000000000000000e+03 2.926145935058593750e+01 5.014448642730712891e+00 -1.483048558235168457e+00 -8.638511896133422852e-01 -7.040699124336242676e-01 -7.797490358352661133e-01
2.370000000000000000e+03 2.425207519531250000e+01 -2.453003972768783569e-01 -6.339564919471740723e-01 1.435230076313018799e-01 -1.471300572156906128e-01 -3.819028139114379883e-01
2.371000000000000000e+03 1.943151283264160156e+01 1.128401756286621094e+01 1.204538568854331970e-01 1.714891642332077026e-01 8.758290857076644897e-02 1.449501514434814453e-01
2.372000000000000000e+03 1.913003730773925781e+01 1.102498340606689453e+01 1.189245954155921936e-01 1.755399554967880249e-01 8.833936601877212524e-02 1.476291418075561523e-01
2.373000000000000000e+03 3.992748260498046875e+01 1.924289894104003906e+01 -7.701944112777709961e-01 -7.388016581535339355e-01 -4.526988267898559570e-01 -8.357118964195251465e-01
2.374000000000000000e+03 4.081085586547851562e+01 2.019342994689941406e+01 -7.552059888839721680e-01 -7.088717222213745117e-01 -4.392233192920684814e-01 -8.058479428291320801e-01
2.375000000000000000e+03 4.106105041503906250e+01 2.051130867004394531e+01 -7.648576498031616211e-01 -7.189276218414306641e-01 -4.451355636119842529e-01 -8.005262613296508789e-01
2.376000000000000000e+03 3.898141860961914062e+01 1.850248908996582031e+01 -8.251245021820068359e-01 -8.550835251808166504e-01 -5.040624141693115234e-01 -8.728404641151428223e-01
2.377000000000000000e+03 4.158515167236328125e+01 2.110956001281738281e+01 -8.003234863281250000e-01 -7.156244516372680664e-01 -4.547843933105468750e-01 -7.842897176742553711e-01
2.378000000000000000e+03 3.509537506103515625e+01 2.696141433715820312e+01 5.781792476773262024e-02 7.999466359615325928e-02 4.134377837181091309e-02 6.945532560348510742e-02
2.379000000000000000e+03 3.484171676635742188e+01 2.674082374572753906e+01 5.666761845350265503e-02 8.238893002271652222e-02 4.171696305274963379e-02 6.723611056804656982e-02
2.380000000000000000e+03 3.245441055297851562e+01 1.130240345001220703e+01 -1.124022960662841797e+00 -1.047963619232177734e+00 -6.515959501266479492e-01 -1.028494477272033691e+00
2.381000000000000000e+03 3.870023727416992188e+01 1.823971939086914062e+01 -8.442516922950744629e-01 -8.927173018455505371e-01 -5.210906863212585449e-01 -8.832799196243286133e-01
2.382000000000000000e+03 2.383566856384277344e+01 1.657298660278320312e+01 8.747461438179016113e-02 1.245050430297851562e-01 6.359389424324035645e-02 1.070016622543334961e-01
2.383000000000000000e+03 2.397655487060546875e+01 1.539421653747558594e+01 1.020953729748725891e-01 1.271535605192184448e-01 6.877468526363372803e-02 1.161404922604560852e-01
2.384000000000000000e+03 1.754548263549804688e+01 8.777028083801269531e+00 1.523863673210144043e-01 2.169674485921859741e-01 1.108061447739601135e-01 1.729587465524673462e-01
2.385000000000000000e+03 2.433918952941894531e+01 1.661990356445312500e+01 9.168507903814315796e-02 1.213311254978179932e-01 6.390485912561416626e-02 1.075107157230377197e-01
2.386000000000000000e+03 3.255059814453125000e+01 2.390640640258789062e+01 5.873012542724609375e-02 8.245116472244262695e-02 4.235438629984855652e-02 7.268682122230529785e-02
2.387000000000000000e+03 3.301787567138671875e+01 2.396467399597167969e+01 5.838488787412643433e-02 8.253993839025497437e-02 4.227744787931442261e-02 7.135133445262908936e-02
2.388000000000000000e+03 4.685186004638671875e+01 2.523198127746582031e+01 -6.167581677436828613e-01 -3.733055889606475830e-01 -2.970191240310668945e-01 -5.003515481948852539e-01
2.389000000000000000e+03 4.716999816894531250e+01 2.603218650817871094e+01 -6.304836869239807129e-01 -4.539884924888610840e-01 -3.253416419029235840e-01 -5.595876574516296387e-01
2.390000000000000000e+03 4.214041137695312500e+01 2.168462944030761719e+01 -8.379719257354736328e-01 -7.031893134117126465e-01 -4.623483717441558838e-01 -7.707704901695251465e-01
2.391000000000000000e+03 2.114185905456542969e+01 1.273612594604492188e+01 1.159547641873359680e-01 1.531564146280288696e-01 8.073335886001586914e-02 1.339095681905746460e-01
2.392000000000000000e+03 2.044574737548828125e+01 1.191327571868896484e+01 1.211422979831695557e-01 1.602684706449508667e-01 8.442322909832000732e-02 1.389660388231277466e-01
2.393000000000000000e+03 1.957582092285156250e+01 1.187244129180908203e+01 1.131686791777610779e-01 1.682835817337036133e-01 8.443567901849746704e-02 1.378425061702728271e-01
2.394000000000000000e+03 3.843235397338867188e+01 1.796730804443359375e+01 -8.608605265617370605e-01 -9.304486513137817383e-01 -5.373927354812622070e-01 -8.916401267051696777e-01
2.395000000000000000e+03 3.949451446533203125e+01 1.842311668395996094e+01 -7.940436601638793945e-01 -7.459095120429992676e-01 -4.619859457015991211e-01 -8.242663741111755371e-01
2.396000000000000000e+03 4.633781433105468750e+01 2.524797248840332031e+01 -6.933089494705200195e-01 -4.871163070201873779e-01 -3.541275858879089355e-01 -5.934827327728271484e-01
2.397000000000000000e+03 2.087891578674316406e+01 1.259387493133544922e+01 1.157929375767707825e-01 1.559446752071380615e-01 8.152128756046295166e-02 1.338226348161697388e-01
2.398000000000000000e+03 4.298222351074218750e+01 2.251812934875488281e+01 -8.528773188591003418e-01 -6.831377744674682617e-01 -4.608045220375061035e-01 -7.702773809432983398e-01
2.399000000000000000e+03 4.381054687500000000e+01 2.281161689758300781e+01 -7.826468944549560547e-01 -6.042185425758361816e-01 -4.160596132278442383e-01 -6.891083121299743652e-01
2.400000000000000000e+03 3.581424713134765625e+01 2.816179656982421875e+01 5.751300230622291565e-02 7.818158715963363647e-02 4.070837795734405518e-02 6.618426740169525146e-02
2.401000000000000000e+03 1.791487884521484375e+01 9.532153129577636719e+00 1.360620558261871338e-01 2.065118104219436646e-01 1.027721539139747620e-01 1.613537669181823730e-01
2.402000000000000000e+03 1.686556625366210938e+01 8.970565795898437500e+00 1.300863176584243774e-01 2.353965193033218384e-01 1.096448525786399841e-01 1.672576218843460083e-01
2.403000000000000000e+03 4.794659042358398438e+01 2.626973915100097656e+01 -5.380057096481323242e-01 -3.398858308792114258e-01 -2.633674740791320801e-01 -4.413941502571105957e-01
2.404000000000000000e+03 4.802392959594726562e+01 2.737705612182617188e+01 -6.588647365570068359e-01 -5.498487949371337891e-01 -3.626140654087066650e-01 -5.997646450996398926e-01
2.405000000000000000e+03 2.375774574279785156e+01 1.607546615600585938e+01 9.260708838701248169e-02 1.268829256296157837e-01 6.584700196981430054e-02 1.103406026959419250e-01
2.406000000000000000e+03 2.333186340332031250e+01 1.526855087280273438e+01 9.970591962337493896e-02 1.333288848400115967e-01 6.991044431924819946e-02 1.148459836840629578e-01
2.407000000000000000e+03 3.580226898193359375e+01 1.453649425506591797e+01 -9.431832432746887207e-01 -9.910074472427368164e-01 -5.802572369575500488e-01 -9.601819515228271484e-01
2.408000000000000000e+03 3.503823471069335938e+01 1.421832752227783203e+01 -1.001818060874938965e+00 -1.066462278366088867e+00 -6.204841136932373047e-01 -1.021377444267272949e+00
2.409000000000000000e+03 2.216660499572753906e+01 1.361932945251464844e+01 1.171980649232864380e-01 1.444515138864517212e-01 7.849487662315368652e-02 1.265588253736495972e-01
2.410000000000000000e+03 2.144656181335449219e+01 1.319032096862792969e+01 1.141180172562599182e-01 1.488905400037765503e-01 7.890256494283676147e-02 1.298247724771499634e-01
2.411000000000000000e+03 2.495591354370117188e+01 1.739595222473144531e+01 8.818924427032470703e-02 1.162165179848670959e-01 6.132172793149948120e-02 1.018209457397460938e-01
2.412000000000000000e+03 4.324989700317382812e+01 2.225373840332031250e+01 -7.895517349243164062e-01 -6.095196604728698730e-01 -4.197214245796203613e-01 -7.027967572212219238e-01
2.413000000000000000e+03 3.808068847656250000e+01 3.066410827636718750e+01 5.807840079069137573e-02 6.793291866779327393e-02 3.780339658260345459e-02 6.213470175862312317e-02
2.414000000000000000e+03 4.770928573608398438e+01 2.655814361572265625e+01 -6.014907360076904297e-01 -4.462568163871765137e-01 -3.143242895603179932e-01 -5.333315730094909668e-01
2.415000000000000000e+03 2.906859970092773438e+01 2.093202972412109375e+01 7.321301102638244629e-02 9.340474754571914673e-02 4.998532682657241821e-02 8.360225707292556763e-02
2.416000000000000000e+03 2.879174995422363281e+01 2.056189346313476562e+01 7.462256401777267456e-02 9.517460316419601440e-02 5.093915015459060669e-02 8.613052964210510254e-02
2.417000000000000000e+03 3.002885437011718750e+01 2.186484336853027344e+01 6.678954511880874634e-02 8.985923975706100464e-02 4.699463769793510437e-02 7.999254763126373291e-02
2.418000000000000000e+03 3.605351638793945312e+01 1.482968997955322266e+01 -9.275331497192382812e-01 -9.884331226348876953e-01 -5.747898817062377930e-01 -9.536066055297851562e-01
2.419000000000000000e+03 5.993359756469726562e+01 3.200031280517578125e+01 3.020820140838623047e+00 5.931800842285156250e+00 2.685786247253417969e+00 4.894426345825195312e+00
2.420000000000000000e+03 3.301177978515625000e+01 1.150342464447021484e+01 -1.067604303359985352e+00 -1.011110901832580566e+00 -6.236145496368408203e-01 -9.962317943572998047e-01
2.421000000000000000e+03 2.814405441284179688e+01 1.979851341247558594e+01 8.045572787523269653e-02 9.881480783224105835e-02 5.378116294741630554e-02 8.996769040822982788e-02
2.422000000000000000e+03 3.720259475708007812e+01 2.935204315185546875e+01 6.155385449528694153e-02 7.494431734085083008e-02 4.094945266842842102e-02 6.071431562304496765e-02
2.423000000000000000e+03 4.409450149536132812e+01 2.308899116516113281e+01 -7.786197066307067871e-01 -6.018545031547546387e-01 -4.141422808170318604e-01 -6.772782802581787109e-01
2.424000000000000000e+03 5.056948089599609375e+01 2.913201713562011719e+01 -4.351278841495513916e-01 -3.519981503486633301e-01 -2.361378222703933716e-01 -3.587292134761810303e-01
2.425000000000000000e+03 2.798480987548828125e+01 1.941854858398437500e+01 8.293216675519943237e-02 9.970241785049438477e-02 5.479037389159202576e-02 9.227343648672103882e-02
2.426000000000000000e+03 4.351189422607421875e+01 3.494129180908203125e+01 7.919814437627792358e-02 4.905888065695762634e-02 3.847710788249969482e-02 6.503623723983764648e-02
2.427000000000000000e+03 2.746227264404296875e+01 1.929648780822753906e+01 8.148165047168731689e-02 1.036430671811103821e-01 5.553741380572319031e-02 9.286610782146453857e-02
2.428000000000000000e+03 2.726085472106933594e+01 1.902692604064941406e+01 8.406586199998855591e-02 1.051772460341453552e-01 5.677293241024017334e-02 9.371621906757354736e-02
2.429000000000000000e+03 2.728846359252929688e+01 1.855027580261230469e+01 8.937488496303558350e-02 1.057912930846214294e-01 5.854985117912292480e-02 9.655817598104476929e-02
2.430000000000000000e+03 4.526607513427734375e+01 2.472000694274902344e+01 -8.089194893836975098e-01 -6.392316222190856934e-01 -4.344453215599060059e-01 -6.938190460205078125e-01
2.431000000000000000e+03 4.606016540527343750e+01 2.498622131347656250e+01 -7.147893309593200684e-01 -5.012842416763305664e-01 -3.648220896720886230e-01 -6.022766828536987305e-01
2.432000000000000000e+03 3.504228210449218750e+01 1.371357822418212891e+01 -9.843853116035461426e-01 -1.009358406066894531e+00 -5.981231331825256348e-01 -9.722448587417602539e-01
2.433000000000000000e+03 5.087582778930664062e+01 2.940797042846679688e+01 -4.139949083328247070e-01 -3.382935822010040283e-01 -2.256865352392196655e-01 -3.341260850429534912e-01
2.434000000000000000e+03 5.037067031860351562e+01 2.946018409729003906e+01 -5.414062738418579102e-01 -5.027151703834533691e-01 -3.132364451885223389e-01 -4.882046878337860107e-01
2.435000000000000000e+03 3.657517242431640625e+01 1.539850711822509766e+01 -9.061334729194641113e-01 -9.785457253456115723e-01 -5.654037594795227051e-01 -9.344106316566467285e-01
2.436000000000000000e+03 5.119583892822265625e+01 2.968735122680664062e+01 -3.789735436439514160e-01 -3.093568682670593262e-01 -2.064991295337677002e-01 -3.081578016281127930e-01
2.437000000000000000e+03 3.936746597290039062e+01 3.250562667846679688e+01 7.505934685468673706e-02 5.951295047998428345e-02 4.037168994545936584e-02 5.571623146533966064e-02
2.438000000000000000e+03 4.797288513183593750e+01 2.682321739196777344e+01 -5.913819670677185059e-01 -4.479444026947021484e-01 -3.117979168891906738e-01 -5.216641426086425781e-01
2.439000000000000000e+03 4.947045135498046875e+01 2.866694641113281250e+01 -6.029731035232543945e-01 -5.248795747756958008e-01 -3.383558094501495361e-01 -5.349059104919433594e-01
2.440000000000000000e+03 3.684774780273437500e+01 1.567273807525634766e+01 -8.975936770439147949e-01 -9.709197282791137695e-01 -5.605540275573730469e-01 -9.196650385856628418e-01
2.441000000000000000e+03 3.207513809204101562e+01 2.390518760681152344e+01 5.822207033634185791e-02 8.252926915884017944e-02 4.222540184855461121e-02 7.310397922992706299e-02
2.442000000000000000e+03 3.712144851684570312e+01 1.595428752899169922e+01 -8.879865407943725586e-01 -9.607444405555725098e-01 -5.546193122863769531e-01 -9.082545638084411621e-01
2.443000000000000000e+03 4.297292327880859375e+01 2.197269821166992188e+01 -7.894377112388610840e-01 -6.153139472007751465e-01 -4.214254915714263916e-01 -7.064390778541564941e-01
2.444000000000000000e+03 3.817371749877929688e+01 1.768663597106933594e+01 -8.755531907081604004e-01 -9.600390195846557617e-01 -5.506776571273803711e-01 -9.013180732727050781e-01
2.445000000000000000e+03 4.077943801879882812e+01 3.315601730346679688e+01 7.593664526939392090e-02 5.549488589167594910e-02 3.942945972084999084e-02 5.603177100419998169e-02
2.446000000000000000e+03 4.437816619873046875e+01 2.336498451232910156e+01 -7.740840911865234375e-01 -5.959281325340270996e-01 -4.110036790370941162e-01 -6.646402478218078613e-01
2.447000000000000000e+03 3.739095687866210938e+01 1.624523544311523438e+01 -8.817171454429626465e-01 -9.485525488853454590e-01 -5.490809082984924316e-01 -8.953036665916442871e-01
2.448000000000000000e+03 4.927782058715820312e+01 2.898675537109375000e+01 -7.116180658340454102e-01 -6.505455970764160156e-01 -4.086490869522094727e-01 -6.527966856956481934e-01
2.449000000000000000e+03 2.239781188964843750e+01 1.393356800079345703e+01 1.144549772143363953e-01 1.424326300621032715e-01 7.706627994775772095e-02 1.236305087804794312e-01
2.450000000000000000e+03 2.131922149658203125e+01 1.292299652099609375e+01 1.159574165940284729e-01 1.511504054069519043e-01 8.013235032558441162e-02 1.319512873888015747e-01
2.451000000000000000e+03 3.026341056823730469e+01 2.272338867187500000e+01 6.131658703088760376e-02 8.904531598091125488e-02 4.510857164859771729e-02 7.742927223443984985e-02
2.452000000000000000e+03 4.976988983154296875e+01 2.892548370361328125e+01 -5.848420858383178711e-01 -5.198910832405090332e-01 -3.314199447631835938e-01 -5.183799862861633301e-01
2.453000000000000000e+03 4.887433242797851562e+01 2.815882492065429688e+01 -6.339830756187438965e-01 -5.396373271942138672e-01 -3.520861268043518066e-01 -5.661990642547607422e-01
2.454000000000000000e+03 4.119398498535156250e+01 3.413381958007812500e+01 8.577816188335418701e-02 4.783364012837409973e-02 4.008353874087333679e-02 5.664920806884765625e-02
2.455000000000000000e+03 3.966654586791992188e+01 3.381856918334960938e+01 8.194292336702346802e-02 5.551262572407722473e-02 4.123666509985923767e-02 5.301846936345100403e-02
2.456000000000000000e+03 3.135456848144531250e+01 9.111643791198730469e+00 -1.053211092948913574e+00 -9.341673254966735840e-01 -5.962135195732116699e-01 -8.636302947998046875e-01
2.457000000000000000e+03 3.217502593994140625e+01 1.094245338439941406e+01 -1.129437446594238281e+00 -1.045852065086364746e+00 -6.525868773460388184e-01 -1.005102396011352539e+00
2.458000000000000000e+03 5.006948471069335938e+01 2.919018173217773438e+01 -5.618011951446533203e-01 -5.074007511138916016e-01 -3.207606077194213867e-01 -5.065192580223083496e-01
2.459000000000000000e+03 2.673657798767089844e+01 1.810346221923828125e+01 9.190470725297927856e-02 1.097897365689277649e-01 6.050833314657211304e-02 9.841208159923553467e-02
2.460000000000000000e+03 2.694893264770507812e+01 1.780914688110351562e+01 9.778175503015518188e-02 1.094466447830200195e-01 6.216851994395256042e-02 1.012856662273406982e-01
2.461000000000000000e+03 4.877408981323242188e+01 2.760925865173339844e+01 -5.606931447982788086e-01 -4.375132918357849121e-01 -2.994619309902191162e-01 -4.829193055629730225e-01
2.462000000000000000e+03 5.923592758178710938e+01 3.192427635192871094e+01 2.829766750335693359e+00 3.543011903762817383e+00 1.911833524703979492e+00 3.529373884201049805e+00
2.463000000000000000e+03 5.856130599975585938e+01 3.211412811279296875e+01 2.415170192718505859e+00 2.066861152648925781e+00 1.344609379768371582e+00 2.341462612152099609e+00
2.464000000000000000e+03 1.812879180908203125e+01 9.815485954284667969e+00 1.320561915636062622e-01 2.034162133932113647e-01 1.006417199969291687e-01 1.572508364915847778e-01
2.465000000000000000e+03 1.729241752624511719e+01 9.121286392211914062e+00 1.372514218091964722e-01 2.198561429977416992e-01 1.071322709321975708e-01 1.674988120794296265e-01
2.466000000000000000e+03 4.148053741455078125e+01 3.373274612426757812e+01 7.344377040863037109e-02 5.602354556322097778e-02 3.884019702672958374e-02 5.341290310025215149e-02
2.467000000000000000e+03 4.071388626098632812e+01 3.394954299926757812e+01 6.993532180786132812e-02 5.697738379240036011e-02 3.807381168007850647e-02 4.912035912275314331e-02
2.468000000000000000e+03 5.154666900634765625e+01 2.997098541259765625e+01 -3.371097445487976074e-01 -2.683655917644500732e-01 -1.816426068544387817e-01 -2.706230878829956055e-01
2.469000000000000000e+03 2.613577461242675781e+01 1.765340042114257812e+01 9.363010525703430176e-02 1.124130785465240479e-01 6.181295588612556458e-02 1.003600135445594788e-01
2.470000000000000000e+03 2.444846343994140625e+01 1.762678718566894531e+01 8.108676224946975708e-02 1.185859739780426025e-01 5.990182235836982727e-02 9.911817312240600586e-02
2.471000000000000000e+03 3.968812561035156250e+01 1.808905220031738281e+01 -7.756647467613220215e-01 -6.808896064758300781e-01 -4.369663000106811523e-01 -7.848320603370666504e-01
2.472000000000000000e+03 3.384609603881835938e+01 1.249957656860351562e+01 -1.019410967826843262e+00 -1.037306785583496094e+00 -6.170153021812438965e-01 -1.005009055137634277e+00
2.473000000000000000e+03 3.448744201660156250e+01 1.299243259429931641e+01 -9.912652373313903809e-01 -1.009511947631835938e+00 -6.002331376075744629e-01 -9.687669873237609863e-01
2.474000000000000000e+03 4.110975265502929688e+01 3.347313308715820312e+01 7.341468334197998047e-02 5.294000357389450073e-02 3.790640830993652344e-02 6.291619688272476196e-02
2.475000000000000000e+03 1.991527748107910156e+01 1.206471443176269531e+01 1.130315288901329041e-01 1.636202037334442139e-01 8.299551904201507568e-02 1.364507973194122314e-01
2.476000000000000000e+03 3.765331268310546875e+01 1.654093360900878906e+01 -8.747392296791076660e-01 -9.342049956321716309e-01 -5.426833033561706543e-01 -8.839737176895141602e-01
2.477000000000000000e+03 4.352865219116210938e+01 2.253326988220214844e+01 -7.874500751495361328e-01 -6.070499420166015625e-01 -4.183500111103057861e-01 -6.971248388290405273e-01
2.478000000000000000e+03 4.229925918579101562e+01 3.484336853027343750e+01 7.991255819797515869e-02 4.113567993044853210e-02 3.631447255611419678e-02 5.347047746181488037e-02
2.479000000000000000e+03 4.153429412841796875e+01 3.436258697509765625e+01 7.947918027639389038e-02 5.606451630592346191e-02 4.066310822963714600e-02 5.498230084776878357e-02
2.480000000000000000e+03 2.263465499877929688e+01 1.425433731079101562e+01 1.114751398563385010e-01 1.409378200769424438e-01 7.572388648986816406e-02 1.207945346832275391e-01
2.481000000000000000e+03 4.186395263671875000e+01 3.469934082031250000e+01 8.322209864854812622e-02 4.914210364222526550e-02 3.970926254987716675e-02 5.402518063783645630e-02
2.482000000000000000e+03 5.188333511352539062e+01 3.031064414978027344e+01 -3.178588449954986572e-01 -2.342577129602432251e-01 -1.656349599361419678e-01 -2.578626573085784912e-01
2.483000000000000000e+03 3.891825485229492188e+01 1.794725227355957031e+01 -8.276855349540710449e-01 -8.186721801757812500e-01 -4.939073026180267334e-01 -8.429594635963439941e-01
2.484000000000000000e+03 3.790803909301757812e+01 1.683642387390136719e+01 -8.694956302642822266e-01 -9.197363853454589844e-01 -5.367696285247802734e-01 -8.724974393844604492e-01
2.485000000000000000e+03 4.466135025024414062e+01 2.363995361328125000e+01 -7.707676887512207031e-01 -5.881011486053466797e-01 -4.076606631278991699e-01 -6.501958966255187988e-01
2.486000000000000000e+03 2.582212066650390625e+01 1.743298530578613281e+01 9.435691684484481812e-02 1.135915294289588928e-01 6.238453462719917297e-02 1.017091348767280579e-01
2.487000000000000000e+03 3.283563232421875000e+01 2.451357460021972656e+01 5.690322816371917725e-02 8.310220390558242798e-02 4.200162738561630249e-02 7.162859290838241577e-02
2.488000000000000000e+03 2.325882720947265625e+01 1.623063468933105469e+01 8.614493161439895630e-02 1.300459206104278564e-01 6.485725194215774536e-02 1.073566153645515442e-01
2.489000000000000000e+03 3.437092208862304688e+01 2.677060890197753906e+01 5.480240657925605774e-02 8.248981833457946777e-02 4.118766635656356812e-02 6.616786122322082520e-02
2.490000000000000000e+03 4.188033294677734375e+01 2.083669281005859375e+01 -7.487441301345825195e-01 -6.454541087150573730e-01 -4.182594716548919678e-01 -7.319899797439575195e-01
2.491000000000000000e+03 4.214767456054687500e+01 2.113091278076171875e+01 -7.632756829261779785e-01 -6.401503682136535645e-01 -4.210278093814849854e-01 -7.230122685432434082e-01
2.492000000000000000e+03 2.057474327087402344e+01 1.243194198608398438e+01 1.143721938133239746e-01 1.579187065362930298e-01 8.168727159500122070e-02 1.344968974590301514e-01
2.493000000000000000e+03 3.623647689819335938e+01 2.889463043212890625e+01 5.605001747608184814e-02 7.688870280981063843e-02 3.988161683082580566e-02 6.379142403602600098e-02
2.494000000000000000e+03 2.161293220520019531e+01 1.349497318267822266e+01 1.124391332268714905e-01 1.475423872470855713e-01 7.799445837736129761e-02 1.266097277402877808e-01
2.495000000000000000e+03 2.971771049499511719e+01 2.222451782226562500e+01 6.173272430896759033e-02 9.175322949886322021e-02 4.604578763246536255e-02 7.836397737264633179e-02
2.496000000000000000e+03 5.565704345703125000e+01 3.138914108276367188e+01 7.001839280128479004e-01 8.696566224098205566e-01 4.709521532058715820e-01 4.584718942642211914e-01
2.497000000000000000e+03 3.002667808532714844e+01 2.243004226684570312e+01 6.162894517183303833e-02 8.997730165719985962e-02 4.548187553882598877e-02 7.819297164678573608e-02
2.498000000000000000e+03 3.281113433837890625e+01 1.110667610168457031e+01 -1.070532321929931641e+00 -9.930546283721923828e-01 -6.190760731697082520e-01 -9.684714674949645996e-01
2.499000000000000000e+03 3.234387969970703125e+01 2.418075752258300781e+01 5.905121937394142151e-02 8.146498352289199829e-02 4.215485975146293640e-02 7.100342214107513428e-02
2.500000000000000000e+03 3.186662292480468750e+01 2.356416130065917969e+01 6.116921082139015198e-02 8.214044570922851562e-02 4.299289733171463013e-02 7.338716834783554077e-02
2.501000000000000000e+03 2.293142127990722656e+01 1.547434043884277344e+01 9.371040761470794678e-02 1.351477056741714478e-01 6.865743547677993774e-02 1.118171364068984985e-01
2.502000000000000000e+03 2.251328849792480469e+01 1.478882884979248047e+01 1.009941473603248596e-01 1.397386193275451660e-01 7.221983373165130615e-02 1.155928745865821838e-01
2.503000000000000000e+03 5.298301315307617188e+01 3.167277908325195312e+01 -3.564913868904113770e-01 -1.003079563379287720e-01 -1.370398104190826416e-01 -3.293192684650421143e-01
2.504000000000000000e+03 4.494374465942382812e+01 2.391400909423828125e+01 -7.657139301300048828e-01 -5.744646191596984863e-01 -4.020535647869110107e-01 -6.376969814300537109e-01
2.505000000000000000e+03 4.522504043579101562e+01 2.418688964843750000e+01 -7.596096396446228027e-01 -5.589163303375244141e-01 -3.955577909946441650e-01 -6.257823705673217773e-01
2.506000000000000000e+03 3.554917907714843750e+01 1.424814891815185547e+01 -9.550111889839172363e-01 -9.960753321647644043e-01 -5.853259563446044922e-01 -9.656293988227844238e-01
2.507000000000000000e+03 3.158854675292968750e+01 1.011387157440185547e+01 -1.127034783363342285e+00 -1.016717791557312012e+00 -6.431257724761962891e-01 -9.896475672721862793e-01
2.508000000000000000e+03 3.417320632934570312e+01 1.274074554443359375e+01 -1.003087401390075684e+00 -1.025339961051940918e+00 -6.085281968116760254e-01 -9.818694591522216797e-01
2.509000000000000000e+03 3.603145599365234375e+01 2.851242637634277344e+01 6.184686720371246338e-02 7.853799313306808472e-02 4.211545735597610474e-02 6.245764344930648804e-02
2.510000000000000000e+03 5.528386688232421875e+01 3.179045104980468750e+01 3.519039154052734375e-01 6.053835153579711914e-01 2.871862351894378662e-01 1.075080409646034241e-01
2.511000000000000000e+03 1.416919422149658203e+01 5.546699047088623047e+00 1.091525256633758545e-01 5.972754955291748047e-01 2.119283974170684814e-01 2.104597687721252441e-01
2.512000000000000000e+03 3.335240173339843750e+01 2.529699134826660156e+01 5.593388527631759644e-02 8.292123675346374512e-02 4.165653511881828308e-02 6.901694834232330322e-02
2.513000000000000000e+03 5.217720031738281250e+01 3.068056106567382812e+01 -3.224653899669647217e-01 -2.235762029886245728e-01 -1.638124734163284302e-01 -2.668800950050354004e-01
2.514000000000000000e+03 5.245872879028320312e+01 3.101692008972167969e+01 -3.286343812942504883e-01 -1.919334679841995239e-01 -1.561703532934188843e-01 -2.830245792865753174e-01
2.515000000000000000e+03 5.338737487792968750e+01 3.240104293823242188e+01 -4.245314896106719971e-01 -4.631588980555534363e-02 -1.412542164325714111e-01 -4.310230612754821777e-01
2.516000000000000000e+03 3.195166397094726562e+01 1.027301406860351562e+01 -1.091421008110046387e+00 -1.007521629333496094e+00 -6.296827793121337891e-01 -9.615827798843383789e-01
2.517000000000000000e+03 3.646893692016601562e+01 2.928002166748046875e+01 6.332052499055862427e-02 7.638908922672271729e-02 4.191288352012634277e-02 6.219602003693580627e-02
2.518000000000000000e+03 3.615907287597656250e+01 2.956224060058593750e+01 5.733485519886016846e-02 7.684073597192764282e-02 4.025267809629440308e-02 5.897331610321998596e-02
2.519000000000000000e+03 3.060418319702148438e+01 5.742952346801757812e+00 -1.212871789932250977e+00 -6.794325113296508789e-01 -5.676912665367126465e-01 -8.062119483947753906e-01
2.520000000000000000e+03 1.858123207092285156e+01 1.086662673950195312e+01 1.146991625428199768e-01 1.873524188995361328e-01 9.061547368764877319e-02 1.483377516269683838e-01
2.521000000000000000e+03 1.803730010986328125e+01 1.066943454742431641e+01 1.101796254515647888e-01 1.977221965789794922e-01 9.237054735422134399e-02 1.459569185972213745e-01
2.522000000000000000e+03 1.503481197357177734e+01 6.288044929504394531e+00 1.611328572034835815e-01 3.859280049800872803e-01 1.641182601451873779e-01 2.256344407796859741e-01
2.523000000000000000e+03 1.570930957794189453e+01 6.990823745727539062e+00 1.531532853841781616e-01 3.169139921665191650e-01 1.410201936960220337e-01 2.048171162605285645e-01
2.524000000000000000e+03 1.792770385742187500e+01 1.031103897094726562e+01 1.166993826627731323e-01 2.034672647714614868e-01 9.604999423027038574e-02 1.495687812566757202e-01
2.525000000000000000e+03 1.767120742797851562e+01 9.730690002441406250e+00 1.275239884853363037e-01 2.115464955568313599e-01 1.017211452126502991e-01 1.561931520700454712e-01
2.526000000000000000e+03 1.475854873657226562e+01 6.036314964294433594e+00 1.464508622884750366e-01 4.373799860477447510e-01 1.751492619514465332e-01 2.352947741746902466e-01
2.527000000000000000e+03 1.537520885467529297e+01 7.399845600128173828e+00 1.261186897754669189e-01 3.301478028297424316e-01 1.368799507617950439e-01 1.838293969631195068e-01
2.528000000000000000e+03 1.504754543304443359e+01 6.846960067749023438e+00 1.354901939630508423e-01 3.665794134140014648e-01 1.506208777427673340e-01 1.938372105360031128e-01
2.529000000000000000e+03 1.320690441131591797e+01 4.770537376403808594e+00 1.421947926282882690e-01 8.027557134628295898e-01 2.834851443767547607e-01 -7.295057177543640137e-02
2.530000000000000000e+03 2.974795532226562500e+01 5.082118034362792969e+00 -1.374802827835083008e+00 -7.711477279663085938e-01 -6.437851190567016602e-01 -7.256877422332763672e-01
2.531000000000000000e+03 2.959326362609863281e+01 4.715766429901123047e+00 -1.373867034912109375e+00 -7.598149180412292480e-01 -6.401045918464660645e-01 -6.719875931739807129e-01
2.532000000000000000e+03 1.083475017547607422e+01 4.414465427398681641e+00 3.607543408870697021e-01 -1.587890088558197021e-02 1.034626290202140808e-01 -9.995332360267639160e-02
2.533000000000000000e+03 6.084265136718750000e+01 3.167252159118652344e+01 1.738469362258911133e+00 1.064420795440673828e+01 3.714803218841552734e+00 5.206820011138916016e+00
2.534000000000000000e+03 6.107387542724609375e+01 3.190275764465332031e+01 1.659725427627563477e+00 1.211360931396484375e+01 4.132000446319580078e+00 5.323445796966552734e+00
2.535000000000000000e+03 3.162258338928222656e+01 8.373466491699218750e+00 -8.836630582809448242e-01 -9.100574851036071777e-01 -5.381161570549011230e-01 -8.005914092063903809e-01
2.536000000000000000e+03 5.673214721679687500e+01 3.164283943176269531e+01 1.211758494377136230e+00 1.143240213394165039e+00 7.064996361732482910e-01 8.926013708114624023e-01
2.537000000000000000e+03 5.719818878173828125e+01 3.152890205383300781e+01 1.512561559677124023e+00 1.431322574615478516e+00 8.831652402877807617e-01 1.295849442481994629e+00
2.538000000000000000e+03 1.103230762481689453e+01 3.898045301437377930e+00 4.258341491222381592e-01 -3.817499056458473206e-02 1.162977516651153564e-01 -9.815552830696105957e-02
2.539000000000000000e+03 3.213391113281250000e+01 6.110913276672363281e+00 -8.951078057289123535e-01 -6.009754538536071777e-01 -4.488249719142913818e-01 -6.726895570755004883e-01
2.540000000000000000e+03 6.490118503570556641e+00 -8.441564559936523438e+00 -7.414188981056213379e-02 -2.795527875423431396e-01 -1.061084046959877014e-01 -3.332067728042602539e-01
2.541000000000000000e+03 8.430584907531738281e+00 -6.176498889923095703e+00 -2.213289141654968262e-01 -1.740622073411941528e-01 -1.186173409223556519e-01 -3.724631071090698242e-01
2.542000000000000000e+03 5.427765655517578125e+01 3.246744537353515625e+01 -2.468402534723281860e-01 2.598190605640411377e-01 3.893640125170350075e-03 -3.164881169795989990e-01
2.543000000000000000e+03 5.530137634277343750e+01 3.100031661987304688e+01 6.307258009910583496e-01 9.200512170791625977e-01 4.652331173419952393e-01 5.010023713111877441e-01
2.544000000000000000e+03 5.602659988403320312e+01 3.099239921569824219e+01 9.580491185188293457e-01 1.208756446838378906e+00 6.500416994094848633e-01 8.240565061569213867e-01
2.545000000000000000e+03 3.180659675598144531e+01 7.162783145904541016e+00 -8.587216734886169434e-01 -7.868171930313110352e-01 -4.936616718769073486e-01 -7.890759706497192383e-01
2.546000000000000000e+03 3.163274192810058594e+01 6.188315868377685547e+00 -9.405558109283447266e-01 -6.598451733589172363e-01 -4.801203012466430664e-01 -7.488415241241455078e-01
2.547000000000000000e+03 1.285333633422851562e+01 3.134944915771484375e+00 6.330201029777526855e-01 9.556663632392883301e-01 4.766059517860412598e-01 -4.454700350761413574e-01
2.548000000000000000e+03 2.693075370788574219e+01 -2.416342258453369141e+00 5.003361105918884277e-01 -1.176846772432327271e-01 1.147954240441322327e-01 -2.085927724838256836e-01
2.549000000000000000e+03 5.813424301147460938e+01 3.135893058776855469e+01 2.082816362380981445e+00 2.390439510345458984e+00 1.341976642608642578e+00 2.304090738296508789e+00
2.550000000000000000e+03 5.507087707519531250e+01 3.939574432373046875e+01 2.256630808115005493e-01 1.210614740848541260e-01 1.040173694491386414e-01 6.519073247909545898e-02
2.551000000000000000e+03 3.812953472137451172e+00 4.233139514923095703e+00 -7.495061960071325302e-03 -8.670194447040557861e-02 -2.825910039246082306e-02 1.087843999266624451e-01
2.552000000000000000e+03 4.362632274627685547e+00 4.106173992156982422e+00 -7.017331663519144058e-03 -9.284270554780960083e-02 -2.995801158249378204e-02 1.231569498777389526e-01
2.553000000000000000e+03 4.476613616943359375e+01 3.734326934814453125e+01 1.497119516134262085e-01 3.335364162921905518e-02 5.491967499256134033e-02 4.610196873545646667e-02
2.554000000000000000e+03 6.241826534271240234e+00 3.968170404434204102e+00 1.437168847769498825e-02 -1.216835752129554749e-01 -3.219356760382652283e-02 1.652946025133132935e-01
2.555000000000000000e+03 6.299183845520019531e+00 5.416767120361328125e+00 8.310457319021224976e-02 -1.321760416030883789e-01 -1.472144294530153275e-02 1.158910915255546570e-01
2.556000000000000000e+03 2.729377746582031250e+01 -1.857940912246704102e+00 2.603073120117187500e-01 -2.390873879194259644e-01 6.365978624671697617e-03 -1.083028689026832581e-01
2.557000000000000000e+03 2.577104377746582031e+01 -2.304267168045043945e+00 5.913273692131042480e-01 7.039404660463333130e-02 1.985164284706115723e-01 -3.452172577381134033e-01
2.558000000000000000e+03 5.564390659332275391e+00 4.794923305511474609e+00 4.042650014162063599e-02 -1.211519092321395874e-01 -2.421762235462665558e-02 1.336492002010345459e-01
2.559000000000000000e+03 4.950679302215576172e+00 4.045410633087158203e+00 -4.800507798790931702e-03 -9.658205509185791016e-02 -3.041476756334304810e-02 1.369578838348388672e-01
2.560000000000000000e+03 2.529602050781250000e+01 -1.562055110931396484e+00 3.888224363327026367e-01 1.269906163215637207e-01 1.547439098358154297e-01 -3.060617744922637939e-01
2.561000000000000000e+03 6.948318958282470703e+00 4.637867450714111328e+00 8.375871926546096802e-02 -1.463068127632141113e-01 -1.876442693173885345e-02 1.450933367013931274e-01
2.562000000000000000e+03 9.730683326721191406e+00 3.741377830505371094e+00 2.758017182350158691e-01 -2.351365387439727783e-01 1.219955272972583771e-02 1.191188991069793701e-01
2.563000000000000000e+03 8.309560775756835938e+00 4.539839267730712891e+00 1.671606302261352539e-01 -1.745613962411880493e-01 -2.220228314399719238e-03 1.219248920679092407e-01
2.564000000000000000e+03 2.934373474121093750e+01 -3.263782978057861328e+00 3.958178758621215820e-01 -2.940590381622314453e-01 3.052764758467674255e-02 -1.156600341200828552e-01
2.565000000000000000e+03 2.848824501037597656e+01 -3.139703035354614258e+00 5.521744489669799805e-01 -2.420939803123474121e-01 9.302414953708648682e-02 -1.168099716305732727e-01
2.566000000000000000e+03 3.960754776000976562e+01 3.171005249023437500e+01 7.068485021591186523e-02 6.164133176207542419e-02 3.969785198569297791e-02 5.821829289197921753e-02
2.567000000000000000e+03 1.184714603424072266e+01 -5.317748069763183594e+00 -3.965790867805480957e-01 -2.314788848161697388e-01 -1.884173899888992310e-01 -5.413980484008789062e-01
2.568000000000000000e+03 1.138033390045166016e+01 3.502195119857788086e+00 5.005007386207580566e-01 -4.652405902743339539e-02 1.361930072307586670e-01 -1.311043947935104370e-01
2.569000000000000000e+03 1.217860794067382812e+01 4.021297454833984375e+00 4.180029630661010742e-01 4.224809408187866211e-01 2.521451711654663086e-01 -2.712794244289398193e-01
2.570000000000000000e+03 8.117943763732910156e+00 -4.485989570617675781e+00 -2.627549171447753906e-01 -8.775108307600021362e-02 -1.051517948508262634e-01 -2.792296111583709717e-01
2.571000000000000000e+03 8.975934028625488281e+00 -5.248076438903808594e+00 -2.861771881580352783e-01 -1.299779713153839111e-01 -1.248465478420257568e-01 -3.625420331954956055e-01
2.572000000000000000e+03 5.372789382934570312e+01 3.221996307373046875e+01 -3.187598586082458496e-01 1.125401034951210022e-01 -6.186592951416969299e-02 -3.368747234344482422e-01
2.573000000000000000e+03 5.458757400512695312e+01 3.901501464843750000e+01 -7.916484773159027100e-02 -6.553093791007995605e-01 -2.203422635793685913e-01 3.013736307621002197e-01
2.574000000000000000e+03 3.873789596557617188e+01 3.106997299194335938e+01 5.898694321513175964e-02 6.497123837471008301e-02 3.718745335936546326e-02 6.053878739476203918e-02
2.575000000000000000e+03 3.681151199340820312e+01 3.039353752136230469e+01 5.765989795327186584e-02 7.208850979804992676e-02 3.892452269792556763e-02 5.883657559752464294e-02
2.576000000000000000e+03 2.482544898986816406e+01 1.505621314048767090e+00 -1.539910435676574707e+00 -2.195394784212112427e-01 -5.278349518775939941e-01 -5.854586958885192871e-01
2.577000000000000000e+03 7.628055572509765625e+00 5.328018188476562500e+00 1.460569053888320923e-01 -1.436844319105148315e-01 7.117431960068643093e-04 9.533895552158355713e-02
2.578000000000000000e+03 3.438738822937011719e+00 -6.801371574401855469e+00 -5.046339705586433411e-02 -1.753692477941513062e-01 -6.774979084730148315e-02 -1.590935289859771729e-01
2.579000000000000000e+03 5.097716331481933594e+00 -5.701334953308105469e+00 -1.009423136711120605e-01 -1.453264951705932617e-01 -7.388064265251159668e-02 -2.006944268941879272e-01
2.580000000000000000e+03 5.917336463928222656e+00 -5.619913578033447266e+00 -1.387003362178802490e-01 -1.363874375820159912e-01 -8.252633363008499146e-02 -2.328454554080963135e-01
2.581000000000000000e+03 6.070160388946533203e+00 -6.565185546875000000e+00 -1.168180555105209351e-01 -1.888076663017272949e-01 -9.168771654367446899e-02 -2.724629044532775879e-01
2.582000000000000000e+03 7.501217842102050781e+00 -5.428209304809570312e+00 -2.081759870052337646e-01 -1.308040320873260498e-01 -1.016940027475357056e-01 -2.967838644981384277e-01
2.583000000000000000e+03 1.186574745178222656e+01 4.412184715270996094e+00 3.500110507011413574e-01 3.292970955371856689e-01 2.037924379110336304e-01 -2.289402633905410767e-01
2.584000000000000000e+03 1.086307716369628906e+01 4.887972354888916016e+00 3.072759807109832764e-01 5.292075872421264648e-02 1.080590188503265381e-01 -1.119164451956748962e-01
2.585000000000000000e+03 6.218265533447265625e+01 3.091807556152343750e+01 6.633925437927246094e-02 1.405584144592285156e+01 4.236654281616210938e+00 2.143043756484985352e+00
2.586000000000000000e+03 5.507361602783203125e+01 4.130003356933593750e+01 8.075906634330749512e-01 1.731372773647308350e-01 2.942183911800384521e-01 9.114253520965576172e-02
2.587000000000000000e+03 1.734191513061523438e+01 -3.078388690948486328e+00 -9.092530608177185059e-01 -1.002705097198486328e+00 -5.735874772071838379e-01 -8.695935606956481934e-01
2.588000000000000000e+03 8.994909286499023438e+00 4.486777305603027344e+00 2.218728810548782349e-01 -1.807467490434646606e-01 1.233784109354019165e-02 9.452356398105621338e-02
2.589000000000000000e+03 4.905110931396484375e+01 3.994496536254882812e+01 1.115174591541290283e-01 2.304666442796587944e-03 3.414663672447204590e-02 7.625320553779602051e-02
2.590000000000000000e+03 5.982278060913085938e+01 3.775310897827148438e+01 5.669077038764953613e-01 6.417563438415527344e+00 2.095341205596923828e+00 -2.445706129074096680e+00
2.591000000000000000e+03 3.197438812255859375e+01 7.670734882354736328e+00 -8.539158701896667480e-01 -8.093348145484924316e-01 -4.989751875400543213e-01 -7.865339517593383789e-01
2.592000000000000000e+03 6.128327178955078125e+01 3.756996536254882812e+01 -7.357203960418701172e-01 1.228925514221191406e+01 3.466060400009155273e+00 -3.299086332321166992e+00
2.593000000000000000e+03 1.433199596405029297e+01 -5.797641754150390625e+00 -3.477625548839569092e-01 -5.293089747428894043e-01 -2.631214559078216553e-01 -6.812409758567810059e-01
2.594000000000000000e+03 4.776698303222656250e+01 3.919022750854492188e+01 1.504542827606201172e-01 3.169390931725502014e-02 5.464445799589157104e-02 4.070910811424255371e-02
2.595000000000000000e+03 4.361694335937500000e+01 3.531459045410156250e+01 1.151875257492065430e-01 4.169717803597450256e-02 4.706541076302528381e-02 5.903522297739982605e-02
2.596000000000000000e+03 2.502732849121093750e+01 -8.654375076293945312e-01 4.676619917154312134e-02 -4.153412953019142151e-02 1.569621148519217968e-03 -2.941443026065826416e-01
2.597000000000000000e+03 1.434809207916259766e+01 -4.875442028045654297e+00 -4.900668263435363770e-01 -4.579595923423767090e-01 -2.844079434871673584e-01 -6.904139518737792969e-01
2.598000000000000000e+03 6.590206146240234375e+01 3.264596557617187500e+01 3.630896568298339844e+00 1.162726688385009766e+01 4.577449321746826172e+00 -1.382475972175598145e+00
2.599000000000000000e+03 3.825551223754882812e+01 -1.357942962646484375e+01 1.130305901169776917e-01 4.806173443794250488e-01 1.780943721532821655e-01 -6.373652815818786621e-02
2.600000000000000000e+03 3.418932723999023438e+01 -7.441922664642333984e+00 3.701896965503692627e-01 -5.263271182775497437e-02 9.526709467172622681e-02 -6.491456925868988037e-02
2.601000000000000000e+03 3.497499084472656250e+01 -8.508084297180175781e+00 3.083425462245941162e-01 3.847911581397056580e-02 1.040465012192726135e-01 -5.902477726340293884e-02
2.602000000000000000e+03 1.529781627655029297e+01 -4.922054290771484375e+00 -4.791573882102966309e-01 -6.404389142990112305e-01 -3.358788788318634033e-01 -7.306147813796997070e-01
2.603000000000000000e+03 6.876113128662109375e+01 3.264620590209960938e+01 2.226081371307373047e+00 9.546537399291992188e+00 3.531785488128662109e+00 -1.066259026527404785e+00
2.604000000000000000e+03 2.663513898849487305e+00 6.446457386016845703e+00 1.748514920473098755e-02 -1.307143867015838623e-01 -3.396877273917198181e-02 6.687434017658233643e-02
2.605000000000000000e+03 1.994279098510742188e+01 -1.633059883117675781e+01 2.015201598405838013e-01 1.280098408460617065e-01 9.885899722576141357e-02 -2.628193795680999756e-01
2.606000000000000000e+03 2.062024688720703125e+01 -2.069332313537597656e+01 1.837238818407058716e-01 1.795238852500915527e-01 1.089743301272392273e-01 -2.930006384849548340e-01
2.607000000000000000e+03 1.712472724914550781e+01 -6.223963260650634766e+00 -6.762591749429702759e-02 -7.315240502357482910e-01 -2.397449910640716553e-01 -5.024913549423217773e-01
2.608000000000000000e+03 4.556537628173828125e+01 -2.470081520080566406e+01 -1.436523944139480591e-01 2.304706811904907227e+00 6.483163833618164062e-01 -1.191674843430519104e-01
2.609000000000000000e+03 4.481026840209960938e+01 -2.349353027343750000e+01 -1.343186944723129272e-01 2.058118820190429688e+00 5.771400332450866699e-01 -1.291257739067077637e-01
2.610000000000000000e+03 2.323714637756347656e+01 -2.295930099487304688e+01 1.862099915742874146e-01 3.597954809665679932e-01 1.638016402721405029e-01 -3.051642775535583496e-01
2.611000000000000000e+03 4.175408172607421875e+01 -2.033781623840332031e+01 -6.825239956378936768e-02 1.145404696464538574e+00 3.231456875801086426e-01 -1.113125234842300415e-01
2.612000000000000000e+03 4.579993820190429688e+01 -1.882462882995605469e+01 -6.352117657661437988e-02 2.160778045654296875e+00 6.291770935058593750e-01 -6.613399833440780640e-02
2.613000000000000000e+03 3.294438934326171875e+01 -5.515617370605468750e+00 4.145858287811279297e-01 -1.804854720830917358e-01 7.023011147975921631e-02 -4.436869174242019653e-02
2.614000000000000000e+03 4.415086746215820312e+01 -2.227517509460449219e+01 -1.150235310196876526e-01 1.811949491500854492e+00 5.090777873992919922e-01 -1.339013129472732544e-01
2.615000000000000000e+03 2.792122268676757812e+01 -2.167210102081298828e+00 3.875454962253570557e-01 -2.579961419105529785e-01 3.886480629444122314e-02 -1.079475954174995422e-01
2.616000000000000000e+03 2.225990676879882812e+01 -2.388009262084960938e+01 2.020426541566848755e-01 2.707638442516326904e-01 1.418419480323791504e-01 -2.996638417243957520e-01
2.617000000000000000e+03 3.794212722778320312e+01 -1.530999088287353516e+01 4.812495410442352295e-02 3.850854039192199707e-01 1.299630999565124512e-01 -2.868026681244373322e-02
2.618000000000000000e+03 3.880545806884765625e+01 -1.460339355468750000e+01 7.191131263971328735e-02 5.640485286712646484e-01 1.907879561185836792e-01 -6.654608994722366333e-02
2.619000000000000000e+03 4.358541870117187500e+01 -2.105018615722656250e+01 -9.664995223283767700e-02 1.643755435943603516e+00 4.641316533088684082e-01 -1.186573728919029236e-01
2.620000000000000000e+03 7.266860198974609375e+01 3.358923721313476562e+01 9.967898130416870117e-01 7.659480094909667969e+00 2.596880912780761719e+00 -7.933353185653686523e-01
2.621000000000000000e+03 7.442983245849609375e+01 2.890491867065429688e+01 2.197672426700592041e-01 7.168137073516845703e+00 2.216371297836303711e+00 -1.362275600433349609e+00
2.622000000000000000e+03 7.389170837402343750e+01 -3.003154182434082031e+01 3.522658348083496094e-02 7.512326240539550781e+00 2.264265775680541992e+00 1.764727979898452759e-01
2.623000000000000000e+03 3.945172500610351562e+01 -1.534881687164306641e+01 5.656616017222404480e-02 6.978013515472412109e-01 2.263102382421493530e-01 -7.539004087448120117e-02
2.624000000000000000e+03 7.559410858154296875e+01 -2.780300903320312500e+01 6.334045436233282089e-03 7.814843177795410156e+00 2.346353054046630859e+00 1.501543819904327393e-01
2.625000000000000000e+03 7.171267700195312500e+01 2.401829338073730469e+01 -4.477376341819763184e-01 8.420333862304687500e+00 2.391778707504272461e+00 -1.417490005493164062e+00
2.626000000000000000e+03 7.442115783691406250e+01 2.505771064758300781e+01 -1.478015184402465820e-01 7.647589206695556641e+00 2.249936342239379883e+00 -1.369164824485778809e+00
2.627000000000000000e+03 7.400653076171875000e+01 -2.390149497985839844e+01 5.371112376451492310e-03 7.644355297088623047e+00 2.294918060302734375e+00 2.027352452278137207e-01
2.628000000000000000e+03 7.429907989501953125e+01 2.216156387329101562e+01 -2.852923572063446045e-01 7.941181659698486328e+00 2.296766757965087891e+00 -1.184635877609252930e+00
2.629000000000000000e+03 7.560031127929687500e+01 2.361934661865234375e+01 -1.477884501218795776e-01 7.539902687072753906e+00 2.217634201049804688e+00 -1.138790607452392578e+00
2.630000000000000000e+03 7.441645050048828125e+01 1.923762130737304688e+01 -3.143951892852783203e-01 8.117044448852539062e+00 2.340794801712036133e+00 -8.904932141304016113e-01
2.631000000000000000e+03 7.534229278564453125e+01 -2.107324600219726562e+01 -7.539674639701843262e-03 7.964946269989013672e+00 2.387222051620483398e+00 1.688378155231475830e-01
2.632000000000000000e+03 7.401142883300781250e+01 -2.119664192199707031e+01 -3.978319466114044189e-03 7.722465038299560547e+00 2.315546035766601562e+00 2.117808759212493896e-01
2.633000000000000000e+03 7.400500488281250000e+01 -1.684215927124023438e+01 -3.944242373108863831e-03 7.848672866821289062e+00 2.353418588638305664e+00 1.983399689197540283e-01
2.634000000000000000e+03 7.428376770019531250e+01 -9.721512794494628906e+00 -1.410068292170763016e-02 8.078317642211914062e+00 2.419265031814575195e+00 1.709154844284057617e-01
2.635000000000000000e+03 7.525459289550781250e+01 -1.396910858154296875e+01 -9.735011495649814606e-03 8.169547080993652344e+00 2.447943449020385742e+00 1.611308157444000244e-01
2.636000000000000000e+03 7.382704925537109375e+01 -1.402678012847900391e+01 -1.928951032459735870e-02 7.869590282440185547e+00 2.355090379714965820e+00 1.969087868928909302e-01
2.637000000000000000e+03 7.566449737548828125e+01 1.369980430603027344e+01 -1.502142548561096191e-01 8.472763061523437500e+00 2.496764421463012695e+00 -3.922623395919799805e-01
2.638000000000000000e+03 7.449198150634765625e+01 1.221658611297607422e+01 -2.035384774208068848e-01 8.357773780822753906e+00 2.446270465850830078e+00 -3.344608843326568604e-01
2.639000000000000000e+03 7.369520568847656250e+01 -2.956492304801940918e-01 -6.231310591101646423e-02 8.141274452209472656e+00 2.423688411712646484e+00 9.707006067037582397e-02
2.640000000000000000e+03 7.453352355957031250e+01 6.973899364471435547e+00 -1.120647415518760681e-01 8.406393051147460938e+00 2.488298416137695312e+00 -8.854101598262786865e-02
2.641000000000000000e+03 7.565887451171875000e+01 -7.077075004577636719e+00 -1.492928899824619293e-02 8.438949584960937500e+00 2.527206182479858398e+00 1.208318099379539490e-01
2.642000000000000000e+03 7.441736602783203125e+01 1.780792808532714844e+01 -3.017901480197906494e-01 8.185033798217773438e+00 2.364973068237304688e+00 -7.606601715087890625e-01
2.643000000000000000e+03 7.563417053222656250e+01 1.788517189025878906e+01 -2.034916281700134277e-01 8.198772430419921875e+00 2.398584365844726562e+00 -6.910248994827270508e-01
2.644000000000000000e+03 7.439219665527343750e+01 5.650055885314941406e+00 -1.025621742010116577e-01 8.371806144714355469e+00 2.480773210525512695e+00 -4.302493855357170105e-02
2.645000000000000000e+03 7.423075103759765625e+01 -3.174007177352905273e+00 -3.496509790420532227e-02 8.215579032897949219e+00 2.454184293746948242e+00 1.215203031897544861e-01
2.646000000000000000e+03 7.519417572021484375e+01 1.292364358901977539e+00 -4.485679417848587036e-02 8.512442588806152344e+00 2.540275573730468750e+00 4.633387550711631775e-02
2.647000000000000000e+03 7.439292144775390625e+01 -4.507040023803710938e+00 -2.676814794540405273e-02 8.224439620971679688e+00 2.459301471710205078e+00 1.328666955232620239e-01
2.648000000000000000e+03 7.407838439941406250e+01 -1.108621978759765625e+01 -1.915491186082363129e-02 7.999579906463623047e+00 2.394127607345581055e+00 1.824577748775482178e-01
2.649000000000000000e+03 7.396021270751953125e+01 -1.826626205444335938e+01 -6.371199153363704681e-03 7.800020217895507812e+00 2.338094711303710938e+00 2.064959108829498291e-01
2.650000000000000000e+03 7.577922821044921875e+01 8.285594940185546875e+00 -8.301986753940582275e-02 8.649031639099121094e+00 2.569803476333618164e+00 -1.287098824977874756e-01
2.651000000000000000e+03 7.461197662353515625e+01 8.277775764465332031e+00 -1.287478953599929810e-01 8.418599128723144531e+00 2.486955165863037109e+00 -1.377443224191665649e-01
2.652000000000000000e+03 7.344209289550781250e+01 2.652986335754394531e+01 -4.688205942511558533e-02 7.799390316009521484e+00 2.325752496719360352e+00 -1.523270726203918457e+00
2.653000000000000000e+03 7.458654785156250000e+01 1.088047218322753906e+01 -1.708334237337112427e-01 8.391585350036621094e+00 2.466225624084472656e+00 -2.579308748245239258e-01
2.654000000000000000e+03 7.443917083740234375e+01 -2.782153129577636719e+01 8.326763287186622620e-03 7.629952907562255859e+00 2.291483879089355469e+00 1.786830425262451172e-01
2.655000000000000000e+03 7.555044555664062500e+01 -2.652580070495605469e+01 1.037106849253177643e-02 7.838571548461914062e+00 2.354682683944702148e+00 1.539751589298248291e-01
2.656000000000000000e+03 7.352855682373046875e+01 2.859436607360839844e+01 2.529519498348236084e-01 7.554306030273437500e+00 2.342177391052246094e+00 -1.482508659362792969e+00
2.657000000000000000e+03 7.419276428222656250e+01 4.280307769775390625e+00 -8.799583464860916138e-02 8.318799018859863281e+00 2.469240903854370117e+00 -3.476451616734266281e-03
2.658000000000000000e+03 7.394503784179687500e+01 2.841580629348754883e+00 -8.603431284427642822e-02 8.246952056884765625e+00 2.448275327682495117e+00 3.573782369494438171e-02
2.659000000000000000e+03 7.449177551269531250e+01 -7.106203079223632812e+00 -1.817200332880020142e-02 8.187352180480957031e+00 2.450754165649414062e+00 1.506503522396087646e-01
2.660000000000000000e+03 6.755260467529296875e+01 3.333013534545898438e+01 3.129488706588745117e+00 1.032438755035400391e+01 4.036162853240966797e+00 -7.914529442787170410e-01
2.661000000000000000e+03 7.442168426513671875e+01 -3.367205810546875000e+01 2.655169926583766937e-02 7.467135906219482422e+00 2.248106241226196289e+00 1.263950020074844360e-01
2.662000000000000000e+03 6.141335964202880859e+00 2.974354743957519531e+01 -4.368476103991270065e-03 -6.272252649068832397e-02 -2.012730017304420471e-02 -1.096559502184391022e-02
2.663000000000000000e+03 6.717683315277099609e+00 -2.775661659240722656e+01 4.562377557158470154e-02 -7.837674617767333984e-01 -2.214431017637252808e-01 -1.526948064565658569e-01
2.664000000000000000e+03 4.344300270080566406e+00 2.702031898498535156e+01 -3.418808802962303162e-03 -8.996292203664779663e-02 -2.801451832056045532e-02 -1.365398522466421127e-02
2.665000000000000000e+03 4.471572399139404297e+00 -2.575951957702636719e+01 2.195431292057037354e-02 -9.022049903869628906e-01 -2.640752196311950684e-01 -1.279264986515045166e-01
2.666000000000000000e+03 4.989189624786376953e+00 -1.006764793395996094e+01 -3.265279158949851990e-02 -3.368929922580718994e-01 -1.108637377619743347e-01 -2.832847833633422852e-01
2.667000000000000000e+03 5.089053153991699219e+00 2.399325752258300781e+01 -4.513393621891736984e-03 -8.124883472919464111e-02 -2.572866901755332947e-02 -1.821346394717693329e-02
2.668000000000000000e+03 6.063776969909667969e+00 -2.183126640319824219e+01 4.729639366269111633e-02 -7.121059894561767578e-01 -1.994428783655166626e-01 -2.091287076473236084e-01
2.669000000000000000e+03 7.389700317382812500e+01 -3.562952041625976562e+01 4.069217666983604431e-02 7.384899139404296875e+00 2.227677345275878906e+00 9.188990294933319092e-02
2.670000000000000000e+03 6.373487949371337891e+00 -1.482094573974609375e+01 3.945479542016983032e-02 -5.158520936965942383e-01 -1.429191827774047852e-01 -3.200484812259674072e-01
2.671000000000000000e+03 4.648537158966064453e+00 -1.906802368164062500e+01 3.516608104109764099e-02 -7.029526829719543457e-01 -2.003359794616699219e-01 -2.091470211744308472e-01
2.672000000000000000e+03 5.963323593139648438e+00 -1.768305778503417969e+01 5.010019987821578979e-02 -6.110361814498901367e-01 -1.682807952165603638e-01 -2.679276466369628906e-01
2.673000000000000000e+03 3.895960569381713867e+00 1.470391178131103516e+01 7.413425482809543610e-03 -1.223929375410079956e-01 -3.449385613203048706e-02 -1.597966812551021576e-02
2.674000000000000000e+03 4.908044338226318359e+00 1.744419670104980469e+01 1.358269480988383293e-03 -8.944744616746902466e-02 -2.642675302922725677e-02 -2.272257581353187561e-02
2.675000000000000000e+03 4.970239639282226562e+00 1.607264900207519531e+01 5.428836680948734283e-03 -8.791045099496841431e-02 -2.474448457360267639e-02 -2.155449613928794861e-02
2.676000000000000000e+03 3.804728269577026367e+00 2.017276763916015625e+01 -2.224853029474616051e-03 -1.128251031041145325e-01 -3.451498597860336304e-02 -2.039066329598426819e-02
2.677000000000000000e+03 5.503744125366210938e+00 -2.525809097290039062e+01 3.618939220905303955e-02 -8.132147192955017090e-01 -2.331075966358184814e-01 -1.571743488311767578e-01
2.678000000000000000e+03 5.020226955413818359e+00 1.323920059204101562e+01 1.935332454741001129e-02 -9.219715744256973267e-02 -2.185314893722534180e-02 -1.211434789001941681e-02
2.679000000000000000e+03 5.032899379730224609e+00 1.466222763061523438e+01 1.206275727599859238e-02 -8.959718048572540283e-02 -2.326032519340515137e-02 -1.889595203101634979e-02
2.680000000000000000e+03 6.126841068267822266e+00 -2.644389152526855469e+01 4.014262557029724121e-02 -7.946416139602661133e-01 -2.263496965169906616e-01 -1.564438343048095703e-01
2.681000000000000000e+03 5.290938854217529297e+00 2.534503364562988281e+01 -4.778136499226093292e-03 -7.652975618839263916e-02 -2.439236827194690704e-02 -1.665529422461986542e-02
2.682000000000000000e+03 5.407930374145507812e+00 -1.125960922241210938e+01 -3.798164427280426025e-03 -3.982642292976379395e-01 -1.206187233328819275e-01 -3.051177561283111572e-01
2.683000000000000000e+03 4.873338222503662109e+00 2.137089729309082031e+01 -3.602157812565565109e-03 -8.731844276189804077e-02 -2.727618068456649780e-02 -2.108558826148509979e-02
2.684000000000000000e+03 4.868064403533935547e+00 1.877631378173828125e+01 -1.484316424466669559e-03 -8.935322612524032593e-02 -2.725126408040523529e-02 -2.262562513351440430e-02
2.685000000000000000e+03 4.852022647857666016e+00 2.007780647277832031e+01 -2.541755558922886848e-03 -8.901752531528472900e-02 -2.746778354048728943e-02 -2.199449017643928528e-02
2.686000000000000000e+03 1.092592430114746094e+01 -3.316805648803710938e+01 8.355081826448440552e-02 -5.486380457878112793e-01 -1.395261734724044800e-01 -1.276768594980239868e-01
2.687000000000000000e+03 3.988859176635742188e+00 -3.445642089843750000e+01 3.460762277245521545e-02 -1.092708110809326172e+00 -3.174301385879516602e-01 -4.850835725665092468e-02
2.688000000000000000e+03 8.967308998107910156e+00 -3.389344024658203125e+01 5.423720926046371460e-02 -6.949548721313476562e-01 -1.922153085470199585e-01 -1.024185270071029663e-01
2.689000000000000000e+03 5.955496788024902344e+00 -2.044768333435058594e+01 5.101318284869194031e-02 -6.842811107635498047e-01 -1.899803727865219116e-01 -2.274181544780731201e-01
2.690000000000000000e+03 5.914962768554687500e+00 -1.907002639770507812e+01 5.063345283269882202e-02 -6.501345634460449219e-01 -1.798503398895263672e-01 -2.425594925880432129e-01
2.691000000000000000e+03 5.547016620635986328e+00 2.673660850524902344e+01 -4.837273154407739639e-03 -7.218103110790252686e-02 -2.310549095273017883e-02 -1.500769238919019699e-02
2.692000000000000000e+03 4.931607723236083984e+00 1.183694839477539062e+01 3.200512379407882690e-02 -9.801429510116577148e-02 -1.980275101959705353e-02 -4.365439992398023605e-03
2.693000000000000000e+03 3.711705923080444336e+00 9.218037605285644531e+00 3.542090579867362976e-02 -1.369417458772659302e-01 -3.045625053346157074e-02 3.261401504278182983e-02
2.694000000000000000e+03 4.783111095428466797e+00 9.180985450744628906e+00 5.399502441287040710e-02 -1.165690049529075623e-01 -1.877219602465629578e-02 2.953201904892921448e-02
2.695000000000000000e+03 6.987830162048339844e+00 -1.351615905761718750e+01 4.201527312397956848e-02 -4.728912711143493652e-01 -1.292627900838851929e-01 -3.460950553417205811e-01
2.696000000000000000e+03 4.717416763305664062e+00 7.977065563201904297e+00 5.901189893484115601e-02 -1.230447441339492798e-01 -1.920985244214534760e-02 5.361493676900863647e-02
2.697000000000000000e+03 4.349163055419921875e+00 -6.767055988311767578e+00 -6.577556580305099487e-02 -1.871472150087356567e-01 -7.587683200836181641e-02 -1.993304640054702759e-01
2.698000000000000000e+03 4.481490135192871094e+00 -7.823930740356445312e+00 -6.173599883913993835e-02 -2.299413233995437622e-01 -8.750319480895996094e-02 -2.290226072072982788e-01
2.699000000000000000e+03 5.387257099151611328e+00 -7.678834915161132812e+00 -7.411656528711318970e-02 -2.360842525959014893e-01 -9.306024760007858276e-02 -2.684081494808197021e-01
2.700000000000000000e+03 6.127788162231445312e+01 3.842419433593750000e+01 -8.868681788444519043e-01 1.132814311981201172e+01 3.132382631301879883e+00 -2.648930549621582031e+00
2.701000000000000000e+03 5.824042892456054688e+01 4.001817321777343750e+01 4.194937944412231445e-01 4.159196853637695312e+00 1.373607158660888672e+00 -1.294095396995544434e+00
2.702000000000000000e+03 3.764120864868164062e+01 -1.245672225952148438e+01 1.384959369897842407e-01 3.823595941066741943e-01 1.562566608190536499e-01 -5.822735652327537537e-02
2.703000000000000000e+03 4.552244186401367188e+01 3.802375793457031250e+01 1.399159431457519531e-01 2.548443339765071869e-02 4.962011054158210754e-02 5.102036893367767334e-02
2.704000000000000000e+03 3.196177673339843750e+01 -5.921825885772705078e+00 4.194185733795166016e-01 -2.069316059350967407e-01 6.374608725309371948e-02 -7.152538746595382690e-02
2.705000000000000000e+03 3.155299186706542969e+01 -4.935300827026367188e+00 4.486381709575653076e-01 -2.583930790424346924e-01 5.707352980971336365e-02 -6.426090002059936523e-02
2.706000000000000000e+03 3.711797714233398438e+01 -1.119965934753417969e+01 2.020847052335739136e-01 3.007942140102386475e-01 1.508636772632598877e-01 -6.749504804611206055e-02
2.707000000000000000e+03 3.548241806030273438e+01 -9.774291038513183594e+00 2.542317211627960205e-01 9.676261991262435913e-02 1.052983030676841736e-01 -7.000648230314254761e-02
2.708000000000000000e+03 1.667109107971191406e+01 -1.575575637817382812e+01 2.094966173171997070e-01 -1.673968732357025146e-01 1.262992527335882187e-02 -3.152318298816680908e-01
2.709000000000000000e+03 2.502678680419921875e+01 -2.760891532897949219e+01 2.247043699026107788e-01 4.313293695449829102e-01 1.968101263046264648e-01 -3.220745325088500977e-01
2.710000000000000000e+03 1.522439098358154297e+01 -1.209011745452880859e+01 1.691307574510574341e-01 -3.619402348995208740e-01 -5.784284695982933044e-02 -3.929305970668792725e-01
2.711000000000000000e+03 1.689639282226562500e+01 -1.204809951782226562e+01 2.016414105892181396e-01 -2.655098736286163330e-01 -1.916053704917430878e-02 -3.344787955284118652e-01
2.712000000000000000e+03 1.599361515045166016e+01 -8.376671791076660156e+00 4.361540079116821289e-02 -5.656138658523559570e-01 -1.565995365381240845e-01 -5.084823369979858398e-01
2.713000000000000000e+03 1.410474014282226562e+01 -9.951596260070800781e+00 1.025472208857536316e-01 -4.644088447093963623e-01 -1.085584908723831177e-01 -4.943815767765045166e-01
2.714000000000000000e+03 1.506209182739257812e+01 -1.050247001647949219e+01 1.152053996920585632e-01 -4.264684319496154785e-01 -9.337890893220901489e-02 -4.468064010143280029e-01
2.715000000000000000e+03 1.601364898681640625e+01 -1.118011665344238281e+01 1.974828243255615234e-01 -3.717940747737884521e-01 -5.229337513446807861e-02 -3.903973996639251709e-01
2.716000000000000000e+03 2.384631729125976562e+01 -2.729052352905273438e+01 2.228051424026489258e-01 3.632047474384307861e-01 1.758029609918594360e-01 -3.136507868766784668e-01
2.717000000000000000e+03 2.837219619750976562e+01 4.380675792694091797e+00 -1.578471422195434570e+00 -8.792976140975952148e-01 -7.373306751251220703e-01 -8.334242105484008789e-01
2.718000000000000000e+03 2.869215965270996094e+01 -1.677301406860351562e+00 2.348764538764953613e-01 -3.357934653759002686e-01 -3.027510456740856171e-02 -3.196275979280471802e-02
2.719000000000000000e+03 2.822488021850585938e+01 4.144008636474609375e+00 -1.539840459823608398e+00 -8.400275111198425293e-01 -7.139604091644287109e-01 -8.099611401557922363e-01
2.720000000000000000e+03 2.816967010498046875e+01 3.809218883514404297e+00 -1.514517068862915039e+00 -7.738575935363769531e-01 -6.865124106407165527e-01 -7.303313612937927246e-01
2.721000000000000000e+03 2.646755790710449219e+01 2.930818557739257812e+00 -1.757157444953918457e+00 -5.686542391777038574e-01 -6.977434754371643066e-01 -7.714411616325378418e-01
2.722000000000000000e+03 2.599815559387207031e+01 2.152106046676635742e+00 -1.595173239707946777e+00 -4.287383556365966797e-01 -6.071734428405761719e-01 -6.206997036933898926e-01
2.723000000000000000e+03 2.555632591247558594e+01 1.962625980377197266e+00 -1.664336800575256348e+00 -3.420100808143615723e-01 -6.019040942192077637e-01 -6.384412050247192383e-01
2.724000000000000000e+03 2.465681076049804688e+01 2.111624479293823242e+00 -1.996847748756408691e+00 -3.491852879524230957e-01 -7.038099169731140137e-01 -8.472173810005187988e-01
2.725000000000000000e+03 2.635916709899902344e+01 2.773845195770263672e+00 -1.689380407333374023e+00 -5.292407870292663574e-01 -6.655863523483276367e-01 -7.509042024612426758e-01
2.726000000000000000e+03 5.956383895874023438e+01 3.162533760070800781e+01 2.702406883239746094e+00 5.070734500885009766e+00 2.331942558288574219e+00 4.225116729736328125e+00
2.727000000000000000e+03 2.857691001892089844e+01 4.496060371398925781e+00 -1.559226036071777344e+00 -9.018594026565551758e-01 -7.383256554603576660e-01 -8.252190351486206055e-01
2.728000000000000000e+03 6.082845687866210938e+01 3.212368774414062500e+01 2.286828279495239258e+00 1.095132064819335938e+01 3.971444606781005859e+00 5.869803428649902344e+00
2.729000000000000000e+03 2.319869613647460938e+01 1.116995215415954590e+00 -1.849562406539916992e+00 -1.902852654457092285e-01 -6.119543313980102539e-01 -9.713472127914428711e-01
2.730000000000000000e+03 2.318621826171875000e+01 7.828052639961242676e-01 -1.540819048881530762e+00 -6.242471188306808472e-02 -4.809731245040893555e-01 -8.860133886337280273e-01
2.731000000000000000e+03 1.873793983459472656e+01 1.126621437072753906e+01 1.114527285099029541e-01 1.815945208072662354e-01 8.791417628526687622e-02 1.430032998323440552e-01
2.732000000000000000e+03 4.098595046997070312e+01 1.959974098205566406e+01 -7.178096175193786621e-01 -6.247694492340087891e-01 -4.027737081050872803e-01 -7.578660845756530762e-01
2.733000000000000000e+03 4.028354263305664062e+01 1.949848175048828125e+01 -7.536783218383789062e-01 -7.094751596450805664e-01 -4.389460384845733643e-01 -8.177341818809509277e-01
2.734000000000000000e+03 1.572353839874267578e+01 8.627688407897949219e+00 1.075398698449134827e-01 2.766818702220916748e-01 1.152665242552757263e-01 1.551291942596435547e-01
2.735000000000000000e+03 4.162731552124023438e+01 2.052801704406738281e+01 -7.354938983917236328e-01 -6.448054313659667969e-01 -4.140897989273071289e-01 -7.432832121849060059e-01
2.736000000000000000e+03 1.922760963439941406e+01 1.168733406066894531e+01 1.107173934578895569e-01 1.723988205194473267e-01 8.493486791849136353e-02 1.394560486078262329e-01
2.737000000000000000e+03 3.919613265991210938e+01 1.819308090209960938e+01 -8.124436140060424805e-01 -7.819473743438720703e-01 -4.783172905445098877e-01 -8.357308506965637207e-01
2.738000000000000000e+03 4.016519165039062500e+01 1.884298324584960938e+01 -7.545336484909057617e-01 -6.730279326438903809e-01 -4.282684922218322754e-01 -7.924736142158508301e-01
2.739000000000000000e+03 1.421579742431640625e+01 6.099739074707031250e+00 1.029867604374885559e-01 5.087520480155944824e-01 1.835216283798217773e-01 1.802362650632858276e-01
2.740000000000000000e+03 1.446929645538330078e+01 5.791428565979003906e+00 1.334424018859863281e-01 5.058095455169677734e-01 1.917755901813507080e-01 2.292640656232833862e-01
2.741000000000000000e+03 3.287735748291015625e+01 2.514173126220703125e+01 5.749350413680076599e-02 8.286005258560180664e-02 4.210606589913368225e-02 7.043759524822235107e-02
2.742000000000000000e+03 2.378759193420410156e+01 1.707683372497558594e+01 8.228337019681930542e-02 1.237124726176261902e-01 6.179875135421752930e-02 1.020498797297477722e-01
2.743000000000000000e+03 3.560498428344726562e+01 2.782497406005859375e+01 6.113694235682487488e-02 7.922314852476119995e-02 4.210802540183067322e-02 6.490053981542587280e-02
2.744000000000000000e+03 3.529621887207031250e+01 2.718842506408691406e+01 5.859662219882011414e-02 8.112870156764984131e-02 4.191759973764419556e-02 6.677085161209106445e-02
2.745000000000000000e+03 4.689397430419921875e+01 2.577036285400390625e+01 -6.496189236640930176e-01 -4.634910523891448975e-01 -3.339329957962036133e-01 -5.719444751739501953e-01
2.746000000000000000e+03 4.000380706787109375e+01 1.827050209045410156e+01 -7.565365433692932129e-01 -6.433430910110473633e-01 -4.199638962745666504e-01 -7.686017751693725586e-01
2.747000000000000000e+03 1.562151813507080078e+01 8.214564323425292969e+00 1.109256669878959656e-01 2.917018830776214600e-01 1.207882687449455261e-01 1.645822674036026001e-01
2.748000000000000000e+03 1.549586486816406250e+01 7.807258605957031250e+00 1.202313676476478577e-01 3.109699189662933350e-01 1.293603777885437012e-01 1.733936965465545654e-01
2.749000000000000000e+03 3.341203308105468750e+01 1.138888072967529297e+01 -1.025718808174133301e+00 -9.602366685867309570e-01 -5.957866311073303223e-01 -9.476812481880187988e-01
2.750000000000000000e+03 4.657344436645507812e+01 2.497502136230468750e+01 -6.393458247184753418e-01 -3.861791789531707764e-01 -3.076575100421905518e-01 -5.130132436752319336e-01
2.751000000000000000e+03 3.554963302612304688e+01 1.370817852020263672e+01 -9.366561770439147949e-01 -9.355466961860656738e-01 -5.616608858108520508e-01 -9.152184724807739258e-01
2.752000000000000000e+03 4.740921020507812500e+01 2.574561882019042969e+01 -5.737056136131286621e-01 -3.498317003250122070e-01 -2.770611941814422607e-01 -4.711408317089080811e-01
2.753000000000000000e+03 2.311461639404296875e+01 1.583927631378173828e+01 9.061995893716812134e-02 1.322904527187347412e-01 6.687312573194503784e-02 1.096071898937225342e-01
2.754000000000000000e+03 1.746180725097656250e+01 9.560951232910156250e+00 1.280990093946456909e-01 2.147210389375686646e-01 1.028460115194320679e-01 1.590983867645263672e-01
2.755000000000000000e+03 1.633409881591796875e+01 8.950777053833007812e+00 1.186692938208580017e-01 2.486681044101715088e-01 1.102012172341346741e-01 1.613879501819610596e-01
2.756000000000000000e+03 2.421770286560058594e+01 1.710722923278808594e+01 8.434643596410751343e-02 1.209020465612411499e-01 6.157454475760459900e-02 1.029887795448303223e-01
2.757000000000000000e+03 3.407365036010742188e+01 2.664258766174316406e+01 5.666406825184822083e-02 8.202607184648513794e-02 4.160704463720321655e-02 6.797333806753158569e-02
2.758000000000000000e+03 3.050696563720703125e+01 2.302907562255859375e+01 5.834677815437316895e-02 8.825407177209854126e-02 4.398025572299957275e-02 7.772047817707061768e-02
2.759000000000000000e+03 4.768194580078125000e+01 2.600526237487792969e+01 -5.537918210029602051e-01 -3.408388197422027588e-01 -2.683891952037811279e-01 -4.557262063026428223e-01
2.760000000000000000e+03 4.823498153686523438e+01 2.708810043334960938e+01 -5.849196314811706543e-01 -4.430872797966003418e-01 -3.084020614624023438e-01 -5.101200342178344727e-01
2.761000000000000000e+03 4.407750701904296875e+01 2.255948638916015625e+01 -7.269021272659301758e-01 -5.211357474327087402e-01 -3.744113445281982422e-01 -6.182992458343505859e-01
2.762000000000000000e+03 4.269780731201171875e+01 2.169179916381835938e+01 -7.838111519813537598e-01 -6.245209574699401855e-01 -4.224996268749237061e-01 -7.098594307899475098e-01
2.763000000000000000e+03 4.380152130126953125e+01 2.227900886535644531e+01 -7.296406030654907227e-01 -5.257623791694641113e-01 -3.766208887100219727e-01 -6.286241412162780762e-01
2.764000000000000000e+03 4.242259216308593750e+01 2.141247940063476562e+01 -7.753046751022338867e-01 -6.329108476638793945e-01 -4.224646389484405518e-01 -7.134506702423095703e-01
2.765000000000000000e+03 2.940098953247070312e+01 4.845345497131347656e+00 -1.425977945327758789e+00 -8.212864995002746582e-01 -6.741793155670166016e-01 -7.135148644447326660e-01
2.766000000000000000e+03 3.606210327148437500e+01 1.429217243194580078e+01 -9.104744195938110352e-01 -9.225615859031677246e-01 -5.499107837677001953e-01 -9.094747304916381836e-01
2.767000000000000000e+03 3.207293701171875000e+01 9.313466072082519531e+00 -9.953380227088928223e-01 -9.015226960182189941e-01 -5.690582394599914551e-01 -8.462459444999694824e-01
2.768000000000000000e+03 4.578263854980468750e+01 2.472257995605468750e+01 -7.343197464942932129e-01 -5.208328962326049805e-01 -3.765457868576049805e-01 -6.088970303535461426e-01
2.769000000000000000e+03 4.629712295532226562e+01 2.471754264831542969e+01 -6.604278087615966797e-01 -4.047627449035644531e-01 -3.195571601390838623e-01 -5.228474736213684082e-01
2.770000000000000000e+03 3.630154037475585938e+01 1.459440135955810547e+01 -9.046680331230163574e-01 -9.232158064842224121e-01 -5.483651757240295410e-01 -9.044424891471862793e-01
2.771000000000000000e+03 3.630962371826171875e+01 1.511913299560546875e+01 -9.166184067726135254e-01 -9.862741827964782715e-01 -5.708677768707275391e-01 -9.446848630905151367e-01
2.772000000000000000e+03 3.482102966308593750e+01 1.343931579589843750e+01 -9.901360273361206055e-01 -1.011089801788330078e+00 -6.003677845001220703e-01 -9.693692326545715332e-01
2.773000000000000000e+03 3.528599166870117188e+01 1.347753238677978516e+01 -9.447674751281738281e-01 -9.452517628669738770e-01 -5.670057535171508789e-01 -9.196625351905822754e-01
2.774000000000000000e+03 2.834186363220214844e+01 2.086018753051757812e+01 7.067638635635375977e-02 9.735181182622909546e-02 5.040846019983291626e-02 8.447925746440887451e-02
2.775000000000000000e+03 2.024978446960449219e+01 1.225303936004638672e+01 1.144935861229896545e-01 1.611264199018478394e-01 8.268599957227706909e-02 1.347455233335494995e-01
2.776000000000000000e+03 4.820309448242187500e+01 2.653852272033691406e+01 -5.235674381256103516e-01 -3.355075716972351074e-01 -2.577224969863891602e-01 -4.295207560062408447e-01
2.777000000000000000e+03 4.849985885620117188e+01 2.735083961486816406e+01 -5.732190608978271484e-01 -4.450069069862365723e-01 -3.054677844047546387e-01 -4.947122931480407715e-01
2.778000000000000000e+03 2.897400283813476562e+01 2.163034439086914062e+01 6.574410945177078247e-02 9.460531175136566162e-02 4.810482636094093323e-02 8.067390322685241699e-02
2.779000000000000000e+03 2.821808242797851562e+01 2.020614242553710938e+01 7.515199482440948486e-02 9.751746803522109985e-02 5.180083960294723511e-02 8.732075989246368408e-02
2.780000000000000000e+03 4.325852203369140625e+01 2.170874595642089844e+01 -7.295793890953063965e-01 -5.360525846481323242e-01 -3.796895742416381836e-01 -6.420820951461791992e-01
2.781000000000000000e+03 2.182572364807128906e+01 1.381221389770507812e+01 1.098958551883697510e-01 1.451167911291122437e-01 7.650379091501235962e-02 1.235554367303848267e-01
2.782000000000000000e+03 2.764487075805664062e+01 1.959062767028808594e+01 7.921050488948822021e-02 1.024461463093757629e-01 5.449699610471725464e-02 9.070610255002975464e-02
2.783000000000000000e+03 2.733135604858398438e+01 1.973336219787597656e+01 7.569325715303421021e-02 1.035239696502685547e-01 5.376516655087471008e-02 8.990143239498138428e-02
2.784000000000000000e+03 2.716555213928222656e+01 1.949182510375976562e+01 7.740503549575805664e-02 1.053827404975891113e-01 5.483633279800415039e-02 9.063968807458877563e-02
2.785000000000000000e+03 2.706920623779296875e+01 1.877212142944335938e+01 8.571849763393402100e-02 1.064510419964790344e-01 5.765086039900779724e-02 9.496958553791046143e-02
2.786000000000000000e+03 3.865603256225585938e+01 1.768602180480957031e+01 -8.424258828163146973e-01 -8.486091494560241699e-01 -5.073105096817016602e-01 -8.501400947570800781e-01
2.787000000000000000e+03 3.786648559570312500e+01 3.219047546386718750e+01 6.725600361824035645e-02 6.550829112529754639e-02 3.982928767800331116e-02 5.675867572426795959e-02
2.788000000000000000e+03 3.890732955932617188e+01 3.154142951965332031e+01 7.089266926050186157e-02 6.325168907642364502e-02 4.024330899119377136e-02 5.927645787596702576e-02
2.789000000000000000e+03 1.675199699401855469e+01 9.419641494750976562e+00 1.157171726226806641e-01 2.325839549303054810e-01 1.044903323054313660e-01 1.549954861402511597e-01
2.790000000000000000e+03 3.564150619506835938e+01 2.872463417053222656e+01 5.537105351686477661e-02 7.713530957698822021e-02 3.975190594792366028e-02 6.359402835369110107e-02
2.791000000000000000e+03 3.502087020874023438e+01 2.766297340393066406e+01 5.987384542822837830e-02 8.002644777297973633e-02 4.197008907794952393e-02 6.519730389118194580e-02
2.792000000000000000e+03 2.622884750366210938e+01 1.819279289245605469e+01 8.742194622755050659e-02 1.114086732268333435e-01 5.964918434619903564e-02 9.691949933767318726e-02
2.793000000000000000e+03 4.996559143066406250e+01 2.859597778320312500e+01 -4.822873175144195557e-01 -3.811290562152862549e-01 -2.590249180793762207e-01 -3.971933126449584961e-01
2.794000000000000000e+03 4.435633850097656250e+01 2.283780097961425781e+01 -7.222664356231689453e-01 -5.137377977371215820e-01 -3.708012700080871582e-01 -6.065630912780761719e-01
2.795000000000000000e+03 3.654350280761718750e+01 1.488211727142333984e+01 -8.899108767509460449e-01 -9.189655184745788574e-01 -5.426629185676574707e-01 -8.973158001899719238e-01
2.796000000000000000e+03 5.026764297485351562e+01 2.886047363281250000e+01 -4.606272876262664795e-01 -3.695374131202697754e-01 -2.490494102239608765e-01 -3.753718733787536621e-01
2.797000000000000000e+03 5.137914276123046875e+01 2.935001373291015625e+01 -2.936723828315734863e-01 -1.602394580841064453e-01 -1.361735463142395020e-01 -1.796385794878005981e-01
2.798000000000000000e+03 3.368126678466796875e+01 1.183027744293212891e+01 -1.009186863899230957e+00 -9.791570305824279785e-01 -5.965031981468200684e-01 -9.649501442909240723e-01
2.799000000000000000e+03 3.680519104003906250e+01 1.514006805419921875e+01 -8.779008388519287109e-01 -9.103788733482360840e-01 -5.364839434623718262e-01 -8.848931789398193359e-01
2.800000000000000000e+03 3.708565139770507812e+01 1.539291381835937500e+01 -8.688575029373168945e-01 -8.983817696571350098e-01 -5.301718115806579590e-01 -8.713606595993041992e-01
2.801000000000000000e+03 4.917128372192382812e+01 2.841286277770996094e+01 -6.215750575065612793e-01 -5.366490483283996582e-01 -3.474672436714172363e-01 -5.483278036117553711e-01
2.802000000000000000e+03 3.736783981323242188e+01 1.567322540283203125e+01 -8.597791790962219238e-01 -8.816441893577575684e-01 -5.224270224571228027e-01 -8.569489717483520508e-01
2.803000000000000000e+03 4.051642227172851562e+01 3.462630462646484375e+01 8.740297704935073853e-02 5.277492851018905640e-02 4.205337166786193848e-02 5.328071117401123047e-02
2.804000000000000000e+03 4.906094360351562500e+01 2.785646438598632812e+01 -5.468677282333374023e-01 -4.291256070137023926e-01 -2.927980124950408936e-01 -4.617075324058532715e-01
2.805000000000000000e+03 2.375228309631347656e+01 1.753565216064453125e+01 7.662722468376159668e-02 1.224260628223419189e-01 5.971598625183105469e-02 9.886216372251510620e-02
2.806000000000000000e+03 3.319877624511718750e+01 1.094989490509033203e+01 -1.017486810684204102e+00 -9.369963407516479492e-01 -5.863449573516845703e-01 -9.174181222915649414e-01
2.807000000000000000e+03 3.815725708007812500e+01 1.712783050537109375e+01 -8.618189692497253418e-01 -8.996613621711730957e-01 -5.284441113471984863e-01 -8.640768527984619141e-01
2.808000000000000000e+03 4.138224411010742188e+01 2.022126960754394531e+01 -7.319063544273376465e-01 -6.504423022270202637e-01 -4.147045910358428955e-01 -7.545666694641113281e-01
2.809000000000000000e+03 4.550460052490234375e+01 2.445659446716308594e+01 -7.486292719841003418e-01 -5.390069484710693359e-01 -3.862908780574798584e-01 -6.171944737434387207e-01
2.810000000000000000e+03 4.463551330566406250e+01 2.311369895935058594e+01 -7.184833884239196777e-01 -5.055338144302368164e-01 -3.672051727771759033e-01 -5.922478437423706055e-01
2.811000000000000000e+03 4.966182708740234375e+01 2.834091758728027344e+01 -5.059551596641540527e-01 -4.017943143844604492e-01 -2.723248600959777832e-01 -4.159702658653259277e-01
2.812000000000000000e+03 2.643986892700195312e+01 1.787882041931152344e+01 9.314941614866256714e-02 1.113551110029220581e-01 6.135135889053344727e-02 9.954175353050231934e-02
2.813000000000000000e+03 3.840459823608398438e+01 1.741189575195312500e+01 -8.534871935844421387e-01 -8.778262138366699219e-01 -5.193940401077270508e-01 -8.563118577003479004e-01
2.814000000000000000e+03 3.981581878662109375e+01 1.863888549804687500e+01 -7.761546969413757324e-01 -7.073417305946350098e-01 -4.450489282608032227e-01 -8.106909990310668945e-01
2.815000000000000000e+03 3.352694320678710938e+01 2.593275642395019531e+01 5.523421615362167358e-02 8.262263983488082886e-02 4.135705530643463135e-02 6.726776808500289917e-02
2.816000000000000000e+03 3.498490524291992188e+01 2.727703857421875000e+01 5.467073619365692139e-02 8.047680556774139404e-02 4.054426401853561401e-02 6.691832840442657471e-02
2.817000000000000000e+03 3.371644973754882812e+01 2.651541328430175781e+01 5.421156063675880432e-02 8.202056586742401123e-02 4.086963832378387451e-02 6.610249727964401245e-02
2.818000000000000000e+03 2.682897186279296875e+01 1.859765434265136719e+01 8.561706542968750000e-02 1.084963157773017883e-01 5.823401361703872681e-02 9.548712521791458130e-02
2.819000000000000000e+03 4.923891067504882812e+01 2.755410957336425781e+01 -4.658670723438262939e-01 -3.109918236732482910e-01 -2.330576628446578979e-01 -3.639169335365295410e-01
2.820000000000000000e+03 4.935847473144531250e+01 2.809590530395507812e+01 -5.267679095268249512e-01 -4.135407805442810059e-01 -2.820926010608673096e-01 -4.398368597030639648e-01
2.821000000000000000e+03 5.171706771850585938e+01 2.958945655822753906e+01 -2.410165667533874512e-01 -9.402181953191757202e-02 -1.005115136504173279e-01 -1.353593617677688599e-01
2.822000000000000000e+03 4.298854064941406250e+01 2.142034339904785156e+01 -7.260080575942993164e-01 -5.441335439682006836e-01 -3.810424804687500000e-01 -6.490004658699035645e-01
2.823000000000000000e+03 2.205655097961425781e+01 1.413332748413085938e+01 1.075251698493957520e-01 1.435811072587966919e-01 7.533188164234161377e-02 1.204400584101676941e-01
2.824000000000000000e+03 2.147938156127929688e+01 1.400101661682128906e+01 1.032095476984977722e-01 1.466915458440780640e-01 7.497032731771469116e-02 1.202035546302795410e-01
2.825000000000000000e+03 3.176933288574218750e+01 2.417388153076171875e+01 5.817056447267532349e-02 8.394058793783187866e-02 4.263334721326828003e-02 7.233461737632751465e-02
2.826000000000000000e+03 3.153867149353027344e+01 2.379230690002441406e+01 5.785439535975456238e-02 8.320464938879013062e-02 4.231771454215049744e-02 7.483836263418197632e-02
2.827000000000000000e+03 2.562110710144042969e+01 1.777703857421875000e+01 8.869468420743942261e-02 1.134737730026245117e-01 6.065053865313529968e-02 9.910607337951660156e-02
2.828000000000000000e+03 3.971205520629882812e+01 3.465758132934570312e+01 6.256413459777832031e-02 5.806773155927658081e-02 3.618955984711647034e-02 4.985416680574417114e-02
2.829000000000000000e+03 3.764243698120117188e+01 1.596957397460937500e+01 -8.514040708541870117e-01 -8.656180500984191895e-01 -5.151066184043884277e-01 -8.448107838630676270e-01
2.830000000000000000e+03 2.042150688171386719e+01 1.276930618286132812e+01 1.084867492318153381e-01 1.578858494758605957e-01 7.991178333759307861e-02 1.299021393060684204e-01
2.831000000000000000e+03 2.228782272338867188e+01 1.445862960815429688e+01 1.044007167220115662e-01 1.414055973291397095e-01 7.374189049005508423e-02 1.177784875035285950e-01
2.832000000000000000e+03 2.272894668579101562e+01 1.512602233886718750e+01 9.740941226482391357e-02 1.374051272869110107e-01 7.044436037540435791e-02 1.135578006505966187e-01
2.833000000000000000e+03 3.074574279785156250e+01 2.334217453002929688e+01 5.893484130501747131e-02 8.702164143323898315e-02 4.378694668412208557e-02 7.557532936334609985e-02
2.834000000000000000e+03 3.111811828613281250e+01 2.306686210632324219e+01 5.954910814762115479e-02 8.467972278594970703e-02 4.326864704489707947e-02 7.730424404144287109e-02
2.835000000000000000e+03 4.138174057006835938e+01 3.514932250976562500e+01 9.211235493421554565e-02 5.267892405390739441e-02 4.343738406896591187e-02 4.934747889637947083e-02
2.836000000000000000e+03 2.681001281738281250e+01 1.890414810180664062e+01 8.287163078784942627e-02 1.080401688814163208e-01 5.727353692054748535e-02 9.364733844995498657e-02
2.837000000000000000e+03 2.592863464355468750e+01 1.798077011108398438e+01 8.858601748943328857e-02 1.128865629434585571e-01 6.044177711009979248e-02 9.821688383817672729e-02
2.838000000000000000e+03 2.967077445983886719e+01 2.261772537231445312e+01 6.110925227403640747e-02 9.189949184656143188e-02 4.590262472629547119e-02 7.802387326955795288e-02
2.839000000000000000e+03 2.933738708496093750e+01 2.198774909973144531e+01 6.359754502773284912e-02 9.329605847597122192e-02 4.706808179616928101e-02 8.011793345212936401e-02
2.840000000000000000e+03 3.790679931640625000e+01 1.626973152160644531e+01 -8.463860154151916504e-01 -8.527259826660156250e-01 -5.097336173057556152e-01 -8.336649537086486816e-01
2.841000000000000000e+03 3.815985870361328125e+01 1.656832122802734375e+01 -8.413311243057250977e-01 -8.354305624961853027e-01 -5.030285120010375977e-01 -8.262930512428283691e-01
2.842000000000000000e+03 3.185470771789550781e+01 8.861176490783691406e+00 -9.508692026138305664e-01 -9.044477939605712891e-01 -5.565950870513916016e-01 -8.124681115150451660e-01
2.843000000000000000e+03 3.256361007690429688e+01 1.069405937194824219e+01 -1.063250660896301270e+00 -9.830629825592041016e-01 -6.138941049575805664e-01 -9.476689696311950684e-01
2.844000000000000000e+03 4.243841934204101562e+01 2.086941146850585938e+01 -7.123427987098693848e-01 -5.661072134971618652e-01 -3.835350275039672852e-01 -6.689723134040832520e-01
2.845000000000000000e+03 2.123591804504394531e+01 1.365878295898437500e+01 1.052638590335845947e-01 1.488240659236907959e-01 7.622637599706649780e-02 1.234315112233161926e-01
2.846000000000000000e+03 3.913047409057617188e+01 1.766131591796875000e+01 -8.086130619049072266e-01 -7.462192177772521973e-01 -4.664496779441833496e-01 -8.035326600074768066e-01
2.847000000000000000e+03 3.479618453979492188e+01 1.314676475524902344e+01 -9.783117771148681641e-01 -9.882102012634277344e-01 -5.899565815925598145e-01 -9.421360492706298828e-01
2.848000000000000000e+03 3.633329391479492188e+01 1.406541919708251953e+01 -8.797319531440734863e-01 -8.556461930274963379e-01 -5.206134319305419922e-01 -8.552145361900329590e-01
2.849000000000000000e+03 1.780661582946777344e+01 9.996362686157226562e+00 1.220066845417022705e-01 2.061064094305038452e-01 9.843392670154571533e-02 1.539418697357177734e-01
2.850000000000000000e+03 3.028011894226074219e+01 5.248028278350830078e+00 -1.288349270820617676e+00 -6.684569716453552246e-01 -5.870418548583984375e-01 -7.247349619865417480e-01
2.851000000000000000e+03 3.162278366088867188e+01 5.701786994934082031e+00 -9.788678884506225586e-01 -5.929561257362365723e-01 -4.715471863746643066e-01 -6.831207275390625000e-01
2.852000000000000000e+03 3.403668212890625000e+01 1.218446731567382812e+01 -9.921640157699584961e-01 -9.826894998550415039e-01 -5.924560427665710449e-01 -9.573138952255249023e-01
2.853000000000000000e+03 3.653452682495117188e+01 2.970166397094726562e+01 5.622306838631629944e-02 7.325618714094161987e-02 3.884377703070640564e-02 6.126395985484123230e-02
2.854000000000000000e+03 5.272844696044921875e+01 3.074261283874511719e+01 -2.035735845565795898e-01 -4.949261434376239777e-03 -6.255685538053512573e-02 -1.437516808509826660e-01
2.855000000000000000e+03 5.272901153564453125e+01 3.134218025207519531e+01 -3.428368568420410156e-01 -1.496763378381729126e-01 -1.477539688348770142e-01 -2.977298796176910400e-01
2.856000000000000000e+03 2.529615020751953125e+01 1.757968902587890625e+01 8.882592618465423584e-02 1.151672601699829102e-01 6.119795516133308411e-02 1.003903001546859741e-01
2.857000000000000000e+03 3.457643890380859375e+01 2.766367721557617188e+01 5.358125641942024231e-02 8.022749423980712891e-02 4.014262557029724121e-02 6.377207487821578979e-02
2.858000000000000000e+03 3.517264556884765625e+01 2.804393577575683594e+01 5.503573268651962280e-02 7.906490564346313477e-02 4.023019224405288696e-02 6.610958278179168701e-02
2.859000000000000000e+03 4.491463088989257812e+01 2.338764953613281250e+01 -7.135896682739257812e-01 -4.928045868873596191e-01 -3.619182705879211426e-01 -5.786359310150146484e-01
2.860000000000000000e+03 4.519322967529296875e+01 2.365979576110839844e+01 -7.088896632194519043e-01 -4.786056280136108398e-01 -3.562485873699188232e-01 -5.644901990890502930e-01
2.861000000000000000e+03 3.244330596923828125e+01 2.489441299438476562e+01 5.663625895977020264e-02 8.297678083181381226e-02 4.188391193747520447e-02 6.983510404825210571e-02
2.862000000000000000e+03 3.206410980224609375e+01 2.455675888061523438e+01 5.614010617136955261e-02 8.348060399293899536e-02 4.188621416687965393e-02 7.211548835039138794e-02
2.863000000000000000e+03 5.218001937866210938e+01 3.007674980163574219e+01 -2.075748145580291748e-01 -5.534097924828529358e-02 -7.887473702430725098e-02 -1.206011325120925903e-01
2.864000000000000000e+03 5.244499588012695312e+01 3.042865943908691406e+01 -2.129401564598083496e-01 -4.478107020258903503e-02 -7.731636613607406616e-02 -1.410390138626098633e-01
2.865000000000000000e+03 2.269053840637207031e+01 1.600423049926757812e+01 8.471237868070602417e-02 1.344567388296127319e-01 6.575073301792144775e-02 1.067735701799392700e-01
2.866000000000000000e+03 2.234934234619140625e+01 1.532082366943359375e+01 9.142322093248367310e-02 1.384787857532501221e-01 6.897059828042984009e-02 1.106897220015525818e-01
2.867000000000000000e+03 2.007461357116699219e+01 1.260637760162353516e+01 1.063357070088386536e-01 1.605204939842224121e-01 8.005686104297637939e-02 1.305549740791320801e-01
2.868000000000000000e+03 3.428392410278320312e+01 2.705565643310546875e+01 5.724928155541419983e-02 8.199702948331832886e-02 4.177389293909072876e-02 6.689277291297912598e-02
2.869000000000000000e+03 3.395617675781250000e+01 2.702421760559082031e+01 5.298078432679176331e-02 8.134055137634277344e-02 4.029640182852745056e-02 6.514695286750793457e-02
2.870000000000000000e+03 3.463250350952148438e+01 1.220825290679931641e+01 -9.427054524421691895e-01 -9.040526747703552246e-01 -5.540274381637573242e-01 -8.889646530151367188e-01
2.871000000000000000e+03 3.298992919921875000e+01 1.053178310394287109e+01 -1.011289477348327637e+00 -9.172863960266113281e-01 -5.785727500915527344e-01 -8.902569413185119629e-01
2.872000000000000000e+03 3.239047622680664062e+01 8.664384841918945312e+00 -8.950825929641723633e-01 -8.405395746231079102e-01 -5.206866860389709473e-01 -7.788021564483642578e-01
2.873000000000000000e+03 5.320979309082031250e+01 3.202086639404296875e+01 -3.940433263778686523e-01 -6.080229207873344421e-02 -1.364536881446838379e-01 -3.694719374179840088e-01
2.874000000000000000e+03 3.581678009033203125e+01 2.906391334533691406e+01 6.121053174138069153e-02 7.803846150636672974e-02 4.177469760179519653e-02 6.192864477634429932e-02
2.875000000000000000e+03 5.769104766845703125e+01 3.146789550781250000e+01 1.806408166885375977e+00 1.902484655380249023e+00 1.112667798995971680e+00 1.762870788574218750e+00
2.876000000000000000e+03 5.902645874023437500e+01 3.154857444763183594e+01 2.545607566833496094e+00 3.662738323211669922e+00 1.862503767013549805e+00 3.380752801895141602e+00
2.877000000000000000e+03 1.390387344360351562e+01 5.874154090881347656e+00 9.381107240915298462e-02 5.667154788970947266e-01 1.981579661369323730e-01 1.396253854036331177e-01
2.878000000000000000e+03 1.814226722717285156e+01 1.107704734802246094e+01 1.052535772323608398e-01 1.922176331281661987e-01 8.924136310815811157e-02 1.401964873075485229e-01
2.879000000000000000e+03 1.762222671508789062e+01 1.079654598236083984e+01 1.025419682264328003e-01 2.028341293334960938e-01 9.161283075809478760e-02 1.395209133625030518e-01
2.880000000000000000e+03 1.490627479553222656e+01 7.517397880554199219e+00 1.093070060014724731e-01 3.494716584682464600e-01 1.376335918903350830e-01 1.614746004343032837e-01
2.881000000000000000e+03 6.055531692504882812e+01 3.143934440612792969e+01 1.821251153945922852e+00 9.228687286376953125e+00 3.314981460571289062e+00 4.945823192596435547e+00
2.882000000000000000e+03 1.451124191284179688e+01 6.322062492370605469e+00 1.217582896351814270e-01 4.496539831161499023e-01 1.714236885309219360e-01 1.925064772367477417e-01
2.883000000000000000e+03 1.253472042083740234e+01 4.259905338287353516e+00 3.126989603042602539e-01 6.311752200126647949e-01 2.831622660160064697e-01 -2.540187835693359375e-01
2.884000000000000000e+03 1.290868759155273438e+01 5.142816543579101562e+00 1.478906422853469849e-01 6.305354237556457520e-01 2.335278242826461792e-01 -7.953225076198577881e-02
2.885000000000000000e+03 2.266996383666992188e+01 2.710061967372894287e-01 -1.380923509597778320e+00 1.863559782505035400e-01 -3.583702743053436279e-01 -9.433872699737548828e-01
2.886000000000000000e+03 1.324770927429199219e+01 5.390669345855712891e+00 1.036279574036598206e-01 6.528493762016296387e-01 2.269431948661804199e-01 -7.528408430516719818e-03
2.887000000000000000e+03 1.030870056152343750e+01 4.401602745056152344e+00 3.267077505588531494e-01 -8.908153325319290161e-02 7.128786295652389526e-02 -3.445013985037803650e-02
2.888000000000000000e+03 5.719366836547851562e+01 3.098050689697265625e+01 1.494667172431945801e+00 1.878810286521911621e+00 1.012043237686157227e+00 1.564690351486206055e+00
2.889000000000000000e+03 2.436971855163574219e+01 -9.535245895385742188e-01 3.372466564178466797e-01 2.638317048549652100e-01 1.803234964609146118e-01 -2.240738272666931152e-01
2.890000000000000000e+03 2.512855720520019531e+01 1.889888167381286621e+00 -1.765174388885498047e+00 -3.052730858325958252e-01 -6.211342215538024902e-01 -6.917573809623718262e-01
2.891000000000000000e+03 5.467567062377929688e+01 3.223953247070312500e+01 -5.020473897457122803e-02 4.017397165298461914e-01 1.054604947566986084e-01 -1.899539679288864136e-01
2.892000000000000000e+03 5.328365707397460938e+01 3.140758132934570312e+01 -2.167262285947799683e-01 8.087468147277832031e-02 -4.075546562671661377e-02 -2.018650770187377930e-01
2.893000000000000000e+03 3.813836288452148438e+01 3.127643775939941406e+01 6.673034280538558960e-02 6.834442168474197388e-02 4.052243009209632874e-02 5.978062003850936890e-02
2.894000000000000000e+03 6.180513000488281250e+01 3.133149147033691406e+01 4.198649227619171143e-01 1.438841915130615234e+01 4.442485332489013672e+00 3.144292116165161133e+00
2.895000000000000000e+03 6.151461029052734375e+01 3.104572486877441406e+01 3.992252051830291748e-01 1.268883991241455078e+01 3.926419496536254883e+00 3.651021957397460938e+00
2.896000000000000000e+03 6.428273773193359375e+01 3.032651901245117188e+01 3.689413666725158691e-01 1.303904247283935547e+01 4.022395133972167969e+00 -6.871412992477416992e-01
2.897000000000000000e+03 1.179070568084716797e+01 3.782342433929443359e+00 4.698957502841949463e-01 2.328153848648071289e-01 2.108133435249328613e-01 -2.480423003435134888e-01
2.898000000000000000e+03 5.695748519897460938e+01 3.032739257812500000e+01 1.347868204116821289e+00 2.224211454391479492e+00 1.071623921394348145e+00 1.717907190322875977e+00
2.899000000000000000e+03 2.589009284973144531e+01 -2.117323875427246094e-02 -4.559251070022583008e-01 -1.077308505773544312e-01 -1.690967828035354614e-01 -1.738657504320144653e-01
2.900000000000000000e+03 3.936972808837890625e+01 3.130010604858398438e+01 6.013164296746253967e-02 6.350786983966827393e-02 3.709185123443603516e-02 6.189679726958274841e-02
2.901000000000000000e+03 3.882200241088867188e+01 3.467060852050781250e+01 7.559978961944580078e-02 5.867167562246322632e-02 4.028143733739852905e-02 5.151009932160377502e-02
2.902000000000000000e+03 5.041396141052246094e+00 5.926607608795166016e+00 5.342744663357734680e-02 -1.221558302640914917e-01 -2.061851508915424347e-02 1.014321148395538330e-01
2.903000000000000000e+03 5.673769378662109375e+01 3.082536506652832031e+01 1.288864493370056152e+00 1.678133964538574219e+00 8.900995254516601562e-01 1.333302855491638184e+00
2.904000000000000000e+03 4.579734325408935547e+00 5.390706062316894531e+00 3.461983427405357361e-02 -1.203592643141746521e-01 -2.572182752192020416e-02 1.101509779691696167e-01
2.905000000000000000e+03 5.634307384490966797e+00 5.507925510406494141e+00 6.012678891420364380e-02 -1.277676075696945190e-01 -2.029224485158920288e-02 1.167556643486022949e-01
2.906000000000000000e+03 3.140007019042968750e+01 2.442033767700195312e+01 5.468488484621047974e-02 8.460922539234161377e-02 4.178823530673980713e-02 7.331317663192749023e-02
2.907000000000000000e+03 6.964030265808105469e+00 5.364539623260498047e+00 1.100657656788825989e-01 -1.407199949026107788e-01 -9.196269325911998749e-03 1.135131418704986572e-01
2.908000000000000000e+03 3.221061706542968750e+01 6.557678222656250000e+00 -8.620254397392272949e-01 -6.546803712844848633e-01 -4.550117552280426025e-01 -6.997295022010803223e-01
2.909000000000000000e+03 9.672895431518554688e+00 4.434128284454345703e+00 2.896117269992828369e-01 -1.518254429101943970e-01 4.133588075637817383e-02 2.590219862759113312e-02
2.910000000000000000e+03 8.976018905639648438e+00 5.223220825195312500e+00 2.250982969999313354e-01 -1.242564395070075989e-01 3.025255911052227020e-02 3.208477795124053955e-02
2.911000000000000000e+03 5.423608779907226562e+01 3.123491859436035156e+01 1.415669471025466919e-01 4.846899211406707764e-01 1.878770589828491211e-01 6.319745630025863647e-02
2.912000000000000000e+03 5.564710617065429688e+01 3.063524436950683594e+01 8.056335449218750000e-01 1.207299232482910156e+00 6.038798689842224121e-01 7.952764630317687988e-01
2.913000000000000000e+03 7.602373600006103516e+00 6.107479095458984375e+00 1.476076394319534302e-01 -1.190445870161056519e-01 8.568915538489818573e-03 6.192402169108390808e-02
2.914000000000000000e+03 4.355025482177734375e+01 3.591803359985351562e+01 8.942229300737380981e-02 4.015218466520309448e-02 3.887234255671501160e-02 5.135174468159675598e-02
2.915000000000000000e+03 5.222769737243652344e+00 -6.680870056152343750e+00 -9.818568825721740723e-02 -1.816295832395553589e-01 -8.394458144903182983e-02 -2.363024055957794189e-01
2.916000000000000000e+03 2.639954948425292969e+01 -9.703463912010192871e-01 2.929320372641086578e-02 -1.770652979612350464e-01 -4.433162882924079895e-02 -1.524468660354614258e-01
2.917000000000000000e+03 2.632817459106445312e+01 -1.872774600982666016e+00 3.634397089481353760e-01 -1.002436429262161255e-01 7.895881682634353638e-02 -2.130562514066696167e-01
2.918000000000000000e+03 8.660435676574707031e+00 -7.030090332031250000e+00 -1.722202748060226440e-01 -2.402139306068420410e-01 -1.237302571535110474e-01 -4.166999757289886475e-01
2.919000000000000000e+03 6.721199512481689453e+00 -5.525968551635742188e+00 -1.633446216583251953e-01 -1.442107558250427246e-01 -9.226661175489425659e-02 -2.661944031715393066e-01
2.920000000000000000e+03 3.217862701416015625e+01 8.174269676208496094e+00 -8.576419353485107422e-01 -8.419182896614074707e-01 -5.098680853843688965e-01 -7.797918319702148438e-01
2.921000000000000000e+03 3.238488006591796875e+01 1.023242855072021484e+01 -1.051517009735107422e+00 -9.548013210296630859e-01 -6.018954515457153320e-01 -9.182649254798889160e-01
2.922000000000000000e+03 1.148427581787109375e+01 4.164371967315673828e+00 4.228798449039459229e-01 1.384969055652618408e-01 1.684130281209945679e-01 -2.003815472126007080e-01
2.923000000000000000e+03 1.221805095672607422e+01 4.654565811157226562e+00 2.894296944141387939e-01 4.468856453895568848e-01 2.208946049213409424e-01 -2.084353715181350708e-01
2.924000000000000000e+03 2.861782455444335938e+01 -2.361678838729858398e+00 2.830769419670104980e-01 -2.981597483158111572e-01 -4.524841438978910446e-03 -7.146694511175155640e-02
2.925000000000000000e+03 6.892648220062255859e+00 -6.437601089477539062e+00 -1.551954597234725952e-01 -1.776154488325119019e-01 -9.984327852725982666e-02 -3.068374395370483398e-01
2.926000000000000000e+03 7.683289051055908203e+00 -6.306882381439208984e+00 -1.764929443597793579e-01 -1.891362965106964111e-01 -1.096887737512588501e-01 -3.435604274272918701e-01
2.927000000000000000e+03 4.239907455444335938e+01 3.658617401123046875e+01 1.088947281241416931e-01 3.702191263437271118e-02 4.377499222755432129e-02 3.994051367044448853e-02
2.928000000000000000e+03 8.297185897827148438e+00 5.284876823425292969e+00 1.808192580938339233e-01 -1.430731564760208130e-01 1.132383197546005249e-02 7.609431445598602295e-02
2.929000000000000000e+03 2.337778282165527344e+01 1.899660378694534302e-01 -1.138057470321655273e+00 1.019034460186958313e-01 -3.108461797237396240e-01 -7.352101802825927734e-01
2.930000000000000000e+03 1.154780101776123047e+01 4.810840606689453125e+00 3.179713189601898193e-01 2.173457592725753784e-01 1.605951339006423950e-01 -1.824220120906829834e-01
2.931000000000000000e+03 1.205622196197509766e+01 6.309087276458740234e+00 1.369410455226898193e-01 3.412271142005920410e-01 1.434504389762878418e-01 -8.618066459894180298e-02
2.932000000000000000e+03 1.178230667114257812e+01 -6.050129413604736328e+00 -3.239608407020568848e-01 -3.087955713272094727e-01 -1.898269206285476685e-01 -5.664644241333007812e-01
2.933000000000000000e+03 3.020357704162597656e+01 -3.243001461029052734e+00 4.071744084358215332e-01 -2.785235345363616943e-01 3.859525918960571289e-02 -8.379953913390636444e-03
2.934000000000000000e+03 7.218991088867187500e+01 2.872107505798339844e+01 3.576972186565399170e-01 8.100673675537109375e+00 2.537511348724365234e+00 -1.642823100090026855e+00
2.935000000000000000e+03 4.244097518920898438e+01 3.535380935668945312e+01 1.030967459082603455e-01 4.617797210812568665e-02 4.478241503238677979e-02 5.591709911823272705e-02
2.936000000000000000e+03 1.331551361083984375e+01 -6.495340824127197266e+00 -2.727082371711730957e-01 -4.432127773761749268e-01 -2.147763073444366455e-01 -6.380525827407836914e-01
2.937000000000000000e+03 1.261402988433837891e+01 -5.464711666107177734e+00 -4.071448147296905518e-01 -3.361307382583618164e-01 -2.229826599359512329e-01 -6.040467023849487305e-01
2.938000000000000000e+03 3.031597518920898438e+01 -4.175319194793701172e+00 4.665436446666717529e-01 -2.917813062667846680e-01 5.242870002985000610e-02 -9.853865951299667358e-02
2.939000000000000000e+03 4.734018325805664062e+01 4.163094329833984375e+01 1.305400133132934570e-01 -1.301179919391870499e-02 3.525846451520919800e-02 -4.244591575115919113e-03
2.940000000000000000e+03 5.355371475219726562e+01 4.079782867431640625e+01 5.857492685317993164e-01 -7.959623932838439941e-01 -6.306393444538116455e-02 3.060715496540069580e-01
2.941000000000000000e+03 6.472324371337890625e+01 3.180504798889160156e+01 2.373371124267578125e+00 1.338929462432861328e+01 4.728799819946289062e+00 -1.662646532058715820e+00
2.942000000000000000e+03 6.381669616699218750e+01 3.115067863464355469e+01 9.748541712760925293e-01 1.426310253143310547e+01 4.571387290954589844e+00 -6.730083227157592773e-01
2.943000000000000000e+03 9.682143211364746094e+00 -5.188293933868408203e+00 -3.056994974613189697e-01 -1.670688390731811523e-01 -1.418305039405822754e-01 -4.018686115741729736e-01
2.944000000000000000e+03 3.739907503128051758e+00 6.661972522735595703e+00 3.615626320242881775e-02 -1.276251673698425293e-01 -2.744067274034023285e-02 7.963670045137405396e-02
2.945000000000000000e+03 3.597122955322265625e+01 -7.724583625793457031e+00 3.356465995311737061e-01 1.454828977584838867e-01 1.443388611078262329e-01 -4.602070525288581848e-02
2.946000000000000000e+03 6.565622711181640625e+01 3.158402252197265625e+01 2.366396903991699219e+00 1.218520355224609375e+01 4.365479946136474609e+00 -1.794791817665100098e+00
2.947000000000000000e+03 1.111222743988037109e+01 -5.213282585144042969e+00 -3.787721395492553711e-01 -2.206302732229232788e-01 -1.798207312822341919e-01 -4.948590099811553955e-01
2.948000000000000000e+03 3.973353195190429688e+01 -1.441418552398681641e+01 7.621283084154129028e-02 7.719064950942993164e-01 2.544358074665069580e-01 -7.815646380186080933e-02
2.949000000000000000e+03 3.914188003540039062e+01 -1.295173835754394531e+01 1.260067373514175415e-01 6.463127136230468750e-01 2.316958308219909668e-01 -7.107534259557723999e-02
2.950000000000000000e+03 3.668155670166015625e+01 -6.753089904785156250e+00 3.102255165576934814e-01 2.204405516386032104e-01 1.591998189687728882e-01 -1.216172799468040466e-02
2.951000000000000000e+03 3.350953292846679688e+01 -6.457707881927490234e+00 3.787131905555725098e-01 -1.250165998935699463e-01 7.610897719860076904e-02 -5.019529163837432861e-02
2.952000000000000000e+03 1.998571777343750000e+01 -2.432229614257812500e+01 1.942495107650756836e-01 1.002893522381782532e-01 8.836165815591812134e-02 -2.815728187561035156e-01
2.953000000000000000e+03 4.592597961425781250e+01 -2.285114097595214844e+01 -1.387422829866409302e-01 2.313797235488891602e+00 6.525164842605590820e-01 -8.521560579538345337e-02
2.954000000000000000e+03 1.625726509094238281e+01 -6.179839134216308594e+00 -1.859713345766067505e-01 -7.364048361778259277e-01 -2.767128348350524902e-01 -6.016034483909606934e-01
2.955000000000000000e+03 1.756429481506347656e+01 -1.493050861358642578e+01 2.232612669467926025e-01 -1.346330046653747559e-01 2.658847719430923462e-02 -2.933832406997680664e-01
2.956000000000000000e+03 3.685696411132812500e+01 -9.746468544006347656e+00 2.630319893360137939e-01 2.673891186714172363e-01 1.591263264417648315e-01 -5.459817498922348022e-02
2.957000000000000000e+03 1.457050895690917969e+01 -9.020777702331542969e+00 1.491167768836021423e-02 -4.935903549194335938e-01 -1.436036080121994019e-01 -5.393434762954711914e-01
2.958000000000000000e+03 2.140373802185058594e+01 -2.532099342346191406e+01 1.936033666133880615e-01 2.122891843318939209e-01 1.217677593231201172e-01 -2.928925454616546631e-01
2.959000000000000000e+03 2.272696304321289062e+01 -2.637105941772460938e+01 2.178950607776641846e-01 2.813641428947448730e-01 1.497777551412582397e-01 -2.983743250370025635e-01
2.960000000000000000e+03 7.088920593261718750e+01 -2.611326599121093750e+01 3.544119000434875488e-02 7.071661949157714844e+00 2.132130861282348633e+00 2.631750702857971191e-01
2.961000000000000000e+03 7.123843383789062500e+01 -3.200533676147460938e+01 7.440917938947677612e-02 7.058794975280761719e+00 2.139961242675781250e+00 2.075700163841247559e-01
2.962000000000000000e+03 7.327391815185546875e+01 3.171047592163085938e+01 6.961620450019836426e-01 7.379661560058593750e+00 2.422747135162353516e+00 -1.140121459960937500e+00
2.963000000000000000e+03 9.694010734558105469e+00 3.035056686401367188e+01 -8.573709055781364441e-03 -1.759271509945392609e-02 -7.849927060306072235e-03 -8.161112666130065918e-03
2.964000000000000000e+03 7.209379577636718750e+01 -3.082614135742187500e+01 4.934298992156982422e-02 7.209661960601806641e+00 2.177701473236083984e+00 2.112753391265869141e-01
2.965000000000000000e+03 7.259491729736328125e+01 -3.306833267211914062e+01 5.911344662308692932e-02 7.219504833221435547e+00 2.183585405349731445e+00 1.809954345226287842e-01
2.966000000000000000e+03 4.309521865844726562e+01 -1.982741546630859375e+01 -7.230190932750701904e-02 1.496121764183044434e+00 4.271459579467773438e-01 -1.145968139171600342e-01
2.967000000000000000e+03 4.119961166381835938e+01 -1.744786834716796875e+01 -1.028130482882261276e-02 1.028518676757812500e+00 3.054712414741516113e-01 -9.222419559955596924e-02
2.968000000000000000e+03 4.040424728393554688e+01 -1.579663085937500000e+01 2.866944856941699982e-02 8.951848745346069336e-01 2.771562933921813965e-01 -8.199788630008697510e-02
2.969000000000000000e+03 7.298095703125000000e+01 2.208946800231933594e+01 -4.258008599281311035e-01 8.167878150939941406e+00 2.322623014450073242e+00 -1.231024265289306641e+00
2.970000000000000000e+03 7.431096649169921875e+01 2.363321113586425781e+01 -2.297181487083435059e-01 7.806218147277832031e+00 2.272949934005737305e+00 -1.291961312294006348e+00
2.971000000000000000e+03 7.459937286376953125e+01 2.765938758850097656e+01 8.120225369930267334e-02 7.273232460021972656e+00 2.206330537796020508e+00 -1.395102620124816895e+00
2.972000000000000000e+03 7.414962005615234375e+01 -2.533624267578125000e+01 2.239927183836698532e-03 7.636397361755371094e+00 2.291591167449951172e+00 1.859218478202819824e-01
2.973000000000000000e+03 7.273190307617187500e+01 -1.684607124328613281e+01 -1.075762789696455002e-02 7.620611667633056641e+00 2.282956123352050781e+00 2.349191904067993164e-01
2.974000000000000000e+03 7.328500366210937500e+01 1.203091049194335938e+01 -2.720997631549835205e-01 8.190481185913085938e+00 2.375514507293701172e+00 -3.310359716415405273e-01
2.975000000000000000e+03 7.304165649414062500e+01 1.340095520019531250e+01 -3.249683380126953125e-01 8.163362503051757812e+00 2.351518154144287109e+00 -4.259404242038726807e-01
2.976000000000000000e+03 8.056881904602050781e+00 3.115164375305175781e+01 -5.888277199119329453e-03 -3.841285035014152527e-02 -1.329033821821212769e-02 -8.588723838329315186e-03
2.977000000000000000e+03 6.389288902282714844e+00 3.324831390380859375e+01 -4.037275444716215134e-03 -6.067529320716857910e-02 -1.941376924514770508e-02 -7.659973576664924622e-03
2.978000000000000000e+03 7.312317657470703125e+01 -9.599154472351074219e+00 -2.589268237352371216e-02 7.843019485473632812e+00 2.345138072967529297e+00 1.973209977149963379e-01
2.979000000000000000e+03 7.272282409667968750e+01 -2.143614768981933594e+00 -5.604176223278045654e-02 7.916778087615966797e+00 2.358220815658569336e+00 1.387288272380828857e-01
2.980000000000000000e+03 7.304006195068359375e+01 -3.431492328643798828e+00 -4.642795398831367493e-02 7.954423427581787109e+00 2.372398614883422852e+00 1.484401971101760864e-01
2.981000000000000000e+03 7.462879943847656250e+01 9.575519561767578125e+00 -1.449590176343917847e-01 8.415022850036621094e+00 2.481019258499145508e+00 -1.938678026199340820e-01
2.982000000000000000e+03 7.086968994140625000e+01 2.216158866882324219e+00 -1.495596766471862793e-01 7.572465896606445312e+00 2.226871967315673828e+00 1.032545045018196106e-01
2.983000000000000000e+03 7.338347625732421875e+01 7.035065174102783203e+00 -1.587087512016296387e-01 8.179001808166503906e+00 2.406087875366210938e+00 -8.186680078506469727e-02
2.984000000000000000e+03 7.298788452148437500e+01 1.487343311309814453e+01 -3.667450547218322754e-01 8.162719726562500000e+00 2.338792562484741211e+00 -5.309661030769348145e-01
2.985000000000000000e+03 7.320953369140625000e+01 5.773088932037353516e+00 -1.362280100584030151e-01 8.132324218750000000e+00 2.398828744888305664e+00 -3.889672830700874329e-02
2.986000000000000000e+03 7.199179077148437500e+01 1.641048431396484375e+01 -4.855544567108154297e-01 8.132410049438476562e+00 2.294056653976440430e+00 -6.499990224838256836e-01
2.987000000000000000e+03 7.436607360839843750e+01 2.068873214721679688e+01 -3.167693912982940674e-01 8.043373107910156250e+00 2.317981243133544922e+00 -1.035457372665405273e+00
2.988000000000000000e+03 7.317285156250000000e+01 2.056941413879394531e+01 -4.337938725948333740e-01 8.156164169311523438e+00 2.316710948944091797e+00 -1.061302185058593750e+00
2.989000000000000000e+03 7.263064575195312500e+01 3.079007863998413086e+00 -1.143201366066932678e-01 7.984450817108154297e+00 2.361039161682128906e+00 4.644258320331573486e-02
2.990000000000000000e+03 7.448040771484375000e+01 -5.811874389648437500e+00 -2.492522075772285461e-02 8.215460777282714844e+00 2.457160472869873047e+00 1.412624269723892212e-01
2.991000000000000000e+03 7.347541046142578125e+01 8.277308464050292969e+00 -1.750553250312805176e-01 8.209338188171386719e+00 2.410284757614135742e+00 -1.375850141048431396e-01
2.992000000000000000e+03 7.382560729980468750e+01 -1.254237842559814453e+01 -1.330285985022783279e-02 7.906373500823974609e+00 2.367921352386474609e+00 1.947135478258132935e-01
2.993000000000000000e+03 7.348630523681640625e+01 9.509381294250488281e+00 -1.982390582561492920e-01 8.213609695434570312e+00 2.404611110687255859e+00 -1.945029497146606445e-01
2.994000000000000000e+03 7.387511444091796875e+01 -1.977982711791992188e+01 -4.208114929497241974e-03 7.741045475006103516e+00 2.321051120758056641e+00 2.126368731260299683e-01
2.995000000000000000e+03 5.953186511993408203e+00 2.249170303344726562e+01 -5.213254597038030624e-03 -6.527089327573776245e-02 -2.114524319767951965e-02 -2.003488130867481232e-02
2.996000000000000000e+03 7.286005401611328125e+01 -2.698293685913085938e+01 1.984694786369800568e-02 7.379624843597412109e+00 2.219841480255126953e+00 2.118850797414779663e-01
2.997000000000000000e+03 1.492394733428955078e+01 -8.029226303100585938e+00 -3.115245373919606209e-03 -5.156241655349731445e-01 -1.556218266487121582e-01 -5.452224612236022949e-01
2.998000000000000000e+03 1.361149692535400391e+01 -8.599562644958496094e+00 -8.514443412423133850e-03 -4.633894562721252441e-01 -1.415711641311645508e-01 -5.481646060943603516e-01
2.999000000000000000e+03 7.826709270477294922e+00 -1.249440479278564453e+01 2.118000388145446777e-02 -4.307017028331756592e-01 -1.228565126657485962e-01 -3.902556300163269043e-01
3.000000000000000000e+03 5.940795421600341797e+00 -9.721321105957031250e+00 -3.467339277267456055e-02 -3.333800435066223145e-01 -1.104160323739051819e-01 -3.232640922069549561e-01
3.001000000000000000e+03 8.315857887268066406e+00 -1.792187500000000000e+01 8.490853011608123779e-02 -5.364218950271606445e-01 -1.354540139436721802e-01 -3.158465325832366943e-01
3.002000000000000000e+03 7.385549545288085938e+00 -1.651487159729003906e+01 6.397180259227752686e-02 -5.371381640434265137e-01 -1.419499069452285767e-01 -3.220026791095733643e-01
3.003000000000000000e+03 8.259691238403320312e+00 -1.905568313598632812e+01 8.700283616781234741e-02 -5.575913190841674805e-01 -1.411765515804290771e-01 -2.920934557914733887e-01
3.004000000000000000e+03 7.386270523071289062e+00 -2.566021728515625000e+01 6.068567186594009399e-02 -7.053800225257873535e-01 -1.934082955121994019e-01 -1.845064908266067505e-01
3.005000000000000000e+03 5.616316795349121094e+00 -8.694123268127441406e+00 -6.638734787702560425e-02 -2.765682637691497803e-01 -1.028866842389106750e-01 -2.980016469955444336e-01
3.006000000000000000e+03 4.689248561859130859e+00 -8.923890113830566406e+00 -3.899745643138885498e-02 -2.890302240848541260e-01 -9.840830415487289429e-02 -2.577788233757019043e-01
3.007000000000000000e+03 3.126042556762695312e+01 -3.999029874801635742e+00 4.052706360816955566e-01 -2.577929496765136719e-01 4.424330592155456543e-02 -2.240917645394802094e-02
3.008000000000000000e+03 5.940810680389404297e+00 1.745218467712402344e+01 1.503366976976394653e-03 -6.204037740826606750e-02 -1.816110312938690186e-02 -2.231699600815773010e-02
3.009000000000000000e+03 6.032675266265869141e+00 1.610745811462402344e+01 6.334841251373291016e-03 -5.932370573282241821e-02 -1.589665934443473816e-02 -2.196858450770378113e-02
3.010000000000000000e+03 6.199821472167968750e+00 1.465494441986083984e+01 1.447244081646203995e-02 -5.339574813842773438e-02 -1.167699228972196579e-02 -1.961096934974193573e-02
3.011000000000000000e+03 5.880774021148681641e+00 2.001017761230468750e+01 -3.339685499668121338e-03 -6.535617262125015259e-02 -2.060875669121742249e-02 -2.240997925400733948e-02
3.012000000000000000e+03 6.711928367614746094e+00 2.637658500671386719e+01 -6.551165599375963211e-03 -5.356422439217567444e-02 -1.803461648523807526e-02 -1.547268033027648926e-02
3.013000000000000000e+03 5.875255107879638672e+00 2.125109100341796875e+01 -4.357130732387304306e-03 -6.594809889793395996e-02 -2.109156921505928040e-02 -2.127818763256072998e-02
3.014000000000000000e+03 3.991223907470703125e+01 -1.346031951904296875e+01 1.169163659214973450e-01 7.927273511886596680e-01 2.728931307792663574e-01 -6.908629089593887329e-02
3.015000000000000000e+03 6.887981414794921875e+00 1.031722164154052734e+01 6.386502087116241455e-02 -4.948323220014572144e-02 4.314537160098552704e-03 -2.354789525270462036e-03
3.016000000000000000e+03 6.185665130615234375e+00 1.314761734008789062e+01 2.685348130762577057e-02 -5.666184797883033752e-02 -8.942510001361370087e-03 -1.552161481231451035e-02
3.017000000000000000e+03 6.293169498443603516e+00 6.852931022644042969e+00 1.002529338002204895e-01 -1.191414743661880493e-01 -5.666560959070920944e-03 6.543183326721191406e-02
3.018000000000000000e+03 2.093887329101562500e+01 -2.291526794433593750e+01 1.852098107337951660e-01 1.969241946935653687e-01 1.146401986479759216e-01 -2.981425523757934570e-01
3.019000000000000000e+03 5.888514995574951172e+00 9.087339401245117188e+00 7.365543395280838013e-02 -9.329387545585632324e-02 -5.891531240195035934e-03 2.358352765440940857e-02
3.020000000000000000e+03 7.514994144439697266e+00 6.956293106079101562e+00 1.424609720706939697e-01 -9.631551057100296021e-02 1.384363695979118347e-02 3.289849683642387390e-02
3.021000000000000000e+03 6.003184318542480469e+00 -1.251056194305419922e+01 7.960323244333267212e-03 -4.420697391033172607e-01 -1.302328258752822876e-01 -3.272292912006378174e-01
3.022000000000000000e+03 6.395092010498046875e+00 -1.073719596862792969e+01 -2.452737279236316681e-02 -3.723753690719604492e-01 -1.190708279609680176e-01 -3.499305844306945801e-01
3.023000000000000000e+03 5.078156280517578125e+01 4.023075866699218750e+01 1.523832529783248901e-01 -1.361768692731857300e-01 4.861914087086915970e-03 3.228079378604888916e-01
3.024000000000000000e+03 4.374680328369140625e+01 -1.724529838562011719e+01 -2.109785191714763641e-02 1.635478854179382324e+00 4.843142926692962646e-01 -8.225161582231521606e-02
3.025000000000000000e+03 1.858559799194335938e+01 -1.965088081359863281e+01 1.937233805656433105e-01 2.172766998410224915e-02 6.463531404733657837e-02 -2.793110311031341553e-01
3.026000000000000000e+03 1.851170158386230469e+01 -1.840272712707519531e+01 1.996795386075973511e-01 -4.429756081663072109e-04 5.977096781134605408e-02 -2.908042371273040771e-01
3.027000000000000000e+03 5.785517883300781250e+01 4.158863449096679688e+01 4.857874512672424316e-01 3.440019130706787109e+00 1.177742004394531250e+00 -4.674345552921295166e-01
3.028000000000000000e+03 4.637178802490234375e+01 -2.597462463378906250e+01 -1.680207252502441406e-01 2.665246009826660156e+00 7.491675615310668945e-01 -6.486443430185317993e-02
3.029000000000000000e+03 1.851810455322265625e+01 -1.412252330780029297e+01 2.150952666997909546e-01 -3.760492429137229919e-02 5.324710533022880554e-02 -2.644019722938537598e-01
3.030000000000000000e+03 1.735227775573730469e+01 -1.668697547912597656e+01 2.109205871820449829e-01 -1.172435656189918518e-01 2.810310758650302887e-02 -2.952456176280975342e-01
3.031000000000000000e+03 3.837621688842773438e+01 -1.086409282684326172e+01 2.139087915420532227e-01 5.117214918136596680e-01 2.176890820264816284e-01 -5.951976031064987183e-02
3.032000000000000000e+03 3.824419021606445312e+01 -9.692443847656250000e+00 2.458976656198501587e-01 4.877566695213317871e-01 2.200962901115417480e-01 -5.081738159060478210e-02
3.033000000000000000e+03 4.532112121582031250e+01 -2.169145774841308594e+01 -1.284994482994079590e-01 2.134467840194702148e+00 6.017904877662658691e-01 -9.343593567609786987e-02
3.034000000000000000e+03 4.484580612182617188e+01 -2.050028228759765625e+01 -9.211538732051849365e-02 1.967197418212890625e+00 5.625246167182922363e-01 -1.018261462450027466e-01
3.035000000000000000e+03 2.325057983398437500e+01 -2.862163543701171875e+01 2.367959618568420410e-01 2.893913090229034424e-01 1.578561812639236450e-01 -2.848572432994842529e-01
3.036000000000000000e+03 4.334132766723632812e+01 4.135951614379882812e+01 9.769652038812637329e-02 3.701368346810340881e-02 4.041305929422378540e-02 1.306594721972942352e-02
3.037000000000000000e+03 6.204938888549804688e+01 3.783864212036132812e+01 -1.094774365425109863e+00 1.360419368743896484e+01 3.752825736999511719e+00 -1.984633922576904297e+00
3.038000000000000000e+03 2.262736320495605469e+01 -3.035548210144042969e+01 2.452183067798614502e-01 2.309564799070358276e-01 1.428524404764175415e-01 -2.678467631340026855e-01
3.039000000000000000e+03 1.671568870544433594e+01 -1.398497486114501953e+01 2.111232727766036987e-01 -2.146291285753250122e-01 -1.051758415997028351e-03 -3.248571157455444336e-01
3.040000000000000000e+03 1.593088150024414062e+01 -1.498042869567871094e+01 2.141489237546920776e-01 -2.481483966112136841e-01 -1.019984297454357147e-02 -3.313408493995666504e-01
3.041000000000000000e+03 1.592479610443115234e+01 -1.300774765014648438e+01 2.042985111474990845e-01 -3.100249767303466797e-01 -3.171794116497039795e-02 -3.608680367469787598e-01
3.042000000000000000e+03 7.294367980957031250e+01 -2.193859100341796875e+01 4.208540078252553940e-03 7.518309593200683594e+00 2.256755352020263672e+00 2.339100390672683716e-01
3.043000000000000000e+03 6.147426223754882812e+01 3.958140563964843750e+01 -1.187236189842224121e+00 1.089970779418945312e+01 2.913741588592529297e+00 -1.544035077095031738e+00
3.044000000000000000e+03 5.974981689453125000e+01 3.940580749511718750e+01 -1.367772929370403290e-02 6.744844913482666016e+00 2.019350051879882812e+00 -1.435892343521118164e+00
3.045000000000000000e+03 7.279486846923828125e+01 -1.557470893859863281e+01 -1.471401005983352661e-02 7.662096977233886719e+00 2.294214963912963867e+00 2.230972945690155029e-01
3.046000000000000000e+03 7.338071441650390625e+01 -7.132409572601318359e+00 -2.884265966713428497e-02 7.950403213500976562e+00 2.376468181610107422e+00 1.761778444051742554e-01
3.047000000000000000e+03 6.661880493164062500e+01 3.116579627990722656e+01 2.000037908554077148e+00 1.116275501251220703e+01 3.948837995529174805e+00 -1.707328557968139648e+00
3.048000000000000000e+03 6.705866241455078125e+01 3.219460678100585938e+01 2.630788564682006836e+00 1.072328186035156250e+01 4.006220817565917969e+00 -1.408940434455871582e+00
3.049000000000000000e+03 7.366986846923828125e+01 1.292942762374877930e+00 -7.165932655334472656e-02 8.160240173339843750e+00 2.426574468612670898e+00 7.216601073741912842e-02
3.050000000000000000e+03 9.097117424011230469e+00 -2.846028709411621094e+01 7.863754779100418091e-02 -6.241360902786254883e-01 -1.636495590209960938e-01 -1.704198271036148071e-01
3.051000000000000000e+03 8.318722724914550781e+00 -2.686437797546386719e+01 6.100852042436599731e-02 -6.563047170639038086e-01 -1.785888671875000000e-01 -1.854314953088760376e-01
3.052000000000000000e+03 2.910189056396484375e+01 4.038187503814697266e+00 -1.335607051849365234e+00 -7.530351281166076660e-01 -6.265926361083984375e-01 -6.233111023902893066e-01
3.053000000000000000e+03 2.899124145507812500e+01 4.412425994873046875e+00 -1.414271712303161621e+00 -8.419336080551147461e-01 -6.768616437911987305e-01 -7.205703258514404297e-01
3.054000000000000000e+03 2.718537139892578125e+01 -1.046959757804870605e+00 2.543145976960659027e-02 -2.717210352420806885e-01 -7.388687133789062500e-02 -1.012391448020935059e-01
3.055000000000000000e+03 2.675942039489746094e+01 3.119402647018432617e+00 -1.679742097854614258e+00 -5.917001962661743164e-01 -6.814326643943786621e-01 -7.813594341278076172e-01
3.056000000000000000e+03 2.704507637023925781e+01 2.488014936447143555e+00 -1.432374596595764160e+00 -5.409206151962280273e-01 -5.919885635375976562e-01 -5.668216347694396973e-01
3.057000000000000000e+03 2.758296585083007812e+01 3.553166866302490234e+00 -1.577188014984130859e+00 -7.194794416427612305e-01 -6.890002489089965820e-01 -7.676122188568115234e-01
3.058000000000000000e+03 2.536554336547851562e+01 2.368144035339355469e+00 -1.892938137054443359e+00 -4.482396245002746582e-01 -7.023533582687377930e-01 -8.034831881523132324e-01
3.059000000000000000e+03 2.456303024291992188e+01 1.427941679954528809e+00 -1.690219759941101074e+00 -2.356083542108535767e-01 -5.777484178543090820e-01 -7.328682541847229004e-01
3.060000000000000000e+03 2.426333999633789062e+01 9.597398042678833008e-01 -1.496097564697265625e+00 -1.251910030841827393e-01 -4.863865971565246582e-01 -6.153866648674011230e-01
3.061000000000000000e+03 2.566054725646972656e+01 8.781659007072448730e-01 -1.017267584800720215e+00 -1.617707312107086182e-01 -3.537115156650543213e-01 -2.900196015834808350e-01
3.062000000000000000e+03 3.068774604797363281e+01 5.269295692443847656e+00 -1.154292345046997070e+00 -6.262081861495971680e-01 -5.341501832008361816e-01 -7.001113891601562500e-01
3.063000000000000000e+03 4.057703781127929688e+01 1.982942390441894531e+01 -7.461393475532531738e-01 -7.003144621849060059e-01 -4.339361488819122314e-01 -8.113166689872741699e-01
3.064000000000000000e+03 3.939788055419921875e+01 1.788598060607910156e+01 -7.920010685920715332e-01 -7.167255282402038574e-01 -4.526179730892181396e-01 -7.946868538856506348e-01
3.065000000000000000e+03 4.071525955200195312e+01 1.855491065979003906e+01 -7.075968980789184570e-01 -5.573422908782958984e-01 -3.794817626476287842e-01 -7.166143655776977539e-01
3.066000000000000000e+03 4.139524459838867188e+01 1.963122367858886719e+01 -6.933863759040832520e-01 -5.668612122535705566e-01 -3.780742883682250977e-01 -7.091312408447265625e-01
3.067000000000000000e+03 5.992173385620117188e+01 3.139600372314453125e+01 2.269547939300537109e+00 6.734766006469726562e+00 2.701294183731079102e+00 4.586909770965576172e+00
3.068000000000000000e+03 6.017352294921875000e+01 3.203951644897460938e+01 3.088903427124023438e+00 6.651131153106689453e+00 2.922010421752929688e+00 5.308949947357177734e+00
3.069000000000000000e+03 4.195074844360351562e+01 2.025890541076660156e+01 -6.970771551132202148e-01 -5.646359324455261230e-01 -3.785139322280883789e-01 -6.852040886878967285e-01
3.070000000000000000e+03 1.521868896484375000e+01 8.751154899597167969e+00 8.931770175695419312e-02 2.875331938266754150e-01 1.130552738904953003e-01 1.372386217117309570e-01
3.071000000000000000e+03 3.396787643432617188e+01 1.058533859252929688e+01 -9.188743233680725098e-01 -8.160234689712524414e-01 -5.204693078994750977e-01 -8.108938932418823242e-01
3.072000000000000000e+03 3.261655044555664062e+01 2.561108589172363281e+01 5.401440337300300598e-02 8.311320096254348755e-02 4.113828018307685852e-02 6.848787516355514526e-02
3.073000000000000000e+03 3.465108108520507812e+01 2.729456329345703125e+01 5.828764662146568298e-02 8.117648959159851074e-02 4.183924198150634766e-02 6.729762256145477295e-02
3.074000000000000000e+03 4.034391403198242188e+01 1.843015670776367188e+01 -7.354639768600463867e-01 -6.062591671943664551e-01 -4.025169312953948975e-01 -7.450640797615051270e-01
3.075000000000000000e+03 1.714448356628417969e+01 9.472861289978027344e+00 1.238369271159172058e-01 2.240142524242401123e-01 1.043553501367568970e-01 1.583070904016494751e-01
3.076000000000000000e+03 1.577552986145019531e+01 9.060432434082031250e+00 9.804275631904602051e-02 2.649814486503601074e-01 1.089072600007057190e-01 1.465154886245727539e-01
3.077000000000000000e+03 3.489085769653320312e+01 1.245286655426025391e+01 -9.332900643348693848e-01 -9.024954438209533691e-01 -5.507356524467468262e-01 -8.821489214897155762e-01
3.078000000000000000e+03 3.438195800781250000e+01 1.245805358886718750e+01 -9.705967307090759277e-01 -9.645690321922302246e-01 -5.805497169494628906e-01 -9.361617565155029297e-01
3.079000000000000000e+03 4.765172195434570312e+01 2.545658302307128906e+01 -5.162088871002197266e-01 -2.358877807855606079e-01 -2.256289869546890259e-01 -3.822590708732604980e-01
3.080000000000000000e+03 2.332966613769531250e+01 1.665909194946289062e+01 8.278492838144302368e-02 1.284016221761703491e-01 6.335596740245819092e-02 1.042917966842651367e-01
3.081000000000000000e+03 1.629079818725585938e+01 9.433913230895996094e+00 1.042638272047042847e-01 2.423869371414184570e-01 1.039952263236045837e-01 1.472282260656356812e-01
3.082000000000000000e+03 4.271527099609375000e+01 2.113844680786132812e+01 -7.211179137229919434e-01 -5.574209094047546387e-01 -3.835616409778594971e-01 -6.584010720252990723e-01
3.083000000000000000e+03 4.218092727661132812e+01 2.058401298522949219e+01 -7.031555771827697754e-01 -5.701104998588562012e-01 -3.819798529148101807e-01 -6.790144443511962891e-01
3.084000000000000000e+03 2.333209991455078125e+01 1.711388778686523438e+01 7.767739892005920410e-02 1.260680705308914185e-01 6.112363934516906738e-02 1.010118201375007629e-01
3.085000000000000000e+03 2.281583404541015625e+01 1.635882186889648438e+01 8.219806104898452759e-02 1.321661323308944702e-01 6.430925428867340088e-02 1.045883297920227051e-01
3.086000000000000000e+03 3.508998870849609375e+01 2.863681793212890625e+01 5.548162013292312622e-02 7.831172645092010498e-02 4.013800248503684998e-02 6.434989720582962036e-02
3.087000000000000000e+03 1.972382926940917969e+01 1.243440818786621094e+01 1.054559722542762756e-01 1.648261398077011108e-01 8.108463138341903687e-02 1.308376044034957886e-01
3.088000000000000000e+03 1.884351730346679688e+01 1.170631313323974609e+01 1.041108071804046631e-01 1.768806129693984985e-01 8.429742604494094849e-02 1.363921612501144409e-01
3.089000000000000000e+03 2.029493331909179688e+01 1.311340904235839844e+01 1.014346480369567871e-01 1.566683351993560791e-01 7.743089646100997925e-02 1.255780607461929321e-01
3.090000000000000000e+03 4.793113708496093750e+01 2.571374130249023438e+01 -4.971776008605957031e-01 -2.266765981912612915e-01 -2.171562612056732178e-01 -3.621297180652618408e-01
3.091000000000000000e+03 3.887978744506835938e+01 1.741358184814453125e+01 -8.196525573730468750e-01 -7.761555314064025879e-01 -4.787424206733703613e-01 -8.089879155158996582e-01
3.092000000000000000e+03 3.986004257202148438e+01 1.775499534606933594e+01 -7.539755105972290039e-01 -6.161475181579589844e-01 -4.110369086265563965e-01 -7.409042716026306152e-01
3.093000000000000000e+03 4.602203750610351562e+01 2.445807456970214844e+01 -6.775609850883483887e-01 -4.216295480728149414e-01 -3.297571539878845215e-01 -5.326886177062988281e-01
3.094000000000000000e+03 4.680873870849609375e+01 2.470636367797851562e+01 -5.874928236007690430e-01 -2.878955900669097900e-01 -2.626165151596069336e-01 -4.329835176467895508e-01
3.095000000000000000e+03 4.819833755493164062e+01 2.598195838928222656e+01 -4.767240881919860840e-01 -2.180006355047225952e-01 -2.084174156188964844e-01 -3.454707264900207520e-01
3.096000000000000000e+03 4.845405578613281250e+01 2.680854606628417969e+01 -5.134735107421875000e-01 -3.377751708030700684e-01 -2.553746104240417480e-01 -4.189926087856292725e-01
3.097000000000000000e+03 2.413555526733398438e+01 1.752044677734375000e+01 8.046294003725051880e-02 1.209389641880989075e-01 6.042056903243064880e-02 9.931488335132598877e-02
3.098000000000000000e+03 4.435366821289062500e+01 2.231384658813476562e+01 -6.739937067031860352e-01 -4.321098029613494873e-01 -3.318310379981994629e-01 -5.499073863029479980e-01
3.099000000000000000e+03 4.352914810180664062e+01 2.199572181701660156e+01 -7.315030097961425781e-01 -5.313472747802734375e-01 -3.788550794124603271e-01 -6.356491446495056152e-01
3.100000000000000000e+03 3.225495147705078125e+01 9.760066032409667969e+00 -1.014654636383056641e+00 -9.281975626945495605e-01 -5.828556418418884277e-01 -8.797652721405029297e-01
3.101000000000000000e+03 3.358927154541015625e+01 1.077958774566650391e+01 -9.701087474822998047e-01 -8.805620670318603516e-01 -5.552012324333190918e-01 -8.640564680099487305e-01
3.102000000000000000e+03 3.655847167968750000e+01 1.438189220428466797e+01 -8.715184330940246582e-01 -8.611090183258056641e-01 -5.197882652282714844e-01 -8.585597872734069824e-01
3.103000000000000000e+03 3.581274414062500000e+01 1.398845863342285156e+01 -9.233869314193725586e-01 -9.258170723915100098e-01 -5.547611713409423828e-01 -9.100343585014343262e-01
3.104000000000000000e+03 2.863669204711914062e+01 2.125395011901855469e+01 6.761804968118667603e-02 9.638512134552001953e-02 4.920095205307006836e-02 8.320019394159317017e-02
3.105000000000000000e+03 3.505096435546875000e+01 1.327757930755615234e+01 -9.513133168220520020e-01 -9.561865925788879395e-01 -5.722499489784240723e-01 -9.255455732345581055e-01
3.106000000000000000e+03 3.580337524414062500e+01 1.339117908477783203e+01 -8.980824351310729980e-01 -8.620655536651611328e-01 -5.280444025993347168e-01 -8.552097082138061523e-01
3.107000000000000000e+03 3.381884002685546875e+01 1.118099784851074219e+01 -9.643844962120056152e-01 -8.927612900733947754e-01 -5.571437478065490723e-01 -8.818687200546264648e-01
3.108000000000000000e+03 4.381997680664062500e+01 2.174660682678222656e+01 -6.773996949195861816e-01 -4.463520646095275879e-01 -3.371255099773406982e-01 -5.702151656150817871e-01
3.109000000000000000e+03 4.102163696289062500e+01 1.912801551818847656e+01 -7.020698785781860352e-01 -5.755648016929626465e-01 -3.832903802394866943e-01 -7.281721830368041992e-01
3.110000000000000000e+03 4.870392608642578125e+01 2.707522392272949219e+01 -5.094180703163146973e-01 -3.336794078350067139e-01 -2.529292404651641846e-01 -4.063999652862548828e-01
3.111000000000000000e+03 3.309043121337890625e+01 2.577451324462890625e+01 5.684040859341621399e-02 8.277156949043273926e-02 4.188359528779983521e-02 6.910096853971481323e-02
3.112000000000000000e+03 2.787100982666015625e+01 2.116544914245605469e+01 6.417773663997650146e-02 1.001914888620376587e-01 4.931076988577842712e-02 8.326042443513870239e-02
3.113000000000000000e+03 2.806687927246093750e+01 2.053777313232421875e+01 7.194964587688446045e-02 9.917614609003067017e-02 5.133773759007453918e-02 8.659379929304122925e-02
3.114000000000000000e+03 3.357690811157226562e+01 2.693904876708984375e+01 5.524715036153793335e-02 8.287700265645980835e-02 4.143724590539932251e-02 6.717929989099502563e-02
3.115000000000000000e+03 2.777891731262207031e+01 1.992012023925781250e+01 7.605640590190887451e-02 1.008053943514823914e-01 5.305854231119155884e-02 8.908752351999282837e-02
3.116000000000000000e+03 4.462608718872070312e+01 2.259202194213867188e+01 -6.706863045692443848e-01 -4.232497811317443848e-01 -3.281808197498321533e-01 -5.364184975624084473e-01
3.117000000000000000e+03 2.742037582397460938e+01 2.004197502136230469e+01 7.378075271844863892e-02 1.037565097212791443e-01 5.326117947697639465e-02 8.855555206537246704e-02
3.118000000000000000e+03 2.787964630126953125e+01 2.025426292419433594e+01 7.370799034833908081e-02 1.011871099472045898e-01 5.246853083372116089e-02 8.773345500230789185e-02
3.119000000000000000e+03 2.704729270935058594e+01 2.011802864074707031e+01 7.002920657396316528e-02 1.047797575592994690e-01 5.244268849492073059e-02 8.768599480390548706e-02
3.120000000000000000e+03 2.696183967590332031e+01 1.922967720031738281e+01 7.894349098205566406e-02 1.067257449030876160e-01 5.570077151060104370e-02 9.242319315671920776e-02
3.121000000000000000e+03 2.662693595886230469e+01 1.937165069580078125e+01 7.672427594661712646e-02 1.078620478510856628e-01 5.537590011954307556e-02 9.073924273252487183e-02
3.122000000000000000e+03 2.542590904235839844e+01 1.812368774414062500e+01 8.352631330490112305e-02 1.143655925989151001e-01 5.936757102608680725e-02 9.672650694847106934e-02
3.123000000000000000e+03 3.676404190063476562e+01 1.466760921478271484e+01 -8.725093603134155273e-01 -8.639509081840515137e-01 -5.209380984306335449e-01 -8.569635748863220215e-01
3.124000000000000000e+03 2.988566780090332031e+01 2.298550796508789062e+01 5.666236951947212219e-02 9.135948121547698975e-02 4.440655559301376343e-02 7.759154587984085083e-02
3.125000000000000000e+03 3.213286590576171875e+01 2.542170524597167969e+01 5.520526692271232605e-02 8.441702276468276978e-02 4.188668727874755859e-02 7.044143974781036377e-02
3.126000000000000000e+03 4.574704742431640625e+01 2.419604682922363281e+01 -6.920575499534606934e-01 -4.419884085655212402e-01 -3.402137756347656250e-01 -5.418129563331604004e-01
3.127000000000000000e+03 4.653543472290039062e+01 2.445291519165039062e+01 -6.072696447372436523e-01 -3.041481673717498779e-01 -2.734253406524658203e-01 -4.456055164337158203e-01
3.128000000000000000e+03 3.186697196960449219e+01 9.895416259765625000e+00 -1.068913340568542480e+00 -9.650613665580749512e-01 -6.101924180984497070e-01 -9.216799139976501465e-01
3.129000000000000000e+03 5.126758575439453125e+01 2.876545715332031250e+01 -2.250426709651947021e-01 -2.804548479616641998e-02 -7.592644542455673218e-02 -8.026299625635147095e-02
3.130000000000000000e+03 5.076930618286132812e+01 2.880584907531738281e+01 -3.408536314964294434e-01 -2.049675136804580688e-01 -1.637463420629501343e-01 -2.293144166469573975e-01
3.131000000000000000e+03 3.549132156372070312e+01 1.318369293212890625e+01 -9.112620353698730469e-01 -8.777406215667724609e-01 -5.367007851600646973e-01 -8.743271231651306152e-01
3.132000000000000000e+03 2.511472320556640625e+01 1.793762969970703125e+01 8.315250277519226074e-02 1.149111092090606689e-01 5.941908061504364014e-02 9.757339954376220703e-02
3.133000000000000000e+03 1.514318847656250000e+01 8.343215942382812500e+00 9.781284630298614502e-02 3.039800226688385010e-01 1.205378621816635132e-01 1.444941312074661255e-01
3.134000000000000000e+03 1.503582763671875000e+01 7.935751438140869141e+00 9.986487776041030884e-02 3.231798410415649414e-01 1.269134134054183960e-01 1.520595103502273560e-01
3.135000000000000000e+03 3.701141357421875000e+01 1.486306190490722656e+01 -8.540911078453063965e-01 -8.398166894912719727e-01 -5.081723332405090332e-01 -8.403638601303100586e-01
3.136000000000000000e+03 2.665456390380859375e+01 1.975415611267089844e+01 7.140190154314041138e-02 1.071052178740501404e-01 5.355213582515716553e-02 8.908843249082565308e-02
3.137000000000000000e+03 3.731780242919921875e+01 1.507870101928710938e+01 -8.407191038131713867e-01 -8.198557496070861816e-01 -4.981724619865417480e-01 -8.185687661170959473e-01
3.138000000000000000e+03 2.171619987487792969e+01 1.432753276824951172e+01 1.008758768439292908e-01 1.441045701503753662e-01 7.349413633346557617e-02 1.174773424863815308e-01
3.139000000000000000e+03 2.055590629577636719e+01 1.360726356506347656e+01 9.829650819301605225e-02 1.525743752717971802e-01 7.526126503944396973e-02 1.213951110839843750e-01
3.140000000000000000e+03 5.107018280029296875e+01 2.908243179321289062e+01 -3.161254227161407471e-01 -1.794437319040298462e-01 -1.486707478761672974e-01 -2.096416354179382324e-01
3.141000000000000000e+03 5.182686614990234375e+01 2.922632217407226562e+01 -1.757395565509796143e-01 5.970410630106925964e-02 -3.481063619256019592e-02 -1.928496174514293671e-02
3.142000000000000000e+03 3.761758041381835938e+01 1.538694095611572266e+01 -8.286069035530090332e-01 -7.997541427612304688e-01 -4.885083138942718506e-01 -8.064682483673095703e-01
3.143000000000000000e+03 3.864042282104492188e+01 1.714498901367187500e+01 -8.287275433540344238e-01 -7.978334426879882812e-01 -4.879682958126068115e-01 -8.132469058036804199e-01
3.144000000000000000e+03 4.355721282958984375e+01 2.145404434204101562e+01 -6.766582727432250977e-01 -4.530276358127593994e-01 -3.389057815074920654e-01 -5.775177478790283203e-01
3.145000000000000000e+03 4.489979934692382812e+01 2.286698150634765625e+01 -6.657759547233581543e-01 -4.108159542083740234e-01 -3.229775726795196533e-01 -5.228064060211181641e-01
3.146000000000000000e+03 4.985058593750000000e+01 2.800449562072753906e+01 -4.174733757972717285e-01 -2.620388269424438477e-01 -2.038536518812179565e-01 -3.036005198955535889e-01
3.147000000000000000e+03 2.197055053710937500e+01 1.550353622436523438e+01 8.594396710395812988e-02 1.392211914062500000e-01 6.754954904317855835e-02 1.076030656695365906e-01
3.148000000000000000e+03 2.253004074096679688e+01 1.566095256805419922e+01 8.843021839857101440e-02 1.362486183643341064e-01 6.740365177392959595e-02 1.086623147130012512e-01
3.149000000000000000e+03 3.789951705932617188e+01 1.569495582580566406e+01 -8.230848312377929688e-01 -7.871827483177185059e-01 -4.830802679061889648e-01 -7.945043444633483887e-01
3.150000000000000000e+03 4.896183395385742188e+01 2.733086013793945312e+01 -4.903165996074676514e-01 -3.293990492820739746e-01 -2.459146976470947266e-01 -3.862692117691040039e-01
3.151000000000000000e+03 3.579452514648437500e+01 2.942130279541015625e+01 5.296801403164863586e-02 7.774043828248977661e-02 3.921253606677055359e-02 6.121727451682090759e-02
3.152000000000000000e+03 3.435710906982421875e+01 2.808719062805175781e+01 5.613104999065399170e-02 7.986971735954284668e-02 4.080023244023323059e-02 6.478144228458404541e-02
3.153000000000000000e+03 5.016246032714843750e+01 2.826144599914550781e+01 -3.914470374584197998e-01 -2.407997697591781616e-01 -1.896740347146987915e-01 -2.726632058620452881e-01
3.154000000000000000e+03 2.476929664611816406e+01 1.779052543640136719e+01 8.236952871084213257e-02 1.174833551049232483e-01 5.995586514472961426e-02 9.828931093215942383e-02
3.155000000000000000e+03 4.953839874267578125e+01 2.776623344421386719e+01 -4.437484443187713623e-01 -2.942543923854827881e-01 -2.214008569717407227e-01 -3.323254287242889404e-01
3.156000000000000000e+03 4.913903045654296875e+01 2.708168029785156250e+01 -4.410681128501892090e-01 -2.328113764524459839e-01 -2.021638453006744385e-01 -3.078947961330413818e-01
3.157000000000000000e+03 2.650764846801757812e+01 1.901576042175292969e+01 7.955174148082733154e-02 1.092032566666603088e-01 5.662649869918823242e-02 9.305664896965026855e-02
3.158000000000000000e+03 3.840312576293945312e+01 1.686163711547851562e+01 -8.373534679412841797e-01 -8.186548948287963867e-01 -4.968025088310241699e-01 -8.181190490722656250e-01
3.159000000000000000e+03 1.754670524597167969e+01 1.043476104736328125e+01 1.076724156737327576e-01 2.070951908826828003e-01 9.443028271198272705e-02 1.445285975933074951e-01
3.160000000000000000e+03 5.206644439697265625e+01 2.967679214477539062e+01 -1.720898300409317017e-01 1.109545025974512100e-02 -4.829831421375274658e-02 -5.715376883745193481e-02
3.161000000000000000e+03 1.937243652343750000e+01 1.225350379943847656e+01 1.024885773658752441e-01 1.683179289102554321e-01 8.124195039272308350e-02 1.319257020950317383e-01
3.162000000000000000e+03 3.407447052001953125e+01 1.156946182250976562e+01 -9.628944396972656250e-01 -9.011533856391906738e-01 -5.592143535614013672e-01 -8.909295797348022461e-01
3.163000000000000000e+03 4.547089767456054688e+01 2.392988204956054688e+01 -7.013612389564514160e-01 -4.600867331027984619e-01 -3.484343886375427246e-01 -5.530829429626464844e-01
3.164000000000000000e+03 4.048729324340820312e+01 1.802410507202148438e+01 -7.120020985603332520e-01 -5.409946441650390625e-01 -3.758990168571472168e-01 -7.017375826835632324e-01
3.165000000000000000e+03 2.629689979553222656e+01 1.871610069274902344e+01 8.168260753154754639e-02 1.103070899844169617e-01 5.759691074490547180e-02 9.370256215333938599e-02
3.166000000000000000e+03 2.601211357116699219e+01 1.850124168395996094e+01 8.315339684486389160e-02 1.119298711419105530e-01 5.852498114109039307e-02 9.537154436111450195e-02
3.167000000000000000e+03 2.893333625793457031e+01 2.238716506958007812e+01 5.957283452153205872e-02 9.476231038570404053e-02 4.630054533481597900e-02 7.783650606870651245e-02
3.168000000000000000e+03 4.171381759643554688e+01 1.990053176879882812e+01 -6.878402829170227051e-01 -5.565448403358459473e-01 -3.733155429363250732e-01 -6.933311223983764648e-01
3.169000000000000000e+03 2.194145393371582031e+01 1.465432357788085938e+01 9.805379062891006470e-02 1.425673514604568481e-01 7.218634337186813354e-02 1.150294467806816101e-01
3.170000000000000000e+03 2.138471412658691406e+01 1.451963710784912109e+01 9.469661861658096313e-02 1.455762535333633423e-01 7.208185642957687378e-02 1.146875992417335510e-01
3.171000000000000000e+03 3.638685607910156250e+01 1.350582027435302734e+01 -8.545811772346496582e-01 -7.843620777130126953e-01 -4.916829764842987061e-01 -8.029842972755432129e-01
3.172000000000000000e+03 4.408478164672851562e+01 2.203241920471191406e+01 -6.773250102996826172e-01 -4.404810667037963867e-01 -3.353418111801147461e-01 -5.605124235153198242e-01
3.173000000000000000e+03 3.816896057128906250e+01 1.600066566467285156e+01 -8.165633678436279297e-01 -7.697896957397460938e-01 -4.759058952331542969e-01 -7.865422368049621582e-01
3.174000000000000000e+03 2.572012710571289062e+01 1.831610870361328125e+01 8.314091712236404419e-02 1.126378402113914490e-01 5.873362720012664795e-02 9.554611146450042725e-02
3.175000000000000000e+03 1.830961036682128906e+01 1.145421123504638672e+01 1.001816764473915100e-01 1.865145415067672729e-01 8.600886166095733643e-02 1.363474130630493164e-01
3.176000000000000000e+03 3.338596725463867188e+01 1.038206768035888672e+01 -9.589855074882507324e-01 -8.686636686325073242e-01 -5.482947230339050293e-01 -8.444512486457824707e-01
3.177000000000000000e+03 3.330849075317382812e+01 2.638732337951660156e+01 5.553414300084114075e-02 8.297933638095855713e-02 4.155404493212699890e-02 6.767648458480834961e-02
3.178000000000000000e+03 2.215295410156250000e+01 1.498519897460937500e+01 9.485246986150741577e-02 1.403333693742752075e-01 7.055575400590896606e-02 1.126105487346649170e-01
3.179000000000000000e+03 3.977266311645507812e+01 1.727410125732421875e+01 -7.478817105293273926e-01 -5.863629579544067383e-01 -4.002734124660491943e-01 -7.123873233795166016e-01
3.180000000000000000e+03 3.119121360778808594e+01 2.403296852111816406e+01 5.741637945175170898e-02 8.565548807382583618e-02 4.292155802249908447e-02 7.346146553754806519e-02
3.181000000000000000e+03 3.392291259765625000e+01 2.745870399475097656e+01 5.629370361566543579e-02 8.180630952119827271e-02 4.143000394105911255e-02 6.585298478603363037e-02
3.182000000000000000e+03 3.842321777343750000e+01 1.630473136901855469e+01 -8.129854798316955566e-01 -7.551538944244384766e-01 -4.704417884349822998e-01 -7.786597609519958496e-01
3.183000000000000000e+03 3.866130065917968750e+01 1.660449409484863281e+01 -8.094033002853393555e-01 -7.382998466491699219e-01 -4.643109440803527832e-01 -7.757351398468017578e-01
3.184000000000000000e+03 4.271545410156250000e+01 2.060056877136230469e+01 -6.692505478858947754e-01 -4.836597144603729248e-01 -3.458730876445770264e-01 -6.157842874526977539e-01
3.185000000000000000e+03 1.992038726806640625e+01 1.296654796600341797e+01 9.980006515979766846e-02 1.608992666006088257e-01 7.820980250835418701e-02 1.254623979330062866e-01
3.186000000000000000e+03 3.097444915771484375e+01 2.367373466491699219e+01 5.670161917805671692e-02 8.568374067544937134e-02 4.271560907363891602e-02 7.592210173606872559e-02
3.187000000000000000e+03 4.517410659790039062e+01 2.313930892944335938e+01 -6.612186431884765625e-01 -3.973456323146820068e-01 -3.175692856311798096e-01 -5.077186822891235352e-01
3.188000000000000000e+03 3.466841125488281250e+01 2.945461273193359375e+01 5.346171185374259949e-02 7.820060104131698608e-02 3.949869424104690552e-02 6.005978956818580627e-02
3.189000000000000000e+03 3.544677352905273438e+01 2.927134132385253906e+01 5.612969025969505310e-02 7.646104693412780762e-02 3.977721929550170898e-02 6.139722093939781189e-02
3.190000000000000000e+03 2.114946746826171875e+01 1.420046806335449219e+01 9.702489525079727173e-02 1.471266150474548340e-01 7.324545830488204956e-02 1.171607449650764465e-01
3.191000000000000000e+03 5.299937820434570312e+01 3.044179534912109375e+01 -7.658058404922485352e-02 1.944483220577239990e-01 3.536032140254974365e-02 2.069740323349833488e-03
3.192000000000000000e+03 1.365455436706542969e+01 6.222195148468017578e+00 8.273775875568389893e-02 5.181784033775329590e-01 1.802748441696166992e-01 9.556721150875091553e-02
3.193000000000000000e+03 2.228193473815917969e+01 1.617489624023437500e+01 8.042469620704650879e-02 1.351369619369506836e-01 6.466849893331527710e-02 1.038252264261245728e-01
3.194000000000000000e+03 5.246450805664062500e+01 2.992244529724121094e+01 -9.496828168630599976e-02 1.172989010810852051e-01 6.699184887111186981e-03 2.373582450672984123e-03
3.195000000000000000e+03 5.270728683471679688e+01 3.017522621154785156e+01 -9.776462614536285400e-02 1.421422809362411499e-01 1.331329718232154846e-02 -1.439893152564764023e-03
3.196000000000000000e+03 3.434840011596679688e+01 1.191677570343017578e+01 -9.495781064033508301e-01 -9.038882255554199219e-01 -5.560398697853088379e-01 -8.940088748931884766e-01
3.197000000000000000e+03 3.282072830200195312e+01 1.009333801269531250e+01 -9.905206561088562012e-01 -9.020299315452575684e-01 -5.677651762962341309e-01 -8.631711006164550781e-01
3.198000000000000000e+03 2.213109016418457031e+01 1.584286594390869141e+01 8.247997611761093140e-02 1.372403353452682495e-01 6.591609120368957520e-02 1.055880337953567505e-01
3.199000000000000000e+03 4.544829177856445312e+01 2.340918540954589844e+01 -6.547750830650329590e-01 -3.799768090248107910e-01 -3.104255497455596924e-01 -4.942746162414550781e-01
3.200000000000000000e+03 4.572166824340820312e+01 2.367624855041503906e+01 -6.475918889045715332e-01 -3.625937104225158691e-01 -3.030556738376617432e-01 -4.806604683399200439e-01
3.201000000000000000e+03 5.330375671386718750e+01 3.074793434143066406e+01 -5.241528898477554321e-02 2.379963397979736328e-01 5.567431449890136719e-02 -1.102498499676585197e-03
3.202000000000000000e+03 3.526226425170898438e+01 2.895314407348632812e+01 5.771657451987266541e-02 7.988860458135604858e-02 4.128155484795570374e-02 6.056699529290199280e-02
3.203000000000000000e+03 3.256017303466796875e+01 9.146194458007812500e+00 -9.286381602287292480e-01 -8.548833727836608887e-01 -5.350564718246459961e-01 -7.986392378807067871e-01
3.204000000000000000e+03 3.358171081542968750e+01 9.873184204101562500e+00 -9.071396589279174805e-01 -8.056855797767639160e-01 -5.138475894927978516e-01 -7.832964658737182617e-01
3.205000000000000000e+03 3.489268493652343750e+01 2.897568702697753906e+01 5.388522148132324219e-02 7.659170031547546387e-02 3.914307802915573120e-02 6.046174466609954834e-02
3.206000000000000000e+03 2.997729682922363281e+01 4.911825656890869141e+00 -1.323934197425842285e+00 -6.903672814369201660e-01 -6.042904257774353027e-01 -6.665121316909790039e-01
3.207000000000000000e+03 1.721336746215820312e+01 1.087110996246337891e+01 9.388639777898788452e-02 2.065695226192474365e-01 9.013677388429641724e-02 1.330765634775161743e-01
3.208000000000000000e+03 5.764921188354492188e+01 3.098484230041503906e+01 1.753754496574401855e+00 2.280147552490234375e+00 1.210170626640319824e+00 2.003986120223999023e+00
3.209000000000000000e+03 5.853730010986328125e+01 3.123732757568359375e+01 2.222493410110473633e+00 3.213240385055541992e+00 1.630720138549804688e+00 2.891009330749511719e+00
3.210000000000000000e+03 1.471651744842529297e+01 7.128151416778564453e+00 1.084211021661758423e-01 3.783696293830871582e-01 1.460372209548950195e-01 1.690301895141601562e-01
3.211000000000000000e+03 1.451469516754150391e+01 6.813449382781982422e+00 1.110349372029304504e-01 4.083429276943206787e-01 1.558133661746978760e-01 1.687194108963012695e-01
3.212000000000000000e+03 1.331422138214111328e+01 5.992850303649902344e+00 8.745522052049636841e-02 5.447471737861633301e-01 1.896607130765914917e-01 3.045313619077205658e-02
3.213000000000000000e+03 1.445436191558837891e+01 7.693754196166992188e+00 8.545519411563873291e-02 3.562709391117095947e-01 1.325178444385528564e-01 1.301678121089935303e-01
3.214000000000000000e+03 3.260531234741210938e+01 6.013087272644042969e+00 -8.328709602355957031e-01 -5.480643510818481445e-01 -4.142805933952331543e-01 -6.010748744010925293e-01
3.215000000000000000e+03 2.975976943969726562e+01 2.361031150817871094e+01 5.376724898815155029e-02 9.143508225679397583e-02 4.356069862842559814e-02 7.609720528125762939e-02
3.216000000000000000e+03 6.041252899169921875e+01 3.198414421081542969e+01 2.645815372467041016e+00 8.413597106933593750e+00 3.317823648452758789e+00 5.466865062713623047e+00
3.217000000000000000e+03 3.232926177978515625e+01 7.017279624938964844e+00 -8.485337495803833008e-01 -6.888589262962341309e-01 -4.612177908420562744e-01 -7.225737571716308594e-01
3.218000000000000000e+03 1.256466484069824219e+01 4.897274494171142578e+00 2.036851048469543457e-01 5.776997208595275879e-01 2.344154417514801025e-01 -1.686232835054397583e-01
3.219000000000000000e+03 1.296837234497070312e+01 5.757889270782470703e+00 1.092624887824058533e-01 5.412568449974060059e-01 1.951557993888854980e-01 -2.476590126752853394e-02
3.220000000000000000e+03 2.927339172363281250e+01 4.253599643707275391e+00 -1.357948303222656250e+00 -7.229068279266357422e-01 -6.242565512657165527e-01 -6.111470460891723633e-01
3.221000000000000000e+03 3.031039047241210938e+01 4.854944705963134766e+00 -1.205022573471069336e+00 -6.392855048179626465e-01 -5.532923936843872070e-01 -6.310796737670898438e-01
3.222000000000000000e+03 3.115196228027343750e+01 5.248351097106933594e+00 -1.085074186325073242e+00 -5.776876211166381836e-01 -4.988285601139068604e-01 -6.398323178291320801e-01
3.223000000000000000e+03 3.210675048828125000e+01 5.654580116271972656e+00 -8.962489366531372070e-01 -5.469837784767150879e-01 -4.329698085784912109e-01 -6.144653558731079102e-01
3.224000000000000000e+03 3.160268211364746094e+01 2.484615516662597656e+01 5.660574883222579956e-02 8.471829444169998169e-02 4.239721223711967468e-02 7.107656449079513550e-02
3.225000000000000000e+03 3.083333206176757812e+01 2.425372695922851562e+01 5.377478525042533875e-02 8.619645237922668457e-02 4.199137166142463684e-02 7.394958287477493286e-02
3.226000000000000000e+03 3.272086334228515625e+01 7.976048469543457031e+00 -8.377432823181152344e-01 -7.378933429718017578e-01 -4.726909995079040527e-01 -7.237802147865295410e-01
3.227000000000000000e+03 5.492666625976562500e+01 3.139055061340332031e+01 3.515779078006744385e-01 6.353310942649841309e-01 2.960726916790008545e-01 1.757527291774749756e-01
3.228000000000000000e+03 5.387288284301757812e+01 3.153196334838867188e+01 -7.765874266624450684e-02 2.833387553691864014e-01 6.170400604605674744e-02 -1.282737255096435547e-01
3.229000000000000000e+03 5.632314682006835938e+01 3.056219863891601562e+01 1.106113076210021973e+00 1.604344010353088379e+00 8.131371140480041504e-01 1.190393447875976562e+00
3.230000000000000000e+03 5.352842712402343750e+01 3.179322433471679688e+01 -2.517964243888854980e-01 1.087132394313812256e-01 -4.292495548725128174e-02 -2.640181481838226318e-01
3.231000000000000000e+03 2.366645622253417969e+01 5.746168494224548340e-01 -1.310368657112121582e+00 6.746934261173009872e-03 -3.910865187644958496e-01 -6.531299948692321777e-01
3.232000000000000000e+03 3.754338073730468750e+01 3.166145706176757812e+01 5.761079117655754089e-02 6.726777553558349609e-02 3.746357187628746033e-02 5.663443356752395630e-02
3.233000000000000000e+03 3.596134948730468750e+01 2.994678497314453125e+01 5.492192134261131287e-02 7.724945247173309326e-02 3.965141251683235168e-02 6.078779697418212891e-02
3.234000000000000000e+03 6.306171798706054688e+01 3.064773941040039062e+01 4.338054358959197998e-02 1.392047023773193359e+01 4.189155101776123047e+00 5.989713668823242188e-01
3.235000000000000000e+03 3.702988052368164062e+01 3.133441162109375000e+01 5.609498918056488037e-02 7.098185271024703979e-02 3.812305256724357605e-02 5.559463426470756531e-02
3.236000000000000000e+03 3.249914932250976562e+01 7.491807937622070312e+00 -8.293737173080444336e-01 -7.312334775924682617e-01 -4.681821465492248535e-01 -7.258436083793640137e-01
3.237000000000000000e+03 2.816123008728027344e+01 3.457401275634765625e+00 -1.405795097351074219e+00 -6.860929727554321289e-01 -6.275663971900939941e-01 -6.349888443946838379e-01
3.238000000000000000e+03 2.756143188476562500e+01 -1.370418429374694824e+00 1.742067039012908936e-01 -2.766014039516448975e-01 -3.071840666234493256e-02 -9.589777886867523193e-02
3.239000000000000000e+03 5.586443901062011719e+00 6.949759006500244141e+00 8.098591864109039307e-02 -1.229434683918952942e-01 -1.258726511150598526e-02 7.519108802080154419e-02
3.240000000000000000e+03 2.763804054260253906e+01 -9.081367254257202148e-01 -7.719627022743225098e-02 -3.257313966751098633e-01 -1.208782941102981567e-01 -5.250692740082740784e-02
3.241000000000000000e+03 6.952376842498779297e+00 6.103383541107177734e+00 1.228392422199249268e-01 -1.246083974838256836e-01 -5.307467072270810604e-04 7.716169953346252441e-02
3.242000000000000000e+03 3.113505554199218750e+01 2.501017951965332031e+01 5.109551176428794861e-02 8.559694886207580566e-02 4.100773856043815613e-02 7.103485614061355591e-02
3.243000000000000000e+03 3.013366699218750000e+01 2.330748558044433594e+01 5.754446983337402344e-02 8.952268213033676147e-02 4.412014409899711609e-02 7.554660737514495850e-02
3.244000000000000000e+03 3.086247444152832031e+01 -2.266425132751464844e+00 2.462417036294937134e-01 -3.042784631252288818e-01 -1.741103082895278931e-02 3.951820731163024902e-02
3.245000000000000000e+03 5.562724685668945312e+01 2.994675636291503906e+01 8.166134357452392578e-01 1.520534396171569824e+00 7.011443376541137695e-01 1.046398162841796875e+00
3.246000000000000000e+03 2.560218811035156250e+01 -7.045089602470397949e-01 -7.908772677183151245e-02 -1.777486130595207214e-02 -2.905877679586410522e-02 -1.886591315269470215e-01
3.247000000000000000e+03 3.638727951049804688e+01 3.107137680053710938e+01 5.550298467278480530e-02 7.331429421901702881e-02 3.864518180489540100e-02 5.841897800564765930e-02
3.248000000000000000e+03 3.631780242919921875e+01 3.018236351013183594e+01 5.710989981889724731e-02 7.526645064353942871e-02 3.971290588378906250e-02 5.899605900049209595e-02
3.249000000000000000e+03 5.496132659912109375e+01 3.056137466430664062e+01 5.428312420845031738e-01 9.413161277770996094e-01 4.452441930770874023e-01 5.429251790046691895e-01
3.250000000000000000e+03 9.652639389038085938e+00 5.146352767944335938e+00 2.532733082771301270e-01 -8.364469558000564575e-02 5.088858678936958313e-02 -7.969425991177558899e-03
3.251000000000000000e+03 8.274028778076171875e+00 6.075304985046386719e+00 1.790249198675155640e-01 -1.055023074150085449e-01 2.205678261816501617e-02 3.284402191638946533e-02
3.252000000000000000e+03 3.104203605651855469e+01 -3.108751773834228516e+00 3.484209179878234863e-01 -3.285048604011535645e-01 5.974819418042898178e-03 -2.344183251261711121e-02
3.253000000000000000e+03 4.113324356079101562e+01 3.459802627563476562e+01 7.163226604461669922e-02 4.877722635865211487e-02 3.612284734845161438e-02 5.566501617431640625e-02
3.254000000000000000e+03 4.179620742797851562e+01 3.582806396484375000e+01 8.337369561195373535e-02 4.153406247496604919e-02 3.747232630848884583e-02 4.616180807352066040e-02
3.255000000000000000e+03 3.896687698364257812e+01 3.387892532348632812e+01 5.938394367694854736e-02 6.218702718615531921e-02 3.647129237651824951e-02 4.968353360891342163e-02
3.256000000000000000e+03 6.255795001983642578e+00 -7.509379863739013672e+00 -1.065378561615943909e-01 -2.257548868656158447e-01 -9.968782216310501099e-02 -3.064547181129455566e-01
3.257000000000000000e+03 4.063587951660156250e+01 3.544304275512695312e+01 6.976085156202316284e-02 5.009800568222999573e-02 3.595765680074691772e-02 4.802786558866500854e-02
3.258000000000000000e+03 3.878131484985351562e+01 3.272676086425781250e+01 5.582543089985847473e-02 6.482002884149551392e-02 3.619363531470298767e-02 5.479613691568374634e-02
3.259000000000000000e+03 7.096070289611816406e+00 -7.337977886199951172e+00 -1.224443688988685608e-01 -2.331378459930419922e-01 -1.066746637225151062e-01 -3.436763882637023926e-01
3.260000000000000000e+03 7.327139377593994141e+00 -8.208104133605957031e+00 -1.032051518559455872e-01 -2.679827511310577393e-01 -1.113563701510429382e-01 -3.710294365882873535e-01
3.261000000000000000e+03 9.128785133361816406e+00 -6.050063133239746094e+00 -2.345677763223648071e-01 -2.012540847063064575e-01 -1.307465583086013794e-01 -4.092319607734680176e-01
3.262000000000000000e+03 3.890054702758789062e+01 3.327018356323242188e+01 7.675790786743164062e-02 5.853223800659179688e-02 4.058704152703285217e-02 5.567457899451255798e-02
3.263000000000000000e+03 1.031175041198730469e+01 5.060527324676513672e+00 2.882004380226135254e-01 -1.501740142703056335e-02 8.195490390062332153e-02 -7.098353654146194458e-02
3.264000000000000000e+03 7.288257122039794922e+00 7.939396858215332031e+00 1.124521121382713318e-01 -7.330941408872604370e-02 1.174280978739261627e-02 1.892320066690444946e-02
3.265000000000000000e+03 1.121665763854980469e+01 4.562692642211914062e+00 3.504791855812072754e-01 1.188160479068756104e-01 1.407885700464248657e-01 -1.585472524166107178e-01
3.266000000000000000e+03 1.342292308807373047e+01 6.582134723663330078e+00 7.997827976942062378e-02 4.659393131732940674e-01 1.637752801179885864e-01 5.313494428992271423e-02
3.267000000000000000e+03 7.832062244415283203e+00 -1.094590282440185547e+01 -1.840620860457420349e-02 -3.818444311618804932e-01 -1.200751885771751404e-01 -4.047662019729614258e-01
3.268000000000000000e+03 1.034458160400390625e+01 5.744971752166748047e+00 2.357710599899291992e-01 4.293699190020561218e-02 8.361241966485977173e-02 -7.601156830787658691e-02
3.269000000000000000e+03 4.149798202514648438e+01 3.721986389160156250e+01 8.036189526319503784e-02 4.177568852901458740e-02 3.664127364754676819e-02 2.955736033618450165e-02
3.270000000000000000e+03 7.569641590118408203e+00 -9.008686065673828125e+00 -6.813327968120574951e-02 -3.130846619606018066e-01 -1.143653839826583862e-01 -3.872681260108947754e-01
3.271000000000000000e+03 9.791076660156250000e+00 -5.935618400573730469e+00 -2.863426804542541504e-01 -1.810409873723983765e-01 -1.402150988578796387e-01 -4.371119439601898193e-01
3.272000000000000000e+03 6.382707977294921875e+01 2.990837669372558594e+01 -9.648407995700836182e-02 1.284742546081542969e+01 3.825282335281372070e+00 -8.167271316051483154e-02
3.273000000000000000e+03 6.821157932281494141e+00 2.117165756225585938e+01 -5.093263462185859680e-03 -4.667238891124725342e-02 -1.552969589829444885e-02 -2.027029916644096375e-02
3.274000000000000000e+03 8.909196853637695312e+00 2.533946800231933594e+01 -8.604575879871845245e-03 -1.840032078325748444e-02 -8.101468905806541443e-03 -1.304514799267053604e-02
3.275000000000000000e+03 2.935519218444824219e+01 -2.437483310699462891e+00 3.662247657775878906e-01 -3.179212510585784912e-01 1.449105702340602875e-02 -1.225247886031866074e-02
3.276000000000000000e+03 1.251216888427734375e+01 -6.258494377136230469e+00 -2.893636524677276611e-01 -3.350799381732940674e-01 -1.873330771923065186e-01 -5.905362963676452637e-01
3.277000000000000000e+03 1.044405269622802734e+01 -5.866494178771972656e+00 -2.919862270355224609e-01 -2.324136644601821899e-01 -1.573199629783630371e-01 -4.767594635486602783e-01
3.278000000000000000e+03 1.110284900665283203e+01 -5.902948379516601562e+00 -3.187508881092071533e-01 -2.278635352849960327e-01 -1.639843285083770752e-01 -5.119981765747070312e-01
3.279000000000000000e+03 3.801771163940429688e+01 -6.362852573394775391e+00 2.812835574150085449e-01 3.992603719234466553e-01 2.041631788015365601e-01 1.029814966022968292e-02
3.280000000000000000e+03 6.532496643066406250e+01 3.068041610717773438e+01 1.174217343330383301e+00 1.232390689849853516e+01 4.049437522888183594e+00 -1.444245934486389160e+00
3.281000000000000000e+03 3.249076843261718750e+01 -4.610749244689941406e+00 3.887021243572235107e-01 -2.150901556015014648e-01 5.208359286189079285e-02 -2.122418768703937531e-02
3.282000000000000000e+03 3.213010025024414062e+01 -3.740996837615966797e+00 3.704115450382232666e-01 -2.715393304824829102e-01 2.966166660189628601e-02 -9.357546456158161163e-03
3.283000000000000000e+03 7.006332397460937500e+00 1.152940750122070312e+01 4.868746176362037659e-02 -3.924557194113731384e-02 2.832567086443305016e-03 -1.150955632328987122e-02
3.284000000000000000e+03 1.829790115356445312e+01 -1.591456890106201172e+01 2.117887735366821289e-01 -2.994606643915176392e-02 5.455281212925910950e-02 -2.787423431873321533e-01
3.285000000000000000e+03 7.299519538879394531e+00 1.492181682586669922e+01 1.524928119033575058e-02 -2.408997900784015656e-02 -2.652209484949707985e-03 -1.950478926301002502e-02
3.286000000000000000e+03 8.586009979248046875e+00 1.801695442199707031e+01 2.765449462458491325e-04 9.414722444489598274e-04 3.654051688499748707e-04 -1.658724993467330933e-02
3.287000000000000000e+03 1.480074310302734375e+01 -1.470008373260498047e+01 1.883049905300140381e-01 -3.160405457019805908e-01 -3.832066804170608521e-02 -3.674706518650054932e-01
3.288000000000000000e+03 4.732129573822021484e+00 6.842616558074951172e+00 5.929142609238624573e-02 -1.262336671352386475e-01 -2.008266933262348175e-02 7.827351242303848267e-02
3.289000000000000000e+03 1.991979789733886719e+01 -1.940431594848632812e+01 1.938344985246658325e-01 1.079970151185989380e-01 9.054945409297943115e-02 -2.912423610687255859e-01
3.290000000000000000e+03 1.959871292114257812e+01 -2.190584373474121094e+01 1.920708864927291870e-01 8.005540072917938232e-02 8.163788169622421265e-02 -2.838335931301116943e-01
3.291000000000000000e+03 1.824017715454101562e+01 -2.108075141906738281e+01 1.844901889562606812e-01 -4.088914953172206879e-03 5.412038415670394897e-02 -2.921274900436401367e-01
3.292000000000000000e+03 7.204656219482421875e+01 2.034691810607910156e+01 -5.425848364830017090e-01 8.242657661437988281e+00 2.310021638870239258e+00 -1.037296175956726074e+00
3.293000000000000000e+03 3.997570419311523438e+01 -1.257189750671386719e+01 1.378075480461120605e-01 8.179658055305480957e-01 2.867319881916046143e-01 -6.942567229270935059e-02
3.294000000000000000e+03 4.095910263061523438e+01 -1.354297733306884766e+01 9.412209689617156982e-02 1.021728038787841797e+00 3.347550332546234131e-01 -7.072654366493225098e-02
3.295000000000000000e+03 4.080167770385742188e+01 -1.142727565765380859e+01 1.678891628980636597e-01 9.643322825431823730e-01 3.396664261817932129e-01 -4.833436384797096252e-02
3.296000000000000000e+03 3.710066223144531250e+01 -8.352847099304199219e+00 2.821704149246215820e-01 2.839756608009338379e-01 1.698438227176666260e-01 -4.713733121752738953e-02
3.297000000000000000e+03 4.763375473022460938e+01 -2.302879905700683594e+01 -1.502159833908081055e-01 2.799147129058837891e+00 7.946793437004089355e-01 -7.053028093650937080e-04
3.298000000000000000e+03 4.782997131347656250e+01 -2.195585441589355469e+01 -1.230964586138725281e-01 2.812832117080688477e+00 8.069207072257995605e-01 -7.049043662846088409e-03
3.299000000000000000e+03 7.252061462402343750e+01 -1.966673088073730469e+01 -3.309558844193816185e-03 7.499076366424560547e+00 2.248730182647705078e+00 2.401411831378936768e-01
3.300000000000000000e+03 7.284981536865234375e+01 -2.551990890502929688e+01 1.032601203769445419e-02 7.409111976623535156e+00 2.225831508636474609e+00 2.261530458927154541e-01
3.301000000000000000e+03 4.646222686767578125e+01 -2.118251991271972656e+01 -1.120257675647735596e-01 2.402539491653442383e+00 6.871541738510131836e-01 -6.415408849716186523e-02
3.302000000000000000e+03 7.225052642822265625e+01 -7.972843647003173828e-01 -7.617394626140594482e-02 7.831617832183837891e+00 2.326633214950561523e+00 1.306189596652984619e-01
3.303000000000000000e+03 7.084019470214843750e+01 -4.175350666046142578e+00 -6.444540619850158691e-02 7.456698417663574219e+00 2.217675924301147461e+00 2.028278410434722900e-01
3.304000000000000000e+03 7.296199035644531250e+01 4.458970546722412109e+00 -1.287032216787338257e-01 8.068422317504882812e+00 2.381915569305419922e+00 5.648565012961626053e-03
3.305000000000000000e+03 7.137163543701171875e+01 3.244464397430419922e-01 -1.033452525734901428e-01 7.671249389648437500e+00 2.270371198654174805e+00 1.263840347528457642e-01
3.306000000000000000e+03 7.422762393951416016e+00 2.466676902770996094e+01 -7.335249334573745728e-03 -4.037305712699890137e-02 -1.431249175220727921e-02 -1.660238578915596008e-02
3.307000000000000000e+03 6.379497051239013672e+00 2.503783988952636719e+01 -5.920999217778444290e-03 -5.895093828439712524e-02 -1.946158148348331451e-02 -1.719449087977409363e-02
3.308000000000000000e+03 7.198941802978515625e+01 2.553773498535156250e+01 -2.322719395160675049e-01 8.355305671691894531e+00 2.436910152435302734e+00 -1.572100639343261719e+00
3.309000000000000000e+03 7.236713409423828125e+01 2.690814781188964844e+01 -1.404533069580793381e-02 8.180669784545898438e+00 2.449987411499023438e+00 -1.637087941169738770e+00
3.310000000000000000e+03 3.731076812744140625e+01 -5.905766487121582031e+00 3.137161433696746826e-01 3.066265583038330078e-01 1.861028075218200684e-01 5.644805729389190674e-03
3.311000000000000000e+03 3.440803909301757812e+01 -5.920031547546386719e+00 3.809110522270202637e-01 -5.624226853251457214e-02 9.740063548088073730e-02 -2.888763882219791412e-02
3.312000000000000000e+03 7.194915771484375000e+01 -2.310730934143066406e+01 3.495759563520550728e-03 7.317924499511718750e+00 2.196426153182983398e+00 2.577070593833923340e-01
3.313000000000000000e+03 1.445852184295654297e+01 -1.278529167175292969e+01 1.774324923753738403e-01 -3.719437420368194580e-01 -5.835337191820144653e-02 -4.128368496894836426e-01
3.314000000000000000e+03 1.378776454925537109e+01 -1.218621635437011719e+01 1.389224678277969360e-01 -3.969487547874450684e-01 -7.740788161754608154e-02 -4.320821464061737061e-01
3.315000000000000000e+03 4.150945281982421875e+01 -1.605487632751464844e+01 2.874374948441982269e-02 1.120581865310668945e+00 3.447976708412170410e-01 -8.079324662685394287e-02
3.316000000000000000e+03 7.142670440673828125e+01 -1.675637817382812500e+01 -1.871447265148162842e-02 7.345289707183837891e+00 2.197972536087036133e+00 2.594062685966491699e-01
3.317000000000000000e+03 7.235583496093750000e+01 9.423889160156250000e+00 -2.451697736978530884e-01 8.029506683349609375e+00 2.335301160812377930e+00 -1.763172000646591187e-01
3.318000000000000000e+03 6.969769287109375000e+01 2.759836196899414062e+00 -1.862428486347198486e-01 7.348847866058349609e+00 2.148781538009643555e+00 1.213296130299568176e-01
3.319000000000000000e+03 7.330400085449218750e+01 -8.357048034667968750e+00 -2.224549837410449982e-02 7.907495021820068359e+00 2.365574836730957031e+00 1.851537376642227173e-01
3.320000000000000000e+03 6.919718170166015625e+01 -1.054293823242187500e+01 -4.389301314949989319e-02 7.016367912292480469e+00 2.091742515563964844e+00 2.790248990058898926e-01
3.321000000000000000e+03 7.215286254882812500e+01 -4.907789230346679688e+00 -4.821187630295753479e-02 7.733926296234130859e+00 2.305714368820190430e+00 1.832075417041778564e-01
3.322000000000000000e+03 7.181974411010742188e+00 -1.778357887268066406e+01 7.028675824403762817e-02 -5.733374357223510742e-01 -1.509152054786682129e-01 -2.921367585659027100e-01
3.323000000000000000e+03 7.325975799560546875e+01 1.914228248596191406e+01 -4.216327071189880371e-01 8.166032791137695312e+00 2.323320150375366211e+00 -9.194055795669555664e-01
3.324000000000000000e+03 7.169463348388671875e+01 1.504498481750488281e+01 -4.722960591316223145e-01 8.069282531738281250e+00 2.279096126556396484e+00 -5.204840898513793945e-01
3.325000000000000000e+03 7.216467285156250000e+01 1.902705574035644531e+01 -5.279322266578674316e-01 8.206458091735839844e+00 2.303557634353637695e+00 -9.040220975875854492e-01
3.326000000000000000e+03 6.948570251464843750e+00 1.874583053588867188e+01 -1.899389666505157948e-03 -3.853425383567810059e-02 -1.213009282946586609e-02 -2.136607468128204346e-02
3.327000000000000000e+03 7.335958862304687500e+01 -5.911967754364013672e+00 -3.079761192202568054e-02 7.972405433654785156e+00 2.382482290267944336e+00 1.672602593898773193e-01
3.328000000000000000e+03 6.910025596618652344e+00 1.999381446838378906e+01 -3.859561868011951447e-03 -4.236904159188270569e-02 -1.386858057230710983e-02 -2.077636308968067169e-02
3.329000000000000000e+03 7.242481994628906250e+01 -1.224369430541992188e+01 -2.415494620800018311e-02 7.643009662628173828e+00 2.285656452178955078e+00 2.241661101579666138e-01
3.330000000000000000e+03 7.170075225830078125e+01 -1.541449737548828125e+01 -1.944791711866855621e-02 7.405506134033203125e+00 2.215817451477050781e+00 2.537571787834167480e-01
3.331000000000000000e+03 7.108777999877929688e+00 2.779861450195312500e+01 -6.495290901511907578e-03 -4.923745989799499512e-02 -1.671982556581497192e-02 -1.350608747452497482e-02
3.332000000000000000e+03 1.012960338592529297e+01 3.344333648681640625e+01 -6.325512193143367767e-03 -1.748725958168506622e-02 -7.143831346184015274e-03 -4.510662984102964401e-03
3.333000000000000000e+03 3.946686172485351562e+01 -9.597668647766113281e+00 2.328644692897796631e-01 6.994224190711975098e-01 2.796860635280609131e-01 -3.525036945939064026e-02
3.334000000000000000e+03 7.008850574493408203e+00 -1.169164943695068359e+01 1.284552272409200668e-02 -4.131653308868408203e-01 -1.200959458947181702e-01 -3.695601224899291992e-01
3.335000000000000000e+03 1.357339000701904297e+01 -1.082218551635742188e+01 8.100149035453796387e-02 -4.280787110328674316e-01 -1.041231676936149597e-01 -4.820210337638854980e-01
3.336000000000000000e+03 1.442748641967773438e+01 -1.139074134826660156e+01 1.627110391855239868e-01 -4.168513715267181396e-01 -7.624210417270660400e-02 -4.428239166736602783e-01
3.337000000000000000e+03 3.758836746215820312e+01 -7.247632026672363281e+00 3.150443434715270996e-01 3.523392975330352783e-01 2.002151012420654297e-01 -1.372660882771015167e-02
3.338000000000000000e+03 1.419976139068603516e+01 -6.744311809539794922e+00 -1.795883923768997192e-01 -4.918190240859985352e-01 -2.014222145080566406e-01 -6.247728466987609863e-01
3.339000000000000000e+03 8.241307258605957031e+00 6.930606365203857422e+00 1.533872783184051514e-01 -7.219386100769042969e-02 2.435802482068538666e-02 1.517493464052677155e-02
3.340000000000000000e+03 8.531519889831542969e+00 8.746266365051269531e+00 1.079621389508247375e-01 -8.747961372137069702e-03 2.976425364613533020e-02 -1.449165120720863342e-02
3.341000000000000000e+03 7.217005729675292969e+00 -2.036817741394042969e+01 6.744695454835891724e-02 -6.240844130516052246e-01 -1.669912338256835938e-01 -2.539187371730804443e-01
3.342000000000000000e+03 7.121389007568359375e+01 -1.168415069580078125e+01 -2.907338179647922516e-02 7.400558948516845703e+00 2.211445569992065430e+00 2.439731657505035400e-01
3.343000000000000000e+03 7.338363647460937500e+01 -2.824467277526855469e+01 1.305196620523929596e-02 7.440067291259765625e+00 2.235935926437377930e+00 2.010997831821441650e-01
3.344000000000000000e+03 6.956776428222656250e+01 -2.872617721557617188e+01 5.672435835003852844e-02 6.758223533630371094e+00 2.044484376907348633e+00 2.728893160820007324e-01
3.345000000000000000e+03 7.227375030517578125e+01 7.129946231842041016e+00 -1.992895007133483887e-01 7.966079711914062500e+00 2.330037117004394531e+00 -7.401812821626663208e-02
3.346000000000000000e+03 7.136614227294921875e+01 -1.937537193298339844e+01 -8.027636446058750153e-03 7.286298274993896484e+00 2.183481216430664062e+00 2.693381607532501221e-01
3.347000000000000000e+03 7.117433166503906250e+01 -2.894312477111816406e+01 3.641520068049430847e-02 7.071139335632324219e+00 2.132266521453857422e+00 2.247257381677627563e-01
3.348000000000000000e+03 7.033269500732421875e+01 -6.602973341941833496e-01 -1.079906970262527466e-01 7.415657520294189453e+00 2.192300081253051758e+00 1.666778326034545898e-01
3.349000000000000000e+03 4.470777511596679688e+01 -1.740778350830078125e+01 -3.143278881907463074e-02 1.912010669708251953e+00 5.641734004020690918e-01 -8.457147330045700073e-02
3.350000000000000000e+03 7.229134368896484375e+01 -6.038360595703125000e+00 -4.092748835682868958e-02 7.741189956665039062e+00 2.310078620910644531e+00 1.914884895086288452e-01
3.351000000000000000e+03 6.807688903808593750e+01 3.466221237182617188e+01 2.888848304748535156e+00 9.996571540832519531e+00 3.865625858306884766e+00 7.014434039592742920e-02
3.352000000000000000e+03 6.946963500976562500e+01 3.384373474121093750e+01 2.118268013000488281e+00 9.351104736328125000e+00 3.440811872482299805e+00 -5.651378631591796875e-01
3.353000000000000000e+03 1.232253456115722656e+01 -2.310641479492187500e+01 1.316742449998855591e-01 -3.928796052932739258e-01 -7.836161553859710693e-02 -2.667040824890136719e-01
3.354000000000000000e+03 9.390957832336425781e+00 -2.435203933715820312e+01 8.306518942117691040e-02 -5.692321658134460449e-01 -1.458500921726226807e-01 -2.265680432319641113e-01
3.355000000000000000e+03 3.382504272460937500e+01 -5.066332817077636719e+00 3.640239238739013672e-01 -1.246332675218582153e-01 7.181719690561294556e-02 -1.240558270364999771e-02
3.356000000000000000e+03 7.053915405273437500e+01 -1.278316783905029297e+01 -3.069883771240711212e-02 7.251296043395996094e+00 2.166179180145263672e+00 2.595897912979125977e-01
3.357000000000000000e+03 7.165731048583984375e+01 -1.352028465270996094e+01 -1.887298002839088440e-02 7.478587150573730469e+00 2.237914323806762695e+00 2.419775426387786865e-01
3.358000000000000000e+03 7.005480957031250000e+01 -2.124939155578613281e+01 -1.150498632341623306e-03 7.035990238189697266e+00 2.110451936721801758e+00 2.921840548515319824e-01
3.359000000000000000e+03 7.194348144531250000e+01 -2.102639770507812500e+01 -5.573358852416276932e-03 7.360057830810546875e+00 2.206345319747924805e+00 2.561287879943847656e-01
3.360000000000000000e+03 2.172963142395019531e+01 -2.783474159240722656e+01 2.110207378864288330e-01 2.040046900510787964e-01 1.245076283812522888e-01 -2.803537547588348389e-01
3.361000000000000000e+03 2.182047843933105469e+01 -3.246586990356445312e+01 2.559607923030853271e-01 1.471743881702423096e-01 1.209405511617660522e-01 -2.171957492828369141e-01
3.362000000000000000e+03 8.333912849426269531e+00 2.725760459899902344e+01 -8.094139397144317627e-03 -3.069534339010715485e-02 -1.163684483617544174e-02 -1.290768198668956757e-02
3.363000000000000000e+03 6.986911010742187500e+01 -2.524414634704589844e+01 2.245143055915832520e-02 6.913560390472412109e+00 2.080803632736206055e+00 2.933672964572906494e-01
3.364000000000000000e+03 9.135908126831054688e+00 -3.600754547119140625e+01 7.983604073524475098e-02 -6.899988651275634766e-01 -1.830488443374633789e-01 -8.838988095521926880e-02
3.365000000000000000e+03 9.722089767456054688e+00 -3.028172874450683594e+01 7.026837766170501709e-02 -6.096897125244140625e-01 -1.618264019489288330e-01 -1.502054333686828613e-01
3.366000000000000000e+03 7.430611610412597656e+00 -2.914678192138671875e+01 4.731792584061622620e-02 -7.492282390594482422e-01 -2.105730921030044556e-01 -1.444659084081649780e-01
3.367000000000000000e+03 4.270791244506835938e+01 -1.861598587036132812e+01 -3.804595768451690674e-02 1.421303987503051758e+00 4.149774312973022461e-01 -1.050130948424339294e-01
3.368000000000000000e+03 4.610591506958007812e+01 -2.002784538269042969e+01 -1.043067947030067444e-01 2.294081449508666992e+00 6.569324135780334473e-01 -6.299041211605072021e-02
3.369000000000000000e+03 7.835378170013427734e+00 2.591827011108398438e+01 -7.453852798789739609e-03 -3.679136931896209717e-02 -1.327356696128845215e-02 -1.468755491077899933e-02
3.370000000000000000e+03 7.214060211181640625e+01 3.584412765502929688e+01 1.020412683486938477e+00 8.118389129638671875e+00 2.741640567779541016e+00 -6.894782185554504395e-02
3.371000000000000000e+03 7.206542205810546875e+01 3.840231704711914062e+01 3.123555481433868408e-01 8.311497688293457031e+00 2.587156057357788086e+00 1.607264131307601929e-01
3.372000000000000000e+03 2.705428123474121094e+01 2.828092575073242188e+00 -1.492802858352661133e+00 -5.710610747337341309e-01 -6.191592216491699219e-01 -6.385799050331115723e-01
3.373000000000000000e+03 2.699279022216796875e+01 3.153177976608276367e+00 -1.674179077148437500e+00 -6.272657513618469238e-01 -6.904334425926208496e-01 -7.655719518661499023e-01
3.374000000000000000e+03 2.721873664855957031e+01 3.270560503005981445e+00 -1.631230950355529785e+00 -6.395109891891479492e-01 -6.812225580215454102e-01 -7.442708611488342285e-01
3.375000000000000000e+03 2.667378425598144531e+01 2.493447780609130859e+00 -1.495373487472534180e+00 -4.813580214977264404e-01 -5.930194258689880371e-01 -5.912965536117553711e-01
3.376000000000000000e+03 2.636018753051757812e+01 2.124818563461303711e+00 -1.439052700996398926e+00 -4.091529548168182373e-01 -5.544617176055908203e-01 -5.426912903785705566e-01
3.377000000000000000e+03 2.381189918518066406e+01 1.050644755363464355e+00 -1.532901883125305176e+00 -1.478742361068725586e-01 -5.042328238487243652e-01 -7.789513468742370605e-01
3.378000000000000000e+03 6.064729309082031250e+01 3.084067153930664062e+01 1.120925903320312500e+00 9.579805374145507812e+00 3.210219144821166992e+00 4.331386089324951172e+00
3.379000000000000000e+03 6.029098892211914062e+01 3.175207328796386719e+01 2.404510736465454102e+00 7.872871875762939453e+00 3.083214759826660156e+00 5.160856246948242188e+00
3.380000000000000000e+03 1.804573249816894531e+01 1.177188014984130859e+01 9.261313825845718384e-02 1.873741298913955688e-01 8.399617671966552734e-02 1.291475147008895874e-01
3.381000000000000000e+03 4.081475830078125000e+01 1.813196182250976562e+01 -6.975593566894531250e-01 -5.047554969787597656e-01 -3.606944680213928223e-01 -6.789574027061462402e-01
3.382000000000000000e+03 4.208468246459960938e+01 1.864275932312011719e+01 -6.142123937606811523e-01 -3.465654551982879639e-01 -2.882333695888519287e-01 -5.658131837844848633e-01
3.383000000000000000e+03 1.475408363342285156e+01 9.262933731079101562e+00 7.245703786611557007e-02 2.769170403480529785e-01 1.048122197389602661e-01 1.098653227090835571e-01
3.384000000000000000e+03 1.878386878967285156e+01 1.245455932617187500e+01 9.313972294330596924e-02 1.719102263450622559e-01 7.951498031616210938e-02 1.262540817260742188e-01
3.385000000000000000e+03 3.420652389526367188e+01 1.096485519409179688e+01 -9.202609658241271973e-01 -8.197334408760070801e-01 -5.219982862472534180e-01 -8.208652138710021973e-01
3.386000000000000000e+03 1.671134948730468750e+01 9.832587242126464844e+00 1.052153557538986206e-01 2.279205173254013062e-01 9.994076192378997803e-02 1.448409557342529297e-01
3.387000000000000000e+03 4.279628372192382812e+01 2.027791404724121094e+01 -6.396609544754028320e-01 -4.352819323539733887e-01 -3.224828541278839111e-01 -5.830038189888000488e-01
3.388000000000000000e+03 3.375664520263671875e+01 1.021751594543457031e+01 -9.202981591224670410e-01 -8.095626831054687500e-01 -5.189582705497741699e-01 -7.976405024528503418e-01
3.389000000000000000e+03 4.736847305297851562e+01 2.520694160461425781e+01 -5.402854681015014648e-01 -2.528927922248840332e-01 -2.379534840583801270e-01 -3.998620808124542236e-01
3.390000000000000000e+03 3.933789062500000000e+01 1.738237190246582031e+01 -7.836734056472778320e-01 -6.821057200431823730e-01 -4.397337436676025391e-01 -7.631738185882568359e-01
3.391000000000000000e+03 3.187851524353027344e+01 2.596238899230957031e+01 5.018191039562225342e-02 8.440920710563659668e-02 4.037733748555183411e-02 6.721475720405578613e-02
3.392000000000000000e+03 4.704231643676757812e+01 2.444258308410644531e+01 -5.388209223747253418e-01 -1.847568452358245850e-01 -2.170733362436294556e-01 -3.549663424491882324e-01
3.393000000000000000e+03 1.709024429321289062e+01 9.824819564819335938e+00 1.130459159612655640e-01 2.216582745313644409e-01 1.004112586379051208e-01 1.503121107816696167e-01
3.394000000000000000e+03 1.526054763793945312e+01 9.171434402465820312e+00 8.677025884389877319e-02 2.715275883674621582e-01 1.074893549084663391e-01 1.282911300659179688e-01
3.395000000000000000e+03 3.432175064086914062e+01 2.740403747558593750e+01 5.361652374267578125e-02 7.968567311763763428e-02 3.999065980315208435e-02 6.550612300634384155e-02
3.396000000000000000e+03 2.331596565246582031e+01 1.757730484008789062e+01 7.365749776363372803e-02 1.246344521641731262e-01 5.948758497834205627e-02 9.658771008253097534e-02
3.397000000000000000e+03 2.108802413940429688e+01 1.330079460144042969e+01 1.081597134470939636e-01 1.511991173028945923e-01 7.780764997005462646e-02 1.267146170139312744e-01
3.398000000000000000e+03 4.844845581054687500e+01 2.626030349731445312e+01 -4.611171483993530273e-01 -2.199867665767669678e-01 -2.043311744928359985e-01 -3.332240581512451172e-01
3.399000000000000000e+03 2.287565040588378906e+01 1.674161911010742188e+01 7.756400853395462036e-02 1.300756931304931641e-01 6.229191273450851440e-02 1.021297499537467957e-01
3.400000000000000000e+03 2.188017082214355469e+01 1.639213371276855469e+01 7.366421818733215332e-02 1.358803808689117432e-01 6.286337971687316895e-02 9.994906932115554810e-02
3.401000000000000000e+03 2.242476272583007812e+01 1.647796821594238281e+01 7.729863375425338745e-02 1.339499801397323608e-01 6.337457895278930664e-02 1.024217829108238220e-01
3.402000000000000000e+03 2.088868713378906250e+01 1.387306594848632812e+01 9.884058684110641479e-02 1.507517844438552856e-01 7.487770915031433105e-02 1.197978109121322632e-01
3.403000000000000000e+03 3.398335266113281250e+01 2.934312057495117188e+01 4.666418209671974182e-02 8.015846461057662964e-02 3.804679587483406067e-02 6.040570512413978577e-02
3.404000000000000000e+03 4.016340637207031250e+01 1.789873313903808594e+01 -7.317532300949096680e-01 -5.818895697593688965e-01 -3.940928280353546143e-01 -7.223345041275024414e-01
3.405000000000000000e+03 4.152660751342773438e+01 1.916267395019531250e+01 -6.650649309158325195e-01 -5.004914999008178711e-01 -3.496669232845306396e-01 -6.670884490013122559e-01
3.406000000000000000e+03 3.683037567138671875e+01 1.420976734161376953e+01 -8.431079387664794922e-01 -7.943981885910034180e-01 -4.912518560886383057e-01 -8.097486495971679688e-01
3.407000000000000000e+03 3.608826828002929688e+01 1.373033428192138672e+01 -8.855044245719909668e-01 -8.526082038879394531e-01 -5.214337706565856934e-01 -8.563061952590942383e-01
3.408000000000000000e+03 4.868564987182617188e+01 2.654432296752929688e+01 -4.472285211086273193e-01 -2.190049290657043457e-01 -1.998700350522994995e-01 -3.252553641796112061e-01
3.409000000000000000e+03 2.817754936218261719e+01 2.159177780151367188e+01 6.313110142946243286e-02 9.820307791233062744e-02 4.840025305747985840e-02 8.081909269094467163e-02
3.410000000000000000e+03 4.229996871948242188e+01 2.004415130615234375e+01 -6.599619984626770020e-01 -4.938890933990478516e-01 -3.461553156375885010e-01 -6.341931223869323730e-01
3.411000000000000000e+03 4.437753295898437500e+01 2.179411125183105469e+01 -6.281068921089172363e-01 -3.490974903106689453e-01 -2.931613028049468994e-01 -4.942818582057952881e-01
3.412000000000000000e+03 2.784934806823730469e+01 3.531956434249877930e+00 -1.535630226135253906e+00 -7.223233580589294434e-01 -6.773860454559326172e-01 -7.211465835571289062e-01
3.413000000000000000e+03 4.329360198974609375e+01 2.115305709838867188e+01 -6.713338494300842285e-01 -4.572218358516693115e-01 -3.385667204856872559e-01 -5.857415795326232910e-01
3.414000000000000000e+03 2.933460807800292969e+01 -1.714306235313415527e+00 1.330411136150360107e-01 -3.545780181884765625e-01 -6.646107137203216553e-02 -2.906838990747928619e-02
3.415000000000000000e+03 4.818899917602539062e+01 2.541412162780761719e+01 -4.361116588115692139e-01 -9.891720861196517944e-02 -1.605086624622344971e-01 -2.655179798603057861e-01
3.416000000000000000e+03 4.626441955566406250e+01 2.419733047485351562e+01 -6.248669028282165527e-01 -3.240284025669097900e-01 -2.846685945987701416e-01 -4.571532607078552246e-01
3.417000000000000000e+03 4.677538681030273438e+01 2.419342041015625000e+01 -5.595015883445739746e-01 -2.048908621072769165e-01 -2.293177396059036255e-01 -3.700963854789733887e-01
3.418000000000000000e+03 2.886754226684570312e+01 3.953530311584472656e+00 -1.337705492973327637e+00 -7.509047389030456543e-01 -6.265830993652343750e-01 -6.249550580978393555e-01
3.419000000000000000e+03 4.463824081420898438e+01 2.207488822937011719e+01 -6.259821057319641113e-01 -3.401420712471008301e-01 -2.898372411727905273e-01 -4.818643927574157715e-01
3.420000000000000000e+03 3.496739578247070312e+01 1.287133598327636719e+01 -9.486407041549682617e-01 -9.324794411659240723e-01 -5.643360614776611328e-01 -9.083602428436279297e-01
3.421000000000000000e+03 3.582366943359375000e+01 1.265611362457275391e+01 -8.720096349716186523e-01 -7.851085066795349121e-01 -4.971354305744171143e-01 -7.995190620422363281e-01
3.422000000000000000e+03 1.954783439636230469e+01 1.281689262390136719e+01 9.706939011812210083e-02 1.636876910924911499e-01 7.822712510824203491e-02 1.257804632186889648e-01
3.423000000000000000e+03 2.733922195434570312e+01 2.130867958068847656e+01 6.253583729267120361e-02 1.021686345338821411e-01 4.941134154796600342e-02 8.221811056137084961e-02
3.424000000000000000e+03 2.767443084716796875e+01 2.075242614746093750e+01 6.856158375740051270e-02 1.012151986360549927e-01 5.093303322792053223e-02 8.463290333747863770e-02
3.425000000000000000e+03 5.847046279907226562e+01 3.080393600463867188e+01 1.951880455017089844e+00 3.574660062789916992e+00 1.657962083816528320e+00 2.894702911376953125e+00
3.426000000000000000e+03 4.891690826416015625e+01 2.682363700866699219e+01 -4.406885802745819092e-01 -2.267117649316787720e-01 -2.002200931310653687e-01 -3.169503808021545410e-01
3.427000000000000000e+03 1.917266845703125000e+01 1.265267753601074219e+01 9.566225856542587280e-02 1.680082231760025024e-01 7.910114526748657227e-02 1.251108795404434204e-01
3.428000000000000000e+03 1.842894744873046875e+01 1.183676910400390625e+01 9.764684736728668213e-02 1.804165095090866089e-01 8.341900259256362915e-02 1.318685859441757202e-01
3.429000000000000000e+03 2.722330093383789062e+01 2.087401390075683594e+01 6.390112638473510742e-02 1.032449007034301758e-01 5.014380812644958496e-02 8.405265212059020996e-02
3.430000000000000000e+03 2.752504158020019531e+01 2.038709259033203125e+01 7.043711841106414795e-02 1.020808219909667969e-01 5.175537988543510437e-02 8.708875626325607300e-02
3.431000000000000000e+03 2.711919212341308594e+01 2.048391342163085938e+01 6.848447024822235107e-02 1.043087914586067200e-01 5.183798074722290039e-02 8.573859184980392456e-02
3.432000000000000000e+03 2.702039527893066406e+01 1.976605224609375000e+01 7.453130185604095459e-02 1.060790568590164185e-01 5.418310686945915222e-02 8.949794620275497437e-02
3.433000000000000000e+03 2.521611213684082031e+01 1.846742057800292969e+01 7.801473885774612427e-02 1.140387728810310364e-01 5.761605501174926758e-02 9.405896067619323730e-02
3.434000000000000000e+03 5.175275802612304688e+01 2.873080062866210938e+01 -1.219015866518020630e-01 1.768843233585357666e-01 1.649481803178787231e-02 6.582865864038467407e-02
3.435000000000000000e+03 5.046825790405273438e+01 2.852964973449707031e+01 -3.638541996479034424e-01 -2.204518616199493408e-01 -1.752918064594268799e-01 -2.509737908840179443e-01
3.436000000000000000e+03 4.301854705810546875e+01 2.084168243408203125e+01 -6.681277155876159668e-01 -4.667264223098754883e-01 -3.404562473297119141e-01 -5.952430963516235352e-01
3.437000000000000000e+03 4.386973571777343750e+01 2.121423339843750000e+01 -6.281186938285827637e-01 -3.633758723735809326e-01 -2.974483668804168701e-01 -5.145478844642639160e-01
3.438000000000000000e+03 3.910554885864257812e+01 1.715534591674804688e+01 -7.951442599296569824e-01 -7.028555870056152344e-01 -4.493999779224395752e-01 -7.674362063407897949e-01
3.439000000000000000e+03 1.628069114685058594e+01 9.878802299499511719e+00 9.667634218931198120e-02 2.347556054592132568e-01 9.942958503961563110e-02 1.374586522579193115e-01
3.440000000000000000e+03 1.768129920959472656e+01 1.120895290374755859e+01 9.557802975177764893e-02 1.967605203390121460e-01 8.770156651735305786e-02 1.334645897150039673e-01
3.441000000000000000e+03 3.702043914794921875e+01 1.454434013366699219e+01 -8.409354090690612793e-01 -8.052409291267395020e-01 -4.938529133796691895e-01 -8.132735490798950195e-01
3.442000000000000000e+03 4.490303802490234375e+01 2.235163116455078125e+01 -6.216992139816284180e-01 -3.279670774936676025e-01 -2.848998904228210449e-01 -4.687368869781494141e-01
3.443000000000000000e+03 3.268917465209960938e+01 9.625744819641113281e+00 -9.666252136230468750e-01 -8.702421784400939941e-01 -5.510601997375488281e-01 -8.311898112297058105e-01
3.444000000000000000e+03 3.468045806884765625e+01 1.014307785034179688e+01 -8.300505876541137695e-01 -6.813882589340209961e-01 -4.534316658973693848e-01 -7.057987451553344727e-01
3.445000000000000000e+03 1.578845882415771484e+01 9.517969131469726562e+00 9.313842654228210449e-02 2.510599792003631592e-01 1.032595261931419373e-01 1.355077028274536133e-01
3.446000000000000000e+03 4.893210601806640625e+01 2.630782890319824219e+01 -3.911985754966735840e-01 -9.497299045324325562e-02 -1.458514779806137085e-01 -2.285485267639160156e-01
3.447000000000000000e+03 3.757947921752929688e+01 1.478436946868896484e+01 -8.122662901878356934e-01 -7.398881912231445312e-01 -4.656463265419006348e-01 -7.709246873855590820e-01
3.448000000000000000e+03 3.522195434570312500e+01 1.304407405853271484e+01 -9.440589547157287598e-01 -9.183896183967590332e-01 -5.587345957756042480e-01 -8.936209082603454590e-01
3.449000000000000000e+03 1.427558040618896484e+01 7.302441120147705078e+00 9.062636643648147583e-02 3.879474997520446777e-01 1.435721665620803833e-01 1.287961155176162720e-01
3.450000000000000000e+03 3.787392807006835938e+01 1.511436080932617188e+01 -8.041782975196838379e-01 -7.262895107269287109e-01 -4.591403603553771973e-01 -7.579206824302673340e-01
3.451000000000000000e+03 5.155474090576171875e+01 2.902084732055664062e+01 -1.970000565052032471e-01 3.714801510795950890e-03 -5.798557773232460022e-02 -5.515350773930549622e-02
3.452000000000000000e+03 5.209915924072265625e+01 2.928942489624023438e+01 -1.278675943613052368e-01 1.459914296865463257e-01 5.437150597572326660e-03 4.496676474809646606e-02
3.453000000000000000e+03 3.815996551513671875e+01 1.542644214630126953e+01 -7.933797240257263184e-01 -7.069739699363708496e-01 -4.501061141490936279e-01 -7.486023306846618652e-01
3.454000000000000000e+03 5.067413711547851562e+01 2.819959259033203125e+01 -2.811360359191894531e-01 -7.012105733156204224e-02 -1.053771302103996277e-01 -1.273915469646453857e-01
3.455000000000000000e+03 3.347464752197265625e+01 2.737096405029296875e+01 5.123263224959373474e-02 8.097750693559646606e-02 3.966304287314414978e-02 6.314633786678314209e-02
3.456000000000000000e+03 3.285503768920898438e+01 2.626343917846679688e+01 5.233028158545494080e-02 8.274634927511215210e-02 4.052298888564109802e-02 6.669468432664871216e-02
3.457000000000000000e+03 2.159994697570800781e+01 1.484181785583496094e+01 9.201283007860183716e-02 1.430607438087463379e-01 7.052206993103027344e-02 1.120380386710166931e-01
3.458000000000000000e+03 2.106323623657226562e+01 1.471188831329345703e+01 8.866909146308898926e-02 1.457692533731460571e-01 7.033150643110275269e-02 1.113916337490081787e-01
3.459000000000000000e+03 3.315480804443359375e+01 2.684174919128417969e+01 5.221463739871978760e-02 8.134309202432632446e-02 4.006731882691383362e-02 6.500566005706787109e-02
3.460000000000000000e+03 4.938928985595703125e+01 2.724257469177246094e+01 -4.045559167861938477e-01 -1.945079118013381958e-01 -1.797191500663757324e-01 -2.712360918521881104e-01
3.461000000000000000e+03 5.240010452270507812e+01 2.931290435791015625e+01 -6.260947138071060181e-02 2.443181425333023071e-01 5.451260507106781006e-02 1.186947375535964966e-01
3.462000000000000000e+03 4.599361038208007812e+01 2.393892669677734375e+01 -6.370423436164855957e-01 -3.424119055271148682e-01 -2.938362956047058105e-01 -4.693271517753601074e-01
3.463000000000000000e+03 4.731661224365234375e+01 2.468700599670410156e+01 -5.158227682113647461e-01 -1.658473312854766846e-01 -2.045010179281234741e-01 -3.384474813938140869e-01
3.464000000000000000e+03 2.923022270202636719e+01 2.283334350585937500e+01 5.633928626775741577e-02 9.345725178718566895e-02 4.493896290659904480e-02 7.754322886466979980e-02
3.465000000000000000e+03 3.690610504150390625e+01 1.371721363067626953e+01 -8.214795589447021484e-01 -7.284093499183654785e-01 -4.649666845798492432e-01 -7.640417218208312988e-01
3.466000000000000000e+03 3.843955612182617188e+01 1.573339366912841797e+01 -7.886853814125061035e-01 -6.896789669990539551e-01 -4.435093104839324951e-01 -7.375465035438537598e-01
3.467000000000000000e+03 3.888558197021484375e+01 1.689128875732421875e+01 -8.068308830261230469e-01 -7.228896617889404297e-01 -4.589161574840545654e-01 -7.707607150077819824e-01
3.468000000000000000e+03 4.936872482299804688e+01 2.644184875488281250e+01 -3.403193950653076172e-01 -1.745270192623138428e-02 -1.073316335678100586e-01 -1.474181562662124634e-01
3.469000000000000000e+03 4.517040252685546875e+01 2.262482452392578125e+01 -6.174115538597106934e-01 -3.148736655712127686e-01 -2.796855866909027100e-01 -4.536395072937011719e-01
3.470000000000000000e+03 2.629858207702636719e+01 1.942553901672363281e+01 7.298621535301208496e-02 1.095189899206161499e-01 5.475156381726264954e-02 9.022900462150573730e-02
3.471000000000000000e+03 2.947781753540039062e+01 2.326691055297851562e+01 5.587206780910491943e-02 9.206207841634750366e-02 4.438024386763572693e-02 7.540626823902130127e-02
3.472000000000000000e+03 3.165296363830566406e+01 2.532552146911621094e+01 5.181010067462921143e-02 8.400616049766540527e-02 4.074487835168838501e-02 6.955721974372863770e-02
3.473000000000000000e+03 5.036117172241210938e+01 2.792275619506835938e+01 -3.073665797710418701e-01 -9.322901070117950439e-02 -1.201786771416664124e-01 -1.552832722663879395e-01
3.474000000000000000e+03 4.362024688720703125e+01 2.090724182128906250e+01 -6.275382637977600098e-01 -3.689913153648376465e-01 -2.989588677883148193e-01 -5.232372283935546875e-01
3.475000000000000000e+03 4.871827316284179688e+01 2.599320983886718750e+01 -4.028876423835754395e-01 -8.613824099302291870e-02 -1.467077732086181641e-01 -2.361354529857635498e-01
3.476000000000000000e+03 5.003540802001953125e+01 2.766083335876464844e+01 -3.343574106693267822e-01 -1.194305866956710815e-01 -1.361363977193832397e-01 -1.872414499521255493e-01
3.477000000000000000e+03 5.351139450073242188e+01 2.908566856384277344e+01 2.421464323997497559e-01 8.065459728240966797e-01 3.146077096462249756e-01 5.069752931594848633e-01
3.478000000000000000e+03 2.179483413696289062e+01 1.516967201232910156e+01 8.900585770606994629e-02 1.413986086845397949e-01 6.912133842706680298e-02 1.099269613623619080e-01
3.479000000000000000e+03 1.978923034667968750e+01 1.333367061614990234e+01 9.280719608068466187e-02 1.590997874736785889e-01 7.557209581136703491e-02 1.209500953555107117e-01
3.480000000000000000e+03 2.473121070861816406e+01 1.849180793762207031e+01 7.419335097074508667e-02 1.163918301463127136e-01 5.717555433511734009e-02 9.293942898511886597e-02
3.481000000000000000e+03 2.975071144104003906e+01 4.295540332794189453e+00 -1.274485468864440918e+00 -6.656715869903564453e-01 -5.820471048355102539e-01 -5.533713102340698242e-01
3.482000000000000000e+03 4.029810333251953125e+01 1.751890754699707031e+01 -7.140993475914001465e-01 -5.224993228912353516e-01 -3.709796071052551270e-01 -6.798123121261596680e-01
3.483000000000000000e+03 2.603024291992187500e+01 1.935006713867187500e+01 7.303304970264434814e-02 1.110843569040298462e-01 5.523522198200225830e-02 9.061163663864135742e-02
3.484000000000000000e+03 2.606266975402832031e+01 1.895047760009765625e+01 7.785772532224655151e-02 1.111398860812187195e-01 5.669928342103958130e-02 9.243670850992202759e-02
3.485000000000000000e+03 4.211553192138671875e+01 1.965218544006347656e+01 -6.490470170974731445e-01 -4.703769087791442871e-01 -3.358271718025207520e-01 -6.286343932151794434e-01
3.486000000000000000e+03 4.268023300170898438e+01 1.991215133666992188e+01 -6.260874271392822266e-01 -4.022766649723052979e-01 -3.085092306137084961e-01 -5.720194578170776367e-01
3.487000000000000000e+03 2.027029228210449219e+01 1.435828113555908203e+01 8.505140990018844604e-02 1.519160419702529907e-01 7.109023630619049072e-02 1.117285192012786865e-01
3.488000000000000000e+03 3.870085525512695312e+01 1.604615211486816406e+01 -7.823386192321777344e-01 -6.724586486816406250e-01 -4.364391863346099854e-01 -7.327306866645812988e-01
3.489000000000000000e+03 3.893826675415039062e+01 1.635980606079101562e+01 -7.796790599822998047e-01 -6.583946347236633301e-01 -4.314221143722534180e-01 -7.295542955398559570e-01
3.490000000000000000e+03 1.902526092529296875e+01 1.205240345001220703e+01 1.022341847419738770e-01 1.729850620031356812e-01 8.256577700376510620e-02 1.317980885505676270e-01
3.491000000000000000e+03 2.850549316406250000e+01 2.272435951232910156e+01 5.474230274558067322e-02 9.665655344724655151e-02 4.541965574026107788e-02 7.772622257471084595e-02
3.492000000000000000e+03 5.393243789672851562e+01 3.077835273742675781e+01 1.321976631879806519e-01 4.898288249969482422e-01 1.866079419851303101e-01 1.428857743740081787e-01
3.493000000000000000e+03 4.003316497802734375e+01 1.710178947448730469e+01 -7.250950932502746582e-01 -5.238236188888549805e-01 -3.746756017208099365e-01 -6.737236976623535156e-01
3.494000000000000000e+03 3.447425842285156250e+01 1.134841728210449219e+01 -9.130157232284545898e-01 -8.269926309585571289e-01 -5.220025181770324707e-01 -8.279240131378173828e-01
3.495000000000000000e+03 3.661541748046875000e+01 1.387244129180908203e+01 -8.465576767921447754e-01 -7.924624681472778320e-01 -4.917060434818267822e-01 -8.080493807792663574e-01
3.496000000000000000e+03 3.038888359069824219e+01 2.361074829101562500e+01 5.535347387194633484e-02 8.872938156127929688e-02 4.322485625743865967e-02 7.643381506204605103e-02
3.497000000000000000e+03 3.063116073608398438e+01 2.391902351379394531e+01 5.588505789637565613e-02 8.780281245708465576e-02 4.310635849833488464e-02 7.378306984901428223e-02
3.498000000000000000e+03 2.246540451049804688e+01 1.678847503662109375e+01 7.457545399665832520e-02 1.319577544927597046e-01 6.195996329188346863e-02 9.942232817411422729e-02
3.499000000000000000e+03 1.716082000732421875e+01 1.051367950439453125e+01 1.001901030540466309e-01 2.126312106847763062e-01 9.384639561176300049e-02 1.387287825345993042e-01
3.500000000000000000e+03 4.543925094604492188e+01 2.289502716064453125e+01 -6.113598346710205078e-01 -2.982867658138275146e-01 -2.728939950466156006e-01 -4.392004013061523438e-01
3.501000000000000000e+03 4.570855712890625000e+01 2.316239166259765625e+01 -6.049761772155761719e-01 -2.814462482929229736e-01 -2.659267187118530273e-01 -4.238844811916351318e-01
3.502000000000000000e+03 5.325815582275390625e+01 3.008067131042480469e+01 7.339205592870712280e-02 3.997018933296203613e-01 1.419281810522079468e-01 1.787628084421157837e-01
3.503000000000000000e+03 5.807192230224609375e+01 3.091077804565429688e+01 1.909944534301757812e+00 2.858196496963500977e+00 1.430442333221435547e+00 2.438747406005859375e+00
3.504000000000000000e+03 6.029699325561523438e+01 3.114529037475585938e+01 1.730551123619079590e+00 8.239254951477050781e+00 2.990942001342773438e+00 4.621115684509277344e+00
3.505000000000000000e+03 3.332388305664062500e+01 2.780790138244628906e+01 5.359678342938423157e-02 8.192562311887741089e-02 4.065672308206558228e-02 6.535068154335021973e-02
3.506000000000000000e+03 2.144347953796386719e+01 1.534010410308837891e+01 8.364943414926528931e-02 1.419392377138137817e-01 6.767659634351730347e-02 1.069016754627227783e-01
3.507000000000000000e+03 6.090031814575195312e+01 3.110609817504882812e+01 1.062482357025146484e+00 1.062392234802246094e+01 3.505921363830566406e+00 4.463114738464355469e+00
3.508000000000000000e+03 4.651038360595703125e+01 2.394070053100585938e+01 -5.729602575302124023e-01 -2.227538228034973145e-01 -2.387142330408096313e-01 -3.842269778251647949e-01
3.509000000000000000e+03 5.765716934204101562e+01 3.057076835632324219e+01 1.633025407791137695e+00 2.660515308380126953e+00 1.288062214851379395e+00 2.161384820938110352e+00
3.510000000000000000e+03 1.473797225952148438e+01 8.856257438659667969e+00 7.989844679832458496e-02 2.908920943737030029e-01 1.112371683120727539e-01 1.162267699837684631e-01
3.511000000000000000e+03 1.458986663818359375e+01 8.077792167663574219e+00 8.783639967441558838e-02 3.323375582695007324e-01 1.260521858930587769e-01 1.277436763048171997e-01
3.512000000000000000e+03 3.491462707519531250e+01 1.200417518615722656e+01 -9.007661342620849609e-01 -8.426838517189025879e-01 -5.230349898338317871e-01 -8.377589583396911621e-01
3.513000000000000000e+03 3.310862731933593750e+01 9.021276473999023438e+00 -8.783515095710754395e-01 -7.788207530975341797e-01 -4.971516728401184082e-01 -7.487426400184631348e-01
3.514000000000000000e+03 3.366368484497070312e+01 9.092683792114257812e+00 -8.441715836524963379e-01 -7.246951460838317871e-01 -4.706600308418273926e-01 -7.110438942909240723e-01
3.515000000000000000e+03 3.322467041015625000e+01 9.973160743713378906e+00 -9.498544931411743164e-01 -8.465421795845031738e-01 -5.389190316200256348e-01 -8.188140392303466797e-01
3.516000000000000000e+03 1.398570251464843750e+01 6.431503772735595703e+00 9.155176579952239990e-02 4.832844138145446777e-01 1.724508553743362427e-01 1.319821029901504517e-01
3.517000000000000000e+03 3.562908172607421875e+01 3.021981811523437500e+01 5.331327766180038452e-02 7.369443029165267944e-02 3.810231387615203857e-02 5.921396240592002869e-02
3.518000000000000000e+03 3.514427185058593750e+01 2.971801567077636719e+01 5.085413157939910889e-02 7.788597792387008667e-02 3.862203285098075867e-02 5.908902734518051147e-02
3.519000000000000000e+03 5.360115432739257812e+01 3.111314010620117188e+01 -4.030599445104598999e-02 2.659586071968078613e-01 6.769578158855438232e-02 -4.771399125456809998e-02
3.520000000000000000e+03 6.000234603881835938e+01 3.170552635192871094e+01 2.598007202148437500e+00 6.828784942626953125e+00 2.828037738800048828e+00 4.899015903472900391e+00
3.521000000000000000e+03 6.007695007324218750e+01 3.081821250915527344e+01 1.589433908462524414e+00 7.572406291961669922e+00 2.748552083969116211e+00 4.271279811859130859e+00
3.522000000000000000e+03 5.891394042968750000e+01 3.111616325378417969e+01 2.225607872009277344e+00 4.100451946258544922e+00 1.897817850112915039e+00 3.340122461318969727e+00
3.523000000000000000e+03 9.665706634521484375e+00 5.872633934020996094e+00 2.265950292348861694e-01 -2.996153011918067932e-02 5.899005010724067688e-02 -3.751833736896514893e-02
3.524000000000000000e+03 1.723905754089355469e+01 1.124766540527343750e+01 8.796696364879608154e-02 2.021540999412536621e-01 8.703631907701492310e-02 1.273303329944610596e-01
3.525000000000000000e+03 3.164529800415039062e+01 5.208562850952148438e+00 -9.689553380012512207e-01 -5.303292870521545410e-01 -4.497854113578796387e-01 -5.957006812095642090e-01
3.526000000000000000e+03 3.005509376525878906e+01 2.389695739746093750e+01 5.375604704022407532e-02 8.968548476696014404e-02 4.303245991468429565e-02 7.363509386777877808e-02
3.527000000000000000e+03 2.988421058654785156e+01 4.605395317077636719e+00 -1.269303441047668457e+00 -6.898754239082336426e-01 -5.877536535263061523e-01 -6.172280907630920410e-01
3.528000000000000000e+03 3.297533035278320312e+01 8.484895706176757812e+00 -8.467745184898376465e-01 -7.610146403312683105e-01 -4.823367595672607422e-01 -7.295035719871520996e-01
3.529000000000000000e+03 3.591685104370117188e+01 3.063983917236328125e+01 5.636827647686004639e-02 7.633084803819656372e-02 3.980973735451698303e-02 5.690708383917808533e-02
3.530000000000000000e+03 3.490766143798828125e+01 1.052023124694824219e+01 -8.371874690055847168e-01 -6.880335807800292969e-01 -4.575663208961486816e-01 -7.115925550460815430e-01
3.531000000000000000e+03 3.305475997924804688e+01 5.853057384490966797e+00 -7.842265367507934570e-01 -4.748633503913879395e-01 -3.777269721031188965e-01 -5.307726860046386719e-01
3.532000000000000000e+03 3.270613479614257812e+01 6.424401760101318359e+00 -8.348097205162048340e-01 -5.751130580902099609e-01 -4.229768514633178711e-01 -6.332294344902038574e-01
3.533000000000000000e+03 1.261757278442382812e+01 5.522333621978759766e+00 1.430874913930892944e-01 5.164251327514648438e-01 1.978537887334823608e-01 -1.001186519861221313e-01
3.534000000000000000e+03 5.595319747924804688e+01 3.027357673645019531e+01 9.512563943862915039e-01 1.548570036888122559e+00 7.499479651451110840e-01 1.092482566833496094e+00
3.535000000000000000e+03 3.281442260742187500e+01 6.858486652374267578e+00 -8.081139326095581055e-01 -6.193955540657043457e-01 -4.282528460025787354e-01 -6.496593952178955078e-01
3.536000000000000000e+03 5.292679595947265625e+01 2.986919784545898438e+01 2.669202722609043121e-02 3.352359533309936523e-01 1.085783988237380981e-01 1.489119678735733032e-01
3.537000000000000000e+03 5.731843185424804688e+01 3.050641632080078125e+01 1.496963977813720703e+00 2.386123657226562500e+00 1.164926290512084961e+00 1.913109540939331055e+00
3.538000000000000000e+03 6.156731414794921875e+01 3.043643760681152344e+01 1.281499564647674561e-01 1.201490688323974609e+01 3.642916917800903320e+00 3.164299964904785156e+00
3.539000000000000000e+03 2.609835624694824219e+01 -4.960806965827941895e-01 -1.964261680841445923e-01 -2.012529224157333374e-01 -1.193037256598472595e-01 -1.565461158752441406e-01
3.540000000000000000e+03 2.678639984130859375e+01 -1.441480517387390137e+00 1.892814189195632935e-01 -1.934239864349365234e-01 -1.242769882082939148e-03 -1.335790306329727173e-01
3.541000000000000000e+03 2.809104537963867188e+01 -1.553835391998291016e+00 1.197135150432586670e-01 -3.138529956340789795e-01 -5.824184045195579529e-02 -4.552775993943214417e-02
3.542000000000000000e+03 6.885024070739746094e+00 6.845726966857910156e+00 1.211031228303909302e-01 -1.059678271412849426e-01 4.540587775409221649e-03 5.415452271699905396e-02
3.543000000000000000e+03 6.302417755126953125e+00 6.125862121582031250e+00 9.556236863136291504e-02 -1.269628554582595825e-01 -9.420145303010940552e-03 9.139642864465713501e-02
3.544000000000000000e+03 1.379664230346679688e+01 6.809990882873535156e+00 8.148320019245147705e-02 4.406816661357879639e-01 1.566494703292846680e-01 1.021241247653961182e-01
3.545000000000000000e+03 1.429050636291503906e+01 6.601466655731201172e+00 9.989890456199645996e-02 4.475387036800384521e-01 1.642312854528427124e-01 1.604845970869064331e-01
3.546000000000000000e+03 3.100080680847167969e+01 2.461748504638671875e+01 5.526986718177795410e-02 8.630158752202987671e-02 4.247143864631652832e-02 7.206968963146209717e-02
3.547000000000000000e+03 3.046987724304199219e+01 2.444123840332031250e+01 5.361542850732803345e-02 8.863884955644607544e-02 4.267628490924835205e-02 7.227402925491333008e-02
3.548000000000000000e+03 3.972662353515625000e+01 3.563572311401367188e+01 8.649096637964248657e-02 5.388750135898590088e-02 4.211353883147239685e-02 4.484678432345390320e-02
3.549000000000000000e+03 3.838940048217773438e+01 3.180641174316406250e+01 5.648558959364891052e-02 6.728779524564743042e-02 3.713201731443405151e-02 5.836207419633865356e-02
3.550000000000000000e+03 3.692668914794921875e+01 3.204336166381835938e+01 6.364498287439346313e-02 7.114754617214202881e-02 4.043775796890258789e-02 5.674901604652404785e-02
3.551000000000000000e+03 6.184054946899414062e+01 3.070583343505859375e+01 6.084498018026351929e-02 1.293467044830322266e+01 3.898654699325561523e+00 2.927210807800292969e+00
3.552000000000000000e+03 6.430345916748046875e+01 2.931746482849121094e+01 -2.878406345844268799e-01 1.212086009979248047e+01 3.549905776977539062e+00 -3.035459518432617188e-01
3.553000000000000000e+03 3.237151336669921875e+01 2.612354087829589844e+01 5.379899591207504272e-02 8.403842896223068237e-02 4.135122895240783691e-02 6.818655133247375488e-02
3.554000000000000000e+03 8.969836235046386719e+00 5.990170478820800781e+00 1.989696323871612549e-01 -7.702276110649108887e-02 3.658406063914299011e-02 7.100663613528013229e-03
3.555000000000000000e+03 3.297964096069335938e+01 7.294798851013183594e+00 -8.086463212966918945e-01 -6.383920907974243164e-01 -4.341115355491638184e-01 -6.647215485572814941e-01
3.556000000000000000e+03 3.322376632690429688e+01 7.735476970672607422e+00 -8.009280562400817871e-01 -6.664036512374877930e-01 -4.401995241641998291e-01 -6.693377494812011719e-01
3.557000000000000000e+03 2.424126243591308594e+01 4.041143059730529785e-01 -9.276028871536254883e-01 9.487817995250225067e-03 -2.754345238208770752e-01 -4.706273972988128662e-01
3.558000000000000000e+03 2.481952095031738281e+01 3.468508720397949219e-01 -9.501205086708068848e-01 -4.460389539599418640e-02 -2.984173297882080078e-01 -3.897983729839324951e-01
3.559000000000000000e+03 3.837509536743164062e+01 3.366365432739257812e+01 6.242556124925613403e-02 6.510893255472183228e-02 3.826034814119338989e-02 5.547759681940078735e-02
3.560000000000000000e+03 3.612331390380859375e+01 3.247179031372070312e+01 5.193679779767990112e-02 7.000720500946044922e-02 3.658320009708404541e-02 5.197722092270851135e-02
3.561000000000000000e+03 3.184023475646972656e+01 -2.902199745178222656e+00 2.939288616180419922e-01 -2.664971947669982910e-01 8.229502476751804352e-03 2.762917801737785339e-02
3.562000000000000000e+03 3.010985565185546875e+01 -2.398258447647094727e+00 2.631489932537078857e-01 -3.537299931049346924e-01 -2.717429772019386292e-02 -3.706642240285873413e-02
3.563000000000000000e+03 3.953665542602539062e+01 3.310900878906250000e+01 5.768715962767601013e-02 6.246360763907432556e-02 3.604523092508316040e-02 5.773718282580375671e-02
3.564000000000000000e+03 7.904490470886230469e+00 -7.181208610534667969e+00 -1.585752815008163452e-01 -2.222143858671188354e-01 -1.142368987202644348e-01 -3.774303793907165527e-01
3.565000000000000000e+03 9.084117889404296875e+00 7.581536293029785156e+00 1.449148207902908325e-01 1.247745007276535034e-03 4.384876787662506104e-02 -2.457406185567378998e-02
3.566000000000000000e+03 7.256165504455566406e+00 -1.018897819519042969e+01 -2.526306174695491791e-02 -3.594251275062561035e-01 -1.154064536094665527e-01 -3.825551271438598633e-01
3.567000000000000000e+03 9.350784301757812500e+00 -6.855807781219482422e+00 -2.180968225002288818e-01 -2.232609540224075317e-01 -1.324073374271392822e-01 -4.408266544342041016e-01
3.568000000000000000e+03 1.218717288970947266e+01 -1.117463493347167969e+01 5.570387467741966248e-02 -4.224596023559570312e-01 -1.100267171859741211e-01 -4.849326610565185547e-01
3.569000000000000000e+03 3.531166458129882812e+01 3.101494407653808594e+01 4.957270622253417969e-02 7.458031922578811646e-02 3.724590688943862915e-02 5.701816827058792114e-02
3.570000000000000000e+03 1.317629909515380859e+01 -9.475419998168945312e+00 -6.580538582056760788e-03 -4.434869289398193359e-01 -1.350202411413192749e-01 -5.401018857955932617e-01
3.571000000000000000e+03 1.104037666320800781e+01 -6.515265941619873047e+00 -2.659670710563659668e-01 -2.913993597030639648e-01 -1.672099381685256958e-01 -5.329605937004089355e-01
3.572000000000000000e+03 1.091858291625976562e+01 5.710772991180419922e+00 2.395774275064468384e-01 1.174859777092933655e-01 1.071190237998962402e-01 -1.102229878306388855e-01
3.573000000000000000e+03 8.992090225219726562e+00 6.785233497619628906e+00 1.750932484865188599e-01 -3.521990776062011719e-02 4.196200147271156311e-02 -1.731416024267673492e-02
3.574000000000000000e+03 3.160383033752441406e+01 -2.097088575363159180e+00 2.013111859560012817e-01 -3.262822329998016357e-01 -3.749131411314010620e-02 1.705138385295867920e-02
3.575000000000000000e+03 1.052332592010498047e+01 -6.489184379577636719e+00 -2.673999071121215820e-01 -2.358202189207077026e-01 -1.509660333395004272e-01 -4.949997961521148682e-01
3.576000000000000000e+03 4.096069717407226562e+01 3.629892349243164062e+01 9.713333845138549805e-02 5.308749526739120483e-02 4.506625235080718994e-02 4.215324670076370239e-02
3.577000000000000000e+03 7.139408874511718750e+01 3.447277545928955078e+00 -1.515264213085174561e-01 7.718788146972656250e+00 2.270178556442260742e+00 5.758096277713775635e-02
3.578000000000000000e+03 3.333904647827148438e+01 -4.237257480621337891e+00 3.621954023838043213e-01 -1.788624078035354614e-01 5.499989911913871765e-02 2.506103191990405321e-04
3.579000000000000000e+03 4.469160842895507812e+01 3.939450073242187500e+01 1.304613798856735229e-01 2.205967344343662262e-02 4.575631394982337952e-02 7.574735675007104874e-03
3.580000000000000000e+03 7.729329109191894531e+00 -1.529076385498046875e+01 6.979035586118698120e-02 -5.047605037689208984e-01 -1.304910480976104736e-01 -3.442727923393249512e-01
3.581000000000000000e+03 1.303220176696777344e+01 -1.164829254150390625e+01 1.285546123981475830e-01 -4.270077347755432129e-01 -8.953592926263809204e-02 -4.628990590572357178e-01
3.582000000000000000e+03 1.078733062744140625e+01 -6.984144687652587891e+00 -2.000120282173156738e-01 -2.958699166774749756e-01 -1.487645804882049561e-01 -5.138922929763793945e-01
3.583000000000000000e+03 7.111460876464843750e+01 -5.177483558654785156e+00 -5.894520878791809082e-02 7.501565933227539062e+00 2.232786178588867188e+00 2.045850157737731934e-01
3.584000000000000000e+03 1.352162170410156250e+01 -1.456689262390136719e+01 1.723127812147140503e-01 -3.684514760971069336e-01 -5.884160846471786499e-02 -3.877995014190673828e-01
3.585000000000000000e+03 1.488017463684082031e+01 -1.358739948272705078e+01 1.939750760793685913e-01 -3.222331404685974121e-01 -3.847742080688476562e-02 -3.731338083744049072e-01
3.586000000000000000e+03 4.200593948364257812e+01 -1.372654914855957031e+01 9.871941059827804565e-02 1.220698237419128418e+00 3.958252668380737305e-01 -6.624915450811386108e-02
3.587000000000000000e+03 4.177699661254882812e+01 -1.484451866149902344e+01 5.064330995082855225e-02 1.173646330833435059e+00 3.672869205474853516e-01 -7.666638493537902832e-02
3.588000000000000000e+03 3.462416839599609375e+01 -4.575887680053710938e+00 3.421105146408081055e-01 -5.263459309935569763e-02 8.684277534484863281e-02 7.870149798691272736e-03
3.589000000000000000e+03 1.387106704711914062e+01 -1.351616096496582031e+01 1.640128791332244873e-01 -3.800289034843444824e-01 -6.480480730533599854e-02 -4.047759771347045898e-01
3.590000000000000000e+03 7.139924621582031250e+01 2.956813240051269531e+01 6.315743327140808105e-01 8.475828170776367188e+00 2.732220649719238281e+00 -1.620629429817199707e+00
3.591000000000000000e+03 7.148262023925781250e+01 2.771251296997070312e+01 1.211003735661506653e-01 8.514898300170898438e+00 2.590799570083618164e+00 -1.682943224906921387e+00
3.592000000000000000e+03 6.806825637817382812e+00 -9.349205970764160156e+00 -6.448505818843841553e-02 -3.128767013549804688e-01 -1.132085248827934265e-01 -3.617151975631713867e-01
3.593000000000000000e+03 7.204208374023437500e+01 -9.410511016845703125e+00 -2.767124585807323456e-02 7.622488021850585938e+00 2.278445005416870117e+00 2.156853973865509033e-01
3.594000000000000000e+03 6.951661682128906250e+01 -1.209135627746582031e+01 -3.666318953037261963e-02 7.049170494079589844e+00 2.103752136230468750e+00 2.779909968376159668e-01
3.595000000000000000e+03 7.190849304199218750e+01 -3.773243665695190430e+00 -5.866108089685440063e-02 7.704343795776367188e+00 2.293704748153686523e+00 1.758836209774017334e-01
3.596000000000000000e+03 7.045823669433593750e+01 -3.209348678588867188e+00 -7.812550663948059082e-02 7.387197494506835938e+00 2.192721605300903320e+00 1.953314393758773804e-01
3.597000000000000000e+03 7.225145721435546875e+01 -8.282926559448242188e+00 -3.256765007972717285e-02 7.687922000885009766e+00 2.296606302261352539e+00 2.071148604154586792e-01
3.598000000000000000e+03 7.066152954101562500e+01 -1.014212131500244141e+01 -3.001239895820617676e-02 7.314146518707275391e+00 2.185240268707275391e+00 2.456679791212081909e-01
3.599000000000000000e+03 7.205780029296875000e+01 5.954420566558837891e+00 -1.790096908807754517e-01 7.911242961883544922e+00 2.319669961929321289e+00 -2.924703247845172882e-02
3.600000000000000000e+03 7.026091003417968750e+01 3.851602554321289062e+00 -1.892031580209732056e-01 7.489671707153320312e+00 2.190140485763549805e+00 7.686123996973037720e-02
3.601000000000000000e+03 7.086061859130859375e+01 -2.415078544616699219e+01 1.600472256541252136e-02 7.089001178741455078e+00 2.131501674652099609e+00 2.720048129558563232e-01
3.602000000000000000e+03 7.010882568359375000e+01 -2.719007110595703125e+01 3.733329102396965027e-02 6.887812614440917969e+00 2.077543735504150391e+00 2.686560750007629395e-01
3.603000000000000000e+03 1.147823619842529297e+01 -8.544595718383789062e+00 -1.131370738148689270e-01 -3.750570714473724365e-01 -1.464582383632659912e-01 -5.440043210983276367e-01
3.604000000000000000e+03 9.675809860229492188e+00 -7.681056022644042969e+00 -1.456307023763656616e-01 -2.960536777973175049e-01 -1.325053125619888306e-01 -4.738799333572387695e-01
3.605000000000000000e+03 7.014502716064453125e+01 -1.826535224914550781e+01 -1.216574013233184814e-02 7.078345775604248047e+00 2.119853973388671875e+00 2.886418998241424561e-01
3.606000000000000000e+03 7.030391693115234375e+01 -1.949763298034667969e+01 -9.617454372346401215e-03 7.087670803070068359e+00 2.123415946960449219e+00 2.898257076740264893e-01
3.607000000000000000e+03 8.224388122558593750e+00 1.538105487823486328e+01 1.286886725574731827e-02 5.362737458199262619e-03 5.469481460750102997e-03 -1.824563927948474884e-02
3.608000000000000000e+03 6.923565864562988281e+00 1.749358558654785156e+01 2.046652371063828468e-03 -3.776965290307998657e-02 -1.071690022945404053e-02 -2.203251793980598450e-02
3.609000000000000000e+03 3.858551406860351562e+01 -7.477864742279052734e+00 2.711947858333587646e-01 5.095668435096740723e-01 2.342284768819808960e-01 -1.699317805469036102e-02
3.610000000000000000e+03 3.974912261962890625e+01 -1.163774394989013672e+01 1.761494725942611694e-01 7.728869318962097168e-01 2.847109138965606689e-01 -6.050457432866096497e-02
3.611000000000000000e+03 7.173882293701171875e+01 2.171217536926269531e+01 -5.602535605430603027e-01 8.331707954406738281e+00 2.331436157226562500e+00 -1.179905772209167480e+00
3.612000000000000000e+03 7.098926544189453125e+01 2.004756927490234375e+01 -6.583598852157592773e-01 8.315145492553710938e+00 2.297035694122314453e+00 -9.676924943923950195e-01
3.613000000000000000e+03 7.176943969726562500e+01 1.291083145141601562e+01 -3.962270915508270264e-01 8.012910842895507812e+00 2.285005092620849609e+00 -3.707698285579681396e-01
3.614000000000000000e+03 7.237699127197265625e+01 8.279788017272949219e+00 -2.289133369922637939e-01 8.001522064208984375e+00 2.331782579421997070e+00 -1.235356777906417847e-01
3.615000000000000000e+03 3.834461975097656250e+01 -8.541036605834960938e+00 2.686004042625427246e-01 4.962556362152099609e-01 2.294568121433258057e-01 -3.094427473843097687e-02
3.616000000000000000e+03 6.899271488189697266e+00 2.231318855285644531e+01 -6.085112225264310837e-03 -4.715415835380554199e-02 -1.597178168594837189e-02 -1.916580088436603546e-02
3.617000000000000000e+03 7.102694511413574219e+00 2.347059440612792969e+01 -6.261857226490974426e-03 -4.522430524230003357e-02 -1.544584892690181732e-02 -1.837234385311603546e-02
3.618000000000000000e+03 8.414382934570312500e+00 2.421261215209960938e+01 -7.748013362288475037e-03 -2.434239909052848816e-02 -9.627124294638633728e-03 -1.487994659692049026e-02
3.619000000000000000e+03 1.811427307128906250e+01 -1.749142265319824219e+01 2.006852030754089355e-01 -2.736287377774715424e-02 5.199670046567916870e-02 -2.870718836784362793e-01
3.620000000000000000e+03 1.729524040222167969e+01 -1.933085060119628906e+01 1.925773918628692627e-01 -9.463491290807723999e-02 2.938274294137954712e-02 -2.992523312568664551e-01
3.621000000000000000e+03 7.079871368408203125e+01 2.570617294311523438e+01 -3.212037384510040283e-01 8.705907821655273438e+00 2.515411138534545898e+00 -1.550350546836853027e+00
3.622000000000000000e+03 7.104318237304687500e+01 2.282588577270507812e+01 -5.925318002700805664e-01 8.483412742614746094e+00 2.367264270782470703e+00 -1.257896184921264648e+00
3.623000000000000000e+03 7.297384643554687500e+01 2.960019874572753906e+01 4.214158952236175537e-01 7.639783382415771484e+00 2.418359756469726562e+00 -1.468496561050415039e+00
3.624000000000000000e+03 7.213586425781250000e+01 1.172293567657470703e+01 -3.263227939605712891e-01 8.026988029479980469e+00 2.310199737548828125e+00 -3.038412034511566162e-01
3.625000000000000000e+03 7.071006774902343750e+01 1.219404220581054688e+01 -4.391801059246063232e-01 7.849772930145263672e+00 2.223177909851074219e+00 -2.866970002651214600e-01
3.626000000000000000e+03 7.112391662597656250e+01 1.889859199523925781e+01 -6.350323557853698730e-01 8.231581687927246094e+00 2.278964757919311523e+00 -8.465483784675598145e-01
3.627000000000000000e+03 7.214176177978515625e+01 1.772323226928710938e+01 -5.112520456314086914e-01 8.173625946044921875e+00 2.298712253570556641e+00 -7.719596624374389648e-01
3.628000000000000000e+03 8.936896324157714844e+00 2.871436119079589844e+01 -8.046046830713748932e-03 -2.614030241966247559e-02 -1.025590486824512482e-02 -1.060279738157987595e-02
3.629000000000000000e+03 8.142933845520019531e+00 -8.051259994506835938e+00 -1.157976835966110229e-01 -2.797983586788177490e-01 -1.186788156628608704e-01 -4.124871790409088135e-01
3.630000000000000000e+03 1.569505214691162109e+01 -1.606195068359375000e+01 2.036745101213455200e-01 -2.473835051059722900e-01 -1.311270054429769516e-02 -3.302856981754302979e-01
3.631000000000000000e+03 7.103607177734375000e+01 -1.583837747573852539e+00 -9.006088972091674805e-02 7.536536216735839844e+00 2.233942508697509766e+00 1.660692244768142700e-01
3.632000000000000000e+03 7.018647003173828125e+01 1.090609192848205566e+00 -1.361999362707138062e-01 7.423490524291992188e+00 2.186187267303466797e+00 1.385761052370071411e-01
3.633000000000000000e+03 8.314053535461425781e+00 -8.917859077453613281e+00 -7.798981666564941406e-02 -3.102174401283264160e-01 -1.164621710777282715e-01 -4.193157851696014404e-01
3.634000000000000000e+03 9.462804794311523438e+00 1.620287895202636719e+01 7.720697671175003052e-03 3.423889353871345520e-02 1.258787792176008224e-02 -1.189349871128797531e-02
3.635000000000000000e+03 4.396871566772460938e+01 -1.822193908691406250e+01 -4.155739396810531616e-02 1.725779056549072266e+00 5.052664875984191895e-01 -8.730161935091018677e-02
3.636000000000000000e+03 4.059230804443359375e+01 -9.481536865234375000e+00 2.117578089237213135e-01 8.987467885017395020e-01 3.331513702869415283e-01 -2.199400588870048523e-02
3.637000000000000000e+03 9.048289299011230469e+00 -2.279801750183105469e+01 8.963877707719802856e-02 -5.719119310379028320e-01 -1.446819603443145752e-01 -2.477933317422866821e-01
3.638000000000000000e+03 8.419160842895507812e+00 -2.022563362121582031e+01 8.559475094079971313e-02 -5.693846940994262695e-01 -1.451369822025299072e-01 -2.792624831199645996e-01
3.639000000000000000e+03 1.426059627532958984e+01 8.922610282897949219e+00 6.716726720333099365e-02 2.942064106464385986e-01 1.084121093153953552e-01 9.308695793151855469e-02
3.640000000000000000e+03 1.527285099029541016e+01 -2.098967552185058594e+01 1.780550181865692139e-01 -2.197739034891128540e-01 -1.251566596329212189e-02 -2.925528287887573242e-01
3.641000000000000000e+03 1.425159072875976562e+01 9.750535011291503906e+00 5.927472189068794250e-02 2.583271563053131104e-01 9.528056532144546509e-02 8.130697160959243774e-02
3.642000000000000000e+03 7.305751800537109375e+00 1.278736782073974609e+01 3.237373009324073792e-02 -2.399185113608837128e-02 2.514563035219907761e-03 -1.598799228668212891e-02
3.643000000000000000e+03 8.858269691467285156e+00 2.275831413269042969e+01 -7.419434376060962677e-03 -1.258579175919294357e-02 -6.001567933708429337e-03 -1.454187091439962387e-02
3.644000000000000000e+03 9.338478088378906250e+00 2.364079856872558594e+01 -8.492387831211090088e-03 -6.671912036836147308e-03 -4.549290053546428680e-03 -1.258626673370599747e-02
3.645000000000000000e+03 4.096639633178710938e+01 -1.245421791076660156e+01 1.417559087276458740e-01 1.002524852752685547e+00 3.432842493057250977e-01 -5.419636145234107971e-02
3.646000000000000000e+03 4.843321609497070312e+01 -2.752130508422851562e+01 -1.076583564281463623e-01 3.232415199279785156e+00 9.374270439147949219e-01 1.089583709836006165e-01
3.647000000000000000e+03 5.048024749755859375e+01 -2.478164863586425781e+01 -9.096046537160873413e-02 3.489091396331787109e+00 1.019439220428466797e+00 1.489296555519104004e-01
3.648000000000000000e+03 8.003099441528320312e+00 1.647658157348632812e+01 5.643420852720737457e-03 -7.670344319194555283e-03 -6.080770399421453476e-04 -1.925536245107650757e-02
3.649000000000000000e+03 4.892956542968750000e+01 -2.472533035278320312e+01 -1.411672085523605347e-01 3.183833360671997070e+00 9.127998352050781250e-01 7.982199639081954956e-02
3.650000000000000000e+03 3.411585998535156250e+01 -3.825550794601440430e+00 3.059891164302825928e-01 -1.134905070066452026e-01 5.774958059191703796e-02 2.273062616586685181e-02
3.651000000000000000e+03 8.478333473205566406e+00 2.096806716918945312e+01 -5.915963090956211090e-03 -1.151589024811983109e-02 -5.229556001722812653e-03 -1.625166274607181549e-02
3.652000000000000000e+03 7.682202339172363281e+00 2.115503883361816406e+01 -6.511858664453029633e-03 -3.109775669872760773e-02 -1.128288451582193375e-02 -1.913053542375564575e-02
3.653000000000000000e+03 7.210191345214843750e+01 3.077235603332519531e+01 7.927016019821166992e-01 7.968211650848388672e+00 2.628273963928222656e+00 -1.392975211143493652e+00
3.654000000000000000e+03 7.075726318359375000e+01 3.154743385314941406e+01 1.187438488006591797e+00 8.560088157653808594e+00 2.924257993698120117e+00 -1.328201770782470703e+00
3.655000000000000000e+03 6.520931243896484375e+01 4.036598205566406250e+01 -1.601737499237060547e+00 1.352451515197753906e+01 3.576833486557006836e+00 5.253390073776245117e-01
3.656000000000000000e+03 6.867910003662109375e+01 3.635846710205078125e+01 1.597889900207519531e+00 1.001979923248291016e+01 3.485306739807128906e+00 5.491070151329040527e-01
3.657000000000000000e+03 6.814081573486328125e+01 3.163581848144531250e+01 2.011189460754394531e+00 1.006248188018798828e+01 3.622101306915283203e+00 -1.505465626716613770e+00
3.658000000000000000e+03 7.097358703613281250e+01 -2.215774917602539062e+01 5.200950894504785538e-03 7.162202835083007812e+00 2.150221109390258789e+00 2.738471329212188721e-01
3.659000000000000000e+03 7.066732788085937500e+01 2.445086860656738281e+01 -5.058828592300415039e-01 8.671821594238281250e+00 2.449781656265258789e+00 -1.421682476997375488e+00
3.660000000000000000e+03 7.917113304138183594e+00 1.381244754791259766e+01 2.429058775305747986e-02 -3.343945601955056190e-03 6.283992901444435120e-03 -1.886175572872161865e-02
3.661000000000000000e+03 1.744489669799804688e+01 -2.243773841857910156e+01 1.848251521587371826e-01 -7.257027924060821533e-02 3.367646411061286926e-02 -2.812758386135101318e-01
3.662000000000000000e+03 2.030122375488281250e+01 -2.684638404846191406e+01 2.058651149272918701e-01 1.051738262176513672e-01 9.331168234348297119e-02 -2.718682885169982910e-01
3.663000000000000000e+03 7.093711090087890625e+01 -2.035834312438964844e+01 -3.486311528831720352e-03 7.186275005340576172e+00 2.154836654663085938e+00 2.795594632625579834e-01
3.664000000000000000e+03 6.916695404052734375e+01 -3.069356727600097656e+01 8.195181936025619507e-02 6.666829109191894531e+00 2.024634361267089844e+00 2.390811294317245483e-01
3.665000000000000000e+03 7.083029937744140625e+01 -3.056371307373046875e+01 5.432722717523574829e-02 7.000362873077392578e+00 2.116407155990600586e+00 2.170487195253372192e-01
3.666000000000000000e+03 1.892148780822753906e+01 -2.579215240478515625e+01 1.850187331438064575e-01 2.782812342047691345e-02 6.385406106710433960e-02 -2.729157805442810059e-01
3.667000000000000000e+03 6.971645355224609375e+01 -1.381097030639648438e+01 -2.522428892552852631e-02 7.062029361724853516e+00 2.111041545867919922e+00 2.804208099842071533e-01
3.668000000000000000e+03 6.884613800048828125e+01 6.314198970794677734e+00 -2.969316244125366211e-01 7.279315948486328125e+00 2.094715356826782227e+00 4.890544340014457703e-02
3.669000000000000000e+03 5.038342285156250000e+01 -2.327585411071777344e+01 -1.237068772315979004e-01 3.436843395233154297e+00 9.939409494400024414e-01 1.260980218648910522e-01
3.670000000000000000e+03 4.688311386108398438e+01 -2.224237823486328125e+01 -1.487158685922622681e-01 2.563449144363403320e+00 7.244200110435485840e-01 -5.421480163931846619e-02
3.671000000000000000e+03 7.091481781005859375e+01 1.656993484497070312e+01 -5.844837427139282227e-01 8.082978248596191406e+00 2.249548435211181641e+00 -6.168324947357177734e-01
3.672000000000000000e+03 2.077089309692382812e+01 -2.953878593444824219e+01 2.243613004684448242e-01 1.115474328398704529e-01 1.007726192474365234e-01 -2.496554106473922729e-01
3.673000000000000000e+03 7.104879760742187500e+01 -9.168837547302246094e+00 -3.625563904643058777e-02 7.414971351623535156e+00 2.213614702224731445e+00 2.341106534004211426e-01
3.674000000000000000e+03 7.117219543457031250e+01 1.039115810394287109e+01 -3.474122583866119385e-01 7.840950012207031250e+00 2.248061418533325195e+00 -1.959027945995330811e-01
3.675000000000000000e+03 1.079503250122070312e+01 -2.776346397399902344e+01 9.084960073232650757e-02 -5.220025181770324707e-01 -1.293458789587020874e-01 -1.940957903861999512e-01
3.676000000000000000e+03 5.721321582794189453e+00 -3.513005447387695312e+01 4.213432595133781433e-02 -9.461292028427124023e-01 -2.711984515190124512e-01 -7.454800605773925781e-02
3.677000000000000000e+03 9.494450569152832031e+00 2.655234718322753906e+01 -8.516578003764152527e-03 -1.402346231043338776e-02 -6.762012373656034470e-03 -1.080714073032140732e-02
3.678000000000000000e+03 7.141722106933593750e+01 -2.733051872253417969e+01 2.668340504169464111e-02 7.134189605712890625e+00 2.148261785507202148e+00 2.458655536174774170e-01
3.679000000000000000e+03 7.094082641601562500e+01 3.334159088134765625e+01 1.421059846878051758e+00 8.343347549438476562e+00 2.929322242736816406e+00 -8.786306381225585938e-01
3.680000000000000000e+03 9.960515975952148438e+00 -2.108049392700195312e+01 1.082950383424758911e-01 -5.103533267974853516e-01 -1.206174865365028381e-01 -2.820582091808319092e-01
3.681000000000000000e+03 7.407711029052734375e+00 -2.168476295471191406e+01 6.787825375795364380e-02 -6.403664350509643555e-01 -1.717464476823806763e-01 -2.420206964015960693e-01
3.682000000000000000e+03 2.781771469116210938e+01 3.248726367950439453e+00 -1.432056427001953125e+00 -6.739701628684997559e-01 -6.318079829216003418e-01 -6.394992470741271973e-01
3.683000000000000000e+03 2.670082855224609375e+01 2.182818412780761719e+00 -1.396228790283203125e+00 -4.918808341026306152e-01 -5.664328932762145996e-01 -5.342437028884887695e-01
3.684000000000000000e+03 2.766802787780761719e+01 -4.150089025497436523e-01 -1.582658588886260986e-01 -3.188335895538330078e-01 -1.431298404932022095e-01 -8.285479247570037842e-02
3.685000000000000000e+03 2.888129425048828125e+01 4.197453498840332031e+00 -1.441409230232238770e+00 -7.714922428131103516e-01 -6.638704538345336914e-01 -6.697283387184143066e-01
3.686000000000000000e+03 2.775420951843261719e+01 2.753046989440917969e+00 -1.299727439880371094e+00 -5.934056639671325684e-01 -5.679399371147155762e-01 -5.189267992973327637e-01
3.687000000000000000e+03 3.000010108947753906e+01 -1.645907878875732422e+00 1.692995876073837280e-01 -3.406254947185516357e-01 -5.139777064323425293e-02 3.501936420798301697e-02
3.688000000000000000e+03 2.856322479248046875e+01 4.005434036254882812e+00 -1.448179602622985840e+00 -7.702773213386535645e-01 -6.655370593070983887e-01 -6.852245926856994629e-01
3.689000000000000000e+03 1.778733634948730469e+01 1.268163394927978516e+01 7.677312940359115601e-02 1.801435351371765137e-01 7.707499712705612183e-02 1.133838519454002380e-01
3.690000000000000000e+03 4.161048889160156250e+01 1.801045989990234375e+01 -6.318971514701843262e-01 -3.461404740810394287e-01 -2.934112846851348877e-01 -5.763810276985168457e-01
3.691000000000000000e+03 4.202866744995117188e+01 1.917501831054687500e+01 -6.348472833633422852e-01 -4.270098209381103516e-01 -3.185571432113647461e-01 -6.110116243362426758e-01
3.692000000000000000e+03 3.432836532592773438e+01 1.036838722229003906e+01 -8.775931596755981445e-01 -7.479731440544128418e-01 -4.876698851585388184e-01 -7.568038702011108398e-01
3.693000000000000000e+03 4.116937255859375000e+01 1.810754966735839844e+01 -6.652311682701110840e-01 -4.306862652301788330e-01 -3.287752270698547363e-01 -6.336615085601806641e-01
3.694000000000000000e+03 4.098358917236328125e+01 1.777524566650390625e+01 -6.646608710289001465e-01 -4.259098172187805176e-01 -3.271712064743041992e-01 -6.260522007942199707e-01
3.695000000000000000e+03 8.763129234313964844e+00 1.308163166046142578e+01 3.095228783786296844e-02 2.571005001664161682e-02 1.699870079755783081e-02 -1.658019982278347015e-02
3.696000000000000000e+03 5.925800323486328125e+01 3.098213005065917969e+01 2.125283479690551758e+00 4.958891868591308594e+00 2.125252723693847656e+00 3.751538276672363281e+00
3.697000000000000000e+03 5.953635787963867188e+01 3.075746917724609375e+01 1.806796193122863770e+00 6.000013351440429688e+00 2.342042922973632812e+00 3.918534755706787109e+00
3.698000000000000000e+03 4.253146743774414062e+01 1.871603393554687500e+01 -5.832887887954711914e-01 -2.780258357524871826e-01 -2.583943903446197510e-01 -5.127217173576354980e-01
3.699000000000000000e+03 4.000435256958007812e+01 1.743051719665527344e+01 -7.326038479804992676e-01 -5.605605840682983398e-01 -3.879493176937103271e-01 -6.998609900474548340e-01
3.700000000000000000e+03 1.468888473510742188e+01 8.462600708007812500e+00 8.139667659997940063e-02 3.104076385498046875e-01 1.175412982702255249e-01 1.227235198020935059e-01
3.701000000000000000e+03 1.672628211975097656e+01 1.021536731719970703e+01 9.826394170522689819e-02 2.229040861129760742e-01 9.635040909051895142e-02 1.382153481245040894e-01
3.702000000000000000e+03 4.760087966918945312e+01 2.492423248291015625e+01 -4.932669699192047119e-01 -1.395155042409896851e-01 -1.898347437381744385e-01 -3.165060579776763916e-01
3.703000000000000000e+03 2.779062652587890625e+01 2.197676467895507812e+01 5.833383277058601379e-02 1.003782898187637329e-01 4.761363565921783447e-02 8.035843074321746826e-02
3.704000000000000000e+03 2.856517410278320312e+01 2.198710060119628906e+01 6.089456751942634583e-02 9.666685760021209717e-02 4.726842790842056274e-02 8.039005845785140991e-02
3.705000000000000000e+03 1.939599037170410156e+01 1.322324943542480469e+01 9.022009372711181641e-02 1.631670892238616943e-01 7.601615786552429199e-02 1.196521893143653870e-01
3.706000000000000000e+03 1.860836029052734375e+01 1.293546962738037109e+01 8.406965434551239014e-02 1.710131019353866577e-01 7.652482390403747559e-02 1.178660616278648376e-01
3.707000000000000000e+03 4.412168502807617188e+01 2.150821304321289062e+01 -6.299883723258972168e-01 -3.572608828544616699e-01 -2.961747646331787109e-01 -5.046495795249938965e-01
3.708000000000000000e+03 4.063268661499023438e+01 1.762595939636230469e+01 -6.894207000732421875e-01 -4.702429473400115967e-01 -3.478990793228149414e-01 -6.541085243225097656e-01
3.709000000000000000e+03 4.789329528808593750e+01 2.516086196899414062e+01 -4.640318751335144043e-01 -1.192286610603332520e-01 -1.749781668186187744e-01 -2.883381247520446777e-01
3.710000000000000000e+03 2.017218589782714844e+01 1.344734573364257812e+01 9.616597741842269897e-02 1.569576710462570190e-01 7.593709230422973633e-02 1.212888956069946289e-01
3.711000000000000000e+03 2.287143135070800781e+01 1.716139411926269531e+01 7.422599941492080688e-02 1.285869032144546509e-01 6.084387376904487610e-02 9.825375676155090332e-02
3.712000000000000000e+03 4.727466201782226562e+01 2.418573570251464844e+01 -4.983430206775665283e-01 -8.448424190282821655e-02 -1.748481839895248413e-01 -2.815523445606231689e-01
3.713000000000000000e+03 2.384862899780273438e+01 1.839312934875488281e+01 6.852436810731887817e-02 1.198704838752746582e-01 5.651845782995223999e-02 9.245288372039794922e-02
3.714000000000000000e+03 2.006272697448730469e+01 1.376150703430175781e+01 9.059256315231323242e-02 1.549803614616394043e-01 7.367187738418579102e-02 1.173419505357742310e-01
3.715000000000000000e+03 2.059102630615234375e+01 1.413165092468261719e+01 9.184460341930389404e-02 1.504696458578109741e-01 7.269427180290222168e-02 1.157066673040390015e-01
3.716000000000000000e+03 3.545681762695312500e+01 1.284151172637939453e+01 -9.034073948860168457e-01 -8.566389679908752441e-01 -5.280138850212097168e-01 -8.471922278404235840e-01
3.717000000000000000e+03 3.611979675292968750e+01 1.310311698913574219e+01 -8.613578677177429199e-01 -7.856565117835998535e-01 -4.941042959690093994e-01 -8.038613200187683105e-01
3.718000000000000000e+03 4.467805862426757812e+01 2.156399154663085938e+01 -5.842595100402832031e-01 -2.545031011104583740e-01 -2.516287863254547119e-01 -4.282297492027282715e-01
3.719000000000000000e+03 2.075737571716308594e+01 1.490247821807861328e+01 8.318255841732025146e-02 1.472826302051544189e-01 6.913955509662628174e-02 1.087191253900527954e-01
3.720000000000000000e+03 5.021724319458007812e+01 2.732352447509765625e+01 -2.757251560688018799e-01 2.137964405119419098e-02 -7.630365341901779175e-02 -8.449901640415191650e-02
3.721000000000000000e+03 3.517280578613281250e+01 1.230521774291992188e+01 -9.029586315155029297e-01 -8.385037779808044434e-01 -5.224387049674987793e-01 -8.360289931297302246e-01
3.722000000000000000e+03 3.468518829345703125e+01 1.171267604827880859e+01 -9.118328690528869629e-01 -8.385476469993591309e-01 -5.251141786575317383e-01 -8.358859419822692871e-01
3.723000000000000000e+03 2.581076622009277344e+01 1.882304763793945312e+01 7.698179036378860474e-02 1.117812618613243103e-01 5.662891641259193420e-02 9.232920408248901367e-02
3.724000000000000000e+03 1.580693531036376953e+01 9.975572586059570312e+00 8.368126302957534790e-02 2.406186163425445557e-01 9.728996455669403076e-02 1.262421458959579468e-01
3.725000000000000000e+03 1.527848720550537109e+01 9.620841979980468750e+00 7.772424072027206421e-02 2.589185535907745361e-01 1.009928360581398010e-01 1.197558715939521790e-01
3.726000000000000000e+03 3.954453277587890625e+01 1.710174560546875000e+01 -7.610272169113159180e-01 -6.104055643081665039e-01 -4.114298522472381592e-01 -7.221171259880065918e-01
3.727000000000000000e+03 3.732405471801757812e+01 1.441668415069580078e+01 -8.197325468063354492e-01 -7.436455488204956055e-01 -4.690134227275848389e-01 -7.734472751617431641e-01
3.728000000000000000e+03 3.382969665527343750e+01 2.792949485778808594e+01 5.024283751845359802e-02 8.121818304061889648e-02 3.943830728530883789e-02 6.255539506673812866e-02
3.729000000000000000e+03 3.307068252563476562e+01 2.726188278198242188e+01 5.308019369840621948e-02 8.388558030128479004e-02 4.108973219990730286e-02 6.664105504751205444e-02
3.730000000000000000e+03 4.318695068359375000e+01 2.020228958129882812e+01 -6.130239367485046387e-01 -3.514651656150817871e-01 -2.893467247486114502e-01 -5.299535393714904785e-01
3.731000000000000000e+03 4.419493103027343750e+01 2.099082183837890625e+01 -5.868458151817321777e-01 -2.683073282241821289e-01 -2.565459311008453369e-01 -4.501875638961791992e-01
3.732000000000000000e+03 2.541809654235839844e+01 -1.502694189548492432e-01 -4.280343055725097656e-01 -1.660413891077041626e-01 -1.782227009534835815e-01 -2.562542557716369629e-01
3.733000000000000000e+03 2.532805633544921875e+01 3.467330932617187500e-01 -7.227808237075805664e-01 -5.689911171793937683e-02 -2.339039742946624756e-01 -2.182769924402236938e-01
3.734000000000000000e+03 2.589780616760253906e+01 1.768806099891662598e+00 -1.391468167304992676e+00 -3.746454119682312012e-01 -5.298340916633605957e-01 -5.244898796081542969e-01
3.735000000000000000e+03 3.365030288696289062e+01 2.840197372436523438e+01 5.489384755492210388e-02 7.998137176036834717e-02 4.046256467700004578e-02 6.312952935695648193e-02
3.736000000000000000e+03 2.746586990356445312e+01 3.083736658096313477e+00 -1.472526550292968750e+00 -6.516761779785156250e-01 -6.372607946395874023e-01 -6.602093577384948730e-01
3.737000000000000000e+03 2.742058181762695312e+01 2.778169870376586914e+00 -1.437459826469421387e+00 -5.849225521087646484e-01 -6.067147254943847656e-01 -5.878854990005493164e-01
3.738000000000000000e+03 2.674084663391113281e+01 2.093162155151367188e+01 6.269978731870651245e-02 1.049633994698524475e-01 5.029895529150962830e-02 8.303293585777282715e-02
3.739000000000000000e+03 2.663887214660644531e+01 2.015082740783691406e+01 6.892997026443481445e-02 1.069233044981956482e-01 5.275598168373107910e-02 8.660686761140823364e-02
3.740000000000000000e+03 2.377237510681152344e+01 1.796876907348632812e+01 7.308851182460784912e-02 1.213257089257240295e-01 5.832426622509956360e-02 9.468287974596023560e-02
3.741000000000000000e+03 2.550420570373535156e+01 1.868783378601074219e+01 7.755611836910247803e-02 1.136099249124526978e-01 5.734981223940849304e-02 9.344954043626785278e-02
3.742000000000000000e+03 4.492930603027343750e+01 2.184217643737792969e+01 -5.807049870491027832e-01 -2.431119382381439209e-01 -2.471450865268707275e-01 -4.157845675945281982e-01
3.743000000000000000e+03 4.337092971801757812e+01 2.057690429687500000e+01 -6.221783757209777832e-01 -3.708744943141937256e-01 -2.979158461093902588e-01 -5.322705507278442383e-01
3.744000000000000000e+03 5.197499847412109375e+01 2.846342849731445312e+01 -4.862802475690841675e-02 3.256523013114929199e-01 8.310728520154953003e-02 1.727837920188903809e-01
3.745000000000000000e+03 5.097447967529296875e+01 2.848722267150878906e+01 -2.517674565315246582e-01 -4.289263859391212463e-02 -8.839803189039230347e-02 -1.040089428424835205e-01
3.746000000000000000e+03 5.530523681640625000e+01 3.024388122558593750e+01 7.042689323425292969e-01 1.233490347862243652e+00 5.813277959823608398e-01 7.983494997024536133e-01
3.747000000000000000e+03 5.656929016113281250e+01 3.013227844238281250e+01 1.171858787536621094e+00 2.028810262680053711e+00 9.602007269859313965e-01 1.512229442596435547e+00
3.748000000000000000e+03 2.619675254821777344e+01 4.849074482917785645e-01 -6.856608986854553223e-01 -2.055432796478271484e-01 -2.673612534999847412e-01 -1.885544955730438232e-01
3.749000000000000000e+03 4.970133590698242188e+01 2.740683746337890625e+01 -3.691653609275817871e-01 -1.566716581583023071e-01 -1.577510982751846313e-01 -2.253676950931549072e-01
3.750000000000000000e+03 2.052891159057617188e+01 1.463315773010253906e+01 8.432476967573165894e-02 1.484125852584838867e-01 6.982120871543884277e-02 1.097794845700263977e-01
3.751000000000000000e+03 2.126680755615234375e+01 1.502084922790527344e+01 8.635725826025009155e-02 1.442462354898452759e-01 6.918104737997055054e-02 1.094122529029846191e-01
3.752000000000000000e+03 2.817886161804199219e+01 2.233056449890136719e+01 5.728588998317718506e-02 9.769811481237411499e-02 4.649520292878150940e-02 7.773537188768386841e-02
3.753000000000000000e+03 4.624461746215820312e+01 2.368529129028320312e+01 -5.861177444458007812e-01 -2.433553487062454224e-01 -2.488419264554977417e-01 -3.963425755500793457e-01
3.754000000000000000e+03 4.676089096069335938e+01 2.368871498107910156e+01 -5.246286988258361816e-01 -1.217616498470306396e-01 -1.939170956611633301e-01 -3.103850185871124268e-01
3.755000000000000000e+03 2.159841537475585938e+01 1.566931343078613281e+01 8.051013946533203125e-02 1.401436179876327515e-01 6.619612872600555420e-02 1.048788204789161682e-01
3.756000000000000000e+03 3.786762619018554688e+01 1.454392433166503906e+01 -7.826675176620483398e-01 -6.623711585998535156e-01 -4.335116147994995117e-01 -7.213121056556701660e-01
3.757000000000000000e+03 1.899975013732910156e+01 1.309345436096191406e+01 8.688548207283020020e-02 1.662911176681518555e-01 7.595298439264297485e-02 1.195191070437431335e-01
3.758000000000000000e+03 5.118758773803710938e+01 2.819084930419921875e+01 -1.712466776371002197e-01 1.064011603593826294e-01 -1.945365779101848602e-02 1.801433973014354706e-02
3.759000000000000000e+03 3.933228683471679688e+01 1.692239189147949219e+01 -7.771801352500915527e-01 -6.411942243576049805e-01 -4.255123138427734375e-01 -7.300162911415100098e-01
3.760000000000000000e+03 4.160404586791992188e+01 1.859717369079589844e+01 -6.439141631126403809e-01 -4.166149795055389404e-01 -3.181587457656860352e-01 -6.169881820678710938e-01
3.761000000000000000e+03 3.813595581054687500e+01 1.485995769500732422e+01 -7.800421714782714844e-01 -6.498703360557556152e-01 -4.289737343788146973e-01 -7.142525911331176758e-01
3.762000000000000000e+03 5.200473022460937500e+01 2.898367691040039062e+01 -9.907712042331695557e-02 1.908013224601745605e-01 2.751726098358631134e-02 7.918858528137207031e-02
3.763000000000000000e+03 5.237058258056640625e+01 2.964455223083496094e+01 -1.050266921520233154e-01 1.433026492595672607e-01 1.148278731852769852e-02 4.084088653326034546e-02
3.764000000000000000e+03 4.396601867675781250e+01 2.069013786315917969e+01 -5.851736664772033691e-01 -2.707035541534423828e-01 -2.567631602287292480e-01 -4.582925438880920410e-01
3.765000000000000000e+03 4.518566513061523438e+01 2.211628532409667969e+01 -5.770663022994995117e-01 -2.307725101709365845e-01 -2.423516362905502319e-01 -4.012629985809326172e-01
3.766000000000000000e+03 5.263657760620117188e+01 2.970512580871582031e+01 -3.990592062473297119e-02 2.528502047061920166e-01 6.388328969478607178e-02 1.006715223193168640e-01
3.767000000000000000e+03 1.416026496887207031e+01 8.236204147338867188e+00 7.327656447887420654e-02 3.293512165546417236e-01 1.207883358001708984e-01 1.029822528362274170e-01
3.768000000000000000e+03 4.919051742553710938e+01 2.611928176879882812e+01 -3.368169963359832764e-01 1.982318051159381866e-02 -9.509814530611038208e-02 -1.414605826139450073e-01
3.769000000000000000e+03 3.841775512695312500e+01 1.516109180450439453e+01 -7.697954773902893066e-01 -6.299420595169067383e-01 -4.199212491512298584e-01 -7.018564939498901367e-01
3.770000000000000000e+03 1.928029441833496094e+01 1.366059875488281250e+01 8.269309252500534058e-02 1.600688397884368896e-01 7.282858341932296753e-02 1.139359772205352783e-01
3.771000000000000000e+03 1.835796165466308594e+01 1.231034755706787109e+01 8.988095819950103760e-02 1.786290556192398071e-01 8.055300265550613403e-02 1.247788965702056885e-01
3.772000000000000000e+03 4.959111785888671875e+01 2.676334381103515625e+01 -3.284648358821868896e-01 -3.372322767972946167e-02 -1.086564213037490845e-01 -1.506195664405822754e-01
3.773000000000000000e+03 5.089213562011718750e+01 2.787419509887695312e+01 -2.014612555503845215e-01 9.671337902545928955e-02 -3.142436593770980835e-02 -2.900754916481673717e-04
3.774000000000000000e+03 4.987948226928710938e+01 2.706445884704589844e+01 -3.122065961360931396e-01 -2.148181013762950897e-02 -1.001065224409103394e-01 -1.276362985372543335e-01
3.775000000000000000e+03 3.915154266357421875e+01 1.665673446655273438e+01 -7.788494229316711426e-01 -6.483397483825683594e-01 -4.281567633152008057e-01 -7.299567461013793945e-01
3.776000000000000000e+03 5.147513961791992188e+01 2.847011756896972656e+01 -1.463790833950042725e-01 1.332988888025283813e-01 -3.924059215933084488e-03 3.780491277575492859e-02
3.777000000000000000e+03 2.083501815795898438e+01 1.441504192352294922e+01 9.051142632961273193e-02 1.490538865327835083e-01 7.186959683895111084e-02 1.138866692781448364e-01
3.778000000000000000e+03 3.483602142333984375e+01 1.111046791076660156e+01 -8.731167316436767578e-01 -7.569042444229125977e-01 -4.890062808990478516e-01 -7.699130177497863770e-01
3.779000000000000000e+03 3.516771697998046875e+01 1.261450576782226562e+01 -9.064709544181823730e-01 -8.685901165008544922e-01 -5.325183272361755371e-01 -8.594763278961181641e-01
3.780000000000000000e+03 5.463373184204101562e+01 3.007036018371582031e+01 4.846776723861694336e-01 9.919759631156921387e-01 4.429960846900939941e-01 5.998222231864929199e-01
3.781000000000000000e+03 2.494033050537109375e+01 1.877868843078613281e+01 7.239997386932373047e-02 1.154430583119392395e-01 5.635290965437889099e-02 9.185045957565307617e-02
3.782000000000000000e+03 2.465883636474609375e+01 1.817053031921386719e+01 7.680666446685791016e-02 1.169593408703804016e-01 5.812980234622955322e-02 9.555581957101821899e-02
3.783000000000000000e+03 3.385784912109375000e+01 9.691155433654785156e+00 -8.756325840950012207e-01 -7.472254037857055664e-01 -4.868573844432830811e-01 -7.426257729530334473e-01
3.784000000000000000e+03 4.250132751464843750e+01 1.913358879089355469e+01 -6.007063984870910645e-01 -3.326443731784820557e-01 -2.800052165985107422e-01 -5.426396131515502930e-01
3.785000000000000000e+03 4.597728729248046875e+01 2.342606735229492188e+01 -5.961233973503112793e-01 -2.617410421371459961e-01 -2.573593258857727051e-01 -4.104025065898895264e-01
3.786000000000000000e+03 1.677199935913085938e+01 1.057517623901367188e+01 9.182285517454147339e-02 2.164283096790313721e-01 9.247534722089767456e-02 1.317260265350341797e-01
3.787000000000000000e+03 2.877549171447753906e+01 2.316293716430664062e+01 5.403899401426315308e-02 9.522356092929840088e-02 4.477876797318458557e-02 7.540399581193923950e-02
3.788000000000000000e+03 4.375647735595703125e+01 2.037657928466796875e+01 -5.797349214553833008e-01 -2.645668089389801025e-01 -2.532905340194702148e-01 -4.620518982410430908e-01
3.789000000000000000e+03 3.266919708251953125e+01 2.678600692749023438e+01 5.332526564598083496e-02 8.396253734827041626e-02 4.118634015321731567e-02 6.599394977092742920e-02
3.790000000000000000e+03 2.831073951721191406e+01 2.344273567199707031e+01 4.891824722290039062e-02 9.661697596311569214e-02 4.366056621074676514e-02 7.494319230318069458e-02
3.791000000000000000e+03 3.871826934814453125e+01 1.546072578430175781e+01 -7.584118843078613281e-01 -6.040382981300354004e-01 -4.087350666522979736e-01 -6.898449063301086426e-01
3.792000000000000000e+03 3.309203338623046875e+01 2.829551887512207031e+01 4.711109399795532227e-02 8.186817914247512817e-02 3.869378194212913513e-02 5.979057401418685913e-02
3.793000000000000000e+03 3.031830406188964844e+01 2.415073013305664062e+01 5.303420871496200562e-02 8.872312307357788086e-02 4.252719879150390625e-02 7.465250790119171143e-02
3.794000000000000000e+03 2.584659576416015625e+01 1.965172004699707031e+01 6.844346970319747925e-02 1.106042489409446716e-01 5.371431261301040649e-02 8.784019947052001953e-02
3.795000000000000000e+03 1.681918716430664062e+01 1.092669868469238281e+01 8.674164861440658569e-02 2.111954092979431152e-01 8.938111364841461182e-02 1.268615722656250000e-01
3.796000000000000000e+03 1.969725227355957031e+01 1.371639537811279297e+01 8.742660284042358398e-02 1.582538485527038574e-01 7.370413839817047119e-02 1.157519966363906860e-01
3.797000000000000000e+03 4.256217956542968750e+01 1.953570175170898438e+01 -6.135539412498474121e-01 -3.729721605777740479e-01 -2.959578335285186768e-01 -5.627349019050598145e-01
3.798000000000000000e+03 4.307250976562500000e+01 1.981726264953613281e+01 -5.953647494316101074e-01 -3.184843957424163818e-01 -2.741547226905822754e-01 -5.164358019828796387e-01
3.799000000000000000e+03 4.038195037841796875e+01 1.711533164978027344e+01 -7.039303183555603027e-01 -4.625937640666961670e-01 -3.499572277069091797e-01 -6.419039964675903320e-01
3.800000000000000000e+03 3.024709129333496094e+01 4.468375205993652344e+00 -1.202809214591979980e+00 -6.088140606880187988e-01 -5.434869527816772461e-01 -5.491285324096679688e-01
3.801000000000000000e+03 3.899468231201171875e+01 1.579325580596923828e+01 -7.528799176216125488e-01 -5.866610407829284668e-01 -4.018622934818267822e-01 -6.815543174743652344e-01
3.802000000000000000e+03 3.923356628417968750e+01 1.613611412048339844e+01 -7.458270788192749023e-01 -5.778902769088745117e-01 -3.971152007579803467e-01 -6.814297437667846680e-01
3.803000000000000000e+03 5.360221099853515625e+01 3.037962341308593750e+01 1.037828624248504639e-01 4.475053846836090088e-01 1.653864681720733643e-01 1.769229173660278320e-01
3.804000000000000000e+03 3.313359069824218750e+01 9.527682304382324219e+00 -9.159369468688964844e-01 -8.224023580551147461e-01 -5.215017795562744141e-01 -7.859404683113098145e-01
3.805000000000000000e+03 4.544601821899414062e+01 2.238702774047851562e+01 -5.715295672416687012e-01 -2.149338871240615845e-01 -2.359390407800674438e-01 -3.866940736770629883e-01
3.806000000000000000e+03 2.783359146118164062e+01 2.265242958068847656e+01 5.294257402420043945e-02 9.970091283321380615e-02 4.579304531216621399e-02 7.774999737739562988e-02
3.807000000000000000e+03 1.883162117004394531e+01 1.358408069610595703e+01 7.840367406606674194e-02 1.646579802036285400e-01 7.291849702596664429e-02 1.112052872776985168e-01
3.808000000000000000e+03 1.386048316955566406e+01 7.499400615692138672e+00 7.450073957443237305e-02 3.803488910198211670e-01 1.364548802375793457e-01 9.419763833284378052e-02
3.809000000000000000e+03 5.885523605346679688e+01 3.069760513305664062e+01 1.882028937339782715e+00 4.435221195220947266e+00 1.895174980163574219e+00 3.289270401000976562e+00
3.810000000000000000e+03 2.109909057617187500e+01 1.549451732635498047e+01 7.860786467790603638e-02 1.427967399358749390e-01 6.642138212919235229e-02 1.042353957891464233e-01
3.811000000000000000e+03 2.094840621948242188e+01 1.518817234039306641e+01 8.083497732877731323e-02 1.443971693515777588e-01 6.756964325904846191e-02 1.061866208910942078e-01
3.812000000000000000e+03 4.701878356933593750e+01 2.393929100036621094e+01 -5.107867121696472168e-01 -1.020697355270385742e-01 -1.838569343090057373e-01 -2.977745532989501953e-01
3.813000000000000000e+03 3.515842056274414062e+01 1.140257930755615234e+01 -8.596531748771667480e-01 -7.404332160949707031e-01 -4.800259172916412354e-01 -7.625352144241333008e-01
3.814000000000000000e+03 3.541598892211914062e+01 1.183987808227539062e+01 -8.585759997367858887e-01 -7.467560768127441406e-01 -4.815996289253234863e-01 -7.692470550537109375e-01
3.815000000000000000e+03 3.709790039062500000e+01 1.324355888366699219e+01 -7.964635491371154785e-01 -6.542604565620422363e-01 -4.352172017097473145e-01 -7.137989997863769531e-01
3.816000000000000000e+03 2.211321067810058594e+01 1.669229698181152344e+01 7.236660271883010864e-02 1.334854662418365479e-01 6.175561994314193726e-02 9.862633794546127319e-02
3.817000000000000000e+03 3.265945816040039062e+01 2.728161621093750000e+01 4.877647757530212402e-02 8.216382563114166260e-02 3.928209096193313599e-02 6.403776258230209351e-02
3.818000000000000000e+03 4.570896148681640625e+01 2.265465736389160156e+01 -5.656959414482116699e-01 -1.984206587076187134e-01 -2.292349785566329956e-01 -3.705529272556304932e-01
3.819000000000000000e+03 4.650022888183593750e+01 2.343531799316406250e+01 -5.372833013534545898e-01 -1.399381458759307861e-01 -2.031664401292800903e-01 -3.249593973159790039e-01
3.820000000000000000e+03 2.173872566223144531e+01 1.601799392700195312e+01 7.743442058563232422e-02 1.381255239248275757e-01 6.466798484325408936e-02 1.025100499391555786e-01
3.821000000000000000e+03 3.561220169067382812e+01 2.981247520446777344e+01 5.833072587847709656e-02 7.642444968223571777e-02 4.042655229568481445e-02 5.688309296965599060e-02
3.822000000000000000e+03 5.427521514892578125e+01 3.041354560852050781e+01 3.218995928764343262e-01 7.443931698799133301e-01 3.198878169059753418e-01 3.705550134181976318e-01
3.823000000000000000e+03 3.326144790649414062e+01 6.712687492370605469e+00 -7.780427932739257812e-01 -5.450754165649414062e-01 -3.969354629516601562e-01 -5.934429168701171875e-01
3.824000000000000000e+03 3.354193878173828125e+01 9.522356986999511719e+00 -8.917205929756164551e-01 -7.769483923912048340e-01 -5.006006956100463867e-01 -7.583345174789428711e-01
3.825000000000000000e+03 3.409986877441406250e+01 1.000670528411865234e+01 -8.715996146202087402e-01 -7.447430491447448730e-01 -4.849027991294860840e-01 -7.477271556854248047e-01
3.826000000000000000e+03 2.417679023742675781e+01 1.787300491333007812e+01 7.638131082057952881e-02 1.196721941232681274e-01 5.881605297327041626e-02 9.697481244802474976e-02
3.827000000000000000e+03 1.637758255004882812e+01 1.065711593627929688e+01 8.444925397634506226e-02 2.204205691814422607e-01 9.146095067262649536e-02 1.245686858892440796e-01
3.828000000000000000e+03 1.631262779235839844e+01 1.028530406951904297e+01 8.846028149127960205e-02 2.269111722707748413e-01 9.461143612861633301e-02 1.297564059495925903e-01
3.829000000000000000e+03 5.974207305908203125e+01 3.107358169555664062e+01 1.999761223793029785e+00 6.453948497772216797e+00 2.536113023757934570e+00 4.229121208190917969e+00
3.830000000000000000e+03 1.132256507873535156e+01 5.864880084991455078e+00 2.070972025394439697e-01 2.239344716072082520e-01 1.293095052242279053e-01 -1.239471659064292908e-01
3.831000000000000000e+03 1.226215076446533203e+01 5.287706851959228516e+00 1.989620327949523926e-01 4.368475079536437988e-01 1.907428652048110962e-01 -1.435824185609817505e-01
3.832000000000000000e+03 9.715705871582031250e+00 6.606021404266357422e+00 1.852235496044158936e-01 1.600142195820808411e-02 6.036749109625816345e-02 -4.337725415825843811e-02
3.833000000000000000e+03 3.076662445068359375e+01 2.552557182312011719e+01 4.824145138263702393e-02 8.627249300479888916e-02 4.035418480634689331e-02 6.904714554548263550e-02
3.834000000000000000e+03 2.977530670166015625e+01 2.423357772827148438e+01 5.151272937655448914e-02 9.070463478565216064e-02 4.266520962119102478e-02 7.328160852193832397e-02
3.835000000000000000e+03 2.626694869995117188e+01 1.157961040735244751e-01 -5.058696866035461426e-01 -2.657076120376586914e-01 -2.314731925725936890e-01 -1.751430779695510864e-01
3.836000000000000000e+03 1.720531272888183594e+01 1.164438533782958984e+01 8.174666762351989746e-02 1.977132558822631836e-01 8.383797854185104370e-02 1.211828812956809998e-01
3.837000000000000000e+03 6.041063308715820312e+01 3.055390739440917969e+01 1.104302287101745605e+00 8.650498390197753906e+00 2.926440238952636719e+00 4.121580123901367188e+00
3.838000000000000000e+03 6.097328567504882812e+01 3.053348731994628906e+01 6.167289018630981445e-01 1.042326068878173828e+01 3.311996936798095703e+00 3.851719379425048828e+00
3.839000000000000000e+03 1.476264572143554688e+01 9.695750236511230469e+00 6.969545781612396240e-02 2.606860399246215820e-01 9.911444783210754395e-02 1.024030596017837524e-01
3.840000000000000000e+03 3.071048545837402344e+01 4.808413505554199219e+00 -1.154178023338317871e+00 -5.789492130279541016e-01 -5.199381709098815918e-01 -5.845919847488403320e-01
3.841000000000000000e+03 3.214784240722656250e+01 5.187416076660156250e+00 -8.961760997772216797e-01 -4.894357323646545410e-01 -4.156835675239562988e-01 -5.388628840446472168e-01
3.842000000000000000e+03 5.984017562866210938e+01 3.047973060607910156e+01 1.425044536590576172e+00 6.972588062286376953e+00 2.519289731979370117e+00 3.944243907928466797e+00
3.843000000000000000e+03 3.214802169799804688e+01 2.666710853576660156e+01 4.962261021137237549e-02 8.304676413536071777e-02 3.980081155896186829e-02 6.546271592378616333e-02
3.844000000000000000e+03 2.903563499450683594e+01 2.362733268737792969e+01 5.109760165214538574e-02 9.381093084812164307e-02 4.347255825996398926e-02 7.509635388851165771e-02
3.845000000000000000e+03 1.356234550476074219e+01 7.177072525024414062e+00 7.716602087020874023e-02 4.062956869602203369e-01 1.450385153293609619e-01 7.018990814685821533e-02
3.846000000000000000e+03 1.418142890930175781e+01 6.921441078186035156e+00 8.910158276557922363e-02 4.218058586120605469e-01 1.532722264528274536e-01 1.322338283061981201e-01
3.847000000000000000e+03 5.841704940795898438e+01 3.037913131713867188e+01 1.673939585685729980e+00 3.925681114196777344e+00 1.679886221885681152e+00 2.876923084259033203e+00
3.848000000000000000e+03 5.802838897705078125e+01 3.049169921875000000e+01 1.685748100280761719e+00 3.183621406555175781e+00 1.460810899734497070e+00 2.505684375762939453e+00
3.849000000000000000e+03 3.116866111755371094e+01 4.756541252136230469e+00 -1.031377196311950684e+00 -5.338410735130310059e-01 -4.695654809474945068e-01 -5.495504736900329590e-01
3.850000000000000000e+03 3.826053237915039062e+01 3.262932968139648438e+01 5.917413905262947083e-02 6.883930414915084839e-02 3.840403258800506592e-02 5.913241580128669739e-02
3.851000000000000000e+03 2.685323333740234375e+01 -6.337317228317260742e-01 -1.269579678773880005e-01 -2.555389702320098877e-01 -1.147490814328193665e-01 -1.065063029527664185e-01
3.852000000000000000e+03 2.816703987121582031e+01 -1.000174164772033691e+00 4.022787138819694519e-02 -3.384384512901306152e-01 -8.946317434310913086e-02 -5.827957391738891602e-02
3.853000000000000000e+03 3.161437797546386719e+01 2.648105239868164062e+01 5.102087929844856262e-02 8.459381014108657837e-02 4.068440571427345276e-02 6.611081957817077637e-02
3.854000000000000000e+03 3.059405136108398438e+01 2.479084014892578125e+01 5.068015307188034058e-02 8.698620647192001343e-02 4.129990562796592712e-02 7.153461873531341553e-02
3.855000000000000000e+03 3.011663627624511719e+01 2.443865776062011719e+01 5.091222003102302551e-02 8.857002109289169312e-02 4.184467345476150513e-02 7.216722518205642700e-02
3.856000000000000000e+03 5.712882995605468750e+01 2.985703468322753906e+01 1.292585492134094238e+00 2.708931446075439453e+00 1.200455069541931152e+00 1.984815120697021484e+00
3.857000000000000000e+03 5.460332870483398438e+01 3.090290260314941406e+01 3.462611734867095947e-01 7.000889182090759277e-01 3.139050304889678955e-01 2.936917841434478760e-01
3.858000000000000000e+03 3.068736267089843750e+01 -1.469639897346496582e+00 1.002366095781326294e-01 -3.709683418273925781e-01 -8.121952414512634277e-02 2.381668193265795708e-03
3.859000000000000000e+03 3.367247390747070312e+01 7.427669525146484375e+00 -7.699799537658691406e-01 -5.762237906455993652e-01 -4.038611352443695068e-01 -6.032632589340209961e-01
3.860000000000000000e+03 3.436360168457031250e+01 3.050997924804687500e+01 4.662062972784042358e-02 7.698896527290344238e-02 3.708287701010704041e-02 5.696256458759307861e-02
3.861000000000000000e+03 2.938921928405761719e+01 2.398765945434570312e+01 5.032046884298324585e-02 9.217559546232223511e-02 4.274882003664970398e-02 7.280261814594268799e-02
3.862000000000000000e+03 3.397689819335937500e+01 2.894307136535644531e+01 5.553546547889709473e-02 7.884067296981811523e-02 4.031284153461456299e-02 6.086318567395210266e-02
3.863000000000000000e+03 3.729259872436523438e+01 3.268757629394531250e+01 5.441822856664657593e-02 6.889540702104568481e-02 3.699408844113349915e-02 5.343069881200790405e-02
3.864000000000000000e+03 3.781617736816406250e+01 3.322075271606445312e+01 6.674997508525848389e-02 6.256023794412612915e-02 3.879306465387344360e-02 5.011496320366859436e-02
3.865000000000000000e+03 6.273761367797851562e+01 3.011332130432128906e+01 -2.010017633438110352e-01 1.301214218139648438e+01 3.843342304229736328e+00 1.159988880157470703e+00
3.866000000000000000e+03 3.431592178344726562e+01 2.912274360656738281e+01 5.166711658239364624e-02 7.968500256538391113e-02 3.940563648939132690e-02 5.957771465182304382e-02
3.867000000000000000e+03 2.871351432800292969e+01 -1.074900388717651367e+00 -2.859816327691078186e-02 -3.582364916801452637e-01 -1.160503998398780823e-01 -2.641128562390804291e-02
3.868000000000000000e+03 3.865865707397460938e+01 3.570715332031250000e+01 6.336898356676101685e-02 5.870652571320533752e-02 3.662265464663505554e-02 4.031728208065032959e-02
3.869000000000000000e+03 3.453840637207031250e+01 3.130927467346191406e+01 5.455002561211585999e-02 7.617563754320144653e-02 3.921769931912422180e-02 5.195974558591842651e-02
3.870000000000000000e+03 3.570457077026367188e+01 3.168564414978027344e+01 5.761518329381942749e-02 7.394557446241378784e-02 3.946822881698608398e-02 5.262113735079765320e-02
3.871000000000000000e+03 1.196795368194580078e+01 5.685152530670166016e+00 1.832958012819290161e-01 3.571865558624267578e-01 1.621447056531906128e-01 -1.318901032209396362e-01
3.872000000000000000e+03 1.190268325805664062e+01 5.051086425781250000e+00 2.489539682865142822e-01 3.510532975196838379e-01 1.800021827220916748e-01 -1.785964667797088623e-01
3.873000000000000000e+03 1.270024585723876953e+01 6.131594181060791016e+00 1.083659306168556213e-01 4.591347873210906982e-01 1.702502071857452393e-01 -4.777957126498222351e-02
3.874000000000000000e+03 3.353340148925781250e+01 8.208316802978515625e+00 -8.066143989562988281e-01 -6.648600697517395020e-01 -4.414423406124114990e-01 -6.655443310737609863e-01
3.875000000000000000e+03 8.940012931823730469e+00 -7.917279243469238281e+00 -1.464119851589202881e-01 -2.704468369483947754e-01 -1.250576525926589966e-01 -4.387295246124267578e-01
3.876000000000000000e+03 3.339746856689453125e+01 7.073566436767578125e+00 -7.694429159164428711e-01 -5.794337391853332520e-01 -4.046629965305328369e-01 -6.103979349136352539e-01
3.877000000000000000e+03 1.041074752807617188e+01 6.434870243072509766e+00 1.931991577148437500e-01 8.763957768678665161e-02 8.425161987543106079e-02 -7.625117152929306030e-02
3.878000000000000000e+03 7.745537281036376953e+00 1.026859188079833984e+01 7.313497364521026611e-02 -2.268672920763492584e-02 1.513447239995002747e-02 -1.139669306576251984e-02
3.879000000000000000e+03 3.293385314941406250e+01 -3.432277441024780273e+00 3.094797432422637939e-01 -2.069425135850906372e-01 3.076116554439067841e-02 2.122213505208492279e-02
3.880000000000000000e+03 2.961128616333007812e+01 3.497601509094238281e+00 -1.121885895729064941e+00 -6.185615062713623047e-01 -5.221342444419860840e-01 -4.459470212459564209e-01
3.881000000000000000e+03 6.869550323486328125e+01 3.305451393127441406e+00 -2.143983840942382812e-01 7.158579349517822266e+00 2.083254337310791016e+00 1.292852461338043213e-01
3.882000000000000000e+03 6.939289855957031250e+01 -1.485294461250305176e+00 -1.089979857206344604e-01 7.198748111724853516e+00 2.126924991607666016e+00 1.964555531740188599e-01
3.883000000000000000e+03 1.097826862335205078e+01 6.212105751037597656e+00 1.918394118547439575e-01 1.494145244359970093e-01 1.023761853575706482e-01 -9.327148646116256714e-02
3.884000000000000000e+03 9.989170074462890625e+00 7.984968185424804688e+00 1.265757381916046143e-01 7.776299118995666504e-02 6.130161881446838379e-02 -4.241147264838218689e-02
3.885000000000000000e+03 3.521443176269531250e+01 -5.330186367034912109e+00 3.361177742481231689e-01 1.145346276462078094e-02 1.042713746428489685e-01 -1.218772027641534805e-03
3.886000000000000000e+03 1.273635864257812500e+01 -8.201696395874023438e+00 -1.124545410275459290e-01 -4.285522401332855225e-01 -1.623020321130752563e-01 -5.815274715423583984e-01
3.887000000000000000e+03 1.230162811279296875e+01 -7.042595386505126953e+00 -2.276931703090667725e-01 -3.815768957138061523e-01 -1.827810257673263550e-01 -5.954014062881469727e-01
3.888000000000000000e+03 6.944065856933593750e+01 -3.791152715682983398e+00 -8.530092984437942505e-02 7.161853790283203125e+00 2.122965812683105469e+00 2.210822850465774536e-01
3.889000000000000000e+03 7.127375030517578125e+01 -6.194931507110595703e+00 -4.757439345121383667e-02 7.521649360656738281e+00 2.242222547531127930e+00 2.124813050031661987e-01
3.890000000000000000e+03 1.029924964904785156e+01 -7.350163459777832031e+00 -2.007487416267395020e-01 -2.813298106193542480e-01 -1.446235626935958862e-01 -5.015295147895812988e-01
3.891000000000000000e+03 6.220959854125976562e+01 3.043513107299804688e+01 -1.406200528144836426e-01 1.334109783172607422e+01 3.960143327713012695e+00 2.027973890304565430e+00
3.892000000000000000e+03 6.613311004638671875e+01 3.024581146240234375e+01 9.716544747352600098e-01 1.158396720886230469e+01 3.766686439514160156e+00 -1.587316155433654785e+00
3.893000000000000000e+03 8.011362075805664062e+00 -9.633460998535156250e+00 -6.226270645856857300e-02 -3.370240330696105957e-01 -1.197860240936279297e-01 -4.163986444473266602e-01
3.894000000000000000e+03 7.015359497070312500e+01 -1.112008476257324219e+01 -3.731926903128623962e-02 7.199258327484130859e+00 2.148581743240356445e+00 2.583469450473785400e-01
3.895000000000000000e+03 4.028613662719726562e+01 4.022750091552734375e+01 1.026315912604331970e-01 5.183219537138938904e-02 4.633913561701774597e-02 1.142936944961547852e-02
3.896000000000000000e+03 7.000765800476074219e+00 9.095488548278808594e+00 9.139463305473327637e-02 -6.318311393260955811e-02 8.463456295430660248e-03 6.608292926102876663e-03
3.897000000000000000e+03 7.966097354888916016e+00 1.122653865814208984e+01 5.492463335394859314e-02 -5.647358950227499008e-03 1.478318311274051666e-02 -1.470724586397409439e-02
3.898000000000000000e+03 7.895504474639892578e+00 9.395225524902343750e+00 9.250492602586746216e-02 -2.348662167787551880e-02 2.070549130439758301e-02 -1.012675371021032333e-02
3.899000000000000000e+03 1.080183887481689453e+01 -7.988018035888671875e+00 -1.207665652036666870e-01 -3.420184552669525146e-01 -1.388355046510696411e-01 -5.200412869453430176e-01
3.900000000000000000e+03 3.880835342407226562e+01 -6.501013755798339844e+00 2.789232134819030762e-01 5.412600040435791016e-01 2.460549622774124146e-01 2.197240293025970459e-02
3.901000000000000000e+03 6.890103912353515625e+01 -1.826669120788574219e+01 -1.703918166458606720e-02 6.860232830047607422e+00 2.052958250045776367e+00 3.087049126625061035e-01
3.902000000000000000e+03 6.844116973876953125e+01 -1.939910125732421875e+01 -1.287119649350643158e-02 6.767337322235107422e+00 2.026339769363403320e+00 3.169282972812652588e-01
3.903000000000000000e+03 8.225330352783203125e+00 -1.415774440765380859e+01 5.678484588861465454e-02 -4.758361577987670898e-01 -1.257153898477554321e-01 -3.768342733383178711e-01
3.904000000000000000e+03 9.896557807922363281e+00 -1.363924503326416016e+01 7.729099690914154053e-02 -4.485413730144500732e-01 -1.113751083612442017e-01 -4.129672646522521973e-01
3.905000000000000000e+03 8.818670272827148438e+00 -1.312327098846435547e+01 6.307192146778106689e-02 -4.490588605403900146e-01 -1.157960742712020874e-01 -3.984202146530151367e-01
3.906000000000000000e+03 9.910775184631347656e+00 2.464372634887695312e+01 -8.500481955707073212e-03 -2.014639787375926971e-03 -3.154536709189414978e-03 -1.035540085285902023e-02
3.907000000000000000e+03 6.692837524414062500e+01 2.970867347717285156e+01 7.059004306793212891e-01 1.086205101013183594e+01 3.470385313034057617e+00 -1.630858540534973145e+00
3.908000000000000000e+03 1.316639518737792969e+01 -1.296291637420654297e+01 1.510355323553085327e-01 -4.026547074317932129e-01 -7.548575103282928467e-02 -4.260042905807495117e-01
3.909000000000000000e+03 7.066055297851562500e+01 5.008590698242187500e+00 -2.069165706634521484e-01 7.603577613830566406e+00 2.218998432159423828e+00 3.083228506147861481e-02
3.910000000000000000e+03 7.091400909423828125e+01 6.217131137847900391e+00 -2.248861491680145264e-01 7.690192222595214844e+00 2.239591836929321289e+00 -1.681181602180004120e-02
3.911000000000000000e+03 6.897721099853515625e+01 1.708084106445312500e+00 -1.713613569736480713e-01 7.167568206787109375e+00 2.098861932754516602e+00 1.550430506467819214e-01
3.912000000000000000e+03 6.943658447265625000e+01 9.460158646106719971e-02 -1.325135827064514160e-01 7.249575614929199219e+00 2.135118484497070312e+00 1.735077053308486938e-01
3.913000000000000000e+03 1.092923736572265625e+01 -2.378977775573730469e+01 1.142505258321762085e-01 -4.802003800868988037e-01 -1.097849532961845398e-01 -2.511779367923736572e-01
3.914000000000000000e+03 8.702819824218750000e+00 -2.145693016052246094e+01 8.519702404737472534e-02 -5.695167779922485352e-01 -1.452959328889846802e-01 -2.618116736412048340e-01
3.915000000000000000e+03 6.997696685791015625e+01 -2.303012371063232422e+00 -9.243310987949371338e-02 7.304287910461425781e+00 2.163556337356567383e+00 1.920487582683563232e-01
3.916000000000000000e+03 7.121919250488281250e+01 7.300178527832031250e+00 -2.467928230762481689e-01 7.767383098602294922e+00 2.256177186965942383e+00 -5.822430178523063660e-02
3.917000000000000000e+03 4.176778411865234375e+01 -1.029093170166015625e+01 1.756626516580581665e-01 1.132156372070312500e+00 3.923456966876983643e-01 -2.098180912435054779e-02
3.918000000000000000e+03 6.992845916748046875e+01 -2.320842742919921875e+01 8.818848058581352234e-03 6.967847824096679688e+00 2.092999935150146484e+00 3.008738756179809570e-01
3.919000000000000000e+03 7.014992523193359375e+01 2.203640174865722656e+01 -7.298301458358764648e-01 8.545897483825683594e+00 2.344820261001586914e+00 -1.090833663940429688e+00
3.920000000000000000e+03 7.068655395507812500e+01 -1.469730377197265625e+01 -2.757228165864944458e-02 7.239982128143310547e+00 2.163722991943359375e+00 2.646237909793853760e-01
3.921000000000000000e+03 7.013159942626953125e+01 -1.686717987060546875e+01 -2.075598947703838348e-02 7.099710941314697266e+00 2.123686552047729492e+00 2.824334204196929932e-01
3.922000000000000000e+03 3.728065490722656250e+01 -4.637130260467529297e+00 2.844513654708862305e-01 2.887723147869110107e-01 1.719671040773391724e-01 3.356468677520751953e-02
3.923000000000000000e+03 7.127048492431640625e+01 -8.192447662353515625e+00 -3.651886805891990662e-02 7.482688903808593750e+00 2.233850955963134766e+00 2.220134288072586060e-01
3.924000000000000000e+03 8.026485443115234375e+00 2.314375686645507812e+01 -7.374356966465711594e-03 -2.667363546788692474e-02 -1.021439768373966217e-02 -1.682262308895587921e-02
3.925000000000000000e+03 8.671197891235351562e+00 2.189185142517089844e+01 -6.600107997655868530e-03 -1.106791850179433823e-02 -5.300407763570547104e-03 -1.602567732334136963e-02
3.926000000000000000e+03 3.948979187011718750e+01 -8.561206817626953125e+00 2.452550977468490601e-01 6.832288503646850586e-01 2.785451710224151611e-01 -2.151627838611602783e-02
3.927000000000000000e+03 6.957736968994140625e+01 1.578247737884521484e+01 -6.695306301116943359e-01 7.933322906494140625e+00 2.179137706756591797e+00 -4.564522504806518555e-01
3.928000000000000000e+03 6.926146697998046875e+01 -2.023823928833007812e+01 -5.288904067128896713e-03 6.899822711944580078e+00 2.068360090255737305e+00 3.060987889766693115e-01
3.929000000000000000e+03 8.545075416564941406e+00 -1.024276638031005859e+01 -2.339763566851615906e-02 -3.684925734996795654e-01 -1.175670623779296875e-01 -4.286109805107116699e-01
3.930000000000000000e+03 3.959794616699218750e+01 -7.537031650543212891e+00 2.576774060726165771e-01 6.908204555511474609e-01 2.845493555068969727e-01 4.484250210225582123e-03
3.931000000000000000e+03 7.288812255859375000e+01 2.796073722839355469e+01 1.933847665786743164e-01 7.883223056793212891e+00 2.422982215881347656e+00 -1.594351410865783691e+00
3.932000000000000000e+03 7.135796356201171875e+01 8.259126663208007812e+00 -2.624107003211975098e-01 7.828494548797607422e+00 2.269825220108032227e+00 -1.029962226748466492e-01
3.933000000000000000e+03 6.760231018066406250e+01 3.059249114990234375e+01 1.400005459785461426e+00 1.042797565460205078e+01 3.548394441604614258e+00 -1.667711496353149414e+00
3.934000000000000000e+03 3.368115615844726562e+01 -3.090110778808593750e+00 2.745525240898132324e-01 -1.659362614154815674e-01 3.258487954735755920e-02 3.375347703695297241e-02
3.935000000000000000e+03 4.290163421630859375e+01 -1.494946861267089844e+01 4.879662394523620605e-02 1.416569113731384277e+00 4.396097064018249512e-01 -7.091193646192550659e-02
3.936000000000000000e+03 4.391673278808593750e+01 -1.611954116821289062e+01 4.882887937128543854e-03 1.684599280357360840e+00 5.068446397781372070e-01 -7.723856717348098755e-02
3.937000000000000000e+03 1.070250511169433594e+01 -1.782768630981445312e+01 1.306741386651992798e-01 -4.573981165885925293e-01 -9.801718592643737793e-02 -3.385586142539978027e-01
3.938000000000000000e+03 8.588196754455566406e+00 -1.681798744201660156e+01 9.242124855518341064e-02 -5.139011144638061523e-01 -1.264439672231674194e-01 -3.355655670166015625e-01
3.939000000000000000e+03 8.983534812927246094e+00 -1.573837184906005859e+01 8.523510396480560303e-02 -4.893331825733184814e-01 -1.212294176220893860e-01 -3.646323680877685547e-01
3.940000000000000000e+03 6.972777557373046875e+01 2.445317459106445312e+01 -6.096341013908386230e-01 8.897816658020019531e+00 2.486454725265502930e+00 -1.336500883102416992e+00
3.941000000000000000e+03 7.013751220703125000e+01 2.357340621948242188e+01 -6.582947969436645508e-01 8.730266571044921875e+00 2.421591520309448242e+00 -1.284434080123901367e+00
3.942000000000000000e+03 9.223129272460937500e+00 1.739528083801269531e+01 2.197584370151162148e-03 1.982682198286056519e-02 6.607322022318840027e-03 -1.394914742559194565e-02
3.943000000000000000e+03 7.848438739776611328e+00 1.756012344360351562e+01 1.453420845791697502e-03 -1.490471139550209045e-02 -4.035387188196182251e-03 -1.933186873793601990e-02
3.944000000000000000e+03 1.662240982055664062e+01 -1.769100379943847656e+01 2.014353126287460327e-01 -1.570287495851516724e-01 1.332196779549121857e-02 -3.117638528347015381e-01
3.945000000000000000e+03 1.758184242248535156e+01 -1.825358772277832031e+01 2.013262212276458740e-01 -7.002409547567367554e-02 3.939063847064971924e-02 -2.882353067398071289e-01
3.946000000000000000e+03 6.901850128173828125e+01 -1.712571716308593750e+01 -3.050043620169162750e-02 6.879823207855224609e+00 2.054796695709228516e+00 2.963568568229675293e-01
3.947000000000000000e+03 9.217968940734863281e+00 2.040511131286621094e+01 -5.007857456803321838e-03 4.687614273279905319e-03 -9.607300307834520936e-05 -1.370120607316493988e-02
3.948000000000000000e+03 9.200967788696289062e+00 1.884637069702148438e+01 -1.938745728693902493e-03 1.272759307175874710e-02 3.236653981730341911e-03 -1.387704443186521530e-02
3.949000000000000000e+03 7.232852172851562500e+01 -7.161101341247558594e+00 -3.238176926970481873e-02 7.726895332336425781e+00 2.308354139328002930e+00 1.974544227123260498e-01
3.950000000000000000e+03 4.762567520141601562e+01 -2.082503128051757812e+01 -1.320241838693618774e-01 2.724304914474487305e+00 7.776842117309570312e-01 -9.398650377988815308e-03
3.951000000000000000e+03 4.504011535644531250e+01 -1.623708152770996094e+01 -1.416221912950277328e-02 1.951528310775756836e+00 5.812098383903503418e-01 -5.513574555516242981e-02
3.952000000000000000e+03 7.015489959716796875e+01 1.877273941040039062e+01 -7.258998751640319824e-01 8.223990440368652344e+00 2.249427080154418945e+00 -7.600428462028503418e-01
3.953000000000000000e+03 6.991302490234375000e+01 1.675961112976074219e+01 -6.825688481330871582e-01 8.039290428161621094e+00 2.207016468048095703e+00 -5.599556565284729004e-01
3.954000000000000000e+03 6.891542053222656250e+01 -2.652309226989746094e+01 5.589624494314193726e-02 6.716260433197021484e+00 2.031646966934204102e+00 3.026413917541503906e-01
3.955000000000000000e+03 7.026178741455078125e+01 1.073494911193847656e+01 -4.012137353420257568e-01 7.705562114715576172e+00 2.191304445266723633e+00 -1.855402141809463501e-01
3.956000000000000000e+03 9.377037048339843750e+00 -9.919390678405761719e+00 -3.280236944556236267e-02 -3.606136143207550049e-01 -1.180247962474822998e-01 -4.526818096637725830e-01
3.957000000000000000e+03 8.545965194702148438e+00 -1.160277366638183594e+01 2.628878504037857056e-02 -4.125045835971832275e-01 -1.158647388219833374e-01 -4.162085354328155518e-01
3.958000000000000000e+03 8.464241027832031250e+00 1.950408744812011719e+01 -4.278787411749362946e-03 -9.974014014005661011e-03 -4.275840707123279572e-03 -1.755167357623577118e-02
3.959000000000000000e+03 7.084752655029296875e+01 2.861698532104492188e+01 3.655213415622711182e-01 8.726365089416503906e+00 2.727566003799438477e+00 -1.702912092208862305e+00
3.960000000000000000e+03 8.959448814392089844e+00 1.573146438598632812e+01 1.005557086318731308e-02 1.918918825685977936e-02 8.773427456617355347e-03 -1.350332517176866531e-02
3.961000000000000000e+03 1.019689464569091797e+01 2.784119606018066406e+01 -9.321342222392559052e-03 -6.635383702814579010e-03 -4.787017591297626495e-03 -8.104238659143447876e-03
3.962000000000000000e+03 7.043899536132812500e+01 3.011016273498535156e+01 8.376442193984985352e-01 8.818428993225097656e+00 2.896821975708007812e+00 -1.646046280860900879e+00
3.963000000000000000e+03 4.564666748046875000e+01 -2.775856781005859375e+01 -1.461467593908309937e-01 2.570081472396850586e+00 7.271804213523864746e-01 -1.385822594165802002e-01
3.964000000000000000e+03 1.690211868286132812e+01 -2.050568771362304688e+01 1.904862076044082642e-01 -1.172602027654647827e-01 2.196780033409595490e-02 -2.857403755187988281e-01
3.965000000000000000e+03 4.897466278076171875e+01 -2.192011642456054688e+01 -1.343585997819900513e-01 3.059698820114135742e+00 8.776020407676696777e-01 5.459863692522048950e-02
3.966000000000000000e+03 5.157503509521484375e+01 -2.164881706237792969e+01 -1.131592988967895508e-01 3.604779243469238281e+00 1.047485947608947754e+00 1.578337848186492920e-01
3.967000000000000000e+03 6.798036956787109375e+01 -2.816399955749511719e+01 5.640967190265655518e-02 6.539214134216308594e+00 1.978687047958374023e+00 3.130280673503875732e-01
3.968000000000000000e+03 4.271350097656250000e+01 -1.612026214599609375e+01 8.486478589475154877e-03 1.377673625946044922e+00 4.158480167388916016e-01 -8.548280596733093262e-02
3.969000000000000000e+03 4.303405761718750000e+01 -1.392535400390625000e+01 7.219937443733215332e-02 1.446831345558166504e+00 4.557092189788818359e-01 -6.259062141180038452e-02
3.970000000000000000e+03 7.068698883056640625e+01 2.112375640869140625e+01 -6.920245885848999023e-01 8.422707557678222656e+00 2.319204807281494141e+00 -1.044593930244445801e+00
3.971000000000000000e+03 6.976952362060546875e+01 2.067791938781738281e+01 -7.925853729248046875e-01 8.435840606689453125e+00 2.292976617813110352e+00 -9.087723493576049805e-01
3.972000000000000000e+03 7.102404022216796875e+01 1.383702945709228516e+01 -4.755651652812957764e-01 7.963000297546386719e+00 2.246230602264404297e+00 -4.089478850364685059e-01
3.973000000000000000e+03 7.057425689697265625e+01 1.544091510772705078e+01 -5.835878252983093262e-01 7.990549564361572266e+00 2.222088575363159180e+00 -5.008061528205871582e-01
3.974000000000000000e+03 5.211101531982421875e+01 -2.473270797729492188e+01 -8.718244731426239014e-02 3.842361927032470703e+00 1.126553893089294434e+00 2.107591480016708374e-01
3.975000000000000000e+03 4.890246963500976562e+01 -2.331814002990722656e+01 -1.242167651653289795e-01 3.100172281265258789e+00 8.927866816520690918e-01 5.432204529643058777e-02
3.976000000000000000e+03 6.776184082031250000e+01 -2.556627845764160156e+01 3.925778344273567200e-02 6.552682399749755859e+00 1.977581977844238281e+00 3.293257355690002441e-01
3.977000000000000000e+03 1.633748626708984375e+01 -2.883721542358398438e+01 1.614192426204681396e-01 -1.715825200080871582e-01 -3.048983402550220490e-03 -2.281503677368164062e-01
3.978000000000000000e+03 1.628313064575195312e+01 -3.207658004760742188e+01 1.590282469987869263e-01 -1.996855139732360840e-01 -1.219718251377344131e-02 -1.852871775627136230e-01
3.979000000000000000e+03 7.142996215820312500e+01 -3.494441604614257812e+01 8.747237175703048706e-02 6.983539581298828125e+00 2.121303558349609375e+00 1.635056138038635254e-01
3.980000000000000000e+03 2.703683662414550781e+01 2.187010049819946289e+00 -1.280077457427978516e+00 -4.893830120563507080e-01 -5.308381319046020508e-01 -4.916950166225433350e-01
3.981000000000000000e+03 2.852518844604492188e+01 3.338900804519653320e+00 -1.325928807258605957e+00 -6.757394075393676758e-01 -6.005004644393920898e-01 -5.509076118469238281e-01
3.982000000000000000e+03 2.810325622558593750e+01 3.142869234085083008e+00 -1.374949097633361816e+00 -6.303758621215820312e-01 -6.015974879264831543e-01 -5.715131163597106934e-01
3.983000000000000000e+03 2.521247673034667969e+01 1.458779692649841309e+00 -1.465248584747314453e+00 -2.598800063133239746e-01 -5.175386071205139160e-01 -5.328393578529357910e-01
3.984000000000000000e+03 2.578833389282226562e+01 4.532400369644165039e-01 -7.548236846923828125e-01 -2.605758607387542725e-01 -3.046198487281799316e-01 -3.001804649829864502e-01
3.985000000000000000e+03 1.678429794311523438e+01 1.283982181549072266e+01 6.080032512545585632e-02 1.826294958591461182e-01 7.302895188331604004e-02 9.933000802993774414e-02
3.986000000000000000e+03 2.870427894592285156e+01 -5.446008443832397461e-01 -8.596701174974441528e-02 -3.764271140098571777e-01 -1.387182325124740601e-01 -3.087675012648105621e-02
3.987000000000000000e+03 4.117831802368164062e+01 1.734842300415039062e+01 -6.494515538215637207e-01 -3.427467048168182373e-01 -2.976594865322113037e-01 -5.758923888206481934e-01
3.988000000000000000e+03 1.347387218475341797e+01 9.070174217224121094e+00 6.028854846954345703e-02 2.807944118976593018e-01 1.023248881101608276e-01 5.661780759692192078e-02
3.989000000000000000e+03 2.677763748168945312e+01 2.205985832214355469e+01 5.293737351894378662e-02 1.024509370326995850e-01 4.661649465560913086e-02 7.716199755668640137e-02
3.990000000000000000e+03 4.412317657470703125e+01 2.019377326965332031e+01 -5.411944985389709473e-01 -1.687541455030441284e-01 -2.129845917224884033e-01 -3.984653949737548828e-01
3.991000000000000000e+03 5.307050323486328125e+01 2.950335884094238281e+01 8.805785328149795532e-02 4.928616583347320557e-01 1.742758452892303467e-01 2.713395953178405762e-01
3.992000000000000000e+03 5.390955734252929688e+01 2.993197631835937500e+01 2.624587714672088623e-01 7.280645966529846191e-01 2.971570193767547607e-01 4.086903333663940430e-01
3.993000000000000000e+03 4.774135971069335938e+01 2.417838096618652344e+01 -4.438191056251525879e-01 2.912433072924613953e-02 -1.244084313511848450e-01 -1.983298659324645996e-01
3.994000000000000000e+03 4.205193710327148438e+01 1.790230560302734375e+01 -5.965541005134582520e-01 -2.615696489810943604e-01 -2.574371397495269775e-01 -5.170062184333801270e-01
3.995000000000000000e+03 2.491753578186035156e+01 7.733711600303649902e-01 -1.080323457717895508e+00 -1.425223052501678467e-01 -3.668537437915802002e-01 -4.494088292121887207e-01
3.996000000000000000e+03 4.782025909423828125e+01 2.463786697387695312e+01 -4.445420205593109131e-01 -2.991481311619281769e-02 -1.423370540142059326e-01 -2.355681210756301880e-01
3.997000000000000000e+03 4.847206115722656250e+01 2.569112205505371094e+01 -4.199122488498687744e-01 -9.212569892406463623e-02 -1.536113768815994263e-01 -2.461253553628921509e-01
3.998000000000000000e+03 4.776958847045898438e+01 2.372213935852050781e+01 -4.036146402359008789e-01 1.307315528392791748e-01 -8.186492323875427246e-02 -1.314007043838500977e-01
3.999000000000000000e+03 1.474400520324707031e+01 1.016920948028564453e+01 6.174017488956451416e-02 2.450536787509918213e-01 9.203815460205078125e-02 9.338563680648803711e-02
4.000000000000000000e+03 3.672100830078125000e+01 1.333777904510498047e+01 -8.234291076660156250e-01 -7.201416492462158203e-01 -4.630712270736694336e-01 -7.567306160926818848e-01
4.001000000000000000e+03 2.428186988830566406e+01 1.824828910827636719e+01 7.413082569837570190e-02 1.187846064567565918e-01 5.787462741136550903e-02 9.408050030469894409e-02
4.002000000000000000e+03 4.076488876342773438e+01 1.720401382446289062e+01 -6.790952086448669434e-01 -4.032933712005615234e-01 -3.247165977954864502e-01 -6.101378202438354492e-01
4.003000000000000000e+03 4.207849884033203125e+01 1.742000389099121094e+01 -5.835357308387756348e-01 -1.974789053201675415e-01 -2.343043982982635498e-01 -4.798776209354400635e-01
4.004000000000000000e+03 2.894926452636718750e+01 3.631796836853027344e+00 -1.290121436119079590e+00 -6.886756420135498047e-01 -5.936391353607177734e-01 -5.453594326972961426e-01
4.005000000000000000e+03 2.930205917358398438e+01 3.758650064468383789e+00 -1.224930882453918457e+00 -6.569498777389526367e-01 -5.645642280578613281e-01 -5.066489577293395996e-01
4.006000000000000000e+03 2.624495887756347656e+01 1.975615882873535156e+01 7.051222771406173706e-02 1.091641709208488464e-01 5.390292033553123474e-02 8.822859823703765869e-02
4.007000000000000000e+03 2.617223739624023438e+01 2.015375900268554688e+01 6.492893397808074951e-02 1.080297529697418213e-01 5.188760533928871155e-02 8.583850413560867310e-02
4.008000000000000000e+03 4.812479019165039062e+01 2.485039901733398438e+01 -4.231260418891906738e-01 -2.237701301055494696e-05 -1.269445270299911499e-01 -2.028428316116333008e-01
4.009000000000000000e+03 4.443303680419921875e+01 2.128094673156738281e+01 -5.854263901710510254e-01 -2.623552381992340088e-01 -2.543344795703887939e-01 -4.397763609886169434e-01
4.010000000000000000e+03 3.720086288452148438e+01 1.360024166107177734e+01 -7.974922060966491699e-01 -6.728275418281555176e-01 -4.410959184169769287e-01 -7.286404371261596680e-01
4.011000000000000000e+03 1.421976661682128906e+01 9.325726509094238281e+00 6.555488705635070801e-02 2.758787274360656738e-01 1.024300828576087952e-01 8.648664504289627075e-02
4.012000000000000000e+03 1.426929283142089844e+01 8.572705268859863281e+00 7.391013205051422119e-02 3.140383958816528320e-01 1.163845509290695190e-01 1.015840172767639160e-01
4.013000000000000000e+03 2.284554481506347656e+01 1.761610984802246094e+01 6.881707906723022461e-02 1.265784204006195068e-01 5.861864984035491943e-02 9.508980065584182739e-02
4.014000000000000000e+03 1.222220516204833984e+01 6.894061088562011719e+00 1.057390719652175903e-01 3.349010348320007324e-01 1.321920305490493774e-01 -4.960055649280548096e-02
4.015000000000000000e+03 1.319261550903320312e+01 6.932281494140625000e+00 7.871029525995254517e-02 4.162902534008026123e-01 1.485001593828201294e-01 3.722119703888893127e-02
4.016000000000000000e+03 4.475173568725585938e+01 2.106355857849121094e+01 -5.457611083984375000e-01 -1.642594635486602783e-01 -2.130061686038970947e-01 -3.749062716960906982e-01
4.017000000000000000e+03 2.680858612060546875e+01 2.132818031311035156e+01 5.773317441344261169e-02 1.040976718068122864e-01 4.854925349354743958e-02 8.096221834421157837e-02
4.018000000000000000e+03 2.731705856323242188e+01 2.176412963867187500e+01 5.703572183847427368e-02 1.013666614890098572e-01 4.752071574330329895e-02 7.941664010286331177e-02
4.019000000000000000e+03 4.726940536499023438e+01 2.369216918945312500e+01 -4.634028971195220947e-01 2.386687323451042175e-03 -1.383048593997955322e-01 -2.221508175134658813e-01
4.020000000000000000e+03 5.056470108032226562e+01 2.757617759704589844e+01 -2.332315593957901001e-01 6.874345988035202026e-02 -4.934642836451530457e-02 -3.492130711674690247e-02
4.021000000000000000e+03 4.935242080688476562e+01 2.692465209960937500e+01 -3.773238658905029297e-01 -1.360814720392227173e-01 -1.540216058492660522e-01 -2.233891338109970093e-01
4.022000000000000000e+03 4.498458862304687500e+01 2.134121131896972656e+01 -5.430368185043334961e-01 -1.547099202871322632e-01 -2.093240320682525635e-01 -3.633365035057067871e-01
4.023000000000000000e+03 2.048361015319824219e+01 1.509990882873535156e+01 7.731214165687561035e-02 1.467687636613845825e-01 6.722427159547805786e-02 1.049141734838485718e-01
4.024000000000000000e+03 2.240476417541503906e+01 1.716970443725585938e+01 6.977760791778564453e-02 1.300502121448516846e-01 5.994834750890731812e-02 9.666289389133453369e-02
4.025000000000000000e+03 3.653337478637695312e+01 1.289909553527832031e+01 -8.197790384292602539e-01 -6.977545619010925293e-01 -4.552600681781768799e-01 -7.407196164131164551e-01
4.026000000000000000e+03 2.135176277160644531e+01 1.615127944946289062e+01 7.226723432540893555e-02 1.388239860534667969e-01 6.332736462354660034e-02 9.985063970088958740e-02
4.027000000000000000e+03 2.624397659301757812e+01 2.098205566406250000e+01 5.797751992940902710e-02 1.070833951234817505e-01 4.951827600598335266e-02 8.217909187078475952e-02
4.028000000000000000e+03 2.718237686157226562e+01 -2.413142323493957520e-01 -2.919133901596069336e-01 -3.374476730823516846e-01 -1.888083070516586304e-01 -1.103978976607322693e-01
4.029000000000000000e+03 3.960083770751953125e+01 1.678841018676757812e+01 -7.495027184486389160e-01 -5.764262676239013672e-01 -3.977786898612976074e-01 -6.942700743675231934e-01
4.030000000000000000e+03 5.221230697631835938e+01 2.818531417846679688e+01 3.283083438873291016e-02 5.228467583656311035e-01 1.667032688856124878e-01 3.170651495456695557e-01
4.031000000000000000e+03 4.431539916992187500e+01 2.049054908752441406e+01 -5.456020236015319824e-01 -1.700443476438522339e-01 -2.146939188241958618e-01 -3.925078213214874268e-01
4.032000000000000000e+03 2.581718254089355469e+01 1.912838745117187500e+01 7.484225928783416748e-02 1.112763136625289917e-01 5.583557114005088806e-02 9.083783626556396484e-02
4.033000000000000000e+03 3.762262344360351562e+01 1.419222450256347656e+01 -7.856180071830749512e-01 -6.669310331344604492e-01 -4.357647299766540527e-01 -7.212523818016052246e-01
4.034000000000000000e+03 4.522484207153320312e+01 2.161488151550292969e+01 -5.399044752120971680e-01 -1.440523415803909302e-01 -2.051870524883270264e-01 -3.498284220695495605e-01
4.035000000000000000e+03 5.140855789184570312e+01 2.792303848266601562e+01 -1.211122721433639526e-01 2.614728808403015137e-01 4.210818558931350708e-02 1.267300397157669067e-01
4.036000000000000000e+03 5.224068450927734375e+01 2.875619888305664062e+01 -3.484493494033813477e-02 3.462228477001190186e-01 9.341337531805038452e-02 1.882245242595672607e-01
4.037000000000000000e+03 5.298992919921875000e+01 2.870355033874511719e+01 1.538174450397491455e-01 6.660797595977783203e-01 2.459691613912582397e-01 4.279866814613342285e-01
4.038000000000000000e+03 3.456707382202148438e+01 1.074121570587158203e+01 -8.740702271461486816e-01 -7.551854848861694336e-01 -4.887767136096954346e-01 -7.672061324119567871e-01
4.039000000000000000e+03 3.555754852294921875e+01 1.220787906646728516e+01 -8.634690046310424805e-01 -7.719141840934753418e-01 -4.906149506568908691e-01 -7.892874479293823242e-01
4.040000000000000000e+03 3.839653015136718750e+01 1.460819816589355469e+01 -7.521928548812866211e-01 -5.738723874092102051e-01 -3.978195786476135254e-01 -6.693582534790039062e-01
4.041000000000000000e+03 2.000174903869628906e+01 1.460045528411865234e+01 7.931919395923614502e-02 1.509481966495513916e-01 6.908021867275238037e-02 1.076995506882667542e-01
4.042000000000000000e+03 2.007465744018554688e+01 1.406578636169433594e+01 8.651841431856155396e-02 1.535379141569137573e-01 7.201690226793289185e-02 1.136635243892669678e-01
4.043000000000000000e+03 5.500517272949218750e+01 2.979541397094726562e+01 5.992988944053649902e-01 1.260101318359375000e+00 5.578200221061706543e-01 8.195385932922363281e-01
4.044000000000000000e+03 5.621618652343750000e+01 2.990777778625488281e+01 1.024778485298156738e+00 1.928218841552734375e+00 8.858991861343383789e-01 1.372876167297363281e+00
4.045000000000000000e+03 1.587061214447021484e+01 1.040305233001708984e+01 7.990320771932601929e-02 2.313262820243835449e-01 9.336884319782257080e-02 1.191990077495574951e-01
4.046000000000000000e+03 1.428767776489257812e+01 1.096776771545410156e+01 5.135848745703697205e-02 2.173225134611129761e-01 8.060429990291595459e-02 6.960178911685943604e-02
4.047000000000000000e+03 4.903373718261718750e+01 2.574765586853027344e+01 -3.425094485282897949e-01 5.975938215851783752e-02 -8.482501655817031860e-02 -1.245849952101707458e-01
4.048000000000000000e+03 3.221621322631835938e+01 2.757093811035156250e+01 4.980169981718063354e-02 8.328979462385177612e-02 3.992744907736778259e-02 6.309349834918975830e-02
4.049000000000000000e+03 3.866368484497070312e+01 1.488627243041992188e+01 -7.479326128959655762e-01 -5.593687295913696289e-01 -3.921903967857360840e-01 -6.590303182601928711e-01
4.050000000000000000e+03 4.358634948730468750e+01 2.004736518859863281e+01 -5.710747838020324707e-01 -2.555668354034423828e-01 -2.479925006628036499e-01 -4.606711566448211670e-01
4.051000000000000000e+03 5.348410415649414062e+01 2.962530326843261719e+01 1.862711310386657715e-01 6.407499909400939941e-01 2.481063455343246460e-01 3.663559257984161377e-01
4.052000000000000000e+03 5.113980102539062500e+01 2.763735008239746094e+01 -1.474477201700210571e-01 2.452359199523925781e-01 2.933645993471145630e-02 9.982179105281829834e-02
4.053000000000000000e+03 3.352328491210937500e+01 2.995993995666503906e+01 4.326499998569488525e-02 7.998790591955184937e-02 3.697587177157402039e-02 5.619356408715248108e-02
4.054000000000000000e+03 3.353511810302734375e+01 2.887665748596191406e+01 4.575420171022415161e-02 8.169665932655334473e-02 3.823525831103324890e-02 5.920328944921493530e-02
4.055000000000000000e+03 4.623738479614257812e+01 2.317902374267578125e+01 -5.486634373664855957e-01 -1.605027616024017334e-01 -2.127498686313629150e-01 -3.393810093402862549e-01
4.056000000000000000e+03 4.914301300048828125e+01 2.661556625366210938e+01 -3.776573836803436279e-01 -1.111843213438987732e-01 -1.466525048017501831e-01 -2.231532633304595947e-01
4.057000000000000000e+03 3.627120590209960938e+01 1.242346572875976562e+01 -8.152084350585937500e-01 -6.879231929779052734e-01 -4.509394764900207520e-01 -7.280872464179992676e-01
4.058000000000000000e+03 4.162417984008789062e+01 1.743229675292968750e+01 -6.159493327140808105e-01 -2.796633541584014893e-01 -2.686838209629058838e-01 -5.350284576416015625e-01
4.059000000000000000e+03 2.439008712768554688e+01 1.865563392639160156e+01 6.989794969558715820e-02 1.172329634428024292e-01 5.613927543163299561e-02 9.168183058500289917e-02
4.060000000000000000e+03 3.895469284057617188e+01 1.514913082122802734e+01 -7.333045601844787598e-01 -5.265114903450012207e-01 -3.779447972774505615e-01 -6.459869742393493652e-01
4.061000000000000000e+03 2.192945480346679688e+01 1.708470726013183594e+01 6.787267327308654785e-02 1.331610232591629028e-01 6.031010672450065613e-02 9.541047364473342896e-02
4.062000000000000000e+03 2.123530960083007812e+01 1.580923938751220703e+01 7.621809095144271851e-02 1.408158689737319946e-01 6.511018425226211548e-02 1.021710783243179321e-01
4.063000000000000000e+03 4.547193908691406250e+01 2.188546943664550781e+01 -5.349097251892089844e-01 -1.294824182987213135e-01 -1.993176490068435669e-01 -3.358970880508422852e-01
4.064000000000000000e+03 4.945396041870117188e+01 2.601118659973144531e+01 -3.040838539600372314e-01 1.015082150697708130e-01 -6.077269092202186584e-02 -7.340005040168762207e-02
4.065000000000000000e+03 5.134889602661132812e+01 2.741575622558593750e+01 -7.810827344655990601e-02 3.970162868499755859e-01 9.567239880561828613e-02 2.068075835704803467e-01
4.066000000000000000e+03 2.563536453247070312e+01 2.009053039550781250e+01 6.408587843179702759e-02 1.106880381703376770e-01 5.243217572569847107e-02 8.525392413139343262e-02
4.067000000000000000e+03 5.169123458862304688e+01 2.819225311279296875e+01 -7.427916675806045532e-02 3.014371991157531738e-01 6.814740598201751709e-02 1.565729528665542603e-01
4.068000000000000000e+03 4.979462432861328125e+01 2.651305007934570312e+01 -2.816451787948608398e-01 8.699790388345718384e-02 -5.839417874813079834e-02 -6.361436098814010620e-02
4.069000000000000000e+03 5.007033920288085938e+01 2.675423431396484375e+01 -2.551693916320800781e-01 1.236708238720893860e-01 -3.944956511259078979e-02 -3.111809119582176208e-02
4.070000000000000000e+03 1.843289184570312500e+01 1.340606403350830078e+01 7.524181157350540161e-02 1.670400500297546387e-01 7.268455624580383301e-02 1.105428114533424377e-01
4.071000000000000000e+03 1.820545196533203125e+01 1.279517459869384766e+01 7.973750680685043335e-02 1.745127737522125244e-01 7.627508789300918579e-02 1.163248717784881592e-01
4.072000000000000000e+03 5.308552932739257812e+01 2.817096519470214844e+01 1.824517846107482910e-01 9.159533381462097168e-01 3.295215368270874023e-01 5.824090838432312012e-01
4.073000000000000000e+03 2.681000137329101562e+01 3.702019527554512024e-02 -4.256785809993743896e-01 -2.789706289768218994e-01 -2.113947719335556030e-01 -1.161027178168296814e-01
4.074000000000000000e+03 2.625049972534179688e+01 1.489464044570922852e+00 -1.236093282699584961e+00 -3.292079567909240723e-01 -4.695903658866882324e-01 -4.159666299819946289e-01
4.075000000000000000e+03 5.758303833007812500e+01 3.023671722412109375e+01 1.479023814201354980e+00 2.865267276763916016e+00 1.303287267684936523e+00 2.186878442764282227e+00
4.076000000000000000e+03 4.297693252563476562e+01 1.945551681518554688e+01 -5.835009217262268066e-01 -2.871173024177551270e-01 -2.611854672431945801e-01 -5.028959512710571289e-01
4.077000000000000000e+03 4.085981750488281250e+01 1.674608421325683594e+01 -6.517901420593261719e-01 -3.372781574726104736e-01 -2.967205047607421875e-01 -5.632357001304626465e-01
4.078000000000000000e+03 3.997174072265625000e+01 1.668947601318359375e+01 -7.178488373756408691e-01 -4.916512370109558105e-01 -3.628500103950500488e-01 -6.493495106697082520e-01
4.079000000000000000e+03 2.065741729736328125e+01 1.532989978790283203e+01 7.647150754928588867e-02 1.454700529575347900e-01 6.658247113227844238e-02 1.037777215242385864e-01
4.080000000000000000e+03 2.551026725769042969e+01 1.939282226562500000e+01 6.991674005985260010e-02 1.125232651829719543e-01 5.473200231790542603e-02 8.933427184820175171e-02
4.081000000000000000e+03 2.521442413330078125e+01 1.907336235046386719e+01 7.122541964054107666e-02 1.132616624236106873e-01 5.534612387418746948e-02 8.992946892976760864e-02
4.082000000000000000e+03 4.452748870849609375e+01 2.078052711486816406e+01 -5.466203093528747559e-01 -1.689712405204772949e-01 -2.146774679422378540e-01 -3.844454884529113770e-01
4.083000000000000000e+03 4.597317123413085938e+01 2.291904449462890625e+01 -5.577398538589477539e-01 -1.792410314083099365e-01 -2.210942655801773071e-01 -3.553277254104614258e-01
4.084000000000000000e+03 2.332406044006347656e+01 1.804520225524902344e+01 6.804441660642623901e-02 1.229215189814567566e-01 5.728977918624877930e-02 9.354809671640396118e-02
4.085000000000000000e+03 2.811361885070800781e+01 2.300443840026855469e+01 5.301838368177413940e-02 9.736574441194534302e-02 4.511523991823196411e-02 7.528429478406906128e-02
4.086000000000000000e+03 3.926379394531250000e+01 1.529231452941894531e+01 -7.202419638633728027e-01 -4.892325103282928467e-01 -3.628423213958740234e-01 -6.237411499023437500e-01
4.087000000000000000e+03 3.929685211181640625e+01 1.561242771148681641e+01 -7.282974720001220703e-01 -5.111712217330932617e-01 -3.718406260013580322e-01 -6.416114568710327148e-01
4.088000000000000000e+03 3.588894271850585938e+01 1.124639034271240234e+01 -7.960979342460632324e-01 -6.305267214775085449e-01 -4.279873967170715332e-01 -6.771105527877807617e-01
4.089000000000000000e+03 4.752779006958007812e+01 2.345556640625000000e+01 -4.227186441421508789e-01 1.135474443435668945e-01 -9.275135397911071777e-02 -1.473912149667739868e-01
4.090000000000000000e+03 4.041440582275390625e+01 1.665707588195800781e+01 -6.843425035476684570e-01 -4.093191325664520264e-01 -3.280985057353973389e-01 -6.036196351051330566e-01
4.091000000000000000e+03 3.945284652709960938e+01 1.645762252807617188e+01 -7.457719445228576660e-01 -5.733233094215393066e-01 -3.957285881042480469e-01 -6.837908029556274414e-01
4.092000000000000000e+03 2.786892700195312500e+01 2.354627418518066406e+01 4.967710375785827637e-02 9.753969311714172363e-02 4.416503757238388062e-02 7.408850640058517456e-02
4.093000000000000000e+03 1.923159027099609375e+01 1.411412143707275391e+01 7.666375488042831421e-02 1.582444757223129272e-01 7.047246396541595459e-02 1.083125248551368713e-01
4.094000000000000000e+03 2.034767532348632812e+01 1.388839721679687500e+01 9.236365556716918945e-02 1.533804684877395630e-01 7.372324168682098389e-02 1.171007156372070312e-01
4.095000000000000000e+03 3.411799240112304688e+01 9.383172035217285156e+00 -8.299444317817687988e-01 -6.889102458953857422e-01 -4.556564092636108398e-01 -6.977180838584899902e-01
4.096000000000000000e+03 3.290742874145507812e+01 2.762120628356933594e+01 5.089402571320533752e-02 8.137372881174087524e-02 3.968032822012901306e-02 6.143566966056823730e-02
4.097000000000000000e+03 2.917080688476562500e+01 2.445346260070800781e+01 4.975882917642593384e-02 9.275565296411514282e-02 4.275434464216232300e-02 7.211765646934509277e-02
4.098000000000000000e+03 4.572471237182617188e+01 2.215335273742675781e+01 -5.298197865486145020e-01 -1.137176454067230225e-01 -1.930612325668334961e-01 -3.198157250881195068e-01
4.099000000000000000e+03 4.598133087158203125e+01 2.241808319091796875e+01 -5.226301550865173340e-01 -9.519904851913452148e-02 -1.853487640619277954e-01 -3.038513660430908203e-01
4.100000000000000000e+03 2.088029861450195312e+01 1.593429088592529297e+01 7.104647159576416016e-02 1.417705118656158447e-01 6.384509801864624023e-02 9.953606128692626953e-02
4.101000000000000000e+03 1.683072853088378906e+01 1.127668857574462891e+01 8.063954114913940430e-02 2.053824663162231445e-01 8.580660074949264526e-02 1.212480068206787109e-01
4.102000000000000000e+03 1.598558616638183594e+01 1.079748344421386719e+01 7.347932457923889160e-02 2.212951332330703735e-01 8.843233436346054077e-02 1.141475290060043335e-01
4.103000000000000000e+03 3.546572875976562500e+01 1.157685279846191406e+01 -8.450098633766174316e-01 -7.176014780998229980e-01 -4.687834084033966064e-01 -7.452171444892883301e-01
4.104000000000000000e+03 3.699713134765625000e+01 1.282752037048339844e+01 -7.799775600433349609e-01 -6.250108480453491211e-01 -4.214965105056762695e-01 -6.890645623207092285e-01
4.105000000000000000e+03 4.701699066162109375e+01 2.344083595275878906e+01 -4.789797663688659668e-01 -1.491556316614151001e-02 -1.481685936450958252e-01 -2.372762560844421387e-01
4.106000000000000000e+03 3.141281318664550781e+01 2.578287887573242188e+01 5.217171832919120789e-02 8.501585572957992554e-02 4.115627333521842957e-02 6.986632943153381348e-02
4.107000000000000000e+03 1.391321945190429688e+01 8.776645660400390625e+00 6.465605646371841431e-02 2.971478700637817383e-01 1.085411757230758667e-01 7.991814613342285156e-02
4.108000000000000000e+03 1.403757381439208984e+01 7.874721050262451172e+00 7.857794314622879028e-02 3.495785593986511230e-01 1.284469515085220337e-01 1.005025729537010193e-01
4.109000000000000000e+03 3.439932250976562500e+01 8.232225418090820312e+00 -7.500412464141845703e-01 -5.532979965209960938e-01 -3.910017609596252441e-01 -5.892781019210815430e-01
4.110000000000000000e+03 1.764228439331054688e+01 1.167063903808593750e+01 8.783753216266632080e-02 1.919411271810531616e-01 8.393359929323196411e-02 1.265959143638610840e-01
4.111000000000000000e+03 1.645565795898437500e+01 1.098804187774658203e+01 7.952883094549179077e-02 2.141637206077575684e-01 8.810776472091674805e-02 1.200506761670112610e-01
4.112000000000000000e+03 6.019519042968750000e+01 3.024313163757324219e+01 1.012326955795288086e+00 8.052852630615234375e+00 2.719553947448730469e+00 3.885074377059936523e+00
4.113000000000000000e+03 2.635247230529785156e+01 8.529791831970214844e-01 -9.078162312507629395e-01 -2.743476331233978271e-01 -3.546491563320159912e-01 -2.798045873641967773e-01
4.114000000000000000e+03 2.540518951416015625e+01 1.695472955703735352e+00 -1.487206816673278809e+00 -3.645394146442413330e-01 -5.555238723754882812e-01 -5.993602275848388672e-01
4.115000000000000000e+03 5.750028610229492188e+01 2.989344978332519531e+01 1.375171542167663574e+00 3.007722377777099609e+00 1.314868211746215820e+00 2.199665307998657227e+00
4.116000000000000000e+03 3.330082702636718750e+01 5.483383655548095703e+00 -7.512221932411193848e-01 -4.364336729049682617e-01 -3.562967479228973389e-01 -4.759851992130279541e-01
4.117000000000000000e+03 3.450704574584960938e+01 6.706451892852783203e+00 -6.851065754890441895e-01 -3.994614481925964355e-01 -3.253704011440277100e-01 -4.729361832141876221e-01
4.118000000000000000e+03 1.306246662139892578e+01 6.355051040649414062e+00 8.908853679895401001e-02 4.702569544315338135e-01 1.678036451339721680e-01 1.190593745559453964e-02
4.119000000000000000e+03 3.222768783569335938e+01 4.698666572570800781e+00 -8.492360711097717285e-01 -4.356360733509063721e-01 -3.854616582393646240e-01 -4.552130699157714844e-01
4.120000000000000000e+03 3.263415527343750000e+01 5.243273258209228516e+00 -8.214348554611206055e-01 -4.535411596298217773e-01 -3.824928104877471924e-01 -4.983609914779663086e-01
4.121000000000000000e+03 3.289910507202148438e+01 5.496459484100341797e+00 -7.944548130035400391e-01 -4.533624947071075439e-01 -3.743452131748199463e-01 -5.007101893424987793e-01
4.122000000000000000e+03 1.643990325927734375e+01 1.130958557128906250e+01 7.444021105766296387e-02 2.070684581995010376e-01 8.445259928703308105e-02 1.140974313020706177e-01
4.123000000000000000e+03 1.559023475646972656e+01 1.099348926544189453e+01 6.691384315490722656e-02 2.201464325189590454e-01 8.611807972192764282e-02 1.025069579482078552e-01
4.124000000000000000e+03 2.777470970153808594e+01 2.320788192749023438e+01 4.853865504264831543e-02 9.930902719497680664e-02 4.435430467128753662e-02 7.508986443281173706e-02
4.125000000000000000e+03 2.850773048400878906e+01 2.394709968566894531e+01 4.964460805058479309e-02 9.495035558938980103e-02 4.337848722934722900e-02 7.233289629220962524e-02
4.126000000000000000e+03 2.955450630187988281e+01 4.023558139801025391e+00 -1.225838303565979004e+00 -6.862473487854003906e-01 -5.736256837844848633e-01 -5.462499260902404785e-01
4.127000000000000000e+03 3.103070449829101562e+01 2.630144500732421875e+01 4.591687023639678955e-02 8.649595826864242554e-02 3.972384706139564514e-02 6.618139147758483887e-02
4.128000000000000000e+03 5.795537948608398438e+01 3.010774040222167969e+01 1.495045661926269531e+00 3.474818468093872070e+00 1.490959167480468750e+00 2.526569604873657227e+00
4.129000000000000000e+03 3.010883140563964844e+01 4.085580825805664062e+00 -1.139738678932189941e+00 -6.173347234725952148e-01 -5.271220207214355469e-01 -5.024390816688537598e-01
4.130000000000000000e+03 3.055472183227539062e+01 3.914361238479614258e+00 -1.080465555191040039e+00 -5.286323428153991699e-01 -4.827293455600738525e-01 -4.328264892101287842e-01
4.131000000000000000e+03 2.650872993469238281e+01 -2.505312561988830566e-01 -3.150991797447204590e-01 -2.317265570163726807e-01 -1.640477180480957031e-01 -1.559297442436218262e-01
4.132000000000000000e+03 3.049784851074218750e+01 2.600996208190917969e+01 4.778223484754562378e-02 8.681593835353851318e-02 4.037945345044136047e-02 6.833676993846893311e-02
4.133000000000000000e+03 2.956440925598144531e+01 2.462671470642089844e+01 4.893941059708595276e-02 9.040690213441848755e-02 4.180389270186424255e-02 7.151234149932861328e-02
4.134000000000000000e+03 3.080011749267578125e+01 -4.285694956779479980e-01 -5.934640020132064819e-02 -3.696910738945007324e-01 -1.287112385034561157e-01 2.303907647728919983e-02
4.135000000000000000e+03 3.066581916809082031e+01 4.357794761657714844e+00 -1.077854394912719727e+00 -5.613791942596435547e-01 -4.917700886726379395e-01 -5.083302855491638184e-01
4.136000000000000000e+03 3.397264862060546875e+01 8.641396522521972656e+00 -7.978509068489074707e-01 -6.490003466606140137e-01 -4.340553879737854004e-01 -6.597621440887451172e-01
4.137000000000000000e+03 3.448205947875976562e+01 9.030081748962402344e+00 -7.830372452735900879e-01 -6.123832464218139648e-01 -4.186261594295501709e-01 -6.361374855041503906e-01
4.138000000000000000e+03 2.869525337219238281e+01 -7.534721493721008301e-02 -3.102122545242309570e-01 -4.018055796623229980e-01 -2.136053442955017090e-01 -5.894028395414352417e-02
4.139000000000000000e+03 2.748119163513183594e+01 1.455970883369445801e+00 -9.457992315292358398e-01 -4.695042669773101807e-01 -4.245910644531250000e-01 -2.881743013858795166e-01
4.140000000000000000e+03 5.591241836547851562e+01 2.964946746826171875e+01 8.880364298820495605e-01 1.849115729331970215e+00 8.211456537246704102e-01 1.291073203086853027e+00
4.141000000000000000e+03 5.676389312744140625e+01 2.969360160827636719e+01 1.160565972328186035e+00 2.467172861099243164e+00 1.088321685791015625e+00 1.776453852653503418e+00
4.142000000000000000e+03 3.275147247314453125e+01 3.067238044738769531e+01 4.078898951411247253e-02 7.937373220920562744e-02 3.604881837964057922e-02 5.166411772370338440e-02
4.143000000000000000e+03 5.536381912231445312e+01 2.957217025756835938e+01 7.132714390754699707e-01 1.577893733978271484e+00 6.873495578765869141e-01 1.061839103698730469e+00
4.144000000000000000e+03 3.045366859436035156e+01 2.533001136779785156e+01 4.884663224220275879e-02 8.745601028203964233e-02 4.089079424738883972e-02 6.916198879480361938e-02
4.145000000000000000e+03 2.993962478637695312e+01 2.480867576599121094e+01 5.057782679796218872e-02 8.983656018972396851e-02 4.212431609630584717e-02 7.165000587701797485e-02
4.146000000000000000e+03 3.400128936767578125e+01 7.831759929656982422e+00 -7.547302246093750000e-01 -5.704348683357238770e-01 -3.975495398044586182e-01 -6.023721694946289062e-01
4.147000000000000000e+03 3.041055297851562500e+01 -8.030304312705993652e-01 -3.645423054695129395e-02 -3.453447222709655762e-01 -1.145396903157234192e-01 3.923176601529121399e-02
4.148000000000000000e+03 6.154288482666015625e+01 2.982977867126464844e+01 -1.485934555530548096e-01 1.120373725891113281e+01 3.316543102264404297e+00 2.785713195800781250e+00
4.149000000000000000e+03 1.792584419250488281e+01 1.222571086883544922e+01 8.342041820287704468e-02 1.834987998008728027e-01 8.007576316595077515e-02 1.216561496257781982e-01
4.150000000000000000e+03 3.140902519226074219e+01 -1.312667727470397949e+00 8.689257502555847168e-02 -3.078530132770538330e-01 -6.628813594579696655e-02 5.379877984523773193e-02
4.151000000000000000e+03 2.927800178527832031e+01 -1.085786342620849609e+00 6.602509319782257080e-02 -3.672297000885009766e-01 -9.036138653755187988e-02 6.330233998596668243e-03
4.152000000000000000e+03 3.368891143798828125e+01 6.736578941345214844e+00 -7.408735156059265137e-01 -4.988998472690582275e-01 -3.719320297241210938e-01 -5.435941219329833984e-01
4.153000000000000000e+03 3.545679092407226562e+01 1.066166114807128906e+01 -8.000237345695495605e-01 -6.298059225082397461e-01 -4.289489090442657471e-01 -6.746474504470825195e-01
4.154000000000000000e+03 3.480676269531250000e+01 3.215969085693359375e+01 4.652930796146392822e-02 7.346513867378234863e-02 3.599833324551582336e-02 5.156925320625305176e-02
4.155000000000000000e+03 3.248704528808593750e+01 2.904949569702148438e+01 4.574992135167121887e-02 8.233983814716339111e-02 3.842692822217941284e-02 6.075346469879150391e-02
4.156000000000000000e+03 3.992630386352539062e+01 3.668605041503906250e+01 7.018623501062393188e-02 4.961396381258964539e-02 3.594005852937698364e-02 3.879983723163604736e-02
4.157000000000000000e+03 3.658053588867187500e+01 3.329994201660156250e+01 6.219702214002609253e-02 6.797250360250473022e-02 3.905085846781730652e-02 4.954273253679275513e-02
4.158000000000000000e+03 3.171531295776367188e+01 2.795110702514648438e+01 4.370184987783432007e-02 8.435501903295516968e-02 3.841706365346908569e-02 6.229865923523902893e-02
4.159000000000000000e+03 3.357215118408203125e+01 3.066839790344238281e+01 5.251578241586685181e-02 7.794009894132614136e-02 3.913676366209983826e-02 5.413487926125526428e-02
4.160000000000000000e+03 3.504563903808593750e+01 9.943784713745117188e+00 -7.932914495468139648e-01 -6.190652847290039062e-01 -4.237070083618164062e-01 -6.559403538703918457e-01
4.161000000000000000e+03 9.817387580871582031e+00 7.319292068481445312e+00 1.576619297266006470e-01 4.896120354533195496e-02 6.198693811893463135e-02 -4.959435015916824341e-02
4.162000000000000000e+03 3.517763900756835938e+01 3.308885574340820312e+01 5.564548820257186890e-02 7.354738563299179077e-02 3.875786066055297852e-02 4.744235798716545105e-02
4.163000000000000000e+03 1.060558986663818359e+01 9.998709678649902344e+00 6.871956586837768555e-02 1.154506430029869080e-01 5.525106191635131836e-02 -1.903002709150314331e-02
4.164000000000000000e+03 1.159327125549316406e+01 5.455787658691406250e+00 2.303729653358459473e-01 2.601270675659179688e-01 1.471500098705291748e-01 -1.447879821062088013e-01
4.165000000000000000e+03 4.042617034912109375e+01 3.776410293579101562e+01 9.326203167438507080e-02 5.972176790237426758e-02 4.589513689279556274e-02 3.192921727895736694e-02
4.166000000000000000e+03 6.190933227539062500e+01 3.004963684082031250e+01 -2.134854793548583984e-01 1.216331672668457031e+01 3.584949254989624023e+00 2.452099084854125977e+00
4.167000000000000000e+03 6.326462554931640625e+01 2.956689453125000000e+01 -4.179755747318267822e-01 1.246506500244140625e+01 3.614126682281494141e+00 5.973500013351440430e-01
4.168000000000000000e+03 3.232760620117187500e+01 -1.910538315773010254e+00 1.639275848865509033e-01 -2.560150027275085449e-01 -2.762622572481632233e-02 5.132238939404487610e-02
4.169000000000000000e+03 3.259894180297851562e+01 -2.656371593475341797e+00 2.563895583152770996e-01 -2.613669037818908691e-01 -1.493197283707559109e-03 2.766569517552852631e-02
4.170000000000000000e+03 8.857647895812988281e+00 1.079714965820312500e+01 6.429331004619598389e-02 3.522860258817672729e-02 2.985657565295696259e-02 -2.111232280731201172e-02
4.171000000000000000e+03 1.050335979461669922e+01 7.109304428100585938e+00 1.539388149976730347e-01 1.140826791524887085e-01 8.040644973516464233e-02 -6.233375146985054016e-02
4.172000000000000000e+03 1.111410236358642578e+01 7.600044727325439453e+00 1.198461651802062988e-01 1.778662800788879395e-01 8.931373059749603271e-02 -5.377246439456939697e-02
4.173000000000000000e+03 1.353180885314941406e+01 7.737988471984863281e+00 7.212933897972106934e-02 3.612045943737030029e-01 1.300001889467239380e-01 6.298578530550003052e-02
4.174000000000000000e+03 3.086466598510742188e+01 6.858014315366744995e-02 -2.240349352359771729e-01 -3.702108860015869141e-01 -1.782737523317337036e-01 -5.572723690420389175e-03
4.175000000000000000e+03 1.086999416351318359e+01 -9.301214218139648438e+00 -3.274598717689514160e-02 -3.837426304817199707e-01 -1.249465867877006531e-01 -5.067523121833801270e-01
4.176000000000000000e+03 1.229154777526855469e+01 -9.022807121276855469e+00 -1.862098835408687592e-02 -4.208082258701324463e-01 -1.318287700414657593e-01 -5.355220437049865723e-01
4.177000000000000000e+03 1.195767307281494141e+01 -7.805434703826904297e+00 -1.250195056200027466e-01 -3.761520385742187500e-01 -1.503514647483825684e-01 -5.556330084800720215e-01
4.178000000000000000e+03 6.786590576171875000e+01 3.882575511932373047e+00 -2.469142079353332520e-01 6.988853454589843750e+00 2.022581815719604492e+00 1.413511633872985840e-01
4.179000000000000000e+03 6.731105041503906250e+01 6.242218613624572754e-01 -1.693644970655441284e-01 6.791766643524169922e+00 1.986720561981201172e+00 2.109508663415908813e-01
4.180000000000000000e+03 8.240188598632812500e+00 7.875032424926757812e+00 1.309291422367095947e-01 -3.998507559299468994e-02 2.728321962058544159e-02 -6.348667666316032410e-03
4.181000000000000000e+03 6.980825042724609375e+01 1.156021499633789062e+01 -4.671620726585388184e-01 7.667346954345703125e+00 2.160055398941040039e+00 -2.045253515243530273e-01
4.182000000000000000e+03 7.110621643066406250e+01 1.133644580841064453e+01 -3.808763623237609863e-01 7.879116058349609375e+00 2.249471902847290039e+00 -2.519250512123107910e-01
4.183000000000000000e+03 7.011373138427734375e+01 1.776408195495605469e+01 -6.954714059829711914e-01 8.135091781616210938e+00 2.231886148452758789e+00 -6.676082015037536621e-01
4.184000000000000000e+03 9.044975280761718750e+00 9.484092712402343750e+00 8.935487270355224609e-02 3.392252326011657715e-02 3.698321804404258728e-02 -2.545144408941268921e-02
4.185000000000000000e+03 6.788465118408203125e+01 -8.375694274902343750e+00 -6.220405921339988708e-02 6.776736736297607422e+00 2.014359712600708008e+00 2.835711836814880371e-01
4.186000000000000000e+03 6.876132202148437500e+01 -1.303054428100585938e+01 -3.643280267715454102e-02 6.883363246917724609e+00 2.054079055786132812e+00 2.933853566646575928e-01
4.187000000000000000e+03 9.836832046508789062e+00 1.820117759704589844e+01 -3.517391160130500793e-04 2.738211862742900848e-02 8.109113201498985291e-03 -9.698566980659961700e-03
4.188000000000000000e+03 9.886502265930175781e+00 1.967770004272460938e+01 -4.536079242825508118e-03 1.996674761176109314e-02 4.629200324416160583e-03 -9.929787367582321167e-03
4.189000000000000000e+03 3.459330749511718750e+01 -1.740809321403503418e+00 1.297208517789840698e-01 -7.816297560930252075e-02 1.546736434102058411e-02 5.526125058531761169e-02
4.190000000000000000e+03 7.003644561767578125e+01 1.441067600250244141e+01 -5.746152997016906738e-01 7.877002716064453125e+00 2.190716266632080078e+00 -3.964123427867889404e-01
4.191000000000000000e+03 9.404713630676269531e+00 1.505342960357666016e+01 1.420132722705602646e-02 3.731111064553260803e-02 1.545373070985078812e-02 -1.242667902261018753e-02
4.192000000000000000e+03 8.708927154541015625e+00 1.448405742645263672e+01 1.715230755507946014e-02 1.893184706568717957e-02 1.082524564117193222e-02 -1.542461663484573364e-02
4.193000000000000000e+03 6.941630554199218750e+01 9.918772697448730469e+00 -4.170396029949188232e-01 7.539466381072998047e+00 2.136728048324584961e+00 -1.082853153347969055e-01
4.194000000000000000e+03 7.117699432373046875e+01 9.315936088562011719e+00 -3.053445219993591309e-01 7.819627285003662109e+00 2.254284858703613281e+00 -1.486226767301559448e-01
4.195000000000000000e+03 6.774212646484375000e+01 -1.798783302307128906e+01 -3.840710222721099854e-02 6.607554435729980469e+00 1.970744132995605469e+00 3.153803944587707520e-01
4.196000000000000000e+03 3.795338439941406250e+01 -5.181064605712890625e+00 2.672971487045288086e-01 3.922772109508514404e-01 1.978723108768463135e-01 4.248112067580223083e-02
4.197000000000000000e+03 3.500178527832031250e+01 -2.321753740310668945e+00 1.871741712093353271e-01 -3.352298215031623840e-02 4.609535634517669678e-02 5.462737008929252625e-02
4.198000000000000000e+03 6.562888336181640625e+01 2.940639114379882812e+01 1.890698820352554321e-01 1.160656452178955078e+01 3.538690328598022461e+00 -1.171467185020446777e+00
4.199000000000000000e+03 6.637661743164062500e+01 2.892152976989746094e+01 1.247196421027183533e-01 1.103196525573730469e+01 3.347005367279052734e+00 -1.353333950042724609e+00
4.200000000000000000e+03 6.898626708984375000e+01 -2.975075960159301758e+00 -9.898550808429718018e-02 7.080039024353027344e+00 2.094316005706787109e+00 2.192983180284500122e-01
4.201000000000000000e+03 3.796342086791992188e+01 3.444597244262695312e+01 6.458231806755065918e-02 6.085654720664024353e-02 3.763166069984436035e-02 4.413657262921333313e-02
4.202000000000000000e+03 3.571398544311523438e+01 3.405647277832031250e+01 5.161830410361289978e-02 6.873264908790588379e-02 3.610528632998466492e-02 4.518633335828781128e-02
4.203000000000000000e+03 3.859311676025390625e+01 -5.740104675292968750e+00 2.793859243392944336e-01 4.995374977588653564e-01 2.336770296096801758e-01 2.206096239387989044e-02
4.204000000000000000e+03 7.020159149169921875e+01 2.906252288818359375e+01 5.403952598571777344e-01 9.052748680114746094e+00 2.877943277359008789e+00 -1.724375128746032715e+00
4.205000000000000000e+03 1.134678745269775391e+01 -1.303598594665527344e+01 9.657685458660125732e-02 -4.283672273159027100e-01 -9.953711181879043579e-02 -4.353985488414764404e-01
4.206000000000000000e+03 3.660982894897460938e+01 -5.337769031524658203e+00 3.021789789199829102e-01 1.945871710777282715e-01 1.490298509597778320e-01 1.878590881824493408e-02
4.207000000000000000e+03 6.276768875122070312e+01 2.916613960266113281e+01 -5.999459028244018555e-01 1.181551742553710938e+01 3.364671468734741211e+00 1.201848864555358887e+00
4.208000000000000000e+03 4.239663314819335938e+01 -1.282299613952636719e+01 9.269256144762039185e-02 1.306218981742858887e+00 4.196734726428985596e-01 -4.977419599890708923e-02
4.209000000000000000e+03 6.983899688720703125e+01 -4.627914428710937500e+00 -7.289244234561920166e-02 7.229416847229003906e+00 2.146957397460937500e+00 2.228233367204666138e-01
4.210000000000000000e+03 7.035412597656250000e+01 -7.283830642700195312e+00 -3.988175466656684875e-02 7.313167572021484375e+00 2.181985855102539062e+00 2.342918664216995239e-01
4.211000000000000000e+03 1.047581195831298828e+01 1.632201957702636719e+01 7.927387021481990814e-03 5.687451362609863281e-02 1.944057084619998932e-02 -5.420784465968608856e-03
4.212000000000000000e+03 6.970195007324218750e+01 -9.657713890075683594e+00 -3.606849908828735352e-02 7.136730670928955078e+00 2.130198478698730469e+00 2.551136910915374756e-01
4.213000000000000000e+03 6.860227966308593750e+01 -1.142806148529052734e+01 -4.217242822051048279e-02 6.861191272735595703e+00 2.045705795288085938e+00 2.914732098579406738e-01
4.214000000000000000e+03 4.184049606323242188e+01 -1.124696636199951172e+01 1.588659137487411499e-01 1.153608441352844238e+00 3.937422931194305420e-01 -3.449478745460510254e-02
4.215000000000000000e+03 6.870276641845703125e+01 2.439102363586425781e+01 -7.448625564575195312e-01 9.128049850463867188e+00 2.514956235885620117e+00 -1.193410158157348633e+00
4.216000000000000000e+03 6.926744079589843750e+01 4.248081207275390625e+00 -2.311944663524627686e-01 7.303058147430419922e+00 2.121559143066406250e+00 9.580093622207641602e-02
4.217000000000000000e+03 4.165816879272460938e+01 -9.345567703247070312e+00 1.984227895736694336e-01 1.108904361724853516e+00 3.921981453895568848e-01 -1.993342302739620209e-03
4.218000000000000000e+03 4.056391906738281250e+01 -8.506464958190917969e+00 2.303514480590820312e-01 8.847544193267822266e-01 3.345317542552947998e-01 -1.497942721471190453e-03
4.219000000000000000e+03 6.946550750732421875e+01 2.915153312683105469e+01 5.350883007049560547e-01 9.296506881713867188e+00 2.949478387832641602e+00 -1.744379401206970215e+00
4.220000000000000000e+03 6.668842315673828125e+01 -2.432953453063964844e+01 3.106641396880149841e-02 6.386654376983642578e+00 1.925316214561462402e+00 3.364312052726745605e-01
4.221000000000000000e+03 6.885854339599609375e+01 -2.431237983703613281e+01 2.574324794113636017e-02 6.755003929138183594e+00 2.034224033355712891e+00 3.129319548606872559e-01
4.222000000000000000e+03 1.195111942291259766e+01 -1.562344264984130859e+01 1.510361880064010620e-01 -4.103686213493347168e-01 -7.779973000288009644e-02 -3.763630092144012451e-01
4.223000000000000000e+03 1.150552082061767578e+01 2.485580062866210938e+01 -8.453777991235256195e-03 1.992033421993255615e-02 3.439966589212417603e-03 -3.805730957537889481e-03
4.224000000000000000e+03 1.055629253387451172e+01 2.573103332519531250e+01 -9.386121295392513275e-03 4.570886027067899704e-03 -1.444570720195770264e-03 -7.581560872495174408e-03
4.225000000000000000e+03 7.017103576660156250e+01 -8.869499206542968750e+00 -4.450033977627754211e-02 7.225630283355712891e+00 2.154338836669921875e+00 2.498881518840789795e-01
4.226000000000000000e+03 1.308306789398193359e+01 -7.357805728912353516e+00 -1.463699936866760254e-01 -4.213647246360778809e-01 -1.703204214572906494e-01 -5.900332927703857422e-01
4.227000000000000000e+03 6.835462951660156250e+01 2.977930068969726562e+01 8.486425280570983887e-01 9.978348731994628906e+00 3.248097419738769531e+00 -1.717914700508117676e+00
4.228000000000000000e+03 6.939254760742187500e+01 2.279536056518554688e+01 -7.826329469680786133e-01 8.743956565856933594e+00 2.388396978378295898e+00 -1.100851178169250488e+00
4.229000000000000000e+03 7.013117980957031250e+01 1.293669319152832031e+01 -5.003432035446166992e-01 7.792506694793701172e+00 2.187649011611938477e+00 -2.976382374763488770e-01
4.230000000000000000e+03 1.150847339630126953e+01 1.642381286621093750e+01 8.205348625779151917e-03 7.743860036134719849e-02 2.569318562746047974e-02 3.826533677056431770e-03
4.231000000000000000e+03 9.898303031921386719e+00 1.687901306152343750e+01 5.357409361749887466e-03 3.789540752768516541e-02 1.297584548592567444e-02 -8.859261870384216309e-03
4.232000000000000000e+03 9.254676818847656250e+00 -1.897758293151855469e+01 1.013437509536743164e-01 -5.185455679893493652e-01 -1.251605451107025146e-01 -3.097805082798004150e-01
4.233000000000000000e+03 9.433137893676757812e+00 -1.467879390716552734e+01 9.422300010919570923e-02 -4.666894078254699707e-01 -1.117399260401725769e-01 -3.818423449993133545e-01
4.234000000000000000e+03 1.129606819152832031e+01 -1.070483207702636719e+01 4.503885284066200256e-02 -4.158349931240081787e-01 -1.112388446927070618e-01 -4.878231287002563477e-01
4.235000000000000000e+03 1.570202159881591797e+01 -1.995990943908691406e+01 1.808298677206039429e-01 -1.943989098072052002e-01 -4.070709459483623505e-03 -3.051357269287109375e-01
4.236000000000000000e+03 1.129825019836425781e+01 2.687848281860351562e+01 -8.994717150926589966e-03 9.482827968895435333e-03 1.464332453906536102e-04 -5.248641595244407654e-03
4.237000000000000000e+03 8.845534324645996094e+00 1.653355407714843750e+01 5.728981457650661469e-03 1.396517269313335419e-02 5.908246152102947235e-03 -1.447210926562547684e-02
4.238000000000000000e+03 9.977738380432128906e+00 1.565583229064941406e+01 9.996213950216770172e-03 4.701342061161994934e-02 1.710289157927036285e-02 -7.425843272358179092e-03
4.239000000000000000e+03 3.898404693603515625e+01 3.850905609130859375e+01 6.705848127603530884e-02 5.196135118603706360e-02 3.570595011115074158e-02 2.698520943522453308e-02
4.240000000000000000e+03 1.041300010681152344e+01 -2.236029815673828125e+01 1.063807159662246704e-01 -4.965068101882934570e-01 -1.170378252863883972e-01 -2.670748233795166016e-01
4.241000000000000000e+03 1.172938251495361328e+01 -2.175186347961425781e+01 1.322125047445297241e-01 -4.272404909133911133e-01 -8.850839734077453613e-02 -2.848491668701171875e-01
4.242000000000000000e+03 6.900657653808593750e+01 -2.221936416625976562e+01 1.484990789322182536e-04 6.817110061645507812e+00 2.045177698135375977e+00 3.162151873111724854e-01
4.243000000000000000e+03 6.656269073486328125e+01 -2.705600738525390625e+01 6.863004714250564575e-02 6.349102020263671875e+00 1.925319671630859375e+00 3.302621841430664062e-01
4.244000000000000000e+03 5.026141738891601562e+01 -2.181651306152343750e+01 -1.120257750153541565e-01 3.330761671066284180e+00 9.656207561492919922e-01 9.857845306396484375e-02
4.245000000000000000e+03 4.900083160400390625e+01 -3.135802268981933594e+01 1.990490406751632690e-01 3.592323064804077148e+00 1.137411594390869141e+00 2.626198232173919678e-01
4.246000000000000000e+03 5.020995712280273438e+01 -2.802129173278808594e+01 -3.743706969544291496e-03 3.610067844390869141e+00 1.081897258758544922e+00 2.086807787418365479e-01
4.247000000000000000e+03 5.223164749145507812e+01 -2.651215934753417969e+01 -1.402810681611299515e-02 3.895692110061645508e+00 1.164499282836914062e+00 2.593525946140289307e-01
4.248000000000000000e+03 9.407742500305175781e+00 -1.214899063110351562e+01 3.586153686046600342e-02 -4.241182804107666016e-01 -1.164770275354385376e-01 -4.340924620628356934e-01
4.249000000000000000e+03 6.726313781738281250e+01 -1.031871080398559570e+00 -1.434167176485061646e-01 6.746880054473876953e+00 1.981038928031921387e+00 2.273362278938293457e-01
4.250000000000000000e+03 6.792981719970703125e+01 2.398881435394287109e+00 -2.086755186319351196e-01 6.963308334350585938e+00 2.026389837265014648e+00 1.688529253005981445e-01
4.251000000000000000e+03 6.690469360351562500e+01 1.664685130119323730e+00 -2.076865881681442261e-01 6.726415157318115234e+00 1.955618619918823242e+00 2.075093984603881836e-01
4.252000000000000000e+03 6.888529205322265625e+01 3.863053131103515625e+01 3.277661800384521484e-01 1.070145034790039062e+01 3.308765172958374023e+00 8.358634710311889648e-01
4.253000000000000000e+03 1.014364051818847656e+01 2.293061256408691406e+01 -7.732315920293331146e-03 9.108603000640869141e-03 4.128859436605125666e-04 -9.662633761763572693e-03
4.254000000000000000e+03 6.949266815185546875e+01 2.665382575988769531e+01 -2.525389790534973145e-01 9.229449272155761719e+00 2.693073034286499023e+00 -1.554156422615051270e+00
4.255000000000000000e+03 7.052647399902343750e+01 2.703845596313476562e+01 -7.507914304733276367e-02 8.852231979370117188e+00 2.633145809173583984e+00 -1.644144058227539062e+00
4.256000000000000000e+03 1.020218276977539062e+01 -1.622642326354980469e+01 1.200567334890365601e-01 -4.658414125442504883e-01 -1.037354022264480591e-01 -3.629474341869354248e-01
4.257000000000000000e+03 6.883937072753906250e+01 -1.471924972534179688e+01 -2.865860238671302795e-02 6.884075641632080078e+00 2.056625127792358398e+00 2.974896430969238281e-01
4.258000000000000000e+03 2.854745292663574219e+01 3.692271232604980469e+00 -1.357439875602722168e+00 -7.166538238525390625e-01 -6.222280859947204590e-01 -6.221591830253601074e-01
4.259000000000000000e+03 2.798095130920410156e+01 2.881998538970947266e+00 -1.299522042274475098e+00 -6.293360590934753418e-01 -5.786574482917785645e-01 -5.377463698387145996e-01
4.260000000000000000e+03 4.226213836669921875e+01 1.820722770690917969e+01 -5.943194031715393066e-01 -2.606413066387176514e-01 -2.564882040023803711e-01 -5.149709582328796387e-01
4.261000000000000000e+03 2.745332717895507812e+01 2.415872812271118164e+00 -1.250082969665527344e+00 -5.219421386718750000e-01 -5.316075086593627930e-01 -4.862217307090759277e-01
4.262000000000000000e+03 4.129057312011718750e+01 1.683819007873535156e+01 -6.214308142662048340e-01 -2.677227854728698730e-01 -2.667460739612579346e-01 -5.233327150344848633e-01
4.263000000000000000e+03 5.429922103881835938e+01 2.950671005249023438e+01 4.135682284832000732e-01 1.038918495178222656e+00 4.357459843158721924e-01 6.558525562286376953e-01
4.264000000000000000e+03 5.476942443847656250e+01 2.927087593078613281e+01 5.422201752662658691e-01 1.376112937927246094e+00 5.754999518394470215e-01 8.878306746482849121e-01
4.265000000000000000e+03 1.751239967346191406e+01 1.213109588623046875e+01 7.960056513547897339e-02 1.882639676332473755e-01 8.035936206579208374e-02 1.176593154668807983e-01
4.266000000000000000e+03 4.486306762695312500e+01 2.057760810852050781e+01 -5.094588994979858398e-01 -6.834979355335235596e-02 -1.733426004648208618e-01 -3.205967843532562256e-01
4.267000000000000000e+03 4.292462921142578125e+01 1.909930419921875000e+01 -5.696904063224792480e-01 -2.528772950172424316e-01 -2.467703074216842651e-01 -4.878151118755340576e-01
4.268000000000000000e+03 4.844583129882812500e+01 2.509998512268066406e+01 -3.886821866035461426e-01 3.815568611025810242e-02 -1.051579564809799194e-01 -1.684062033891677856e-01
4.269000000000000000e+03 2.632710266113281250e+01 2.137090873718261719e+01 5.612220242619514465e-02 1.062641665339469910e-01 4.871591180562973022e-02 7.987291365861892700e-02
4.270000000000000000e+03 4.827984619140625000e+01 2.383684539794921875e+01 -3.580960035324096680e-01 2.422735244035720825e-01 -3.474674746394157410e-02 -5.444290861487388611e-02
4.271000000000000000e+03 4.878147125244140625e+01 2.538973999023437500e+01 -3.568784296512603760e-01 6.896299123764038086e-02 -8.637463301420211792e-02 -1.329456567764282227e-01
4.272000000000000000e+03 2.671575546264648438e+01 5.990103483200073242e-01 -6.583384871482849121e-01 -3.071812391281127930e-01 -2.896559238433837891e-01 -1.779384762048721313e-01
4.273000000000000000e+03 2.651712989807128906e+01 3.172557950019836426e-01 -5.896104574203491211e-01 -2.934336066246032715e-01 -2.649132311344146729e-01 -2.237324118614196777e-01
4.274000000000000000e+03 3.594353485107421875e+01 1.202376937866210938e+01 -8.202221989631652832e-01 -6.927215456962585449e-01 -4.538831114768981934e-01 -7.278624176979064941e-01
4.275000000000000000e+03 4.507629013061523438e+01 2.085234832763671875e+01 -5.084182620048522949e-01 -6.051579490303993225e-02 -1.706802099943161011e-01 -3.101321458816528320e-01
4.276000000000000000e+03 3.750515747070312500e+01 1.322311496734619141e+01 -7.596176266670227051e-01 -5.767455101013183594e-01 -4.009089469909667969e-01 -6.633195877075195312e-01
4.277000000000000000e+03 3.710946655273437500e+01 1.405823326110839844e+01 -8.159428238868713379e-01 -7.352553606033325195e-01 -4.653594493865966797e-01 -7.699683308601379395e-01
4.278000000000000000e+03 5.053068542480468750e+01 2.661752700805664062e+01 -1.711076200008392334e-01 3.069937229156494141e-01 4.076583310961723328e-02 1.159845590591430664e-01
4.279000000000000000e+03 4.181761169433593750e+01 1.641219902038574219e+01 -5.754007697105407715e-01 -1.294108927249908447e-01 -2.114434838294982910e-01 -4.399161040782928467e-01
4.280000000000000000e+03 2.739278793334960938e+01 2.097671031951904297e+00 -1.217422842979431152e+00 -4.912781417369842529e-01 -5.126103162765502930e-01 -4.170584976673126221e-01
4.281000000000000000e+03 2.144229888916015625e+01 1.654298210144042969e+01 6.950515508651733398e-02 1.365999728441238403e-01 6.183153763413429260e-02 9.699716418981552124e-02
4.282000000000000000e+03 4.957386016845703125e+01 2.627654457092285156e+01 -2.984635531902313232e-01 7.029087841510772705e-02 -6.845180690288543701e-02 -8.205172419548034668e-02
4.283000000000000000e+03 1.528846549987792969e+01 1.010824489593505859e+01 7.318965345621109009e-02 2.436464875936508179e-01 9.505084156990051270e-02 1.101169139146804810e-01
4.284000000000000000e+03 1.460927963256835938e+01 1.062301063537597656e+01 5.732122063636779785e-02 2.309569716453552246e-01 8.648345619440078735e-02 8.573422580957412720e-02
4.285000000000000000e+03 4.345995330810546875e+01 1.970909690856933594e+01 -5.653140544891357422e-01 -2.326084375381469727e-01 -2.393767386674880981e-01 -4.562748670578002930e-01
4.286000000000000000e+03 4.447295379638671875e+01 2.001562881469726562e+01 -5.098791718482971191e-01 -6.678973138332366943e-02 -1.730006635189056396e-01 -3.356491625308990479e-01
4.287000000000000000e+03 2.234712982177734375e+01 1.762001037597656250e+01 6.607117503881454468e-02 1.289127469062805176e-01 5.849517509341239929e-02 9.300240129232406616e-02
4.288000000000000000e+03 2.039060592651367188e+01 1.568267726898193359e+01 6.889321655035018921e-02 1.442803591489791870e-01 6.395207345485687256e-02 9.835902601480484009e-02
4.289000000000000000e+03 1.743989753723144531e+01 1.353996658325195312e+01 6.370572745800018311e-02 1.713447868824005127e-01 7.051515579223632812e-02 9.881972521543502808e-02
4.290000000000000000e+03 3.785993957519531250e+01 1.366982650756835938e+01 -7.543225884437561035e-01 -5.695163011550903320e-01 -3.971516788005828857e-01 -6.600285172462463379e-01
4.291000000000000000e+03 4.529668045043945312e+01 2.112335014343261719e+01 -5.055869221687316895e-01 -5.277383327484130859e-02 -1.675082147121429443e-01 -2.980175316333770752e-01
4.292000000000000000e+03 2.181805419921875000e+01 1.757930374145507812e+01 6.082009524106979370e-02 1.303027719259262085e-01 5.733685940504074097e-02 9.039016813039779663e-02
4.293000000000000000e+03 5.280031204223632812e+01 2.833702850341796875e+01 1.260866075754165649e-01 7.056885361671447754e-01 2.495325505733489990e-01 4.555220603942871094e-01
4.294000000000000000e+03 5.269527435302734375e+01 2.880835151672363281e+01 6.347650289535522461e-02 5.155037641525268555e-01 1.736940890550613403e-01 3.202940523624420166e-01
4.295000000000000000e+03 5.833871459960937500e+01 2.996103858947753906e+01 1.460162162780761719e+00 4.079768180847167969e+00 1.661979198455810547e+00 2.809006929397583008e+00
4.296000000000000000e+03 4.650073242187500000e+01 2.293486213684082031e+01 -5.041905045509338379e-01 -5.529899522662162781e-02 -1.678468436002731323e-01 -2.698484659194946289e-01
4.297000000000000000e+03 4.727701950073242188e+01 2.319797325134277344e+01 -4.374759197235107422e-01 9.394616633653640747e-02 -1.030589267611503601e-01 -1.649119257926940918e-01
4.298000000000000000e+03 5.072763824462890625e+01 2.718678283691406250e+01 -1.796018630266189575e-01 2.261272966861724854e-01 1.395762991160154343e-02 7.219054549932479858e-02
4.299000000000000000e+03 5.162462234497070312e+01 2.764548110961914062e+01 -6.122002005577087402e-02 4.266644120216369629e-01 1.096333190798759460e-01 2.408942580223083496e-01
4.300000000000000000e+03 3.791659545898437500e+01 1.401220512390136719e+01 -7.632302641868591309e-01 -5.995844006538391113e-01 -4.088443815708160400e-01 -6.830132007598876953e-01
4.301000000000000000e+03 3.814338684082031250e+01 1.432079315185546875e+01 -7.586095929145812988e-01 -5.898438692092895508e-01 -4.045360386371612549e-01 -6.791224479675292969e-01
4.302000000000000000e+03 5.276865386962890625e+01 2.909469795227050781e+01 4.544383287429809570e-02 4.618933200836181641e-01 1.522011458873748779e-01 2.724290788173675537e-01
4.303000000000000000e+03 5.434317016601562500e+01 2.848891067504882812e+01 4.386453628540039062e-01 1.417268514633178711e+00 5.567741394042968750e-01 9.157272577285766602e-01
4.304000000000000000e+03 3.563467788696289062e+01 1.137263488769531250e+01 -8.267068266868591309e-01 -6.818956732749938965e-01 -4.525807499885559082e-01 -7.191913127899169922e-01
4.305000000000000000e+03 3.667025375366210938e+01 1.216848659515380859e+01 -7.774885892868041992e-01 -6.051204800605773926e-01 -4.147827327251434326e-01 -6.736199259757995605e-01
4.306000000000000000e+03 5.038673782348632812e+01 2.697919082641601562e+01 -2.256555706262588501e-01 1.612776815891265869e-01 -1.931336708366870880e-02 1.588203758001327515e-02
4.307000000000000000e+03 3.839910125732421875e+01 1.409301567077636719e+01 -7.280438542366027832e-01 -5.132786631584167480e-01 -3.723967671394348145e-01 -6.311861872673034668e-01
4.308000000000000000e+03 3.980449295043945312e+01 1.626460838317871094e+01 -7.141149044036865234e-01 -4.794354140758514404e-01 -3.580650985240936279e-01 -6.348475217819213867e-01
4.309000000000000000e+03 4.172389602661132812e+01 1.689983749389648438e+01 -5.974042415618896484e-01 -1.993096023797988892e-01 -2.390141487121582031e-01 -4.829478859901428223e-01
4.310000000000000000e+03 2.483096885681152344e+01 1.942070198059082031e+01 6.495255231857299805e-02 1.145522370934486389e-01 5.385143682360649109e-02 8.767834305763244629e-02
4.311000000000000000e+03 2.396951866149902344e+01 1.882538223266601562e+01 6.618700921535491943e-02 1.185823529958724976e-01 5.543080717325210571e-02 8.918235450983047485e-02
4.312000000000000000e+03 3.865486526489257812e+01 1.434504032135009766e+01 -7.239289283752441406e-01 -5.029675364494323730e-01 -3.680689632892608643e-01 -6.239120960235595703e-01
4.313000000000000000e+03 5.190691757202148438e+01 2.791059112548828125e+01 -2.824531123042106628e-02 4.692757427692413330e-01 1.323091387748718262e-01 2.668253481388092041e-01
4.314000000000000000e+03 1.282445621490478516e+01 6.715033054351806641e+00 8.904784172773361206e-02 4.133687615394592285e-01 1.507249772548675537e-01 -1.075414847582578659e-02
4.315000000000000000e+03 1.327753067016601562e+01 7.488948822021484375e+00 7.264436036348342896e-02 3.665803670883178711e-01 1.317674219608306885e-01 4.819397628307342529e-02
4.316000000000000000e+03 4.576018524169921875e+01 2.165877342224121094e+01 -4.970177710056304932e-01 -2.659338712692260742e-02 -1.570833474397659302e-01 -2.706084251403808594e-01
4.317000000000000000e+03 5.881883239746093750e+01 3.026810836791992188e+01 1.618655562400817871e+00 4.700884342193603516e+00 1.895861864089965820e+00 3.216937780380249023e+00
4.318000000000000000e+03 5.923419952392578125e+01 3.062538146972656250e+01 1.801282525062561035e+00 5.328976631164550781e+00 2.139077663421630859e+00 3.623865604400634766e+00
4.319000000000000000e+03 3.890734863281250000e+01 1.460361099243164062e+01 -7.182577848434448242e-01 -4.812353849411010742e-01 -3.598479330539703369e-01 -6.151444315910339355e-01
4.320000000000000000e+03 4.941707229614257812e+01 2.564502716064453125e+01 -2.858240008354187012e-01 1.893625259399414062e-01 -2.893844060599803925e-02 -2.849722094833850861e-02
4.321000000000000000e+03 5.924013519287109375e+01 3.019924545288085938e+01 1.466098427772521973e+00 5.618931293487548828e+00 2.125509023666381836e+00 3.504961252212524414e+00
4.322000000000000000e+03 6.077408218383789062e+01 2.979973030090332031e+01 3.573570549488067627e-01 9.448634147644042969e+00 2.941797494888305664e+00 3.442148447036743164e+00
4.323000000000000000e+03 5.337654495239257812e+01 2.793726730346679688e+01 2.327556312084197998e-01 1.111329078674316406e+00 4.032253921031951904e-01 6.997030973434448242e-01
4.324000000000000000e+03 2.986218833923339844e+01 3.783085823059082031e+00 -1.142003655433654785e+00 -6.077700853347778320e-01 -5.249321460723876953e-01 -4.505772292613983154e-01
4.325000000000000000e+03 5.184061813354492188e+01 2.732916069030761719e+01 -1.122158020734786987e-03 6.080213785171508789e-01 1.820697635412216187e-01 3.545123636722564697e-01
4.326000000000000000e+03 1.378000068664550781e+01 9.839755058288574219e+00 5.589475855231285095e-02 2.510694563388824463e-01 9.208926558494567871e-02 6.336496025323867798e-02
4.327000000000000000e+03 2.599399566650390625e+01 1.145264387130737305e+00 -1.067476749420166016e+00 -3.148399591445922852e-01 -4.146950244903564453e-01 -3.598370254039764404e-01
4.328000000000000000e+03 3.515007019042968750e+01 1.086238384246826172e+01 -8.289665579795837402e-01 -6.882397532463073730e-01 -4.551618993282318115e-01 -7.189232110977172852e-01
4.329000000000000000e+03 3.568862533569335938e+01 1.175180053710937500e+01 -8.338592052459716797e-01 -7.053192853927612305e-01 -4.617535471916198730e-01 -7.375462055206298828e-01
4.330000000000000000e+03 4.331523895263671875e+01 1.905138587951660156e+01 -5.458836555480957031e-01 -1.706102192401885986e-01 -2.149481624364852905e-01 -4.328600764274597168e-01
4.331000000000000000e+03 4.395991897583007812e+01 1.989140701293945312e+01 -5.388253331184387207e-01 -1.580858081579208374e-01 -2.090733349323272705e-01 -4.001867175102233887e-01
4.332000000000000000e+03 4.995654296875000000e+01 2.623341369628906250e+01 -2.468868792057037354e-01 2.209406495094299316e-01 -7.783871144056320190e-03 1.664996519684791565e-02
4.333000000000000000e+03 5.022731781005859375e+01 2.643626976013183594e+01 -2.129357904195785522e-01 2.601946294307708740e-01 1.417765300720930099e-02 6.200731545686721802e-02
4.334000000000000000e+03 2.667098617553710938e+01 2.053932762145996094e+01 6.421292573213577271e-02 1.056876704096794128e-01 5.097017809748649597e-02 8.476830273866653442e-02
4.335000000000000000e+03 2.616754341125488281e+01 2.057555580139160156e+01 6.309531629085540771e-02 1.078461781144142151e-01 5.128245055675506592e-02 8.387409895658493042e-02
4.336000000000000000e+03 5.105980300903320312e+01 2.729842758178710938e+01 -1.298400312662124634e-01 2.999311089515686035e-01 5.102732032537460327e-02 1.398113071918487549e-01
4.337000000000000000e+03 3.953301239013671875e+01 1.592497253417968750e+01 -7.248551845550537109e-01 -4.989019036293029785e-01 -3.671271502971649170e-01 -6.383757591247558594e-01
4.338000000000000000e+03 4.600435256958007812e+01 2.192367935180664062e+01 -4.906128644943237305e-01 -9.348077699542045593e-03 -1.499882936477661133e-01 -2.550798058509826660e-01
4.339000000000000000e+03 4.624048614501953125e+01 2.267873382568359375e+01 -5.146426558494567871e-01 -7.628598064184188843e-02 -1.772785931825637817e-01 -2.865451276302337646e-01
4.340000000000000000e+03 4.800570297241210938e+01 2.433193969726562500e+01 -4.106765091419219971e-01 8.194294571876525879e-02 -9.862007200717926025e-02 -1.609582751989364624e-01
4.341000000000000000e+03 2.628831863403320312e+01 2.260278511047363281e+01 4.754335805773735046e-02 1.030291393399238586e-01 4.517174884676933289e-02 7.386308908462524414e-02
4.342000000000000000e+03 2.722333908081054688e+01 2.272678375244140625e+01 5.054109916090965271e-02 1.012521684169769287e-01 4.553798213601112366e-02 7.674202322959899902e-02
4.343000000000000000e+03 4.520011138916015625e+01 2.037445640563964844e+01 -4.756635427474975586e-01 3.928111121058464050e-02 -1.309147328138351440e-01 -2.569220066070556641e-01
4.344000000000000000e+03 2.457773590087890625e+01 1.903920555114746094e+01 6.777098774909973145e-02 1.158107444643974304e-01 5.507452040910720825e-02 8.888180553913116455e-02
4.345000000000000000e+03 2.098023986816406250e+01 1.622224998474121094e+01 6.923767924308776855e-02 1.392522156238555908e-01 6.254696846008300781e-02 9.709694236516952515e-02
4.346000000000000000e+03 3.656270599365234375e+01 1.177846908569335938e+01 -7.689566016197204590e-01 -5.909857749938964844e-01 -4.079827070236206055e-01 -6.563108563423156738e-01
4.347000000000000000e+03 1.875581169128417969e+01 1.412195396423339844e+01 7.067516446113586426e-02 1.603405326604843140e-01 6.930471211671829224e-02 1.047682538628578186e-01
4.348000000000000000e+03 1.495418739318847656e+01 1.086459064483642578e+01 5.942895635962486267e-02 2.271678894758224487e-01 8.597905188798904419e-02 8.965885639190673828e-02
4.349000000000000000e+03 4.336855316162109375e+01 1.937475204467773438e+01 -5.522167682647705078e-01 -2.044565081596374512e-01 -2.270019799470901489e-01 -4.476276636123657227e-01
4.350000000000000000e+03 1.810653686523437500e+01 1.369614791870117188e+01 6.863474845886230469e-02 1.670593470335006714e-01 7.070823013782501221e-02 1.041552424430847168e-01
4.351000000000000000e+03 4.095743942260742188e+01 1.628684043884277344e+01 -6.319379806518554688e-01 -2.727134823799133301e-01 -2.713954448699951172e-01 -5.204147100448608398e-01
4.352000000000000000e+03 3.953577041625976562e+01 1.541886520385742188e+01 -7.025585770606994629e-01 -4.468340575695037842e-01 -3.448177874088287354e-01 -6.034287214279174805e-01
4.353000000000000000e+03 2.728274154663085938e+01 2.321972656250000000e+01 4.690342023968696594e-02 1.008805036544799805e-01 4.433517530560493469e-02 7.423274964094161987e-02
4.354000000000000000e+03 2.074589347839355469e+01 1.563600826263427734e+01 7.388525456190109253e-02 1.432476788759231567e-01 6.513988226652145386e-02 1.012978851795196533e-01
4.355000000000000000e+03 3.296722412109375000e+01 2.932285308837890625e+01 4.302921518683433533e-02 8.200187981128692627e-02 3.750932961702346802e-02 5.611881986260414124e-02
4.356000000000000000e+03 4.676000595092773438e+01 2.318846321105957031e+01 -4.924867153167724609e-01 -3.544947504997253418e-02 -1.583808511495590210e-01 -2.530869841575622559e-01
4.357000000000000000e+03 3.625844192504882812e+01 1.126972103118896484e+01 -7.663180828094482422e-01 -5.771174430847167969e-01 -4.030306637287139893e-01 -6.420293450355529785e-01
4.358000000000000000e+03 3.705420303344726562e+01 1.241565418243408203e+01 -7.639348506927490234e-01 -5.730867981910705566e-01 -4.011064767837524414e-01 -6.542318463325500488e-01
4.359000000000000000e+03 2.919940948486328125e+01 -5.372775197029113770e-01 -1.596185863018035889e-01 -3.834195733070373535e-01 -1.629114449024200439e-01 -3.188072890043258667e-02
4.360000000000000000e+03 3.743604278564453125e+01 1.285393524169921875e+01 -7.465691566467285156e-01 -5.490292906761169434e-01 -3.886795341968536377e-01 -6.437380313873291016e-01
4.361000000000000000e+03 2.843533515930175781e+01 2.983495950698852539e+00 -1.214529752731323242e+00 -6.248956918716430664e-01 -5.518276691436767578e-01 -4.870120584964752197e-01
4.362000000000000000e+03 4.625436782836914062e+01 2.218474960327148438e+01 -4.839237332344055176e-01 9.110826067626476288e-03 -1.424438655376434326e-01 -2.373560070991516113e-01
4.363000000000000000e+03 4.650847625732421875e+01 2.244099617004394531e+01 -4.744114577770233154e-01 2.963517419993877411e-02 -1.334328800439834595e-01 -2.192829251289367676e-01
4.364000000000000000e+03 2.144029617309570312e+01 1.698527717590332031e+01 6.444539129734039307e-02 1.338894665241241455e-01 5.950045585632324219e-02 9.348049014806747437e-02
4.365000000000000000e+03 3.443890380859375000e+01 9.750265121459960938e+00 -8.310678601264953613e-01 -6.789239048957824707e-01 -4.529975354671478271e-01 -6.954037547111511230e-01
4.366000000000000000e+03 3.441490554809570312e+01 7.459108352661132812e+00 -7.134795188903808594e-01 -4.775838553905487061e-01 -3.573190271854400635e-01 -5.337126255035400391e-01
4.367000000000000000e+03 3.342613601684570312e+01 4.922673702239990234e+00 -7.055512070655822754e-01 -3.590987622737884521e-01 -3.193949759006500244e-01 -3.856335580348968506e-01
4.368000000000000000e+03 3.528237152099609375e+01 5.823944091796875000e+00 -5.693636536598205566e-01 -2.427662760019302368e-01 -2.436389774084091187e-01 -3.299678862094879150e-01
4.369000000000000000e+03 1.364677429199218750e+01 8.049548149108886719e+00 6.654801964759826660e-02 3.396989703178405762e-01 1.218741014599800110e-01 7.119223475456237793e-02
4.370000000000000000e+03 1.111869144439697266e+01 7.060930728912353516e+00 1.469172686338424683e-01 1.787513643503189087e-01 9.770058840513229370e-02 -7.326869666576385498e-02
4.371000000000000000e+03 2.543835639953613281e+01 1.205959081649780273e+00 -1.278548121452331543e+00 -2.757419943809509277e-01 -4.662870466709136963e-01 -4.993952512741088867e-01
4.372000000000000000e+03 2.823996543884277344e+01 -2.748328447341918945e-02 -2.677839696407318115e-01 -3.748659193515777588e-01 -1.927949637174606323e-01 -7.190453261137008667e-02
4.373000000000000000e+03 1.615017127990722656e+01 1.115808582305908203e+01 7.282683998346328735e-02 2.133778482675552368e-01 8.586140722036361694e-02 1.106762140989303589e-01
4.374000000000000000e+03 1.233304214477539062e+01 5.909467220306396484e+00 1.465415358543395996e-01 4.097243249416351318e-01 1.668797582387924194e-01 -8.914242684841156006e-02
4.375000000000000000e+03 3.167520332336425781e+01 4.710909366607666016e+00 -9.590130448341369629e-01 -4.872610867023468018e-01 -4.338822364807128906e-01 -4.971170723438262939e-01
4.376000000000000000e+03 3.478986740112304688e+01 7.839099407196044922e+00 -7.012555599212646484e-01 -4.713993072509765625e-01 -3.517964482307434082e-01 -5.298864841461181641e-01
4.377000000000000000e+03 2.993048095703125000e+01 2.640703392028808594e+01 4.542020708322525024e-02 8.831731230020523071e-02 4.012125730514526367e-02 6.419464945793151855e-02
4.378000000000000000e+03 1.709816932678222656e+01 1.204507446289062500e+01 7.478275150060653687e-02 1.918994039297103882e-01 8.000464737415313721e-02 1.142422780394554138e-01
4.379000000000000000e+03 1.519671058654785156e+01 1.122619819641113281e+01 5.769527703523635864e-02 2.159668952226638794e-01 8.209865540266036987e-02 9.221614897251129150e-02
4.380000000000000000e+03 2.865100288391113281e+01 2.451083183288574219e+01 4.437151551246643066e-02 9.401538223028182983e-02 4.151606932282447815e-02 7.151678949594497681e-02
4.381000000000000000e+03 2.990379714965820312e+01 2.520838165283203125e+01 4.603839293122291565e-02 8.947338908910751343e-02 4.065353423357009888e-02 6.993893533945083618e-02
4.382000000000000000e+03 2.753532600402832031e+01 2.343043708801269531e+01 4.783284664154052734e-02 9.766926616430282593e-02 4.365063458681106567e-02 7.246653735637664795e-02
4.383000000000000000e+03 2.808337593078613281e+01 2.467092132568359375e+01 4.573000594973564148e-02 9.494164586067199707e-02 4.220149666070938110e-02 6.987445801496505737e-02
4.384000000000000000e+03 3.365331268310546875e+01 3.152178764343261719e+01 4.227377846837043762e-02 7.710222154855728149e-02 3.581279888749122620e-02 5.159018933773040771e-02
4.385000000000000000e+03 3.215240859985351562e+01 2.969961929321289062e+01 4.254763200879096985e-02 8.044691383838653564e-02 3.689836338162422180e-02 5.367967113852500916e-02
4.386000000000000000e+03 6.072583007812500000e+01 3.028393173217773438e+01 6.634062528610229492e-01 9.583935737609863281e+00 3.074202537536621094e+00 3.825823783874511719e+00
4.387000000000000000e+03 2.701620292663574219e+01 3.315105140209197998e-01 -5.344181060791015625e-01 -3.394190669059753418e-01 -2.621511518955230713e-01 -1.854315996170043945e-01
4.388000000000000000e+03 3.540942764282226562e+01 1.114754867553710938e+01 -8.330486416816711426e-01 -6.860808730125427246e-01 -4.557388424873352051e-01 -7.211222052574157715e-01
4.389000000000000000e+03 3.596575164794921875e+01 1.073382282257080078e+01 -7.651611566543579102e-01 -5.710858106613159180e-01 -4.008740782737731934e-01 -6.318781375885009766e-01
4.390000000000000000e+03 1.992967796325683594e+01 1.508596515655517578e+01 7.247257232666015625e-02 1.485425829887390137e-01 6.630454212427139282e-02 1.017846986651420593e-01
4.391000000000000000e+03 2.819680786132812500e+01 -4.951913058757781982e-01 -1.966269761323928833e-01 -3.734411895275115967e-01 -1.710204482078552246e-01 -4.949777945876121521e-02
4.392000000000000000e+03 2.967612648010253906e+01 2.586709213256835938e+01 4.328209534287452698e-02 8.939910680055618286e-02 3.980436176061630249e-02 6.870605051517486572e-02
4.393000000000000000e+03 3.407067871093750000e+01 7.041193485260009766e+00 -7.216734290122985840e-01 -4.884073436260223389e-01 -3.630242347717285156e-01 -5.378396511077880859e-01
4.394000000000000000e+03 2.924541091918945312e+01 2.491288566589355469e+01 4.438902437686920166e-02 9.245134145021438599e-02 4.105211049318313599e-02 7.094950228929519653e-02
4.395000000000000000e+03 2.984799575805664062e+01 -1.001409888267517090e+00 -5.795599427074193954e-03 -3.850749731063842773e-01 -1.172611713409423828e-01 -1.506594102829694748e-02
4.396000000000000000e+03 2.912272834777832031e+01 -5.246472731232643127e-02 -2.162765264511108398e-01 -3.969166874885559082e-01 -1.839579641819000244e-01 -1.512866653501987457e-02
4.397000000000000000e+03 3.350303268432617188e+01 2.937981224060058594e+01 5.485306307673454285e-02 7.826788723468780518e-02 3.993628546595573425e-02 5.901570245623588562e-02
4.398000000000000000e+03 1.167218494415283203e+01 6.098349094390869141e+00 1.773294061422348022e-01 2.731219828128814697e-01 1.351354271173477173e-01 -1.090787723660469055e-01
4.399000000000000000e+03 8.430914878845214844e+00 9.994909286499023438e+00 8.135569840669631958e-02 7.820652797818183899e-03 2.675290592014789581e-02 -1.733741164207458496e-02
4.400000000000000000e+03 3.168343353271484375e+01 4.205167770385742188e+00 -8.915402293205261230e-01 -4.495247304439544678e-01 -4.023194909095764160e-01 -4.109367430210113525e-01
4.401000000000000000e+03 3.114626121520996094e+01 4.267329216003417969e+00 -1.013109087944030762e+00 -4.970216751098632812e-01 -4.530392289161682129e-01 -4.558303952217102051e-01
4.402000000000000000e+03 3.381216812133789062e+01 5.635048389434814453e+00 -6.982831358909606934e-01 -3.781459331512451172e-01 -3.229287266731262207e-01 -4.303799271583557129e-01
4.403000000000000000e+03 4.251151657104492188e+01 1.743818283081054688e+01 -5.530756711959838867e-01 -1.235666126012802124e-01 -2.029926925897598267e-01 -4.289982616901397705e-01
4.404000000000000000e+03 3.049760627746582031e+01 2.987322998046875000e+01 3.967851027846336365e-02 8.413387089967727661e-02 3.714371472597122192e-02 5.358819290995597839e-02
4.405000000000000000e+03 5.567164611816406250e+01 2.937219619750976562e+01 8.165395855903625488e-01 1.816060304641723633e+00 7.897799611091613770e-01 1.256601572036743164e+00
4.406000000000000000e+03 1.423034191131591797e+01 1.018184280395507812e+01 5.667801573872566223e-02 2.406215220689773560e-01 8.918985724449157715e-02 7.584033161401748657e-02
4.407000000000000000e+03 1.331702327728271484e+01 8.011543273925781250e+00 6.881847232580184937e-02 3.292300999164581299e-01 1.194145753979682922e-01 4.904951155185699463e-02
4.408000000000000000e+03 1.295914173126220703e+01 7.265871524810791016e+00 7.914718985557556152e-02 3.732290565967559814e-01 1.357128769159317017e-01 1.479510217905044556e-02
4.409000000000000000e+03 2.682478904724121094e+01 2.171243667602539062e+01 5.648825690150260925e-02 1.042477115988731384e-01 4.822079092264175415e-02 7.971985638141632080e-02
4.410000000000000000e+03 2.750110816955566406e+01 2.237575721740722656e+01 5.382631719112396240e-02 9.976032376289367676e-02 4.607599228620529175e-02 7.649501413106918335e-02
4.411000000000000000e+03 2.951942062377929688e+01 1.673186570405960083e-02 -2.858743369579315186e-01 -3.969653248786926270e-01 -2.048518955707550049e-01 -4.266933351755142212e-02
4.412000000000000000e+03 1.720791625976562500e+01 1.298124408721923828e+01 6.570739299058914185e-02 1.798983365297317505e-01 7.368171960115432739e-02 1.026735231280326843e-01
4.413000000000000000e+03 2.699508666992187500e+01 2.343858528137207031e+01 4.686931893229484558e-02 9.880967438220977783e-02 4.370369762182235718e-02 7.216394692659378052e-02
4.414000000000000000e+03 3.380315017700195312e+01 3.252079772949218750e+01 5.145186930894851685e-02 7.546440511941909790e-02 3.807488083839416504e-02 4.751589894294738770e-02
4.415000000000000000e+03 3.270703887939453125e+01 3.272562789916992188e+01 3.752966597676277161e-02 7.699581980705261230e-02 3.435764461755752563e-02 4.462179169058799744e-02
4.416000000000000000e+03 6.050901794433593750e+01 3.001837539672851562e+01 6.604117751121520996e-01 8.843663215637207031e+00 2.851222276687622070e+00 3.717848062515258789e+00
4.417000000000000000e+03 6.233438491821289062e+01 2.963926887512207031e+01 -4.551855027675628662e-01 1.196297168731689453e+01 3.452335834503173828e+00 1.796450495719909668e+00
4.418000000000000000e+03 2.896708869934082031e+01 3.224607467651367188e+00 -1.168519735336303711e+00 -6.287460327148437500e-01 -5.391797423362731934e-01 -4.622149169445037842e-01
4.419000000000000000e+03 3.331583023071289062e+01 -2.378936529159545898e+00 2.052037417888641357e-01 -1.882620900869369507e-01 5.082492250949144363e-03 4.651650041341781616e-02
4.420000000000000000e+03 3.212214279174804688e+01 -1.196479678153991699e+00 5.719504132866859436e-02 -3.074381947517395020e-01 -7.507294416427612305e-02 3.000715002417564392e-02
4.421000000000000000e+03 1.244704151153564453e+01 6.510691642761230469e+00 1.107088997960090637e-01 3.825969696044921875e-01 1.479917615652084351e-01 -4.584996402263641357e-02
4.422000000000000000e+03 3.408575439453125000e+01 3.366259384155273438e+01 4.310305789113044739e-02 7.220663130283355713e-02 3.459290787577629089e-02 4.464769735932350159e-02
4.423000000000000000e+03 3.142641258239746094e+01 2.699016571044921875e+01 4.556560888886451721e-02 8.461174368858337402e-02 3.905320540070533752e-02 6.512979418039321899e-02
4.424000000000000000e+03 3.146330070495605469e+01 2.746229553222656250e+01 4.896155744791030884e-02 8.429099619388580322e-02 3.997576609253883362e-02 6.294163316488265991e-02
4.425000000000000000e+03 9.669019699096679688e+00 8.992237091064453125e+00 9.699386358261108398e-02 6.316719949245452881e-02 4.804831743240356445e-02 -2.933495678007602692e-02
4.426000000000000000e+03 1.059077167510986328e+01 7.737623214721679688e+00 1.291362494230270386e-01 1.282350569963455200e-01 7.721138745546340942e-02 -5.377655848860740662e-02
4.427000000000000000e+03 3.535589218139648438e+01 -4.049737453460693359e+00 2.901195883750915527e-01 1.641116477549076080e-02 9.195923060178756714e-02 3.034723177552223206e-02
4.428000000000000000e+03 1.013517570495605469e+01 -8.554275512695312500e+00 -1.159313917160034180e-01 -3.293402493000030518e-01 -1.335814893245697021e-01 -4.950499832630157471e-01
4.429000000000000000e+03 1.395851421356201172e+01 -7.686923980712890625e+00 -1.146630719304084778e-01 -5.015220046043395996e-01 -1.848555207252502441e-01 -6.058629751205444336e-01
4.430000000000000000e+03 3.751683807373046875e+01 3.549598312377929688e+01 6.562865525484085083e-02 6.328722834587097168e-02 3.867476433515548706e-02 4.641065001487731934e-02
4.431000000000000000e+03 3.437104415893554688e+01 -2.718713760375976562e+00 2.219640761613845825e-01 -9.661994129419326782e-02 3.760323673486709595e-02 4.630908370018005371e-02
4.432000000000000000e+03 6.801162719726562500e+01 -3.618069887161254883e+00 -1.026837602257728577e-01 6.844819068908691406e+00 2.022640705108642578e+00 2.375837564468383789e-01
4.433000000000000000e+03 6.847030639648437500e+01 -4.408442497253417969e+00 -9.165321290493011475e-02 6.944838047027587891e+00 2.055955410003662109e+00 2.419775277376174927e-01
4.434000000000000000e+03 9.231244087219238281e+00 -8.909247398376464844e+00 -8.124420791864395142e-02 -3.365189135074615479e-01 -1.253289431333541870e-01 -4.675913155078887939e-01
4.435000000000000000e+03 9.935764312744140625e+00 -1.119247436523437500e+01 3.651078045368194580e-02 -4.092245697975158691e-01 -1.118141338229179382e-01 -4.534638822078704834e-01
4.436000000000000000e+03 6.590847778320312500e+01 2.820732879638671875e+01 -3.243938386440277100e-01 1.099464321136474609e+01 3.201074600219726562e+00 -1.015843391418457031e+00
4.437000000000000000e+03 6.489385223388671875e+01 2.988660240173339844e+01 2.827620208263397217e-01 1.233327770233154297e+01 3.784811973571777344e+00 -9.729488492012023926e-01
4.438000000000000000e+03 1.053012180328369141e+01 1.509317398071289062e+01 1.409720070660114288e-02 6.655644625425338745e-02 2.419609390199184418e-02 -4.552943632006645203e-03
4.439000000000000000e+03 6.312181472778320312e+01 2.860035896301269531e+01 -7.336660623550415039e-01 1.148180294036865234e+01 3.224441051483154297e+00 8.417083024978637695e-01
4.440000000000000000e+03 6.764479064941406250e+01 2.769795036315917969e+01 -1.907428354024887085e-01 1.010027885437011719e+01 2.972860813140869141e+00 -1.444755077362060547e+00
4.441000000000000000e+03 1.104428672790527344e+01 1.827996826171875000e+01 2.257223241031169891e-04 5.095867067575454712e-02 1.535531878471374512e-02 -1.592552755028009415e-03
4.442000000000000000e+03 8.315658569335937500e+00 1.221215915679931641e+01 4.284129664301872253e-02 1.202460285276174545e-02 1.645977050065994263e-02 -1.844935305416584015e-02
4.443000000000000000e+03 6.942354583740234375e+01 2.139727020263671875e+01 -8.244281411170959473e-01 8.566308021545410156e+00 2.322563886642456055e+00 -9.504858255386352539e-01
4.444000000000000000e+03 6.944252014160156250e+01 -6.544305324554443359e+00 -6.006826832890510559e-02 7.113471031188964844e+00 2.116020679473876953e+00 2.437958866357803345e-01
4.445000000000000000e+03 6.932187652587890625e+01 1.866728591918945312e+01 -7.962719202041625977e-01 8.208588600158691406e+00 2.223695039749145508e+00 -6.689051985740661621e-01
4.446000000000000000e+03 1.159196186065673828e+01 -2.531393432617187500e+01 1.124882474541664124e-01 -4.498170316219329834e-01 -1.011986359953880310e-01 -2.343038916587829590e-01
4.447000000000000000e+03 6.997910308837890625e+01 1.975888442993164062e+01 -7.701549530029296875e-01 8.340834617614746094e+00 2.271203994750976562e+00 -8.376511931419372559e-01
4.448000000000000000e+03 4.319241714477539062e+01 -1.307522201538085938e+01 9.270410984754562378e-02 1.457604885101318359e+00 4.650926887989044189e-01 -5.449162051081657410e-02
4.449000000000000000e+03 4.191904830932617188e+01 -1.219524574279785156e+01 1.357342451810836792e-01 1.195794701576232910e+00 3.994586765766143799e-01 -5.137871950864791870e-02
4.450000000000000000e+03 6.939081573486328125e+01 1.222050666809082031e+01 -5.150259733200073242e-01 7.654586791992187500e+00 2.141868114471435547e+00 -2.136241048574447632e-01
4.451000000000000000e+03 6.895949554443359375e+01 1.147119617462158203e+01 -4.980990588665008545e-01 7.535127162933349609e+00 2.111108541488647461e+00 -1.494029462337493896e-01
4.452000000000000000e+03 3.595130157470703125e+01 -4.706678867340087891e+00 3.140618503093719482e-01 1.067857891321182251e-01 1.262542903423309326e-01 1.598661206662654877e-02
4.453000000000000000e+03 6.713887023925781250e+01 3.193994522094726562e+00 -2.438820898532867432e-01 6.806600570678710938e+00 1.968815565109252930e+00 1.798408329486846924e-01
4.454000000000000000e+03 6.630068969726562500e+01 2.469921684265136719e+01 -1.023475885391235352e+00 9.523049354553222656e+00 2.549871921539306641e+00 -6.007546186447143555e-01
4.455000000000000000e+03 7.109543609619140625e+01 1.773089408874511719e+01 -6.064766049385070801e-01 8.157925605773925781e+00 2.265434503555297852e+00 -7.315208911895751953e-01
4.456000000000000000e+03 3.720234298706054688e+01 3.397466659545898438e+01 5.733029916882514954e-02 6.783842295408248901e-02 3.755061700940132141e-02 5.055101960897445679e-02
4.457000000000000000e+03 1.025730228424072266e+01 8.588006973266601562e+00 1.057015284895896912e-01 1.046386063098907471e-01 6.310203671455383301e-02 -3.919488191604614258e-02
4.458000000000000000e+03 1.178893566131591797e+01 -9.840744018554687500e+00 -2.034453302621841431e-02 -4.095383584499359131e-01 -1.289648711681365967e-01 -5.215932130813598633e-01
4.459000000000000000e+03 1.103092288970947266e+01 -1.406849765777587891e+01 1.196238771080970764e-01 -4.333666563034057617e-01 -9.412283450365066528e-02 -4.084773361682891846e-01
4.460000000000000000e+03 9.129979133605957031e+00 -1.078499126434326172e+01 -1.177368778735399246e-02 -3.902166187763214111e-01 -1.205970868468284607e-01 -4.527105391025543213e-01
4.461000000000000000e+03 4.157862854003906250e+01 -8.409585952758789062e+00 2.045751512050628662e-01 1.073408842086791992e+00 3.833951950073242188e-01 1.467755995690822601e-02
4.462000000000000000e+03 1.254426288604736328e+01 -1.243927574157714844e+01 1.052270680665969849e-01 -4.156202971935272217e-01 -9.311796724796295166e-02 -4.473098516464233398e-01
4.463000000000000000e+03 1.081269741058349609e+01 2.385774040222167969e+01 -8.866098709404468536e-03 1.610499061644077301e-02 2.171667525544762611e-03 -6.370472256094217300e-03
4.464000000000000000e+03 9.457744598388671875e+00 2.212690925598144531e+01 -7.280409336090087891e-03 2.318553160876035690e-03 -1.488556736148893833e-03 -1.208826713263988495e-02
4.465000000000000000e+03 6.972010040283203125e+01 2.555179786682128906e+01 -4.624947011470794678e-01 9.044757843017578125e+00 2.574678897857666016e+00 -1.464717626571655273e+00
4.466000000000000000e+03 6.878598022460937500e+01 2.543008422851562500e+01 -5.821328163146972656e-01 9.290722846984863281e+00 2.612576961517333984e+00 -1.330954909324645996e+00
4.467000000000000000e+03 6.938346099853515625e+01 2.828826522827148438e+01 1.923173666000366211e-01 9.324707031250000000e+00 2.855107307434082031e+00 -1.676986932754516602e+00
4.468000000000000000e+03 4.257560729980468750e+01 -5.576393127441406250e+00 1.806183457374572754e-01 1.199956655502319336e+00 4.141725003719329834e-01 9.109590947628021240e-02
4.469000000000000000e+03 4.059631729125976562e+01 -7.530046463012695312e+00 2.294176965951919556e-01 8.678980469703674316e-01 3.291947245597839355e-01 1.615726202726364136e-02
4.470000000000000000e+03 7.016615295410156250e+01 2.814453697204589844e+01 1.812947392463684082e-01 9.060171127319335938e+00 2.772439956665039062e+00 -1.703119158744812012e+00
4.471000000000000000e+03 9.969195365905761719e+00 1.441560745239257812e+01 1.679912023246288300e-02 5.549811944365501404e-02 2.168917097151279449e-02 -7.480331696569919586e-03
4.472000000000000000e+03 9.327663421630859375e+00 1.379018688201904297e+01 2.312592789530754089e-02 4.245737940073013306e-02 1.967499218881130219e-02 -1.345810573548078537e-02
4.473000000000000000e+03 6.934090423583984375e+01 3.020218849182128906e+01 9.622746109962463379e-01 9.352159500122070312e+00 3.094330072402954102e+00 -1.696748614311218262e+00
4.474000000000000000e+03 1.100632476806640625e+01 1.579563045501708984e+01 9.743004105985164642e-03 7.127306610345840454e-02 2.430482208728790283e-02 5.872391629964113235e-04
4.475000000000000000e+03 6.817446899414062500e+01 -2.116447067260742188e+01 -7.615555077791213989e-03 6.672453880310058594e+00 1.999451518058776855e+00 3.244941234588623047e-01
4.476000000000000000e+03 6.871224212646484375e+01 -1.625646209716796875e+01 -2.712938748300075531e-02 6.829089164733886719e+00 2.040587902069091797e+00 2.990494072437286377e-01
4.477000000000000000e+03 9.557396888732910156e+00 -1.994970703125000000e+01 1.028162464499473572e-01 -5.147197246551513672e-01 -1.235710382461547852e-01 -2.949316799640655518e-01
4.478000000000000000e+03 1.505581569671630859e+01 -1.837352943420410156e+01 1.819413602352142334e-01 -2.494375109672546387e-01 -2.024884335696697235e-02 -3.197447657585144043e-01
4.479000000000000000e+03 3.972822570800781250e+01 -6.514919757843017578e+00 2.477911710739135742e-01 6.855915188789367676e-01 2.800148129463195801e-01 2.261994779109954834e-02
4.480000000000000000e+03 1.066095542907714844e+01 -1.515680694580078125e+01 1.106305941939353943e-01 -4.498981237411499023e-01 -1.017802581191062927e-01 -3.913199007511138916e-01
4.481000000000000000e+03 4.736097335815429688e+01 -1.964884567260742188e+01 -9.243647009134292603e-02 2.589492559432983398e+00 7.491168379783630371e-01 -1.584147103130817413e-02
4.482000000000000000e+03 4.412867355346679688e+01 -1.489611244201660156e+01 2.360124327242374420e-02 1.709465980529785156e+00 5.199201703071594238e-01 -6.338366121053695679e-02
4.483000000000000000e+03 1.106451797485351562e+01 2.916841697692871094e+01 -8.763610385358333588e-03 9.536317520542070270e-05 -2.600474050268530846e-03 -5.991747137159109116e-03
4.484000000000000000e+03 3.649103164672851562e+01 3.491788864135742188e+01 6.285591423511505127e-02 6.401690095663070679e-02 3.806184232234954834e-02 4.134216159582138062e-02
4.485000000000000000e+03 6.848303222656250000e+01 2.330424118041992188e+01 -8.643155097961425781e-01 8.930960655212402344e+00 2.419993638992309570e+00 -1.010199069976806641e+00
4.486000000000000000e+03 6.897759246826171875e+01 2.070290565490722656e+01 -8.755989074707031250e-01 8.476138114929199219e+00 2.280161619186401367e+00 -7.950602173805236816e-01
4.487000000000000000e+03 1.334528541564941406e+01 -1.882026672363281250e+01 1.630955934524536133e-01 -3.334270417690277100e-01 -5.109943449497222900e-02 -3.238092362880706787e-01
4.488000000000000000e+03 6.849495697021484375e+01 -2.202501535415649414e+00 -1.080150380730628967e-01 6.985561847686767578e+00 2.063264131546020508e+00 2.178728133440017700e-01
4.489000000000000000e+03 6.868257141113281250e+01 -7.681798934936523438e-01 -1.275507658720016479e-01 7.046701431274414062e+00 2.075745105743408203e+00 2.037725597620010376e-01
4.490000000000000000e+03 6.841953277587890625e+01 4.634197235107421875e+00 -2.592478990554809570e-01 7.135139465332031250e+00 2.062767505645751953e+00 1.118244901299476624e-01
4.491000000000000000e+03 7.006476593017578125e+01 8.952462196350097656e+00 -3.458975553512573242e-01 7.608657836914062500e+00 2.178828001022338867e+00 -9.512266516685485840e-02
4.492000000000000000e+03 6.866472625732421875e+01 1.609548187255859375e+01 -7.471714019775390625e-01 7.876724720001220703e+00 2.138865947723388672e+00 -3.905860185623168945e-01
4.493000000000000000e+03 6.853295898437500000e+01 1.401702022552490234e+01 -6.464886069297790527e-01 7.661541461944580078e+00 2.104515790939331055e+00 -2.569058537483215332e-01
4.494000000000000000e+03 7.031250000000000000e+01 -6.380004405975341797e+00 -5.742334201931953430e-02 7.304117202758789062e+00 2.174008131027221680e+00 2.271440923213958740e-01
4.495000000000000000e+03 6.877034759521484375e+01 -9.042859077453613281e+00 -4.394697770476341248e-02 6.937264919281005859e+00 2.067995309829711914e+00 2.723999023437500000e-01
4.496000000000000000e+03 6.569593048095703125e+01 -2.290603446960449219e+01 7.492112461477518082e-03 6.223503112792968750e+00 1.869298458099365234e+00 3.456625640392303467e-01
4.497000000000000000e+03 6.442371368408203125e+01 -2.394665527343750000e+01 3.372963517904281616e-02 5.978241920471191406e+00 1.803591489791870117e+00 3.562043011188507080e-01
4.498000000000000000e+03 5.044247055053710938e+01 -2.636141777038574219e+01 -9.394522756338119507e-02 3.581027269363403320e+00 1.046124696731567383e+00 1.897394955158233643e-01
4.499000000000000000e+03 5.346533584594726562e+01 -1.945781517028808594e+01 -8.952809125185012817e-02 3.931278467178344727e+00 1.152525067329406738e+00 1.974783092737197876e-01
4.500000000000000000e+03 5.082911682128906250e+01 -1.822529029846191406e+01 -8.801981806755065918e-02 3.331803321838378906e+00 9.731350541114807129e-01 1.109512895345687866e-01
4.501000000000000000e+03 7.014986419677734375e+01 -5.485956192016601562e+00 -6.142452731728553772e-02 7.280064582824707031e+00 2.165591955184936523e+00 2.262091934680938721e-01
4.502000000000000000e+03 5.186038208007812500e+01 -2.312499427795410156e+01 -9.069991111755371094e-02 3.708288669586181641e+00 1.085276603698730469e+00 1.835516989231109619e-01
4.503000000000000000e+03 6.964553070068359375e+01 5.262210845947265625e+00 -2.379929870367050171e-01 7.412637233734130859e+00 2.152393341064453125e+00 5.325989052653312683e-02
4.504000000000000000e+03 6.962022399902343750e+01 7.436380386352539062e+00 -3.083707094192504883e-01 7.483625411987304688e+00 2.152576446533203125e+00 -1.616525836288928986e-02
4.505000000000000000e+03 9.707302093505859375e+00 -1.722062110900878906e+01 1.062446758151054382e-01 -4.852336943149566650e-01 -1.136967018246650696e-01 -3.450137078762054443e-01
4.506000000000000000e+03 1.224980640411376953e+01 -1.435420513153076172e+01 1.362353116273880005e-01 -4.131361842155456543e-01 -8.307026326656341553e-02 -4.069635868072509766e-01
4.507000000000000000e+03 1.189314270019531250e+01 -3.529908752441406250e+01 9.908391535282135010e-02 -4.932270944118499756e-01 -1.182429566979408264e-01 -9.920272976160049438e-02
4.508000000000000000e+03 3.653634262084960938e+01 3.871640396118164062e+01 6.596613675355911255e-02 5.992817506194114685e-02 3.776829317212104797e-02 2.744502760469913483e-02
4.509000000000000000e+03 3.462575531005859375e+01 3.490484619140625000e+01 5.458650738000869751e-02 7.145988941192626953e-02 3.781392052769660950e-02 3.857354074716567993e-02
4.510000000000000000e+03 6.829557037353515625e+01 -1.000566864013671875e+01 -5.706103146076202393e-02 6.818450450897216797e+00 2.028416872024536133e+00 2.919465303421020508e-01
4.511000000000000000e+03 2.392255020141601562e+01 -3.560591888427734375e+01 3.108218014240264893e-01 2.201166152954101562e-01 1.592815220355987549e-01 -1.820557862520217896e-01
4.512000000000000000e+03 7.241812133789062500e+01 4.113468933105468750e+01 -1.112724319100379944e-01 8.402999877929687500e+00 2.487518310546875000e+00 5.430369824171066284e-02
4.513000000000000000e+03 1.244104290008544922e+01 -2.691581726074218750e+01 1.204545497894287109e-01 -4.174641072750091553e-01 -8.910287171602249146e-02 -2.212824672460556030e-01
4.514000000000000000e+03 9.960138320922851562e+00 -2.603568458557128906e+01 9.217116236686706543e-02 -5.567066073417663574e-01 -1.393606364727020264e-01 -2.094693630933761597e-01
4.515000000000000000e+03 5.076603317260742188e+01 -3.248753356933593750e+01 3.462260663509368896e-01 3.828770399093627930e+00 1.252498984336853027e+00 3.684869706630706787e-01
4.516000000000000000e+03 4.836845016479492188e+01 -1.808872795104980469e+01 -6.549078971147537231e-02 2.774272441864013672e+00 8.126345276832580566e-01 2.553814090788364410e-02
4.517000000000000000e+03 1.009589004516601562e+01 3.572392272949218750e+01 -6.555254105478525162e-03 -2.292357943952083588e-02 -8.843650110065937042e-03 -4.565422888845205307e-03
4.518000000000000000e+03 8.198983192443847656e+00 3.325887298583984375e+01 -5.713836755603551865e-03 -3.882394358515739441e-02 -1.336133480072021484e-02 -7.180595770478248596e-03
4.519000000000000000e+03 2.753322982788085938e+01 -3.879150009155273438e+01 4.778006672859191895e-01 3.373807072639465332e-01 2.445544153451919556e-01 -1.424506604671478271e-01
4.520000000000000000e+03 2.651156425476074219e+01 1.754713654518127441e+00 -1.272203683853149414e+00 -4.201790094375610352e-01 -5.077148079872131348e-01 -4.553111791610717773e-01
4.521000000000000000e+03 2.777022933959960938e+01 7.945821434259414673e-02 -4.194145500659942627e-01 -3.744341433048248291e-01 -2.381546050310134888e-01 -9.396902471780776978e-02
4.522000000000000000e+03 2.789320182800292969e+01 2.418343067169189453e+00 -1.211208105087280273e+00 -5.545255541801452637e-01 -5.297200679779052734e-01 -4.445758163928985596e-01
4.523000000000000000e+03 4.264903259277343750e+01 1.831466674804687500e+01 -5.720864534378051758e-01 -2.081743925809860229e-01 -2.340782582759857178e-01 -4.736086130142211914e-01
4.524000000000000000e+03 2.734432792663574219e+01 1.747316867113113403e-01 -4.092890322208404541e-01 -3.285342752933502197e-01 -2.213470041751861572e-01 -1.158730909228324890e-01
4.525000000000000000e+03 4.882372665405273438e+01 2.385659980773925781e+01 -2.946669161319732666e-01 3.979244530200958252e-01 3.097725845873355865e-02 5.492530018091201782e-02
4.526000000000000000e+03 4.833342361450195312e+01 2.450035285949707031e+01 -3.796995282173156738e-01 1.275267899036407471e-01 -7.565182447433471680e-02 -1.176752597093582153e-01
4.527000000000000000e+03 4.779072189331054688e+01 2.322444343566894531e+01 -3.868059217929840088e-01 2.276161462068557739e-01 -4.775692895054817200e-02 -7.626530528068542480e-02
4.528000000000000000e+03 2.777768707275390625e+01 1.538312792778015137e+00 -8.863717913627624512e-01 -4.445776641368865967e-01 -3.992848396301269531e-01 -2.645510733127593994e-01
4.529000000000000000e+03 4.867842483520507812e+01 2.476162910461425781e+01 -3.498120307922363281e-01 1.677367836236953735e-01 -5.462257936596870422e-02 -7.892724871635437012e-02
4.530000000000000000e+03 3.773409271240234375e+01 1.271854782104492188e+01 -7.204215526580810547e-01 -4.908281564712524414e-01 -3.633748888969421387e-01 -6.049359440803527832e-01
4.531000000000000000e+03 3.791427612304687500e+01 1.329017353057861328e+01 -7.349522709846496582e-01 -5.171927213668823242e-01 -3.756434917449951172e-01 -6.284514665603637695e-01
4.532000000000000000e+03 4.051585006713867188e+01 1.617954826354980469e+01 -6.623400449752807617e-01 -3.471466898918151855e-01 -3.028460144996643066e-01 -5.603330135345458984e-01
4.533000000000000000e+03 4.499522018432617188e+01 2.010470962524414062e+01 -4.770841896533966064e-01 3.020131960511207581e-02 -1.340648531913757324e-01 -2.683160305023193359e-01
4.534000000000000000e+03 5.396795272827148438e+01 2.890884780883789062e+01 3.440059423446655273e-01 1.084633469581604004e+00 4.285918474197387695e-01 6.920833587646484375e-01
4.535000000000000000e+03 2.574489974975585938e+01 2.109521484375000000e+01 5.508943647146224976e-02 1.081680282950401306e-01 4.897724092006683350e-02 7.975344359874725342e-02
4.536000000000000000e+03 4.540811538696289062e+01 2.064192771911621094e+01 -4.737598001956939697e-01 4.546837508678436279e-02 -1.284874230623245239e-01 -2.448308318853378296e-01
4.537000000000000000e+03 4.465989685058593750e+01 2.029845619201660156e+01 -5.090166330337524414e-01 -7.092151790857315063e-02 -1.739814430475234985e-01 -3.284035027027130127e-01
4.538000000000000000e+03 4.922877502441406250e+01 2.463777160644531250e+01 -2.768625617027282715e-01 3.558312356472015381e-01 2.369059622287750244e-02 5.655089765787124634e-02
4.539000000000000000e+03 4.904786300659179688e+01 2.502797698974609375e+01 -3.077235817909240723e-01 2.155961990356445312e-01 -2.763820998370647430e-02 -3.220502287149429321e-02
4.540000000000000000e+03 5.520367050170898438e+01 2.914579772949218750e+01 6.839903593063354492e-01 1.676283121109008789e+00 7.080820202827453613e-01 1.118675708770751953e+00
4.541000000000000000e+03 1.580347633361816406e+01 1.140636062622070312e+01 6.361444294452667236e-02 2.105337381362915039e-01 8.224445581436157227e-02 1.021933928132057190e-01
4.542000000000000000e+03 1.805956459045410156e+01 1.325385665893554688e+01 7.237226516008377075e-02 1.724678426980972290e-01 7.345203310251235962e-02 1.083888411521911621e-01
4.543000000000000000e+03 4.970921325683593750e+01 2.605446624755859375e+01 -2.743611335754394531e-01 1.713444292545318604e-01 -3.090500831604003906e-02 -1.916621439158916473e-02
4.544000000000000000e+03 4.702205657958984375e+01 2.294467735290527344e+01 -4.508170187473297119e-01 7.263045758008956909e-02 -1.134559735655784607e-01 -1.826308071613311768e-01
4.545000000000000000e+03 3.802450561523437500e+01 1.293609523773193359e+01 -7.082101106643676758e-01 -4.612550437450408936e-01 -3.508395552635192871e-01 -5.916262269020080566e-01
4.546000000000000000e+03 4.561646270751953125e+01 2.090731430053710938e+01 -4.705647528171539307e-01 5.566043034195899963e-02 -1.244712993502616882e-01 -2.335542291402816772e-01
4.547000000000000000e+03 5.249387741088867188e+01 2.849578666687011719e+01 6.928399205207824707e-02 5.335400104522705078e-01 1.808471977710723877e-01 3.360314965248107910e-01
4.548000000000000000e+03 1.365751457214355469e+01 9.470872879028320312e+00 5.629215389490127563e-02 2.662774622440338135e-01 9.677088260650634766e-02 6.267376989126205444e-02
4.549000000000000000e+03 3.634461975097656250e+01 1.087260627746582031e+01 -7.447560429573059082e-01 -5.277318358421325684e-01 -3.817463517189025879e-01 -6.095161437988281250e-01
4.550000000000000000e+03 4.011620712280273438e+01 1.596014213562011719e+01 -6.853374838829040527e-01 -3.952968716621398926e-01 -3.241903185844421387e-01 -5.845652222633361816e-01
4.551000000000000000e+03 4.106877136230468750e+01 1.584271526336669922e+01 -6.150518655776977539e-01 -2.089341878890991211e-01 -2.471958249807357788e-01 -4.793716073036193848e-01
4.552000000000000000e+03 1.776103973388671875e+01 1.431726551055908203e+01 5.750042572617530823e-02 1.622305661439895630e-01 6.591929495334625244e-02 9.376967698335647583e-02
4.553000000000000000e+03 3.826800155639648438e+01 1.334654426574707031e+01 -7.090376615524291992e-01 -4.674714505672454834e-01 -3.529527485370635986e-01 -5.951809883117675781e-01
4.554000000000000000e+03 3.815635299682617188e+01 1.382679271697998047e+01 -7.344446778297424316e-01 -5.261203646659851074e-01 -3.781695067882537842e-01 -6.370739340782165527e-01
4.555000000000000000e+03 2.516094017028808594e+01 1.982525062561035156e+01 6.301569193601608276e-02 1.122526526451110840e-01 5.258050560951232910e-02 8.535779267549514771e-02
4.556000000000000000e+03 5.117190933227539062e+01 2.692599296569824219e+01 -1.032804325222969055e-01 4.505855143070220947e-01 1.041915193200111389e-01 2.298265397548675537e-01
4.557000000000000000e+03 5.150145721435546875e+01 2.709980773925781250e+01 -5.387386679649353027e-02 5.331322550773620605e-01 1.437775194644927979e-01 2.928065657615661621e-01
4.558000000000000000e+03 4.480189895629882812e+01 1.983430862426757812e+01 -4.766809344291687012e-01 2.595439366996288300e-02 -1.352179646492004395e-01 -2.742740511894226074e-01
4.559000000000000000e+03 2.230984306335449219e+01 1.811730766296386719e+01 5.970801413059234619e-02 1.271273344755172729e-01 5.605060234665870667e-02 8.911149203777313232e-02
4.560000000000000000e+03 3.837986755371093750e+01 1.363370132446289062e+01 -7.188608646392822266e-01 -4.772525429725646973e-01 -3.588340282440185547e-01 -6.059613227844238281e-01
4.561000000000000000e+03 4.582848358154296875e+01 2.117188835144042969e+01 -4.664254784584045410e-01 6.546307355165481567e-02 -1.202887222170829773e-01 -2.203234881162643433e-01
4.562000000000000000e+03 4.552416992187500000e+01 2.139183044433593750e+01 -5.013654232025146484e-01 -4.054269939661026001e-02 -1.625724285840988159e-01 -2.856550514698028564e-01
4.563000000000000000e+03 5.332551574707031250e+01 2.857911300659179688e+01 2.295883744955062866e-01 9.104040861129760742e-01 3.419977426528930664e-01 5.819033980369567871e-01
4.564000000000000000e+03 5.212171554565429688e+01 2.762270545959472656e+01 2.888637408614158630e-02 6.326823234558105469e-01 1.984706073999404907e-01 3.865067362785339355e-01
4.565000000000000000e+03 4.383033370971679688e+01 1.958663940429687500e+01 -5.325696468353271484e-01 -1.440144032239913940e-01 -2.029752135276794434e-01 -3.947029709815979004e-01
4.566000000000000000e+03 2.293631935119628906e+01 1.913563728332519531e+01 5.643108859658241272e-02 1.207005977630615234e-01 5.313950404524803162e-02 8.395052701234817505e-02
4.567000000000000000e+03 2.178830146789550781e+01 1.807847023010253906e+01 5.796737223863601685e-02 1.281573623418807983e-01 5.583741888403892517e-02 8.731215447187423706e-02
4.568000000000000000e+03 3.917282867431640625e+01 1.434156799316406250e+01 -6.850505471229553223e-01 -4.007419347763061523e-01 -3.257377445697784424e-01 -5.677339434623718262e-01
4.569000000000000000e+03 5.084803771972656250e+01 2.677910804748535156e+01 -1.371110528707504272e-01 3.782559335231781006e-01 7.234346121549606323e-02 1.692800670862197876e-01
4.570000000000000000e+03 1.074353981018066406e+01 1.192000579833984375e+01 3.924538567662239075e-02 1.025090068578720093e-01 4.252631962299346924e-02 -6.382569205015897751e-03
4.571000000000000000e+03 4.728468704223632812e+01 2.270209503173828125e+01 -4.140775501728057861e-01 1.828044056892395020e-01 -6.938194483518600464e-02 -1.135433688759803772e-01
4.572000000000000000e+03 3.979730606079101562e+01 1.566608428955078125e+01 -6.971942186355590820e-01 -4.249829649925231934e-01 -3.366531431674957275e-01 -5.956845283508300781e-01
4.573000000000000000e+03 4.068241500854492188e+01 1.574517917633056641e+01 -6.359078884124755859e-01 -2.661098241806030273e-01 -2.706053256988525391e-01 -5.103517770767211914e-01
4.574000000000000000e+03 5.241454315185546875e+01 2.750688362121582031e+01 8.294500410556793213e-02 7.986108064651489258e-01 2.644667625427246094e-01 4.902880489826202393e-01
4.575000000000000000e+03 2.098034858703613281e+01 1.656138420104980469e+01 6.458418071269989014e-02 1.370801627635955811e-01 6.049930676817893982e-02 9.421281516551971436e-02
4.576000000000000000e+03 3.571231460571289062e+01 1.095360183715820312e+01 -7.876768112182617188e-01 -6.256424784660339355e-01 -4.239957928657531738e-01 -6.719553470611572266e-01
4.577000000000000000e+03 3.691613006591796875e+01 1.186550235748291016e+01 -7.395210266113281250e-01 -5.265831351280212402e-01 -3.798312544822692871e-01 -6.228440403938293457e-01
4.578000000000000000e+03 3.938723373413085938e+01 1.464055061340332031e+01 -6.863348484039306641e-01 -3.972077965736389160e-01 -3.250628113746643066e-01 -5.652608871459960938e-01
4.579000000000000000e+03 3.914368820190429688e+01 1.483899784088134766e+01 -7.143012881278991699e-01 -4.611802697181701660e-01 -3.526444733142852783e-01 -6.063586473464965820e-01
4.580000000000000000e+03 4.604950714111328125e+01 2.143683242797851562e+01 -4.608516097068786621e-01 7.902101427316665649e-02 -1.145491749048233032e-01 -2.077114433050155640e-01
4.581000000000000000e+03 4.430962753295898438e+01 1.973082733154296875e+01 -5.060029625892639160e-01 -6.286565214395523071e-02 -1.706605851650238037e-01 -3.399927318096160889e-01
4.582000000000000000e+03 2.285081863403320312e+01 1.861287689208984375e+01 5.897661671042442322e-02 1.227262988686561584e-01 5.451087281107902527e-02 8.767651766538619995e-02
4.583000000000000000e+03 4.981535339355468750e+01 2.572867202758789062e+01 -2.335447520017623901e-01 3.006478846073150635e-01 2.013094164431095123e-02 6.352286040782928467e-02
4.584000000000000000e+03 1.959523010253906250e+01 1.530540084838867188e+01 6.640858948230743408e-02 1.495077610015869141e-01 6.477490067481994629e-02 9.823814779520034790e-02
4.585000000000000000e+03 5.366675186157226562e+01 2.837944602966308594e+01 2.820821106433868408e-01 1.123545527458190918e+00 4.216882884502410889e-01 7.103515267372131348e-01
4.586000000000000000e+03 1.725368690490722656e+01 1.487572288513183594e+01 4.639093577861785889e-02 1.566185355186462402e-01 6.090284138917922974e-02 8.226600289344787598e-02
4.587000000000000000e+03 5.919623565673828125e+01 2.972523117065429688e+01 1.153730988502502441e+00 5.835205078125000000e+00 2.096680879592895508e+00 3.315753936767578125e+00
4.588000000000000000e+03 5.965863037109375000e+01 3.009405326843261719e+01 1.232389450073242188e+00 6.630706787109375000e+00 2.358928918838500977e+00 3.665616512298583984e+00
4.589000000000000000e+03 5.096237182617187500e+01 2.638993835449218750e+01 -1.097233593463897705e-01 5.207011103630065918e-01 1.232933253049850464e-01 2.515138387680053711e-01
4.590000000000000000e+03 5.034893035888671875e+01 2.612683296203613281e+01 -1.732804924249649048e-01 3.708428740501403809e-01 5.926871299743652344e-02 1.411198377609252930e-01
4.591000000000000000e+03 5.064245986938476562e+01 2.624901962280273438e+01 -1.478876769542694092e-01 4.379393160343170166e-01 8.701548725366592407e-02 1.887722760438919067e-01
4.592000000000000000e+03 2.283223724365234375e+01 1.810238265991210938e+01 6.495431810617446899e-02 1.248403713107109070e-01 5.693840608000755310e-02 9.103763103485107422e-02
4.593000000000000000e+03 2.557246589660644531e+01 2.063624763488769531e+01 5.748175084590911865e-02 1.094980388879776001e-01 5.009393766522407532e-02 8.229535818099975586e-02
4.594000000000000000e+03 2.588905906677246094e+01 2.145133972167968750e+01 5.310820043087005615e-02 1.058394238352775574e-01 4.768428951501846313e-02 7.868611067533493042e-02
4.595000000000000000e+03 2.030900001525878906e+01 1.603091239929199219e+01 6.567854434251785278e-02 1.427131146192550659e-01 6.251750141382217407e-02 9.545718133449554443e-02
4.596000000000000000e+03 2.007809638977050781e+01 1.563636589050292969e+01 6.663579493761062622e-02 1.451340168714523315e-01 6.353094428777694702e-02 9.708686918020248413e-02
4.597000000000000000e+03 4.368618774414062500e+01 1.898030281066894531e+01 -5.177018642425537109e-01 -8.425187319517135620e-02 -1.805861145257949829e-01 -3.788547217845916748e-01
4.598000000000000000e+03 4.373607254028320312e+01 1.928202819824218750e+01 -5.272951722145080566e-01 -1.151305958628654480e-01 -1.927277296781539917e-01 -3.882515132427215576e-01
4.599000000000000000e+03 4.138554000854492188e+01 1.636213493347167969e+01 -6.061458587646484375e-01 -2.026864141225814819e-01 -2.426496744155883789e-01 -4.824115335941314697e-01
4.600000000000000000e+03 3.009740257263183594e+01 2.706805419921875000e+01 4.034616425633430481e-02 8.688379824161529541e-02 3.816898912191390991e-02 6.408461928367614746e-02
4.601000000000000000e+03 3.207281875610351562e+01 2.851853179931640625e+01 4.832137376070022583e-02 8.183831721544265747e-02 3.904790803790092468e-02 5.870531499385833740e-02
4.602000000000000000e+03 3.667157363891601562e+01 1.137126350402832031e+01 -7.442557215690612793e-01 -5.254076123237609863e-01 -3.808989822864532471e-01 -6.112946271896362305e-01
4.603000000000000000e+03 2.490139579772949219e+01 2.077498817443847656e+01 5.429460480809211731e-02 1.111615300178527832e-01 4.963684082031250000e-02 7.969739288091659546e-02
4.604000000000000000e+03 3.970932769775390625e+01 1.510132598876953125e+01 -6.837934851646423340e-01 -3.877285420894622803e-01 -3.214566111564636230e-01 -5.656087994575500488e-01
4.605000000000000000e+03 4.676529693603515625e+01 2.269329071044921875e+01 -4.636198878288269043e-01 5.046134442090988159e-02 -1.239475607872009277e-01 -2.004790306091308594e-01
4.606000000000000000e+03 2.064846420288085938e+01 1.616377067565917969e+01 6.636098027229309082e-02 1.404894888401031494e-01 6.205513700842857361e-02 9.552983194589614868e-02
4.607000000000000000e+03 2.467715263366699219e+01 2.019299888610839844e+01 5.699177831411361694e-02 1.131794527173042297e-01 5.105136707425117493e-02 8.324214071035385132e-02
4.608000000000000000e+03 2.414635658264160156e+01 1.926235008239746094e+01 6.217742338776588440e-02 1.170295327901840210e-01 5.376208573579788208e-02 8.731107413768768311e-02
4.609000000000000000e+03 5.726075744628906250e+01 2.944011306762695312e+01 1.161901473999023438e+00 3.134769439697265625e+00 1.289001345634460449e+00 2.133709192276000977e+00
4.610000000000000000e+03 5.876092147827148438e+01 2.980481147766113281e+01 1.310480833053588867e+00 4.964939594268798828e+00 1.882626056671142578e+00 3.104364633560180664e+00
4.611000000000000000e+03 4.628235626220703125e+01 2.169928359985351562e+01 -4.561124444007873535e-01 9.608653932809829712e-02 -1.080077663064002991e-01 -1.911785900592803955e-01
4.612000000000000000e+03 4.652504348754882812e+01 2.195525550842285156e+01 -4.479752480983734131e-01 1.152646765112876892e-01 -9.981317073106765747e-02 -1.725579351186752319e-01
4.613000000000000000e+03 1.937846183776855469e+01 1.497278976440429688e+01 6.806188076734542847e-02 1.512207835912704468e-01 6.578479707241058350e-02 9.958257526159286499e-02
4.614000000000000000e+03 3.725994873046875000e+01 1.204274559020996094e+01 -7.291029691696166992e-01 -4.957303702831268311e-01 -3.674499988555908203e-01 -6.031727790832519531e-01
4.615000000000000000e+03 3.744861984252929688e+01 1.253447437286376953e+01 -7.373564839363098145e-01 -5.175453424453735352e-01 -3.764705359935760498e-01 -6.195537447929382324e-01
4.616000000000000000e+03 4.753944015502929688e+01 2.295796775817871094e+01 -3.999456465244293213e-01 2.060485035181045532e-01 -5.816914141178131104e-02 -9.458419680595397949e-02
4.617000000000000000e+03 3.135322380065917969e+01 -5.763915181159973145e-01 -8.165185153484344482e-02 -3.443455994129180908e-01 -1.277992278337478638e-01 8.395229466259479523e-03
4.618000000000000000e+03 3.045743560791015625e+01 3.476297140121459961e+00 -9.656434059143066406e-01 -5.212162137031555176e-01 -4.460578858852386475e-01 -3.623617589473724365e-01
4.619000000000000000e+03 2.131766700744628906e+01 1.745179367065429688e+01 5.924978852272033691e-02 1.325684934854507446e-01 5.754548311233520508e-02 8.940188586711883545e-02
4.620000000000000000e+03 2.095195770263671875e+01 1.693099975585937500e+01 6.132286787033081055e-02 1.362886726856231689e-01 5.928346514701843262e-02 9.136022627353668213e-02
4.621000000000000000e+03 1.373039054870605469e+01 8.421912193298339844e+00 6.790550798177719116e-02 3.170206844806671143e-01 1.154778525233268738e-01 7.187516987323760986e-02
4.622000000000000000e+03 3.483470916748046875e+01 9.485159873962402344e+00 -7.775840163230895996e-01 -6.070901751518249512e-01 -4.154022634029388428e-01 -6.409627199172973633e-01
4.623000000000000000e+03 3.679019927978515625e+01 1.097259330749511719e+01 -7.173538208007812500e-01 -4.719757139682769775e-01 -3.567988574504852295e-01 -5.721665620803833008e-01
4.624000000000000000e+03 4.242543411254882812e+01 1.784966659545898438e+01 -5.655801296234130859e-01 -1.776231676340103149e-01 -2.229609787464141846e-01 -4.639101624488830566e-01
4.625000000000000000e+03 4.329828262329101562e+01 1.874369430541992188e+01 -5.388990044593811035e-01 -1.321822553873062134e-01 -2.013243734836578369e-01 -4.183254837989807129e-01
4.626000000000000000e+03 5.966336059570312500e+01 2.935689926147460938e+01 7.568431496620178223e-01 6.904614448547363281e+00 2.298437118530273438e+00 3.325214862823486328e+00
4.627000000000000000e+03 2.789662170410156250e+01 5.101649761199951172e-01 -4.833625555038452148e-01 -4.031403064727783203e-01 -2.659508585929870605e-01 -1.425728052854537964e-01
4.628000000000000000e+03 2.831118774414062500e+01 3.965638279914855957e-01 -4.873834550380706787e-01 -3.943283259868621826e-01 -2.645135521888732910e-01 -8.540496230125427246e-02
4.629000000000000000e+03 3.584847259521484375e+01 9.742879867553710938e+00 -7.284682989120483398e-01 -4.896380901336669922e-01 -3.654319345951080322e-01 -5.725855827331542969e-01
4.630000000000000000e+03 2.730304718017578125e+01 2.372645759582519531e+01 4.468395933508872986e-02 9.996430575847625732e-02 4.339447990059852600e-02 7.331151515245437622e-02
4.631000000000000000e+03 3.282622909545898438e+01 4.772873401641845703e+00 -7.795505523681640625e-01 -4.086679816246032715e-01 -3.564655482769012451e-01 -4.271246492862701416e-01
4.632000000000000000e+03 4.293162918090820312e+01 1.874541091918945312e+01 -5.616981983184814453e-01 -2.091753184795379639e-01 -2.312620580196380615e-01 -4.658256769180297852e-01
4.633000000000000000e+03 1.304509258270263672e+01 7.783164978027343750e+00 7.172476500272750854e-02 3.368043303489685059e-01 1.225587278604507446e-01 2.696052193641662598e-02
4.634000000000000000e+03 1.327095127105712891e+01 8.664564132690429688e+00 6.068165972828865051e-02 2.948877811431884766e-01 1.066708266735076904e-01 4.727648571133613586e-02
4.635000000000000000e+03 1.668825912475585938e+01 1.194220352172851562e+01 7.039329409599304199e-02 1.973616033792495728e-01 8.032646775245666504e-02 1.087802052497863770e-01
4.636000000000000000e+03 1.736894226074218750e+01 1.256232833862304688e+01 7.179382443428039551e-02 1.833067536354064941e-01 7.653017342090606689e-02 1.107964664697647095e-01
4.637000000000000000e+03 2.910163688659667969e+01 2.208652257919311523e+00 -9.213096499443054199e-01 -5.037389993667602539e-01 -4.275146126747131348e-01 -2.621798217296600342e-01
4.638000000000000000e+03 1.643510055541992188e+01 1.168034267425537109e+01 6.953307241201400757e-02 2.017642706632614136e-01 8.138920366764068604e-02 1.092669293284416199e-01
4.639000000000000000e+03 2.337699317932128906e+01 1.851479339599609375e+01 6.498228758573532104e-02 1.214741170406341553e-01 5.593692138791084290e-02 8.973272889852523804e-02
4.640000000000000000e+03 5.958115768432617188e+01 2.970406341552734375e+01 9.892371892929077148e-01 6.607389926910400391e+00 2.278988122940063477e+00 3.460008382797241211e+00
4.641000000000000000e+03 6.122401428222656250e+01 2.965709495544433594e+01 -1.090283878147602081e-02 1.028138923645019531e+01 3.081145763397216797e+00 3.032084226608276367e+00
4.642000000000000000e+03 3.082862854003906250e+01 2.695951843261718750e+01 4.808625951409339905e-02 8.606262505054473877e-02 4.024466499686241150e-02 6.417303532361984253e-02
4.643000000000000000e+03 2.924496841430664062e+01 2.659116554260253906e+01 3.831313923001289368e-02 8.942446857690811157e-02 3.832128271460533142e-02 6.434516608715057373e-02
4.644000000000000000e+03 1.695235061645507812e+01 1.244089698791503906e+01 6.848558783531188965e-02 1.886184066534042358e-01 7.713119685649871826e-02 1.065313369035720825e-01
4.645000000000000000e+03 1.484155941009521484e+01 1.147187995910644531e+01 5.247886478900909424e-02 2.113246917724609375e-01 7.914106547832489014e-02 7.930756360292434692e-02
4.646000000000000000e+03 3.643356704711914062e+01 1.048479461669921875e+01 -7.200688123703002930e-01 -4.765089750289916992e-01 -3.589733541011810303e-01 -5.721737146377563477e-01
4.647000000000000000e+03 3.019219398498535156e+01 2.782941436767578125e+01 4.301386326551437378e-02 8.625974506139755249e-02 3.878208249807357788e-02 5.964396148920059204e-02
4.648000000000000000e+03 3.089288902282714844e+01 2.762599372863769531e+01 4.126222804188728333e-02 8.515135943889617920e-02 3.792407736182212830e-02 6.216752901673316956e-02
4.649000000000000000e+03 2.750821685791015625e+01 2.475032043457031250e+01 3.857020661234855652e-02 9.702982753515243530e-02 4.068000987172126770e-02 6.740203499794006348e-02
4.650000000000000000e+03 1.459196758270263672e+01 1.121513652801513672e+01 5.025972798466682434e-02 2.131243199110031128e-01 7.901521772146224976e-02 7.633575052022933960e-02
4.651000000000000000e+03 3.107864189147949219e+01 3.775402545928955078e+00 -9.200399518013000488e-01 -4.794470071792602539e-01 -4.198460876941680908e-01 -3.701756894588470459e-01
4.652000000000000000e+03 2.873328018188476562e+01 2.510487174987792969e+01 4.610552638769149780e-02 9.210462868213653564e-02 4.146304726600646973e-02 6.824498623609542847e-02
4.653000000000000000e+03 2.945815849304199219e+01 2.536550521850585938e+01 4.717384278774261475e-02 9.052641689777374268e-02 4.131007567048072815e-02 6.823960691690444946e-02
4.654000000000000000e+03 1.154928588867187500e+01 7.557406902313232422e+00 1.130461841821670532e-01 2.246354818344116211e-01 1.013045012950897217e-01 -5.255515128374099731e-02
4.655000000000000000e+03 1.288298130035400391e+01 9.355086326599121094e+00 5.521405488252639771e-02 2.469541430473327637e-01 9.065046161413192749e-02 2.879699319601058960e-02
4.656000000000000000e+03 5.399922943115234375e+01 2.807410812377929688e+01 3.410635292530059814e-01 1.362075924873352051e+00 5.109418630599975586e-01 8.713485002517700195e-01
4.657000000000000000e+03 2.660544967651367188e+01 2.234292411804199219e+01 5.017088726162910461e-02 1.034345030784606934e-01 4.608161747455596924e-02 7.671473175287246704e-02
4.658000000000000000e+03 2.749276351928710938e+01 2.429396820068359375e+01 4.404760152101516724e-02 9.748783707618713379e-02 4.246063157916069031e-02 7.092050462961196899e-02
4.659000000000000000e+03 3.480435180664062500e+01 7.124438285827636719e+00 -6.702932119369506836e-01 -4.066566824913024902e-01 -3.230849504470825195e-01 -4.778915345668792725e-01
4.660000000000000000e+03 3.499095153808593750e+01 6.499660015106201172e+00 -6.257970333099365234e-01 -3.213815987110137939e-01 -2.841536104679107666e-01 -4.047878086566925049e-01
4.661000000000000000e+03 3.524381637573242188e+01 1.032861614227294922e+01 -7.981992363929748535e-01 -6.300430893898010254e-01 -4.284726977348327637e-01 -6.684530377388000488e-01
4.662000000000000000e+03 5.759953308105468750e+01 2.953075027465820312e+01 1.217446923255920410e+00 3.425028562545776367e+00 1.392742633819580078e+00 2.323550701141357422e+00
4.663000000000000000e+03 2.660788154602050781e+01 2.291155052185058594e+01 4.663851857185363770e-02 1.025433763861656189e-01 4.475456848740577698e-02 7.449246197938919067e-02
4.664000000000000000e+03 2.689694976806640625e+01 2.253982543945312500e+01 5.023358017206192017e-02 1.012681573629379272e-01 4.545052349567413330e-02 7.479470968246459961e-02
4.665000000000000000e+03 2.895958137512207031e+01 2.558931732177734375e+01 4.162024706602096558e-02 9.231696277856826782e-02 4.018116369843482971e-02 6.936537474393844604e-02
4.666000000000000000e+03 1.260462284088134766e+01 7.071290969848632812e+00 9.046314656734466553e-02 3.584074676036834717e-01 1.346611827611923218e-01 -1.380963530391454697e-02
4.667000000000000000e+03 2.916265487670898438e+01 2.603565025329589844e+01 4.400921612977981567e-02 9.010852128267288208e-02 4.023532196879386902e-02 6.502191722393035889e-02
4.668000000000000000e+03 3.270819091796875000e+01 3.159940338134765625e+01 4.846550896763801575e-02 7.797425985336303711e-02 3.793193027377128601e-02 5.141485482454299927e-02
4.669000000000000000e+03 3.190864372253417969e+01 3.053597450256347656e+01 4.453899338841438293e-02 8.151603490114212036e-02 3.781650960445404053e-02 5.508188158273696899e-02
4.670000000000000000e+03 3.612093734741210938e+01 9.551204681396484375e+00 -6.899961233139038086e-01 -4.428959786891937256e-01 -3.398676216602325439e-01 -5.330199003219604492e-01
4.671000000000000000e+03 3.486845016479492188e+01 8.613415718078613281e+00 -7.366859316825866699e-01 -5.297923684120178223e-01 -3.799434900283813477e-01 -5.792639851570129395e-01
4.672000000000000000e+03 3.223413848876953125e+01 3.139208316802978516e+00 -6.809881925582885742e-01 -3.593381047248840332e-01 -3.120979070663452148e-01 -2.389335185289382935e-01
4.673000000000000000e+03 4.218078613281250000e+01 1.692846488952636719e+01 -5.636540651321411133e-01 -1.211462914943695068e-01 -2.054401040077209473e-01 -4.337944686412811279e-01
4.674000000000000000e+03 6.709855651855468750e+01 2.595678710937500000e+01 -7.345755100250244141e-01 9.855521202087402344e+00 2.736283540725708008e+00 -1.054439067840576172e+00
4.675000000000000000e+03 5.772663497924804688e+01 2.914870262145996094e+01 1.089561343193054199e+00 3.808523178100585938e+00 1.469425320625305176e+00 2.421513319015502930e+00
4.676000000000000000e+03 5.783977890014648438e+01 2.975060272216796875e+01 1.342800498008728027e+00 3.575342655181884766e+00 1.475443005561828613e+00 2.469150066375732422e+00
4.677000000000000000e+03 1.983114814758300781e+01 1.552750587463378906e+01 6.486345827579498291e-02 1.465266644954681396e-01 6.341703981161117554e-02 9.694241732358932495e-02
4.678000000000000000e+03 6.100352859497070312e+01 2.999436378479003906e+01 2.926744818687438965e-01 1.003918361663818359e+01 3.099557399749755859e+00 3.436401367187500000e+00
4.679000000000000000e+03 3.366039276123046875e+01 -1.440736889839172363e+00 9.713855385780334473e-02 -1.638019382953643799e-01 -1.999901235103607178e-02 5.298785492777824402e-02
4.680000000000000000e+03 3.482909393310546875e+01 -3.382524251937866211e+00 2.719276845455169678e-01 -4.380749911069869995e-02 6.843605637550354004e-02 3.749188780784606934e-02
4.681000000000000000e+03 2.967500114440917969e+01 -4.502799808979034424e-01 -1.164105236530303955e-01 -3.796376585960388184e-01 -1.488144546747207642e-01 8.615579456090927124e-03
4.682000000000000000e+03 2.933038711547851562e+01 2.607590913772583008e+00 -9.554550051689147949e-01 -5.488513708114624023e-01 -4.512919187545776367e-01 -3.239866197109222412e-01
4.683000000000000000e+03 3.486439514160156250e+01 5.674381732940673828e+00 -5.971950888633728027e-01 -2.644852399826049805e-01 -2.585040926933288574e-01 -3.495728373527526855e-01
4.684000000000000000e+03 1.155297660827636719e+01 1.761323165893554688e+01 2.849333919584751129e-03 6.732650101184844971e-02 2.105274982750415802e-02 3.099684603512287140e-03
4.685000000000000000e+03 1.099043273925781250e+01 1.698890495300292969e+01 5.069694016128778458e-03 6.027830764651298523e-02 1.960440166294574738e-02 -4.549442091956734657e-04
4.686000000000000000e+03 1.043311786651611328e+01 1.758984947204589844e+01 1.708342228084802628e-03 4.575500264763832092e-02 1.423900295048952103e-02 -5.968084093183279037e-03
4.687000000000000000e+03 3.043643569946289062e+01 3.070256233215332031e+00 -9.214636087417602539e-01 -4.950995147228240967e-01 -4.249689280986785889e-01 -3.090019822120666504e-01
4.688000000000000000e+03 9.295167922973632812e+00 1.170743656158447266e+01 4.736002907156944275e-02 4.974315688014030457e-02 2.913095615804195404e-02 -1.636917144060134888e-02
4.689000000000000000e+03 9.310315132141113281e+00 8.322886466979980469e+00 1.233837679028511047e-01 3.263283148407936096e-02 4.680497944355010986e-02 -3.269824013113975525e-02
4.690000000000000000e+03 3.301700592041015625e+01 -1.691238403320312500e+00 1.337606459856033325e-01 -2.390081137418746948e-01 -3.157423809170722961e-02 4.337278753519058228e-02
4.691000000000000000e+03 3.278313446044921875e+01 -1.031497955322265625e+00 4.080881550908088684e-02 -2.305153012275695801e-01 -5.691194534301757812e-02 5.235871300101280212e-02
4.692000000000000000e+03 3.159023857116699219e+01 3.270225906372070312e+01 4.173316806554794312e-02 7.822202891111373901e-02 3.598655760288238525e-02 4.735127091407775879e-02
4.693000000000000000e+03 3.398221969604492188e+01 -2.071435689926147461e+00 1.730906069278717041e-01 -1.468290090560913086e-01 7.878475822508335114e-03 5.078864842653274536e-02
4.694000000000000000e+03 3.058326530456542969e+01 2.729751586914062500e+00 -8.198294639587402344e-01 -4.577537477016448975e-01 -3.832749724388122559e-01 -2.441897690296173096e-01
4.695000000000000000e+03 3.010403633117675781e+01 -2.746765315532684326e-01 -1.550998836755752563e-01 -4.201456010341644287e-01 -1.725736558437347412e-01 -1.548300683498382568e-02
4.696000000000000000e+03 1.180180549621582031e+01 6.724979400634765625e+00 1.325313001871109009e-01 2.786122560501098633e-01 1.233430728316307068e-01 -7.125030457973480225e-02
4.697000000000000000e+03 1.204304122924804688e+01 7.276604175567626953e+00 1.039681434631347656e-01 2.896731495857238770e-01 1.180923879146575928e-01 -4.108623415231704712e-02
4.698000000000000000e+03 6.093831253051757812e+01 2.951965904235839844e+01 8.775796741247177124e-02 9.654090881347656250e+00 2.922554492950439453e+00 3.134026050567626953e+00
4.699000000000000000e+03 6.401946258544921875e+01 2.829338073730468750e+01 -7.096885442733764648e-01 1.140628623962402344e+01 3.208979129791259766e+00 1.465518325567245483e-01
4.700000000000000000e+03 3.662739562988281250e+01 -4.075751304626464844e+00 2.629115879535675049e-01 1.823018491268157959e-01 1.335640251636505127e-01 4.513521865010261536e-02
4.701000000000000000e+03 3.547962188720703125e+01 -2.912035465240478516e+00 2.209559977054595947e-01 2.285840176045894623e-02 7.314432412385940552e-02 5.152774974703788757e-02
4.702000000000000000e+03 9.562129020690917969e+00 1.018575382232666016e+01 7.312145084142684937e-02 6.168745830655097961e-02 4.044267162680625916e-02 -2.276832610368728638e-02
4.703000000000000000e+03 4.000365829467773438e+01 -5.579615116119384766e+00 2.488577663898468018e-01 7.134467959403991699e-01 2.886913716793060303e-01 5.388331413269042969e-02
4.704000000000000000e+03 3.142971420288085938e+01 2.884616851806640625e+01 3.923861682415008545e-02 8.460658788681030273e-02 3.715356066823005676e-02 5.809017643332481384e-02
4.705000000000000000e+03 6.462796020507812500e+01 2.865525627136230469e+01 -4.504579603672027588e-01 1.158780002593994141e+01 3.341202735900878906e+00 -4.107541739940643311e-01
4.706000000000000000e+03 6.913190460205078125e+01 1.938273811340332031e+01 -8.416656255722045898e-01 8.294821739196777344e+00 2.235946655273437500e+00 -7.035473585128784180e-01
4.707000000000000000e+03 6.703373718261718750e+01 2.834509658813476562e+01 -9.875454008579254150e-03 1.053746128082275391e+01 3.158275604248046875e+00 -1.426373958587646484e+00
4.708000000000000000e+03 6.625589752197265625e+01 2.593943595886230469e+00 -2.389182299375534058e-01 6.611150264739990234e+00 1.911669611930847168e+00 2.180485725402832031e-01
4.709000000000000000e+03 6.869160461425781250e+01 2.626444816589355469e+01 -4.319231510162353516e-01 9.436408042907714844e+00 2.701345682144165039e+00 -1.444315791130065918e+00
4.710000000000000000e+03 6.734277343750000000e+01 1.243748474121093750e+01 -6.133345365524291992e-01 7.331985473632812500e+00 2.015595197677612305e+00 -8.026999235153198242e-02
4.711000000000000000e+03 6.823175811767578125e+01 2.831787681579589844e+01 1.615565568208694458e-01 9.928987503051757812e+00 3.027163267135620117e+00 -1.651634335517883301e+00
4.712000000000000000e+03 6.708458709716796875e+01 2.709096908569335938e+01 -4.914086461067199707e-01 1.017988586425781250e+01 2.906543254852294922e+00 -1.221586108207702637e+00
4.713000000000000000e+03 1.364585399627685547e+01 1.066320514678955078e+01 4.894463717937469482e-02 2.192295938730239868e-01 8.045227080583572388e-02 5.577096715569496155e-02
4.714000000000000000e+03 1.050948905944824219e+01 1.372888278961181641e+01 2.257111109793186188e-02 7.736527919769287109e-02 2.998091652989387512e-02 -5.592582747340202332e-03
4.715000000000000000e+03 6.920958709716796875e+01 1.784030342102050781e+01 -7.848753929138183594e-01 8.109998703002929688e+00 2.197536945343017578e+00 -5.841100215911865234e-01
4.716000000000000000e+03 1.085023307800292969e+01 2.213082122802734375e+01 -6.649744696915149689e-03 2.555618248879909515e-02 5.671931430697441101e-03 -5.375335924327373505e-03
4.717000000000000000e+03 1.163203144073486328e+01 2.301145172119140625e+01 -7.145876996219158173e-03 3.041011281311511993e-02 6.979270838201045990e-03 -2.058429410681128502e-03
4.718000000000000000e+03 1.237466907501220703e+01 2.396597099304199219e+01 -8.021277375519275665e-03 3.659358248114585876e-02 8.571691811084747314e-03 9.363034041598439217e-04
4.719000000000000000e+03 6.936708831787109375e+01 1.351817893981933594e+01 -5.668086409568786621e-01 7.737536430358886719e+00 2.151218414306640625e+00 -2.870415449142456055e-01
4.720000000000000000e+03 6.870503997802734375e+01 1.271660614013671875e+01 -5.664199590682983398e-01 7.586680889129638672e+00 2.106078147888183594e+00 -1.981929987668991089e-01
4.721000000000000000e+03 3.791302490234375000e+01 -3.960466861724853516e+00 2.318030148744583130e-01 3.680216073989868164e-01 1.799473911523818970e-01 6.433428078889846802e-02
4.722000000000000000e+03 6.752531433105468750e+01 -5.076170921325683594e+00 -7.960473746061325073e-02 6.724930286407470703e+00 1.993597745895385742e+00 2.561504244804382324e-01
4.723000000000000000e+03 6.705525970458984375e+01 -4.284307956695556641e+00 -1.085717678070068359e-01 6.613308906555175781e+00 1.951421141624450684e+00 2.618668377399444580e-01
4.724000000000000000e+03 6.910640716552734375e+01 1.486194038391113281e+01 -6.623598933219909668e-01 7.809364318847656250e+00 2.144101381301879883e+00 -3.528520464897155762e-01
4.725000000000000000e+03 4.296482086181640625e+01 -1.114984989166259766e+01 1.316466033458709717e-01 1.402896761894226074e+00 4.603630006313323975e-01 -1.263284683227539062e-02
4.726000000000000000e+03 4.290899658203125000e+01 -1.012035369873046875e+01 1.615060120820999146e-01 1.372087955474853516e+00 4.600781798362731934e-01 7.165633141994476318e-03
4.727000000000000000e+03 6.881019592285156250e+01 2.889513206481933594e+01 3.840594887733459473e-01 9.592973709106445312e+00 2.993109941482543945e+00 -1.709283232688903809e+00
4.728000000000000000e+03 3.861265182495117188e+01 -4.493062496185302734e+00 2.554830312728881836e-01 4.838270545005798340e-01 2.217930257320404053e-01 5.557778105139732361e-02
4.729000000000000000e+03 6.544026184082031250e+01 2.755867576599121094e+01 -6.796935796737670898e-01 1.082151317596435547e+01 3.042546033859252930e+00 -6.196040511131286621e-01
4.730000000000000000e+03 6.688079833984375000e+01 2.403926849365234375e+01 -1.008354783058166504e+00 9.297221183776855469e+00 2.486659765243530273e+00 -7.023918628692626953e-01
4.731000000000000000e+03 6.641293334960937500e+01 -1.061879444122314453e+01 -4.836836084723472595e-02 6.435508728027343750e+00 1.916142106056213379e+00 3.044692277908325195e-01
4.732000000000000000e+03 6.712792205810546875e+01 -1.485904216766357422e+01 -3.129940107464790344e-02 6.549836158752441406e+00 1.955561041831970215e+00 3.128960430622100830e-01
4.733000000000000000e+03 6.981354522705078125e+01 6.353766918182373047e+00 -2.668238282203674316e-01 7.482614994049072266e+00 2.164737462997436523e+00 1.201695296913385391e-02
4.734000000000000000e+03 6.875245666503906250e+01 5.456636905670166016e+00 -2.744496762752532959e-01 7.236142635345458984e+00 2.088507890701293945e+00 7.657904922962188721e-02
4.735000000000000000e+03 1.065792751312255859e+01 2.049643898010253906e+01 -4.897187463939189911e-03 3.096807748079299927e-02 7.821267470717430115e-03 -6.364785600453615189e-03
4.736000000000000000e+03 6.762286376953125000e+01 2.905248260498046875e+01 4.291307032108306885e-01 1.037423896789550781e+01 3.241010904312133789e+00 -1.633809924125671387e+00
4.737000000000000000e+03 6.797630310058593750e+01 -1.500803351402282715e+00 -1.193404793739318848e-01 6.908300876617431641e+00 2.036688089370727539e+00 2.175740897655487061e-01
4.738000000000000000e+03 1.001218128204345703e+01 2.129663467407226562e+01 -6.175593007355928421e-03 1.377660315483808517e-02 2.280303044244647026e-03 -9.634936228394508362e-03
4.739000000000000000e+03 1.049185180664062500e+01 1.897114181518554688e+01 -1.932537998072803020e-03 3.745244070887565613e-02 1.065597124397754669e-02 -6.346416659653186798e-03
4.740000000000000000e+03 6.822397613525390625e+01 2.700330162048339844e+01 -3.253370821475982666e-01 9.702072143554687500e+00 2.813020467758178711e+00 -1.468075156211853027e+00
4.741000000000000000e+03 1.082404708862304688e+01 -1.164469623565673828e+01 4.451645910739898682e-02 -4.184750020503997803e-01 -1.121875569224357605e-01 -4.657636284828186035e-01
4.742000000000000000e+03 1.035713672637939453e+01 -1.262848567962646484e+01 8.417996019124984741e-02 -4.323227107524871826e-01 -1.044428274035453796e-01 -4.343341588973999023e-01
4.743000000000000000e+03 1.035630035400390625e+01 -1.020166397094726562e+01 -2.731156721711158752e-02 -3.883917331695556641e-01 -1.247109845280647278e-01 -4.894119799137115479e-01
4.744000000000000000e+03 6.935357666015625000e+01 -7.440061092376708984e+00 -5.122928693890571594e-02 7.084334850311279297e+00 2.109931707382202148e+00 2.516826391220092773e-01
4.745000000000000000e+03 6.695783996582031250e+01 -7.988077640533447266e+00 -7.074130326509475708e-02 6.539719104766845703e+00 1.940693378448486328e+00 2.917149066925048828e-01
4.746000000000000000e+03 1.235738658905029297e+01 -1.977745628356933594e+01 1.501788944005966187e-01 -3.884260654449462891e-01 -7.147415727376937866e-02 -3.125617206096649170e-01
4.747000000000000000e+03 6.616234588623046875e+01 1.541379541158676147e-01 -1.782943010330200195e-01 6.524672031402587891e+00 1.903913378715515137e+00 2.462633699178695679e-01
4.748000000000000000e+03 6.626090240478515625e+01 -9.920987486839294434e-01 -1.478533893823623657e-01 6.537439346313476562e+00 1.916875839233398438e+00 2.575071752071380615e-01
4.749000000000000000e+03 1.225413227081298828e+01 2.590366935729980469e+01 -8.912337943911552429e-03 2.581254579126834869e-02 5.070062354207038879e-03 -9.973796550184488297e-04
4.750000000000000000e+03 4.076916885375976562e+01 -5.700122833251953125e+00 2.223684191703796387e-01 8.774387836456298828e-01 3.299421668052673340e-01 5.345154553651809692e-02
4.751000000000000000e+03 6.853614044189453125e+01 9.179400444030761719e+00 -4.196948707103729248e-01 7.333411693572998047e+00 2.074115037918090820e+00 -3.097327984869480133e-02
4.752000000000000000e+03 6.870410156250000000e+01 7.150353431701660156e+00 -3.316187858581542969e-01 7.276810646057128906e+00 2.083557605743408203e+00 2.826986834406852722e-02
4.753000000000000000e+03 4.684353256225585938e+01 -1.728477096557617188e+01 -5.096435174345970154e-02 2.395146131515502930e+00 7.032545208930969238e-01 -2.150255069136619568e-02
4.754000000000000000e+03 4.537066650390625000e+01 -1.497481155395507812e+01 1.388879865407943726e-02 1.983214497566223145e+00 5.991309881210327148e-01 -3.308271616697311401e-02
4.755000000000000000e+03 4.253078842163085938e+01 -8.273282051086425781e+00 1.888812184333801270e-01 1.255986213684082031e+00 4.334602355957031250e-01 3.620220720767974854e-02
4.756000000000000000e+03 1.771673393249511719e+01 -2.730734443664550781e+01 1.831749826669692993e-01 -7.331976294517517090e-02 3.295656666159629822e-02 -2.502537369728088379e-01
4.757000000000000000e+03 1.629727172851562500e+01 -2.165496253967285156e+01 1.770593076944351196e-01 -1.447890847921371460e-01 9.681066498160362244e-03 -2.909255325794219971e-01
4.758000000000000000e+03 1.444085788726806641e+01 -1.696102714538574219e+01 1.832620352506637573e-01 -3.034933209419250488e-01 -3.606938198208808899e-02 -3.404898345470428467e-01
4.759000000000000000e+03 1.340389633178710938e+01 -1.703815841674804688e+01 1.704218089580535889e-01 -3.436684012413024902e-01 -5.197397992014884949e-02 -3.471081256866455078e-01
4.760000000000000000e+03 6.878531646728515625e+01 2.193168067932128906e+01 -8.847517967224121094e-01 8.669762611389160156e+00 2.335503339767456055e+00 -8.984997272491455078e-01
4.761000000000000000e+03 6.664626312255859375e+01 -1.762816619873046875e+01 -3.762385249137878418e-02 6.410863876342773438e+00 1.911971926689147949e+00 3.311347663402557373e-01
4.762000000000000000e+03 6.968148803710937500e+01 -1.564293479919433594e+01 -2.699279226362705231e-02 7.035038471221923828e+00 2.102413654327392578e+00 2.803604006767272949e-01
4.763000000000000000e+03 6.740702056884765625e+01 -1.908580589294433594e+01 -1.563822850584983826e-02 6.565418243408203125e+00 1.964933991432189941e+00 3.258522152900695801e-01
4.764000000000000000e+03 3.557975387573242188e+01 3.610398483276367188e+01 5.385814234614372253e-02 6.658518314361572266e-02 3.613299876451492310e-02 3.724455833435058594e-02
4.765000000000000000e+03 6.798582458496093750e+01 -1.555856513977050781e+01 -2.482368610799312592e-02 6.711798191070556641e+00 2.006092309951782227e+00 3.011777997016906738e-01
4.766000000000000000e+03 1.060619449615478516e+01 -1.944442176818847656e+01 1.252739280462265015e-01 -4.675233662128448486e-01 -1.026748344302177429e-01 -3.130201399326324463e-01
4.767000000000000000e+03 1.218276882171630859e+01 2.804727172851562500e+01 -9.211804717779159546e-03 1.642502844333648682e-02 2.163966652005910873e-03 -2.175913657993078232e-03
4.768000000000000000e+03 6.755416870117187500e+01 -2.812653779983520508e+00 -1.091196760535240173e-01 6.770536422729492188e+00 1.998425006866455078e+00 2.452562302350997925e-01
4.769000000000000000e+03 6.852927398681640625e+01 1.991776847839355469e+01 -9.064146280288696289e-01 8.364441871643066406e+00 2.237408161163330078e+00 -6.701864004135131836e-01
4.770000000000000000e+03 6.811882781982421875e+01 1.718786430358886719e+01 -8.456802964210510254e-01 7.943909168243408203e+00 2.129468679428100586e+00 -3.942031562328338623e-01
4.771000000000000000e+03 1.544382953643798828e+01 -2.270791244506835938e+01 1.702402681112289429e-01 -2.105082422494888306e-01 -1.208039093762636185e-02 -2.795621752738952637e-01
4.772000000000000000e+03 3.703282928466796875e+01 3.687660598754882812e+01 6.240612268447875977e-02 6.063637137413024902e-02 3.691274672746658325e-02 3.114682622253894806e-02
4.773000000000000000e+03 1.195787048339843750e+01 3.316801834106445312e+01 -8.592260070145130157e-03 1.969015225768089294e-03 -1.986973453313112259e-03 -2.600621199235320091e-03
4.774000000000000000e+03 1.396234035491943359e+01 -2.592703247070312500e+01 1.391853541135787964e-01 -3.081380426883697510e-01 -5.068580433726310730e-02 -2.445406168699264526e-01
4.775000000000000000e+03 1.614657020568847656e+01 -1.885078239440917969e+01 1.895302385091781616e-01 -1.787491291761398315e-01 3.234333591535687447e-03 -3.005102872848510742e-01
4.776000000000000000e+03 1.448069667816162109e+01 -1.950809097290039062e+01 1.767120361328125000e-01 -2.803718149662017822e-01 -3.109793178737163544e-02 -3.082999885082244873e-01
4.777000000000000000e+03 4.860145568847656250e+01 -1.932735252380371094e+01 -1.016574054956436157e-01 2.902071237564086914e+00 8.401241302490234375e-01 3.129446133971214294e-02
4.778000000000000000e+03 4.660257720947265625e+01 -1.532762432098388672e+01 -1.773173175752162933e-02 2.280616283416748047e+00 6.788653135299682617e-01 -5.115474108606576920e-03
4.779000000000000000e+03 6.579035186767578125e+01 1.174961090087890625e+00 -2.038227170705795288e-01 6.464165687561035156e+00 1.878102898597717285e+00 2.432559728622436523e-01
4.780000000000000000e+03 6.784046173095703125e+01 -1.816001534461975098e-01 -1.467329561710357666e-01 6.871942520141601562e+00 2.017562866210937500e+00 2.067724615335464478e-01
4.781000000000000000e+03 5.287568283081054688e+01 -2.132129096984863281e+01 -8.906925469636917114e-02 3.865515470504760742e+00 1.132933855056762695e+00 1.955106407403945923e-01
4.782000000000000000e+03 6.871500396728515625e+01 -6.401915073394775391e+00 -6.791555881500244141e-02 6.958301544189453125e+00 2.067115783691406250e+00 2.498939484357833862e-01
4.783000000000000000e+03 6.930692291259765625e+01 -5.833766460418701172e+00 -6.620103865861892700e-02 7.089557170867919922e+00 2.107006788253784180e+00 2.383910566568374634e-01
4.784000000000000000e+03 4.478244781494140625e+01 -1.315344333648681641e+01 6.386558711528778076e-02 1.811515331268310547e+00 5.626142621040344238e-01 -2.522207237780094147e-02
4.785000000000000000e+03 4.976847457885742188e+01 -2.972589492797851562e+01 6.126673147082328796e-02 3.607605218887329102e+00 1.100661635398864746e+00 2.742206752300262451e-01
4.786000000000000000e+03 3.689388656616210938e+01 4.113648986816406250e+01 6.328820437192916870e-02 5.528724938631057739e-02 3.557263687252998352e-02 3.006797283887863159e-03
4.787000000000000000e+03 3.428382492065429688e+01 3.757921600341796875e+01 5.718475580215454102e-02 6.695388257503509521e-02 3.724158927798271179e-02 2.449296414852142334e-02
4.788000000000000000e+03 1.165691184997558594e+01 -2.970563697814941406e+01 1.032392457127571106e-01 -4.872954785823822021e-01 -1.152168735861778259e-01 -1.765904277563095093e-01
4.789000000000000000e+03 2.884620285034179688e+01 2.807384014129638672e+00 -1.133104681968688965e+00 -5.869413018226623535e-01 -5.160138010978698730e-01 -4.037807881832122803e-01
4.790000000000000000e+03 2.804065513610839844e+01 1.994217276573181152e+00 -9.987549781799316406e-01 -4.975556731224060059e-01 -4.488931894302368164e-01 -3.300250768661499023e-01
4.791000000000000000e+03 2.694258880615234375e+01 1.725631237030029297e+00 -1.153100848197937012e+00 -4.223304688930511475e-01 -4.726293981075286865e-01 -4.092189967632293701e-01
4.792000000000000000e+03 2.681556892395019531e+01 1.476402163505554199e+00 -1.091114282608032227e+00 -3.819900751113891602e-01 -4.419313073158264160e-01 -3.287625610828399658e-01
4.793000000000000000e+03 4.798683929443359375e+01 2.401446723937988281e+01 -3.954711556434631348e-01 1.303677111864089966e-01 -7.953103631734848022e-02 -1.249756664037704468e-01
4.794000000000000000e+03 4.830729675292968750e+01 2.327383804321289062e+01 -3.388141095638275146e-01 3.580995202064514160e-01 5.785620305687189102e-03 1.297531276941299438e-02
4.795000000000000000e+03 2.725821685791015625e+01 5.353306531906127930e-01 -6.007240414619445801e-01 -3.726068437099456787e-01 -2.919992506504058838e-01 -1.769560575485229492e-01
4.796000000000000000e+03 4.856292343139648438e+01 2.415571403503417969e+01 -3.410899639129638672e-01 2.559730112552642822e-01 -2.553508989512920380e-02 -3.569523245096206665e-02
4.797000000000000000e+03 3.793289947509765625e+01 1.242786693572998047e+01 -6.967965960502624512e-01 -4.245693683624267578e-01 -3.364098072052001953e-01 -5.629509687423706055e-01
4.798000000000000000e+03 4.805699920654296875e+01 2.298615264892578125e+01 -3.522227108478546143e-01 3.435761332511901855e-01 -2.593973651528358459e-03 -7.198530249297618866e-03
4.799000000000000000e+03 4.780322647094726562e+01 2.271411895751953125e+01 -3.669323325157165527e-01 3.216506242752075195e-01 -1.358451228588819504e-02 -2.502692490816116333e-02
4.800000000000000000e+03 4.937698745727539062e+01 2.430336189270019531e+01 -2.591128647327423096e-01 4.721848368644714355e-01 6.392159312963485718e-02 1.246033385396003723e-01
4.801000000000000000e+03 4.888887405395507812e+01 2.441969299316406250e+01 -3.112328350543975830e-01 2.947436273097991943e-01 -4.946760833263397217e-03 6.255470216274261475e-03
4.802000000000000000e+03 3.761421966552734375e+01 1.222156715393066406e+01 -7.163573503494262695e-01 -4.665262103080749512e-01 -3.548650741577148438e-01 -5.834836959838867188e-01
4.803000000000000000e+03 3.833325195312500000e+01 1.308609390258789062e+01 -6.970083117485046387e-01 -4.267442226409912109e-01 -3.371257483959197998e-01 -5.669603943824768066e-01
4.804000000000000000e+03 4.575099563598632812e+01 2.042684745788574219e+01 -4.419750571250915527e-01 1.619611531496047974e-01 -8.400417119264602661e-02 -1.784728020429611206e-01
4.805000000000000000e+03 4.317942428588867188e+01 1.804175186157226562e+01 -5.262955427169799805e-01 -5.920945852994918823e-02 -1.756515055894851685e-01 -3.856222629547119141e-01
4.806000000000000000e+03 4.510510635375976562e+01 1.963978385925292969e+01 -4.518577158451080322e-01 1.205723062157630920e-01 -9.938561916351318359e-02 -2.229756712913513184e-01
4.807000000000000000e+03 3.823029327392578125e+01 1.264559459686279297e+01 -6.824901103973388672e-01 -3.934458196163177490e-01 -3.227807581424713135e-01 -5.502247810363769531e-01
4.808000000000000000e+03 3.853414916992187500e+01 1.327311515808105469e+01 -6.832421422004699707e-01 -4.049102067947387695e-01 -3.264456987380981445e-01 -5.575956106185913086e-01
4.809000000000000000e+03 5.010746002197265625e+01 2.593513488769531250e+01 -2.038635313510894775e-01 3.455184996128082275e-01 4.249649494886398315e-02 1.028044149279594421e-01
4.810000000000000000e+03 5.474240875244140625e+01 2.873081588745117188e+01 5.165551304817199707e-01 1.528780579566955566e+00 6.136007308959960938e-01 9.987708926200866699e-01
4.811000000000000000e+03 2.753563499450683594e+01 7.362093329429626465e-01 -6.452491879463195801e-01 -3.776925206184387207e-01 -3.068825006484985352e-01 -1.472517251968383789e-01
4.812000000000000000e+03 4.595009994506835938e+01 2.069112968444824219e+01 -4.375466406345367432e-01 1.673115193843841553e-01 -8.107054233551025391e-02 -1.654952317476272583e-01
4.813000000000000000e+03 2.133983230590820312e+01 1.822199058532714844e+01 5.212500318884849548e-02 1.286167204380035400e-01 5.422251671552658081e-02 8.342064917087554932e-02
4.814000000000000000e+03 4.702865982055664062e+01 2.245269203186035156e+01 -4.265040755271911621e-01 1.586267501115798950e-01 -8.036319911479949951e-02 -1.334781497716903687e-01
4.815000000000000000e+03 3.862477493286132812e+01 1.384165859222412109e+01 -7.024115920066833496e-01 -4.482451379299163818e-01 -3.451970219612121582e-01 -5.919463038444519043e-01
4.816000000000000000e+03 1.653759574890136719e+01 1.230130577087402344e+01 6.459212303161621094e-02 1.919876188039779663e-01 7.697392255067825317e-02 1.029216498136520386e-01
4.817000000000000000e+03 3.165647125244140625e+01 3.684750795364379883e+00 -8.516375422477722168e-01 -4.267411231994628906e-01 -3.835135996341705322e-01 -3.413273394107818604e-01
4.818000000000000000e+03 5.129627990722656250e+01 2.654962921142578125e+01 -6.611917912960052490e-02 5.993193984031677246e-01 1.599600613117218018e-01 3.185198605060577393e-01
4.819000000000000000e+03 5.315987014770507812e+01 2.754199409484863281e+01 1.938736587762832642e-01 1.118307709693908691e+00 3.936544060707092285e-01 7.007628083229064941e-01
4.820000000000000000e+03 4.032670593261718750e+01 1.557899856567382812e+01 -6.504530906677246094e-01 -3.155168592929840088e-01 -2.897909879684448242e-01 -5.315766334533691406e-01
4.821000000000000000e+03 4.080897903442382812e+01 1.535066699981689453e+01 -6.137901544570922852e-01 -2.051016837358474731e-01 -2.456675469875335693e-01 -4.730525016784667969e-01
4.822000000000000000e+03 5.279715728759765625e+01 2.756700515747070312e+01 1.378608047962188721e-01 9.707317948341369629e-01 3.325777947902679443e-01 5.942169427871704102e-01
4.823000000000000000e+03 2.696455764770507812e+01 8.676900267601013184e-01 -7.935664057731628418e-01 -3.319540023803710938e-01 -3.376561403274536133e-01 -2.144107669591903687e-01
4.824000000000000000e+03 3.891328048706054688e+01 1.405378913879394531e+01 -6.937572956085205078e-01 -4.209077358245849609e-01 -3.343994915485382080e-01 -5.737902522087097168e-01
4.825000000000000000e+03 1.241203880310058594e+01 7.425738811492919922e+00 8.744341880083084106e-02 3.228521943092346191e-01 1.230886876583099365e-01 -2.157949283719062805e-02
4.826000000000000000e+03 1.274986362457275391e+01 7.585238933563232422e+00 7.824960350990295410e-02 3.309589922428131104e-01 1.227625831961631775e-01 7.192032411694526672e-03
4.827000000000000000e+03 4.462931442260742188e+01 1.956285858154296875e+01 -4.795086383819580078e-01 3.544324636459350586e-02 -1.332196146249771118e-01 -2.804114222526550293e-01
4.828000000000000000e+03 4.633878326416015625e+01 2.122390174865722656e+01 -4.299781322479248047e-01 1.878191679716110229e-01 -7.264769077301025391e-02 -1.458091586828231812e-01
4.829000000000000000e+03 1.825379371643066406e+01 1.420007419586181641e+01 6.406437605619430542e-02 1.620473563671112061e-01 6.783352047204971313e-02 9.943698346614837646e-02
4.830000000000000000e+03 1.881093025207519531e+01 1.466683864593505859e+01 6.474404036998748779e-02 1.558309197425842285e-01 6.617248803377151489e-02 9.847887605428695679e-02
4.831000000000000000e+03 5.277307128906250000e+01 2.715911483764648438e+01 1.404338777065277100e-01 1.081145048141479492e+00 3.664736747741699219e-01 6.489047408103942871e-01
4.832000000000000000e+03 3.969477462768554688e+01 1.444708347320556641e+01 -6.586744785308837891e-01 -3.258311152458190918e-01 -2.953516840934753418e-01 -5.259471535682678223e-01
4.833000000000000000e+03 2.348464965820312500e+01 1.898723602294921875e+01 6.024777144193649292e-02 1.195748001337051392e-01 5.394677072763442993e-02 8.728656172752380371e-02
4.834000000000000000e+03 2.103968811035156250e+01 1.785325813293457031e+01 5.294663086533546448e-02 1.304107010364532471e-01 5.500720068812370300e-02 8.433596789836883545e-02
4.835000000000000000e+03 4.281329345703125000e+01 1.791535758972167969e+01 -5.440783500671386719e-01 -1.182724311947822571e-01 -1.987052410840988159e-01 -4.217865467071533203e-01
4.836000000000000000e+03 4.365496826171875000e+01 1.868927955627441406e+01 -5.150198340415954590e-01 -5.538645014166831970e-02 -1.711218804121017456e-01 -3.624756336212158203e-01
4.837000000000000000e+03 4.417514801025390625e+01 1.944947814941406250e+01 -5.056235194206237793e-01 -5.351138487458229065e-02 -1.677404642105102539e-01 -3.412878811359405518e-01
4.838000000000000000e+03 5.141029739379882812e+01 2.615802192687988281e+01 -4.728344455361366272e-02 7.527958750724792480e-01 2.116537243127822876e-01 4.000700116157531738e-01
4.839000000000000000e+03 5.164442062377929688e+01 2.673566436767578125e+01 -2.537470869719982147e-02 6.865801215171813965e-01 1.983616203069686890e-01 3.845002949237823486e-01
4.840000000000000000e+03 4.003495407104492188e+01 1.419130802154541016e+01 -6.219226717948913574e-01 -2.298390716314315796e-01 -2.555285096168518066e-01 -4.710058569908142090e-01
4.841000000000000000e+03 4.000756072998046875e+01 1.534918785095214844e+01 -6.655218005180358887e-01 -3.541237115859985352e-01 -3.058936595916748047e-01 -5.507574081420898438e-01
4.842000000000000000e+03 4.116250991821289062e+01 1.540995502471923828e+01 -5.930544734001159668e-01 -1.451388001441955566e-01 -2.214579880237579346e-01 -4.403506517410278320e-01
4.843000000000000000e+03 5.036297225952148438e+01 2.580103492736816406e+01 -1.710590422153472900e-01 4.571248888969421387e-01 8.581975102424621582e-02 1.810415983200073242e-01
4.844000000000000000e+03 5.070882034301757812e+01 2.587190437316894531e+01 -1.295922547578811646e-01 5.677897930145263672e-01 1.314592659473419189e-01 2.575449049472808838e-01
4.845000000000000000e+03 4.677433013916015625e+01 2.220528411865234375e+01 -4.384709298610687256e-01 1.352757662534713745e-01 -9.095855057239532471e-02 -1.528933346271514893e-01
4.846000000000000000e+03 4.882749938964843750e+01 2.330697822570800781e+01 -2.918806374073028564e-01 5.108653903007507324e-01 6.569542735815048218e-02 1.118383780121803284e-01
4.847000000000000000e+03 2.947100067138671875e+01 4.462416768074035645e-01 -3.386949598789215088e-01 -4.173118770122528076e-01 -2.268020510673522949e-01 -3.944478556513786316e-02
4.848000000000000000e+03 4.655487060546875000e+01 2.148302078247070312e+01 -4.243305325508117676e-01 2.019731402397155762e-01 -6.670721620321273804e-02 -1.290989965200424194e-01
4.849000000000000000e+03 2.054378890991210938e+01 1.651142501831054688e+01 6.191835179924964905e-02 1.397636383771896362e-01 6.050459668040275574e-02 9.240894019603729248e-02
4.850000000000000000e+03 1.768702697753906250e+01 1.384326267242431641e+01 6.140664592385292053e-02 1.673091948032379150e-01 6.861475110054016113e-02 9.804517030715942383e-02
4.851000000000000000e+03 5.820386505126953125e+01 2.956128692626953125e+01 1.267231225967407227e+00 4.158558368682861328e+00 1.627736806869506836e+00 2.712262392044067383e+00
4.852000000000000000e+03 1.377391910552978516e+01 1.020638179779052734e+01 5.161174386739730835e-02 2.377819269895553589e-01 8.681809902191162109e-02 6.063586473464965820e-02
4.853000000000000000e+03 2.438159942626953125e+01 1.970811653137207031e+01 6.050992384552955627e-02 1.150120124220848083e-01 5.265658348798751831e-02 8.438651263713836670e-02
4.854000000000000000e+03 4.405356597900390625e+01 1.891276931762695312e+01 -4.931529462337493896e-01 3.247274085879325867e-03 -1.469717025756835938e-01 -3.194457888603210449e-01
4.855000000000000000e+03 4.531683349609375000e+01 1.989945602416992188e+01 -4.463135004043579102e-01 1.379504054784774780e-01 -9.250892698764801025e-02 -2.083853334188461304e-01
4.856000000000000000e+03 4.147374343872070312e+01 1.590120315551757812e+01 -5.866381525993347168e-01 -1.382259726524353027e-01 -2.174592465162277222e-01 -4.414721727371215820e-01
4.857000000000000000e+03 1.427930450439453125e+01 1.157431793212890625e+01 4.653196781873703003e-02 2.029995024204254150e-01 7.485944032669067383e-02 6.563121080398559570e-02
4.858000000000000000e+03 3.992560195922851562e+01 1.478252410888671875e+01 -6.579539775848388672e-01 -3.142660260200500488e-01 -2.916660010814666748e-01 -5.221146345138549805e-01
4.859000000000000000e+03 4.019337081909179688e+01 1.504665184020996094e+01 -6.476011276245117188e-01 -2.909561991691589355e-01 -2.815671861171722412e-01 -5.096703171730041504e-01
4.860000000000000000e+03 1.133724021911621094e+01 6.542066574096679688e+00 1.606103926897048950e-01 2.140874862670898438e-01 1.124093607068061829e-01 -9.121330082416534424e-02
4.861000000000000000e+03 4.703525161743164062e+01 2.196874427795410156e+01 -4.054008424282073975e-01 2.417222559452056885e-01 -4.910357296466827393e-02 -8.935430645942687988e-02
4.862000000000000000e+03 2.638134574890136719e+01 2.174516868591308594e+01 5.314983054995536804e-02 1.040169894695281982e-01 4.715004563331604004e-02 7.812923938035964966e-02
4.863000000000000000e+03 2.425365829467773438e+01 2.094428443908691406e+01 4.761394485831260681e-02 1.117970719933509827e-01 4.782330617308616638e-02 7.761532068252563477e-02
4.864000000000000000e+03 6.002666091918945312e+01 2.990330314636230469e+01 8.725574016571044922e-01 7.695940494537353516e+00 2.570549488067626953e+00 3.676914215087890625e+00
4.865000000000000000e+03 3.573934173583984375e+01 1.049807643890380859e+01 -7.701616287231445312e-01 -5.828506946563720703e-01 -4.059036970138549805e-01 -6.386024355888366699e-01
4.866000000000000000e+03 3.531802368164062500e+01 9.363986015319824219e+00 -7.416568398475646973e-01 -5.331079363822937012e-01 -3.824294507503509521e-01 -5.913867950439453125e-01
4.867000000000000000e+03 3.691585159301757812e+01 1.054761695861816406e+01 -6.901718378067016602e-01 -4.103431403636932373e-01 -3.301544785499572754e-01 -5.303195714950561523e-01
4.868000000000000000e+03 4.189516448974609375e+01 1.593607044219970703e+01 -5.613700151443481445e-01 -6.376526504755020142e-02 -1.875405758619308472e-01 -3.992131352424621582e-01
4.869000000000000000e+03 3.707352066040039062e+01 1.149856281280517578e+01 -7.185472249984741211e-01 -4.725835919380187988e-01 -3.573392331600189209e-01 -5.836477875709533691e-01
4.870000000000000000e+03 2.089561462402343750e+01 1.728876113891601562e+01 5.691142380237579346e-02 1.339120715856552124e-01 5.724705010652542114e-02 8.821707218885421753e-02
4.871000000000000000e+03 4.754666900634765625e+01 2.245580482482910156e+01 -3.801325857639312744e-01 2.958513498306274414e-01 -2.528437599539756775e-02 -4.665022343397140503e-02
4.872000000000000000e+03 5.642123031616210938e+01 2.953812217712402344e+01 1.037661314010620117e+00 2.299772500991821289e+00 1.001230120658874512e+00 1.617974042892456055e+00
4.873000000000000000e+03 1.309380722045898438e+01 9.784029006958007812e+00 5.355267599225044250e-02 2.393095642328262329e-01 8.785866945981979370e-02 3.606509044766426086e-02
4.874000000000000000e+03 1.415710735321044922e+01 1.062589454650878906e+01 5.100082233548164368e-02 2.278887331485748291e-01 8.366686850786209106e-02 7.004157453775405884e-02
4.875000000000000000e+03 5.989870452880859375e+01 2.955333137512207031e+01 7.533650994300842285e-01 7.338347911834716797e+00 2.427513837814331055e+00 3.460722208023071289e+00
4.876000000000000000e+03 3.079410362243652344e+01 3.010021209716796875e+00 -8.397483229637145996e-01 -4.519086480140686035e-01 -3.874970972537994385e-01 -2.742541432380676270e-01
4.877000000000000000e+03 5.515541458129882812e+01 2.868259429931640625e+01 6.092649698257446289e-01 1.834368824958801270e+00 7.330901622772216797e-01 1.190459609031677246e+00
4.878000000000000000e+03 2.697684097290039062e+01 2.308178901672363281e+01 4.594852775335311890e-02 1.001667305827140808e-01 4.383457824587821960e-02 7.273975014686584473e-02
4.879000000000000000e+03 2.659183120727539062e+01 2.371267700195312500e+01 4.146035760641098022e-02 1.008569821715354919e-01 4.269520193338394165e-02 7.078686356544494629e-02
4.880000000000000000e+03 5.201118469238281250e+01 2.694646072387695312e+01 2.737035043537616730e-02 7.805073261260986328e-01 2.423633038997650146e-01 4.577849209308624268e-01
4.881000000000000000e+03 5.312458801269531250e+01 2.717348289489746094e+01 1.835373193025588989e-01 1.238433837890625000e+00 4.265913367271423340e-01 7.478898763656616211e-01
4.882000000000000000e+03 4.301043701171875000e+01 1.839303588867187500e+01 -5.489909648895263672e-01 -1.483445316553115845e-01 -2.092006504535675049e-01 -4.348011314868927002e-01
4.883000000000000000e+03 3.023677253723144531e+01 4.340977668762207031e-01 -3.247476220130920410e-01 -4.221718311309814453e-01 -2.240758389234542847e-01 -4.497367888689041138e-02
4.884000000000000000e+03 3.228330612182617188e+01 4.179841995239257812e+00 -8.159268498420715332e-01 -4.073722362518310547e-01 -3.669897317886352539e-01 -3.784473240375518799e-01
4.885000000000000000e+03 2.649382591247558594e+01 2.545475006103515625e+01 3.280311822891235352e-02 9.718802571296691895e-02 3.899734094738960266e-02 6.322088092565536499e-02
4.886000000000000000e+03 2.475009918212890625e+01 2.350142478942871094e+01 3.440121188759803772e-02 1.034677997231483459e-01 4.136070236563682556e-02 6.644378602504730225e-02
4.887000000000000000e+03 1.208173847198486328e+01 1.004826831817626953e+01 5.349207669496536255e-02 1.950120925903320312e-01 7.455125451087951660e-02 7.087436970323324203e-03
4.888000000000000000e+03 1.305638027191162109e+01 8.310074806213378906e+00 6.657029688358306885e-02 3.081111907958984375e-01 1.124044433236122131e-01 3.220093622803688049e-02
4.889000000000000000e+03 5.431357192993164062e+01 2.768785858154296875e+01 3.867914974689483643e-01 1.691697120666503906e+00 6.235466003417968750e-01 1.061774253845214844e+00
4.890000000000000000e+03 2.948675727844238281e+01 3.071259737014770508e+00 -1.079745531082153320e+00 -5.801334381103515625e-01 -4.979636967182159424e-01 -3.830957114696502686e-01
4.891000000000000000e+03 5.705018997192382812e+01 2.899349594116210938e+01 1.009777188301086426e+00 3.201265573501586914e+00 1.263312816619873047e+00 2.081055641174316406e+00
4.892000000000000000e+03 2.365155410766601562e+01 1.946431350708007812e+01 5.835902690887451172e-02 1.176831051707267761e-01 5.281263962388038635e-02 8.410292863845825195e-02
4.893000000000000000e+03 1.599610328674316406e+01 1.186222267150878906e+01 6.282650679349899292e-02 2.009410858154296875e-01 7.913027703762054443e-02 9.884110093116760254e-02
4.894000000000000000e+03 1.538309288024902344e+01 1.161627006530761719e+01 5.758890509605407715e-02 2.065674811601638794e-01 7.924691587686538696e-02 8.996378630399703979e-02
4.895000000000000000e+03 1.968069648742675781e+01 1.581591892242431641e+01 6.105194240808486938e-02 1.449839174747467041e-01 6.181075796484947205e-02 9.291722625494003296e-02
4.896000000000000000e+03 3.604193115234375000e+01 1.043923473358154297e+01 -7.435228228569030762e-01 -5.309163331985473633e-01 -3.823317587375640869e-01 -6.025412678718566895e-01
4.897000000000000000e+03 3.643626785278320312e+01 1.009318637847900391e+01 -7.046092152595520020e-01 -4.444224238395690918e-01 -3.447095155715942383e-01 -5.475916862487792969e-01
4.898000000000000000e+03 2.895058059692382812e+01 1.049239993095397949e+00 -5.674890875816345215e-01 -4.421468675136566162e-01 -3.028907775878906250e-01 -1.277164965867996216e-01
4.899000000000000000e+03 2.931465721130371094e+01 2.725501251220703125e+01 4.124623164534568787e-02 8.847713470458984375e-02 3.891700878739356995e-02 6.119642779231071472e-02
4.900000000000000000e+03 3.147138977050781250e+01 2.948843955993652344e+01 4.454107955098152161e-02 8.271884173154830933e-02 3.817797452211380005e-02 5.664913728833198547e-02
4.901000000000000000e+03 5.588287734985351562e+01 2.910668563842773438e+01 8.284829258918762207e-01 2.101215839385986328e+00 8.789096474647521973e-01 1.427657842636108398e+00
4.902000000000000000e+03 5.809888076782226562e+01 2.918395805358886719e+01 1.081667542457580566e+00 4.272731781005859375e+00 1.606319785118103027e+00 2.634883403778076172e+00
4.903000000000000000e+03 3.663690567016601562e+01 9.447235107421875000e+00 -6.502695679664611816e-01 -3.504824936389923096e-01 -3.002256155014038086e-01 -4.810570776462554932e-01
4.904000000000000000e+03 2.718174362182617188e+01 1.655920028686523438e+00 -1.130238533020019531e+00 -4.220893085002899170e-01 -4.656983613967895508e-01 -3.324706554412841797e-01
4.905000000000000000e+03 3.544285202026367188e+01 9.814250946044921875e+00 -7.568348646163940430e-01 -5.651283264160156250e-01 -3.965889811515808105e-01 -6.160106658935546875e-01
4.906000000000000000e+03 3.589189910888671875e+01 9.039868354797363281e+00 -6.822803616523742676e-01 -4.297118782997131348e-01 -3.335976600646972656e-01 -5.192163586616516113e-01
4.907000000000000000e+03 4.331818008422851562e+01 1.845865821838378906e+01 -5.327145457267761230e-01 -9.062031656503677368e-02 -1.870004683732986450e-01 -3.985468149185180664e-01
4.908000000000000000e+03 2.857535171508789062e+01 2.662461853027343750e+01 4.037128388881683350e-02 9.056170284748077393e-02 3.927989676594734192e-02 6.341560930013656616e-02
4.909000000000000000e+03 3.039775466918945312e+01 2.859980010986328125e+01 3.774075582623481750e-02 8.448493480682373047e-02 3.666770830750465393e-02 5.772829800844192505e-02
4.910000000000000000e+03 3.434753417968750000e+01 6.206986904144287109e+00 -6.677129864692687988e-01 -3.762121200561523438e-01 -3.131775259971618652e-01 -4.408431649208068848e-01
4.911000000000000000e+03 2.749682807922363281e+01 2.525440216064453125e+01 4.028710350394248962e-02 9.530559182167053223e-02 4.067780822515487671e-02 6.682734936475753784e-02
4.912000000000000000e+03 3.598696899414062500e+01 1.009535980224609375e+01 -7.315680980682373047e-01 -5.068060159683227539e-01 -3.715122342109680176e-01 -5.827352404594421387e-01
4.913000000000000000e+03 2.813230514526367188e+01 2.524108314514160156e+01 3.863380476832389832e-02 9.449302405118942261e-02 3.993804752826690674e-02 6.698671728372573853e-02
4.914000000000000000e+03 2.865357017517089844e+01 2.600098800659179688e+01 3.833285346627235413e-02 9.152975678443908691e-02 3.895878419280052185e-02 6.421384215354919434e-02
4.915000000000000000e+03 5.239873123168945312e+01 2.787243080139160156e+01 7.304681092500686646e-02 6.844301819801330566e-01 2.272431105375289917e-01 4.208488166332244873e-01
4.916000000000000000e+03 5.239698410034179688e+01 2.709498214721679688e+01 8.298381417989730835e-02 9.044887423515319824e-01 2.962417602539062500e-01 5.468417406082153320e-01
4.917000000000000000e+03 2.770152664184570312e+01 2.390876388549804688e+01 4.461355134844779968e-02 9.756809473037719727e-02 4.265449196100234985e-02 7.062023133039474487e-02
4.918000000000000000e+03 5.861735534667968750e+01 2.937660789489746094e+01 1.098839998245239258e+00 5.005694389343261719e+00 1.831360340118408203e+00 2.946386098861694336e+00
4.919000000000000000e+03 2.743784523010253906e+01 2.580676460266113281e+01 3.447222709655761719e-02 9.439232200384140015e-02 3.865936398506164551e-02 6.286784261465072632e-02
4.920000000000000000e+03 2.570993423461914062e+01 2.367583656311035156e+01 3.798798471689224243e-02 1.025668978691101074e-01 4.216646403074264526e-02 6.892815977334976196e-02
4.921000000000000000e+03 2.547403144836425781e+01 2.143437385559082031e+01 5.207179859280586243e-02 1.087851002812385559e-01 4.825706779956817627e-02 7.796478271484375000e-02
4.922000000000000000e+03 2.792034912109375000e+01 2.654208946228027344e+01 3.285900503396987915e-02 9.234427660703659058e-02 3.756098449230194092e-02 6.073126196861267090e-02
4.923000000000000000e+03 3.557057952880859375e+01 -1.900987625122070312e+00 1.416530460119247437e-01 2.727181836962699890e-02 5.067745968699455261e-02 6.029940396547317505e-02
4.924000000000000000e+03 3.425328063964843750e+01 -1.167186617851257324e+00 7.314991950988769531e-02 -1.268510222434997559e-01 -1.611033082008361816e-02 5.300217494368553162e-02
4.925000000000000000e+03 3.434848022460937500e+01 5.692777156829833984e+00 -6.508148908615112305e-01 -3.382878005504608154e-01 -2.967308163642883301e-01 -4.004281461238861084e-01
4.926000000000000000e+03 3.111165046691894531e+01 2.824948501586914062e+01 4.668826982378959656e-02 8.351121842861175537e-02 3.905984759330749512e-02 5.982101336121559143e-02
4.927000000000000000e+03 3.294524765014648438e+01 3.590791940689086914e+00 -6.582655906677246094e-01 -3.169850409030914307e-01 -2.925752103328704834e-01 -2.645784318447113037e-01
4.928000000000000000e+03 3.486566162109375000e+01 5.239110469818115234e+00 -5.785805583000183105e-01 -2.473049759864807129e-01 -2.477656602859497070e-01 -3.200415670871734619e-01
4.929000000000000000e+03 1.661667060852050781e+01 1.325468635559082031e+01 5.646611377596855164e-02 1.776180565357208252e-01 7.022525370121002197e-02 9.190504997968673706e-02
4.930000000000000000e+03 3.515423583984375000e+01 7.473542690277099609e+00 -6.616325974464416504e-01 -3.871399164199829102e-01 -3.146317601203918457e-01 -4.691790342330932617e-01
4.931000000000000000e+03 2.905423355102539062e+01 3.846895396709442139e-01 -4.166713953018188477e-01 -4.417744874954223633e-01 -2.575337588787078857e-01 -9.345710277557373047e-02
4.932000000000000000e+03 2.985157585144042969e+01 2.003273516893386841e-01 -3.141680359840393066e-01 -3.901280164718627930e-01 -2.112888097763061523e-01 -2.477164752781391144e-02
4.933000000000000000e+03 3.520746231079101562e+01 8.170953750610351562e+00 -6.874987483024597168e-01 -4.394740164279937744e-01 -3.380918204784393311e-01 -5.126517415046691895e-01
4.934000000000000000e+03 3.539188003540039062e+01 8.879726409912109375e+00 -7.129976153373718262e-01 -4.837225079536437988e-01 -3.590160310268402100e-01 -5.504136681556701660e-01
4.935000000000000000e+03 3.199519920349121094e+01 -5.229110121726989746e-01 -4.158595576882362366e-02 -2.852492034435272217e-01 -9.805054962635040283e-02 4.961839318275451660e-02
4.936000000000000000e+03 3.128781890869140625e+01 6.454979777336120605e-01 -3.297286331653594971e-01 -3.656409680843353271e-01 -2.086108773946762085e-01 -3.628879785537719727e-02
4.937000000000000000e+03 3.047145080566406250e+01 -4.645690321922302246e-02 -2.074342519044876099e-01 -3.503161370754241943e-01 -1.673251241445541382e-01 4.571370314806699753e-03
4.938000000000000000e+03 3.000348854064941406e+01 3.006229162216186523e+00 -9.327514171600341797e-01 -5.238380432128906250e-01 -4.369768500328063965e-01 -3.058460354804992676e-01
4.939000000000000000e+03 3.340059661865234375e+01 -8.273097872734069824e-01 2.059657312929630280e-02 -2.133420556783676147e-01 -5.782364308834075928e-02 4.130449146032333374e-02
4.940000000000000000e+03 6.198718261718750000e+01 2.923140144348144531e+01 -4.594565927982330322e-01 1.117423915863037109e+01 3.214434862136840820e+00 2.076300144195556641e+00
4.941000000000000000e+03 6.132730102539062500e+01 2.897957801818847656e+01 -2.850972115993499756e-01 9.955128669738769531e+00 2.901009559631347656e+00 2.598699092864990234e+00
4.942000000000000000e+03 3.227646636962890625e+01 3.658206939697265625e+00 -7.304533720016479492e-01 -3.752740323543548584e-01 -3.317182064056396484e-01 -2.950239181518554688e-01
4.943000000000000000e+03 1.895545005798339844e+01 1.520725536346435547e+01 6.070356443524360657e-02 1.510917693376541138e-01 6.353859603404998779e-02 9.395708143711090088e-02
4.944000000000000000e+03 1.123362827301025391e+01 1.970565986633300781e+01 -3.591470653191208839e-03 4.428710788488388062e-02 1.220869179815053940e-02 -1.742710010148584843e-03
4.945000000000000000e+03 6.623519134521484375e+01 2.349058341979980469e+01 -1.090873003005981445e+00 9.110585212707519531e+00 2.405913591384887695e+00 -4.584018290042877197e-01
4.946000000000000000e+03 6.492867279052734375e+01 2.805848884582519531e+01 -6.159646511077880859e-01 1.106429386138916016e+01 3.134498834609985352e+00 -4.332502186298370361e-01
4.947000000000000000e+03 3.091987037658691406e+01 3.360840082168579102e+00 -9.008240103721618652e-01 -4.620456397533416748e-01 -4.088608920574188232e-01 -3.179665803909301758e-01
4.948000000000000000e+03 3.602307891845703125e+01 -3.499375581741333008e+00 2.564686536788940430e-01 1.027074679732322693e-01 1.077528372406959534e-01 4.312655702233314514e-02
4.949000000000000000e+03 1.010587120056152344e+01 9.564908027648925781e+00 8.197735995054244995e-02 9.564411640167236328e-02 5.328644439578056335e-02 -2.926707081496715546e-02
4.950000000000000000e+03 1.110490036010742188e+01 1.472554397583007812e+01 1.474100165069103241e-02 8.385895192623138428e-02 2.957998774945735931e-02 4.474706947803497314e-04
4.951000000000000000e+03 1.244737720489501953e+01 1.443979740142822266e+01 1.929822564125061035e-02 1.205767318606376648e-01 4.196248948574066162e-02 1.846061274409294128e-02
4.952000000000000000e+03 1.032234001159667969e+01 1.259318923950195312e+01 3.424974530935287476e-02 8.346047997474670410e-02 3.531306982040405273e-02 -8.182285353541374207e-03
4.953000000000000000e+03 1.016107368469238281e+01 1.132354640960693359e+01 5.103515088558197021e-02 8.784001320600509644e-02 4.166254773736000061e-02 -1.611821539700031281e-02
4.954000000000000000e+03 1.198527717590332031e+01 1.590872669219970703e+01 1.007960364222526550e-02 9.169200062751770020e-02 3.053148090839385986e-02 9.700817987322807312e-03
4.955000000000000000e+03 6.792359161376953125e+01 1.322310924530029297e+01 -6.272191405296325684e-01 7.494287967681884766e+00 2.060120582580566406e+00 -1.614247113466262817e-01
4.956000000000000000e+03 6.794154357910156250e+01 1.912421798706054688e+01 -9.328208565711975098e-01 8.194918632507324219e+00 2.178629159927368164e+00 -4.924697577953338623e-01
4.957000000000000000e+03 6.701869201660156250e+01 1.038752746582031250e+01 -5.268302559852600098e-01 7.132011413574218750e+00 1.981554269790649414e+00 1.195684727281332016e-02
4.958000000000000000e+03 6.257586288452148438e+01 2.830143356323242188e+01 -7.598028182983398438e-01 1.084828186035156250e+01 3.026543617248535156e+00 1.360758900642395020e+00
4.959000000000000000e+03 1.242933464050292969e+01 2.209890365600585938e+01 -5.437271669507026672e-03 4.872616752982139587e-02 1.298666931688785553e-02 3.751940326765179634e-03
4.960000000000000000e+03 1.110654640197753906e+01 1.407244205474853516e+01 1.912571489810943604e-02 8.935408294200897217e-02 3.254393860697746277e-02 1.849680091254413128e-03
4.961000000000000000e+03 1.200193881988525391e+01 1.392793273925781250e+01 1.992518268525600433e-02 1.168987452983856201e-01 4.104717820882797241e-02 1.330288220196962357e-02
4.962000000000000000e+03 6.588545227050781250e+01 4.760636806488037109e+00 -3.134707212448120117e-01 6.592599868774414062e+00 1.883738636970520020e+00 1.971146613359451294e-01
4.963000000000000000e+03 6.778124237060546875e+01 8.553231239318847656e+00 -4.141423106193542480e-01 7.164924621582031250e+00 2.025234699249267578e+00 2.582531794905662537e-02
4.964000000000000000e+03 4.003427886962890625e+01 -4.270195007324218750e+00 2.196304649114608765e-01 7.296756505966186523e-01 2.847918272018432617e-01 7.839491963386535645e-02
4.965000000000000000e+03 3.923683929443359375e+01 -3.753573656082153320e+00 2.012707442045211792e-01 5.751526355743408203e-01 2.329270094633102417e-01 8.147772401571273804e-02
4.966000000000000000e+03 1.324653053283691406e+01 2.308647918701171875e+01 -5.328007973730564117e-03 5.172158405184745789e-02 1.391807291656732559e-02 7.315922528505325317e-03
4.967000000000000000e+03 1.107818508148193359e+01 8.741893768310546875e+00 8.936608582735061646e-02 1.627099066972732544e-01 7.562279701232910156e-02 -3.120521456003189087e-02
4.968000000000000000e+03 1.170502758026123047e+01 1.066650962829589844e+01 5.020883679389953613e-02 1.609384268522262573e-01 6.334418058395385742e-02 2.395300893113017082e-03
4.969000000000000000e+03 6.519615936279296875e+01 -1.154487371444702148e+00 -1.564646214246749878e-01 6.291888713836669922e+00 1.840627193450927734e+00 2.714245617389678955e-01
4.970000000000000000e+03 6.515727996826171875e+01 -2.276957511901855469e+00 -1.313241571187973022e-01 6.280232906341552734e+00 1.844672560691833496e+00 2.814590930938720703e-01
4.971000000000000000e+03 6.650725555419921875e+01 2.767628669738769531e+01 -4.063302278518676758e-01 1.056561756134033203e+01 3.047786235809326172e+00 -1.132582545280456543e+00
4.972000000000000000e+03 1.078243350982666016e+01 8.281041145324707031e+00 1.048133373260498047e-01 1.417910903692245483e-01 7.398132979869842529e-02 -4.075596109032630920e-02
4.973000000000000000e+03 1.096716690063476562e+01 1.302155113220214844e+01 2.771258540451526642e-02 9.971453249454498291e-02 3.822813555598258972e-02 -1.026115147396922112e-03
4.974000000000000000e+03 4.403874969482421875e+01 -7.531884193420410156e+00 1.549514979124069214e-01 1.544147610664367676e+00 5.097297430038452148e-01 7.124935835599899292e-02
4.975000000000000000e+03 4.156161117553710938e+01 -7.474679946899414062e+00 2.134335935115814209e-01 1.057859659194946289e+00 3.813879787921905518e-01 3.796943649649620056e-02
4.976000000000000000e+03 6.799230957031250000e+01 5.604007244110107422e+00 -3.072066307067871094e-01 7.081845283508300781e+00 2.032391548156738281e+00 1.009379029273986816e-01
4.977000000000000000e+03 2.951017570495605469e+01 2.890808868408203125e+01 3.806950524449348450e-02 8.608053624629974365e-02 3.724501281976699829e-02 5.514555796980857849e-02
4.978000000000000000e+03 4.063134002685546875e+01 -4.911981582641601562e+00 2.073429077863693237e-01 8.320024013519287109e-01 3.118036091327667236e-01 8.221092075109481812e-02
4.979000000000000000e+03 3.930519866943359375e+01 -5.086372375488281250e+00 2.365785092115402222e-01 6.004176735877990723e-01 2.510988712310791016e-01 5.577623099088668823e-02
4.980000000000000000e+03 6.837827301025390625e+01 1.801102256774902344e+01 -8.605532050132751465e-01 8.081786155700683594e+00 2.166369915008544922e+00 -4.885270595550537109e-01
4.981000000000000000e+03 6.620499420166015625e+01 -1.411840629577636719e+01 -3.367217630147933960e-02 6.377777576446533203e+00 1.903231620788574219e+00 3.154987394809722900e-01
4.982000000000000000e+03 6.703480529785156250e+01 -1.315991401672363281e+01 -4.446424916386604309e-02 6.543275833129882812e+00 1.949643492698669434e+00 3.085212111473083496e-01
4.983000000000000000e+03 6.721277618408203125e+01 2.268661308288574219e+01 -1.020968317985534668e+00 8.891133308410644531e+00 2.361049652099609375e+00 -6.763191819190979004e-01
4.984000000000000000e+03 6.829164886474609375e+01 2.113004493713378906e+01 -9.359933137893676758e-01 8.540171623229980469e+00 2.281253337860107422e+00 -7.320551872253417969e-01
4.985000000000000000e+03 4.407077026367187500e+01 -1.385523509979248047e+01 6.361149251461029053e-02 1.690879702568054199e+00 5.263473391532897949e-01 -3.578474372625350952e-02
4.986000000000000000e+03 6.850884246826171875e+01 1.061749935150146484e+01 -4.873200654983520508e-01 7.419456005096435547e+00 2.079640865325927734e+00 -8.943189680576324463e-02
4.987000000000000000e+03 6.548403167724609375e+01 -3.945681333541870117e+00 -1.051646620035171509e-01 6.329703330993652344e+00 1.867361664772033691e+00 2.703530788421630859e-01
4.988000000000000000e+03 6.640647125244140625e+01 2.279743766784667969e+01 -1.101322650909423828e+00 8.925638198852539062e+00 2.347294569015502930e+00 -4.637237489223480225e-01
4.989000000000000000e+03 6.766845703125000000e+01 2.442945480346679688e+01 -8.649781942367553711e-01 9.322296142578125000e+00 2.537195444107055664e+00 -9.758710861206054688e-01
4.990000000000000000e+03 6.736946105957031250e+01 -1.000938606262207031e+01 -5.341157317161560059e-02 6.631003856658935547e+00 1.973277688026428223e+00 2.942306101322174072e-01
4.991000000000000000e+03 1.154805088043212891e+01 -1.869745063781738281e+01 1.374738216400146484e-01 -4.232944846153259277e-01 -8.574619889259338379e-02 -3.283255398273468018e-01
4.992000000000000000e+03 4.391719055175781250e+01 -9.687352180480957031e+00 1.485134512186050415e-01 1.567631721496582031e+00 5.148435831069946289e-01 2.030716836452484131e-02
4.993000000000000000e+03 4.267480850219726562e+01 -9.160514831542968750e+00 1.772685647010803223e-01 1.298486948013305664e+00 4.427266716957092285e-01 2.087767608463764191e-02
4.994000000000000000e+03 6.811447906494140625e+01 2.577180480957031250e+01 -6.223855614662170410e-01 9.497456550598144531e+00 2.662521362304687500e+00 -1.255318999290466309e+00
4.995000000000000000e+03 6.890530395507812500e+01 2.757322692871093750e+01 -7.409913837909698486e-02 9.464387893676757812e+00 2.817086458206176758e+00 -1.612305998802185059e+00
4.996000000000000000e+03 3.279408264160156250e+01 3.408044052124023438e+01 4.721587523818016052e-02 7.390051335096359253e-02 3.633491694927215576e-02 4.080263525247573853e-02
4.997000000000000000e+03 1.141537189483642578e+01 -1.683638954162597656e+01 1.343750208616256714e-01 -4.268355369567871094e-01 -8.773815631866455078e-02 -3.602887690067291260e-01
4.998000000000000000e+03 1.235354423522949219e+01 -1.328651237487792969e+01 1.430622935295104980e-01 -4.105587899684906006e-01 -8.024894446134567261e-02 -4.249049425125122070e-01
4.999000000000000000e+03 4.412038040161132812e+01 -1.144178390502929688e+01 1.225205436348915100e-01 1.632308602333068848e+00 5.264487266540527344e-01 -3.673488507047295570e-03
5.000000000000000000e+03 4.579749298095703125e+01 -1.363901042938232422e+01 3.354915231466293335e-02 2.058793783187866211e+00 6.277028322219848633e-01 -2.370052970945835114e-03
5.001000000000000000e+03 3.319835662841796875e+01 3.570285415649414062e+01 3.814629465341567993e-02 7.119213044643402100e-02 3.280152752995491028e-02 3.414157405495643616e-02
5.002000000000000000e+03 4.613511276245117188e+01 -1.652586174011230469e+01 -2.090797573328018188e-02 2.207086801528930664e+00 6.558536291122436523e-01 -3.172518312931060791e-02
5.003000000000000000e+03 4.573022842407226562e+01 -1.762473869323730469e+01 -5.412388220429420471e-02 2.116005897521972656e+00 6.185646057128906250e-01 -5.596235767006874084e-02
5.004000000000000000e+03 6.612968444824218750e+01 -1.901605606079101562e+01 -2.635722048580646515e-02 6.307182312011718750e+00 1.884247541427612305e+00 3.301867842674255371e-01
5.005000000000000000e+03 6.222929000854492188e+01 -2.374141883850097656e+01 1.822752878069877625e-02 5.625902175903320312e+00 1.693238854408264160e+00 3.650624752044677734e-01
5.006000000000000000e+03 1.311450386047363281e+01 2.695672607421875000e+01 -8.180513978004455566e-03 3.010658361017704010e-02 6.577820982784032822e-03 1.900811446830630302e-03
5.007000000000000000e+03 6.802870941162109375e+01 -5.872546672821044922e+00 -6.632237136363983154e-02 6.821610450744628906e+00 2.026586532592773438e+00 2.540323436260223389e-01
5.008000000000000000e+03 6.649575042724609375e+01 -5.287922382354736328e+00 -8.473752439022064209e-02 6.500907421112060547e+00 1.924850940704345703e+00 2.763303816318511963e-01
5.009000000000000000e+03 1.867657089233398438e+01 -2.333745384216308594e+01 1.813825368881225586e-01 2.107721380889415741e-02 6.073792651295661926e-02 -2.852571010589599609e-01
5.010000000000000000e+03 1.328886413574218750e+01 -1.583823490142822266e+01 1.671289652585983276e-01 -3.724405765533447266e-01 -6.159348413348197937e-02 -3.713279366493225098e-01
5.011000000000000000e+03 4.983430099487304688e+01 -1.902519607543945312e+01 -8.696725219488143921e-02 3.142198324203491211e+00 9.165692925453186035e-01 7.449377328157424927e-02
5.012000000000000000e+03 1.434827518463134766e+01 -2.364014244079589844e+01 1.519980281591415405e-01 -2.742243409156799316e-01 -3.666788712143898010e-02 -2.708839476108551025e-01
5.013000000000000000e+03 1.299701118469238281e+01 -2.106049728393554688e+01 1.499168425798416138e-01 -3.485564887523651123e-01 -5.959188938140869141e-02 -2.948295772075653076e-01
5.014000000000000000e+03 1.216234111785888672e+01 3.048865699768066406e+01 -9.306265041232109070e-03 8.234212175011634827e-03 -3.216161276213824749e-04 -2.697497606277465820e-03
5.015000000000000000e+03 6.725530242919921875e+01 -1.649887657165527344e+01 -3.225926682353019714e-02 6.543185710906982422e+00 1.953277945518493652e+00 3.187643885612487793e-01
5.016000000000000000e+03 6.448601531982421875e+01 -1.444502353668212891e+01 -4.819518700242042542e-02 6.027181625366210938e+00 1.793695926666259766e+00 3.276239335536956787e-01
5.017000000000000000e+03 5.242231750488281250e+01 -2.003972434997558594e+01 -9.433180838823318481e-02 3.755030393600463867e+00 1.098209500312805176e+00 1.743665486574172974e-01
5.018000000000000000e+03 4.969032287597656250e+01 -1.782062721252441406e+01 -8.151127398014068604e-02 3.071197032928466797e+00 8.969057202339172363e-01 7.726503163576126099e-02
5.019000000000000000e+03 6.799359130859375000e+01 6.271138191223144531e+00 -3.199437260627746582e-01 7.111201286315917969e+00 2.037377119064331055e+00 7.703521102666854858e-02
5.020000000000000000e+03 6.664493560791015625e+01 5.195870876312255859e+00 -3.134615719318389893e-01 6.770620822906494141e+00 1.937147736549377441e+00 1.613588184118270874e-01
5.021000000000000000e+03 5.413779830932617188e+01 -2.077008819580078125e+01 -8.437360078096389771e-02 4.102148532867431641e+00 1.205332517623901367e+00 2.147158235311508179e-01
5.022000000000000000e+03 1.530978584289550781e+01 -2.484179115295410156e+01 1.625702381134033203e-01 -2.239910066127777100e-01 -1.842622831463813782e-02 -2.615295946598052979e-01
5.023000000000000000e+03 5.612432861328125000e+01 -2.611748504638671875e+01 2.406735718250274658e-02 4.548857212066650391e+00 1.371877431869506836e+00 3.471743762493133545e-01
5.024000000000000000e+03 5.335973739624023438e+01 -2.280058097839355469e+01 -8.675785362720489502e-02 4.011351585388183594e+00 1.177378177642822266e+00 2.246396839618682861e-01
5.025000000000000000e+03 6.835638427734375000e+01 -7.322326183319091797e+00 -6.045782566070556641e-02 6.885395526885986328e+00 2.047481298446655273e+00 2.616275548934936523e-01
5.026000000000000000e+03 6.953614044189453125e+01 -8.321713447570800781e+00 -4.799247160553932190e-02 7.101453304290771484e+00 2.116038322448730469e+00 2.589034140110015869e-01
5.027000000000000000e+03 2.766265296936035156e+01 1.861442804336547852e+00 -1.076405048370361328e+00 -4.976187050342559814e-01 -4.722071290016174316e-01 -3.505841791629791260e-01
5.028000000000000000e+03 4.832529067993164062e+01 2.273521995544433594e+01 -3.202539384365081787e-01 4.658327698707580566e-01 4.367365315556526184e-02 6.742314249277114868e-02
5.029000000000000000e+03 3.874448013305664062e+01 1.260972023010253906e+01 -6.473897099494934082e-01 -3.029537200927734375e-01 -2.851030528545379639e-01 -4.949764609336853027e-01
5.030000000000000000e+03 3.814237594604492188e+01 1.213590621948242188e+01 -6.761019229888916016e-01 -3.605107367038726807e-01 -3.109838068485260010e-01 -5.251870155334472656e-01
5.031000000000000000e+03 4.933937835693359375e+01 2.382191658020019531e+01 -2.361749857664108276e-01 5.741610527038574219e-01 1.013958081603050232e-01 1.694029569625854492e-01
5.032000000000000000e+03 4.947520065307617188e+01 2.520821952819824219e+01 -2.660861313343048096e-01 3.006226718425750732e-01 1.036096736788749695e-02 3.642231598496437073e-02
5.033000000000000000e+03 4.586747360229492188e+01 1.993539428710937500e+01 -4.118727743625640869e-01 2.681486606597900391e-01 -4.311722889542579651e-02 -1.268615573644638062e-01
5.034000000000000000e+03 3.843302154541015625e+01 1.238338947296142578e+01 -6.616653800010681152e-01 -3.356866538524627686e-01 -2.992056012153625488e-01 -5.115453004837036133e-01
5.035000000000000000e+03 3.852251434326171875e+01 1.285679054260253906e+01 -6.751885414123535156e-01 -3.701218366622924805e-01 -3.135931193828582764e-01 -5.340465307235717773e-01
5.036000000000000000e+03 5.635937881469726562e+01 2.877341842651367188e+01 8.622301220893859863e-01 2.607644319534301758e+00 1.040962338447570801e+00 1.720237374305725098e+00
5.037000000000000000e+03 2.975908088684082031e+01 2.297671794891357422e+00 -8.436880111694335938e-01 -4.901159405708312988e-01 -4.001411795616149902e-01 -2.264755517244338989e-01
5.038000000000000000e+03 2.864561080932617188e+01 2.402165651321411133e+00 -1.011019349098205566e+00 -5.602642893791198730e-01 -4.713851213455200195e-01 -3.584653437137603760e-01
5.039000000000000000e+03 4.611204528808593750e+01 2.019804573059082031e+01 -4.100607037544250488e-01 2.785007059574127197e-01 -3.946800157427787781e-02 -1.086589023470878601e-01
5.040000000000000000e+03 3.782788467407226562e+01 1.188634395599365234e+01 -6.863861083984375000e-01 -3.929930031299591064e-01 -3.238137364387512207e-01 -5.370235443115234375e-01
5.041000000000000000e+03 4.347601318359375000e+01 1.774715042114257812e+01 -4.972451627254486084e-01 3.557228669524192810e-02 -1.385018676519393921e-01 -3.238739371299743652e-01
5.042000000000000000e+03 4.616605377197265625e+01 1.967781257629394531e+01 -3.895738720893859863e-01 3.808687627315521240e-01 -2.611540257930755615e-03 -6.799277663230895996e-02
5.043000000000000000e+03 3.903692245483398438e+01 1.287826633453369141e+01 -6.419522762298583984e-01 -2.858809232711791992e-01 -2.783499658107757568e-01 -4.860221743583679199e-01
5.044000000000000000e+03 3.866606140136718750e+01 1.355309772491455078e+01 -6.848720908164978027e-01 -4.107084274291992188e-01 -3.286741673946380615e-01 -5.625991821289062500e-01
5.045000000000000000e+03 5.105709457397460938e+01 2.599897003173828125e+01 -8.761588484048843384e-02 6.573987007141113281e-01 1.709348410367965698e-01 3.297631144523620605e-01
5.046000000000000000e+03 4.614105606079101562e+01 2.095719146728515625e+01 -4.325596690177917480e-01 1.751727610826492310e-01 -7.721606642007827759e-02 -1.576692610979080200e-01
5.047000000000000000e+03 2.061474800109863281e+01 1.814429664611816406e+01 4.732184857130050659e-02 1.295851916074752808e-01 5.307211354374885559e-02 8.028893917798995972e-02
5.048000000000000000e+03 4.406668090820312500e+01 1.918554115295410156e+01 -5.034416317939758301e-01 -4.428438097238540649e-02 -1.643178015947341919e-01 -3.367616534233093262e-01
5.049000000000000000e+03 5.896341705322265625e+01 2.908472251892089844e+01 8.694705367088317871e-01 5.641506195068359375e+00 1.953293085098266602e+00 3.021670103073120117e+00
5.050000000000000000e+03 3.947180175781250000e+01 1.409631156921386719e+01 -6.596217751502990723e-01 -3.288244903087615967e-01 -2.965338826179504395e-01 -5.226784348487854004e-01
5.051000000000000000e+03 4.728963851928710938e+01 2.220866012573242188e+01 -3.935993909835815430e-01 2.679975330829620361e-01 -3.768055886030197144e-02 -6.790638715028762817e-02
5.052000000000000000e+03 4.909846878051757812e+01 2.305265617370605469e+01 -2.597759962081909180e-01 6.436463594436645508e-01 1.151611134409904480e-01 1.848649233579635620e-01
5.053000000000000000e+03 4.048462295532226562e+01 1.523778152465820312e+01 -6.303941607475280762e-01 -2.543578147888183594e-01 -2.654255926609039307e-01 -4.977750182151794434e-01
5.054000000000000000e+03 4.087743759155273438e+01 1.497776985168457031e+01 -5.995978713035583496e-01 -1.536144912242889404e-01 -2.259637117385864258e-01 -4.418816864490509033e-01
5.055000000000000000e+03 4.992210006713867188e+01 2.531333541870117188e+01 -2.085888981819152832e-01 4.252267181873321533e-01 6.499134749174118042e-02 1.355576366186141968e-01
5.056000000000000000e+03 1.730625534057617188e+01 1.390373420715332031e+01 5.540604889392852783e-02 1.678102165460586548e-01 6.696487963199615479e-02 9.279070049524307251e-02
5.057000000000000000e+03 2.045502090454101562e+01 1.689550971984863281e+01 5.640773102641105652e-02 1.365573257207870483e-01 5.788951739668846130e-02 8.841080218553543091e-02
5.058000000000000000e+03 3.746630096435546875e+01 1.167101573944091797e+01 -6.971492171287536621e-01 -4.302893877029418945e-01 -3.382315933704376221e-01 -5.619435310363769531e-01
5.059000000000000000e+03 4.448764419555664062e+01 1.928692245483398438e+01 -4.780371189117431641e-01 4.459099844098091125e-02 -1.300338357686996460e-01 -2.841609716415405273e-01
5.060000000000000000e+03 4.491353607177734375e+01 1.939726257324218750e+01 -4.537970721721649170e-01 1.075334101915359497e-01 -1.038790941238403320e-01 -2.301689535379409790e-01
5.061000000000000000e+03 1.216818618774414062e+01 1.816313552856445312e+01 2.282261149957776070e-03 7.216440886259078979e-02 2.233400195837020874e-02 7.785835769027471542e-03
5.062000000000000000e+03 2.431265068054199219e+01 2.152981948852539062e+01 4.550419002771377563e-02 1.104978770017623901e-01 4.680062085390090942e-02 7.380623370409011841e-02
5.063000000000000000e+03 2.409823226928710938e+01 2.042206573486328125e+01 5.257787555456161499e-02 1.134564727544784546e-01 4.981030523777008057e-02 7.901067286729812622e-02
5.064000000000000000e+03 5.034792327880859375e+01 2.539365577697753906e+01 -1.580878198146820068e-01 5.466009974479675293e-01 1.165539622306823730e-01 2.252480387687683105e-01
5.065000000000000000e+03 5.151471328735351562e+01 2.575035095214843750e+01 -3.210803866386413574e-02 9.047083258628845215e-01 2.617800831794738770e-01 4.796681702136993408e-01
5.066000000000000000e+03 5.176832580566406250e+01 2.633713531494140625e+01 1.979822060093283653e-03 8.488226532936096191e-01 2.552407383918762207e-01 4.775363802909851074e-01
5.067000000000000000e+03 4.404347610473632812e+01 1.859570693969726562e+01 -4.831783175468444824e-01 3.648146986961364746e-02 -1.340090483427047729e-01 -3.064022660255432129e-01
5.068000000000000000e+03 5.075303649902343750e+01 2.546875953674316406e+01 -1.132700070738792419e-01 6.780257225036621094e-01 1.694267243146896362e-01 3.154516816139221191e-01
5.069000000000000000e+03 5.113803100585937500e+01 2.559445190429687500e+01 -7.554503530263900757e-02 7.949111461639404297e-01 2.158098369836807251e-01 3.962240219116210938e-01
5.070000000000000000e+03 4.059206390380859375e+01 1.494555473327636719e+01 -6.194751262664794922e-01 -2.062057107686996460e-01 -2.477042675018310547e-01 -4.692660570144653320e-01
5.071000000000000000e+03 4.553718185424804688e+01 2.016294097900390625e+01 -4.450249969959259033e-01 1.493774056434631348e-01 -8.869428187608718872e-02 -1.931269764900207520e-01
5.072000000000000000e+03 4.360054779052734375e+01 1.842363739013671875e+01 -5.057761073112487793e-01 -3.087589517235755920e-02 -1.609956026077270508e-01 -3.528492748737335205e-01
5.073000000000000000e+03 4.328664779663085938e+01 1.743391799926757812e+01 -5.046488642692565918e-01 4.161128029227256775e-02 -1.389112621545791626e-01 -3.320873081684112549e-01
5.074000000000000000e+03 2.661468315124511719e+01 1.177128314971923828e+00 -9.650851488113403320e-01 -3.591146469116210938e-01 -3.972599506378173828e-01 -3.064431548118591309e-01
5.075000000000000000e+03 4.681378936767578125e+01 2.127900123596191406e+01 -3.971354961395263672e-01 3.010004758834838867e-01 -2.884050831198692322e-02 -6.984582543373107910e-02
5.076000000000000000e+03 4.728795242309570312e+01 2.172444343566894531e+01 -3.769634366035461426e-01 3.476661443710327148e-01 -8.789182640612125397e-03 -2.889318205416202545e-02
5.077000000000000000e+03 4.019256591796875000e+01 1.454515266418457031e+01 -6.290977001190185547e-01 -2.400131672620773315e-01 -2.607332468032836914e-01 -4.758262932300567627e-01
5.078000000000000000e+03 4.154472732543945312e+01 1.544214057922363281e+01 -5.716847777366638184e-01 -7.751216739416122437e-02 -1.947590857744216919e-01 -4.030242860317230225e-01
5.079000000000000000e+03 2.013263320922851562e+01 1.637868690490722656e+01 5.938498303294181824e-02 1.407072991132736206e-01 6.002768501639366150e-02 9.100548177957534790e-02
5.080000000000000000e+03 6.034590911865234375e+01 2.971642875671386719e+01 5.961185693740844727e-01 8.354475021362304688e+00 2.685178041458129883e+00 3.564259052276611328e+00
5.081000000000000000e+03 6.022731781005859375e+01 2.936449623107910156e+01 4.577534496784210205e-01 8.054530143737792969e+00 2.553685188293457031e+00 3.349534034729003906e+00
5.082000000000000000e+03 3.129305267333984375e+01 2.554262161254882812e+00 -6.857244372367858887e-01 -3.999912142753601074e-01 -3.257147073745727539e-01 -1.894745677709579468e-01
5.083000000000000000e+03 2.726935195922851562e+01 1.061038732528686523e+00 -8.402464985847473145e-01 -4.123231470584869385e-01 -3.757708966732025146e-01 -2.506389617919921875e-01
5.084000000000000000e+03 2.804315185546875000e+01 8.658509850502014160e-01 -6.838769912719726562e-01 -4.114120006561279297e-01 -3.285866975784301758e-01 -1.373953074216842651e-01
5.085000000000000000e+03 1.396474552154541016e+01 1.133186721801757812e+01 4.473607987165451050e-02 2.057985812425613403e-01 7.516039907932281494e-02 6.022891402244567871e-02
5.086000000000000000e+03 1.147202396392822266e+01 1.236026763916015625e+01 3.326737880706787109e-02 1.263885945081710815e-01 4.789679124951362610e-02 4.234709776937961578e-03
5.087000000000000000e+03 4.678895950317382812e+01 2.172963523864746094e+01 -4.165805578231811523e-01 2.189127653837203979e-01 -5.930033698678016663e-02 -1.095261946320533752e-01
5.088000000000000000e+03 4.662512969970703125e+01 2.103115653991699219e+01 -4.013030230998992920e-01 2.959396839141845703e-01 -3.160900250077247620e-02 -8.448100835084915161e-02
5.089000000000000000e+03 5.370101547241210938e+01 2.767559814453125000e+01 2.845394611358642578e-01 1.373966574668884277e+00 4.975517988204956055e-01 8.469310402870178223e-01
5.090000000000000000e+03 2.252372169494628906e+01 1.987552070617675781e+01 4.698227718472480774e-02 1.184850037097930908e-01 4.964018613100051880e-02 7.678351551294326782e-02
5.091000000000000000e+03 2.386827659606933594e+01 1.994039344787597656e+01 5.431082844734191895e-02 1.161323934793472290e-01 5.113296583294868469e-02 8.243376016616821289e-02
5.092000000000000000e+03 3.768642044067382812e+01 1.127661991119384766e+01 -6.660507917404174805e-01 -3.476714193820953369e-01 -3.041166663169860840e-01 -5.063490867614746094e-01
5.093000000000000000e+03 2.049282264709472656e+01 1.727077865600585938e+01 5.413053184747695923e-02 1.351933926343917847e-01 5.679717659950256348e-02 8.581145107746124268e-02
5.094000000000000000e+03 1.998275566101074219e+01 1.590619277954101562e+01 6.385931372642517090e-02 1.436230242252349854e-01 6.224469840526580811e-02 9.434835612773895264e-02
5.095000000000000000e+03 1.073834037780761719e+01 1.089895057678222656e+01 5.379742011427879333e-02 1.182473376393318176e-01 5.161342769861221313e-02 -1.135141681879758835e-02
5.096000000000000000e+03 3.722750854492187500e+01 1.111031246185302734e+01 -6.954938173294067383e-01 -4.146811664104461670e-01 -3.330524861812591553e-01 -5.450654625892639160e-01
5.097000000000000000e+03 1.283243274688720703e+01 8.043160438537597656e+00 6.973748654127120972e-02 3.107922077178955078e-01 1.141589060425758362e-01 1.823894679546356201e-02
5.098000000000000000e+03 1.258660888671875000e+01 7.883496284484863281e+00 7.533659785985946655e-02 3.071171343326568604e-01 1.147361174225807190e-01 1.455225719837471843e-04
5.099000000000000000e+03 1.277474403381347656e+01 8.894367218017578125e+00 6.320317089557647705e-02 2.625919282436370850e-01 9.773853421211242676e-02 2.027384750545024872e-02
5.100000000000000000e+03 3.135811805725097656e+01 6.797331571578979492e-02 -1.695927977561950684e-01 -3.425330817699432373e-01 -1.536377668380737305e-01 1.902483031153678894e-02
5.101000000000000000e+03 3.260960388183593750e+01 -4.027286469936370850e-01 -6.188438087701797485e-02 -2.792792916297912598e-01 -1.023491024971008301e-01 2.373347058892250061e-02
5.102000000000000000e+03 5.736870574951171875e+01 2.905046463012695312e+01 1.023699045181274414e+00 3.439418315887451172e+00 1.338935256004333496e+00 2.209575653076171875e+00
5.103000000000000000e+03 5.780700683593750000e+01 2.873712348937988281e+01 8.781585693359375000e-01 4.164229393005371094e+00 1.512716412544250488e+00 2.443042039871215820e+00
5.104000000000000000e+03 2.071489334106445312e+01 1.757009124755859375e+01 5.317729711532592773e-02 1.324755549430847168e-01 5.569585785269737244e-02 8.492831885814666748e-02
5.105000000000000000e+03 5.675685882568359375e+01 2.906362342834472656e+01 9.960937500000000000e-01 2.846404552459716797e+00 1.152749538421630859e+00 1.893365740776062012e+00
5.106000000000000000e+03 5.614672088623046875e+01 2.933561515808105469e+01 9.189019799232482910e-01 2.173755645751953125e+00 9.277973175048828125e-01 1.492069125175476074e+00
5.107000000000000000e+03 5.556489181518554688e+01 2.905142784118652344e+01 7.503342628479003906e-01 1.915938019752502441e+00 7.998816967010498047e-01 1.279856443405151367e+00
5.108000000000000000e+03 3.577717971801757812e+01 9.399966239929199219e+00 -7.058799862861633301e-01 -4.682761430740356445e-01 -3.522468209266662598e-01 -5.504013895988464355e-01
5.109000000000000000e+03 3.694017791748046875e+01 1.010883712768554688e+01 -6.601424217224121094e-01 -3.645372390747070312e-01 -3.074038922786712646e-01 -4.950065314769744873e-01
5.110000000000000000e+03 3.617388534545898438e+01 7.031228065490722656e+00 -5.695306062698364258e-01 -2.174675315618515015e-01 -2.360994368791580200e-01 -3.566525578498840332e-01
5.111000000000000000e+03 2.644027900695800781e+01 2.208330345153808594e+01 5.204289779067039490e-02 1.044131666421890259e-01 4.693682119250297546e-02 7.709618657827377319e-02
5.112000000000000000e+03 2.621617507934570312e+01 2.329649543762207031e+01 4.316833242774009705e-02 1.014534235000610352e-01 4.338652640581130981e-02 7.046862691640853882e-02
5.113000000000000000e+03 1.551304817199707031e+01 1.204993343353271484e+01 5.368281900882720947e-02 1.986214965581893921e-01 7.569129765033721924e-02 8.819500356912612915e-02
5.114000000000000000e+03 1.346852588653564453e+01 1.121678638458251953e+01 4.242881387472152710e-02 2.030956149101257324e-01 7.365732640027999878e-02 4.750050604343414307e-02
5.115000000000000000e+03 5.643143081665039062e+01 2.916294479370117188e+01 9.570895433425903320e-01 2.508554220199584961e+00 1.039693117141723633e+00 1.701423645019531250e+00
5.116000000000000000e+03 1.451185035705566406e+01 1.224061489105224609e+01 4.195003584027290344e-02 1.912383288145065308e-01 6.995651125907897949e-02 6.542205810546875000e-02
5.117000000000000000e+03 5.247335052490234375e+01 2.667396163940429688e+01 8.452510088682174683e-02 1.066844701766967773e+00 3.454109430313110352e-01 6.256930828094482422e-01
5.118000000000000000e+03 3.630043029785156250e+01 9.229864120483398438e+00 -6.589290499687194824e-01 -3.782448172569274902e-01 -3.111521601676940918e-01 -4.902071356773376465e-01
5.119000000000000000e+03 4.234246444702148438e+01 1.595048809051513672e+01 -5.291084647178649902e-01 2.183612249791622162e-02 -1.521816998720169067e-01 -3.502191305160522461e-01
5.120000000000000000e+03 2.850896072387695312e+01 1.541605591773986816e+00 -7.670166492462158203e-01 -4.667252004146575928e-01 -3.701225519180297852e-01 -2.264910340309143066e-01
5.121000000000000000e+03 4.291454696655273438e+01 1.751110649108886719e+01 -5.289766192436218262e-01 -5.026835948228836060e-02 -1.737734973430633545e-01 -3.874995708465576172e-01
5.122000000000000000e+03 1.265567874908447266e+01 8.505638122558593750e+00 6.586414575576782227e-02 2.758483290672302246e-01 1.025137379765510559e-01 1.257463824003934860e-02
5.123000000000000000e+03 3.646363449096679688e+01 9.731522560119628906e+00 -6.764783263206481934e-01 -4.051077365875244141e-01 -3.244758248329162598e-01 -5.140914320945739746e-01
5.124000000000000000e+03 4.195283889770507812e+01 1.545875072479248047e+01 -5.429937839508056641e-01 -7.742163143120706081e-04 -1.631304025650024414e-01 -3.613224625587463379e-01
5.125000000000000000e+03 1.611058616638183594e+01 1.234704399108886719e+01 5.824418365955352783e-02 1.920733153820037842e-01 7.509525120258331299e-02 9.557380527257919312e-02
5.126000000000000000e+03 1.389095497131347656e+01 1.178683471679687500e+01 4.020683094859123230e-02 1.951669305562973022e-01 7.061212509870529175e-02 5.420671775937080383e-02
5.127000000000000000e+03 1.498048591613769531e+01 1.178111648559570312e+01 4.963120445609092712e-02 2.030061483383178711e-01 7.579120248556137085e-02 8.049348741769790649e-02
5.128000000000000000e+03 1.704037284851074219e+01 1.339128684997558594e+01 5.861560627818107605e-02 1.747715473175048828e-01 7.001614570617675781e-02 9.640268981456756592e-02
5.129000000000000000e+03 2.659797096252441406e+01 2.453591537475585938e+01 3.728298842906951904e-02 9.890943765640258789e-02 4.085772857069969177e-02 6.727766245603561401e-02
5.130000000000000000e+03 2.497783851623535156e+01 2.203639221191406250e+01 4.527111724019050598e-02 1.077098324894905090e-01 4.589428380131721497e-02 7.330267876386642456e-02
5.131000000000000000e+03 3.684562683105468750e+01 9.725450515747070312e+00 -6.541794538497924805e-01 -3.452257812023162842e-01 -2.998215854167938232e-01 -4.803967177867889404e-01
5.132000000000000000e+03 2.976873397827148438e+01 1.682672142982482910e+00 -6.960921287536621094e-01 -4.614997208118438721e-01 -3.472775518894195557e-01 -1.497771441936492920e-01
5.133000000000000000e+03 2.893728828430175781e+01 1.849036335945129395e+00 -8.167742490768432617e-01 -5.018989443778991699e-01 -3.956019580364227295e-01 -2.411719560623168945e-01
5.134000000000000000e+03 2.563361167907714844e+01 2.242527961730957031e+01 4.588395357131958008e-02 1.055255532264709473e-01 4.542285203933715820e-02 7.346305996179580688e-02
5.135000000000000000e+03 4.266825866699218750e+01 1.697064208984375000e+01 -5.322896242141723633e-01 -2.467975206673145294e-02 -1.670908182859420776e-01 -3.748834133148193359e-01
5.136000000000000000e+03 4.227791213989257812e+01 1.644068145751953125e+01 -5.485492348670959473e-01 -4.873652383685112000e-02 -1.791857331991195679e-01 -3.901495337486267090e-01
5.137000000000000000e+03 3.554247665405273438e+01 7.775349617004394531e+00 -6.486197113990783691e-01 -3.664424717426300049e-01 -3.045186400413513184e-01 -4.639086425304412842e-01
5.138000000000000000e+03 3.516822433471679688e+01 6.845856666564941406e+00 -6.393822431564331055e-01 -3.314850628376007080e-01 -2.912601828575134277e-01 -4.230411648750305176e-01
5.139000000000000000e+03 2.852554893493652344e+01 2.732804489135742188e+01 3.287993744015693665e-02 8.970589935779571533e-02 3.677574917674064636e-02 5.967814475297927856e-02
5.140000000000000000e+03 1.728029823303222656e+01 1.435098838806152344e+01 5.240435525774955750e-02 1.629489660263061523e-01 6.460599601268768311e-02 8.783967047929763794e-02
5.141000000000000000e+03 2.811933517456054688e+01 1.208985924720764160e+00 -7.177981734275817871e-01 -4.401092231273651123e-01 -3.473722338676452637e-01 -2.051661610603332520e-01
5.142000000000000000e+03 2.553752326965332031e+01 2.517530632019042969e+01 2.919850312173366547e-02 9.862753003835678101e-02 3.834781050682067871e-02 6.116165965795516968e-02
5.143000000000000000e+03 3.488432693481445312e+01 6.095341205596923828e+00 -6.225023269653320312e-01 -3.056126236915588379e-01 -2.784344851970672607e-01 -3.928428292274475098e-01
5.144000000000000000e+03 2.772984504699707031e+01 2.726871490478515625e+01 3.516790270805358887e-02 9.019152820110321045e-02 3.760783001780509949e-02 5.928310379385948181e-02
5.145000000000000000e+03 2.938260841369628906e+01 2.803205871582031250e+01 3.473404049873352051e-02 8.706018328666687012e-02 3.653826564550399780e-02 5.896084010601043701e-02
5.146000000000000000e+03 3.004668235778808594e+01 9.310406446456909180e-01 -4.441417157649993896e-01 -3.923383653163909912e-01 -2.509440183639526367e-01 -5.331638827919960022e-02
5.147000000000000000e+03 2.849151802062988281e+01 2.813817024230957031e+01 3.589841350913047791e-02 8.795765042304992676e-02 3.715682029724121094e-02 5.675883963704109192e-02
5.148000000000000000e+03 2.807846641540527344e+01 2.587455368041992188e+01 4.135606437921524048e-02 9.260936081409454346e-02 4.018962755799293518e-02 6.607885658740997314e-02
5.149000000000000000e+03 2.686015510559082031e+01 2.599897003173828125e+01 3.488225862383842468e-02 9.398052841424942017e-02 3.865883499383926392e-02 6.181783601641654968e-02
5.150000000000000000e+03 2.611524581909179688e+01 2.494006919860839844e+01 3.523039445281028748e-02 9.747532755136489868e-02 3.981171548366546631e-02 6.400678306818008423e-02
5.151000000000000000e+03 3.167327117919921875e+01 3.155315637588500977e+00 -7.398482561111450195e-01 -3.961991667747497559e-01 -3.408142328262329102e-01 -2.534450888633728027e-01
5.152000000000000000e+03 3.297217559814453125e+01 4.180202960968017578e+00 -6.928791403770446777e-01 -3.411269187927246094e-01 -3.102018237113952637e-01 -3.214339911937713623e-01
5.153000000000000000e+03 3.191419792175292969e+01 1.032510176301002502e-01 -1.886811256408691406e-01 -3.231564462184906006e-01 -1.535512804985046387e-01 -3.289414336904883385e-03
5.154000000000000000e+03 2.949567794799804688e+01 9.310923814773559570e-01 -5.398000478744506836e-01 -4.453966617584228516e-01 -2.955590188503265381e-01 -9.966760873794555664e-02
5.155000000000000000e+03 1.255600452423095703e+01 8.176896095275878906e+00 7.378945499658584595e-02 2.886848151683807373e-01 1.087422817945480347e-01 4.428976681083440781e-03
5.156000000000000000e+03 3.549372863769531250e+01 7.127567768096923828e+00 -6.242560744285583496e-01 -3.189737498760223389e-01 -2.829689383506774902e-01 -4.231530427932739258e-01
5.157000000000000000e+03 6.344341278076171875e+01 2.797185134887695312e+01 -8.372643589973449707e-01 1.102460765838623047e+01 3.056202888488769531e+00 5.853566527366638184e-01
5.158000000000000000e+03 6.452796936035156250e+01 2.435087013244628906e+01 -1.173867702484130859e+00 9.215867042541503906e+00 2.412600040435791016e+00 1.072227433323860168e-01
5.159000000000000000e+03 6.230595779418945312e+01 2.883726501464843750e+01 -6.384819149971008301e-01 1.109701538085937500e+01 3.137560129165649414e+00 1.674514532089233398e+00
5.160000000000000000e+03 6.209873199462890625e+01 2.799520492553710938e+01 -7.461082339286804199e-01 1.017932605743408203e+01 2.829965353012084961e+00 1.702449798583984375e+00
5.161000000000000000e+03 1.832217597961425781e+01 1.477762603759765625e+01 5.917400121688842773e-02 1.561467647552490234e-01 6.459622830152511597e-02 9.395947307348251343e-02
5.162000000000000000e+03 1.949250602722167969e+01 1.641469192504882812e+01 5.401507019996643066e-02 1.411305069923400879e-01 5.854367092251777649e-02 8.734454214572906494e-02
5.163000000000000000e+03 3.606547546386718750e+01 -2.417593002319335938e+00 1.848333775997161865e-01 9.738663583993911743e-02 8.466600626707077026e-02 5.953378602862358093e-02
5.164000000000000000e+03 3.479133987426757812e+01 -8.805568218231201172e-01 3.969891369342803955e-02 -6.017955020070075989e-02 -6.144191138446331024e-03 5.202413350343704224e-02
5.165000000000000000e+03 3.074318122863769531e+01 5.854381322860717773e-01 -3.239796757698059082e-01 -3.638672232627868652e-01 -2.063540667295455933e-01 -2.238369174301624298e-02
5.166000000000000000e+03 3.015110969543457031e+01 2.551242589950561523e+00 -8.538390994071960449e-01 -4.941823780536651611e-01 -4.044064581394195557e-01 -2.657221853733062744e-01
5.167000000000000000e+03 3.724327468872070312e+01 -3.445406436920166016e+00 2.339793592691421509e-01 2.681228220462799072e-01 1.506306529045104980e-01 5.708418041467666626e-02
5.168000000000000000e+03 3.662454605102539062e+01 -2.933020830154418945e+00 2.049994915723800659e-01 1.685678213834762573e-01 1.120701953768730164e-01 6.302967667579650879e-02
5.169000000000000000e+03 2.494866371154785156e+01 2.141867637634277344e+01 4.820269346237182617e-02 1.086790040135383606e-01 4.706450924277305603e-02 7.703056931495666504e-02
5.170000000000000000e+03 2.170314216613769531e+01 1.856094360351562500e+01 5.119102448225021362e-02 1.256399154663085938e-01 5.304928123950958252e-02 8.224410563707351685e-02
5.171000000000000000e+03 1.060744571685791016e+01 9.101951599121093750e+00 8.514820784330368042e-02 1.229864656925201416e-01 6.244039908051490784e-02 -2.887745201587677002e-02
5.172000000000000000e+03 1.162329673767089844e+01 7.151494503021240234e+00 1.203078031539916992e-01 2.503659427165985107e-01 1.112021282315254211e-01 -6.268467009067535400e-02
5.173000000000000000e+03 1.223361778259277344e+01 8.587139129638671875e+00 7.263208180665969849e-02 2.455442994832992554e-01 9.545291215181350708e-02 -2.811713377013802528e-03
5.174000000000000000e+03 1.138710212707519531e+01 9.135593414306640625e+00 7.437872141599655151e-02 1.744343191385269165e-01 7.464390993118286133e-02 -1.887057162821292877e-02
5.175000000000000000e+03 3.174407958984375000e+01 3.152235412597656250e+01 3.734524175524711609e-02 7.878214120864868164e-02 3.483821451663970947e-02 4.605808481574058533e-02
5.176000000000000000e+03 2.848829269409179688e+01 2.905718803405761719e+01 2.896971628069877625e-02 8.593960106372833252e-02 3.447279706597328186e-02 5.302849784493446350e-02
5.177000000000000000e+03 1.203497982025146484e+01 1.700191116333007812e+01 6.011573597788810730e-03 8.003757894039154053e-02 2.581474557518959045e-02 8.880731649696826935e-03
5.178000000000000000e+03 1.690290832519531250e+01 1.382121753692626953e+01 5.377609655261039734e-02 1.693617999553680420e-01 6.694136559963226318e-02 8.897545933723449707e-02
5.179000000000000000e+03 1.150957965850830078e+01 1.534158420562744141e+01 1.212591212242841721e-02 8.753376454114913940e-02 2.989790216088294983e-02 4.430851899087429047e-03
5.180000000000000000e+03 6.070991134643554688e+01 2.854510688781738281e+01 -1.334879100322723389e-01 8.707094192504882812e+00 2.572082042694091797e+00 2.765388250350952148e+00
5.181000000000000000e+03 6.762207794189453125e+01 2.153299140930175781e+01 -1.002478122711181641e+00 8.635535240173339844e+00 2.289917230606079102e+00 -6.511653661727905273e-01
5.182000000000000000e+03 6.803733825683593750e+01 2.236500358581542969e+01 -9.452058076858520508e-01 8.767587661743164062e+00 2.346714496612548828e+00 -8.153077960014343262e-01
5.183000000000000000e+03 1.227233314514160156e+01 1.093237400054931641e+01 4.562966898083686829e-02 1.789261549711227417e-01 6.736674904823303223e-02 1.479917485266923904e-02
5.184000000000000000e+03 1.152016067504882812e+01 1.345523643493652344e+01 2.365059778094291687e-02 1.107846274971961975e-01 4.033056646585464478e-02 5.570121109485626221e-03
5.185000000000000000e+03 6.657006072998046875e+01 2.649330711364746094e+01 -7.250807881355285645e-01 1.009827804565429688e+01 2.811959028244018555e+00 -9.430111646652221680e-01
5.186000000000000000e+03 1.017271614074707031e+01 1.060700321197509766e+01 5.999525636434555054e-02 9.174369275569915771e-02 4.552168399095535278e-02 -1.826101727783679962e-02
5.187000000000000000e+03 3.083182907104492188e+01 2.920689201354980469e+01 4.048052057623863220e-02 8.294747769832611084e-02 3.702839836478233337e-02 5.526606366038322449e-02
5.188000000000000000e+03 6.479748535156250000e+01 7.959571480751037598e-01 -2.024181783199310303e-01 6.238351821899414062e+00 1.810780048370361328e+00 2.671723663806915283e-01
5.189000000000000000e+03 6.420813751220703125e+01 -1.252940773963928223e+00 -1.562176942825317383e-01 6.063940048217773438e+00 1.772316694259643555e+00 2.858496904373168945e-01
5.190000000000000000e+03 1.253613662719726562e+01 1.751059913635253906e+01 4.953467752784490585e-03 8.549086749553680420e-02 2.713330090045928955e-02 1.191434171050786972e-02
5.191000000000000000e+03 1.150911712646484375e+01 2.128966712951660156e+01 -5.882559809833765030e-03 3.864513337612152100e-02 9.828772395849227905e-03 -1.442555687390267849e-03
5.192000000000000000e+03 3.848705291748046875e+01 -3.272303581237792969e+00 2.088892757892608643e-01 4.493541419506072998e-01 1.974730193614959717e-01 7.596553117036819458e-02
5.193000000000000000e+03 6.505442047119140625e+01 4.298521995544433594e+00 -3.060792684555053711e-01 6.395673274993896484e+00 1.826878309249877930e+00 2.338632047176361084e-01
5.194000000000000000e+03 4.062668609619140625e+01 -3.388342618942260742e+00 1.674705445766448975e-01 8.093470335006713867e-01 2.930452823638916016e-01 1.046555712819099426e-01
5.195000000000000000e+03 6.697833251953125000e+01 1.662111663818359375e+01 -8.752672672271728516e-01 7.711181640625000000e+00 2.050774335861206055e+00 -2.128869295120239258e-01
5.196000000000000000e+03 4.362145996093750000e+01 -8.865552902221679688e+00 1.603819280862808228e-01 1.473722696304321289e+00 4.902313649654388428e-01 3.754213824868202209e-02
5.197000000000000000e+03 6.762602233886718750e+01 2.645791816711425781e+01 -5.731340050697326660e-01 9.827677726745605469e+00 2.776363134384155273e+00 -1.229576945304870605e+00
5.198000000000000000e+03 6.600810241699218750e+01 2.703520011901855469e+01 -7.044187188148498535e-01 1.043599224090576172e+01 2.919472217559814453e+00 -8.022577762603759766e-01
5.199000000000000000e+03 6.717604827880859375e+01 4.498455524444580078e+00 -2.783019244670867920e-01 6.856775283813476562e+00 1.973541975021362305e+00 1.549190580844879150e-01
5.200000000000000000e+03 6.646186065673828125e+01 3.968387126922607422e+00 -2.761383056640625000e-01 6.692244052886962891e+00 1.924831748008728027e+00 1.912873536348342896e-01
5.201000000000000000e+03 6.781531524658203125e+01 2.035784912109375000e+01 -9.789403080940246582e-01 8.421483039855957031e+00 2.232762813568115234e+00 -5.847344398498535156e-01
5.202000000000000000e+03 6.724690246582031250e+01 1.960614204406738281e+01 -9.979926347732543945e-01 8.227885246276855469e+00 2.168967723846435547e+00 -4.141514301300048828e-01
5.203000000000000000e+03 1.246417522430419922e+01 1.345435333251953125e+01 2.471301704645156860e-02 1.351461857557296753e-01 4.795776307582855225e-02 2.033472247421741486e-02
5.204000000000000000e+03 6.747196960449218750e+01 1.563179588317871094e+01 -7.825378775596618652e-01 7.684570312500000000e+00 2.070609807968139648e+00 -2.429804205894470215e-01
5.205000000000000000e+03 6.824133300781250000e+01 1.526229667663574219e+01 -7.326449751853942871e-01 7.741151809692382812e+00 2.102551937103271484e+00 -2.995947599411010742e-01
5.206000000000000000e+03 6.792906951904296875e+01 6.928725242614746094e+00 -3.479032218456268311e-01 7.118565082550048828e+00 2.031198501586914062e+00 6.514279544353485107e-02
5.207000000000000000e+03 6.770078277587890625e+01 1.449536418914794922e+01 -7.191317081451416016e-01 7.575968742370605469e+00 2.057051181793212891e+00 -1.982262879610061646e-01
5.208000000000000000e+03 6.709506225585937500e+01 1.374722862243652344e+01 -6.945077180862426758e-01 7.408473968505859375e+00 2.014189958572387695e+00 -1.135407090187072754e-01
5.209000000000000000e+03 6.544940185546875000e+01 -1.517667007446289062e+01 -4.368551447987556458e-02 6.229842185974121094e+00 1.855847001075744629e+00 3.355083465576171875e-01
5.210000000000000000e+03 6.431056213378906250e+01 -1.231890010833740234e+01 -5.607277154922485352e-02 5.993895053863525391e+00 1.781346678733825684e+00 3.189732432365417480e-01
5.211000000000000000e+03 6.705706787109375000e+01 -1.150140857696533203e+01 -4.301416128873825073e-02 6.567017555236816406e+00 1.957201004028320312e+00 3.001535832881927490e-01
5.212000000000000000e+03 6.484963226318359375e+01 -3.259036540985107422e+00 -1.103429496288299561e-01 6.206437587738037109e+00 1.828828334808349609e+00 2.878065705299377441e-01
5.213000000000000000e+03 6.601765441894531250e+01 -7.647794723510742188e+00 -7.250206917524337769e-02 6.389019489288330078e+00 1.894955277442932129e+00 2.883396744728088379e-01
5.214000000000000000e+03 4.470732879638671875e+01 -1.031879329681396484e+01 1.177116855978965759e-01 1.736269354820251465e+00 5.561943054199218750e-01 3.168682008981704712e-02
5.215000000000000000e+03 4.396192169189453125e+01 -1.301224231719970703e+01 8.033992350101470947e-02 1.623341321945190430e+00 5.111044049263000488e-01 -2.014178782701492310e-02
5.216000000000000000e+03 1.391241836547851562e+01 2.415153884887695312e+01 -5.965429823845624924e-03 5.408294498920440674e-02 1.443525496870279312e-02 9.643536061048507690e-03
5.217000000000000000e+03 1.460490894317626953e+01 2.505626869201660156e+01 -5.301700904965400696e-03 5.506148934364318848e-02 1.492793671786785126e-02 1.177925523370504379e-02
5.218000000000000000e+03 6.814209747314453125e+01 1.193044376373291016e+01 -5.559639930725097656e-01 7.427099704742431641e+00 2.061340808868408203e+00 -1.179997473955154419e-01
5.219000000000000000e+03 6.627778625488281250e+01 1.091105079650878906e+01 -5.729269981384277344e-01 7.015314102172851562e+00 1.932716131210327148e+00 4.925619065761566162e-02
5.220000000000000000e+03 6.650703430175781250e+01 1.295261859893798828e+01 -6.743529438972473145e-01 7.228506565093994141e+00 1.966246128082275391e+00 -2.126717381179332733e-02
5.221000000000000000e+03 6.474850463867187500e+01 -2.133315658569335938e+01 -1.382408291101455688e-02 6.045658111572265625e+00 1.809550285339355469e+00 3.430550694465637207e-01
5.222000000000000000e+03 6.621755218505859375e+01 -2.056261444091796875e+01 -1.002001576125621796e-02 6.320019721984863281e+00 1.892999887466430664e+00 3.404299318790435791e-01
5.223000000000000000e+03 6.732685852050781250e+01 5.532027244567871094e+00 -3.171046376228332520e-01 6.915344238281250000e+00 1.979471802711486816e+00 1.316891908645629883e-01
5.224000000000000000e+03 4.251372909545898438e+01 -6.500187873840332031e+00 1.926053017377853394e-01 1.215078473091125488e+00 4.223051071166992188e-01 7.716666907072067261e-02
5.225000000000000000e+03 4.164245223999023438e+01 -3.635310888290405273e+00 1.748747378587722778e-01 9.928829669952392578e-01 3.503273129463195801e-01 1.170311272144317627e-01
5.226000000000000000e+03 3.118220901489257812e+01 3.610568237304687500e+01 3.865176439285278320e-02 7.283563911914825439e-02 3.344621881842613220e-02 3.237495198845863342e-02
5.227000000000000000e+03 6.616624450683593750e+01 -1.233457088470458984e+01 -4.826560243964195251e-02 6.377239704132080078e+00 1.898692250251770020e+00 3.105497062206268311e-01
5.228000000000000000e+03 6.519138336181640625e+01 -1.331791210174560547e+01 -4.820521548390388489e-02 6.169202327728271484e+00 1.836299180984497070e+00 3.212440013885498047e-01
5.229000000000000000e+03 6.416857910156250000e+01 -3.891930580139160156e+00 -1.077170744538307190e-01 6.029629707336425781e+00 1.776573896408081055e+00 3.036273121833801270e-01
5.230000000000000000e+03 1.243458461761474609e+01 -1.775361633300781250e+01 1.597768366336822510e-01 -3.943635225296020508e-01 -7.037600874900817871e-02 -3.413736820220947266e-01
5.231000000000000000e+03 4.710968780517578125e+01 -1.846244239807128906e+01 -7.454112172126770020e-02 2.510989427566528320e+00 7.309344410896301270e-01 -1.431621517986059189e-02
5.232000000000000000e+03 5.174712753295898438e+01 -1.909119606018066406e+01 -9.681331366300582886e-02 3.536507368087768555e+00 1.031908273696899414e+00 1.476930975914001465e-01
5.233000000000000000e+03 4.955634307861328125e+01 -1.650878143310546875e+01 -5.293233320116996765e-02 3.000851869583129883e+00 8.843758106231689453e-01 7.933910191059112549e-02
5.234000000000000000e+03 6.542594146728515625e+01 -1.140997505187988281e+01 -4.815476387739181519e-02 6.245447635650634766e+00 1.859187841415405273e+00 3.111546039581298828e-01
5.235000000000000000e+03 4.342869949340820312e+01 -8.074938774108886719e+00 1.736046522855758667e-01 1.433578848838806152e+00 4.821550548076629639e-01 5.169985070824623108e-02
5.236000000000000000e+03 4.247517776489257812e+01 -7.398628711700439453e+00 1.940785050392150879e-01 1.227659463882446289e+00 4.265213906764984131e-01 4.771404713392257690e-02
5.237000000000000000e+03 1.504848575592041016e+01 -2.737607192993164062e+01 1.542477905750274658e-01 -2.545858919620513916e-01 -3.010142967104911804e-02 -2.332975864410400391e-01
5.238000000000000000e+03 6.863785552978515625e+01 1.878107261657714844e+01 -8.706493973731994629e-01 8.195970535278320312e+00 2.197596549987792969e+00 -5.765677094459533691e-01
5.239000000000000000e+03 6.746741485595703125e+01 2.529313468933105469e+01 -7.989569902420043945e-01 9.540159225463867188e+00 2.622360706329345703e+00 -1.037289142608642578e+00
5.240000000000000000e+03 1.117673397064208984e+01 -2.051435470581054688e+01 1.257670521736145020e-01 -4.453254938125610352e-01 -9.586752951145172119e-02 -2.997438013553619385e-01
5.241000000000000000e+03 1.207446956634521484e+01 2.039213180541992188e+01 -3.333071246743202209e-03 5.409464240074157715e-02 1.522847171872854233e-02 3.127319971099495888e-03
5.242000000000000000e+03 1.423987483978271484e+01 2.250254631042480469e+01 -3.289912361651659012e-03 6.709885597229003906e-02 1.914268359541893005e-02 1.410735864192247391e-02
5.243000000000000000e+03 5.522828292846679688e+01 -1.805430793762207031e+01 -7.964763790369033813e-02 4.220067501068115234e+00 1.242125988006591797e+00 2.497622221708297729e-01
5.244000000000000000e+03 6.680686187744140625e+01 1.166097450256347656e+01 -5.998302698135375977e-01 7.176314830780029297e+00 1.972945332527160645e+00 -7.818157784640789032e-03
5.245000000000000000e+03 1.305749797821044922e+01 -2.450484085083007812e+01 1.387868970632553101e-01 -3.626514971256256104e-01 -6.715938448905944824e-02 -2.562999129295349121e-01
5.246000000000000000e+03 1.346159553527832031e+01 -2.860770988464355469e+01 1.256899386644363403e-01 -3.581916391849517822e-01 -6.975051015615463257e-02 -2.060126513242721558e-01
5.247000000000000000e+03 1.083375835418701172e+01 3.174474525451660156e+01 -8.690484799444675446e-03 -9.241632185876369476e-03 -5.379634909331798553e-03 -5.852999631315469742e-03
5.248000000000000000e+03 6.740074157714843750e+01 -6.855793952941894531e+00 -8.004892617464065552e-02 6.660196304321289062e+00 1.974044322967529297e+00 2.787560522556304932e-01
5.249000000000000000e+03 6.545810699462890625e+01 -5.022215366363525391e+00 -1.032140403985977173e-01 6.293509483337402344e+00 1.857088685035705566e+00 2.906709313392639160e-01
5.250000000000000000e+03 5.212083816528320312e+01 -2.844505310058593750e+01 4.016259312629699707e-02 3.955629825592041016e+00 1.198737740516662598e+00 3.140484988689422607e-01
5.251000000000000000e+03 5.381011199951171875e+01 -2.449150085449218750e+01 -4.951263591647148132e-02 4.125982284545898438e+00 1.222940921783447266e+00 2.729557752609252930e-01
5.252000000000000000e+03 6.319709014892578125e+01 -2.492175865173339844e+01 5.033398419618606567e-02 5.768328666687011719e+00 1.745598793029785156e+00 3.731940090656280518e-01
5.253000000000000000e+03 3.839093399047851562e+01 1.186695098876953125e+01 -6.438464522361755371e-01 -2.953896820545196533e-01 -2.817708551883697510e-01 -4.807274341583251953e-01
5.254000000000000000e+03 2.851531791687011719e+01 1.972883582115173340e+00 -9.694125056266784668e-01 -5.107243061065673828e-01 -4.440410435199737549e-01 -2.832144796848297119e-01
5.255000000000000000e+03 2.811566543579101562e+01 1.575801730155944824e+00 -8.959206342697143555e-01 -4.708335995674133301e-01 -4.100262820720672607e-01 -2.455824017524719238e-01
5.256000000000000000e+03 4.958318710327148438e+01 2.353764915466308594e+01 -2.168211638927459717e-01 7.293741106986999512e-01 1.537658870220184326e-01 2.430950403213500977e-01
5.257000000000000000e+03 4.907886123657226562e+01 2.358170509338378906e+01 -2.619839608669281006e-01 5.389739871025085449e-01 8.309700340032577515e-02 1.390323191881179810e-01
5.258000000000000000e+03 5.310250854492187500e+01 2.680942535400390625e+01 1.727460026741027832e-01 1.334343314170837402e+00 4.521268010139465332e-01 7.905416488647460938e-01
5.259000000000000000e+03 4.754570007324218750e+01 2.195522880554199219e+01 -3.642597496509552002e-01 3.812597095966339111e-01 5.099988542497158051e-03 -5.124977789819240570e-03
5.260000000000000000e+03 4.885123062133789062e+01 2.276104927062988281e+01 -2.754258513450622559e-01 6.234757304191589355e-01 1.044149622321128845e-01 1.645500361919403076e-01
5.261000000000000000e+03 4.745431518554687500e+01 2.098747634887695312e+01 -3.453395962715148926e-01 5.152897834777832031e-01 5.098505318164825439e-02 4.972102865576744080e-02
5.262000000000000000e+03 5.000089645385742188e+01 2.484268760681152344e+01 -1.913223415613174438e-01 5.637536048889160156e-01 1.117293760180473328e-01 2.086094170808792114e-01
5.263000000000000000e+03 4.631135559082031250e+01 2.047530746459960938e+01 -4.063105583190917969e-01 2.889684736728668213e-01 -3.520262241363525391e-02 -1.011112630367279053e-01
5.264000000000000000e+03 5.399894714355468750e+01 2.733976554870605469e+01 3.117575049400329590e-01 1.620966792106628418e+00 5.798172950744628906e-01 9.920131564140319824e-01
5.265000000000000000e+03 3.862644577026367188e+01 1.214624309539794922e+01 -6.421844363212585449e-01 -2.886629104614257812e-01 -2.792541980743408203e-01 -4.794664978981018066e-01
5.266000000000000000e+03 3.897513580322265625e+01 1.343139266967773438e+01 -6.641315817832946777e-01 -3.465569317340850830e-01 -3.032065629959106445e-01 -5.275663733482360840e-01
5.267000000000000000e+03 3.117563819885253906e+01 3.031509637832641602e+00 -8.127375245094299316e-01 -4.512152671813964844e-01 -3.791858255863189697e-01 -2.747665941715240479e-01
5.268000000000000000e+03 4.561224746704101562e+01 1.967942428588867188e+01 -4.222646653652191162e-01 2.446565181016921997e-01 -5.328244343400001526e-02 -1.485503017902374268e-01
5.269000000000000000e+03 4.650291824340820312e+01 1.993413162231445312e+01 -3.788974285125732422e-01 4.289247989654541016e-01 1.500821113586425781e-02 -3.392893075942993164e-02
5.270000000000000000e+03 5.929274749755859375e+01 2.928513336181640625e+01 8.564391136169433594e-01 6.143287181854248047e+00 2.099917888641357422e+00 3.170479536056518555e+00
5.271000000000000000e+03 3.989232635498046875e+01 1.290376949310302734e+01 -5.900723934173583984e-01 -1.382925361394882202e-01 -2.185094803571701050e-01 -4.057859480381011963e-01
5.272000000000000000e+03 5.004511642456054688e+01 2.432672119140625000e+01 -1.864930391311645508e-01 7.074711918830871582e-01 1.562934517860412598e-01 2.699369192123413086e-01
5.273000000000000000e+03 4.859385299682617188e+01 2.247434997558593750e+01 -2.937970161437988281e-01 5.977206826210021973e-01 9.117709845304489136e-02 1.387197375297546387e-01
5.274000000000000000e+03 3.920690917968750000e+01 1.377393245697021484e+01 -6.602889299392700195e-01 -3.400928378105163574e-01 -3.001145422458648682e-01 -5.275074243545532227e-01
5.275000000000000000e+03 4.367768478393554688e+01 1.721507263183593750e+01 -4.764366447925567627e-01 1.307898461818695068e-01 -1.036940366029739380e-01 -2.732201516628265381e-01
5.276000000000000000e+03 4.433279800415039062e+01 1.901714324951171875e+01 -4.846940040588378906e-01 4.517775401473045349e-02 -1.318548768758773804e-01 -2.897608876228332520e-01
5.277000000000000000e+03 3.897083282470703125e+01 1.113477706909179688e+01 -5.795436501502990723e-01 -1.332832276821136475e-01 -2.138480544090270996e-01 -3.844302296638488770e-01
5.278000000000000000e+03 3.951734161376953125e+01 1.351810932159423828e+01 -6.314460039138793945e-01 -2.547628283500671387e-01 -2.658626437187194824e-01 -4.779119491577148438e-01
5.279000000000000000e+03 4.511632156372070312e+01 1.917708969116210938e+01 -4.401461482048034668e-01 1.904618293046951294e-01 -7.490529865026473999e-02 -1.947628408670425415e-01
5.280000000000000000e+03 4.536960601806640625e+01 1.942063903808593750e+01 -4.307060837745666504e-01 2.250575721263885498e-01 -6.169455498456954956e-02 -1.712684035301208496e-01
5.281000000000000000e+03 1.810878944396972656e+01 1.713163566589355469e+01 3.721829503774642944e-02 1.360156238079071045e-01 5.197017639875411987e-02 7.042066007852554321e-02
5.282000000000000000e+03 4.333147811889648438e+01 1.639584159851074219e+01 -4.810427725315093994e-01 1.658736169338226318e-01 -9.455075114965438843e-02 -2.682150304317474365e-01
5.283000000000000000e+03 4.383528518676757812e+01 1.753352928161621094e+01 -4.771447479724884033e-01 1.343261599540710449e-01 -1.028455719351768494e-01 -2.715492546558380127e-01
5.284000000000000000e+03 4.392243576049804688e+01 1.827814865112304688e+01 -4.827581644058227539e-01 5.028903484344482422e-02 -1.297407299280166626e-01 -3.014006614685058594e-01
5.285000000000000000e+03 5.464373779296875000e+01 2.802224922180175781e+01 4.632935822010040283e-01 1.797394275665283203e+00 6.782063245773315430e-01 1.125781416893005371e+00
5.286000000000000000e+03 5.557350158691406250e+01 2.862502288818359375e+01 6.895723342895507812e-01 2.094108581542968750e+00 8.351042866706848145e-01 1.368800759315490723e+00
5.287000000000000000e+03 3.006874084472656250e+01 1.914534926414489746e+00 -7.006208300590515137e-01 -4.723525643348693848e-01 -3.518920242786407471e-01 -1.907338500022888184e-01
5.288000000000000000e+03 5.040516662597656250e+01 2.491308212280273438e+01 -1.572457402944564819e-01 6.785887479782104492e-01 1.564029008150100708e-01 2.864960134029388428e-01
5.289000000000000000e+03 4.037148284912109375e+01 1.480831527709960938e+01 -6.296790242195129395e-01 -2.436213195323944092e-01 -2.619901001453399658e-01 -4.801600575447082520e-01
5.290000000000000000e+03 4.158518981933593750e+01 1.497540092468261719e+01 -5.543648004531860352e-01 -2.208685874938964844e-02 -1.729355007410049438e-01 -3.696995377540588379e-01
5.291000000000000000e+03 4.910235214233398438e+01 2.410352325439453125e+01 -2.816220521926879883e-01 4.301277697086334229e-01 4.455171525478363037e-02 8.444789052009582520e-02
5.292000000000000000e+03 5.224845123291015625e+01 2.609369087219238281e+01 4.983302205801010132e-02 1.135235786437988281e+00 3.555206656455993652e-01 6.346214413642883301e-01
5.293000000000000000e+03 4.779376220703125000e+01 2.168640518188476562e+01 -3.393725454807281494e-01 4.965016245841979980e-01 4.713872447609901428e-02 5.608887597918510437e-02
5.294000000000000000e+03 4.886119842529296875e+01 2.220676422119140625e+01 -2.724668979644775391e-01 7.322407364845275879e-01 1.379321515560150146e-01 2.086794227361679077e-01
5.295000000000000000e+03 4.480712127685546875e+01 1.913031959533691406e+01 -4.497225880622863770e-01 1.279018521308898926e-01 -9.654621779918670654e-02 -2.287160456180572510e-01
5.296000000000000000e+03 5.081576538085937500e+01 2.502261924743652344e+01 -1.150113567709922791e-01 8.107427954673767090e-01 2.087194174528121948e-01 3.751470446586608887e-01
5.297000000000000000e+03 5.122392272949218750e+01 2.516599273681640625e+01 -6.767446547746658325e-02 9.382730126380920410e-01 2.611795663833618164e-01 4.650250971317291260e-01
5.298000000000000000e+03 5.188512802124023438e+01 2.592114639282226562e+01 7.904014550149440765e-03 1.018375635147094727e+00 3.078838884830474854e-01 5.584921240806579590e-01
5.299000000000000000e+03 4.446884918212890625e+01 1.844086265563964844e+01 -4.559710621833801270e-01 1.550129801034927368e-01 -9.028742462396621704e-02 -2.352463603019714355e-01
5.300000000000000000e+03 4.586378860473632812e+01 1.945222663879394531e+01 -4.028061926364898682e-01 3.354410231113433838e-01 -2.020955085754394531e-02 -1.006198748946189880e-01
5.301000000000000000e+03 2.010679244995117188e+01 1.834165000915527344e+01 4.233511909842491150e-02 1.289618909358978271e-01 5.138910189270973206e-02 7.551643252372741699e-02
5.302000000000000000e+03 1.992199897766113281e+01 1.676536750793457031e+01 5.445613339543342590e-02 1.397504359483718872e-01 5.826197192072868347e-02 8.676327764987945557e-02
5.303000000000000000e+03 4.307454681396484375e+01 1.712941360473632812e+01 -5.135116577148437500e-01 3.535553812980651855e-02 -1.434468477964401245e-01 -3.427718281745910645e-01
5.304000000000000000e+03 4.198913192749023438e+01 1.497906398773193359e+01 -5.336933135986328125e-01 6.013594195246696472e-02 -1.420672088861465454e-01 -3.272445499897003174e-01
5.305000000000000000e+03 4.085402679443359375e+01 1.461484718322753906e+01 -5.938489437103271484e-01 -1.198818609118461609e-01 -2.141192406415939331e-01 -4.211368262767791748e-01
5.306000000000000000e+03 4.121163558959960938e+01 1.497714900970458984e+01 -5.786098837852478027e-01 -8.929464221000671387e-02 -2.003713548183441162e-01 -4.073897302150726318e-01
5.307000000000000000e+03 2.365259933471679688e+01 2.161120796203613281e+01 4.033435136079788208e-02 1.100300252437591553e-01 4.510931298136711121e-02 7.213341444730758667e-02
5.308000000000000000e+03 2.367403602600097656e+01 2.105333709716796875e+01 4.533486068248748779e-02 1.124837473034858704e-01 4.734558239579200745e-02 7.407762110233306885e-02
5.309000000000000000e+03 1.694507980346679688e+01 1.749517059326171875e+01 2.493482641875743866e-02 1.285226643085479736e-01 4.603724926710128784e-02 5.680849403142929077e-02
5.310000000000000000e+03 4.058242416381835938e+01 1.468138217926025391e+01 -6.096233129501342773e-01 -1.828487664461135864e-01 -2.377416342496871948e-01 -4.513136446475982666e-01
5.311000000000000000e+03 5.871448516845703125e+01 2.877367019653320312e+01 7.899076342582702637e-01 5.321277141571044922e+00 1.833355426788330078e+00 2.819374084472656250e+00
5.312000000000000000e+03 5.841884613037109375e+01 2.903107452392578125e+01 9.512344598770141602e-01 4.823936939239501953e+00 1.732551455497741699e+00 2.772016763687133789e+00
5.313000000000000000e+03 2.947455215454101562e+01 1.959570646286010742e+00 -7.812864780426025391e-01 -4.936295449733734131e-01 -3.824748098850250244e-01 -2.210588008165359497e-01
5.314000000000000000e+03 4.752642822265625000e+01 2.146199417114257812e+01 -3.525357246398925781e-01 4.576802551746368408e-01 3.154336288571357727e-02 2.828073129057884216e-02
5.315000000000000000e+03 3.780408859252929688e+01 1.084326839447021484e+01 -6.390011310577392578e-01 -2.957715690135955811e-01 -2.804318070411682129e-01 -4.691470265388488770e-01
5.316000000000000000e+03 2.004613876342773438e+01 1.785771369934082031e+01 4.458175972104072571e-02 1.326431185007095337e-01 5.316746607422828674e-02 7.869451493024826050e-02
5.317000000000000000e+03 2.226003265380859375e+01 1.867095565795898438e+01 5.552696436643600464e-02 1.243087574839591980e-01 5.395071581006050110e-02 8.435779064893722534e-02
5.318000000000000000e+03 2.356680679321289062e+01 2.061457061767578125e+01 4.677845910191535950e-02 1.150027513504028320e-01 4.853436350822448730e-02 7.783094048500061035e-02
5.319000000000000000e+03 1.459026432037353516e+01 1.179067993164062500e+01 4.644322022795677185e-02 1.997485458850860596e-01 7.385753095149993896e-02 7.010133564472198486e-02
5.320000000000000000e+03 1.330406856536865234e+01 1.344985771179199219e+01 2.703481726348400116e-02 1.518772989511489868e-01 5.367363616824150085e-02 3.391325101256370544e-02
5.321000000000000000e+03 3.745956420898437500e+01 9.981715202331542969e+00 -6.266258955001831055e-01 -2.796777188777923584e-01 -2.718910872936248779e-01 -4.465429186820983887e-01
5.322000000000000000e+03 3.809613800048828125e+01 1.153609371185302734e+01 -6.490197181701660156e-01 -3.138572275638580322e-01 -2.888630926609039307e-01 -4.881397485733032227e-01
5.323000000000000000e+03 3.737033843994140625e+01 1.070340442657470703e+01 -6.662578582763671875e-01 -3.550821244716644287e-01 -3.064019978046417236e-01 -5.035798549652099609e-01
5.324000000000000000e+03 1.971676635742187500e+01 1.724215507507324219e+01 4.808140918612480164e-02 1.362810283899307251e-01 5.530873313546180725e-02 8.154944330453872681e-02
5.325000000000000000e+03 5.493842315673828125e+01 2.760734558105468750e+01 4.476919770240783691e-01 2.106032133102416992e+00 7.661172747611999512e-01 1.269638419151306152e+00
5.326000000000000000e+03 5.568556976318359375e+01 2.815138816833496094e+01 6.339054703712463379e-01 2.384098529815673828e+00 9.054012298583984375e-01 1.506531000137329102e+00
5.327000000000000000e+03 3.692289733886718750e+01 9.185188293457031250e+00 -6.189560294151306152e-01 -2.862569987773895264e-01 -2.715639173984527588e-01 -4.377274513244628906e-01
5.328000000000000000e+03 2.310168266296386719e+01 1.966475486755371094e+01 5.156935378909111023e-02 1.184632033109664917e-01 5.100976675748825073e-02 8.146306127309799194e-02
5.329000000000000000e+03 3.653798294067382812e+01 8.904951095581054688e+00 -6.330093741416931152e-01 -3.188222646713256836e-01 -2.855494916439056396e-01 -4.536774754524230957e-01
5.330000000000000000e+03 3.638748931884765625e+01 8.298379898071289062e+00 -6.189582943916320801e-01 -2.917839586734771729e-01 -2.732226848602294922e-01 -4.258810579776763916e-01
5.331000000000000000e+03 3.611098861694335938e+01 8.669278144836425781e+00 -6.540451645851135254e-01 -3.617824018001556396e-01 -3.047482669353485107e-01 -4.703249931335449219e-01
5.332000000000000000e+03 1.227970409393310547e+01 9.475706100463867188e+00 5.984808504581451416e-02 2.163693606853485107e-01 8.286523073911666870e-02 7.904073223471641541e-03
5.333000000000000000e+03 4.406726455688476562e+01 1.777549743652343750e+01 -4.660234451293945312e-01 1.547461599111557007e-01 -9.338318556547164917e-02 -2.520689070224761963e-01
5.334000000000000000e+03 6.063999938964843750e+01 2.957018089294433594e+01 3.252115249633789062e-01 8.890411376953125000e+00 2.764687061309814453e+00 3.359087467193603516e+00
5.335000000000000000e+03 6.057553482055664062e+01 2.927604675292968750e+01 2.290661633014678955e-01 8.706570625305175781e+00 2.680691242218017578e+00 3.248156070709228516e+00
5.336000000000000000e+03 2.956340217590332031e+01 1.381882786750793457e+00 -6.110944151878356934e-01 -4.571581780910491943e-01 -3.204757869243621826e-01 -1.444575041532516479e-01
5.337000000000000000e+03 1.502865505218505859e+01 1.218521118164062500e+01 4.848784953355789185e-02 1.947921663522720337e-01 7.298400998115539551e-02 7.679665833711624146e-02
5.338000000000000000e+03 1.561734962463378906e+01 1.253255844116210938e+01 5.154651403427124023e-02 1.895094662904739380e-01 7.231679558753967285e-02 8.440966159105300903e-02
5.339000000000000000e+03 4.278737258911132812e+01 1.646028709411621094e+01 -5.141192078590393066e-01 5.369551107287406921e-02 -1.381271034479141235e-01 -3.328785002231597900e-01
5.340000000000000000e+03 4.238660812377929688e+01 1.545773696899414062e+01 -5.195344686508178711e-01 8.761665225028991699e-02 -1.295753568410873413e-01 -3.139518499374389648e-01
5.341000000000000000e+03 1.616205787658691406e+01 1.309994602203369141e+01 5.189833417534828186e-02 1.799681335687637329e-01 6.955993920564651489e-02 8.741657435894012451e-02
5.342000000000000000e+03 1.333355903625488281e+01 1.180518913269042969e+01 3.814881294965744019e-02 1.835491806268692017e-01 6.650939583778381348e-02 4.142268002033233643e-02
5.343000000000000000e+03 1.398599338531494141e+01 1.530018234252929688e+01 1.802374795079231262e-02 1.318649351596832275e-01 4.496660828590393066e-02 3.636099398136138916e-02
5.344000000000000000e+03 1.680532264709472656e+01 1.429788398742675781e+01 4.651168361306190491e-02 1.635140329599380493e-01 6.300771981477737427e-02 8.274147659540176392e-02
5.345000000000000000e+03 2.332197570800781250e+01 2.017429733276367188e+01 5.022857710719108582e-02 1.159174665808677673e-01 4.984381049871444702e-02 7.824603468179702759e-02
5.346000000000000000e+03 1.573667716979980469e+01 1.453911304473876953e+01 3.603041917085647583e-02 1.577962785959243774e-01 5.814801156520843506e-02 6.580343097448348999e-02
5.347000000000000000e+03 3.723867034912109375e+01 9.542001724243164062e+00 -6.181090474128723145e-01 -2.752988040447235107e-01 -2.680223584175109863e-01 -4.359576702117919922e-01
5.348000000000000000e+03 1.340691184997558594e+01 1.008486270904541016e+01 5.050878599286079407e-02 2.339353114366531372e-01 8.533322811126708984e-02 4.978632926940917969e-02
5.349000000000000000e+03 1.312259864807128906e+01 1.053529357910156250e+01 4.736046120524406433e-02 2.159319519996643066e-01 7.898772507905960083e-02 3.806439414620399475e-02
5.350000000000000000e+03 4.704039764404296875e+01 2.150353622436523438e+01 -3.876932859420776367e-01 3.194110393524169922e-01 -2.048467844724655151e-02 -5.090159922838211060e-02
5.351000000000000000e+03 4.704128265380859375e+01 2.108908653259277344e+01 -3.740462064743041992e-01 3.871634304523468018e-01 3.935164306312799454e-03 -2.090057358145713806e-02
5.352000000000000000e+03 2.511646461486816406e+01 2.262313461303710938e+01 4.117567837238311768e-02 1.052259877324104309e-01 4.392049834132194519e-02 7.145830243825912476e-02
5.353000000000000000e+03 2.232019042968750000e+01 1.926879692077636719e+01 4.943784326314926147e-02 1.218149065971374512e-01 5.137582495808601379e-02 8.101647347211837769e-02
5.354000000000000000e+03 1.123586750030517578e+01 8.059698104858398438e+00 1.050172820687294006e-01 1.833448112010955811e-01 8.650862425565719604e-02 -4.163354262709617615e-02
5.355000000000000000e+03 3.565704345703125000e+01 8.441308021545410156e+00 -6.743050217628479004e-01 -4.091141521930694580e-01 -3.250257372856140137e-01 -4.984635114669799805e-01
5.356000000000000000e+03 3.595836639404296875e+01 8.044803619384765625e+00 -6.328714489936828613e-01 -3.283756375312805176e-01 -2.883741259574890137e-01 -4.410607516765594482e-01
5.357000000000000000e+03 3.326859664916992188e+01 2.892251729965209961e+00 -5.493758320808410645e-01 -2.616881132125854492e-01 -2.433191984891891479e-01 -1.730609089136123657e-01
5.358000000000000000e+03 5.598878097534179688e+01 2.871164131164550781e+01 8.006439208984375000e-01 2.386764049530029297e+00 9.562224149703979492e-01 1.567756772041320801e+00
5.359000000000000000e+03 5.743622207641601562e+01 2.862611579895019531e+01 8.826462626457214355e-01 3.779976367950439453e+00 1.398786783218383789e+00 2.270388364791870117e+00
5.360000000000000000e+03 3.042478561401367188e+01 2.136148452758789062e+00 -7.093926072120666504e-01 -4.325031638145446777e-01 -3.425687253475189209e-01 -1.663732379674911499e-01
5.361000000000000000e+03 1.163835239410400391e+01 7.903921127319335938e+00 9.575560688972473145e-02 2.259718477725982666e-01 9.651823341846466064e-02 -3.751169145107269287e-02
5.362000000000000000e+03 1.224604606628417969e+01 7.796643733978271484e+00 8.607332408428192139e-02 2.830635607242584229e-01 1.107410639524459839e-01 -1.870349794626235962e-02
5.363000000000000000e+03 2.630072402954101562e+01 2.652311134338378906e+01 2.815590798854827881e-02 9.478594362735748291e-02 3.688255324959754944e-02 5.882284417748451233e-02
5.364000000000000000e+03 3.421698379516601562e+01 4.595063686370849609e+00 -5.988277792930603027e-01 -2.538539171218872070e-01 -2.558045089244842529e-01 -2.974982261657714844e-01
5.365000000000000000e+03 3.606821823120117188e+01 6.409323215484619141e+00 -5.442798733711242676e-01 -1.858149021863937378e-01 -2.190284430980682373e-01 -3.183267712593078613e-01
5.366000000000000000e+03 5.528556442260742188e+01 2.792713928222656250e+01 5.405433773994445801e-01 2.204588890075683594e+00 8.235396742820739746e-01 1.369616270065307617e+00
5.367000000000000000e+03 3.054122734069824219e+01 1.083577275276184082e+00 -4.498484730720520020e-01 -4.218451082706451416e-01 -2.615080773830413818e-01 -8.039120584726333618e-02
5.368000000000000000e+03 3.579084396362304688e+01 6.773146629333496094e+00 -5.832551717758178711e-01 -2.371295690536499023e-01 -2.461154162883758545e-01 -3.636613488197326660e-01
5.369000000000000000e+03 2.730487442016601562e+01 2.637650108337402344e+01 3.541388362646102905e-02 9.315376728773117065e-02 3.857029229402542114e-02 6.286934018135070801e-02
5.370000000000000000e+03 3.247889328002929688e+01 1.948630809783935547e-01 -1.571192592382431030e-01 -2.616506814956665039e-01 -1.256309747695922852e-01 2.605848386883735657e-02
5.371000000000000000e+03 3.514501953125000000e+01 -1.391455173492431641e+00 1.007640659809112549e-01 -2.407537028193473816e-02 2.300660870969295502e-02 5.889109894633293152e-02
5.372000000000000000e+03 3.396134567260742188e+01 5.092538833618164062e+00 -6.579079627990722656e-01 -3.329532146453857422e-01 -2.972583770751953125e-01 -3.757376372814178467e-01
5.373000000000000000e+03 3.217802810668945312e+01 2.628398895263671875e+00 -5.936827659606933594e-01 -3.356792032718658447e-01 -2.788085937500000000e-01 -1.715247929096221924e-01
5.374000000000000000e+03 2.090901374816894531e+01 1.855700111389160156e+01 4.675116389989852905e-02 1.275217235088348389e-01 5.228186771273612976e-02 7.897455245256423950e-02
5.375000000000000000e+03 1.101921653747558594e+01 9.516283035278320312e+00 7.286875694990158081e-02 1.483409553766250610e-01 6.636290997266769409e-02 -2.246572636067867279e-02
5.376000000000000000e+03 2.959803771972656250e+01 2.987281417846679688e+01 3.232891112565994263e-02 8.324943482875823975e-02 3.467350453138351440e-02 5.172585323452949524e-02
5.377000000000000000e+03 1.928781318664550781e+01 1.563894462585449219e+01 5.864639207720756531e-02 1.471009552478790283e-01 6.172420084476470947e-02 9.212435781955718994e-02
5.378000000000000000e+03 2.585966300964355469e+01 2.584858322143554688e+01 3.116939403116703033e-02 9.530772268772125244e-02 3.794313594698905945e-02 5.949394777417182922e-02
5.379000000000000000e+03 2.565298843383789062e+01 2.457205009460449219e+01 3.442145884037017822e-02 9.980886429548263550e-02 4.026909545063972473e-02 6.505814194679260254e-02
5.380000000000000000e+03 5.368112182617187500e+01 2.700082778930664062e+01 2.493020743131637573e-01 1.556757569313049316e+00 5.418179035186767578e-01 9.309617877006530762e-01
5.381000000000000000e+03 3.030956649780273438e+01 1.521570086479187012e+00 -5.878363251686096191e-01 -4.013231098651885986e-01 -2.967478334903717041e-01 -9.711743891239166260e-02
5.382000000000000000e+03 3.266859436035156250e+01 2.510682582855224609e+00 -5.506162047386169434e-01 -3.025615215301513672e-01 -2.559533119201660156e-01 -1.500737816095352173e-01
5.383000000000000000e+03 2.171404266357421875e+01 1.947951507568359375e+01 4.521326348185539246e-02 1.214616596698760986e-01 5.000247806310653687e-02 7.616923004388809204e-02
5.384000000000000000e+03 2.693802452087402344e+01 2.703720855712890625e+01 2.873168326914310455e-02 9.188492596149444580e-02 3.618498146533966064e-02 5.635377764701843262e-02
5.385000000000000000e+03 1.908300018310546875e+01 1.658660125732421875e+01 4.771370440721511841e-02 1.412079334259033203e-01 5.667649209499359131e-02 8.234424889087677002e-02
5.386000000000000000e+03 1.842871856689453125e+01 1.538397216796875000e+01 5.379698053002357483e-02 1.510338187217712402e-01 6.144924089312553406e-02 8.846627175807952881e-02
5.387000000000000000e+03 1.779581642150878906e+01 1.485769653320312500e+01 5.283726379275321960e-02 1.571050882339477539e-01 6.298270821571350098e-02 8.804684877395629883e-02
5.388000000000000000e+03 3.562960052490234375e+01 -1.023395299911499023e+00 6.230709329247474670e-02 2.892760746181011200e-02 2.737041004002094269e-02 5.824926868081092834e-02
5.389000000000000000e+03 2.994566726684570312e+01 1.362637996673583984e+00 -5.963975191116333008e-01 -4.475115835666656494e-01 -3.131727278232574463e-01 -1.350453346967697144e-01
5.390000000000000000e+03 3.366109085083007812e+01 4.318580150604248047e+00 -6.401001214981079102e-01 -3.082465827465057373e-01 -2.845039963722229004e-01 -3.105638325214385986e-01
5.391000000000000000e+03 3.397688293457031250e+01 -5.975248813629150391e-01 -5.127142183482646942e-03 -1.390927881002426147e-01 -4.326597973704338074e-02 4.601360857486724854e-02
5.392000000000000000e+03 2.549504280090332031e+01 2.193824386596679688e+01 4.711056500673294067e-02 1.063548773527145386e-01 4.603963345289230347e-02 7.558116316795349121e-02
5.393000000000000000e+03 6.438527679443359375e+01 2.758897399902343750e+01 -8.380239605903625488e-01 1.087272834777832031e+01 3.010411262512207031e+00 -5.871916189789772034e-02
5.394000000000000000e+03 6.169126510620117188e+01 2.834523582458496094e+01 -5.631214380264282227e-01 1.004225349426269531e+01 2.843739509582519531e+00 2.093765258789062500e+00
5.395000000000000000e+03 3.319596481323242188e+01 -2.382549196481704712e-01 -7.007889449596405029e-02 -2.034859657287597656e-01 -8.206945657730102539e-02 3.913652896881103516e-02
5.396000000000000000e+03 3.278270339965820312e+01 1.408970117568969727e+00 -3.627247810363769531e-01 -2.782983779907226562e-01 -1.923069506883621216e-01 -6.037344783544540405e-02
5.397000000000000000e+03 6.374098205566406250e+01 2.726260948181152344e+01 -9.545172452926635742e-01 1.056632518768310547e+01 2.883542537689208984e+00 4.056158959865570068e-01
5.398000000000000000e+03 6.672483825683593750e+01 2.538092422485351562e+01 -8.918938636779785156e-01 9.669384956359863281e+00 2.633247137069702148e+00 -8.097147941589355469e-01
5.399000000000000000e+03 1.299777412414550781e+01 1.708080482482910156e+01 8.112815208733081818e-03 9.790992736816406250e-02 3.180682286620140076e-02 1.874196529388427734e-02
5.400000000000000000e+03 1.301577281951904297e+01 2.102471542358398438e+01 -3.449437208473682404e-03 6.168995425105094910e-02 1.747215539216995239e-02 8.923899382352828979e-03
5.401000000000000000e+03 1.192654132843017578e+01 1.165004062652587891e+01 3.837782889604568481e-02 1.486223638057708740e-01 5.610005557537078857e-02 1.079553365707397461e-02
5.402000000000000000e+03 6.435523986816406250e+01 1.667204260826110840e+00 -2.276437729597091675e-01 6.156968116760253906e+00 1.778797268867492676e+00 2.764125764369964600e-01
5.403000000000000000e+03 6.328137588500976562e+01 -1.262654066085815430e+00 -1.609002798795700073e-01 5.850057601928710938e+00 1.706747174263000488e+00 3.099313378334045410e-01
5.404000000000000000e+03 6.172890090942382812e+01 2.771960067749023438e+01 -7.100662589073181152e-01 9.579236984252929688e+00 2.660751104354858398e+00 1.894093036651611328e+00
5.405000000000000000e+03 1.647912597656250000e+01 1.370568561553955078e+01 4.883776232600212097e-02 1.715830266475677490e-01 6.612623482942581177e-02 8.509198576211929321e-02
5.406000000000000000e+03 1.254772663116455078e+01 1.646032524108886719e+01 9.334603324532508850e-03 9.711146354675292969e-02 3.193382173776626587e-02 1.518731005489826202e-02
5.407000000000000000e+03 2.513210105895996094e+01 2.413763618469238281e+01 3.423871099948883057e-02 1.008935645222663879e-01 4.053968191146850586e-02 6.418496370315551758e-02
5.408000000000000000e+03 6.625880432128906250e+01 5.985064983367919922e+00 -3.557848036289215088e-01 6.716831207275390625e+00 1.908313989639282227e+00 1.663192510604858398e-01
5.409000000000000000e+03 1.179721736907958984e+01 8.991577148437500000e+00 7.321133464574813843e-02 2.050747275352478027e-01 8.348581939935684204e-02 -1.156426593661308289e-02
5.410000000000000000e+03 1.145317363739013672e+01 8.439954757690429688e+00 8.867148309946060181e-02 1.916046142578125000e-01 8.408282697200775146e-02 -2.926898561418056488e-02
5.411000000000000000e+03 1.474101924896240234e+01 2.354177284240722656e+01 -3.334750654175877571e-03 6.445566564798355103e-02 1.833627372980117798e-02 1.519760675728321075e-02
5.412000000000000000e+03 6.732816314697265625e+01 1.741049957275390625e+01 -8.971479535102844238e-01 7.870398998260498047e+00 2.091975212097167969e+00 -2.955775856971740723e-01
5.413000000000000000e+03 1.389040279388427734e+01 1.457354640960693359e+01 2.201388217508792877e-02 1.410577744245529175e-01 4.892149567604064941e-02 3.854834660887718201e-02
5.414000000000000000e+03 1.279221820831298828e+01 1.495368862152099609e+01 1.700036041438579559e-02 1.188901215791702271e-01 4.076714441180229187e-02 2.316351234912872314e-02
5.415000000000000000e+03 6.620183563232421875e+01 2.201591873168945312e+01 -1.111919403076171875e+00 8.681412696838378906e+00 2.270848035812377930e+00 -3.594497144222259521e-01
5.416000000000000000e+03 3.975497436523437500e+01 -2.973126411437988281e+00 1.794159561395645142e-01 6.529794335365295410e-01 2.497186064720153809e-01 9.533937275409698486e-02
5.417000000000000000e+03 6.509055328369140625e+01 -1.347930431365966797e-01 -1.794081628322601318e-01 6.280724525451660156e+00 1.830394864082336426e+00 2.666172385215759277e-01
5.418000000000000000e+03 6.473030090332031250e+01 2.977102994918823242e+00 -2.654015719890594482e-01 6.281739711761474609e+00 1.804901480674743652e+00 2.568262517452239990e-01
5.419000000000000000e+03 6.587503814697265625e+01 -9.598242759704589844e+00 -6.263866275548934937e-02 6.342505455017089844e+00 1.883960008621215820e+00 2.994282841682434082e-01
5.420000000000000000e+03 6.371508407592773438e+01 -1.119493293762207031e+01 -5.462483689188957214e-02 5.880447387695312500e+00 1.747746825218200684e+00 3.163514435291290283e-01
5.421000000000000000e+03 6.719512176513671875e+01 2.079220771789550781e+01 -1.028948545455932617e+00 8.456682205200195312e+00 2.228320121765136719e+00 -4.950415492057800293e-01
5.422000000000000000e+03 2.858509445190429688e+01 3.433010864257812500e+01 3.150078281760215759e-02 7.574638724327087402e-02 3.217415139079093933e-02 3.426708281040191650e-02
5.423000000000000000e+03 6.563235473632812500e+01 3.457147836685180664e+00 -2.757669687271118164e-01 6.497812747955322266e+00 1.866613626480102539e+00 2.229214757680892944e-01
5.424000000000000000e+03 6.632299804687500000e+01 9.650849342346191406e+00 -5.042257308959960938e-01 6.926617145538330078e+00 1.926717400550842285e+00 8.181422203779220581e-02
5.425000000000000000e+03 6.710078430175781250e+01 9.122991561889648438e+00 -4.619880020618438721e-01 7.062614917755126953e+00 1.980188012123107910e+00 4.817536473274230957e-02
5.426000000000000000e+03 6.416360473632812500e+01 -3.546502292156219482e-01 -1.790794432163238525e-01 6.068727493286132812e+00 1.766894459724426270e+00 2.873147428035736084e-01
5.427000000000000000e+03 6.411687469482421875e+01 -2.212530851364135742e+00 -1.460236310958862305e-01 6.019601345062255859e+00 1.762073397636413574e+00 2.923305034637451172e-01
5.428000000000000000e+03 4.744332885742187500e+01 -1.274869155883789062e+01 1.962728239595890045e-02 2.407387256622314453e+00 7.281043529510498047e-01 5.580656975507736206e-02
5.429000000000000000e+03 4.447057342529296875e+01 -8.870267868041992188e+00 1.356021016836166382e-01 1.674616932868957520e+00 5.430657267570495605e-01 5.529881268739700317e-02
5.430000000000000000e+03 6.780586242675781250e+01 1.638245964050292969e+01 -8.129842281341552734e-01 7.800964355468750000e+00 2.096394062042236328e+00 -3.079845011234283447e-01
5.431000000000000000e+03 6.636679077148437500e+01 -6.529303073883056641e+00 -9.084071964025497437e-02 6.464549541473388672e+00 1.912112593650817871e+00 2.905791401863098145e-01
5.432000000000000000e+03 6.520644378662109375e+01 -8.620985031127929688e+00 -6.809036433696746826e-02 6.212508678436279297e+00 1.843325495719909668e+00 3.025420606136322021e-01
5.433000000000000000e+03 1.541929054260253906e+01 2.576848983764648438e+01 -4.755022469907999039e-03 5.996719375252723694e-02 1.656365208327770233e-02 1.537966914474964142e-02
5.434000000000000000e+03 4.522800064086914062e+01 -1.195939254760742188e+01 7.731875777244567871e-02 1.897158384323120117e+00 5.923431515693664551e-01 7.093360647559165955e-03
5.435000000000000000e+03 4.693117904663085938e+01 -1.399694919586181641e+01 1.784450933337211609e-02 2.335892915725708008e+00 7.061212658882141113e-01 1.191376615315675735e-02
5.436000000000000000e+03 1.485325717926025391e+01 2.679800605773925781e+01 -6.423324812203645706e-03 4.879681766033172607e-02 1.271204743534326553e-02 1.031557843089103699e-02
5.437000000000000000e+03 6.384086990356445312e+01 -1.542789649963378906e+01 -4.454352334141731262e-02 5.891297340393066406e+00 1.754026055335998535e+00 3.273879289627075195e-01
5.438000000000000000e+03 6.553990936279296875e+01 2.641375350952148438e+01 -9.098163247108459473e-01 1.020936775207519531e+01 2.789865255355834961e+00 -4.916012585163116455e-01
5.439000000000000000e+03 4.158113479614257812e+01 -4.645881652832031250e+00 1.857990771532058716e-01 9.923686385154724121e-01 3.534502983093261719e-01 9.079979360103607178e-02
5.440000000000000000e+03 4.531996917724609375e+01 -9.258317947387695312e+00 1.281000524759292603e-01 1.863246440887451172e+00 5.974039435386657715e-01 7.147302478551864624e-02
5.441000000000000000e+03 5.282406616210937500e+01 -1.817403221130371094e+01 -8.468786627054214478e-02 3.749074697494506836e+00 1.099316000938415527e+00 1.708344072103500366e-01
5.442000000000000000e+03 3.126046180725097656e+01 3.415702056884765625e+01 3.301014378666877747e-02 7.604362815618515015e-02 3.271613270044326782e-02 3.532687947154045105e-02
5.443000000000000000e+03 2.907670783996582031e+01 3.232264709472656250e+01 3.141395375132560730e-02 8.069802075624465942e-02 3.363359346985816956e-02 4.122151434421539307e-02
5.444000000000000000e+03 6.469303131103515625e+01 -4.554247379302978516e+00 -1.226291358470916748e-01 6.083351135253906250e+00 1.788216710090637207e+00 3.010478019714355469e-01
5.445000000000000000e+03 4.342574691772460938e+01 -6.513662338256835938e+00 1.715361922979354858e-01 1.386119008064270020e+00 4.672965705394744873e-01 8.503834158182144165e-02
5.446000000000000000e+03 1.285671901702880859e+01 1.858235168457031250e+01 2.496865577995777130e-03 8.099714666604995728e-02 2.504820376634597778e-02 1.316768210381269455e-02
5.447000000000000000e+03 6.683960723876953125e+01 1.832268714904785156e+01 -9.624235033988952637e-01 7.977722167968750000e+00 2.104589700698852539e+00 -2.842912375926971436e-01
5.448000000000000000e+03 6.698678588867187500e+01 -9.041428565979003906e+00 -5.421321839094161987e-02 6.558886051177978516e+00 1.951401829719543457e+00 2.923198044300079346e-01
5.449000000000000000e+03 4.790305328369140625e+01 -1.547530078887939453e+01 -1.930692978203296661e-02 2.575854063034057617e+00 7.669641375541687012e-01 2.467922121286392212e-02
5.450000000000000000e+03 4.808697128295898438e+01 -1.680563735961914062e+01 -5.930285900831222534e-02 2.655345201492309570e+00 7.788127064704895020e-01 2.048694156110286713e-02
5.451000000000000000e+03 6.597800445556640625e+01 1.214868259429931641e+01 -6.428728103637695312e-01 7.044593334197998047e+00 1.920516133308410645e+00 5.007521063089370728e-02
5.452000000000000000e+03 6.624564361572265625e+01 1.435665035247802734e+01 -7.661929130554199219e-01 7.323020935058593750e+00 1.967048406600952148e+00 -4.088238254189491272e-02
5.453000000000000000e+03 6.509255218505859375e+01 1.259759902954101562e+01 -6.826593875885009766e-01 6.895777225494384766e+00 1.863935351371765137e+00 1.208206191658973694e-01
5.454000000000000000e+03 1.460444259643554688e+01 -2.176798057556152344e+01 1.620531380176544189e-01 -2.596454322338104248e-01 -2.927768975496292114e-02 -2.880926132202148438e-01
5.455000000000000000e+03 6.535286712646484375e+01 -6.892890453338623047e+00 -8.257758617401123047e-02 6.233761787414550781e+00 1.845355272293090820e+00 2.953571975231170654e-01
5.456000000000000000e+03 6.396056747436523438e+01 -2.667310333251953125e+01 5.940340831875801086e-02 5.872308254241943359e+00 1.779513478279113770e+00 3.502958416938781738e-01
5.457000000000000000e+03 6.213802337646484375e+01 -2.111695098876953125e+01 -2.751521952450275421e-02 5.570942401885986328e+00 1.663028240203857422e+00 3.544241786003112793e-01
5.458000000000000000e+03 6.561666870117187500e+01 -1.707188796997070312e+01 -4.059676080942153931e-02 6.246075153350830078e+00 1.861643552780151367e+00 3.369822502136230469e-01
5.459000000000000000e+03 4.632792663574218750e+01 -1.237073898315429688e+01 5.964967235922813416e-02 2.156556606292724609e+00 6.648619174957275391e-01 2.956409752368927002e-02
5.460000000000000000e+03 1.326883792877197266e+01 2.922660827636718750e+01 -8.317622356116771698e-03 2.216640859842300415e-02 4.154635593295097351e-03 9.627375984564423561e-04
5.461000000000000000e+03 4.938080978393554688e+01 2.282255172729492188e+01 -2.320511937141418457e-01 7.895386815071105957e-01 1.672462522983551025e-01 2.634131014347076416e-01
5.462000000000000000e+03 4.967399215698242188e+01 2.437798881530761719e+01 -2.288153469562530518e-01 5.509130358695983887e-01 9.662930667400360107e-02 1.775275319814682007e-01
5.463000000000000000e+03 4.958071899414062500e+01 2.406042098999023438e+01 -2.343546748161315918e-01 5.839846134185791016e-01 1.048889830708503723e-01 1.920918077230453491e-01
5.464000000000000000e+03 4.606204986572265625e+01 1.924208068847656250e+01 -3.829440772533416748e-01 3.959401547908782959e-01 3.898825962096452713e-03 -6.039775535464286804e-02
5.465000000000000000e+03 4.466873550415039062e+01 1.880527305603027344e+01 -4.532144069671630859e-01 1.347873508930206299e-01 -9.552811086177825928e-02 -2.298467755317687988e-01
5.466000000000000000e+03 4.806395339965820312e+01 2.193325233459472656e+01 -3.256076276302337646e-01 5.353978276252746582e-01 6.293706595897674561e-02 8.367685973644256592e-02
5.467000000000000000e+03 4.939838027954101562e+01 2.223776245117187500e+01 -2.392286211252212524e-01 9.012380838394165039e-01 1.986028254032135010e-01 3.013411760330200195e-01
5.468000000000000000e+03 4.803204345703125000e+01 2.139990997314453125e+01 -3.195472359657287598e-01 6.189888119697570801e-01 8.983247727155685425e-02 1.144316270947456360e-01
5.469000000000000000e+03 5.339838027954101562e+01 2.664688301086425781e+01 1.949438303709030151e-01 1.503705501556396484e+00 5.095947980880737305e-01 8.853792548179626465e-01
5.470000000000000000e+03 3.889340209960937500e+01 1.231988525390625000e+01 -6.283995509147644043e-01 -2.527242004871368408e-01 -2.643371224403381348e-01 -4.652619659900665283e-01
5.471000000000000000e+03 3.981034851074218750e+01 1.382953262329101562e+01 -6.253262758255004883e-01 -2.394752055406570435e-01 -2.594404518604278564e-01 -4.695365428924560547e-01
5.472000000000000000e+03 4.561873626708984375e+01 1.919235038757324219e+01 -4.088135659694671631e-01 3.106489181518554688e-01 -2.944938652217388153e-02 -1.228708475828170776e-01
5.473000000000000000e+03 4.118938446044921875e+01 1.452450561523437500e+01 -5.665054917335510254e-01 -4.796390607953071594e-02 -1.843408197164535522e-01 -3.792121410369873047e-01
5.474000000000000000e+03 4.046701049804687500e+01 1.440923404693603516e+01 -6.134799718856811523e-01 -1.881758719682693481e-01 -2.404967546463012695e-01 -4.472732543945312500e-01
5.475000000000000000e+03 5.047480773925781250e+01 2.437331581115722656e+01 -1.462809890508651733e-01 8.358768820762634277e-01 2.068787664175033569e-01 3.596018254756927490e-01
5.476000000000000000e+03 4.430820846557617188e+01 1.806169319152832031e+01 -4.569948315620422363e-01 1.702037602663040161e-01 -8.603732287883758545e-02 -2.413524389266967773e-01
5.477000000000000000e+03 4.411874771118164062e+01 1.706340599060058594e+01 -4.485345482826232910e-01 2.477650046348571777e-01 -6.023086607456207275e-02 -2.081322222948074341e-01
5.478000000000000000e+03 5.795918655395507812e+01 2.844028663635253906e+01 7.747162580490112305e-01 4.412085056304931641e+00 1.556040406227111816e+00 2.459353923797607422e+00
5.479000000000000000e+03 5.161896514892578125e+01 2.532628822326660156e+01 -2.827692776918411255e-02 1.058027625083923340e+00 3.089252114295959473e-01 5.482652187347412109e-01
5.480000000000000000e+03 1.227659416198730469e+01 8.996087074279785156e+00 6.472639739513397217e-02 2.359388023614883423e-01 9.019955992698669434e-02 3.094868501648306847e-03
5.481000000000000000e+03 1.175390148162841797e+01 9.386082649230957031e+00 6.521956622600555420e-02 1.916908770799636841e-01 7.707313448190689087e-02 -7.727406453341245651e-03
5.482000000000000000e+03 4.509553146362304688e+01 1.858835983276367188e+01 -4.266558587551116943e-01 2.611779868602752686e-01 -4.964336752891540527e-02 -1.675453186035156250e-01
5.483000000000000000e+03 3.886798477172851562e+01 1.200503253936767578e+01 -6.193258166313171387e-01 -2.268936038017272949e-01 -2.538658082485198975e-01 -4.449764192104339600e-01
5.484000000000000000e+03 5.274428176879882812e+01 2.583747863769531250e+01 8.626013249158859253e-02 1.433004260063171387e+00 4.557793140411376953e-01 7.881816625595092773e-01
5.485000000000000000e+03 5.291467666625976562e+01 2.649093246459960938e+01 1.389665603637695312e-01 1.337647914886474609e+00 4.429843425750732422e-01 7.831971049308776855e-01
5.486000000000000000e+03 6.061843872070312500e+01 2.894931602478027344e+01 5.195358023047447205e-02 8.807254791259765625e+00 2.657762527465820312e+00 3.007928133010864258e+00
5.487000000000000000e+03 4.960264968872070312e+01 2.318674468994140625e+01 -2.208266258239746094e-01 7.919520139694213867e-01 1.713376194238662720e-01 2.771501243114471436e-01
5.488000000000000000e+03 1.488960170745849609e+01 2.034953880310058594e+01 3.577904542908072472e-03 8.881120383739471436e-02 2.771673351526260376e-02 2.491880953311920166e-02
5.489000000000000000e+03 5.091040420532226562e+01 2.454710388183593750e+01 -1.049088165163993835e-01 9.661501646041870117e-01 2.583723962306976318e-01 4.470357000827789307e-01
5.490000000000000000e+03 5.200161743164062500e+01 2.549324989318847656e+01 1.041900366544723511e-02 1.179896593093872070e+00 3.570946753025054932e-01 6.298515796661376953e-01
5.491000000000000000e+03 6.027321243286132812e+01 2.849004554748535156e+01 6.223858892917633057e-02 7.938654422760009766e+00 2.400267839431762695e+00 2.900475025177001953e+00
5.492000000000000000e+03 4.201049423217773438e+01 1.450417041778564453e+01 -5.139949321746826172e-01 1.169478520750999451e-01 -1.191141158342361450e-01 -2.947752475738525391e-01
5.493000000000000000e+03 4.372771835327148438e+01 1.800671577453613281e+01 -4.864987730979919434e-01 4.767706990242004395e-02 -1.316465139389038086e-01 -3.108503818511962891e-01
5.494000000000000000e+03 4.461678695678710938e+01 1.691551971435546875e+01 -4.215625524520874023e-01 3.885902762413024902e-01 -9.891683235764503479e-03 -1.342427730560302734e-01
5.495000000000000000e+03 5.132939147949218750e+01 2.472060203552246094e+01 -6.763509660959243774e-02 1.088098049163818359e+00 3.061389029026031494e-01 5.321156978607177734e-01
5.496000000000000000e+03 5.922444915771484375e+01 2.875663566589355469e+01 6.143910288810729980e-01 6.236751079559326172e+00 2.055342674255371094e+00 2.978139877319335938e+00
5.497000000000000000e+03 5.823670578002929688e+01 2.854711341857910156e+01 7.743963599205017090e-01 4.728850364685058594e+00 1.650974035263061523e+00 2.598073482513427734e+00
5.498000000000000000e+03 3.977475357055664062e+01 1.324370288848876953e+01 -6.077119112014770508e-01 -1.938320547342300415e-01 -2.404631972312927246e-01 -4.408886432647705078e-01
5.499000000000000000e+03 4.690155792236328125e+01 2.088381195068359375e+01 -3.793578743934631348e-01 3.876820504665374756e-01 2.497247885912656784e-03 -2.875919267535209656e-02
5.500000000000000000e+03 4.774413299560546875e+01 2.117275810241699219e+01 -3.329410552978515625e-01 5.673331618309020996e-01 7.031764090061187744e-02 8.150172233581542969e-02
5.501000000000000000e+03 4.071824645996093750e+01 1.426777076721191406e+01 -5.869287252426147461e-01 -1.077290177345275879e-01 -2.083973139524459839e-01 -4.104630351066589355e-01
5.502000000000000000e+03 5.815565490722656250e+01 2.884525299072265625e+01 8.970500826835632324e-01 4.549628257751464844e+00 1.634003520011901855e+00 2.604930162429809570e+00
5.503000000000000000e+03 5.947983932495117188e+01 2.893471145629882812e+01 6.009487509727478027e-01 6.530129432678222656e+00 2.139323472976684570e+00 3.087875604629516602e+00
5.504000000000000000e+03 3.830491256713867188e+01 1.079017925262451172e+01 -6.072169542312622070e-01 -2.191242277622222900e-01 -2.479023635387420654e-01 -4.249002635478973389e-01
5.505000000000000000e+03 5.704103088378906250e+01 2.858977317810058594e+01 8.619578480720520020e-01 3.344831705093383789e+00 1.262036919593811035e+00 2.069283246994018555e+00
5.506000000000000000e+03 1.462403774261474609e+01 1.963360404968261719e+01 4.074995405972003937e-03 9.239936619997024536e-02 2.894230931997299194e-02 2.539129368960857391e-02
5.507000000000000000e+03 3.083816146850585938e+01 2.360775232315063477e+00 -7.258539795875549316e-01 -4.412894248962402344e-01 -3.501430153846740723e-01 -2.027161419391632080e-01
5.508000000000000000e+03 3.767600250244140625e+01 1.041795921325683594e+01 -6.250327229499816895e-01 -2.789558470249176025e-01 -2.711965739727020264e-01 -4.516800045967102051e-01
5.509000000000000000e+03 1.395071125030517578e+01 1.229401397705078125e+01 3.786240518093109131e-02 1.839957684278488159e-01 6.655745208263397217e-02 5.224633961915969849e-02
5.510000000000000000e+03 1.335285854339599609e+01 1.237928295135498047e+01 3.402103483676910400e-02 1.738062202930450439e-01 6.234817951917648315e-02 3.967987373471260071e-02
5.511000000000000000e+03 4.859177398681640625e+01 2.192452049255371094e+01 -2.888664007186889648e-01 6.981928944587707520e-01 1.227979511022567749e-01 1.779474467039108276e-01
5.512000000000000000e+03 4.281671524047851562e+01 1.594042015075683594e+01 -5.019590258598327637e-01 1.210187077522277832e-01 -1.142820939421653748e-01 -2.962279915809631348e-01
5.513000000000000000e+03 4.241545486450195312e+01 1.496957778930664062e+01 -5.038983225822448730e-01 1.466970741748809814e-01 -1.071603819727897644e-01 -2.805984616279602051e-01
5.514000000000000000e+03 3.681930923461914062e+01 8.563918113708496094e+00 -6.029066443443298340e-01 -2.500698864459991455e-01 -2.558929622173309326e-01 -4.057821035385131836e-01
5.515000000000000000e+03 1.866697502136230469e+01 1.858430862426757812e+01 3.030223213136196136e-02 1.258767247200012207e-01 4.685368388891220093e-02 6.434964388608932495e-02
5.516000000000000000e+03 3.798445129394531250e+01 9.751437187194824219e+00 -5.763475894927978516e-01 -1.690113246440887451e-01 -2.236076742410659790e-01 -3.828492462635040283e-01
5.517000000000000000e+03 3.767550659179687500e+01 9.260487556457519531e+00 -5.778994560241699219e-01 -1.797711104154586792e-01 -2.273011654615402222e-01 -3.787810206413269043e-01
5.518000000000000000e+03 1.849502182006835938e+01 1.600559043884277344e+01 4.917628690600395203e-02 1.455941200256347656e-01 5.843112245202064514e-02 8.365929126739501953e-02
5.519000000000000000e+03 1.907054519653320312e+01 1.608568382263183594e+01 5.408649146556854248e-02 1.453736126422882080e-01 5.983803048729896545e-02 8.707204461097717285e-02
5.520000000000000000e+03 4.347330474853515625e+01 1.684484863281250000e+01 -4.810898303985595703e-01 1.366676688194274902e-01 -1.033266484737396240e-01 -2.787394225597381592e-01
5.521000000000000000e+03 2.276236724853515625e+01 2.049099159240722656e+01 4.305072873830795288e-02 1.157005131244659424e-01 4.762537404894828796e-02 7.480402290821075439e-02
5.522000000000000000e+03 4.673084640502929688e+01 2.026709556579589844e+01 -3.726726770401000977e-01 4.418436884880065918e-01 2.075130119919776917e-02 -2.009313739836215973e-02
5.523000000000000000e+03 4.632667922973632812e+01 1.940813827514648438e+01 -3.770533800125122070e-01 4.580887556076049805e-01 2.431060932576656342e-02 -3.967802971601486206e-02
5.524000000000000000e+03 3.541471099853515625e+01 6.527482509613037109e+00 -5.984628200531005859e-01 -2.764363586902618408e-01 -2.624697685241699219e-01 -3.788743615150451660e-01
5.525000000000000000e+03 3.627005767822265625e+01 7.664008140563964844e+00 -5.954707860946655273e-01 -2.557151317596435547e-01 -2.553557753562927246e-01 -3.936537504196166992e-01
5.526000000000000000e+03 2.924363517761230469e+01 1.624233126640319824e+00 -7.294457554817199707e-01 -4.643019437789916992e-01 -3.581243157386779785e-01 -1.750103235244750977e-01
5.527000000000000000e+03 3.289698791503906250e+01 8.746150732040405273e-01 -2.498978972434997559e-01 -2.425710111856460571e-01 -1.477406769990921021e-01 -6.155561655759811401e-03
5.528000000000000000e+03 3.174330329895019531e+01 2.675454616546630859e+00 -6.779145598411560059e-01 -3.861633241176605225e-01 -3.192233741283416748e-01 -2.038263976573944092e-01
5.529000000000000000e+03 1.635931968688964844e+01 1.267701435089111328e+01 5.846396461129188538e-02 1.865261942148208618e-01 7.349704951047897339e-02 9.414297342300415039e-02
5.530000000000000000e+03 2.849382209777832031e+01 1.145326375961303711e+00 -7.269471287727355957e-01 -4.432348608970642090e-01 -3.510546088218688965e-01 -1.580554693937301636e-01
5.531000000000000000e+03 1.634949302673339844e+01 1.419042491912841797e+01 4.405028745532035828e-02 1.647984385490417480e-01 6.265462189912796021e-02 7.756462693214416504e-02
5.532000000000000000e+03 1.605682373046875000e+01 1.358517742156982422e+01 4.630462452769279480e-02 1.732859313488006592e-01 6.587716937065124512e-02 8.001859486103057861e-02
5.533000000000000000e+03 2.038415718078613281e+01 1.886775779724121094e+01 4.003923758864402771e-02 1.259979605674743652e-01 4.981116205453872681e-02 7.392404228448867798e-02
5.534000000000000000e+03 1.951206016540527344e+01 1.831869888305664062e+01 3.705101832747459412e-02 1.284726113080978394e-01 4.965708777308464050e-02 7.138696312904357910e-02
5.535000000000000000e+03 2.314666557312011719e+01 2.094548988342285156e+01 4.161576181650161743e-02 1.134936884045600891e-01 4.653283581137657166e-02 7.279739528894424438e-02
5.536000000000000000e+03 4.884953689575195312e+01 2.164240264892578125e+01 -2.711032032966613770e-01 8.309655785560607910e-01 1.679587066173553467e-01 2.438804358243942261e-01
5.537000000000000000e+03 4.717275238037109375e+01 2.086666679382324219e+01 -3.605649769306182861e-01 4.602433443069458008e-01 2.990351244807243347e-02 1.681642793118953705e-02
5.538000000000000000e+03 5.461650085449218750e+01 2.727430152893066406e+01 3.729615211486816406e-01 2.015651226043701172e+00 7.165838479995727539e-01 1.201999425888061523e+00
5.539000000000000000e+03 1.508211040496826172e+01 1.265006542205810547e+01 4.401617497205734253e-02 1.865026503801345825e-01 6.915564835071563721e-02 7.342848926782608032e-02
5.540000000000000000e+03 3.724859237670898438e+01 8.873607635498046875e+00 -5.859879851341247559e-01 -2.132364660501480103e-01 -2.397673428058624268e-01 -3.928758800029754639e-01
5.541000000000000000e+03 1.262901592254638672e+01 1.028683376312255859e+01 4.915062710642814636e-02 2.061845213174819946e-01 7.660054415464401245e-02 2.247494086623191833e-02
5.542000000000000000e+03 1.286368942260742188e+01 1.112018203735351562e+01 4.215016588568687439e-02 1.901714801788330078e-01 6.969649344682693481e-02 3.054047748446464539e-02
5.543000000000000000e+03 3.184026718139648438e+01 6.735814213752746582e-01 -2.668333947658538818e-01 -3.164492547512054443e-01 -1.749847829341888428e-01 -4.801400937139987946e-03
5.544000000000000000e+03 3.463253402709960938e+01 4.882047653198242188e+00 -5.708727836608886719e-01 -2.438145428895950317e-01 -2.444061934947967529e-01 -2.978051602840423584e-01
5.545000000000000000e+03 3.601313018798828125e+01 5.772388458251953125e+00 -5.080792307853698730e-01 -1.462827324867248535e-01 -1.963085979223251343e-01 -2.775533497333526611e-01
5.546000000000000000e+03 3.375666809082031250e+01 -4.407576844096183777e-02 -8.173043280839920044e-02 -1.878272444009780884e-01 -8.086730539798736572e-02 2.656562998890876770e-02
5.547000000000000000e+03 2.082536697387695312e+01 1.934523200988769531e+01 3.989604488015174866e-02 1.223115026950836182e-01 4.866226390004158020e-02 7.209905236959457397e-02
5.548000000000000000e+03 2.316142845153808594e+01 2.410705375671386719e+01 2.452409453690052032e-02 1.014996170997619629e-01 3.780711442232131958e-02 5.830965936183929443e-02
5.549000000000000000e+03 3.956114578247070312e+01 1.296961021423339844e+01 -6.136903166770935059e-01 -2.011796534061431885e-01 -2.444609850645065308e-01 -4.426774382591247559e-01
5.550000000000000000e+03 1.782556152343750000e+01 1.545189857482910156e+01 4.707960784435272217e-02 1.506448835134506226e-01 5.931734666228294373e-02 8.234573155641555786e-02
5.551000000000000000e+03 6.287598037719726562e+01 2.771389007568359375e+01 -8.926914930343627930e-01 1.054556369781494141e+01 2.895861864089965820e+00 1.036224126815795898e+00
5.552000000000000000e+03 3.408074188232421875e+01 3.735077381134033203e+00 -5.444349646568298340e-01 -2.216787785291671753e-01 -2.298341244459152222e-01 -2.186367809772491455e-01
5.553000000000000000e+03 3.534693145751953125e+01 5.015586853027343750e+00 -5.244780778884887695e-01 -1.795791685581207275e-01 -2.112171649932861328e-01 -2.653827965259552002e-01
5.554000000000000000e+03 6.611685943603515625e+01 2.587972068786621094e+01 -9.067146778106689453e-01 9.932606697082519531e+00 2.707767486572265625e+00 -6.613590717315673828e-01
5.555000000000000000e+03 6.492124938964843750e+01 2.695220947265625000e+01 -8.894163966178894043e-01 1.047190380096435547e+01 2.874746084213256836e+00 -2.392748147249221802e-01
5.556000000000000000e+03 2.194873428344726562e+01 2.007474327087402344e+01 4.116466641426086426e-02 1.185572966933250427e-01 4.791658744215965271e-02 7.443698495626449585e-02
5.557000000000000000e+03 3.303247833251953125e+01 3.269723355770111084e-01 -1.642244160175323486e-01 -2.505576908588409424e-01 -1.244346275925636292e-01 5.150108598172664642e-03
5.558000000000000000e+03 3.066768646240234375e+01 1.730363249778747559e+00 -5.904986262321472168e-01 -4.321705400943756104e-01 -3.068007528781890869e-01 -1.356671750545501709e-01
5.559000000000000000e+03 2.734935379028320312e+01 3.024588203430175781e+01 2.231994457542896271e-02 8.403338491916656494e-02 3.190600126981735229e-02 4.618831723928451538e-02
5.560000000000000000e+03 2.441306686401367188e+01 2.672180366516113281e+01 2.288834936916828156e-02 9.240213781595230103e-02 3.458714485168457031e-02 5.169452354311943054e-02
5.561000000000000000e+03 2.516523551940917969e+01 2.622553253173828125e+01 2.430338598787784576e-02 9.588859975337982178e-02 3.605759516358375549e-02 5.654783174395561218e-02
5.562000000000000000e+03 2.436908912658691406e+01 2.216868591308593750e+01 4.047176614403724670e-02 1.074118465185165405e-01 4.436508566141128540e-02 7.160831987857818604e-02
5.563000000000000000e+03 2.536360931396484375e+01 2.317805862426757812e+01 4.031277820467948914e-02 1.035507097840309143e-01 4.315904527902603149e-02 6.926215440034866333e-02
5.564000000000000000e+03 2.660101127624511719e+01 2.792674827575683594e+01 2.865070477128028870e-02 9.012256562709808350e-02 3.563198074698448181e-02 5.449807271361351013e-02
5.565000000000000000e+03 2.562293624877929688e+01 2.694372940063476562e+01 2.831005491316318512e-02 9.166800230741500854e-02 3.599341958761215210e-02 5.450472608208656311e-02
5.566000000000000000e+03 3.356590652465820312e+01 3.325676679611206055e+00 -5.492625832557678223e-01 -2.647565007209777832e-01 -2.442057281732559204e-01 -2.050085663795471191e-01
5.567000000000000000e+03 3.848845291137695312e+01 1.126934051513671875e+01 -6.154542565345764160e-01 -2.302706092596054077e-01 -2.537174522876739502e-01 -4.367967844009399414e-01
5.568000000000000000e+03 3.607264328002929688e+01 -1.455426096916198730e+00 1.078160554170608521e-01 8.974173665046691895e-02 5.926733836531639099e-02 6.367185711860656738e-02
5.569000000000000000e+03 3.658405303955078125e+01 -1.900838494300842285e+00 1.373341679573059082e-01 1.515428125858306885e-01 8.666308969259262085e-02 6.984607875347137451e-02
5.570000000000000000e+03 3.128388023376464844e+01 1.135622262954711914e+00 -3.829230070114135742e-01 -3.646017611026763916e-01 -2.242574244737625122e-01 -4.090546071529388428e-02
5.571000000000000000e+03 3.278081893920898438e+01 3.050481796264648438e+00 -5.885492563247680664e-01 -3.061792254447937012e-01 -2.684185504913330078e-01 -2.021027803421020508e-01
5.572000000000000000e+03 3.192132949829101562e+01 2.280913591384887695e+00 -5.667912960052490234e-01 -3.455945253372192383e-01 -2.737157642841339111e-01 -1.323519051074981689e-01
5.573000000000000000e+03 1.179327869415283203e+01 8.241896629333496094e+00 8.802226930856704712e-02 2.306191772222518921e-01 9.559243172407150269e-02 -2.615087665617465973e-02
5.574000000000000000e+03 1.854147911071777344e+01 1.657952690124511719e+01 4.439018666744232178e-02 1.410670727491378784e-01 5.563718080520629883e-02 7.836737483739852905e-02
5.575000000000000000e+03 1.127727031707763672e+01 1.129549980163574219e+01 4.612242430448532104e-02 1.350073665380477905e-01 5.433893576264381409e-02 -3.273807466030120850e-03
5.576000000000000000e+03 3.586753082275390625e+01 7.401440620422363281e+00 -6.093420386314392090e-01 -2.836703956127166748e-01 -2.679037153720855713e-01 -4.049180746078491211e-01
5.577000000000000000e+03 6.415911102294921875e+01 3.830597162246704102e+00 -3.021869361400604248e-01 6.181588649749755859e+00 1.763820528984069824e+00 2.666335999965667725e-01
5.578000000000000000e+03 1.375263786315917969e+01 1.377007007598876953e+01 2.572142146527767181e-02 1.517306268215179443e-01 5.323561653494834900e-02 4.024276509881019592e-02
5.579000000000000000e+03 1.264830017089843750e+01 1.181209754943847656e+01 3.587139025330543518e-02 1.685899198055267334e-01 6.133839488029479980e-02 2.467051707208156586e-02
5.580000000000000000e+03 3.779257965087890625e+01 -2.807893276214599609e+00 1.818313747644424438e-01 3.332386016845703125e-01 1.545209884643554688e-01 7.845115661621093750e-02
5.581000000000000000e+03 3.715768051147460938e+01 -2.352025270462036133e+00 1.719476878643035889e-01 2.431262433528900146e-01 1.245221793651580811e-01 7.062394171953201294e-02
5.582000000000000000e+03 6.037066268920898438e+01 2.801598548889160156e+01 -1.597381234169006348e-01 8.026606559753417969e+00 2.360060453414916992e+00 2.640056133270263672e+00
5.583000000000000000e+03 6.183186721801757812e+01 2.879100036621093750e+01 -5.401319265365600586e-01 1.049190044403076172e+01 2.985530614852905273e+00 2.101346254348754883e+00
5.584000000000000000e+03 1.306438636779785156e+01 1.779142570495605469e+01 5.410810466855764389e-03 9.125710278749465942e-02 2.900037355720996857e-02 1.757697761058807373e-02
5.585000000000000000e+03 1.363356876373291016e+01 1.608128166198730469e+01 1.460499968379735947e-02 1.171367540955543518e-01 3.952252492308616638e-02 2.834072336554527283e-02
5.586000000000000000e+03 1.404565525054931641e+01 2.132876777648925781e+01 -1.506647327914834023e-03 7.260400056838989258e-02 2.132920734584331512e-02 1.558629050850868225e-02
5.587000000000000000e+03 1.338010597229003906e+01 1.989142417907714844e+01 8.253279956988990307e-04 7.731705158948898315e-02 2.344271354377269745e-02 1.477229036390781403e-02
5.588000000000000000e+03 2.781010818481445312e+01 3.290492248535156250e+01 2.244603447616100311e-02 7.956704497337341309e-02 3.060392476618289948e-02 3.674161806702613831e-02
5.589000000000000000e+03 2.742290496826171875e+01 2.910292243957519531e+01 2.917169965803623199e-02 8.701936900615692139e-02 3.485732153058052063e-02 5.113459005951881409e-02
5.590000000000000000e+03 1.203669929504394531e+01 1.288238048553466797e+01 2.766805514693260193e-02 1.322742104530334473e-01 4.798268154263496399e-02 1.467178855091333389e-02
5.591000000000000000e+03 2.755542945861816406e+01 2.811219787597656250e+01 2.756070718169212341e-02 8.886173367500305176e-02 3.492673113942146301e-02 5.448272079229354858e-02
5.592000000000000000e+03 1.430993747711181641e+01 1.491517925262451172e+01 2.350208535790443420e-02 1.408632844686508179e-01 4.930961132049560547e-02 4.262374714016914368e-02
5.593000000000000000e+03 4.451380920410156250e+01 -5.699554443359375000e+00 1.397450417280197144e-01 1.609879851341247559e+00 5.248874425888061523e-01 1.241740956902503967e-01
5.594000000000000000e+03 6.310439682006835938e+01 -2.198118925094604492e+00 -1.488410532474517822e-01 5.795932769775390625e+00 1.694127559661865234e+00 3.155966997146606445e-01
5.595000000000000000e+03 1.366812038421630859e+01 1.499669551849365234e+01 1.997344754636287689e-02 1.340897679328918457e-01 4.621896520256996155e-02 3.278031572699546814e-02
5.596000000000000000e+03 1.551360034942626953e+01 1.507275104522705078e+01 2.982745692133903503e-02 1.487797796726226807e-01 5.358216911554336548e-02 5.919487401843070984e-02
5.597000000000000000e+03 3.522384262084960938e+01 3.797666549682617188e+00 -4.557194113731384277e-01 -1.220259964466094971e-01 -1.733236163854598999e-01 -1.758878678083419800e-01
5.598000000000000000e+03 6.563360595703125000e+01 1.346746063232421875e+01 -7.321447730064392090e-01 7.092494010925292969e+00 1.908104658126831055e+00 5.575071275234222412e-02
5.599000000000000000e+03 6.666748809814453125e+01 2.016312789916992188e+01 -1.063268899917602539e+00 8.296933174133300781e+00 2.170099496841430664e+00 -3.363037109375000000e-01
5.600000000000000000e+03 3.897603225708007812e+01 -2.567492008209228516e+00 1.570508927106857300e-01 5.135805010795593262e-01 2.011894136667251587e-01 9.386853128671646118e-02
5.601000000000000000e+03 1.959086418151855469e+01 1.776764297485351562e+01 4.387491196393966675e-02 1.328529417514801025e-01 5.301835387945175171e-02 7.703418284654617310e-02
5.602000000000000000e+03 6.349124145507812500e+01 1.236435890197753906e+00 -2.168990075588226318e-01 5.953496932983398438e+00 1.720979332923889160e+00 2.965675294399261475e-01
5.603000000000000000e+03 6.453749847412109375e+01 5.129415512084960938e+00 -3.423574268817901611e-01 6.312249660491943359e+00 1.790967702865600586e+00 2.393750846385955811e-01
5.604000000000000000e+03 6.649979400634765625e+01 8.450512886047363281e+00 -4.396824836730957031e-01 6.906920433044433594e+00 1.940171360969543457e+00 9.417103976011276245e-02
5.605000000000000000e+03 6.539928436279296875e+01 5.564917087554931641e+00 -3.461718559265136719e-01 6.510474681854248047e+00 1.849290847778320312e+00 2.076924890279769897e-01
5.606000000000000000e+03 1.252381229400634766e+01 1.946696853637695312e+01 -9.479020955041050911e-04 6.702180951833724976e-02 1.982217282056808472e-02 8.625906892120838165e-03
5.607000000000000000e+03 6.471817016601562500e+01 1.823796844482421875e+01 -1.025330543518066406e+00 7.576682090759277344e+00 1.965405464172363281e+00 1.044262647628784180e-01
5.608000000000000000e+03 4.014002990722656250e+01 -2.166957139968872070e+00 1.291431337594985962e-01 7.056211829185485840e-01 2.504293024539947510e-01 1.100030541419982910e-01
5.609000000000000000e+03 2.989167785644531250e+01 3.349103546142578125e+01 3.007977828383445740e-02 7.905822247266769409e-02 3.274140134453773499e-02 3.964271396398544312e-02
5.610000000000000000e+03 6.565818023681640625e+01 2.405650711059570312e+01 -1.120566964149475098e+00 9.276233673095703125e+00 2.446700096130371094e+00 -3.040551841259002686e-01
5.611000000000000000e+03 6.569454956054687500e+01 1.021581459045410156e+01 -5.494693517684936523e-01 6.831131935119628906e+00 1.884498834609985352e+00 1.114561334252357483e-01
5.612000000000000000e+03 6.573379516601562500e+01 2.292930984497070312e+01 -1.151423573493957520e+00 8.913452148437500000e+00 2.328608512878417969e+00 -2.446351498365402222e-01
5.613000000000000000e+03 4.483697128295898438e+01 -7.887136936187744141e+00 1.441831737756729126e-01 1.728899002075195312e+00 5.619246363639831543e-01 8.358117192983627319e-02
5.614000000000000000e+03 6.511017608642578125e+01 2.331352996826171875e+01 -1.171157479286193848e+00 8.953717231750488281e+00 2.334767818450927734e+00 -7.587961107492446899e-02
5.615000000000000000e+03 6.398834991455078125e+01 -3.134932279586791992e+00 -1.165237724781036377e-01 6.000605106353759766e+00 1.765224456787109375e+00 3.023536801338195801e-01
5.616000000000000000e+03 4.796581268310546875e+01 -1.425579071044921875e+01 -1.283943280577659607e-02 2.539647817611694336e+00 7.580425739288330078e-01 4.825416579842567444e-02
5.617000000000000000e+03 5.192607879638671875e+01 -1.505630779266357422e+01 -5.537813529372215271e-02 3.461809635162353516e+00 1.021929383277893066e+00 1.490787714719772339e-01
5.618000000000000000e+03 6.439668273925781250e+01 1.530462360382080078e+01 -8.548850417137145996e-01 7.051535606384277344e+00 1.858995199203491211e+00 1.670655757188796997e-01
5.619000000000000000e+03 6.617385864257812500e+01 1.692685508728027344e+01 -9.267861247062683105e-01 7.645952224731445312e+00 2.015749931335449219e+00 -1.021132469177246094e-01
5.620000000000000000e+03 6.533959197998046875e+01 2.122211837768554688e+01 -1.152560472488403320e+00 8.368893623352050781e+00 2.164899826049804688e+00 -6.330552697181701660e-02
5.621000000000000000e+03 6.664083099365234375e+01 2.115872192382812500e+01 -1.072851181030273438e+00 8.516119003295898438e+00 2.232980489730834961e+00 -4.152266979217529297e-01
5.622000000000000000e+03 6.381499862670898438e+01 2.506230831146240234e+00 -2.543386220932006836e-01 6.059972286224365234e+00 1.741690039634704590e+00 2.840920984745025635e-01
5.623000000000000000e+03 6.392190551757812500e+01 4.668314456939697266e-01 -1.993057876825332642e-01 6.027987003326416016e+00 1.748604416847229004e+00 2.907253503799438477e-01
5.624000000000000000e+03 4.839947891235351562e+01 -1.327483463287353516e+01 1.084642577916383743e-02 2.625110864639282227e+00 7.907872200012207031e-01 7.057154178619384766e-02
5.625000000000000000e+03 4.918932342529296875e+01 -1.523081493377685547e+01 -3.429347649216651917e-02 2.877012252807617188e+00 8.528156280517578125e-01 7.615321874618530273e-02
5.626000000000000000e+03 1.509372234344482422e+01 2.125961303710937500e+01 1.243738457560539246e-03 8.436461538076400757e-02 2.568250708281993866e-02 2.383586578071117401e-02
5.627000000000000000e+03 1.628630065917968750e+01 2.248828887939453125e+01 2.433521673083305359e-03 8.563760668039321899e-02 2.642133831977844238e-02 2.782328799366950989e-02
5.628000000000000000e+03 2.852555656433105469e+01 3.007735824584960938e+01 3.166321292519569397e-02 8.541592955589294434e-02 3.512374311685562134e-02 4.892360791563987732e-02
5.629000000000000000e+03 3.060421943664550781e+01 3.064225769042968750e+01 3.365031257271766663e-02 8.228360116481781006e-02 3.478017449378967285e-02 4.894416034221649170e-02
5.630000000000000000e+03 6.372880172729492188e+01 -6.955626010894775391e+00 -8.529301732778549194e-02 5.890017509460449219e+00 1.741417407989501953e+00 3.081824481487274170e-01
5.631000000000000000e+03 6.445034790039062500e+01 -7.769327640533447266e+00 -7.984430342912673950e-02 6.033545970916748047e+00 1.786110520362854004e+00 3.115018308162689209e-01
5.632000000000000000e+03 6.474507904052734375e+01 1.394877338409423828e+01 -7.702999711036682129e-01 6.959195613861083984e+00 1.856668710708618164e+00 1.396726667881011963e-01
5.633000000000000000e+03 4.208836364746093750e+01 -1.723171710968017578e+00 1.067549064755439758e-01 1.048773646354675293e+00 3.466585576534271240e-01 1.496120542287826538e-01
5.634000000000000000e+03 6.482012939453125000e+01 -1.041595363616943359e+01 -5.916575714945793152e-02 6.106945514678955078e+00 1.814334034919738770e+00 3.112377822399139404e-01
5.635000000000000000e+03 6.372686767578125000e+01 -1.742764282226562500e+01 -4.625920578837394714e-02 5.866823196411132812e+00 1.746169209480285645e+00 3.347208797931671143e-01
5.636000000000000000e+03 5.980131912231445312e+01 -1.966653060913085938e+01 -3.901402652263641357e-02 5.168591976165771484e+00 1.538873314857482910e+00 3.276340961456298828e-01
5.637000000000000000e+03 5.407477569580078125e+01 -1.770534896850585938e+01 -7.905457913875579834e-02 3.963500022888183594e+00 1.165333628654479980e+00 2.045343071222305298e-01
5.638000000000000000e+03 5.296937942504882812e+01 -1.574724197387695312e+01 -5.450533702969551086e-02 3.703903198242187500e+00 1.094819426536560059e+00 1.831896901130676270e-01
5.639000000000000000e+03 6.423036193847656250e+01 -9.465878486633300781e+00 -6.851086020469665527e-02 5.985487937927246094e+00 1.775093197822570801e+00 3.114784359931945801e-01
5.640000000000000000e+03 1.356255149841308594e+01 -2.240283012390136719e+01 1.536376774311065674e-01 -3.237723410129547119e-01 -5.104039609432220459e-02 -2.835319340229034424e-01
5.641000000000000000e+03 5.091936111450195312e+01 -1.593361949920654297e+01 -5.454691872000694275e-02 3.277496814727783203e+00 9.668849706649780273e-01 1.209100335836410522e-01
5.642000000000000000e+03 6.339421463012695312e+01 -1.437372493743896484e+01 -4.885520413517951965e-02 5.808701038360595703e+00 1.727953791618347168e+00 3.260616362094879150e-01
5.643000000000000000e+03 6.481562042236328125e+01 -1.847502899169921875e+01 -2.704146690666675568e-02 6.073331356048583984e+00 1.813887000083923340e+00 3.414060771465301514e-01
5.644000000000000000e+03 4.626376724243164062e+01 -9.635933876037597656e+00 9.291037917137145996e-02 2.063139677047729492e+00 6.468150019645690918e-01 7.904038578271865845e-02
5.645000000000000000e+03 5.556053543090820312e+01 -2.399240875244140625e+01 -3.873530030250549316e-02 4.440045356750488281e+00 1.320392966270446777e+00 2.951683402061462402e-01
5.646000000000000000e+03 6.336452484130859375e+01 -2.249036598205566406e+01 -1.246350351721048355e-02 5.787451744079589844e+00 1.732496500015258789e+00 3.638065159320831299e-01
5.647000000000000000e+03 6.069911575317382812e+01 -2.281453704833984375e+01 -1.656898669898509979e-02 5.335286140441894531e+00 1.595615148544311523e+00 3.547232151031494141e-01
5.648000000000000000e+03 6.014505004882812500e+01 -2.513397789001464844e+01 2.355274558067321777e-02 5.250619888305664062e+00 1.582251787185668945e+00 3.703228235244750977e-01
5.649000000000000000e+03 5.945441436767578125e+01 2.849246215820312500e+01 3.932199478149414062e-01 6.642077922821044922e+00 2.110589504241943359e+00 2.912848234176635742e+00
5.650000000000000000e+03 4.993611145019531250e+01 2.300487518310546875e+01 -1.996161639690399170e-01 9.322565793991088867e-01 2.197921276092529297e-01 3.482995033264160156e-01
5.651000000000000000e+03 5.025063705444335938e+01 2.347506332397460938e+01 -1.740177124738693237e-01 9.455429911613464355e-01 2.314575910568237305e-01 3.787077963352203369e-01
5.652000000000000000e+03 4.794455718994140625e+01 2.085602951049804688e+01 -3.173119127750396729e-01 6.855434179306030273e-01 1.104694530367851257e-01 1.332325637340545654e-01
5.653000000000000000e+03 4.487862777709960938e+01 1.824957084655761719e+01 -4.289721548557281494e-01 2.472680509090423584e-01 -5.451123043894767761e-02 -1.724257320165634155e-01
5.654000000000000000e+03 4.590082931518554688e+01 1.899932098388671875e+01 -3.890632688999176025e-01 4.048631489276885986e-01 4.739966243505477905e-03 -7.322279363870620728e-02
5.655000000000000000e+03 5.421152496337890625e+01 2.626551055908203125e+01 2.268940955400466919e-01 2.104145288467407227e+00 6.993118524551391602e-01 1.164894461631774902e+00
5.656000000000000000e+03 5.609979248046875000e+01 2.827986717224121094e+01 7.147870659828186035e-01 2.673780679702758789e+00 1.016570329666137695e+00 1.676229715347290039e+00
5.657000000000000000e+03 4.002892684936523438e+01 1.150396728515625000e+01 -5.345547795295715332e-01 2.015080489218235016e-02 -1.543211787939071655e-01 -3.126515746116638184e-01
5.658000000000000000e+03 4.205236434936523438e+01 1.363288116455078125e+01 -4.870574176311492920e-01 2.161223739385604858e-01 -8.128051459789276123e-02 -2.407194823026657104e-01
5.659000000000000000e+03 4.912672042846679688e+01 2.192882728576660156e+01 -2.542211115360260010e-01 8.653850555419921875e-01 1.833491921424865723e-01 2.732760906219482422e-01
5.660000000000000000e+03 4.831534576416015625e+01 2.165400314331054688e+01 -3.040601909160614014e-01 6.610003709793090820e-01 1.070820614695549011e-01 1.483467221260070801e-01
5.661000000000000000e+03 4.127954101562500000e+01 1.385416984558105469e+01 -5.404330492019653320e-01 3.563894703984260559e-02 -1.514382213354110718e-01 -3.316303491592407227e-01
5.662000000000000000e+03 5.173203277587890625e+01 2.488866233825683594e+01 -2.751879766583442688e-02 1.210999846458435059e+00 3.550443351268768311e-01 6.140731573104858398e-01
5.663000000000000000e+03 5.308964920043945312e+01 2.594752693176269531e+01 1.184640228748321533e-01 1.556241989135742188e+00 5.024117827415466309e-01 8.659790158271789551e-01
5.664000000000000000e+03 5.355782699584960938e+01 2.574683189392089844e+01 1.440580934286117554e-01 1.848568320274353027e+00 5.977879166603088379e-01 1.010536432266235352e+00
5.665000000000000000e+03 5.969848251342773438e+01 2.868645858764648438e+01 3.992136716842651367e-01 7.072187900543212891e+00 2.241420507431030273e+00 3.023653745651245117e+00
5.666000000000000000e+03 4.573487854003906250e+01 1.867823219299316406e+01 -3.963362872600555420e-01 4.116378128528594971e-01 4.590455908328294754e-03 -7.706937938928604126e-02
5.667000000000000000e+03 4.243186950683593750e+01 1.449146938323974609e+01 -4.926124513149261475e-01 1.988482922315597534e-01 -8.812924474477767944e-02 -2.510915696620941162e-01
5.668000000000000000e+03 4.158929824829101562e+01 1.448869419097900391e+01 -5.434603691101074219e-01 3.179257735610008240e-02 -1.535003483295440674e-01 -3.388414680957794189e-01
5.669000000000000000e+03 5.063918685913085938e+01 2.384924125671386719e+01 -1.454125344753265381e-01 1.006227612495422363e+00 2.582445442676544189e-01 4.333163797855377197e-01
5.670000000000000000e+03 5.105010223388671875e+01 2.408773803710937500e+01 -1.034314706921577454e-01 1.125536561012268066e+00 3.066315054893493652e-01 5.168213248252868652e-01
5.671000000000000000e+03 4.009820938110351562e+01 1.346817016601562500e+01 -5.970001220703125000e-01 -1.565750539302825928e-01 -2.260725498199462891e-01 -4.219298362731933594e-01
5.672000000000000000e+03 4.421725082397460938e+01 1.745267105102539062e+01 -4.486839473247528076e-01 2.140863835811614990e-01 -7.037926465272903442e-02 -2.171390652656555176e-01
5.673000000000000000e+03 4.477542877197265625e+01 1.787916374206542969e+01 -4.261705279350280762e-01 2.899133265018463135e-01 -4.087716341018676758e-02 -1.650644689798355103e-01
5.674000000000000000e+03 4.102228164672851562e+01 1.411110877990722656e+01 -5.594401359558105469e-01 -3.799390420317649841e-02 -1.792302131652832031e-01 -3.698030412197113037e-01
5.675000000000000000e+03 4.396285247802734375e+01 1.667674446105957031e+01 -4.474911987781524658e-01 2.720780670642852783e-01 -5.262393131852149963e-02 -2.004226446151733398e-01
5.676000000000000000e+03 4.721764755249023438e+01 2.056297874450683594e+01 -3.494592905044555664e-01 5.185196399688720703e-01 5.071809887886047363e-02 4.140198975801467896e-02
5.677000000000000000e+03 5.237469100952148438e+01 2.566337776184082031e+01 4.807118326425552368e-02 1.299396157264709473e+00 4.042401909828186035e-01 7.074477076530456543e-01
5.678000000000000000e+03 4.535949325561523438e+01 1.890949058532714844e+01 -4.208057820796966553e-01 2.805173397064208984e-01 -4.208653047680854797e-02 -1.482166498899459839e-01
5.679000000000000000e+03 5.286783218383789062e+01 2.538718223571777344e+01 7.287373393774032593e-02 1.609261393547058105e+00 5.046405196189880371e-01 8.533980250358581543e-01
5.680000000000000000e+03 5.145676803588867188e+01 2.427519035339355469e+01 -6.553929299116134644e-02 1.234738111495971680e+00 3.507596552371978760e-01 5.947851538658142090e-01
5.681000000000000000e+03 5.185511779785156250e+01 2.444082069396972656e+01 -3.926665335893630981e-02 1.367732763290405273e+00 3.985398411750793457e-01 6.690446734428405762e-01
5.682000000000000000e+03 4.473029327392578125e+01 1.741333770751953125e+01 -4.224278330802917480e-01 3.430846631526947021e-01 -2.380295470356941223e-02 -1.510673761367797852e-01
5.683000000000000000e+03 4.284222030639648438e+01 1.543432617187500000e+01 -4.898007512092590332e-01 1.820539534091949463e-01 -9.232404083013534546e-02 -2.632712423801422119e-01
5.684000000000000000e+03 5.224773025512695312e+01 2.460318756103515625e+01 -7.384229451417922974e-03 1.506452918052673340e+00 4.497206211090087891e-01 7.536768913269042969e-01
5.685000000000000000e+03 1.914405441284179688e+01 1.711812973022460938e+01 4.530304670333862305e-02 1.376831382513046265e-01 5.489585548639297485e-02 7.908248901367187500e-02
5.686000000000000000e+03 3.920013046264648438e+01 1.195546531677246094e+01 -5.979506969451904297e-01 -1.751277595758438110e-01 -2.319235503673553467e-01 -4.173247516155242920e-01
5.687000000000000000e+03 4.203617477416992188e+01 1.405013656616210938e+01 -5.042896270751953125e-01 1.671639829874038696e-01 -1.011376902461051941e-01 -2.667154669761657715e-01
5.688000000000000000e+03 1.268431758880615234e+01 1.250672340393066406e+01 3.159884363412857056e-02 1.544277966022491455e-01 5.580798909068107605e-02 2.418900281190872192e-02
5.689000000000000000e+03 4.513083267211914062e+01 1.625854110717773438e+01 -3.897809684276580811e-01 5.762920975685119629e-01 5.595333874225616455e-02 -4.481104016304016113e-02
5.690000000000000000e+03 3.804486846923828125e+01 8.852433204650878906e+00 -5.374521613121032715e-01 -9.331118315458297729e-02 -1.892290115356445312e-01 -3.276062905788421631e-01
5.691000000000000000e+03 2.367780303955078125e+01 2.229056358337402344e+01 3.760046511888504028e-02 1.087407320737838745e-01 4.390235990285873413e-02 6.828839331865310669e-02
5.692000000000000000e+03 4.682772445678710938e+01 2.060393333435058594e+01 -3.734961152076721191e-01 4.164091646671295166e-01 1.287391223013401031e-02 -2.338710054755210876e-02
5.693000000000000000e+03 3.816494750976562500e+01 1.027690124511718750e+01 -5.949999094009399414e-01 -1.875225901603698730e-01 -2.347567379474639893e-01 -4.028283059597015381e-01
5.694000000000000000e+03 1.611355590820312500e+01 1.984251213073730469e+01 9.600221179425716400e-03 1.026218757033348083e-01 3.366662934422492981e-02 3.684880211949348450e-02
5.695000000000000000e+03 3.868211364746093750e+01 1.017681026458740234e+01 -5.572798252105712891e-01 -1.046708673238754272e-01 -1.985852122306823730e-01 -3.529011905193328857e-01
5.696000000000000000e+03 1.400089168548583984e+01 1.286747360229492188e+01 3.314675018191337585e-02 1.718995571136474609e-01 6.151389330625534058e-02 4.956887662410736084e-02
5.697000000000000000e+03 1.293791580200195312e+01 1.307633304595947266e+01 2.657254040241241455e-02 1.486118286848068237e-01 5.255531147122383118e-02 2.907940000295639038e-02
5.698000000000000000e+03 4.331058120727539062e+01 1.588829231262207031e+01 -4.722762107849121094e-01 2.250759899616241455e-01 -7.416006922721862793e-02 -2.386112660169601440e-01
5.699000000000000000e+03 4.384372711181640625e+01 1.626557350158691406e+01 -4.445525109767913818e-01 2.989888191223144531e-01 -4.366910457611083984e-02 -1.913020163774490356e-01
5.700000000000000000e+03 1.990024185180664062e+01 1.925759124755859375e+01 3.409564122557640076e-02 1.227077245712280273e-01 4.704101011157035828e-02 6.761868298053741455e-02
5.701000000000000000e+03 1.750127410888671875e+01 1.810889244079589844e+01 2.524108625948429108e-02 1.262721419334411621e-01 4.545396938920021057e-02 5.778292566537857056e-02
5.702000000000000000e+03 4.683137512207031250e+01 1.962242889404296875e+01 -3.496632277965545654e-01 5.554300546646118164e-01 6.173004209995269775e-02 3.609428927302360535e-02
5.703000000000000000e+03 4.724105453491210938e+01 2.017281532287597656e+01 -3.401347100734710693e-01 5.891466736793518066e-01 7.470358908176422119e-02 6.646077334880828857e-02
5.704000000000000000e+03 3.699591445922851562e+01 7.531476020812988281e+00 -5.414673089981079102e-01 -1.453819125890731812e-01 -2.060547620058059692e-01 -3.267679512500762939e-01
5.705000000000000000e+03 4.966958618164062500e+01 2.258670425415039062e+01 -2.207345068454742432e-01 9.325388669967651367e-01 2.135413140058517456e-01 3.279725611209869385e-01
5.706000000000000000e+03 3.855488967895507812e+01 9.638689041137695312e+00 -5.433410406112670898e-01 -7.681747525930404663e-02 -1.860475689172744751e-01 -3.334251046180725098e-01
5.707000000000000000e+03 2.294874000549316406e+01 2.156064987182617188e+01 3.883533924818038940e-02 1.118396967649459839e-01 4.520251229405403137e-02 6.959319859743118286e-02
5.708000000000000000e+03 2.220062828063964844e+01 2.150009727478027344e+01 3.302234783768653870e-02 1.120313256978988647e-01 4.351610317826271057e-02 6.694762408733367920e-02
5.709000000000000000e+03 3.105293655395507812e+01 1.936226129531860352e+00 -5.810217261314392090e-01 -3.916678428649902344e-01 -2.918068766593933105e-01 -1.204619854688644409e-01
5.710000000000000000e+03 4.912522888183593750e+01 2.250316429138183594e+01 -2.538893818855285645e-01 7.622571587562561035e-01 1.525103300809860229e-01 2.369763106107711792e-01
5.711000000000000000e+03 5.588407516479492188e+01 2.771405982971191406e+01 5.581994056701660156e-01 2.726349353790283203e+00 9.853646159172058105e-01 1.629920125007629395e+00
5.712000000000000000e+03 5.817980575561523438e+01 2.830016517639160156e+01 6.582034826278686523e-01 4.826545715332031250e+00 1.645424723625183105e+00 2.540443897247314453e+00
5.713000000000000000e+03 3.994734954833984375e+01 1.247131919860839844e+01 -5.713721513748168945e-01 -8.380591124296188354e-02 -1.965534240007400513e-01 -3.761700093746185303e-01
5.714000000000000000e+03 2.120832252502441406e+01 1.976115798950195312e+01 3.926279768347740173e-02 1.212380006909370422e-01 4.815024137496948242e-02 7.314326614141464233e-02
5.715000000000000000e+03 2.132926559448242188e+01 1.898307800292968750e+01 4.623401537537574768e-02 1.250053644180297852e-01 5.137181282043457031e-02 7.898253947496414185e-02
5.716000000000000000e+03 1.671772193908691406e+01 1.482252693176269531e+01 4.264179244637489319e-02 1.572234928607940674e-01 5.995958670973777771e-02 7.625183463096618652e-02
5.717000000000000000e+03 1.472774982452392578e+01 1.530814838409423828e+01 2.296693250536918640e-02 1.391635239124298096e-01 4.863913729786872864e-02 4.720075428485870361e-02
5.718000000000000000e+03 1.450706672668457031e+01 1.369886779785156250e+01 3.024740517139434814e-02 1.616168618202209473e-01 5.755927786231040955e-02 5.392896756529808044e-02
5.719000000000000000e+03 3.357606506347656250e+01 4.860633611679077148e-01 -1.632116138935089111e-01 -1.787233650684356689e-01 -1.025804951786994934e-01 1.546167954802513123e-02
5.720000000000000000e+03 5.605630493164062500e+01 2.730572891235351562e+01 4.892789423465728760e-01 2.988791227340698242e+00 1.043421030044555664e+00 1.696854352951049805e+00
5.721000000000000000e+03 5.396505737304687500e+01 2.665143394470214844e+01 2.544838190078735352e-01 1.836306333541870117e+00 6.272370815277099609e-01 1.060237884521484375e+00
5.722000000000000000e+03 6.251474380493164062e+01 2.693275833129882812e+01 -9.573401808738708496e-01 9.795342445373535156e+00 2.651400566101074219e+00 1.225467443466186523e+00
5.723000000000000000e+03 3.871248626708984375e+01 1.166811752319335938e+01 -6.155857443809509277e-01 -2.296705842018127441e-01 -2.535769045352935791e-01 -4.413503110408782959e-01
5.724000000000000000e+03 3.882279205322265625e+01 1.067374801635742188e+01 -5.708799958229064941e-01 -1.177538037300109863e-01 -2.065901458263397217e-01 -3.701089024543762207e-01
5.725000000000000000e+03 3.565725708007812500e+01 5.431601047515869141e+00 -5.239049196243286133e-01 -1.683182567358016968e-01 -2.076669484376907349e-01 -2.806548178195953369e-01
5.726000000000000000e+03 1.418389511108398438e+01 1.412906932830810547e+01 2.754506841301918030e-02 1.514340639114379883e-01 5.369374155998229980e-02 4.482473060488700867e-02
5.727000000000000000e+03 2.038766479492187500e+01 1.976350784301757812e+01 3.435412421822547913e-02 1.209169551730155945e-01 4.658132418990135193e-02 6.807462126016616821e-02
5.728000000000000000e+03 5.429369735717773438e+01 2.695326805114746094e+01 3.141805231571197510e-01 1.920203208923339844e+00 6.703150868415832520e-01 1.137830376625061035e+00
5.729000000000000000e+03 3.603491210937500000e+01 -6.244950890541076660e-01 3.180606663227081299e-02 7.813358306884765625e-02 3.298189491033554077e-02 5.695586651563644409e-02
5.730000000000000000e+03 3.451205825805664062e+01 -3.584111630916595459e-01 -1.964251138269901276e-02 -1.074594780802726746e-01 -3.813059628009796143e-02 4.375633597373962402e-02
5.731000000000000000e+03 5.553314971923828125e+01 2.751374816894531250e+01 5.098235607147216797e-01 2.552652597427368164e+00 9.187428355216979980e-01 1.523153305053710938e+00
5.732000000000000000e+03 3.123924446105957031e+01 1.538006544113159180e+00 -5.153608322143554688e-01 -3.786427974700927734e-01 -2.682011127471923828e-01 -9.935455769300460815e-02
5.733000000000000000e+03 3.091148376464843750e+01 1.327968120574951172e+00 -4.810582697391510010e-01 -3.755374848842620850e-01 -2.569787204265594482e-01 -7.499866932630538940e-02
5.734000000000000000e+03 3.148012161254882812e+01 2.107049226760864258e+00 -5.964709520339965820e-01 -3.794867396354675293e-01 -2.927873134613037109e-01 -1.463161855936050415e-01
5.735000000000000000e+03 1.785364341735839844e+01 1.608765220642089844e+01 4.233149439096450806e-02 1.451470851898193359e-01 5.624357610940933228e-02 7.665749639272689819e-02
5.736000000000000000e+03 1.718553161621093750e+01 1.610726547241210938e+01 3.630228340625762939e-02 1.434815227985382080e-01 5.393514037132263184e-02 7.032588869333267212e-02
5.737000000000000000e+03 3.463591766357421875e+01 4.132075309753417969e+00 -5.193176865577697754e-01 -2.015017271041870117e-01 -2.162458300590515137e-01 -2.310926765203475952e-01
5.738000000000000000e+03 2.139907264709472656e+01 2.021497344970703125e+01 3.816211968660354614e-02 1.180359199643135071e-01 4.685941338539123535e-02 7.030114531517028809e-02
5.739000000000000000e+03 1.754174041748046875e+01 1.756954765319824219e+01 2.912934869527816772e-02 1.321028321981430054e-01 4.836965352296829224e-02 6.262233108282089233e-02
5.740000000000000000e+03 1.864448547363281250e+01 1.766268157958984375e+01 3.721385821700096130e-02 1.322685182094573975e-01 5.084471404552459717e-02 7.024640589952468872e-02
5.741000000000000000e+03 3.657734298706054688e+01 7.281450271606445312e+00 -5.536844134330749512e-01 -1.796674877405166626e-01 -2.200055718421936035e-01 -3.402775824069976807e-01
5.742000000000000000e+03 3.668779754638671875e+01 7.923471927642822266e+00 -5.799322128295898438e-01 -2.173624336719512939e-01 -2.391884028911590576e-01 -3.744409978389739990e-01
5.743000000000000000e+03 5.338068008422851562e+01 2.608788108825683594e+01 1.577477902173995972e-01 1.672558784484863281e+00 5.490919947624206543e-01 9.400283098220825195e-01
5.744000000000000000e+03 3.226933670043945312e+01 1.297260284423828125e+00 -3.568221628665924072e-01 -2.958410084247589111e-01 -1.957989633083343506e-01 -3.890064358711242676e-02
5.745000000000000000e+03 6.111471176147460938e+01 2.810748100280761719e+01 -4.239260852336883545e-01 9.164736747741699219e+00 2.622243404388427734e+00 2.370864629745483398e+00
5.746000000000000000e+03 3.380186462402343750e+01 2.094801664352416992e+00 -3.771409094333648682e-01 -1.867964565753936768e-01 -1.691812127828598022e-01 -7.867404818534851074e-02
5.747000000000000000e+03 3.165932083129882812e+01 1.663983941078186035e+00 -4.759609699249267578e-01 -3.506456911563873291e-01 -2.479820102453231812e-01 -7.939811795949935913e-02
5.748000000000000000e+03 3.177097511291503906e+01 1.188530921936035156e+00 -3.999564945697784424e-01 -3.430742621421813965e-01 -2.229092270135879517e-01 -6.381523609161376953e-02
5.749000000000000000e+03 2.297707748413085938e+01 2.320575904846191406e+01 2.938816696405410767e-02 1.051020696759223938e-01 4.034706950187683105e-02 6.107608973979949951e-02
5.750000000000000000e+03 2.477800559997558594e+01 2.542502593994140625e+01 2.849040366709232330e-02 9.724360704421997070e-02 3.772020339965820312e-02 5.841800197958946228e-02
5.751000000000000000e+03 1.340120792388916016e+01 1.429483032226562500e+01 2.253416925668716431e-02 1.390215456485748291e-01 4.846671596169471741e-02 3.157206252217292786e-02
5.752000000000000000e+03 6.235441970825195312e+01 2.748509597778320312e+01 -8.784588575363159180e-01 1.005901527404785156e+01 2.754166841506958008e+00 1.415687322616577148e+00
5.753000000000000000e+03 6.430843353271484375e+01 2.485674095153808594e+01 -1.145539283752441406e+00 9.428647041320800781e+00 2.484932422637939453e+00 1.786100268363952637e-01
5.754000000000000000e+03 2.569443702697753906e+01 2.774875831604003906e+01 2.170000039041042328e-02 9.063886851072311401e-02 3.370166197419166565e-02 5.106990784406661987e-02
5.755000000000000000e+03 3.359510040283203125e+01 2.575653791427612305e+00 -4.526080191135406494e-01 -2.433826476335525513e-01 -2.087972015142440796e-01 -1.314347833395004272e-01
5.756000000000000000e+03 1.554757976531982422e+01 1.723236274719238281e+01 1.819634996354579926e-02 1.238297000527381897e-01 4.260781407356262207e-02 4.583536460995674133e-02
5.757000000000000000e+03 1.722277069091796875e+01 1.546083927154541016e+01 4.207640886306762695e-02 1.510230451822280884e-01 5.792983621358871460e-02 7.629001885652542114e-02
5.758000000000000000e+03 1.369025897979736328e+01 1.694078063964843750e+01 1.017044764012098312e-02 1.080720722675323486e-01 3.547275438904762268e-02 2.621308341622352600e-02
5.759000000000000000e+03 3.703417587280273438e+01 -1.360055446624755859e+00 1.017550528049468994e-01 2.157964408397674561e-01 9.526544809341430664e-02 7.342384010553359985e-02
5.760000000000000000e+03 3.586197662353515625e+01 4.708559036254882812e+00 -4.666691124439239502e-01 -9.865386039018630981e-02 -1.695968955755233765e-01 -2.131650447845458984e-01
5.761000000000000000e+03 1.529499721527099609e+01 1.939999771118164062e+01 8.000195957720279694e-03 1.014151647686958313e-01 3.282460570335388184e-02 3.171573206782341003e-02
5.762000000000000000e+03 2.450256347656250000e+01 2.283639526367187500e+01 3.823978826403617859e-02 1.060187965631484985e-01 4.327757656574249268e-02 6.832954287528991699e-02
5.763000000000000000e+03 6.316382980346679688e+01 5.492424488067626953e+00 -3.634236752986907959e-01 6.020527839660644531e+00 1.697131156921386719e+00 2.962414026260375977e-01
5.764000000000000000e+03 6.136365509033203125e+01 2.762612533569335938e+01 -5.931816101074218750e-01 9.046113967895507812e+00 2.535879611968994141e+00 2.068721294403076172e+00
5.765000000000000000e+03 6.141257476806640625e+01 2.718721771240234375e+01 -6.818121075630187988e-01 8.925523757934570312e+00 2.473113536834716797e+00 1.927568793296813965e+00
5.766000000000000000e+03 2.438996505737304688e+01 2.460395622253417969e+01 2.764460444450378418e-02 1.004941985011100769e-01 3.844163939356803894e-02 6.075473502278327942e-02
5.767000000000000000e+03 1.428320121765136719e+01 1.581962585449218750e+01 1.808556169271469116e-02 1.288799792528152466e-01 4.408966004848480225e-02 3.769761323928833008e-02
5.768000000000000000e+03 6.555380249023437500e+01 2.033796882629394531e+01 -1.108664155006408691e+00 8.160204887390136719e+00 2.115462303161621094e+00 -9.836827963590621948e-02
5.769000000000000000e+03 6.656797790527343750e+01 1.902272415161132812e+01 -1.001976490020751953e+00 8.041012763977050781e+00 2.111710786819458008e+00 -2.664298713207244873e-01
5.770000000000000000e+03 6.495278930664062500e+01 6.369668483734130859e+00 -3.844671845436096191e-01 6.440717220306396484e+00 1.816875100135803223e+00 2.166902720928192139e-01
5.771000000000000000e+03 1.910396194458007812e+01 1.764077186584472656e+01 4.037613049149513245e-02 1.329888701438903809e-01 5.200949683785438538e-02 7.377057522535324097e-02
5.772000000000000000e+03 1.893649291992187500e+01 1.808312606811523438e+01 3.612418845295906067e-02 1.300660371780395508e-01 4.985706880688667297e-02 6.995873898267745972e-02
5.773000000000000000e+03 1.553845882415771484e+01 1.389628219604492188e+01 3.851650282740592957e-02 1.658722609281539917e-01 6.131662800908088684e-02 6.826411187648773193e-02
5.774000000000000000e+03 3.590607833862304688e+01 1.034588098526000977e+00 -1.274888515472412109e-01 4.677700623869895935e-02 -2.421355433762073517e-02 1.197272446006536484e-02
5.775000000000000000e+03 3.526576614379882812e+01 -5.914119482040405273e-01 2.099286206066608429e-02 -1.726263388991355896e-02 1.119068590924143791e-03 5.274213105440139771e-02
5.776000000000000000e+03 6.383259201049804688e+01 2.651423835754394531e+01 -1.055554270744323730e+00 1.015427875518798828e+01 2.729617118835449219e+00 3.629836142063140869e-01
5.777000000000000000e+03 1.150757789611816406e+01 9.830501556396484375e+00 6.189792603254318237e-02 1.686263084411621094e-01 6.915727257728576660e-02 -7.353858090937137604e-03
5.778000000000000000e+03 6.567733764648437500e+01 2.525778388977050781e+01 -1.040178537368774414e+00 9.739432334899902344e+00 2.609776258468627930e+00 -4.282934963703155518e-01
5.779000000000000000e+03 6.512032318115234375e+01 2.580425071716308594e+01 -1.031189084053039551e+00 9.936295509338378906e+00 2.671531915664672852e+00 -2.407553344964981079e-01
5.780000000000000000e+03 1.528772163391113281e+01 2.225268554687500000e+01 9.865603642538189888e-04 8.067403733730316162e-02 2.449817955493927002e-02 2.264943160116672516e-02
5.781000000000000000e+03 1.660899543762207031e+01 2.159754562377929688e+01 7.043568417429924011e-03 9.480195492506027222e-02 3.055365756154060364e-02 3.380214422941207886e-02
5.782000000000000000e+03 6.542562866210937500e+01 2.212645149230957031e+01 -1.165210962295532227e+00 8.633211135864257812e+00 2.240400075912475586e+00 -1.157459020614624023e-01
5.783000000000000000e+03 6.022817993164062500e+01 -1.160356044769287109e+00 -1.627741605043411255e-01 5.150112152099609375e+00 1.496201395988464355e+00 3.508131504058837891e-01
5.784000000000000000e+03 6.294452667236328125e+01 -3.303925037384033203e+00 -1.219866126775741577e-01 5.744659900665283203e+00 1.686801910400390625e+00 3.171806931495666504e-01
5.785000000000000000e+03 6.655194854736328125e+01 7.310166835784912109e+00 -3.956108093261718750e-01 6.850137710571289062e+00 1.936358094215393066e+00 1.235674396157264709e-01
5.786000000000000000e+03 3.937259292602539062e+01 -1.851527452468872070e+00 1.325993388891220093e-01 5.767598748207092285e-01 2.128077596426010132e-01 1.007241457700729370e-01
5.787000000000000000e+03 4.521633529663085938e+01 -6.871784687042236328e+00 1.285971999168395996e-01 1.785580158233642578e+00 5.742532014846801758e-01 1.166721060872077942e-01
5.788000000000000000e+03 4.331315612792968750e+01 -7.342616558074951172e+00 1.762196272611618042e-01 1.386827468872070312e+00 4.689141213893890381e-01 7.406254857778549194e-02
5.789000000000000000e+03 6.413130950927734375e+01 1.301271915435791016e+01 -7.227839231491088867e-01 6.711447238922119141e+00 1.796599030494689941e+00 2.136854082345962524e-01
5.790000000000000000e+03 6.551524353027343750e+01 1.137649250030517578e+01 -6.137509942054748535e-01 6.876170158386230469e+00 1.878725767135620117e+00 1.051212698221206665e-01
5.791000000000000000e+03 2.633039855957031250e+01 2.901203727722167969e+01 2.088208682835102081e-02 8.714743703603744507e-02 3.240885958075523376e-02 4.783758148550987244e-02
5.792000000000000000e+03 6.538586425781250000e+01 8.121825218200683594e+00 -4.498646855354309082e-01 6.633934974670410156e+00 1.855221152305603027e+00 1.728144139051437378e-01
5.793000000000000000e+03 6.514649200439453125e+01 2.466575813293457031e+01 -1.129925251007080078e+00 9.454858779907226562e+00 2.497479915618896484e+00 -1.667144298553466797e-01
5.794000000000000000e+03 6.337413787841796875e+01 -4.847249686717987061e-01 -1.758347898721694946e-01 5.889293670654296875e+00 1.714037656784057617e+00 3.026767373085021973e-01
5.795000000000000000e+03 6.574812316894531250e+01 1.598181343078613281e+01 -8.779318332672119141e-01 7.434148311614990234e+00 1.966864943504333496e+00 -2.134825661778450012e-02
5.796000000000000000e+03 6.532823181152343750e+01 1.491490364074707031e+01 -8.200104832649230957e-01 7.207117080688476562e+00 1.916131973266601562e+00 5.383521318435668945e-02
5.797000000000000000e+03 2.391867637634277344e+01 2.589568138122558594e+01 2.076308988034725189e-02 9.588212519884109497e-02 3.499356657266616821e-02 5.342996492981910706e-02
5.798000000000000000e+03 2.401808929443359375e+01 2.382079505920410156e+01 3.121368773281574249e-02 1.029383987188339233e-01 4.024562612175941467e-02 6.230483576655387878e-02
5.799000000000000000e+03 6.548913574218750000e+01 1.902135086059570312e+01 -1.045496344566345215e+00 7.875965118408203125e+00 2.049140691757202148e+00 -4.990340024232864380e-02
5.800000000000000000e+03 6.300541687011718750e+01 -1.310103321075439453e+01 -5.879419669508934021e-02 5.724013805389404297e+00 1.699565887451171875e+00 3.224080801010131836e-01
5.801000000000000000e+03 6.713862609863281250e+01 6.220606803894042969e+00 -3.505700230598449707e-01 6.912125110626220703e+00 1.968466520309448242e+00 1.240548565983772278e-01
5.802000000000000000e+03 6.668608856201171875e+01 1.578524875640869141e+01 -8.301789164543151855e-01 7.562957763671875000e+00 2.019833803176879883e+00 -1.438446342945098877e-01
5.803000000000000000e+03 2.742771530151367188e+01 3.153397750854492188e+01 2.557719126343727112e-02 8.311322331428527832e-02 3.260712698101997375e-02 4.122209548950195312e-02
5.804000000000000000e+03 2.265795898437500000e+01 2.824277877807617188e+01 1.222788169980049133e-02 8.478195220232009888e-02 2.910295128822326660e-02 4.025907069444656372e-02
5.805000000000000000e+03 3.060895538330078125e+01 3.240694427490234375e+01 3.617496788501739502e-02 7.770135253667831421e-02 3.416289761662483215e-02 4.159647226333618164e-02
5.806000000000000000e+03 2.867531204223632812e+01 3.117955207824707031e+01 2.718931250274181366e-02 8.156036585569381714e-02 3.262490406632423401e-02 4.471449553966522217e-02
5.807000000000000000e+03 6.468857574462890625e+01 2.243841743469238281e+01 -1.187795519828796387e+00 8.576343536376953125e+00 2.216564416885375977e+00 9.369416534900665283e-02
5.808000000000000000e+03 1.361178207397460938e+01 1.884093284606933594e+01 2.953777788206934929e-03 8.765047788619995117e-02 2.718127705156803131e-02 1.935026794672012329e-02
5.809000000000000000e+03 1.502653408050537109e+01 1.792260742187500000e+01 1.207624096423387527e-02 1.130141243338584900e-01 3.752711042761802673e-02 3.609447181224822998e-02
5.810000000000000000e+03 1.415172386169433594e+01 2.797425460815429688e+01 -7.701370865106582642e-03 3.714298829436302185e-02 8.832485415041446686e-03 6.443909369409084320e-03
5.811000000000000000e+03 2.156758117675781250e+01 2.587539672851562500e+01 1.374311279505491257e-02 9.191991388797760010e-02 3.169890865683555603e-02 4.378949850797653198e-02
5.812000000000000000e+03 1.586150360107421875e+01 2.488771057128906250e+01 -3.141922177746891975e-03 6.780520826578140259e-02 1.939898543059825897e-02 1.843452639877796173e-02
5.813000000000000000e+03 4.432069396972656250e+01 -6.645009994506835938e+00 1.537060886621475220e-01 1.601086497306823730e+00 5.264377593994140625e-01 9.859025478363037109e-02
5.814000000000000000e+03 4.262787246704101562e+01 -4.635800838470458984e+00 1.713945865631103516e-01 1.207104802131652832e+00 4.135498106479644775e-01 1.156363561749458313e-01
5.815000000000000000e+03 5.235922622680664062e+01 -1.401963996887207031e+01 -4.619331657886505127e-02 3.527971506118774414e+00 1.044533491134643555e+00 1.659108400344848633e-01
5.816000000000000000e+03 5.034406280517578125e+01 -1.474629592895507812e+01 -4.079417139291763306e-02 3.095991373062133789e+00 9.165591597557067871e-01 1.118298470973968506e-01
5.817000000000000000e+03 4.097288513183593750e+01 -2.447365522384643555e+00 1.463226377964019775e-01 8.627710342407226562e-01 3.027281165122985840e-01 1.206399723887443542e-01
5.818000000000000000e+03 1.636574935913085938e+01 2.628814506530761719e+01 -3.839630866423249245e-03 6.390430033206939697e-02 1.801940053701400757e-02 1.792746596038341522e-02
5.819000000000000000e+03 4.577073669433593750e+01 -8.194622993469238281e+00 1.152341961860656738e-01 1.934552907943725586e+00 6.149361133575439453e-01 9.968497604131698608e-02
5.820000000000000000e+03 4.615002441406250000e+01 -7.125527858734130859e+00 1.167006418108940125e-01 1.993379831314086914e+00 6.330241560935974121e-01 1.281461417675018311e-01
5.821000000000000000e+03 5.580360031127929688e+01 -1.678799057006835938e+01 -6.661775708198547363e-02 4.308523654937744141e+00 1.272571802139282227e+00 2.451893985271453857e-01
5.822000000000000000e+03 5.436426544189453125e+01 -1.625337791442871094e+01 -7.310491055250167847e-02 3.992012500762939453e+00 1.175672292709350586e+00 2.140605747699737549e-01
5.823000000000000000e+03 5.189281082153320312e+01 -1.703164482116699219e+01 -7.223702222108840942e-02 3.520788431167602539e+00 1.034565448760986328e+00 1.493112593889236450e-01
5.824000000000000000e+03 6.285770034790039062e+01 -1.626491737365722656e+01 -4.063612222671508789e-02 5.718107223510742188e+00 1.703241348266601562e+00 3.334413766860961914e-01
5.825000000000000000e+03 5.923463821411132812e+01 -1.717564010620117188e+01 -6.158971786499023438e-02 5.038292407989501953e+00 1.493010878562927246e+00 3.112605214118957520e-01
5.826000000000000000e+03 4.983424758911132812e+01 -1.110567474365234375e+01 1.659197174012660980e-02 2.878852605819702148e+00 8.686333894729614258e-01 1.370483189821243286e-01
5.827000000000000000e+03 4.789241790771484375e+01 -1.150284481048583984e+01 4.982998967170715332e-02 2.476041316986083984e+00 7.577613592147827148e-01 8.332713693380355835e-02
5.828000000000000000e+03 6.108405685424804688e+01 -1.576497745513916016e+01 -5.335662513971328735e-02 5.347689151763916016e+00 1.588299751281738281e+00 3.254207372665405273e-01
5.829000000000000000e+03 6.293537139892578125e+01 2.001436710357666016e+00 -2.426407188177108765e-01 5.843003273010253906e+00 1.680108785629272461e+00 3.113191425800323486e-01
5.830000000000000000e+03 5.630096054077148438e+01 -1.898440361022949219e+01 -7.321645319461822510e-02 4.455244541168212891e+00 1.314608454704284668e+00 2.719177007675170898e-01
5.831000000000000000e+03 5.710854721069335938e+01 -1.766923904418945312e+01 -6.233220547437667847e-02 4.587966442108154297e+00 1.357690215110778809e+00 2.868136465549468994e-01
5.832000000000000000e+03 6.259999847412109375e+01 -1.853277969360351562e+01 -3.913473710417747498e-02 5.668094158172607422e+00 1.688687920570373535e+00 3.369745314121246338e-01
5.833000000000000000e+03 3.230200958251953125e+01 4.115200805664062500e+01 4.401793330907821655e-02 6.939221173524856567e-02 3.402304276823997498e-02 8.460697717964649200e-03
5.834000000000000000e+03 1.643376731872558594e+01 -2.606646347045898438e+01 1.651614159345626831e-01 -1.469565182924270630e-01 5.461469758301973343e-03 -2.580054700374603271e-01
5.835000000000000000e+03 6.216983032226562500e+01 -5.209487915039062500e+00 -1.033996865153312683e-01 5.573733329772949219e+00 1.641100168228149414e+00 3.234024047851562500e-01
5.836000000000000000e+03 6.388810729980468750e+01 -5.305144309997558594e+00 -1.067894995212554932e-01 5.936033248901367188e+00 1.748773217201232910e+00 3.068953454494476318e-01
5.837000000000000000e+03 4.725937652587890625e+01 -9.979361534118652344e+00 8.266615867614746094e-02 2.299525022506713867e+00 7.146573662757873535e-01 9.403978288173675537e-02
5.838000000000000000e+03 4.051115798950195312e+01 1.364919471740722656e+01 -5.802282094955444336e-01 -9.098108112812042236e-02 -2.013627886772155762e-01 -3.954547643661499023e-01
5.839000000000000000e+03 4.065021896362304688e+01 1.316360664367675781e+01 -5.540352463722229004e-01 -1.688160747289657593e-02 -1.712750643491744995e-01 -3.523907661437988281e-01
5.840000000000000000e+03 4.548536682128906250e+01 1.833320999145507812e+01 -3.996736705303192139e-01 4.082418680191040039e-01 2.570455195382237434e-03 -9.442290663719177246e-02
5.841000000000000000e+03 5.964256668090820312e+01 2.825374984741210938e+01 2.302889078855514526e-01 6.922168254852294922e+00 2.145737171173095703e+00 2.824484586715698242e+00
5.842000000000000000e+03 5.991301727294921875e+01 2.839237785339355469e+01 1.787934601306915283e-01 7.353116512298583984e+00 2.259572982788085938e+00 2.876623392105102539e+00
5.843000000000000000e+03 5.970355606079101562e+01 2.798667526245117188e+01 1.166827008128166199e-01 7.013232707977294922e+00 2.138974666595458984e+00 2.736469984054565430e+00
5.844000000000000000e+03 3.955938339233398438e+01 1.236740589141845703e+01 -5.877685546875000000e-01 -1.441662013530731201e-01 -2.195804268121719360e-01 -4.058450460433959961e-01
5.845000000000000000e+03 4.284960937500000000e+01 1.397341728210449219e+01 -4.570666849613189697e-01 3.312453925609588623e-01 -3.774638846516609192e-02 -1.824901998043060303e-01
5.846000000000000000e+03 5.091604614257812500e+01 2.342580986022949219e+01 -1.312349289655685425e-01 1.217592120170593262e+00 3.259071409702301025e-01 5.278196930885314941e-01
5.847000000000000000e+03 4.856216430664062500e+01 2.136589241027832031e+01 -2.870377898216247559e-01 7.890481352806091309e-01 1.506031006574630737e-01 2.075610756874084473e-01
5.848000000000000000e+03 4.659925079345703125e+01 1.899294281005859375e+01 -3.540440797805786133e-01 5.767190456390380859e-01 6.680249422788619995e-02 2.367365173995494843e-02
5.849000000000000000e+03 4.759959793090820312e+01 2.066216468811035156e+01 -3.340604007244110107e-01 6.070846915245056152e-01 8.190727978944778442e-02 8.889512717723846436e-02
5.850000000000000000e+03 4.910691833496093750e+01 2.134529113769531250e+01 -2.552591562271118164e-01 9.586911201477050781e-01 2.110295891761779785e-01 3.004669249057769775e-01
5.851000000000000000e+03 5.322161483764648438e+01 2.555007362365722656e+01 1.062291115522384644e-01 1.729032278060913086e+00 5.505784153938293457e-01 9.316638112068176270e-01
5.852000000000000000e+03 5.408934402465820312e+01 2.563138389587402344e+01 1.619096100330352783e-01 2.190264701843261719e+00 7.056522965431213379e-01 1.155862927436828613e+00
5.853000000000000000e+03 4.163787841796875000e+01 1.401118659973144531e+01 -5.222454667091369629e-01 8.788538724184036255e-02 -1.303080171346664429e-01 -3.069398999214172363e-01
5.854000000000000000e+03 4.557671737670898438e+01 1.769416046142578125e+01 -3.826057016849517822e-01 5.015132427215576172e-01 3.567226976156234741e-02 -5.300555005669593811e-02
5.855000000000000000e+03 4.614343643188476562e+01 1.844844818115234375e+01 -3.707798421382904053e-01 5.442603826522827148e-01 5.204415693879127502e-02 -1.275646686553955078e-02
5.856000000000000000e+03 5.121614456176757812e+01 2.368190193176269531e+01 -1.058438047766685486e-01 1.264961123466491699e+00 3.477351963520050049e-01 5.784653425216674805e-01
5.857000000000000000e+03 5.158828353881835938e+01 2.382888603210449219e+01 -8.401428163051605225e-02 1.386826157569885254e+00 3.908435702323913574e-01 6.411814689636230469e-01
5.858000000000000000e+03 4.516578292846679688e+01 1.676657104492187500e+01 -3.905899226665496826e-01 5.186465978622436523e-01 3.841701149940490723e-02 -6.575721502304077148e-02
5.859000000000000000e+03 4.286032867431640625e+01 1.493851566314697266e+01 -4.795331656932830811e-01 2.376074790954589844e-01 -7.257770746946334839e-02 -2.329337298870086670e-01
5.860000000000000000e+03 4.826207351684570312e+01 2.109931373596191406e+01 -3.010879755020141602e-01 7.410793900489807129e-01 1.319974213838577271e-01 1.735470890998840332e-01
5.861000000000000000e+03 4.899250793457031250e+01 2.024284172058105469e+01 -2.641824483871459961e-01 1.082063198089599609e+00 2.453642338514328003e-01 3.252297639846801758e-01
5.862000000000000000e+03 4.442045211791992188e+01 1.651844406127929688e+01 -4.215658903121948242e-01 3.948557972908020020e-01 -8.013025857508182526e-03 -1.395395845174789429e-01
5.863000000000000000e+03 5.854240798950195312e+01 2.845513153076171875e+01 6.676227450370788574e-01 5.187033653259277344e+00 1.756396889686584473e+00 2.693368434906005859e+00
5.864000000000000000e+03 6.097390747070312500e+01 2.775565338134765625e+01 -4.706701636314392090e-01 8.704665184020996094e+00 2.470198631286621094e+00 2.298712730407714844e+00
5.865000000000000000e+03 4.286498260498046875e+01 1.445285224914550781e+01 -4.654161632061004639e-01 2.885692119598388672e-01 -5.305408313870429993e-02 -2.054354995489120483e-01
5.866000000000000000e+03 5.387549972534179688e+01 2.600131607055664062e+01 1.841017305850982666e-01 1.963249564170837402e+00 6.442053914070129395e-01 1.076918601989746094e+00
5.867000000000000000e+03 4.995459747314453125e+01 2.229935836791992188e+01 -2.055867612361907959e-01 1.073488235473632812e+00 2.603704631328582764e-01 3.918612599372863770e-01
5.868000000000000000e+03 4.639130401611328125e+01 1.875774383544921875e+01 -3.640630841255187988e-01 5.630663633346557617e-01 5.970097705721855164e-02 8.067268878221511841e-03
5.869000000000000000e+03 3.756784820556640625e+01 8.505573272705078125e+00 -5.526415705680847168e-01 -1.410353779792785645e-01 -2.081030905246734619e-01 -3.441781401634216309e-01
5.870000000000000000e+03 3.832338714599609375e+01 8.372577667236328125e+00 -4.971035122871398926e-01 -4.347094800323247910e-03 -1.504351794719696045e-01 -2.746644914150238037e-01
5.871000000000000000e+03 5.250071334838867188e+01 2.522123908996582031e+01 3.915149718523025513e-02 1.474189758300781250e+00 4.540023505687713623e-01 7.767471671104431152e-01
5.872000000000000000e+03 5.924629592895507812e+01 2.827572822570800781e+01 3.798557221889495850e-01 6.336573600769042969e+00 2.014928817749023438e+00 2.805795431137084961e+00
5.873000000000000000e+03 5.747793579101562500e+01 2.817754936218261719e+01 7.140375971794128418e-01 4.009938716888427734e+00 1.417192935943603516e+00 2.264360189437866211e+00
5.874000000000000000e+03 5.263386154174804688e+01 2.476824760437011719e+01 2.246166393160820007e-02 1.649901032447814941e+00 5.017088055610656738e-01 8.334305882453918457e-01
5.875000000000000000e+03 3.920481872558593750e+01 1.011739253997802734e+01 -5.277063250541687012e-01 -2.828738186508417130e-03 -1.591605246067047119e-01 -3.064032196998596191e-01
5.876000000000000000e+03 3.955074310302734375e+01 1.151084899902343750e+01 -5.602430105209350586e-01 -6.718207895755767822e-02 -1.882275342941284180e-01 -3.542134463787078857e-01
5.877000000000000000e+03 4.531567764282226562e+01 1.725656509399414062e+01 -3.926985263824462891e-01 4.928669333457946777e-01 3.005051985383033752e-02 -6.675276160240173340e-02
5.878000000000000000e+03 5.198009872436523438e+01 2.398091888427734375e+01 -5.444648116827011108e-02 1.529895186424255371e+00 4.426346123218536377e-01 7.245182991027832031e-01
5.879000000000000000e+03 5.237580108642578125e+01 2.413908576965332031e+01 -2.833628095686435699e-02 1.674448847770690918e+00 4.938337802886962891e-01 8.048875331878662109e-01
5.880000000000000000e+03 4.093265914916992188e+01 1.372284030914306641e+01 -5.592019557952880859e-01 -2.330741472542285919e-02 -1.747528165578842163e-01 -3.585124313831329346e-01
5.881000000000000000e+03 4.026272583007812500e+01 1.302565479278564453e+01 -5.706670284271240234e-01 -7.188618928194046021e-02 -1.927659660577774048e-01 -3.770213425159454346e-01
5.882000000000000000e+03 4.880706405639648438e+01 2.107177734375000000e+01 -2.676128447055816650e-01 9.158189296722412109e-01 1.944618374109268188e-01 2.704301476478576660e-01
5.883000000000000000e+03 3.637399291992187500e+01 6.055943012237548828e+00 -5.045045614242553711e-01 -1.209943965077400208e-01 -1.876496970653533936e-01 -2.774353027343750000e-01
5.884000000000000000e+03 3.742906951904296875e+01 7.799306869506835938e+00 -5.262383818626403809e-01 -1.046971976757049561e-01 -1.892806738615036011e-01 -3.100655972957611084e-01
5.885000000000000000e+03 4.331787490844726562e+01 1.538369464874267578e+01 -4.638015329837799072e-01 2.832384109497070312e-01 -5.416894331574440002e-02 -2.101273834705352783e-01
5.886000000000000000e+03 2.213238716125488281e+01 2.073857879638671875e+01 3.940714150667190552e-02 1.152679920196533203e-01 4.640254005789756775e-02 7.041855156421661377e-02
5.887000000000000000e+03 3.858419799804687500e+01 9.096375465393066406e+00 -5.170148611068725586e-01 -2.622302062809467316e-02 -1.629713624715805054e-01 -2.993808984756469727e-01
5.888000000000000000e+03 4.051513290405273438e+01 1.095717334747314453e+01 -4.868430793285369873e-01 1.586574614048004150e-01 -9.845568984746932983e-02 -2.394910603761672974e-01
5.889000000000000000e+03 5.025683975219726562e+01 2.267933845520019531e+01 -1.828735321760177612e-01 1.120828747749328613e+00 2.813865542411804199e-01 4.384290575981140137e-01
5.890000000000000000e+03 4.428742599487304688e+01 1.616619682312011719e+01 -4.302764236927032471e-01 4.041430652141571045e-01 -7.840001024305820465e-03 -1.421115398406982422e-01
5.891000000000000000e+03 4.380516815185546875e+01 1.580617046356201172e+01 -4.477967023849487305e-01 3.385898470878601074e-01 -3.276206180453300476e-02 -1.778756976127624512e-01
5.892000000000000000e+03 5.647578048706054688e+01 2.841141891479492188e+01 7.801409363746643066e-01 2.916297435760498047e+00 1.108931541442871094e+00 1.825208187103271484e+00
5.893000000000000000e+03 5.522428894042968750e+01 2.722286415100097656e+01 4.357303380966186523e-01 2.432079315185546875e+00 8.603428602218627930e-01 1.425854325294494629e+00
5.894000000000000000e+03 3.267830276489257812e+01 1.952485322952270508e+00 -4.451283514499664307e-01 -2.810126543045043945e-01 -2.178422957658767700e-01 -9.153689444065093994e-02
5.895000000000000000e+03 3.342249298095703125e+01 1.002530336380004883e+00 -2.480882406234741211e-01 -2.223194837570190430e-01 -1.411223113536834717e-01 -1.993274129927158356e-02
5.896000000000000000e+03 3.878221893310546875e+01 8.606609344482421875e+00 -4.855128526687622070e-01 4.541157558560371399e-02 -1.320303827524185181e-01 -2.563572227954864502e-01
5.897000000000000000e+03 3.912078857421875000e+01 9.192847251892089844e+00 -4.923187792301177979e-01 5.464384332299232483e-02 -1.313024759292602539e-01 -2.602016925811767578e-01
5.898000000000000000e+03 4.939513778686523438e+01 2.162670707702636719e+01 -2.434577792882919312e-01 1.007705688476562500e+00 2.292743921279907227e-01 3.350076079368591309e-01
5.899000000000000000e+03 5.071560287475585938e+01 2.112150192260742188e+01 -1.946364194154739380e-01 1.573216438293457031e+00 4.135740101337432861e-01 5.878009200096130371e-01
5.900000000000000000e+03 3.911693191528320312e+01 9.643198013305664062e+00 -5.056546926498413086e-01 2.395927719771862030e-02 -1.445086300373077393e-01 -2.816463708877563477e-01
5.901000000000000000e+03 3.933335494995117188e+01 1.059399795532226562e+01 -5.368588566780090332e-01 -2.525312639772891998e-02 -1.686335951089859009e-01 -3.221797049045562744e-01
5.902000000000000000e+03 1.344554042816162109e+01 1.293913650512695312e+01 2.941127680242061615e-02 1.629878282546997070e-01 5.771972984075546265e-02 3.817905858159065247e-02
5.903000000000000000e+03 1.620695114135742188e+01 1.470794868469238281e+01 3.769177570939064026e-02 1.567176431417465210e-01 5.832282453775405884e-02 7.093920558691024780e-02
5.904000000000000000e+03 1.565792179107666016e+01 1.304818248748779297e+01 4.716783016920089722e-02 1.815431714057922363e-01 6.861329823732376099e-02 8.037083595991134644e-02
5.905000000000000000e+03 1.592269897460937500e+01 1.405397891998291016e+01 3.974743932485580444e-02 1.650037914514541626e-01 6.142536923289299011e-02 7.308482378721237183e-02
5.906000000000000000e+03 1.662596511840820312e+01 1.539459800720214844e+01 3.642199188470840454e-02 1.490232050418853760e-01 5.563355982303619385e-02 7.020786404609680176e-02
5.907000000000000000e+03 1.455310344696044922e+01 1.274410057067871094e+01 3.881331533193588257e-02 1.810411512851715088e-01 6.595633924007415771e-02 6.165043264627456665e-02
5.908000000000000000e+03 5.906990814208984375e+01 2.801517295837402344e+01 3.387970626354217529e-01 6.083403587341308594e+00 1.926660180091857910e+00 2.713661670684814453e+00
5.909000000000000000e+03 5.666224288940429688e+01 2.801232528686523438e+01 6.768210530281066895e-01 3.246335744857788086e+00 1.176946997642517090e+00 1.916256666183471680e+00
5.910000000000000000e+03 3.787311553955078125e+01 8.087720870971679688e+00 -5.130529403686523438e-01 -6.166893616318702698e-02 -1.724165678024291992e-01 -2.935324013233184814e-01
5.911000000000000000e+03 3.645934677124023438e+01 6.661405086517333984e+00 -5.262188315391540527e-01 -1.491048485040664673e-01 -2.025970965623855591e-01 -3.063576519489288330e-01
5.912000000000000000e+03 1.462833213806152344e+01 1.324325275421142578e+01 3.572025895118713379e-02 1.723177433013916016e-01 6.241140142083168030e-02 5.974287167191505432e-02
5.913000000000000000e+03 3.503674316406250000e+01 4.570007324218750000e+00 -5.213302969932556152e-01 -1.827469170093536377e-01 -2.112231701612472534e-01 -2.505725324153900146e-01
5.914000000000000000e+03 3.759890365600585938e+01 6.618244171142578125e+00 -4.556690454483032227e-01 3.622409654781222343e-03 -1.356139928102493286e-01 -2.253888845443725586e-01
5.915000000000000000e+03 3.958877563476562500e+01 1.195022010803222656e+01 -5.736499428749084473e-01 -1.021088436245918274e-01 -2.027276307344436646e-01 -3.760991692543029785e-01
5.916000000000000000e+03 3.910887527465820312e+01 1.155854701995849609e+01 -5.902535915374755859e-01 -1.504860669374465942e-01 -2.222218960523605347e-01 -3.993367552757263184e-01
5.917000000000000000e+03 6.147278213500976562e+01 2.797794914245605469e+01 -5.704907178878784180e-01 9.430272102355957031e+00 2.657934427261352539e+00 2.147569894790649414e+00
5.918000000000000000e+03 1.930967521667480469e+01 1.888353347778320312e+01 3.374419733881950378e-02 1.250428408384323120e-01 4.763611406087875366e-02 6.728903204202651978e-02
5.919000000000000000e+03 6.313248062133789062e+01 2.482812500000000000e+01 -1.148856759071350098e+00 8.987683296203613281e+00 2.351648092269897461e+00 7.050784826278686523e-01
5.920000000000000000e+03 6.260552215576171875e+01 2.635988426208496094e+01 -1.012948751449584961e+00 9.503766059875488281e+00 2.547245264053344727e+00 1.102532744407653809e+00
5.921000000000000000e+03 3.214261245727539062e+01 1.832511067390441895e+00 -4.902808964252471924e-01 -3.276380896568298340e-01 -2.453756928443908691e-01 -1.054265350103378296e-01
5.922000000000000000e+03 2.378795242309570312e+01 2.304158020019531250e+01 3.220655396580696106e-02 1.053705140948295593e-01 4.127312079071998596e-02 6.537383794784545898e-02
5.923000000000000000e+03 5.365626144409179688e+01 2.635350990295410156e+01 1.944827288389205933e-01 1.748652577400207520e+00 5.829405784606933594e-01 9.969401359558105469e-01
5.924000000000000000e+03 3.451243972778320312e+01 3.158612251281738281e+00 -4.408862888813018799e-01 -1.701580584049224854e-01 -1.833132952451705933e-01 -1.540721058845520020e-01
5.925000000000000000e+03 6.451036834716796875e+01 2.629318428039550781e+01 -1.032687306404113770e+00 1.015772438049316406e+01 2.737510919570922852e+00 1.819159463047981262e-02
5.926000000000000000e+03 6.371734619140625000e+01 2.585939025878906250e+01 -1.098599791526794434e+00 9.720823287963867188e+00 2.586667299270629883e+00 4.427917301654815674e-01
5.927000000000000000e+03 2.143968391418457031e+01 2.079585647583007812e+01 3.326686471700668335e-02 1.150304824113845825e-01 4.448920488357543945e-02 6.704446673393249512e-02
5.928000000000000000e+03 4.989600753784179688e+01 2.382705879211425781e+01 -1.995165795087814331e-01 7.536341547966003418e-01 1.662352830171585083e-01 2.866936028003692627e-01
5.929000000000000000e+03 4.036817169189453125e+01 1.256496238708496094e+01 -5.503168106079101562e-01 -1.316178869456052780e-02 -1.690435707569122314e-01 -3.408348262310028076e-01
5.930000000000000000e+03 1.808071327209472656e+01 2.106736755371093750e+01 1.415333338081836700e-02 1.060346662998199463e-01 3.605639934539794922e-02 4.569024592638015747e-02
5.931000000000000000e+03 1.592452526092529297e+01 2.092719841003417969e+01 5.925468169152736664e-03 9.210726618766784668e-02 2.940982021391391754e-02 3.074088878929615021e-02
5.932000000000000000e+03 1.704521179199218750e+01 1.680345344543457031e+01 3.068440593779087067e-02 1.366234570741653442e-01 5.019235983490943909e-02 6.317306309938430786e-02
5.933000000000000000e+03 3.331403732299804688e+01 1.508199453353881836e+00 -3.301222622394561768e-01 -2.230277508497238159e-01 -1.659450083971023560e-01 -4.461260512471199036e-02
5.934000000000000000e+03 3.393193054199218750e+01 1.139616012573242188e+00 -2.318705022335052490e-01 -1.587944328784942627e-01 -1.171994805335998535e-01 -1.266861613839864731e-02
5.935000000000000000e+03 1.587024402618408203e+01 1.589215564727783203e+01 2.670443989336490631e-02 1.397793889045715332e-01 4.994514957070350647e-02 5.686105415225028992e-02
5.936000000000000000e+03 3.400901794433593750e+01 2.851365089416503906e+00 -4.584297537803649902e-01 -1.906317174434661865e-01 -1.947184354066848755e-01 -1.408569961786270142e-01
5.937000000000000000e+03 3.654996871948242188e+01 3.407202064990997314e-01 -5.508391559123992920e-02 1.371089220046997070e-01 2.460750378668308258e-02 4.597552120685577393e-02
5.938000000000000000e+03 3.762092971801757812e+01 -1.756035327911376953e+00 1.223391368985176086e-01 2.936529517173767090e-01 1.247976273298263550e-01 8.197294920682907104e-02
5.939000000000000000e+03 6.480075836181640625e+01 1.729508781433105469e+01 -9.676066637039184570e-01 7.427738189697265625e+00 1.938039422035217285e+00 9.550989419221878052e-02
5.940000000000000000e+03 6.316180801391601562e+01 1.483969306945800781e+01 -8.225548863410949707e-01 6.674273014068603516e+00 1.755515336990356445e+00 3.169676363468170166e-01
5.941000000000000000e+03 2.301260185241699219e+01 2.644981002807617188e+01 1.769720204174518585e-02 9.213081747293472290e-02 3.294840827584266663e-02 4.790421575307846069e-02
5.942000000000000000e+03 2.497436714172363281e+01 2.741000556945800781e+01 2.078071422874927521e-02 9.244917333126068115e-02 3.396896645426750183e-02 5.136904865503311157e-02
5.943000000000000000e+03 2.360398483276367188e+01 2.740752410888671875e+01 1.572697050869464874e-02 9.059055149555206299e-02 3.189525753259658813e-02 4.666349664330482483e-02
5.944000000000000000e+03 1.369062232971191406e+01 1.787014389038085938e+01 7.853299379348754883e-03 9.789799153804779053e-02 3.172538802027702332e-02 2.304604463279247284e-02
5.945000000000000000e+03 1.443296813964843750e+01 1.705413055419921875e+01 1.398446038365364075e-02 1.161908805370330811e-01 3.905260190367698669e-02 3.368141129612922668e-02
5.946000000000000000e+03 3.711965942382812500e+01 8.198069572448730469e+00 -5.666467547416687012e-01 -1.799595504999160767e-01 -2.239818871021270752e-01 -3.607165515422821045e-01
5.947000000000000000e+03 6.415769195556640625e+01 2.170609092712402344e+01 -1.169870972633361816e+00 8.242350578308105469e+00 2.121743917465209961e+00 2.397925406694412231e-01
5.948000000000000000e+03 1.860337448120117188e+01 1.711401557922363281e+01 3.949552401900291443e-02 1.362035572528839111e-01 5.270972102880477905e-02 7.395908236503601074e-02
5.949000000000000000e+03 3.500260162353515625e+01 -1.303094774484634399e-01 -4.327303171157836914e-02 -3.946864977478981018e-02 -2.482250332832336426e-02 3.991680964827537537e-02
5.950000000000000000e+03 3.587559127807617188e+01 4.335532709956169128e-02 -3.574378788471221924e-02 6.147417798638343811e-02 7.719117216765880585e-03 4.343252629041671753e-02
5.951000000000000000e+03 6.317950439453125000e+01 2.646646499633789062e+01 -1.047271013259887695e+00 9.891400337219238281e+00 2.653238773345947266e+00 7.775351405143737793e-01
5.952000000000000000e+03 6.156758499145507812e+01 2.615139961242675781e+01 -8.567214608192443848e-01 8.642700195312500000e+00 2.335793495178222656e+00 1.597205400466918945e+00
5.953000000000000000e+03 6.322769165039062500e+01 3.345423936843872070e+00 -2.863951325416564941e-01 5.947384357452392578e+00 1.698296785354614258e+00 3.022660017013549805e-01
5.954000000000000000e+03 1.438329029083251953e+01 1.883811569213867188e+01 6.526632234454154968e-03 9.671127051115036011e-02 3.097137063741683960e-02 2.543436735868453979e-02
5.955000000000000000e+03 3.801690673828125000e+01 -1.146768689155578613e+00 8.954504877328872681e-02 3.523357212543487549e-01 1.325642317533493042e-01 8.419147878885269165e-02
5.956000000000000000e+03 3.826692199707031250e+01 -2.161240339279174805e+00 1.543434411287307739e-01 4.023752212524414062e-01 1.670155972242355347e-01 8.516500890254974365e-02
5.957000000000000000e+03 6.475569915771484375e+01 2.007013511657714844e+01 -1.107999920845031738e+00 7.965275764465332031e+00 2.057182788848876953e+00 7.489687204360961914e-02
5.958000000000000000e+03 4.548284149169921875e+01 -5.851437568664550781e+00 1.264284402132034302e-01 1.827938437461853027e+00 5.863100886344909668e-01 1.428148895502090454e-01
5.959000000000000000e+03 2.292547607421875000e+01 2.235120773315429688e+01 3.123236261308193207e-02 1.081344261765480042e-01 4.181003570556640625e-02 6.540732085704803467e-02
5.960000000000000000e+03 6.282558441162109375e+01 -7.867624759674072266e+00 -7.911414653062820435e-02 5.693637371063232422e+00 1.684356927871704102e+00 3.228565752506256104e-01
5.961000000000000000e+03 4.271265792846679688e+01 -3.693137407302856445e+00 1.459754109382629395e-01 1.204735755920410156e+00 4.052133560180664062e-01 1.276486814022064209e-01
5.962000000000000000e+03 1.554484272003173828e+01 2.012894630432128906e+01 5.606671329587697983e-03 9.606719017028808594e-02 3.050215914845466614e-02 3.118719533085823059e-02
5.963000000000000000e+03 6.406475067138671875e+01 1.015209197998046875e+01 -5.597704648971557617e-01 6.447014808654785156e+00 1.766173243522644043e+00 2.297182679176330566e-01
5.964000000000000000e+03 6.594581604003906250e+01 1.858632278442382812e+01 -1.014651179313659668e+00 7.876040458679199219e+00 2.058416843414306641e+00 -1.359489113092422485e-01
5.965000000000000000e+03 4.672295379638671875e+01 -8.510694503784179688e+00 1.057563126087188721e-01 2.146582603454589844e+00 6.757016777992248535e-01 1.125065088272094727e-01
5.966000000000000000e+03 4.354244995117187500e+01 -5.605774402618408203e+00 1.647476851940155029e-01 1.408399820327758789e+00 4.719442427158355713e-01 1.086039841175079346e-01
5.967000000000000000e+03 6.583699798583984375e+01 6.756813049316406250e+00 -3.945039510726928711e-01 6.664297103881835938e+00 1.880937933921813965e+00 1.755519509315490723e-01
5.968000000000000000e+03 6.447656250000000000e+01 8.187686920166015625e+00 -4.652142226696014404e-01 6.432393074035644531e+00 1.790153622627258301e+00 2.180984169244766235e-01
5.969000000000000000e+03 4.567889785766601562e+01 -4.822581768035888672e+00 1.080809235572814941e-01 1.841536879539489746e+00 5.848853588104248047e-01 1.676764339208602905e-01
5.970000000000000000e+03 4.188161849975585938e+01 -2.646019697189331055e+00 1.276689618825912476e-01 1.020512342453002930e+00 3.444543778896331787e-01 1.337565481662750244e-01
5.971000000000000000e+03 6.406959533691406250e+01 5.956699371337890625e+00 -3.695304393768310547e-01 6.249753952026367188e+00 1.764066934585571289e+00 2.533884942531585693e-01
5.972000000000000000e+03 2.472316360473632812e+01 3.003249359130859375e+01 1.428598724305629730e-02 8.327893167734146118e-02 2.926947548985481262e-02 3.978736326098442078e-02
5.973000000000000000e+03 6.158901214599609375e+01 -6.972804665565490723e-01 -1.790153533220291138e-01 5.481586456298828125e+00 1.590771436691284180e+00 3.365884423255920410e-01
5.974000000000000000e+03 2.617535972595214844e+01 3.348471069335937500e+01 2.065546065568923950e-02 7.806463539600372314e-02 2.961602807044982910e-02 3.239419683814048767e-02
5.975000000000000000e+03 6.390661621093750000e+01 1.440215110778808594e+01 -8.010886907577514648e-01 6.829040050506591797e+00 1.808385372161865234e+00 2.249830067157745361e-01
5.976000000000000000e+03 6.372675323486328125e+01 1.205721855163574219e+01 -6.701080203056335449e-01 6.537730693817138672e+00 1.760286808013916016e+00 2.487222850322723389e-01
5.977000000000000000e+03 6.395531082153320312e+01 2.448136520385742188e+01 -1.166403651237487793e+00 9.085762977600097656e+00 2.375807762145996094e+00 3.568880856037139893e-01
5.978000000000000000e+03 6.439853668212890625e+01 2.363771820068359375e+01 -1.183264136314392090e+00 8.937538146972656250e+00 2.326282024383544922e+00 1.551941633224487305e-01
5.979000000000000000e+03 6.211732482910156250e+01 -2.026579380035400391e+00 -1.489653289318084717e-01 5.588453292846679688e+00 1.631846427917480469e+00 3.274013102054595947e-01
5.980000000000000000e+03 1.567799472808837891e+01 1.783359527587890625e+01 1.620692759752273560e-02 1.187016591429710388e-01 4.047257453203201294e-02 4.333820939064025879e-02
5.981000000000000000e+03 4.042878723144531250e+01 -1.355444669723510742e+00 1.037261337041854858e-01 7.483453154563903809e-01 2.556214332580566406e-01 1.184495165944099426e-01
5.982000000000000000e+03 5.104512786865234375e+01 -1.303687667846679688e+01 -2.661255747079849243e-02 3.199176073074340820e+00 9.517690539360046387e-01 1.396335065364837646e-01
5.983000000000000000e+03 6.712986755371093750e+01 7.958517074584960938e+00 -4.020032882690429688e-01 7.011872768402099609e+00 1.982960820198059082e+00 7.517287135124206543e-02
5.984000000000000000e+03 4.935320281982421875e+01 -1.257971382141113281e+01 6.365980952978134155e-04 2.790737867355346680e+00 8.374122977256774902e-01 1.037149652838706970e-01
5.985000000000000000e+03 4.916201400756835938e+01 -1.057703208923339844e+01 3.303194418549537659e-02 2.701827049255371094e+00 8.204576969146728516e-01 1.288802921772003174e-01
5.986000000000000000e+03 1.691643333435058594e+01 2.416975021362304688e+01 1.475973258493468165e-04 8.017513900995254517e-02 2.409682050347328186e-02 2.530616149306297302e-02
5.987000000000000000e+03 1.599821567535400391e+01 2.401296997070312500e+01 -2.337562473258003592e-04 7.395657896995544434e-02 2.211684733629226685e-02 2.240274846553802490e-02
5.988000000000000000e+03 6.572750854492187500e+01 8.879815101623535156e+00 -4.856018126010894775e-01 6.749210357666015625e+00 1.879082560539245605e+00 1.397994011640548706e-01
5.989000000000000000e+03 2.244691467285156250e+01 3.077606201171875000e+01 7.997522130608558655e-03 7.544641941785812378e-02 2.503318339586257935e-02 3.070634230971336365e-02
5.990000000000000000e+03 2.605488395690917969e+01 3.027401542663574219e+01 2.169812656939029694e-02 8.368297666311264038e-02 3.161432966589927673e-02 4.355211928486824036e-02
5.991000000000000000e+03 2.349562644958496094e+01 2.501343917846679688e+01 2.403593435883522034e-02 9.827233850955963135e-02 3.669248148798942566e-02 5.535174161195755005e-02
5.992000000000000000e+03 1.595856285095214844e+01 2.749069786071777344e+01 -5.070800427347421646e-03 5.614096298813819885e-02 1.532104890793561935e-02 1.503867749124765396e-02
5.993000000000000000e+03 6.241326141357421875e+01 -1.179332828521728516e+01 -5.949579179286956787e-02 5.592489719390869141e+00 1.659898161888122559e+00 3.219757974147796631e-01
5.994000000000000000e+03 6.273582458496093750e+01 -9.477785110473632812e+00 -7.506866753101348877e-02 5.654243946075439453e+00 1.673752546310424805e+00 3.232213854789733887e-01
5.995000000000000000e+03 4.990927886962890625e+01 -1.361560821533203125e+01 -2.101003378629684448e-02 2.957476854324340820e+00 8.809400200843811035e-01 1.090174317359924316e-01
5.996000000000000000e+03 5.233066940307617188e+01 -1.275348758697509766e+01 -3.414818271994590759e-02 3.484786748886108398e+00 1.035191535949707031e+00 1.745887994766235352e-01
5.997000000000000000e+03 6.357099533081054688e+01 1.117855548858642578e+01 -6.161967515945434570e-01 6.426049232482910156e+00 1.742955684661865234e+00 2.625823915004730225e-01
5.998000000000000000e+03 6.510974884033203125e+01 1.066522884368896484e+01 -5.937187075614929199e-01 6.747196197509765625e+00 1.846043229103088379e+00 1.562982350587844849e-01
5.999000000000000000e+03 6.272140121459960938e+01 -3.405366837978363037e-01 -1.824634075164794922e-01 5.736980915069580078e+00 1.666355252265930176e+00 3.189984261989593506e-01
6.000000000000000000e+03 6.241666412353515625e+01 -1.085686683654785156e+00 -1.684433817863464355e-01 5.661974430084228516e+00 1.648059368133544922e+00 3.265475034713745117e-01
6.001000000000000000e+03 6.477437591552734375e+01 9.128252029418945312e+00 -5.102863907814025879e-01 6.555346488952636719e+00 1.813518047332763672e+00 1.943854838609695435e-01
6.002000000000000000e+03 6.319979476928710938e+01 -4.400909900665283203e+00 -1.186698824167251587e-01 5.789648056030273438e+00 1.701293468475341797e+00 3.238084912300109863e-01
6.003000000000000000e+03 4.123196029663085938e+01 -1.559354662895202637e+00 9.398952126502990723e-02 8.865965604782104492e-01 2.941758334636688232e-01 1.349608749151229858e-01
6.004000000000000000e+03 5.353826904296875000e+01 -1.427090740203857422e+01 -5.349345877766609192e-02 3.776142835617065430e+00 1.116794824600219727e+00 2.071486562490463257e-01
6.005000000000000000e+03 6.230179595947265625e+01 2.806227207183837891e+00 -2.652066051959991455e-01 5.715481758117675781e+00 1.635082602500915527e+00 3.246736526489257812e-01
6.006000000000000000e+03 6.212155151367187500e+01 1.410847067832946777e+00 -2.203682363033294678e-01 5.645200252532958984e+00 1.627449631690979004e+00 3.256378173828125000e-01
6.007000000000000000e+03 1.684928703308105469e+01 2.955893135070800781e+01 -4.581364803016185760e-03 5.460402369499206543e-02 1.500679831951856613e-02 1.533962599933147430e-02
6.008000000000000000e+03 6.126160812377929688e+01 -1.958419036865234375e+01 -3.854839131236076355e-02 5.433837890625000000e+00 1.618586897850036621e+00 3.486536443233489990e-01
6.009000000000000000e+03 6.165944290161132812e+01 -1.714775657653808594e+01 -4.947617650032043457e-02 5.462592601776123047e+00 1.623934984207153320e+00 3.370550870895385742e-01
6.010000000000000000e+03 5.520259475708007812e+01 -1.286261367797851562e+01 -4.861965402960777283e-02 4.118418693542480469e+00 1.220939636230468750e+00 2.446137517690658569e-01
6.011000000000000000e+03 5.749507522583007812e+01 -2.019300460815429688e+01 -7.217530906200408936e-02 4.691743373870849609e+00 1.385870337486267090e+00 3.132879137992858887e-01
6.012000000000000000e+03 5.737182235717773438e+01 -2.314268493652343750e+01 -2.256898023188114166e-02 4.756851673126220703e+00 1.420284748077392578e+00 3.287748396396636963e-01
6.013000000000000000e+03 5.896905136108398438e+01 -2.157987022399902344e+01 -3.824109956622123718e-02 5.019811153411865234e+00 1.494470953941345215e+00 3.358682394027709961e-01
6.014000000000000000e+03 1.282289695739746094e+01 -3.177702903747558594e+01 1.095773354172706604e-01 -4.271504580974578857e-01 -9.527193754911422729e-02 -1.558227539062500000e-01
6.015000000000000000e+03 4.684606933593750000e+01 1.889568519592285156e+01 -3.461077809333801270e-01 6.751701831817626953e-01 9.871871769428253174e-02 7.410282641649246216e-02
6.016000000000000000e+03 4.719710922241210938e+01 1.850797080993652344e+01 -3.259293735027313232e-01 8.163866996765136719e-01 1.471372097730636597e-01 1.321761906147003174e-01
6.017000000000000000e+03 5.864516830444335938e+01 2.796763801574707031e+01 4.502591788768768311e-01 5.477514266967773438e+00 1.778332114219665527e+00 2.608606338500976562e+00
6.018000000000000000e+03 5.060565567016601562e+01 2.305768966674804688e+01 -1.518725603818893433e-01 1.180420875549316406e+00 3.085645139217376709e-01 4.891661107540130615e-01
6.019000000000000000e+03 5.127478027343750000e+01 2.327149200439453125e+01 -1.196649000048637390e-01 1.386514663696289062e+00 3.800549209117889404e-01 6.098701357841491699e-01
6.020000000000000000e+03 6.000146102905273438e+01 2.799555206298828125e+01 -6.665136665105819702e-03 7.471327781677246094e+00 2.239398717880249023e+00 2.707744598388671875e+00
6.021000000000000000e+03 4.240538406372070312e+01 1.356229305267333984e+01 -4.707002043724060059e-01 2.827902138233184814e-01 -5.637299641966819763e-02 -2.034059911966323853e-01
6.022000000000000000e+03 4.588889312744140625e+01 1.807969856262207031e+01 -3.772655427455902100e-01 5.255755782127380371e-01 4.449300095438957214e-02 -2.915210649371147156e-02
6.023000000000000000e+03 4.657606124877929688e+01 1.823363876342773438e+01 -3.472079634666442871e-01 6.869324445724487305e-01 1.019173339009284973e-01 5.680267140269279480e-02
6.024000000000000000e+03 4.104645156860351562e+01 1.329121875762939453e+01 -5.371510386466979980e-01 3.980885818600654602e-02 -1.492026597261428833e-01 -3.232977688312530518e-01
6.025000000000000000e+03 4.849158096313476562e+01 2.079160690307617188e+01 -2.863077521324157715e-01 8.671023249626159668e-01 1.742383688688278198e-01 2.303219437599182129e-01
6.026000000000000000e+03 4.936313629150390625e+01 2.102169609069824219e+01 -2.378326505422592163e-01 1.105042934417724609e+00 2.601630985736846924e-01 3.583905696868896484e-01
6.027000000000000000e+03 5.493993377685546875e+01 2.684412193298339844e+01 3.509972989559173584e-01 2.360766410827636719e+00 8.135291337966918945e-01 1.349607944488525391e+00
6.028000000000000000e+03 4.329304504394531250e+01 1.389752388000488281e+01 -4.331394433975219727e-01 4.312891066074371338e-01 -5.551077192649245262e-04 -1.361542642116546631e-01
6.029000000000000000e+03 4.243510055541992188e+01 1.402648162841796875e+01 -4.771550297737121582e-01 2.467635273933410645e-01 -6.911745667457580566e-02 -2.243887782096862793e-01
6.030000000000000000e+03 4.873448944091796875e+01 2.049498939514160156e+01 -2.742443978786468506e-01 9.866444468498229980e-01 2.137200236320495605e-01 2.876803874969482422e-01
6.031000000000000000e+03 4.774767684936523438e+01 2.028066635131835938e+01 -3.196238577365875244e-01 7.215605378150939941e-01 1.205810084939002991e-01 1.335143148899078369e-01
6.032000000000000000e+03 5.301306915283203125e+01 2.494107437133789062e+01 5.154893919825553894e-02 1.784304022789001465e+00 5.507558584213256836e-01 9.159000515937805176e-01
6.033000000000000000e+03 5.439072418212890625e+01 2.586709213256835938e+01 2.096094191074371338e-01 2.296155214309692383e+00 7.517294287681579590e-01 1.238256573677062988e+00
6.034000000000000000e+03 3.922899627685546875e+01 8.774936676025390625e+00 -4.688165783882141113e-01 1.068390980362892151e-01 -1.085932478308677673e-01 -2.299233675003051758e-01
6.035000000000000000e+03 4.046166610717773438e+01 1.207381820678710938e+01 -5.292423367500305176e-01 4.571862518787384033e-02 -1.450571119785308838e-01 -3.060815632343292236e-01
6.036000000000000000e+03 4.634442138671875000e+01 1.784840011596679688e+01 -3.539470136165618896e-01 6.762673258781433105e-01 9.669609367847442627e-02 4.163866117596626282e-02
6.037000000000000000e+03 5.168840026855468750e+01 2.337118339538574219e+01 -9.690231084823608398e-02 1.543727755546569824e+00 4.340476393699645996e-01 6.921872496604919434e-01
6.038000000000000000e+03 5.209490203857421875e+01 2.351006317138671875e+01 -7.387504726648330688e-02 1.685738444328308105e+00 4.835590124130249023e-01 7.709990143775939941e-01
6.039000000000000000e+03 4.474571228027343750e+01 1.572937488555908203e+01 -3.933378159999847412e-01 5.595875978469848633e-01 4.987492784857749939e-02 -6.105060502886772156e-02
6.040000000000000000e+03 4.332759094238281250e+01 1.488319110870361328e+01 -4.503209292888641357e-01 3.385742902755737305e-01 -3.352398797869682312e-02 -1.814364045858383179e-01
6.041000000000000000e+03 4.608589935302734375e+01 1.745302200317382812e+01 -3.632013797760009766e-01 6.634574532508850098e-01 9.007681906223297119e-02 2.307691238820552826e-02
6.042000000000000000e+03 4.468259429931640625e+01 1.619875335693359375e+01 -4.061451554298400879e-01 4.859250783920288086e-01 2.393397875130176544e-02 -9.092323482036590576e-02
6.043000000000000000e+03 4.569370269775390625e+01 1.664512062072753906e+01 -3.670451343059539795e-01 6.764894723892211914e-01 9.283329546451568604e-02 1.417301967740058899e-02
6.044000000000000000e+03 5.277078628540039062e+01 2.430373001098632812e+01 -3.724067646544426680e-04 1.820643901824951172e+00 5.460814833641052246e-01 8.881223797798156738e-01
6.045000000000000000e+03 4.119031524658203125e+01 1.284264850616455078e+01 -5.104731321334838867e-01 1.164464652538299561e-01 -1.182079985737800598e-01 -2.822931110858917236e-01
6.046000000000000000e+03 4.323419570922851562e+01 1.340557003021240234e+01 -4.267944693565368652e-01 4.683547317981719971e-01 1.246808189898729324e-02 -1.167801022529602051e-01
6.047000000000000000e+03 5.707577514648437500e+01 2.812137031555175781e+01 7.207490205764770508e-01 3.581182718276977539e+00 1.290579438209533691e+00 2.095661640167236328e+00
6.048000000000000000e+03 4.519456100463867188e+01 1.575478172302246094e+01 -3.799149692058563232e-01 6.596737504005432129e-01 8.392764627933502197e-02 -1.599644124507904053e-02
6.049000000000000000e+03 4.077759933471679688e+01 1.269365882873535156e+01 -5.297649502754211426e-01 4.724259674549102783e-02 -1.447567045688629150e-01 -3.131376504898071289e-01
6.050000000000000000e+03 4.089885711669921875e+01 1.221317577362060547e+01 -5.121578574180603027e-01 1.133078262209892273e-01 -1.196550130844116211e-01 -2.763682305812835693e-01
6.051000000000000000e+03 4.997281646728515625e+01 2.086053657531738281e+01 -2.272308766841888428e-01 1.340074300765991211e+00 3.338530361652374268e-01 4.616156816482543945e-01
6.052000000000000000e+03 4.967454528808593750e+01 2.194301986694335938e+01 -2.244655042886734009e-01 1.042997479438781738e+00 2.455595880746841431e-01 3.669017851352691650e-01
6.053000000000000000e+03 4.380956649780273438e+01 1.531548404693603516e+01 -4.326447248458862305e-01 3.928764164447784424e-01 -1.193049177527427673e-02 -1.531150788068771362e-01
6.054000000000000000e+03 4.332272338867187500e+01 1.438830566406250000e+01 -4.425066113471984863e-01 3.874947428703308105e-01 -1.650355756282806396e-02 -1.562047451734542847e-01
6.055000000000000000e+03 4.428545379638671875e+01 1.573964500427246094e+01 -4.174636900424957275e-01 4.476241171360015869e-01 9.048127569258213043e-03 -1.196491420269012451e-01
6.056000000000000000e+03 5.023093032836914062e+01 2.197942161560058594e+01 -1.983105838298797607e-01 1.247231125831604004e+00 3.146761357784271240e-01 4.647894799709320068e-01
6.057000000000000000e+03 4.174179840087890625e+01 1.359376621246337891e+01 -5.093274712562561035e-01 1.507194638252258301e-01 -1.075824052095413208e-01 -2.759350836277008057e-01
6.058000000000000000e+03 4.141839981079101562e+01 1.343768405914306641e+01 -5.188814997673034668e-01 1.012441888451576233e-01 -1.252911984920501709e-01 -2.926685512065887451e-01
6.059000000000000000e+03 6.099849319458007812e+01 2.708025550842285156e+01 -5.919219851493835449e-01 8.495704650878906250e+00 2.371134757995605469e+00 2.075721740722656250e+00
6.060000000000000000e+03 6.187921524047851562e+01 2.729594421386718750e+01 -7.967611551284790039e-01 9.506638526916503906e+00 2.612963199615478516e+00 1.717625737190246582e+00
6.061000000000000000e+03 3.961001586914062500e+01 9.629023551940917969e+00 -4.824689626693725586e-01 1.090955659747123718e-01 -1.120120137929916382e-01 -2.451806813478469849e-01
6.062000000000000000e+03 5.574061965942382812e+01 2.717053413391113281e+01 4.504872560501098633e-01 2.811007499694824219e+00 9.784483909606933594e-01 1.603694438934326172e+00
6.063000000000000000e+03 4.001587295532226562e+01 1.199283885955810547e+01 -5.485486984252929688e-01 -2.050171978771686554e-02 -1.707151234149932861e-01 -3.416512906551361084e-01
6.064000000000000000e+03 4.003950881958007812e+01 9.574329376220703125e+00 -4.570191800594329834e-01 1.855182945728302002e-01 -8.145026862621307373e-02 -2.054542601108551025e-01
6.065000000000000000e+03 3.687067794799804688e+01 6.883904457092285156e+00 -5.142391920089721680e-01 -1.118451878428459167e-01 -1.878253072500228882e-01 -2.949157357215881348e-01
6.066000000000000000e+03 3.730369949340820312e+01 7.106225967407226562e+00 -4.994588792324066162e-01 -6.997446715831756592e-02 -1.708299964666366577e-01 -2.751900553703308105e-01
6.067000000000000000e+03 5.551301956176757812e+01 2.693023109436035156e+01 3.978470265865325928e-01 2.727193832397460938e+00 9.375122189521789551e-01 1.532617449760437012e+00
6.068000000000000000e+03 1.604535865783691406e+01 1.527005958557128906e+01 3.348965197801589966e-02 1.496547311544418335e-01 5.494331568479537964e-02 6.374330818653106689e-02
6.069000000000000000e+03 3.429796981811523438e+01 1.652592420578002930e-01 -9.663361310958862305e-02 -1.143660172820091248e-01 -6.329988688230514526e-02 2.886454388499259949e-02
6.070000000000000000e+03 3.529607391357421875e+01 2.837171316146850586e+00 -3.566432893276214600e-01 -7.958152145147323608e-02 -1.308674514293670654e-01 -9.773764759302139282e-02
6.071000000000000000e+03 1.513097095489501953e+01 1.316330718994140625e+01 4.035136848688125610e-02 1.767791360616683960e-01 6.513915210962295532e-02 6.848967075347900391e-02
6.072000000000000000e+03 1.564766788482666016e+01 1.351397323608398438e+01 4.223328083753585815e-02 1.734053939580917358e-01 6.469160318374633789e-02 7.492030411958694458e-02
6.073000000000000000e+03 2.087486839294433594e+01 2.014214515686035156e+01 3.400451317429542542e-02 1.178857609629631042e-01 4.556708410382270813e-02 6.731086224317550659e-02
6.074000000000000000e+03 3.670744323730468750e+01 5.719228267669677734e+00 -4.551652073860168457e-01 -4.704288020730018616e-02 -1.506624221801757812e-01 -2.306865751743316650e-01
6.075000000000000000e+03 3.945958709716796875e+01 1.105973529815673828e+01 -5.497954487800598145e-01 -4.351319372653961182e-02 -1.779925972223281860e-01 -3.376406133174896240e-01
6.076000000000000000e+03 3.970640182495117188e+01 1.005914497375488281e+01 -4.922730624675750732e-01 8.948152512311935425e-02 -1.208374574780464172e-01 -2.552846670150756836e-01
6.077000000000000000e+03 4.725526428222656250e+01 1.976782226562500000e+01 -3.319685757160186768e-01 6.534883379936218262e-01 9.645591676235198975e-02 8.393631875514984131e-02
6.078000000000000000e+03 5.626313781738281250e+01 2.786074256896972656e+01 6.107759475708007812e-01 2.947946786880493164e+00 1.067616820335388184e+00 1.751716852188110352e+00
6.079000000000000000e+03 5.338805389404296875e+01 2.512703323364257812e+01 8.619052171707153320e-02 1.930432677268981934e+00 6.049869656562805176e-01 1.000218391418457031e+00
6.080000000000000000e+03 4.719305801391601562e+01 1.891995239257812500e+01 -3.358840942382812500e-01 7.657747268676757812e-01 1.289671808481216431e-01 1.117041260004043579e-01
6.081000000000000000e+03 3.323155212402343750e+01 2.003504276275634766e+00 -4.211951494216918945e-01 -2.565140426158905029e-01 -2.033127546310424805e-01 -9.431602060794830322e-02
6.082000000000000000e+03 1.805088615417480469e+01 1.830136299133300781e+01 2.900673262774944305e-02 1.273498088121414185e-01 4.690696299076080322e-02 6.208991631865501404e-02
6.083000000000000000e+03 1.953752708435058594e+01 1.970484542846679688e+01 2.980029396712779999e-02 1.209538951516151428e-01 4.522625729441642761e-02 6.363926082849502563e-02
6.084000000000000000e+03 3.774644088745117188e+01 7.365745544433593750e+00 -4.859869480133056641e-01 -2.646626532077789307e-02 -1.537359654903411865e-01 -2.603039443492889404e-01
6.085000000000000000e+03 1.649832153320312500e+01 1.832764053344726562e+01 1.858921349048614502e-02 1.188892126083374023e-01 4.124352708458900452e-02 4.816410318017005920e-02
6.086000000000000000e+03 1.763301658630371094e+01 1.699573898315429688e+01 3.395930677652359009e-02 1.358935683965682983e-01 5.095586180686950684e-02 6.758444011211395264e-02
6.087000000000000000e+03 5.691624832153320312e+01 2.709146308898925781e+01 4.065470993518829346e-01 3.840992927551269531e+00 1.274262070655822754e+00 1.994586229324340820e+00
6.088000000000000000e+03 5.782067489624023438e+01 2.816436767578125000e+01 6.843902468681335449e-01 4.404176712036132812e+00 1.526570081710815430e+00 2.397247552871704102e+00
6.089000000000000000e+03 1.653336143493652344e+01 1.599989986419677734e+01 3.240904957056045532e-02 1.427148580551147461e-01 5.253717303276062012e-02 6.416619569063186646e-02
6.090000000000000000e+03 6.423344421386718750e+01 2.566331100463867188e+01 -1.117909908294677734e+00 9.745887756347656250e+00 2.588393211364746094e+00 2.051385939121246338e-01
6.091000000000000000e+03 3.509077835083007812e+01 3.296449661254882812e+00 -4.110949635505676270e-01 -1.090363338589668274e-01 -1.560393869876861572e-01 -1.366254985332489014e-01
6.092000000000000000e+03 3.555259704589843750e+01 4.267230510711669922e+00 -4.580662548542022705e-01 -1.137489527463912964e-01 -1.715445667505264282e-01 -1.962297111749649048e-01
6.093000000000000000e+03 3.595515823364257812e+01 5.170629620552062988e-01 -8.430880308151245117e-02 4.148083180189132690e-02 -1.284839212894439697e-02 3.482013195753097534e-02
6.094000000000000000e+03 1.995191001892089844e+01 2.013344764709472656e+01 3.011235967278480530e-02 1.175599396228790283e-01 4.430168867111206055e-02 6.288727372884750366e-02
6.095000000000000000e+03 2.009872817993164062e+01 2.067113494873046875e+01 2.584550902247428894e-02 1.151770055294036865e-01 4.230675473809242249e-02 6.049790978431701660e-02
6.096000000000000000e+03 5.053269577026367188e+01 2.231393814086914062e+01 -1.750487238168716431e-01 1.290132522583007812e+00 3.345251381397247314e-01 5.105714201927185059e-01
6.097000000000000000e+03 1.841021156311035156e+01 1.924524307250976562e+01 2.521288767457008362e-02 1.207776889204978943e-01 4.379717260599136353e-02 5.825801566243171692e-02
6.098000000000000000e+03 1.689108085632324219e+01 1.893137741088867188e+01 1.705960556864738464e-02 1.163619756698608398e-01 4.002647474408149719e-02 4.791027680039405823e-02
6.099000000000000000e+03 4.373889923095703125e+01 -3.735901832580566406e+00 1.359994858503341675e-01 1.413356423377990723e+00 4.648067653179168701e-01 1.502317339181900024e-01
6.100000000000000000e+03 4.391576766967773438e+01 -1.876433968544006348e+00 8.895310014486312866e-02 1.412847518920898438e+00 4.505401849746704102e-01 1.810677945613861084e-01
6.101000000000000000e+03 3.544695281982421875e+01 4.747306555509567261e-02 -4.495944082736968994e-02 -1.230637915432453156e-02 -1.717974618077278137e-02 4.080428555607795715e-02
6.102000000000000000e+03 3.633647918701171875e+01 -1.711670905351638794e-01 -1.153528038412332535e-02 9.487055987119674683e-02 2.500058338046073914e-02 5.397590622305870056e-02
6.103000000000000000e+03 1.512130165100097656e+01 1.867188072204589844e+01 9.163907729089260101e-03 1.057448089122772217e-01 3.447261452674865723e-02 3.308819234371185303e-02
6.104000000000000000e+03 1.435903358459472656e+01 1.791939926147460938e+01 7.829616777598857880e-03 1.046461090445518494e-01 3.374271839857101440e-02 2.840330265462398529e-02
6.105000000000000000e+03 1.702247619628906250e+01 1.810041999816894531e+01 2.229412458837032318e-02 1.243942007422447205e-01 4.400649666786193848e-02 5.405212193727493286e-02
6.106000000000000000e+03 1.504116249084472656e+01 1.479090404510498047e+01 2.861698158085346222e-02 1.506662517786026001e-01 5.378497019410133362e-02 5.423407256603240967e-02
6.107000000000000000e+03 1.530409526824951172e+01 1.430526924133300781e+01 3.335018828511238098e-02 1.580638140439987183e-01 5.742419883608818054e-02 6.260419636964797974e-02
6.108000000000000000e+03 3.386759567260742188e+01 1.592442750930786133e+00 -3.116084933280944824e-01 -1.907719075679779053e-01 -1.507141292095184326e-01 -5.728038027882575989e-02
6.109000000000000000e+03 3.436348342895507812e+01 1.404866337776184082e+00 -2.502960264682769775e-01 -1.326650679111480713e-01 -1.148883327841758728e-01 -2.001373842358589172e-02
6.110000000000000000e+03 3.741518020629882812e+01 -7.983627319335937500e-01 5.592228844761848450e-02 2.527975738048553467e-01 9.261595457792282104e-02 7.596084475517272949e-02
6.111000000000000000e+03 1.523664665222167969e+01 1.568129539489746094e+01 2.472750097513198853e-02 1.406061351299285889e-01 4.960009083151817322e-02 5.079869553446769714e-02
6.112000000000000000e+03 6.199613189697265625e+01 2.678949928283691406e+01 -8.852704167366027832e-01 9.309405326843261719e+00 2.527240514755249023e+00 1.529388904571533203e+00
6.113000000000000000e+03 6.471585845947265625e+01 2.525415992736816406e+01 -1.134995222091674805e+00 9.704349517822265625e+00 2.570806026458740234e+00 3.106446936726570129e-03
6.114000000000000000e+03 3.482445526123046875e+01 3.662264049053192139e-01 -9.799379110336303711e-02 -8.206130564212799072e-02 -5.401653051376342773e-02 2.850626409053802490e-02
6.115000000000000000e+03 2.214841651916503906e+01 2.234367561340332031e+01 3.027553856372833252e-02 1.085497513413429260e-01 4.164758697152137756e-02 6.226908415555953979e-02
6.116000000000000000e+03 2.206760597229003906e+01 2.329590034484863281e+01 2.203367650508880615e-02 1.037376075983047485e-01 3.773138672113418579e-02 5.702442675828933716e-02
6.117000000000000000e+03 1.479047679901123047e+01 1.631782531738281250e+01 1.741950958967208862e-02 1.276129931211471558e-01 4.350974783301353455e-02 4.175104200839996338e-02
6.118000000000000000e+03 1.584253406524658203e+01 1.650440788269042969e+01 2.256506867706775665e-02 1.343343555927276611e-01 4.706982523202896118e-02 5.206109955906867981e-02
6.119000000000000000e+03 6.318287658691406250e+01 2.587203216552734375e+01 -1.103701949119567871e+00 9.562770843505859375e+00 2.537720680236816406e+00 7.176124453544616699e-01
6.120000000000000000e+03 2.202620887756347656e+01 2.704776191711425781e+01 1.086382195353507996e-02 8.729800581932067871e-02 2.944854833185672760e-02 4.200722277164459229e-02
6.121000000000000000e+03 6.391410827636718750e+01 1.733390045166015625e+01 -9.676846861839294434e-01 7.209751605987548828e+00 1.872620105743408203e+00 2.408037185668945312e-01
6.122000000000000000e+03 6.354604721069335938e+01 1.562038612365722656e+01 -8.699058294296264648e-01 6.886770725250244141e+00 1.805059432983398438e+00 2.755424380302429199e-01
6.123000000000000000e+03 6.216876983642578125e+01 5.077491283416748047e+00 -3.503281474113464355e-01 5.754838466644287109e+00 1.621353030204772949e+00 3.391142189502716064e-01
6.124000000000000000e+03 4.711980438232421875e+01 -7.397363662719726562e+00 8.742083609104156494e-02 2.204283475875854492e+00 6.875113248825073242e-01 1.464539021253585815e-01
6.125000000000000000e+03 4.475958633422851562e+01 -3.772018432617187500e+00 1.095557063817977905e-01 1.622463345527648926e+00 5.196056962013244629e-01 1.654960215091705322e-01
6.126000000000000000e+03 1.702433967590332031e+01 1.992523002624511719e+01 1.364773325622081757e-02 1.101917475461959839e-01 3.715184330940246582e-02 4.350574314594268799e-02
6.127000000000000000e+03 6.367478561401367188e+01 2.391103744506835938e+01 -1.184030294418334961e+00 8.827160835266113281e+00 2.292939186096191406e+00 4.606952667236328125e-01
6.128000000000000000e+03 6.600969696044921875e+01 1.963081741333007812e+01 -1.061032772064208984e+00 8.078876495361328125e+00 2.105353116989135742e+00 -1.721558719873428345e-01
6.129000000000000000e+03 6.394988250732421875e+01 1.822136497497558594e+01 -1.017240643501281738e+00 7.389669418334960938e+00 1.911728620529174805e+00 2.380407601594924927e-01
6.130000000000000000e+03 6.324633407592773438e+01 1.047225856781005859e+01 -5.783294439315795898e-01 6.280090808868408203e+00 1.710528373718261719e+00 2.868325412273406982e-01
6.131000000000000000e+03 6.248643875122070312e+01 8.818709373474121094e+00 -5.073475837707519531e-01 5.984178543090820312e+00 1.643049359321594238e+00 3.307400047779083252e-01
6.132000000000000000e+03 1.702663421630859375e+01 2.096669578552246094e+01 9.601025842130184174e-03 1.027301326394081116e-01 3.369934856891632080e-02 3.807207569479942322e-02
6.133000000000000000e+03 1.729414176940917969e+01 2.317243003845214844e+01 4.524272866547107697e-03 8.963749557733535767e-02 2.824853174388408661e-02 3.278652578592300415e-02
6.134000000000000000e+03 3.866553497314453125e+01 -1.509153962135314941e+00 1.041103750467300415e-01 4.489119350910186768e-01 1.659066975116729736e-01 9.541895985603332520e-02
6.135000000000000000e+03 6.362598800659179688e+01 4.672845840454101562e+00 -3.331209719181060791e-01 6.094896793365478516e+00 1.728532671928405762e+00 2.816412746906280518e-01
6.136000000000000000e+03 4.284823226928710938e+01 -2.750595331192016602e+00 1.280214339494705200e-01 1.213212132453918457e+00 4.023700654506683350e-01 1.493621915578842163e-01
6.137000000000000000e+03 4.364509963989257812e+01 -4.670758724212646484e+00 1.459628343582153320e-01 1.406943440437316895e+00 4.658718705177307129e-01 1.268747597932815552e-01
6.138000000000000000e+03 6.453991699218750000e+01 7.235936164855957031e+00 -4.247839748859405518e-01 6.398691177368164062e+00 1.792172074317932129e+00 2.267149686813354492e-01
6.139000000000000000e+03 6.359157943725585938e+01 6.819264411926269531e+00 -4.157403409481048584e-01 6.167755126953125000e+00 1.725604414939880371e+00 2.739559710025787354e-01
6.140000000000000000e+03 5.127540206909179688e+01 -1.104479789733886719e+01 -1.932815648615360260e-03 3.220856904983520508e+00 9.656772613525390625e-01 1.665959954261779785e-01
6.141000000000000000e+03 4.896472930908203125e+01 -1.156596279144287109e+01 2.942919917404651642e-02 2.697370290756225586e+00 8.180398941040039062e-01 1.077687367796897888e-01
6.142000000000000000e+03 4.298958969116210938e+01 -1.828187346458435059e+00 8.984912931919097900e-02 1.221721887588500977e+00 3.934713006019592285e-01 1.615882366895675659e-01
6.143000000000000000e+03 6.074253845214843750e+01 -2.708052158355712891e+00 -1.365621089935302734e-01 5.252363204956054688e+00 1.534740328788757324e+00 3.404909372329711914e-01
6.144000000000000000e+03 6.116656875610351562e+01 -1.649942159652709961e+00 -1.517589539289474487e-01 5.377793788909912109e+00 1.567810416221618652e+00 3.371125757694244385e-01
6.145000000000000000e+03 6.180169296264648438e+01 -3.180939674377441406e+00 -1.266670376062393188e-01 5.505790233612060547e+00 1.613736867904663086e+00 3.316053152084350586e-01
6.146000000000000000e+03 6.473877716064453125e+01 1.628718566894531250e+01 -9.112918376922607422e-01 7.265078067779541016e+00 1.906135797500610352e+00 1.143162548542022705e-01
6.147000000000000000e+03 6.467152404785156250e+01 1.175831985473632812e+01 -6.504076123237609863e-01 6.745908737182617188e+00 1.828650355339050293e+00 1.757539212703704834e-01
6.148000000000000000e+03 6.327129745483398438e+01 1.355115795135498047e+01 -7.492781877517700195e-01 6.555410385131835938e+00 1.741839647293090820e+00 2.965091764926910400e-01
6.149000000000000000e+03 6.379594039916992188e+01 1.646078872680664062e+01 -9.264450669288635254e-01 7.055052280426025391e+00 1.838582158088684082e+00 2.573597729206085205e-01
6.150000000000000000e+03 6.026830673217773438e+01 -9.257890701293945312e+00 -6.431185454130172729e-02 5.147318363189697266e+00 1.524901986122131348e+00 3.146555125713348389e-01
6.151000000000000000e+03 6.224379348754882812e+01 -1.051813602447509766e+01 -5.725136026740074158e-02 5.553071975708007812e+00 1.648746252059936523e+00 3.229934871196746826e-01
6.152000000000000000e+03 1.803913116455078125e+01 1.989974403381347656e+01 1.900249719619750977e-02 1.139224693179130554e-01 3.987748920917510986e-02 5.113048106431961060e-02
6.153000000000000000e+03 1.652198410034179688e+01 2.042101478576660156e+01 9.041964076459407806e-03 1.037855297327041626e-01 3.384824842214584351e-02 3.831568360328674316e-02
6.154000000000000000e+03 6.074431610107421875e+01 -1.531838774681091309e-01 -1.860318332910537720e-01 5.287207126617431641e+00 1.530352592468261719e+00 3.480362892150878906e-01
6.155000000000000000e+03 6.279663848876953125e+01 1.110381889343261719e+01 -6.075137257575988770e-01 6.222814559936523438e+00 1.684590220451354980e+00 3.115546405315399170e-01
6.156000000000000000e+03 6.493275451660156250e+01 9.953845024108886719e+00 -5.428304076194763184e-01 6.648126125335693359e+00 1.831588625907897949e+00 1.776224374771118164e-01
6.157000000000000000e+03 6.170420455932617188e+01 -1.380147266387939453e+01 -5.825410410761833191e-02 5.447818279266357422e+00 1.616869211196899414e+00 3.176126182079315186e-01
6.158000000000000000e+03 6.477542877197265625e+01 1.915071868896484375e+01 -1.074259400367736816e+00 7.779797554016113281e+00 2.011661291122436523e+00 8.128099888563156128e-02
6.159000000000000000e+03 6.455671691894531250e+01 2.097900390625000000e+01 -1.155023813247680664e+00 8.156694412231445312e+00 2.100501298904418945e+00 1.264060884714126587e-01
6.160000000000000000e+03 6.142570877075195312e+01 2.166326999664306641e+00 -2.448160201311111450e-01 5.490560054779052734e+00 1.573723196983337402e+00 3.444075584411621094e-01
6.161000000000000000e+03 6.358172225952148438e+01 2.219236755371093750e+01 -1.173687219619750977e+00 8.228781700134277344e+00 2.116528272628784180e+00 4.259740710258483887e-01
6.162000000000000000e+03 6.396689987182617188e+01 1.909695243835449219e+01 -1.074167966842651367e+00 7.574356079101562500e+00 1.950056433677673340e+00 2.575547397136688232e-01
6.163000000000000000e+03 6.205426025390625000e+01 -7.089636325836181641e+00 -8.655174076557159424e-02 5.542531490325927734e+00 1.636793851852416992e+00 3.278962969779968262e-01
6.164000000000000000e+03 6.296717071533203125e+01 -6.134308815002441406e+00 -8.990626037120819092e-02 5.742895603179931641e+00 1.695896744728088379e+00 3.187051713466644287e-01
6.165000000000000000e+03 4.771355056762695312e+01 -8.827974319458007812e+00 6.953090429306030273e-02 2.365867376327514648e+00 7.306194901466369629e-01 1.297786533832550049e-01
6.166000000000000000e+03 4.825352096557617188e+01 -1.029261684417724609e+01 4.822150990366935730e-02 2.526716947555541992e+00 7.724815607070922852e-01 1.187949553132057190e-01
6.167000000000000000e+03 6.377376556396484375e+01 9.338307380676269531e+00 -5.243027806282043457e-01 6.347758293151855469e+00 1.747036695480346680e+00 2.513034939765930176e-01
6.168000000000000000e+03 5.500973129272460938e+01 -1.457507038116455078e+01 -5.361981317400932312e-02 4.100626945495605469e+00 1.214102149009704590e+00 2.339099794626235962e-01
6.169000000000000000e+03 5.048008346557617188e+01 -1.195563411712646484e+01 2.407045336440205574e-03 3.073564291000366211e+00 9.227914214134216309e-01 1.452604830265045166e-01
6.170000000000000000e+03 5.136224365234375000e+01 -1.418916034698486328e+01 -4.079713672399520874e-02 3.308342933654785156e+00 9.802637100219726562e-01 1.396706700325012207e-01
6.171000000000000000e+03 1.738541412353515625e+01 2.662247467041015625e+01 -1.308397855609655380e-03 7.065456360578536987e-02 2.080385014414787292e-02 2.311972156167030334e-02
6.172000000000000000e+03 1.751545524597167969e+01 2.550730514526367188e+01 -9.743512491695582867e-04 7.616996020078659058e-02 2.255868166685104370e-02 2.447847649455070496e-02
6.173000000000000000e+03 6.367365264892578125e+01 -1.986452674865722656e+01 -2.124142274260520935e-02 5.877164840698242188e+00 1.756777048110961914e+00 3.473412990570068359e-01
6.174000000000000000e+03 6.139685440063476562e+01 6.943498849868774414e-01 -2.070940583944320679e-01 5.459673881530761719e+00 1.575773954391479492e+00 3.427547216415405273e-01
6.175000000000000000e+03 5.840427017211914062e+01 -1.870178222656250000e+01 -5.034486204385757446e-02 4.872885704040527344e+00 1.446762323379516602e+00 2.911500632762908936e-01
6.176000000000000000e+03 2.354803466796875000e+01 2.933258247375488281e+01 1.291935797780752182e-02 8.450721949338912964e-02 2.922797203063964844e-02 4.036353901028633118e-02
6.177000000000000000e+03 5.796408462524414062e+01 2.757172393798828125e+01 4.371715784072875977e-01 4.686890602111816406e+00 1.537218689918518066e+00 2.340258121490478516e+00
6.178000000000000000e+03 6.035735702514648438e+01 2.754986000061035156e+01 -2.855364084243774414e-01 7.916840076446533203e+00 2.289391040802001953e+00 2.455581903457641602e+00
6.179000000000000000e+03 5.089783859252929688e+01 2.260011291503906250e+01 -1.496427506208419800e-01 1.375041127204895020e+00 3.676194846630096436e-01 5.684601068496704102e-01
6.180000000000000000e+03 4.958700942993164062e+01 2.064092826843261719e+01 -2.417515814304351807e-01 1.241919040679931641e+00 3.000502288341522217e-01 4.026977717876434326e-01
6.181000000000000000e+03 4.841788864135742188e+01 2.015933227539062500e+01 -2.799649834632873535e-01 9.385684728622436523e-01 1.975810527801513672e-01 2.443077117204666138e-01
6.182000000000000000e+03 5.177874755859375000e+01 2.288881683349609375e+01 -1.051981970667839050e-01 1.675659775733947754e+00 4.711384773254394531e-01 7.302724123001098633e-01
6.183000000000000000e+03 5.355353546142578125e+01 2.467115020751953125e+01 5.567996576428413391e-02 2.117425203323364258e+00 6.519315242767333984e-01 1.058711051940917969e+00
6.184000000000000000e+03 5.478298568725585938e+01 2.599370574951171875e+01 2.333803027868270874e-01 2.507170915603637695e+00 8.221653699874877930e-01 1.339641094207763672e+00
6.185000000000000000e+03 4.877302551269531250e+01 1.947020530700683594e+01 -2.720021009445190430e-01 1.140673637390136719e+00 2.606014609336853027e-01 3.188959658145904541e-01
6.186000000000000000e+03 5.755252075195312500e+01 2.773877906799316406e+01 5.464758872985839844e-01 4.248775005340576172e+00 1.438575267791748047e+00 2.252174139022827148e+00
6.187000000000000000e+03 4.967486953735351562e+01 2.128200531005859375e+01 -2.292863726615905762e-01 1.146631360054016113e+00 2.752034962177276611e-01 3.985045254230499268e-01
6.188000000000000000e+03 5.680056381225585938e+01 2.754279899597167969e+01 5.381547808647155762e-01 3.574730634689331055e+00 1.233865618705749512e+00 1.972708106040954590e+00
6.189000000000000000e+03 4.381491088867187500e+01 1.430011844635009766e+01 -4.161930978298187256e-01 5.025730729103088379e-01 2.591398544609546661e-02 -1.015189662575721741e-01
6.190000000000000000e+03 4.382082748413085938e+01 1.481030750274658203e+01 -4.247700273990631104e-01 4.494359493255615234e-01 7.399777881801128387e-03 -1.247971728444099426e-01
6.191000000000000000e+03 1.525486469268798828e+01 1.362218666076660156e+01 3.705215826630592346e-02 1.695528477430343628e-01 6.198149919509887695e-02 6.706743687391281128e-02
6.192000000000000000e+03 4.272799682617187500e+01 1.299276256561279297e+01 -4.407508671283721924e-01 4.090069830417633057e-01 -9.523164480924606323e-03 -1.430090814828872681e-01
6.193000000000000000e+03 5.249989700317382812e+01 2.366355323791503906e+01 -5.010486021637916565e-02 1.836183667182922363e+00 5.358236432075500488e-01 8.504413366317749023e-01
6.194000000000000000e+03 4.585071182250976562e+01 1.705881309509277344e+01 -3.614270091056823730e-01 6.605587005615234375e-01 8.973950147628784180e-02 1.348231732845306396e-02
6.195000000000000000e+03 4.659476470947265625e+01 1.721035766601562500e+01 -3.354837596416473389e-01 8.302116990089416504e-01 1.484183818101882935e-01 1.040179505944252014e-01
6.196000000000000000e+03 5.316414642333984375e+01 2.448039817810058594e+01 2.910280972719192505e-02 1.976718544960021973e+00 6.017463803291320801e-01 9.736186265945434570e-01
6.197000000000000000e+03 4.480724716186523438e+01 1.523517227172851562e+01 -3.864095509052276611e-01 6.285027861595153809e-01 7.262797653675079346e-02 -3.400146216154098511e-02
6.198000000000000000e+03 5.220365524291992188e+01 2.302456855773925781e+01 -8.873476833105087280e-02 1.833226919174194336e+00 5.233476758003234863e-01 8.091843128204345703e-01
6.199000000000000000e+03 4.562908172607421875e+01 1.620592880249023438e+01 -3.676629364490509033e-01 7.013298273086547852e-01 1.001000627875328064e-01 1.461602095514535904e-02
6.200000000000000000e+03 4.632287597656250000e+01 1.684811973571777344e+01 -3.439931273460388184e-01 8.145432472229003906e-01 1.411650329828262329e-01 8.302111178636550903e-02
6.201000000000000000e+03 5.290484237670898438e+01 2.382632637023925781e+01 -2.943833731114864349e-02 1.995301008224487305e+00 5.897588133811950684e-01 9.335666298866271973e-01
6.202000000000000000e+03 4.430879211425781250e+01 1.525670909881591797e+01 -4.089800119400024414e-01 5.117937922477722168e-01 3.084413334727287292e-02 -9.118846803903579712e-02
6.203000000000000000e+03 4.434141159057617188e+01 1.473891544342041016e+01 -3.971100449562072754e-01 5.774301290512084961e-01 5.409601330757141113e-02 -6.631091982126235962e-02
6.204000000000000000e+03 4.763420867919921875e+01 1.961486244201660156e+01 -3.222860395908355713e-01 7.824708223342895508e-01 1.380554437637329102e-01 1.494041830301284790e-01
6.205000000000000000e+03 4.735203552246093750e+01 1.941924667358398438e+01 -3.379430174827575684e-01 7.327365875244140625e-01 1.184380725026130676e-01 1.009026318788528442e-01
6.206000000000000000e+03 5.719525146484375000e+01 2.763144683837890625e+01 5.348769426345825195e-01 3.941206693649291992e+00 1.342825055122375488e+00 2.123061418533325195e+00
6.207000000000000000e+03 6.019367218017578125e+01 2.894858360290527344e+01 3.039832115173339844e-01 7.860667228698730469e+00 2.449395179748535156e+00 3.134104013442993164e+00
6.208000000000000000e+03 3.958986663818359375e+01 9.238244056701660156e+00 -4.665152728557586670e-01 1.366801112890243530e-01 -9.895054996013641357e-02 -2.259710729122161865e-01
6.209000000000000000e+03 5.107944488525390625e+01 2.211217498779296875e+01 -1.556957215070724487e-01 1.541171908378601074e+00 4.156428575515747070e-01 6.234244108200073242e-01
6.210000000000000000e+03 5.132882308959960938e+01 2.277884292602539062e+01 -1.230604052543640137e-01 1.502028703689575195e+00 4.136904776096343994e-01 6.405050754547119141e-01
6.211000000000000000e+03 4.000812911987304688e+01 8.882963180541992188e+00 -4.336486756801605225e-01 2.389030903577804565e-01 -5.842367559671401978e-02 -1.762413829565048218e-01
6.212000000000000000e+03 4.704377365112304688e+01 1.928565025329589844e+01 -3.368987441062927246e-01 6.826130151748657227e-01 1.037142723798751831e-01 8.654819428920745850e-02
6.213000000000000000e+03 4.704503631591796875e+01 1.807810592651367188e+01 -3.277131915092468262e-01 8.374369740486145020e-01 1.529171317815780640e-01 1.290598213672637939e-01
6.214000000000000000e+03 5.459495544433593750e+01 2.651235961914062500e+01 2.860397100448608398e-01 2.263990879058837891e+00 7.650091648101806641e-01 1.272468805313110352e+00
6.215000000000000000e+03 3.466296386718750000e+01 9.017527699470520020e-01 -1.765817850828170776e-01 -8.406154066324234009e-02 -7.819299399852752686e-02 1.987964613363146782e-03
6.216000000000000000e+03 3.526987457275390625e+01 1.037803769111633301e+00 -1.573414653539657593e-01 -4.030416533350944519e-02 -5.929369106888771057e-02 3.574779024347662926e-03
6.217000000000000000e+03 4.017895889282226562e+01 9.959407806396484375e+00 -4.689920544624328613e-01 1.783199757337570190e-01 -8.720162510871887207e-02 -2.161760479211807251e-01
6.218000000000000000e+03 3.984238433837890625e+01 1.052269554138183594e+01 -5.053235888481140137e-01 7.106290012598037720e-02 -1.302781999111175537e-01 -2.735762894153594971e-01
6.219000000000000000e+03 4.055179214477539062e+01 1.153255271911621094e+01 -5.027283430099487305e-01 1.186259314417839050e-01 -1.152307242155075073e-01 -2.658929526805877686e-01
6.220000000000000000e+03 3.996842575073242188e+01 1.100979614257812500e+01 -5.182228684425354004e-01 4.973706230521202087e-02 -1.405457407236099243e-01 -2.909199595451354980e-01
6.221000000000000000e+03 3.433980560302734375e+01 2.316835880279541016e+00 -3.514358103275299072e-01 -1.615729480981826782e-01 -1.539026200771331787e-01 -8.554666489362716675e-02
6.222000000000000000e+03 3.818758392333984375e+01 7.646335601806640625e+00 -4.736373424530029297e-01 2.786068059504032135e-02 -1.337330043315887451e-01 -2.433554828166961670e-01
6.223000000000000000e+03 6.151040649414062500e+01 2.668241310119628906e+01 -7.798299789428710938e-01 8.813250541687011719e+00 2.410026311874389648e+00 1.749749064445495605e+00
6.224000000000000000e+03 3.613826751708984375e+01 5.115156650543212891e+00 -4.683638811111450195e-01 -8.803255856037139893e-02 -1.669189333915710449e-01 -2.229423820972442627e-01
6.225000000000000000e+03 6.026411437988281250e+01 2.710437011718750000e+01 -3.603201806545257568e-01 7.646187782287597656e+00 2.185760259628295898e+00 2.290911197662353516e+00
6.226000000000000000e+03 3.754036331176757812e+01 5.739719390869140625e+00 -4.150399267673492432e-01 4.952071979641914368e-02 -1.096557676792144775e-01 -1.812454611063003540e-01
6.227000000000000000e+03 5.376915359497070312e+01 2.534263229370117188e+01 1.223871633410453796e-01 2.079984664916992188e+00 6.607115268707275391e-01 1.091917753219604492e+00
6.228000000000000000e+03 3.711931991577148438e+01 6.449487686157226562e+00 -4.696249663829803467e-01 -4.084122925996780396e-02 -1.531398594379425049e-01 -2.461965829133987427e-01
6.229000000000000000e+03 3.672299575805664062e+01 6.302944183349609375e+00 -5.014012455940246582e-01 -9.986620396375656128e-02 -1.803802400827407837e-01 -2.690278589725494385e-01
6.230000000000000000e+03 4.800814437866210938e+01 1.986020088195800781e+01 -2.966219484806060791e-01 8.609386682510375977e-01 1.692950129508972168e-01 1.988566964864730835e-01
6.231000000000000000e+03 5.701712417602539062e+01 2.668171310424804688e+01 3.022803962230682373e-01 4.059401988983154297e+00 1.308504700660705566e+00 1.996521711349487305e+00
6.232000000000000000e+03 6.265997314453125000e+01 2.577961349487304688e+01 -1.049790740013122559e+00 9.218859672546386719e+00 2.450720787048339844e+00 1.010906696319580078e+00
6.233000000000000000e+03 1.730083084106445312e+01 1.853955459594726562e+01 2.233064360916614532e-02 1.222485974431037903e-01 4.337377101182937622e-02 5.366308614611625671e-02
6.234000000000000000e+03 1.780479621887207031e+01 1.888333320617675781e+01 2.219774201512336731e-02 1.205928027629852295e-01 4.283716157078742981e-02 5.519641563296318054e-02
6.235000000000000000e+03 1.861378097534179688e+01 2.047346496582031250e+01 1.924427412450313568e-02 1.127656921744346619e-01 3.960299119353294373e-02 5.255069583654403687e-02
6.236000000000000000e+03 1.607470893859863281e+01 1.703168487548828125e+01 2.279448136687278748e-02 1.282679736614227295e-01 4.531873762607574463e-02 5.125053599476814270e-02
6.237000000000000000e+03 1.641977882385253906e+01 1.661359024047851562e+01 2.647810988128185272e-02 1.355780959129333496e-01 4.861686006188392639e-02 5.848819017410278320e-02
6.238000000000000000e+03 4.105032348632812500e+01 1.170265865325927734e+01 -4.843147695064544678e-01 1.906371414661407471e-01 -8.810328692197799683e-02 -2.337035387754440308e-01
6.239000000000000000e+03 1.911621284484863281e+01 2.004051780700683594e+01 2.513985522091388702e-02 1.160583198070526123e-01 4.235945269465446472e-02 5.761678144335746765e-02
6.240000000000000000e+03 4.193527603149414062e+01 1.326529884338378906e+01 -4.845166206359863281e-01 2.278987765312194824e-01 -7.698535174131393433e-02 -2.312301695346832275e-01
6.241000000000000000e+03 6.207678985595703125e+01 2.624271583557128906e+01 -9.460040330886840820e-01 9.085929870605468750e+00 2.441977739334106445e+00 1.377411484718322754e+00
6.242000000000000000e+03 6.105502319335937500e+01 2.661264610290527344e+01 -6.800191402435302734e-01 8.361190795898437500e+00 2.304351568222045898e+00 1.919073581695556641e+00
6.243000000000000000e+03 4.683294296264648438e+01 1.764661979675292969e+01 -3.323041796684265137e-01 8.396845459938049316e-01 1.522141098976135254e-01 1.165212616324424744e-01
6.244000000000000000e+03 3.683578872680664062e+01 8.372617959976196289e-01 -8.264414966106414795e-02 1.481947749853134155e-01 1.966518908739089966e-02 3.519549220800399780e-02
6.245000000000000000e+03 2.070992088317871094e+01 2.139617156982421875e+01 2.581323683261871338e-02 1.109233871102333069e-01 4.102098569273948669e-02 5.972016975283622742e-02
6.246000000000000000e+03 2.144450378417968750e+01 2.147778892517089844e+01 3.100430034101009369e-02 1.125876083970069885e-01 4.307757318019866943e-02 6.389663368463516235e-02
6.247000000000000000e+03 6.360992813110351562e+01 2.533996009826660156e+01 -1.126965403556823730e+00 9.395013809204101562e+00 2.480414628982543945e+00 5.225847959518432617e-01
6.248000000000000000e+03 3.536469268798828125e+01 5.003845095634460449e-01 -1.018641591072082520e-01 -5.278201308101415634e-03 -3.214270994067192078e-02 2.549581415951251984e-02
6.249000000000000000e+03 1.584208106994628906e+01 1.854031562805175781e+01 1.379764825105667114e-02 1.138029694557189941e-01 3.828018531203269958e-02 4.126687720417976379e-02
6.250000000000000000e+03 3.641780471801757812e+01 4.436300754547119141e+00 -4.027679860591888428e-01 -1.434877887368202209e-02 -1.251350194215774536e-01 -1.598801314830780029e-01
6.251000000000000000e+03 2.075018119812011719e+01 2.072693252563476562e+01 3.088342957198619843e-02 1.154851987957954407e-01 4.391058906912803650e-02 6.429789960384368896e-02
6.252000000000000000e+03 1.995236778259277344e+01 2.133795928955078125e+01 2.320138551294803619e-02 1.106790378689765930e-01 4.016412422060966492e-02 5.560972541570663452e-02
6.253000000000000000e+03 6.075761413574218750e+01 2.741604042053222656e+01 -4.403578042984008789e-01 8.330080986022949219e+00 2.366916894912719727e+00 2.251427412033081055e+00
6.254000000000000000e+03 6.265205764770507812e+01 4.203649997711181641e+00 -3.208027780055999756e-01 5.837525367736816406e+00 1.655016779899597168e+00 3.220592141151428223e-01
6.255000000000000000e+03 6.276602172851562500e+01 6.246351242065429688e+00 -3.870130181312561035e-01 5.949513435363769531e+00 1.668750047683715820e+00 3.107100129127502441e-01
6.256000000000000000e+03 4.812826538085937500e+01 -7.692010402679443359e+00 7.873537391424179077e-02 2.428848743438720703e+00 7.522752285003662109e-01 1.620468646287918091e-01
6.257000000000000000e+03 6.316525650024414062e+01 1.823440170288085938e+01 -1.001999855041503906e+00 7.162869930267333984e+00 1.848260998725891113e+00 3.856585621833801270e-01
6.258000000000000000e+03 6.273954010009765625e+01 1.587271118164062500e+01 -8.705055713653564453e-01 6.681687831878662109e+00 1.743354678153991699e+00 3.865423798561096191e-01
6.259000000000000000e+03 1.503492546081542969e+01 1.724541282653808594e+01 1.468126289546489716e-02 1.196164935827255249e-01 4.028932750225067139e-02 3.942767158150672913e-02
6.260000000000000000e+03 1.530385112762451172e+01 1.673504829406738281e+01 2.073544636368751526e-02 1.274919360876083374e-01 4.446821287274360657e-02 4.565265402197837830e-02
6.261000000000000000e+03 3.861645126342773438e+01 7.921923637390136719e+00 -4.638943076133728027e-01 7.200516015291213989e-02 -1.175667420029640198e-01 -2.291260361671447754e-01
6.262000000000000000e+03 3.962892913818359375e+01 8.890996932983398438e+00 -4.564788043498992920e-01 1.614388972520828247e-01 -8.851196616888046265e-02 -2.084755003452301025e-01
6.263000000000000000e+03 4.063261032104492188e+01 -5.384322404861450195e-01 4.929838702082633972e-02 7.606881260871887207e-01 2.429959475994110107e-01 1.267786026000976562e-01
6.264000000000000000e+03 3.924386215209960938e+01 -2.894746363162994385e-01 3.502676635980606079e-02 5.203105211257934570e-01 1.666011810302734375e-01 9.905570000410079956e-02
6.265000000000000000e+03 6.338473510742187500e+01 2.322746849060058594e+01 -1.173289299011230469e+00 8.494743347167968750e+00 2.196436405181884766e+00 5.311807990074157715e-01
6.266000000000000000e+03 6.402497100830078125e+01 2.287038803100585938e+01 -1.193534016609191895e+00 8.555618286132812500e+00 2.208625078201293945e+00 3.041694760322570801e-01
6.267000000000000000e+03 6.271681976318359375e+01 1.203658580780029297e+01 -6.638209819793701172e-01 6.275005817413330078e+00 1.683355569839477539e+00 3.308719694614410400e-01
6.268000000000000000e+03 6.357617187500000000e+01 2.119022178649902344e+01 -1.143317580223083496e+00 7.911888599395751953e+00 2.030571460723876953e+00 3.993462324142456055e-01
6.269000000000000000e+03 1.744726753234863281e+01 1.941931152343750000e+01 1.866607554256916046e-02 1.154343783855438232e-01 4.023013636469841003e-02 4.978045821189880371e-02
6.270000000000000000e+03 2.092733955383300781e+01 2.761463546752929688e+01 7.680993527173995972e-03 8.276949822902679443e-02 2.713514678180217743e-02 3.476066142320632935e-02
6.271000000000000000e+03 5.863217926025390625e+01 -4.093188285827636719e+00 -9.966110438108444214e-02 4.777884006500244141e+00 1.403466820716857910e+00 3.382538259029388428e-01
6.272000000000000000e+03 3.812604141235351562e+01 2.174721956253051758e+00 -1.496817469596862793e-01 3.028382658958435059e-01 4.594695195555686951e-02 2.366408333182334900e-02
6.273000000000000000e+03 6.294336700439453125e+01 1.662737083435058594e+01 -9.192004203796386719e-01 6.841389179229736328e+00 1.776656508445739746e+00 3.786523044109344482e-01
6.274000000000000000e+03 4.465866851806640625e+01 -4.732952594757080078e+00 1.327563822269439697e-01 1.624194979667663574e+00 5.270854234695434570e-01 1.473063826560974121e-01
6.275000000000000000e+03 4.481806564331054688e+01 -2.819927692413330078e+00 9.865002334117889404e-02 1.619294881820678711e+00 5.153834819793701172e-01 1.861853003501892090e-01
6.276000000000000000e+03 6.435104370117187500e+01 1.094212436676025391e+01 -6.096538305282592773e-01 6.594135761260986328e+00 1.795344591140747070e+00 2.069778591394424438e-01
6.277000000000000000e+03 6.261657714843750000e+01 1.417655563354492188e+01 -7.793639898300170898e-01 6.436421394348144531e+00 1.697117209434509277e+00 3.779743313789367676e-01
6.278000000000000000e+03 6.282888412475585938e+01 9.703970909118652344e+00 -5.402890443801879883e-01 6.134142398834228516e+00 1.678156018257141113e+00 3.036443889141082764e-01
6.279000000000000000e+03 5.370942687988281250e+01 -1.282275390625000000e+01 -3.564450889825820923e-02 3.782983779907226562e+00 1.124201774597167969e+00 2.128336131572723389e-01
6.280000000000000000e+03 4.976180648803710938e+01 -9.588013648986816406e+00 3.156931325793266296e-02 2.831136465072631836e+00 8.588117361068725586e-01 1.534817963838577271e-01
6.281000000000000000e+03 1.651446914672851562e+01 1.941902923583984375e+01 1.332397758960723877e-02 1.114902868866920471e-01 3.744427859783172607e-02 4.315889254212379456e-02
6.282000000000000000e+03 6.065988159179687500e+01 3.019486904144287109e+00 -2.677305340766906738e-01 5.337355136871337891e+00 1.520887374877929688e+00 3.634285926818847656e-01
6.283000000000000000e+03 6.344271087646484375e+01 8.415312767028808594e+00 -4.831647872924804688e-01 6.214342594146728516e+00 1.719353318214416504e+00 2.753120064735412598e-01
6.284000000000000000e+03 6.215088272094726562e+01 1.677618598937988281e+01 -9.031830430030822754e-01 6.618918895721435547e+00 1.714720845222473145e+00 5.028101801872253418e-01
6.285000000000000000e+03 5.978530502319335938e+01 -2.208650350570678711e+00 -1.358869075775146484e-01 5.038817405700683594e+00 1.470879077911376953e+00 3.495754897594451904e-01
6.286000000000000000e+03 3.989120483398437500e+01 -4.054948985576629639e-01 5.697948113083839417e-02 6.417061090469360352e-01 2.096056789159774780e-01 1.117131412029266357e-01
6.287000000000000000e+03 6.385557174682617188e+01 2.066275024414062500e+01 -1.130897402763366699e+00 7.862733840942382812e+00 2.019550800323486328e+00 3.072450459003448486e-01
6.288000000000000000e+03 6.314621353149414062e+01 1.987735748291015625e+01 -1.080562353134155273e+00 7.468016147613525391e+00 1.916236162185668945e+00 4.563618302345275879e-01
6.289000000000000000e+03 1.742616653442382812e+01 2.160351181030273438e+01 8.606448769569396973e-03 9.864553809165954590e-02 3.217559680342674255e-02 3.907139226794242859e-02
6.290000000000000000e+03 1.869433021545410156e+01 2.172605323791503906e+01 1.485386211425065994e-02 1.057270541787147522e-01 3.617427498102188110e-02 4.736580327153205872e-02
6.291000000000000000e+03 6.289525604248046875e+01 7.527174472808837891e+00 -4.463390409946441650e-01 6.038551807403564453e+00 1.677663922309875488e+00 3.046870827674865723e-01
6.292000000000000000e+03 6.039546585083007812e+01 -5.498541355133056641e+00 -9.245838224887847900e-02 5.176341533660888672e+00 1.525164961814880371e+00 3.257311582565307617e-01
6.293000000000000000e+03 6.209286499023437500e+01 1.472172832489013672e+01 -7.973428368568420410e-01 6.344181060791015625e+00 1.664051413536071777e+00 4.477174878120422363e-01
6.294000000000000000e+03 6.191250228881835938e+01 1.367813110351562500e+01 -7.354850769042968750e-01 6.199103355407714844e+00 1.639085531234741211e+00 4.309237003326416016e-01
6.295000000000000000e+03 6.196462631225585938e+01 -8.877990722656250000e+00 -6.582961231470108032e-02 5.522761344909667969e+00 1.637079477310180664e+00 3.272114992141723633e-01
6.296000000000000000e+03 5.368570709228515625e+01 -1.143554496765136719e+01 -2.957102283835411072e-02 3.766244649887084961e+00 1.121002078056335449e+00 2.188537418842315674e-01
6.297000000000000000e+03 6.060103988647460938e+01 -1.460853862762451172e+01 -6.292974203824996948e-02 5.247172832489013672e+00 1.555272936820983887e+00 3.295999169349670410e-01
6.298000000000000000e+03 6.103337860107421875e+01 -1.253551483154296875e+01 -5.623797327280044556e-02 5.321030616760253906e+00 1.579437732696533203e+00 3.213378190994262695e-01
6.299000000000000000e+03 5.652659606933593750e+01 -1.521954631805419922e+01 -6.835190206766128540e-02 4.421569824218750000e+00 1.305965304374694824e+00 2.621218860149383545e-01
6.300000000000000000e+03 6.018292236328125000e+01 -1.137500476837158203e+01 -5.708863586187362671e-02 5.154553413391113281e+00 1.529239535331726074e+00 3.145767450332641602e-01
6.301000000000000000e+03 2.590812683105468750e+01 3.178741073608398438e+01 1.547333598136901855e-02 7.930262386798858643e-02 2.843278832733631134e-02 3.723971918225288391e-02
6.302000000000000000e+03 1.826827049255371094e+01 2.386531639099121094e+01 5.825434345752000809e-03 8.941517025232315063e-02 2.857218310236930847e-02 3.454735502600669861e-02
6.303000000000000000e+03 1.846159172058105469e+01 2.813550376892089844e+01 1.857377501437440515e-04 7.033868879079818726e-02 2.115732803940773010e-02 2.426845394074916840e-02
6.304000000000000000e+03 1.844662857055664062e+01 2.987498855590820312e+01 -3.099721623584628105e-03 6.337601691484451294e-02 1.808288879692554474e-02 1.925695873796939850e-02
6.305000000000000000e+03 1.718125343322753906e+01 2.795768165588378906e+01 -3.749699331820011139e-03 6.270762532949447632e-02 1.768737845122814178e-02 1.821251027286052704e-02
6.306000000000000000e+03 4.879101943969726562e+01 -5.407898902893066406e+00 6.009298190474510193e-02 2.532182931900024414e+00 7.776827812194824219e-01 2.155756354331970215e-01
6.307000000000000000e+03 2.149386215209960938e+01 2.911385345458984375e+01 5.107136908918619156e-03 7.743939012289047241e-02 2.476395852863788605e-02 3.300782665610313416e-02
6.308000000000000000e+03 5.995096588134765625e+01 5.879916548728942871e-01 -2.019854336977005005e-01 5.116258144378662109e+00 1.474281787872314453e+00 3.744421005249023438e-01
6.309000000000000000e+03 4.745861053466796875e+01 -6.280694007873535156e+00 9.015063941478729248e-02 2.255970478057861328e+00 7.038363218307495117e-01 1.728010475635528564e-01
6.310000000000000000e+03 4.383066177368164062e+01 -2.801402091979980469e+00 1.062138974666595459e-01 1.411460518836975098e+00 4.553023278713226318e-01 1.642893999814987183e-01
6.311000000000000000e+03 2.006274604797363281e+01 2.973085403442382812e+01 3.017428563907742500e-03 7.149962335824966431e-02 2.235511504113674164e-02 2.571030892431735992e-02
6.312000000000000000e+03 1.786937904357910156e+01 3.478430938720703125e+01 -4.801006056368350983e-03 4.322806745767593384e-02 1.152811851352453232e-02 8.690073154866695404e-03
6.313000000000000000e+03 6.048139953613281250e+01 -1.818686866760253906e+01 -5.082249641418457031e-02 5.264009952545166016e+00 1.563956260681152344e+00 3.365219533443450928e-01
6.314000000000000000e+03 6.116101455688476562e+01 -8.144211769104003906e+00 -7.487728446722030640e-02 5.344976902008056641e+00 1.581029891967773438e+00 3.217466175556182861e-01
6.315000000000000000e+03 5.616762161254882812e+01 -8.160660743713378906e+00 -4.817480221390724182e-02 4.242482662200927734e+00 1.258292317390441895e+00 2.913863062858581543e-01
6.316000000000000000e+03 4.873184585571289062e+01 -9.163965225219726562e+00 6.318106502294540405e-02 2.590201854705810547e+00 7.960148453712463379e-01 1.512806862592697144e-01
6.317000000000000000e+03 5.788365936279296875e+01 -1.622045516967773438e+01 -5.706747248768806458e-02 4.732991218566894531e+00 1.402777075767517090e+00 2.832478284835815430e-01
6.318000000000000000e+03 5.997779083251953125e+01 2.759767723083496094e+01 -1.176507100462913513e-01 7.386970520019531250e+00 2.180795907974243164e+00 2.561553478240966797e+00
6.319000000000000000e+03 5.946623229980468750e+01 2.807780647277832031e+01 2.294807881116867065e-01 6.646465301513671875e+00 2.062783718109130859e+00 2.757440328598022461e+00
6.320000000000000000e+03 4.878845596313476562e+01 1.992885780334472656e+01 -2.669442892074584961e-01 1.082463145256042480e+00 2.446556687355041504e-01 3.061803579330444336e-01
6.321000000000000000e+03 6.018320465087890625e+01 2.665130424499511719e+01 -4.238816797733306885e-01 7.420045852661132812e+00 2.098849296569824219e+00 2.173946380615234375e+00
6.322000000000000000e+03 5.029186630249023438e+01 2.128332328796386719e+01 -2.070453166961669922e-01 1.398042082786560059e+00 3.572990298271179199e-01 5.059298872947692871e-01
6.323000000000000000e+03 5.616975402832031250e+01 2.688452911376953125e+01 3.895997107028961182e-01 3.232665538787841797e+00 1.086679577827453613e+00 1.741302251815795898e+00
6.324000000000000000e+03 5.232114028930664062e+01 2.251435089111328125e+01 -1.159941926598548889e-01 1.985106110572814941e+00 5.607335567474365234e-01 8.407121896743774414e-01
6.325000000000000000e+03 5.261916732788085938e+01 2.317548561096191406e+01 -7.404010742902755737e-02 1.993630528450012207e+00 5.758771300315856934e-01 8.883454799652099609e-01
6.326000000000000000e+03 4.280438995361328125e+01 1.348847198486328125e+01 -4.485151767730712891e-01 3.697414696216583252e-01 -2.363210543990135193e-02 -1.633718907833099365e-01
6.327000000000000000e+03 5.073990249633789062e+01 2.195655250549316406e+01 -1.713116765022277832e-01 1.434593677520751953e+00 3.789846003055572510e-01 5.676543116569519043e-01
6.328000000000000000e+03 5.147199630737304688e+01 2.224725341796875000e+01 -1.473651081323623657e-01 1.671556830406188965e+00 4.572575092315673828e-01 6.835785508155822754e-01
6.329000000000000000e+03 4.712983322143554688e+01 1.700450897216796875e+01 -3.211489617824554443e-01 1.001086473464965820e+00 2.039812505245208740e-01 1.740162521600723267e-01
6.330000000000000000e+03 4.229784774780273438e+01 1.307879924774169922e+01 -4.618167877197265625e-01 3.094035387039184570e-01 -4.572397470474243164e-02 -1.916999965906143188e-01
6.331000000000000000e+03 4.487233734130859375e+01 1.349348258972167969e+01 -3.599601686000823975e-01 8.275144696235656738e-01 1.402662992477416992e-01 3.960355743765830994e-02
6.332000000000000000e+03 5.372596740722656250e+01 2.417977714538574219e+01 1.678083091974258423e-02 2.343567371368408203e+00 7.081044912338256836e-01 1.115638852119445801e+00
6.333000000000000000e+03 5.331252670288085938e+01 2.399951171875000000e+01 -8.858700282871723175e-03 2.159055709838867188e+00 6.450591087341308594e-01 1.018043875694274902e+00
6.334000000000000000e+03 4.614256286621093750e+01 1.651765632629394531e+01 -3.521194756031036377e-01 7.985914945602416992e-01 1.339416056871414185e-01 6.512207537889480591e-02
6.335000000000000000e+03 4.655062484741210938e+01 1.650829315185546875e+01 -3.338782489299774170e-01 9.088296890258789062e-01 1.724854409694671631e-01 1.235624849796295166e-01
6.336000000000000000e+03 3.472992324829101562e+01 1.811566710472106934e+00 -2.777895629405975342e-01 -9.967167675495147705e-02 -1.132383644580841064e-01 -4.991593584418296814e-02
6.337000000000000000e+03 3.518958282470703125e+01 2.117407083511352539e+00 -2.879688739776611328e-01 -6.104447692632675171e-02 -1.047040075063705444e-01 -5.791744217276573181e-02
6.338000000000000000e+03 5.315556335449218750e+01 2.283395576477050781e+01 -8.985088765621185303e-02 2.319927453994750977e+00 6.690229773521423340e-01 9.958499670028686523e-01
6.339000000000000000e+03 5.303096008300781250e+01 2.333665847778320312e+01 -5.852394923567771912e-02 2.158143520355224609e+00 6.298858523368835449e-01 9.670899510383605957e-01
6.340000000000000000e+03 4.435100936889648438e+01 1.419960117340087891e+01 -3.933703303337097168e-01 6.309904456138610840e-01 7.128603756427764893e-02 -4.252300411462783813e-02
6.341000000000000000e+03 4.488507843017578125e+01 1.470165538787841797e+01 -3.763483166694641113e-01 7.068201899528503418e-01 9.914156794548034668e-02 -4.000132903456687927e-03
6.342000000000000000e+03 4.529541015625000000e+01 1.526566696166992188e+01 -3.641564846038818359e-01 7.400441169738769531e-01 1.127662956714630127e-01 1.633597537875175476e-02
6.343000000000000000e+03 4.609233093261718750e+01 1.611561584472656250e+01 -3.476477265357971191e-01 8.349502086639404297e-01 1.461907476186752319e-01 7.897567003965377808e-02
6.344000000000000000e+03 4.562467575073242188e+01 1.577370929718017578e+01 -3.651747107505798340e-01 7.381731867790222168e-01 1.118995398283004761e-01 3.060979582369327545e-02
6.345000000000000000e+03 5.784795379638671875e+01 2.783747100830078125e+01 5.571725964546203613e-01 4.538463592529296875e+00 1.528690814971923828e+00 2.366587162017822266e+00
6.346000000000000000e+03 5.573521041870117188e+01 2.586802864074707031e+01 2.152618467807769775e-01 3.217945337295532227e+00 1.029962182044982910e+00 1.612677812576293945e+00
6.347000000000000000e+03 4.429438400268554688e+01 1.366397571563720703e+01 -3.835298418998718262e-01 6.696619391441345215e-01 8.583962917327880859e-02 -2.638281509280204773e-02
6.348000000000000000e+03 4.603314590454101562e+01 1.567258262634277344e+01 -3.464849889278411865e-01 8.755596280097961426e-01 1.587223857641220093e-01 8.564265072345733643e-02
6.349000000000000000e+03 5.963817596435546875e+01 2.767340469360351562e+01 2.897704206407070160e-02 6.924909114837646484e+00 2.086165904998779297e+00 2.627756118774414062e+00
6.350000000000000000e+03 5.918017196655273438e+01 2.750517463684082031e+01 1.256078630685806274e-01 6.286481857299804688e+00 1.923626899719238281e+00 2.563276052474975586e+00
6.351000000000000000e+03 4.926994705200195312e+01 2.048572731018066406e+01 -2.639031410217285156e-01 1.134243488311767578e+00 2.611021101474761963e-01 3.575752377510070801e-01
6.352000000000000000e+03 4.175815582275390625e+01 1.253201293945312500e+01 -4.703335165977478027e-01 2.621817290782928467e-01 -6.244553998112678528e-02 -2.108648568391799927e-01
6.353000000000000000e+03 4.702492904663085938e+01 1.652030754089355469e+01 -3.214026987552642822e-01 1.025922536849975586e+00 2.113559395074844360e-01 1.742725074291229248e-01
6.354000000000000000e+03 5.582505416870117188e+01 2.682739830017089844e+01 3.826158344745635986e-01 2.994223594665527344e+00 1.013051748275756836e+00 1.636336207389831543e+00
6.355000000000000000e+03 5.524415969848632812e+01 2.599459457397460938e+01 2.430414855480194092e-01 2.805938959121704102e+00 9.146940708160400391e-01 1.468870997428894043e+00
6.356000000000000000e+03 4.160853576660156250e+01 1.300776863098144531e+01 -4.968638718128204346e-01 1.893006116151809692e-01 -9.226898103952407837e-02 -2.501627504825592041e-01
6.357000000000000000e+03 5.480895614624023438e+01 2.546145248413085938e+01 1.605663299560546875e-01 2.705649852752685547e+00 8.598648309707641602e-01 1.365043163299560547e+00
6.358000000000000000e+03 3.978267288208007812e+01 8.605632781982421875e+00 -4.312820732593536377e-01 2.197920083999633789e-01 -6.344702094793319702e-02 -1.774062961339950562e-01
6.359000000000000000e+03 4.002619552612304688e+01 9.231166839599609375e+00 -4.449933469295501709e-01 2.155665308237075806e-01 -6.882804632186889648e-02 -1.889344453811645508e-01
6.360000000000000000e+03 4.127182388305664062e+01 1.000682353973388672e+01 -4.151664972305297852e-01 3.751508891582489014e-01 -1.200468000024557114e-02 -1.308468282222747803e-01
6.361000000000000000e+03 5.641535949707031250e+01 2.742804718017578125e+01 5.196521878242492676e-01 3.248517990112304688e+00 1.130451083183288574e+00 1.830883502960205078e+00
6.362000000000000000e+03 4.082239913940429688e+01 1.024764537811279297e+01 -4.483692944049835205e-01 2.731420993804931641e-01 -5.256815999746322632e-02 -1.787759512662887573e-01
6.363000000000000000e+03 4.060785675048828125e+01 9.780481338500976562e+00 -4.369205236434936523e-01 2.758079469203948975e-01 -4.833377152681350708e-02 -1.739119142293930054e-01
6.364000000000000000e+03 2.066916084289550781e+01 2.204866409301757812e+01 2.389546670019626617e-02 1.085512265563011169e-01 3.973400965332984924e-02 5.712828412652015686e-02
6.365000000000000000e+03 4.824685668945312500e+01 1.938434791564941406e+01 -2.923042178153991699e-01 9.993455410003662109e-01 2.121123820543289185e-01 2.502588629722595215e-01
6.366000000000000000e+03 4.783395004272460938e+01 1.925643920898437500e+01 -3.006524741649627686e-01 8.923994302749633789e-01 1.775240749120712280e-01 2.028971910476684570e-01
6.367000000000000000e+03 5.079678344726562500e+01 2.158486366271972656e+01 -1.829204559326171875e-01 1.524582505226135254e+00 4.024986326694488525e-01 5.897948145866394043e-01
6.368000000000000000e+03 4.034580612182617188e+01 1.042104053497314453e+01 -4.706191420555114746e-01 1.758349388837814331e-01 -8.843526244163513184e-02 -2.238527387380599976e-01
6.369000000000000000e+03 4.037036895751953125e+01 9.388623237609863281e+00 -4.368267059326171875e-01 2.585560679435729980e-01 -5.348118767142295837e-02 -1.723267734050750732e-01
6.370000000000000000e+03 3.807687377929687500e+01 6.909725189208984375e+00 -4.420079290866851807e-01 6.241619586944580078e-02 -1.138775199651718140e-01 -2.101973146200180054e-01
6.371000000000000000e+03 3.638608932495117188e+01 5.469120025634765625e+00 -4.746495485305786133e-01 -8.552532643079757690e-02 -1.680524647235870361e-01 -2.346995174884796143e-01
6.372000000000000000e+03 3.666691970825195312e+01 4.880398273468017578e+00 -4.214994609355926514e-01 -1.002388447523117065e-02 -1.294569969177246094e-01 -1.777841001749038696e-01
6.373000000000000000e+03 5.867081069946289062e+01 2.744608116149902344e+01 2.553343474864959717e-01 5.603821754455566406e+00 1.757746934890747070e+00 2.486071825027465820e+00
6.374000000000000000e+03 5.844062805175781250e+01 2.773017311096191406e+01 4.071274399757385254e-01 5.272267341613769531e+00 1.703818440437316895e+00 2.487175226211547852e+00
6.375000000000000000e+03 4.783880233764648438e+01 1.731020164489746094e+01 -3.050672113895416260e-01 1.169690132141113281e+00 2.593868672847747803e-01 2.541713714599609375e-01
6.376000000000000000e+03 5.440354156494140625e+01 2.545011329650878906e+01 1.576647609472274780e-01 2.420272588729858398e+00 7.733812332153320312e-01 1.255288124084472656e+00
6.377000000000000000e+03 5.385857009887695312e+01 2.365353393554687500e+01 -3.697925060987472534e-02 2.527806043624877930e+00 7.472480535507202148e-01 1.141503453254699707e+00
6.378000000000000000e+03 1.996807098388671875e+01 2.310896682739257812e+01 1.557701453566551208e-02 1.005309000611305237e-01 3.483237326145172119e-02 4.862121492624282837e-02
6.379000000000000000e+03 3.620222473144531250e+01 2.013043403625488281e+00 -2.174671590328216553e-01 5.014604330062866211e-02 -5.019633471965789795e-02 -2.257243171334266663e-02
6.380000000000000000e+03 3.561161041259765625e+01 3.139100551605224609e+00 -3.605580031871795654e-01 -5.530146136879920959e-02 -1.247578337788581848e-01 -1.117615401744842529e-01
6.381000000000000000e+03 3.728188705444335938e+01 4.690594673156738281e+00 -3.652305006980895996e-01 8.603382855653762817e-02 -8.375900238752365112e-02 -1.311953365802764893e-01
6.382000000000000000e+03 3.942994308471679688e+01 8.398403167724609375e+00 -4.400128126144409180e-01 1.695628166198730469e-01 -8.113500475883483887e-02 -1.962454766035079956e-01
6.383000000000000000e+03 3.903248596191406250e+01 8.173903465270996094e+00 -4.479883313179016113e-01 1.213211789727210999e-01 -9.800013899803161621e-02 -2.112124711275100708e-01
6.384000000000000000e+03 3.591257858276367188e+01 1.537375688552856445e+00 -1.914029270410537720e-01 2.544122561812400818e-02 -4.978851228952407837e-02 -9.124835021793842316e-03
6.385000000000000000e+03 1.955733680725097656e+01 2.049415588378906250e+01 2.402898855507373810e-02 1.157965809106826782e-01 4.194767028093338013e-02 5.864935740828514099e-02
6.386000000000000000e+03 1.631355094909667969e+01 1.762549209594726562e+01 2.050746046006679535e-02 1.250007152557373047e-01 4.365245252847671509e-02 5.063066259026527405e-02
6.387000000000000000e+03 2.137871932983398438e+01 2.223570823669433594e+01 2.498745359480381012e-02 1.082391515374183655e-01 3.996798396110534668e-02 5.900068581104278564e-02
6.388000000000000000e+03 6.058567810058593750e+01 2.611140060424804688e+01 -6.219750642776489258e-01 7.723002910614013672e+00 2.130308389663696289e+00 1.939562439918518066e+00
6.389000000000000000e+03 6.318859100341796875e+01 2.533962059020996094e+01 -1.127144455909729004e+00 9.330968856811523438e+00 2.461147069931030273e+00 6.909467577934265137e-01
6.390000000000000000e+03 4.132242202758789062e+01 1.238725090026855469e+01 -4.948575496673583984e-01 1.831233054399490356e-01 -9.352027624845504761e-02 -2.486289441585540771e-01
6.391000000000000000e+03 6.189274215698242188e+01 5.960839748382568359e+00 -3.804946839809417725e-01 5.729065895080566406e+00 1.604571342468261719e+00 3.456633687019348145e-01
6.392000000000000000e+03 1.921725654602050781e+01 2.106563377380371094e+01 1.961987651884555817e-02 1.099670082330703735e-01 3.887606412172317505e-02 5.248120427131652832e-02
6.393000000000000000e+03 1.999932479858398438e+01 2.204610252380371094e+01 1.879113726317882538e-02 1.068625003099441528e-01 3.769609332084655762e-02 5.273758992552757263e-02
6.394000000000000000e+03 6.309119033813476562e+01 2.158726692199707031e+01 -1.132250785827636719e+00 7.877226352691650391e+00 2.023492813110351562e+00 5.281584858894348145e-01
6.395000000000000000e+03 3.483290863037109375e+01 2.603451490402221680e+00 -3.492980003356933594e-01 -9.704522788524627686e-02 -1.339029669761657715e-01 -9.190766513347625732e-02
6.396000000000000000e+03 6.277018356323242188e+01 2.351421165466308594e+01 -1.138631224632263184e+00 8.327778816223144531e+00 2.156744241714477539e+00 7.532724142074584961e-01
6.397000000000000000e+03 3.529344177246093750e+01 1.606247067451477051e+00 -2.138454020023345947e-01 -3.360724821686744690e-02 -7.423578947782516479e-02 -1.573720201849937439e-02
6.398000000000000000e+03 6.063757705688476562e+01 2.703585052490234375e+01 -4.818547666072845459e-01 7.990592956542968750e+00 2.252621412277221680e+00 2.179979562759399414e+00
6.399000000000000000e+03 3.968264389038085938e+01 -1.132532596588134766e+00 8.217840641736984253e-02 6.124065518379211426e-01 2.083754837512969971e-01 1.080410256981849670e-01
6.400000000000000000e+03 6.250041580200195312e+01 2.290542984008789062e+01 -1.109645128250122070e+00 8.024169921875000000e+00 2.074357509613037109e+00 7.838129401206970215e-01
6.401000000000000000e+03 6.302256393432617188e+01 2.258187675476074219e+01 -1.153589487075805664e+00 8.136765480041503906e+00 2.094952821731567383e+00 6.069458723068237305e-01
6.402000000000000000e+03 2.218218612670898438e+01 2.436338615417480469e+01 2.105562947690486908e-02 9.946075081825256348e-02 3.615491464734077454e-02 5.236386880278587341e-02
6.403000000000000000e+03 6.397195053100585938e+01 2.519314193725585938e+01 -1.135056495666503906e+00 9.458202362060546875e+00 2.496943950653076172e+00 2.884349226951599121e-01
6.404000000000000000e+03 6.177362823486328125e+01 1.177863597869873047e+01 -6.416847109794616699e-01 5.996115207672119141e+00 1.606329202651977539e+00 4.093267917633056641e-01
6.405000000000000000e+03 6.150256347656250000e+01 7.235641002655029297e+00 -4.243597984313964844e-01 5.669236183166503906e+00 1.573462963104248047e+00 3.629241287708282471e-01
6.406000000000000000e+03 6.144747543334960938e+01 1.437007331848144531e+01 -7.593784928321838379e-01 6.130371570587158203e+00 1.611297845840454102e+00 4.909828603267669678e-01
6.407000000000000000e+03 6.193300247192382812e+01 1.602709388732910156e+01 -8.564838767051696777e-01 6.447412967681884766e+00 1.677278757095336914e+00 5.037585496902465820e-01
6.408000000000000000e+03 1.795899772644042969e+01 2.236912345886230469e+01 9.369427338242530823e-03 9.675037860870361328e-02 3.183593973517417908e-02 3.843687474727630615e-02
6.409000000000000000e+03 1.755162239074707031e+01 2.046401977539062500e+01 1.396517083048820496e-02 1.078865453600883484e-01 3.655551373958587646e-02 4.507102072238922119e-02
6.410000000000000000e+03 4.218170928955078125e+01 8.127793312072753906e+00 -3.197327852249145508e-01 6.780449748039245605e-01 1.074936613440513611e-01 7.793403230607509613e-03
6.411000000000000000e+03 3.874301528930664062e+01 -3.836496965959668159e-03 1.329932454973459244e-02 4.389739632606506348e-01 1.356819868087768555e-01 8.466489613056182861e-02
6.412000000000000000e+03 3.899327087402343750e+01 -8.722835183143615723e-01 7.980994880199432373e-02 5.032644867897033691e-01 1.749223172664642334e-01 9.757213294506072998e-02
6.413000000000000000e+03 6.318556594848632812e+01 1.905428314208984375e+01 -1.043959498405456543e+00 7.314114570617675781e+00 1.881046414375305176e+00 4.088785052299499512e-01
6.414000000000000000e+03 6.321434020996093750e+01 2.062731933593750000e+01 -1.108820319175720215e+00 7.637875556945800781e+00 1.958716511726379395e+00 4.719698131084442139e-01
6.415000000000000000e+03 5.747974777221679688e+01 -1.975499153137207031e+00 -1.230037659406661987e-01 4.508208751678466797e+00 1.315561532974243164e+00 3.614024519920349121e-01
6.416000000000000000e+03 3.772868347167968750e+01 -2.134400010108947754e-01 1.907891221344470978e-02 3.051765561103820801e-01 9.727664291858673096e-02 7.402906566858291626e-02
6.417000000000000000e+03 3.765251922607421875e+01 8.574355244636535645e-01 -6.432163715362548828e-02 2.657261192798614502e-01 6.042134761810302734e-02 5.247963592410087585e-02
6.418000000000000000e+03 6.242606353759765625e+01 1.292868423461914062e+01 -7.050616741180419922e-01 6.276899814605712891e+00 1.671551465988159180e+00 3.658944964408874512e-01
6.419000000000000000e+03 6.250281906127929688e+01 1.520241641998291016e+01 -8.344773650169372559e-01 6.543744087219238281e+00 1.712780117988586426e+00 4.064910709857940674e-01
6.420000000000000000e+03 6.163979339599609375e+01 3.681928157806396484e+00 -2.921320199966430664e-01 5.571599006652832031e+00 1.583840012550354004e+00 3.440547287464141846e-01
6.421000000000000000e+03 6.245435714721679688e+01 1.901729583740234375e+01 -1.010413527488708496e+00 7.075282573699951172e+00 1.819460749626159668e+00 5.385629534721374512e-01
6.422000000000000000e+03 6.092685317993164062e+01 1.008674144744873047e+01 -5.440810322761535645e-01 5.669683933258056641e+00 1.537680864334106445e+00 4.338525831699371338e-01
6.423000000000000000e+03 6.204951095581054688e+01 7.999920368194580078e+00 -4.631698429584503174e-01 5.852977752685546875e+00 1.616942286491394043e+00 3.437234163284301758e-01
6.424000000000000000e+03 5.144155502319335938e+01 -9.922808647155761719e+00 9.159535169601440430e-03 3.226353645324707031e+00 9.706539511680603027e-01 1.830903291702270508e-01
6.425000000000000000e+03 4.918595123291015625e+01 -8.017340660095214844e+00 5.062580481171607971e-02 2.658678054809570312e+00 8.127911686897277832e-01 1.723645776510238647e-01
6.426000000000000000e+03 5.922375869750976562e+01 1.109205186367034912e-02 -1.753401458263397217e-01 4.924542427062988281e+00 1.424760699272155762e+00 3.643209338188171387e-01
6.427000000000000000e+03 5.932446670532226562e+01 -8.336936831474304199e-01 -1.600046902894973755e-01 4.948015689849853516e+00 1.436403274536132812e+00 3.688473105430603027e-01
6.428000000000000000e+03 3.971327972412109375e+01 2.094902753829956055e+00 -1.009703204035758972e-01 5.473837852478027344e-01 1.339240372180938721e-01 7.630990445613861084e-02
6.429000000000000000e+03 4.398836517333984375e+01 -9.758473038673400879e-01 5.429772287607192993e-02 1.404421091079711914e+00 4.376156330108642578e-01 1.909296065568923950e-01
6.430000000000000000e+03 6.217459487915039062e+01 6.769261360168457031e+00 -4.115583896636962891e-01 5.812298774719238281e+00 1.620222210884094238e+00 3.337777853012084961e-01
6.431000000000000000e+03 5.866704940795898438e+01 -7.478738784790039062e+00 -7.229547202587127686e-02 4.793198108673095703e+00 1.416270732879638672e+00 3.149129748344421387e-01
6.432000000000000000e+03 5.263871002197265625e+01 -8.829251289367675781e+00 -5.443390691652894020e-04 3.474253654479980469e+00 1.042112827301025391e+00 2.349852770566940308e-01
6.433000000000000000e+03 5.925397109985351562e+01 -3.173904180526733398e+00 -1.210551261901855469e-01 4.920348167419433594e+00 1.439787864685058594e+00 3.429277539253234863e-01
6.434000000000000000e+03 4.690785598754882812e+01 -3.816376209259033203e+00 7.077085226774215698e-02 2.091009616851806641e+00 6.485341787338256836e-01 2.098340392112731934e-01
6.435000000000000000e+03 1.832890892028808594e+01 2.549714469909667969e+01 3.514670534059405327e-03 8.219753950834274292e-02 2.571366354823112488e-02 3.068857453763484955e-02
6.436000000000000000e+03 4.581851959228515625e+01 -2.803820133209228516e+00 7.642531394958496094e-02 1.827092409133911133e+00 5.710552930831909180e-01 2.017757594585418701e-01
6.437000000000000000e+03 6.035411834716796875e+01 -7.335188865661621094e+00 -7.901720702648162842e-02 5.166041851043701172e+00 1.526107311248779297e+00 3.189478218555450439e-01
6.438000000000000000e+03 6.124676513671875000e+01 -6.277705669403076172e+00 -9.257902950048446655e-02 5.356890201568603516e+00 1.579293370246887207e+00 3.273793756961822510e-01
6.439000000000000000e+03 6.160078048706054688e+01 9.134112358093261719e+00 -5.107669830322265625e-01 5.789976596832275391e+00 1.583762884140014648e+00 3.780971765518188477e-01
6.440000000000000000e+03 4.159344482421875000e+01 1.071860268712043762e-01 2.130662836134433746e-02 9.241282343864440918e-01 2.836304605007171631e-01 1.456064879894256592e-01
6.441000000000000000e+03 4.226007843017578125e+01 -8.491150736808776855e-01 5.902202427387237549e-02 1.065904140472412109e+00 3.374778330326080322e-01 1.574208438396453857e-01
6.442000000000000000e+03 1.972776412963867188e+01 2.800726699829101562e+01 7.461507921107113361e-04 7.681904733180999756e-02 2.326955832540988922e-02 2.913422137498855591e-02
6.443000000000000000e+03 5.874323272705078125e+01 -1.483256912231445312e+01 -6.722837686538696289e-02 4.880620956420898438e+00 1.444017767906188965e+00 2.912696003913879395e-01
6.444000000000000000e+03 2.406540870666503906e+01 3.175515556335449219e+01 1.254922151565551758e-02 7.707115262746810913e-02 2.688611112534999847e-02 3.329601883888244629e-02
6.445000000000000000e+03 4.580054473876953125e+01 -3.800321578979492188e+00 9.812486171722412109e-02 1.843251705169677734e+00 5.824129581451416016e-01 1.891705989837646484e-01
6.446000000000000000e+03 1.923436737060546875e+01 2.533346557617187500e+01 4.228370729833841324e-03 8.675838261842727661e-02 2.729602530598640442e-02 3.503019735217094421e-02
6.447000000000000000e+03 1.948039817810058594e+01 2.658753585815429688e+01 5.337028298527002335e-03 8.164489269256591797e-02 2.609457634389400482e-02 3.228521719574928284e-02
6.448000000000000000e+03 5.809747695922851562e+01 -1.140501785278320312e+01 -5.148333311080932617e-02 4.722708702087402344e+00 1.401367664337158203e+00 2.908152937889099121e-01
6.449000000000000000e+03 5.927291107177734375e+01 -1.035770511627197266e+01 -6.239079684019088745e-02 4.945551395416259766e+00 1.464948296546936035e+00 3.145377933979034424e-01
6.450000000000000000e+03 5.364940643310546875e+01 -1.014298439025878906e+01 -2.463250607252120972e-02 3.716413974761962891e+00 1.107534408569335938e+00 2.277900278568267822e-01
6.451000000000000000e+03 5.622681427001953125e+01 -1.094851779937744141e+01 -4.690901562571525574e-02 4.285089015960693359e+00 1.271454095840454102e+00 2.707615792751312256e-01
6.452000000000000000e+03 2.195383262634277344e+01 3.773603439331054688e+01 2.196239074692130089e-03 5.985598638653755188e-02 1.861566677689552307e-02 1.060712989419698715e-02
6.453000000000000000e+03 4.136643981933593750e+01 1.127534770965576172e+01 -4.554248750209808350e-01 2.873620688915252686e-01 -5.041883885860443115e-02 -1.834182441234588623e-01
6.454000000000000000e+03 5.730491256713867188e+01 2.716105079650878906e+01 3.985758125782012939e-01 4.199271678924560547e+00 1.379354357719421387e+00 2.114449024200439453e+00
6.455000000000000000e+03 5.169019699096679688e+01 2.067837524414062500e+01 -2.018128037452697754e-01 2.029195070266723633e+00 5.482146739959716797e-01 7.410876154899597168e-01
6.456000000000000000e+03 5.189342498779296875e+01 2.237502861022949219e+01 -1.299163103103637695e-01 1.821699619293212891e+00 5.075349807739257812e-01 7.611041665077209473e-01
6.457000000000000000e+03 5.116735839843750000e+01 2.163367080688476562e+01 -1.779632270336151123e-01 1.662700057029724121e+00 4.454210698604583740e-01 6.454092860221862793e-01
6.458000000000000000e+03 5.200954437255859375e+01 2.184303474426269531e+01 -1.527462154626846313e-01 1.972574234008789062e+00 5.459483861923217773e-01 7.896497845649719238e-01
6.459000000000000000e+03 5.287936782836914062e+01 2.213721656799316406e+01 -1.377516388893127441e-01 2.308220148086547852e+00 6.511405706405639648e-01 9.429332017898559570e-01
6.460000000000000000e+03 5.274210357666015625e+01 2.266819000244140625e+01 -1.017324179410934448e-01 2.149768590927124023e+00 6.144108176231384277e-01 9.177836775779724121e-01
6.461000000000000000e+03 4.377285766601562500e+01 1.379484462738037109e+01 -4.111997783184051514e-01 5.447369813919067383e-01 4.006116092205047607e-02 -8.276332914829254150e-02
6.462000000000000000e+03 4.221253204345703125e+01 1.255367088317871094e+01 -4.517825841903686523e-01 3.430140018463134766e-01 -3.263057768344879150e-02 -1.709162890911102295e-01
6.463000000000000000e+03 4.495546722412109375e+01 1.410229396820068359e+01 -3.642923533916473389e-01 7.874151468276977539e-01 1.269368380308151245e-01 2.548157423734664917e-02
6.464000000000000000e+03 4.753919982910156250e+01 1.641745758056640625e+01 -3.102333247661590576e-01 1.186240196228027344e+00 2.628020346164703369e-01 2.373373657464981079e-01
6.465000000000000000e+03 4.829811096191406250e+01 1.887006568908691406e+01 -2.902992069721221924e-01 1.096687793731689453e+00 2.419165670871734619e-01 2.762413024902343750e-01
6.466000000000000000e+03 4.558907318115234375e+01 1.415102577209472656e+01 -3.443072438240051270e-01 9.259750247001647949e-01 1.745003312826156616e-01 8.592428267002105713e-02
6.467000000000000000e+03 4.543427658081054688e+01 1.474557495117187500e+01 -3.598758578300476074e-01 8.218514919281005859e-01 1.385926902294158936e-01 4.855246096849441528e-02
6.468000000000000000e+03 4.598958206176757812e+01 1.489378166198730469e+01 -3.429964184761047363e-01 9.479463100433349609e-01 1.814849674701690674e-01 1.027380824089050293e-01
6.469000000000000000e+03 5.329408264160156250e+01 2.232294082641601562e+01 -1.319192498922348022e-01 2.480986595153808594e+00 7.047201991081237793e-01 1.010136604309082031e+00
6.470000000000000000e+03 5.344304656982421875e+01 2.350146484375000000e+01 -4.418054968118667603e-02 2.332409620285034180e+00 6.864687204360961914e-01 1.052760481834411621e+00
6.471000000000000000e+03 5.394784164428710938e+01 2.313652801513671875e+01 -8.267255127429962158e-02 2.688874483108520508e+00 7.818605899810791016e-01 1.147710204124450684e+00
6.472000000000000000e+03 5.842659759521484375e+01 2.715425109863281250e+01 2.203928679227828979e-01 5.387194156646728516e+00 1.682276129722595215e+00 2.367089271545410156e+00
6.473000000000000000e+03 4.701212692260742188e+01 1.603541755676269531e+01 -3.233404159545898438e-01 1.092798590660095215e+00 2.308374494314193726e-01 1.824713945388793945e-01
6.474000000000000000e+03 4.654510498046875000e+01 1.605378723144531250e+01 -3.255787193775177002e-01 9.580462574958801270e-01 1.897402703762054443e-01 1.375162303447723389e-01
6.475000000000000000e+03 5.027766036987304688e+01 2.039042091369628906e+01 -2.223045676946640015e-01 1.530901312828063965e+00 3.925790190696716309e-01 5.278128981590270996e-01
6.476000000000000000e+03 5.157855606079101562e+01 2.172725105285644531e+01 -1.613039374351501465e-01 1.813053965568542480e+00 4.955250024795532227e-01 7.176048755645751953e-01
6.477000000000000000e+03 4.953005218505859375e+01 2.025018119812011719e+01 -2.461478561162948608e-01 1.272513151168823242e+00 3.079095780849456787e-01 4.155263006687164307e-01
6.478000000000000000e+03 4.770523071289062500e+01 1.843117904663085938e+01 -3.070497810840606689e-01 9.694976210594177246e-01 1.987343430519104004e-01 2.034364789724349976e-01
6.479000000000000000e+03 4.734025192260742188e+01 1.747244644165039062e+01 -3.115560710430145264e-01 9.992256164550781250e-01 2.063008695840835571e-01 1.883846670389175415e-01
6.480000000000000000e+03 4.576487731933593750e+01 1.536963176727294922e+01 -3.488453030586242676e-01 8.394441008567810059e-01 1.471796333789825439e-01 6.765013188123703003e-02
6.481000000000000000e+03 4.105038070678710938e+01 1.078194427490234375e+01 -4.505542814731597900e-01 2.722366154193878174e-01 -5.349530279636383057e-02 -1.868199557065963745e-01
6.482000000000000000e+03 5.951632690429687500e+01 2.731992912292480469e+01 -3.932100161910057068e-02 6.742337703704833984e+00 2.010905027389526367e+00 2.506685018539428711e+00
6.483000000000000000e+03 6.061586761474609375e+01 2.659865570068359375e+01 -5.472162961959838867e-01 7.883625507354736328e+00 2.200922727584838867e+00 2.065528631210327148e+00
6.484000000000000000e+03 5.664299774169921875e+01 2.656723022460937500e+01 3.017774224281311035e-01 3.761346101760864258e+00 1.218937039375305176e+00 1.881182909011840820e+00
6.485000000000000000e+03 4.783148193359375000e+01 1.887409210205078125e+01 -3.047771453857421875e-01 9.434199333190917969e-01 1.915928423404693604e-01 2.082497626543045044e-01
6.486000000000000000e+03 4.071649551391601562e+01 9.086833953857421875e+00 -4.073571562767028809e-01 3.418995440006256104e-01 -1.963727921247482300e-02 -1.341608017683029175e-01
6.487000000000000000e+03 4.039695739746093750e+01 8.671648025512695312e+00 -4.107040464878082275e-01 3.110724091529846191e-01 -2.988949418067932129e-02 -1.374155879020690918e-01
6.488000000000000000e+03 4.101936721801757812e+01 9.530118942260742188e+00 -4.096200764179229736e-01 3.644694685935974121e-01 -1.354517880827188492e-02 -1.294916570186614990e-01
6.489000000000000000e+03 3.930870056152343750e+01 7.099494457244873047e+00 -3.881146013736724854e-01 2.382385730743408203e-01 -4.496280848979949951e-02 -1.402943879365921021e-01
6.490000000000000000e+03 5.933589553833007812e+01 2.781410789489746094e+01 1.905288547277450562e-01 6.477783203125000000e+00 2.000493526458740234e+00 2.664894104003906250e+00
6.491000000000000000e+03 5.118898010253906250e+01 2.114320182800292969e+01 -1.834515333175659180e-01 1.758549571037292480e+00 4.725294113159179688e-01 6.629501581192016602e-01
6.492000000000000000e+03 5.244858169555664062e+01 2.197893524169921875e+01 -1.447488814592361450e-01 2.145495891571044922e+00 6.002241373062133789e-01 8.671715855598449707e-01
6.493000000000000000e+03 4.765510177612304688e+01 1.685416412353515625e+01 -3.054740130901336670e-01 1.172445654869079590e+00 2.600914835929870605e-01 2.421216368675231934e-01
6.494000000000000000e+03 3.670874404907226562e+01 3.700842380523681641e+00 -3.264358043670654297e-01 5.892039462924003601e-02 -8.025462180376052856e-02 -9.550041705369949341e-02
6.495000000000000000e+03 3.738790130615234375e+01 5.236410140991210938e+00 -3.994777798652648926e-01 6.471469998359680176e-02 -1.004289239645004272e-01 -1.574747562408447266e-01
6.496000000000000000e+03 3.706964874267578125e+01 6.012816429138183594e+00 -4.575865268707275391e-01 -2.253808826208114624e-02 -1.440373808145523071e-01 -2.203444689512252808e-01
6.497000000000000000e+03 3.970249938964843750e+01 8.064003944396972656e+00 -4.090620875358581543e-01 2.432203888893127441e-01 -4.975250735878944397e-02 -1.575655192136764526e-01
6.498000000000000000e+03 4.000203704833984375e+01 7.759031772613525391e+00 -3.929873406887054443e-01 3.089828193187713623e-01 -2.520135417580604553e-02 -1.285416632890701294e-01
6.499000000000000000e+03 5.479609680175781250e+01 2.451126861572265625e+01 3.478325158357620239e-02 2.884100675582885742e+00 8.756651282310485840e-01 1.339510440826416016e+00
6.500000000000000000e+03 5.437262344360351562e+01 2.498308181762695312e+01 1.049723252654075623e-01 2.532625675201416016e+00 7.912794351577758789e-01 1.258213758468627930e+00
6.501000000000000000e+03 5.580986785888671875e+01 2.638187599182128906e+01 2.963457107543945312e-01 3.141598224639892578e+00 1.031383156776428223e+00 1.641432404518127441e+00
6.502000000000000000e+03 3.894191741943359375e+01 7.498961448669433594e+00 -4.259708225727081299e-01 1.557728052139282227e-01 -8.105940371751785278e-02 -1.826913803815841675e-01
6.503000000000000000e+03 3.933238601684570312e+01 7.786135196685791016e+00 -4.224599897861480713e-01 1.971534788608551025e-01 -6.759195774793624878e-02 -1.714137345552444458e-01
6.504000000000000000e+03 3.584553527832031250e+01 3.547799348831176758e+00 -3.652056753635406494e-01 -3.690285235643386841e-02 -1.206325590610504150e-01 -1.194215416908264160e-01
6.505000000000000000e+03 5.522169113159179688e+01 2.544421005249023438e+01 1.548527330160140991e-01 2.962630510330200195e+00 9.352449774742126465e-01 1.466351032257080078e+00
6.506000000000000000e+03 6.224286651611328125e+01 2.501766395568847656e+01 -1.055494785308837891e+00 8.637188911437988281e+00 2.274508237838745117e+00 1.104253172874450684e+00
6.507000000000000000e+03 6.160461425781250000e+01 2.558007240295410156e+01 -9.109773635864257812e-01 8.437669754028320312e+00 2.258007764816284180e+00 1.460263252258300781e+00
6.508000000000000000e+03 6.363491439819335938e+01 2.487451171875000000e+01 -1.142469644546508789e+00 9.126312255859375000e+00 2.395152568817138672e+00 4.900795817375183105e-01
6.509000000000000000e+03 4.144511795043945312e+01 1.195914268493652344e+01 -4.671480357646942139e-01 2.483835071325302124e-01 -6.562935560941696167e-02 -2.088951617479324341e-01
6.510000000000000000e+03 4.152285766601562500e+01 1.049965858459472656e+01 -4.198344051837921143e-01 3.893583416938781738e-01 -9.142814204096794128e-03 -1.327703893184661865e-01
6.511000000000000000e+03 3.903678131103515625e+01 7.996519207954406738e-01 -3.694805502891540527e-02 4.761521816253662109e-01 1.317612379789352417e-01 8.280479907989501953e-02
6.512000000000000000e+03 6.108826446533203125e+01 1.509371852874755859e+01 -7.861555218696594238e-01 6.084645748138427734e+00 1.589547038078308105e+00 5.603179931640625000e-01
6.513000000000000000e+03 6.099855804443359375e+01 1.084665489196777344e+01 -5.806304216384887695e-01 5.715273380279541016e+00 1.540392756462097168e+00 4.380087852478027344e-01
6.514000000000000000e+03 3.640599822998046875e+01 3.247993946075439453e+00 -3.185407519340515137e-01 3.866874799132347107e-02 -8.396160602569580078e-02 -8.714681863784790039e-02
6.515000000000000000e+03 3.612721633911132812e+01 3.986620187759399414e+00 -3.973236978054046631e-01 -2.423680387437343597e-02 -1.264681518077850342e-01 -1.423677504062652588e-01
6.516000000000000000e+03 6.297266387939453125e+01 2.420081329345703125e+01 -1.143091082572937012e+00 8.671466827392578125e+00 2.258512735366821289e+00 7.215228676795959473e-01
6.517000000000000000e+03 6.100973892211914062e+01 4.673678874969482422e+00 -3.252126574516296387e-01 5.446802139282226562e+00 1.536476850509643555e+00 3.677395284175872803e-01
6.518000000000000000e+03 2.117290306091308594e+01 2.307600212097167969e+01 2.117860876023769379e-02 1.037365421652793884e-01 3.747454658150672913e-02 5.424442887306213379e-02
6.519000000000000000e+03 1.991814994812011719e+01 2.423735427856445312e+01 1.042869128286838531e-02 9.404874593019485474e-02 3.134322911500930786e-02 4.341893643140792847e-02
6.520000000000000000e+03 6.122681045532226562e+01 1.623473930358886719e+01 -8.393889069557189941e-01 6.247991085052490234e+00 1.622580766677856445e+00 5.908509492874145508e-01
6.521000000000000000e+03 6.085913467407226562e+01 1.775580596923828125e+01 -8.749494552612304688e-01 6.283283710479736328e+00 1.622500181198120117e+00 7.200490236282348633e-01
6.522000000000000000e+03 3.796043014526367188e+01 6.133096694946289062e+00 -4.146025180816650391e-01 8.939614146947860718e-02 -9.756191819906234741e-02 -1.772196739912033081e-01
6.523000000000000000e+03 3.968301010131835938e+01 7.433713912963867188e+00 -3.873295187950134277e-01 2.779485881328582764e-01 -3.281428292393684387e-02 -1.323397159576416016e-01
6.524000000000000000e+03 3.711783981323242188e+01 4.089010134339332581e-02 -1.591479592025279999e-02 1.930002272129058838e-01 5.312563106417655945e-02 5.986035987734794617e-02
6.525000000000000000e+03 3.842443084716796875e+01 5.314048528671264648e-01 -1.960408873856067657e-02 3.870407640933990479e-01 1.102310046553611755e-01 7.231287658214569092e-02
6.526000000000000000e+03 1.934348297119140625e+01 2.243047332763671875e+01 1.483648829162120819e-02 1.031879708170890808e-01 3.540733829140663147e-02 4.677284508943557739e-02
6.527000000000000000e+03 4.311445999145507812e+01 -9.411052465438842773e-01 6.930614262819290161e-02 1.232100129127502441e+00 3.904218673706054688e-01 1.739297062158584595e-01
6.528000000000000000e+03 4.484944152832031250e+01 -1.877279162406921387e+00 6.964954733848571777e-02 1.603660702705383301e+00 5.019930601119995117e-01 1.984028220176696777e-01
6.529000000000000000e+03 6.308617019653320312e+01 1.741984558105468750e+01 -9.641659855842590332e-01 7.004444122314453125e+00 1.812083363533020020e+00 3.798956274986267090e-01
6.530000000000000000e+03 6.262264251708984375e+01 2.096586990356445312e+01 -1.090975046157836914e+00 7.514651775360107422e+00 1.927103042602539062e+00 6.155888438224792480e-01
6.531000000000000000e+03 6.151560974121093750e+01 1.257280826568603516e+01 -6.694416999816894531e-01 5.975560188293457031e+00 1.591835498809814453e+00 4.387511312961578369e-01
6.532000000000000000e+03 6.230717086791992188e+01 1.751931953430175781e+01 -9.431437849998474121e-01 6.780424594879150391e+00 1.751184225082397461e+00 5.039340853691101074e-01
6.533000000000000000e+03 6.241130065917968750e+01 1.826822471618652344e+01 -9.839169979095458984e-01 6.931888103485107422e+00 1.784391283988952637e+00 5.153085589408874512e-01
6.534000000000000000e+03 6.156937789916992188e+01 1.763076782226562500e+01 -9.176196455955505371e-01 6.537290573120117188e+00 1.685901284217834473e+00 6.167088150978088379e-01
6.535000000000000000e+03 3.675310134887695312e+01 1.657137155532836914e+00 -1.529881954193115234e-01 1.341309845447540283e-01 -5.657161585986614227e-03 5.888449959456920624e-03
6.536000000000000000e+03 3.733349609375000000e+01 5.107304453849792480e-01 -4.439035803079605103e-02 2.353360205888748169e-01 5.728369951248168945e-02 5.222283676266670227e-02
6.537000000000000000e+03 6.070789337158203125e+01 6.860240936279296875e+00 -4.055960178375244141e-01 5.462688922882080078e+00 1.517127871513366699e+00 4.035238921642303467e-01
6.538000000000000000e+03 5.835975265502929688e+01 -2.588103771209716797e+00 -1.197248324751853943e-01 4.717217445373535156e+00 1.379247903823852539e+00 3.536291420459747314e-01
6.539000000000000000e+03 5.873297500610351562e+01 -5.728495121002197266e+00 -8.221100270748138428e-02 4.801962852478027344e+00 1.415925502777099609e+00 3.268624246120452881e-01
6.540000000000000000e+03 5.976163482666015625e+01 2.201448202133178711e+00 -2.352135479450225830e-01 5.086959838867187500e+00 1.455523848533630371e+00 3.812461197376251221e-01
6.541000000000000000e+03 6.212273406982421875e+01 2.237681007385253906e+01 -1.079419255256652832e+00 7.674036979675292969e+00 1.978385329246520996e+00 8.551375865936279297e-01
6.542000000000000000e+03 6.210049819946289062e+01 2.044338417053222656e+01 -1.040494441986083984e+00 7.211144447326660156e+00 1.851194977760314941e+00 6.927406191825866699e-01
6.543000000000000000e+03 5.890975570678710938e+01 4.856410503387451172e+00 -3.118245005607604980e-01 4.943230152130126953e+00 1.389421701431274414e+00 4.212434589862823486e-01
6.544000000000000000e+03 4.671408843994140625e+01 -4.952253818511962891e+00 9.676755964756011963e-02 2.074027776718139648e+00 6.512385606765747070e-01 1.844687312841415405e-01
6.545000000000000000e+03 4.685492706298828125e+01 -2.719378709793090820e+00 6.386150419712066650e-02 2.063688755035400391e+00 6.382650732994079590e-01 2.303761690855026245e-01
6.546000000000000000e+03 4.954857254028320312e+01 -6.836300849914550781e+00 5.058377981185913086e-02 2.730717897415161133e+00 8.343905210494995117e-01 2.004912644624710083e-01
6.547000000000000000e+03 4.848298263549804688e+01 -6.548492908477783203e+00 6.398288160562515259e-02 2.478647947311401367e+00 7.627892494201660156e-01 1.895568668842315674e-01
6.548000000000000000e+03 5.898796463012695312e+01 8.285665512084960938e+00 -4.304175376892089844e-01 5.055994987487792969e+00 1.387673258781433105e+00 4.758307039737701416e-01
6.549000000000000000e+03 6.123241424560546875e+01 8.369229316711425781e+00 -4.771361947059631348e-01 5.637494564056396484e+00 1.548107504844665527e+00 3.918482661247253418e-01
6.550000000000000000e+03 6.083552169799804688e+01 7.649189949035644531e+00 -4.394526481628417969e-01 5.520818710327148438e+00 1.524409770965576172e+00 4.093965888023376465e-01
6.551000000000000000e+03 5.954580307006835938e+01 -6.520512104034423828e+00 -8.470352739095687866e-02 4.984869480133056641e+00 1.470049858093261719e+00 3.243277370929718018e-01
6.552000000000000000e+03 5.950926971435546875e+01 -4.778428554534912109e+00 -9.767798334360122681e-02 4.980974197387695312e+00 1.464988827705383301e+00 3.330247998237609863e-01
6.553000000000000000e+03 4.404293060302734375e+01 -1.121391281485557556e-01 3.270307183265686035e-02 1.397068262100219727e+00 4.289314150810241699e-01 1.985557526350021362e-01
6.554000000000000000e+03 1.843066787719726562e+01 2.671439361572265625e+01 -6.159113836474716663e-04 7.655323296785354614e-02 2.278119698166847229e-02 2.664491161704063416e-02
6.555000000000000000e+03 1.874119758605957031e+01 2.306530952453613281e+01 1.023001503199338913e-02 9.724868834018707275e-02 3.224360942840576172e-02 4.192576184868812561e-02
6.556000000000000000e+03 5.759690093994140625e+01 -1.374879074096679688e+01 -5.766543745994567871e-02 4.614586830139160156e+00 1.367076396942138672e+00 2.748826444149017334e-01
6.557000000000000000e+03 5.777926254272460938e+01 -3.431003570556640625e+00 -1.034944951534271240e-01 4.582496643066406250e+00 1.343700766563415527e+00 3.458243012428283691e-01
6.558000000000000000e+03 5.889025497436523438e+01 -1.729896783828735352e+00 -1.378418505191802979e-01 4.842821598052978516e+00 1.411493897438049316e+00 3.556626737117767334e-01
6.559000000000000000e+03 5.253638839721679688e+01 -1.005878543853759766e+01 -1.099284365773200989e-02 3.472731113433837891e+00 1.038521528244018555e+00 2.168529182672500610e-01
6.560000000000000000e+03 5.030887603759765625e+01 -8.399982452392578125e+00 3.526176884770393372e-02 2.938676357269287109e+00 8.921814560890197754e-01 1.874309331178665161e-01
6.561000000000000000e+03 5.054516601562500000e+01 -1.030157089233398438e+01 1.697950065135955811e-02 3.015414237976074219e+00 9.097180962562561035e-01 1.620230674743652344e-01
6.562000000000000000e+03 2.053773880004882812e+01 2.629481506347656250e+01 6.823246367275714874e-03 8.701801300048828125e-02 2.815237827599048615e-02 3.835495188832283020e-02
6.563000000000000000e+03 5.864236831665039062e+01 6.968455314636230469e-01 -1.819315403699874878e-01 4.802148818969726562e+00 1.386065125465393066e+00 3.714461624622344971e-01
6.564000000000000000e+03 5.741035842895507812e+01 -1.024000358581542969e+01 -5.581510812044143677e-02 4.539599895477294922e+00 1.345135331153869629e+00 2.856987416744232178e-01
6.565000000000000000e+03 5.890789413452148438e+01 -1.254231262207031250e+01 -5.734066665172576904e-02 4.889278888702392578e+00 1.449581503868103027e+00 3.034274578094482422e-01
6.566000000000000000e+03 5.978469085693359375e+01 -1.361353778839111328e+01 -6.465894728899002075e-02 5.072926521301269531e+00 1.502480387687683105e+00 3.110966980457305908e-01
6.567000000000000000e+03 4.775227737426757812e+01 -5.149403572082519531e+00 7.013109326362609863e-02 2.291449785232543945e+00 7.084742784500122070e-01 2.011922448873519897e-01
6.568000000000000000e+03 4.909564971923828125e+01 -4.299019336700439453e+00 3.813424333930015564e-02 2.587816238403320312e+00 7.877851128578186035e-01 2.435560971498489380e-01
6.569000000000000000e+03 1.782401466369628906e+01 2.466335678100585938e+01 2.514676190912723541e-03 8.458506315946578979e-02 2.612992003560066223e-02 3.152544423937797546e-02
6.570000000000000000e+03 1.944339752197265625e+01 2.361939430236816406e+01 1.107391901314258575e-02 9.671298414468765259e-02 3.233607113361358643e-02 4.178132489323616028e-02
6.571000000000000000e+03 5.496922302246093750e+01 -1.133942699432373047e+01 -3.239137306809425354e-02 4.035268783569335938e+00 1.200863242149353027e+00 2.533821761608123779e-01
6.572000000000000000e+03 5.673254013061523438e+01 -1.238401317596435547e+01 -4.952666163444519043e-02 4.418246269226074219e+00 1.310615897178649902e+00 2.733260989189147949e-01
6.573000000000000000e+03 2.705723190307617188e+01 3.515431213378906250e+01 1.892761327326297760e-02 7.618863880634307861e-02 2.853487618267536163e-02 2.645197696983814240e-02
6.574000000000000000e+03 5.814941787719726562e+01 2.688985633850097656e+01 1.939208656549453735e-01 5.104099273681640625e+00 1.589406132698059082e+00 2.259025096893310547e+00
6.575000000000000000e+03 5.975916290283203125e+01 2.675811195373535156e+01 -2.720720171928405762e-01 6.984932899475097656e+00 2.013858318328857422e+00 2.294312000274658203e+00
6.576000000000000000e+03 4.541542816162109375e+01 1.317236232757568359e+01 -3.359757363796234131e-01 9.782283306121826172e-01 1.926757842302322388e-01 9.758169203996658325e-02
6.577000000000000000e+03 4.348147201538085938e+01 1.235700702667236328e+01 -3.930569887161254883e-01 6.166129708290100098e-01 6.706679612398147583e-02 -4.690370336174964905e-02
6.578000000000000000e+03 5.305275726318359375e+01 2.157223320007324219e+01 -1.764161884784698486e-01 2.495229721069335938e+00 6.956440806388854980e-01 9.635772705078125000e-01
6.579000000000000000e+03 5.347005844116210938e+01 2.181982803344726562e+01 -1.725488007068634033e-01 2.650509119033813477e+00 7.433880567550659180e-01 1.028012275695800781e+00
6.580000000000000000e+03 5.356117630004882812e+01 2.299721908569335938e+01 -8.233734220266342163e-02 2.500717401504516602e+00 7.255140542984008789e-01 1.073726296424865723e+00
6.581000000000000000e+03 4.882828140258789062e+01 1.892914581298828125e+01 -2.805293798446655273e-01 1.233443260192871094e+00 2.858741581439971924e-01 3.418036103248596191e-01
6.582000000000000000e+03 4.918909454345703125e+01 1.997486305236816406e+01 -2.545774579048156738e-01 1.223062634468078613e+00 2.905455529689788818e-01 3.746758997440338135e-01
6.583000000000000000e+03 5.774433135986328125e+01 2.742746543884277344e+01 4.163533747196197510e-01 4.529973983764648438e+00 1.483898162841796875e+00 2.260138273239135742e+00
6.584000000000000000e+03 5.739148712158203125e+01 2.674509048461914062e+01 2.705626785755157471e-01 4.382509708404541016e+00 1.395921707153320312e+00 2.086213350296020508e+00
6.585000000000000000e+03 5.875013732910156250e+01 2.684370422363281250e+01 5.358124151825904846e-02 5.783071517944335938e+00 1.750995755195617676e+00 2.347080945968627930e+00
6.586000000000000000e+03 4.752788162231445312e+01 1.560623455047607422e+01 -2.997605502605438232e-01 1.290441632270812988e+00 2.972043156623840332e-01 2.576855421066284180e-01
6.587000000000000000e+03 4.801099777221679688e+01 1.627336120605468750e+01 -2.989427149295806885e-01 1.344380974769592285e+00 3.136314749717712402e-01 2.970057725906372070e-01
6.588000000000000000e+03 4.650597763061523438e+01 1.556462097167968750e+01 -3.350897431373596191e-01 1.001485228538513184e+00 1.999186575412750244e-01 1.459469646215438843e-01
6.589000000000000000e+03 4.811972045898437500e+01 1.669968414306640625e+01 -2.967169880867004395e-01 1.326152205467224121e+00 3.088305592536926270e-01 3.008903264999389648e-01
6.590000000000000000e+03 5.479984283447265625e+01 2.497546768188476562e+01 1.045027002692222595e-01 2.806238651275634766e+00 8.732224106788635254e-01 1.364528894424438477e+00
6.591000000000000000e+03 5.442167282104492188e+01 2.452898025512695312e+01 4.784201458096504211e-02 2.664851427078247070e+00 8.138080239295959473e-01 1.269915580749511719e+00
6.592000000000000000e+03 4.986029052734375000e+01 1.991020011901855469e+01 -2.457146793603897095e-01 1.447434186935424805e+00 3.605158627033233643e-01 4.713731706142425537e-01
6.593000000000000000e+03 5.071283340454101562e+01 2.062203979492187500e+01 -2.107859700918197632e-01 1.639159202575683594e+00 4.285119771957397461e-01 5.930789709091186523e-01
6.594000000000000000e+03 4.618889617919921875e+01 1.434190368652343750e+01 -3.254984617233276367e-01 1.065613150596618652e+00 2.220344096422195435e-01 1.471531093120574951e-01
6.595000000000000000e+03 4.709171295166015625e+01 1.513837337493896484e+01 -3.196933865547180176e-01 1.193387985229492188e+00 2.621083855628967285e-01 2.168134599924087524e-01
6.596000000000000000e+03 4.511888885498046875e+01 1.266356849670410156e+01 -3.402380347251892090e-01 9.510874748229980469e-01 1.832548230886459351e-01 8.575683087110519409e-02
6.597000000000000000e+03 4.656145095825195312e+01 1.503874397277832031e+01 -3.253790140151977539e-01 1.079226970672607422e+00 2.261544018983840942e-01 1.639218181371688843e-01
6.598000000000000000e+03 4.754969787597656250e+01 1.794567489624023438e+01 -3.121959269046783447e-01 9.920831322669982910e-01 2.039661705493927002e-01 1.990725100040435791e-01
6.599000000000000000e+03 5.164666748046875000e+01 2.120764541625976562e+01 -1.823105067014694214e-01 1.927587628364562988e+00 5.235831737518310547e-01 7.330402731895446777e-01
6.600000000000000000e+03 5.257652664184570312e+01 2.142050361633300781e+01 -1.763233542442321777e-01 2.297076463699340820e+00 6.362259387969970703e-01 8.817821145057678223e-01
6.601000000000000000e+03 4.416999435424804688e+01 1.314404678344726562e+01 -3.775016367435455322e-01 6.986805796623229980e-01 9.635369479656219482e-02 -1.337790396064519882e-02
6.602000000000000000e+03 4.369155120849609375e+01 1.329528141021728516e+01 -4.008806943893432617e-01 5.756886005401611328e-01 5.244237929582595825e-02 -6.955657899379730225e-02
6.603000000000000000e+03 4.006638336181640625e+01 8.334262847900390625e+00 -4.082641303539276123e-01 2.882003784179687500e-01 -3.601912409067153931e-02 -1.492428332567214966e-01
6.604000000000000000e+03 4.145860671997070312e+01 9.249860763549804688e+00 -3.814739882946014404e-01 4.672218561172485352e-01 2.572436071932315826e-02 -8.389314264059066772e-02
6.605000000000000000e+03 4.172009277343750000e+01 9.742535591125488281e+00 -3.858993947505950928e-01 4.807906448841094971e-01 2.846737578511238098e-02 -8.496497571468353271e-02
6.606000000000000000e+03 4.115206909179687500e+01 8.768005371093750000e+00 -3.770609200000762939e-01 4.485500454902648926e-01 2.144673094153404236e-02 -8.627003431320190430e-02
6.607000000000000000e+03 4.195699310302734375e+01 1.022825622558593750e+01 -3.917373716831207275e-01 4.884071052074432373e-01 2.900092676281929016e-02 -8.989115059375762939e-02
6.608000000000000000e+03 3.682722091674804688e+01 5.326875686645507812e+00 -4.306132495403289795e-01 -6.534549407660961151e-03 -1.311443299055099487e-01 -1.932126581668853760e-01
6.609000000000000000e+03 5.645579910278320312e+01 2.597690773010253906e+01 1.919022053480148315e-01 3.725723266601562500e+00 1.175287604331970215e+00 1.779155015945434570e+00
6.610000000000000000e+03 5.563591003417968750e+01 2.537071609497070312e+01 1.301627159118652344e-01 3.262321233749389648e+00 1.017745137214660645e+00 1.556850075721740723e+00
6.611000000000000000e+03 4.808531570434570312e+01 1.780530166625976562e+01 -2.943083643913269043e-01 1.174789190292358398e+00 2.641442418098449707e-01 2.772493660449981689e-01
6.612000000000000000e+03 4.825610733032226562e+01 1.834082603454589844e+01 -2.915568947792053223e-01 1.157102584838867188e+00 2.596637010574340820e-01 2.861196398735046387e-01
6.613000000000000000e+03 3.700750350952148438e+01 4.178795814514160156e+00 -3.520144820213317871e-01 7.638209313154220581e-02 -8.268971741199493408e-02 -1.132008433341979980e-01
6.614000000000000000e+03 5.408529281616210938e+01 2.266507530212402344e+01 -1.212342381477355957e-01 2.837481260299682617e+00 8.148741126060485840e-01 1.159864544868469238e+00
6.615000000000000000e+03 5.678817367553710938e+01 2.619465255737304688e+01 2.141701579093933105e-01 3.970320463180541992e+00 1.255347132682800293e+00 1.895107865333557129e+00
6.616000000000000000e+03 4.883570480346679688e+01 1.837570762634277344e+01 -2.747077345848083496e-01 1.320644140243530273e+00 3.137809038162231445e-01 3.599458932876586914e-01
6.617000000000000000e+03 3.568842697143554688e+01 2.406949996948242188e+00 -2.844912409782409668e-01 -2.015424519777297974e-02 -9.139364212751388550e-02 -5.535744130611419678e-02
6.618000000000000000e+03 3.926422500610351562e+01 2.509861290454864502e-01 6.128208246082067490e-03 5.120582580566406250e-01 1.554559320211410522e-01 9.121785312891006470e-02
6.619000000000000000e+03 4.289231491088867188e+01 9.816871643066406250e+00 -3.415304124355316162e-01 7.129076123237609863e-01 1.114131659269332886e-01 -2.906671725213527679e-03
6.620000000000000000e+03 4.179556655883789062e+01 1.205993080139160156e+01 -4.531838893890380859e-01 3.126462399959564209e-01 -4.216130077838897705e-02 -1.829588562250137329e-01
6.621000000000000000e+03 6.106606674194335938e+01 2.555193519592285156e+01 -8.049585819244384766e-01 7.983747005462646484e+00 2.153636455535888672e+00 1.654819130897521973e+00
6.622000000000000000e+03 6.227376937866210938e+01 2.433237648010253906e+01 -1.088652610778808594e+00 8.405273437500000000e+00 2.194986343383789062e+00 1.007175087928771973e+00
6.623000000000000000e+03 3.608203887939453125e+01 2.815247058868408203e+00 -2.975769340991973877e-01 1.819328777492046356e-02 -8.381509780883789062e-02 -6.796098500490188599e-02
6.624000000000000000e+03 6.107158660888671875e+01 2.610477447509765625e+01 -7.404202222824096680e-01 8.184713363647460938e+00 2.233288049697875977e+00 1.783131361007690430e+00
6.625000000000000000e+03 3.883470535278320312e+01 6.023432731628417969e+00 -3.588588833808898926e-01 2.371266931295394897e-01 -3.651965409517288208e-02 -1.132212579250335693e-01
6.626000000000000000e+03 3.844120025634765625e+01 6.459748744964599609e+00 -4.035803377628326416e-01 1.474578678607940674e-01 -7.683673501014709473e-02 -1.638075411319732666e-01
6.627000000000000000e+03 6.054221343994140625e+01 2.557538795471191406e+01 -6.756359338760375977e-01 7.540507793426513672e+00 2.059461593627929688e+00 1.818937301635742188e+00
6.628000000000000000e+03 6.157361221313476562e+01 2.318460655212402344e+01 -1.017751336097717285e+00 7.639113426208496094e+00 1.986408710479736328e+00 1.088443994522094727e+00
6.629000000000000000e+03 6.174708557128906250e+01 2.274693679809570312e+01 -1.039195418357849121e+00 7.609651565551757812e+00 1.971136808395385742e+00 9.858515262603759766e-01
6.630000000000000000e+03 2.021928977966308594e+01 2.514655494689941406e+01 1.075830683112144470e-02 9.155846387147903442e-02 3.069503046572208405e-02 4.045337811112403870e-02
6.631000000000000000e+03 6.072440338134765625e+01 1.229848098754882812e+01 -6.414210796356201172e-01 5.732121467590332031e+00 1.527210116386413574e+00 4.913946390151977539e-01
6.632000000000000000e+03 6.006849288940429688e+01 1.203543663024902344e+01 -5.992011427879333496e-01 5.523832321166992188e+00 1.477389335632324219e+00 5.232635140419006348e-01
6.633000000000000000e+03 6.010466384887695312e+01 2.617294311523437500e+01 -4.829158484935760498e-01 7.261040687561035156e+00 2.033437490463256836e+00 2.062382221221923828e+00
6.634000000000000000e+03 3.724253463745117188e+01 1.267149209976196289e+00 -1.087874472141265869e-01 2.079296857118606567e-01 2.974266931414604187e-02 2.993263490498065948e-02
6.635000000000000000e+03 3.793603515625000000e+01 4.408158302307128906e+00 -3.176125586032867432e-01 1.840359270572662354e-01 -4.007298499345779419e-02 -8.275820314884185791e-02
6.636000000000000000e+03 5.986601638793945312e+01 3.990337133407592773e+00 -2.935460209846496582e-01 5.164000034332275391e+00 1.461136221885681152e+00 3.914110958576202393e-01
6.637000000000000000e+03 5.857442474365234375e+01 -4.811913073062896729e-01 -1.699166297912597656e-01 4.750486373901367188e+00 1.374170899391174316e+00 3.625893592834472656e-01
6.638000000000000000e+03 2.118027877807617188e+01 2.473670387268066406e+01 1.410941313952207565e-02 9.556894004344940186e-02 3.290350735187530518e-02 4.736341536045074463e-02
6.639000000000000000e+03 6.240147781372070312e+01 1.977730751037597656e+01 -1.042697668075561523e+00 7.196099758148193359e+00 1.846020579338073730e+00 5.908702015876770020e-01
6.640000000000000000e+03 6.169386672973632812e+01 1.832877922058105469e+01 -9.482827782630920410e-01 6.687674999237060547e+00 1.721817731857299805e+00 6.381226778030395508e-01
6.641000000000000000e+03 6.113392257690429688e+01 1.330401992797851562e+01 -6.919261813163757324e-01 5.940002918243408203e+00 1.574422955513000488e+00 4.820399880409240723e-01
6.642000000000000000e+03 6.183715057373046875e+01 1.531321525573730469e+01 -8.240221142768859863e-01 6.339550495147705078e+00 1.654658555984497070e+00 4.927703142166137695e-01
6.643000000000000000e+03 6.210341644287109375e+01 2.145017433166503906e+01 -1.063599348068237305e+00 7.411302089691162109e+00 1.904310822486877441e+00 7.833849787712097168e-01
6.644000000000000000e+03 3.770658874511718750e+01 1.680523395538330078e+00 -1.243126243352890015e-01 2.589521706104278564e-01 4.039186611771583557e-02 3.083607926964759827e-02
6.645000000000000000e+03 3.714693832397460938e+01 2.097406148910522461e+00 -1.845814585685729980e-01 1.717687249183654785e-01 -3.843819024041295052e-03 -1.442408422008156776e-03
6.646000000000000000e+03 4.009175109863281250e+01 7.127739906311035156e+00 -3.485312461853027344e-01 3.745098114013671875e-01 7.793575990945100784e-03 -9.113697707653045654e-02
6.647000000000000000e+03 3.889291000366210938e+01 6.775408267974853516e+00 -3.934091925621032715e-01 1.959276944398880005e-01 -5.924444645643234253e-02 -1.473593711853027344e-01
6.648000000000000000e+03 4.848404693603515625e+01 -2.920219659805297852e+00 3.093408420681953430e-02 2.408234596252441406e+00 7.317506074905395508e-01 2.586279213428497314e-01
6.649000000000000000e+03 5.374824142456054688e+01 2.036047172546386719e+01 -2.690043747425079346e-01 2.979610443115234375e+00 8.131818175315856934e-01 1.009539961814880371e+00
6.650000000000000000e+03 4.667254257202148438e+01 -1.734208464622497559e+00 3.678472712635993958e-02 1.986365437507629395e+00 6.069450378417968750e-01 2.425087541341781616e-01
6.651000000000000000e+03 4.577672195434570312e+01 -1.835338115692138672e+00 6.139896064996719360e-02 1.808949947357177734e+00 5.611046552658081055e-01 2.184077501296997070e-01
6.652000000000000000e+03 4.240454864501953125e+01 -2.706374973058700562e-02 3.985005244612693787e-02 1.077394604682922363e+00 3.351733982563018799e-01 1.637091934680938721e-01
6.653000000000000000e+03 4.487218856811523438e+01 -9.592584371566772461e-01 5.163132399320602417e-02 1.592889904975891113e+00 4.933563768863677979e-01 2.120149582624435425e-01
6.654000000000000000e+03 4.321664047241210938e+01 -9.716942906379699707e-02 2.642749063670635223e-02 1.234340548515319824e+00 3.782304227352142334e-01 1.807605028152465820e-01
6.655000000000000000e+03 2.044726562500000000e+01 2.261483573913574219e+01 1.758773997426033020e-02 1.044060662388801575e-01 3.659814223647117615e-02 5.124765262007713318e-02
6.656000000000000000e+03 6.164115524291992188e+01 2.191465568542480469e+01 -1.029347062110900879e+00 7.337300777435302734e+00 1.892386078834533691e+00 9.261866211891174316e-01
6.657000000000000000e+03 6.258575820922851562e+01 2.199074745178222656e+01 -1.108045697212219238e+00 7.778816699981689453e+00 2.001231193542480469e+00 6.860126852989196777e-01
6.658000000000000000e+03 5.149865341186523438e+01 -8.671559333801269531e+00 8.776850998401641846e-03 3.207573652267456055e+00 9.649051427841186523e-01 2.011288553476333618e-01
6.659000000000000000e+03 4.984162139892578125e+01 -5.673837661743164062e+00 3.330349922180175781e-02 2.779098510742187500e+00 8.437205553054809570e-01 2.306153327226638794e-01
6.660000000000000000e+03 5.792927932739257812e+01 -4.968189239501953125e+00 -8.483407646417617798e-02 4.618316650390625000e+00 1.360044717788696289e+00 3.319716155529022217e-01
6.661000000000000000e+03 5.219347763061523438e+01 -3.840579748153686523e+00 -2.384564094245433807e-02 3.288601160049438477e+00 9.794266819953918457e-01 3.064890503883361816e-01
6.662000000000000000e+03 6.071291351318359375e+01 1.401954555511474609e+01 -7.153434753417968750e-01 5.870127677917480469e+00 1.546435236930847168e+00 5.484716296195983887e-01
6.663000000000000000e+03 5.886838150024414062e+01 3.077779531478881836e+00 -2.544749379158020020e-01 4.876088619232177734e+00 1.386484146118164062e+00 4.041300117969512939e-01
6.664000000000000000e+03 5.538562011718750000e+01 -8.757946014404296875e+00 -3.925263881683349609e-02 4.085182666778564453e+00 1.213778972625732422e+00 2.812391519546508789e-01
6.665000000000000000e+03 6.073784255981445312e+01 5.818295001983642578e+00 -3.660545647144317627e-01 5.418839931488037109e+00 1.515835642814636230e+00 3.851904273033142090e-01
6.666000000000000000e+03 5.947813796997070312e+01 5.924059391021728516e+00 -3.526530861854553223e-01 5.107831954956054688e+00 1.426553606986999512e+00 4.232920706272125244e-01
6.667000000000000000e+03 5.183992385864257812e+01 -7.325032234191894531e+00 5.774738732725381851e-03 3.265860795974731445e+00 9.814906716346740723e-01 2.362911105155944824e-01
6.668000000000000000e+03 2.064597129821777344e+01 2.379375648498535156e+01 1.540594641119241714e-02 9.902232885360717773e-02 3.432848304510116577e-02 4.720881208777427673e-02
6.669000000000000000e+03 5.804218673706054688e+01 -1.194432616233825684e+00 -1.440645307302474976e-01 4.642604351043701172e+00 1.349561929702758789e+00 3.662621676921844482e-01
6.670000000000000000e+03 5.971122741699218750e+01 7.005232334136962891e+00 -3.897929787635803223e-01 5.202340126037597656e+00 1.443764209747314453e+00 4.300080835819244385e-01
6.671000000000000000e+03 5.989214324951171875e+01 -1.571958637237548828e+01 -4.921890422701835632e-02 5.125575542449951172e+00 1.522907018661499023e+00 3.223843276500701904e-01
6.672000000000000000e+03 1.914747238159179688e+01 2.430735778808593750e+01 9.008917026221752167e-03 9.148756414651870728e-02 3.014894574880599976e-02 3.876917809247970581e-02
6.673000000000000000e+03 4.574769973754882812e+01 -8.998060822486877441e-01 2.790695428848266602e-02 1.775767922401428223e+00 5.411024689674377441e-01 2.345015555620193481e-01
6.674000000000000000e+03 4.261217498779296875e+01 1.466761589050292969e+00 -2.405712939798831940e-02 1.078940272331237793e+00 3.164649605751037598e-01 1.708539873361587524e-01
6.675000000000000000e+03 5.825585937500000000e+01 1.431682229042053223e+00 -1.999945193529129028e-01 4.722288608551025391e+00 1.356688261032104492e+00 3.912289440631866455e-01
6.676000000000000000e+03 5.289789962768554688e+01 -7.651368618011474609e+00 -1.347613427788019180e-02 3.496994018554687500e+00 1.045055389404296875e+00 2.512954771518707275e-01
6.677000000000000000e+03 5.366809463500976562e+01 -8.962885856628417969e+00 -2.130479738116264343e-02 3.718579530715942383e+00 1.109182476997375488e+00 2.489591687917709351e-01
6.678000000000000000e+03 5.944857025146484375e+01 -8.367938995361328125e+00 -6.938099861145019531e-02 4.966171741485595703e+00 1.469037294387817383e+00 3.182702660560607910e-01
6.679000000000000000e+03 5.789986801147460938e+01 -6.614646911621093750e+00 -7.346280664205551147e-02 4.614228248596191406e+00 1.362229704856872559e+00 3.171338140964508057e-01
6.680000000000000000e+03 5.996704483032226562e+01 7.978261947631835938e+00 -4.445028901100158691e-01 5.316307067871093750e+00 1.461541175842285156e+00 4.440922737121582031e-01
6.681000000000000000e+03 5.782727050781250000e+01 2.317960500717163086e+00 -2.221541404724121094e-01 4.625367164611816406e+00 1.320963859558105469e+00 4.064271152019500732e-01
6.682000000000000000e+03 5.474774932861328125e+01 -1.007060432434082031e+01 -3.927303105592727661e-02 3.962956905364990234e+00 1.177105188369750977e+00 2.551879286766052246e-01
6.683000000000000000e+03 5.702949905395507812e+01 -7.432700157165527344e+00 -6.007434800267219543e-02 4.418222427368164062e+00 1.307444334030151367e+00 3.069435656070709229e-01
6.684000000000000000e+03 5.848237609863281250e+01 -9.348690032958984375e+00 -6.189746409654617310e-02 4.771822452545166016e+00 1.412977457046508789e+00 3.042299747467041016e-01
6.685000000000000000e+03 4.583850479125976562e+01 1.275065708160400391e+01 -3.182443678379058838e-01 1.131793498992919922e+00 2.440647333860397339e-01 1.521818041801452637e-01
6.686000000000000000e+03 4.587186813354492188e+01 1.356344795227050781e+01 -3.305962085723876953e-01 1.051426529884338379e+00 2.162491083145141602e-01 1.315906941890716553e-01
6.687000000000000000e+03 5.210770797729492188e+01 2.130085563659667969e+01 -1.774414628744125366e-01 2.108031034469604492e+00 5.791769027709960938e-01 8.076792359352111816e-01
6.688000000000000000e+03 5.475960540771484375e+01 2.406722450256347656e+01 -2.681333199143409729e-02 2.967372655868530273e+00 8.821678161621093750e-01 1.316976070404052734e+00
6.689000000000000000e+03 5.926494216918945312e+01 2.464386177062988281e+01 -5.133011937141418457e-01 6.282186031341552734e+00 1.730665445327758789e+00 1.790422916412353516e+00
6.690000000000000000e+03 5.935245132446289062e+01 2.693488311767578125e+01 -9.983199089765548706e-02 6.532587051391601562e+00 1.929826498031616211e+00 2.390298366546630859e+00
6.691000000000000000e+03 5.794968414306640625e+01 2.719927597045898438e+01 3.375931084156036377e-01 4.853616237640380859e+00 1.557362794876098633e+00 2.295253276824951172e+00
6.692000000000000000e+03 5.385210037231445312e+01 2.202027130126953125e+01 -1.673037260770797729e-01 2.827119350433349609e+00 7.979446649551391602e-01 1.098912358283996582e+00
6.693000000000000000e+03 5.369739913940429688e+01 2.250162124633789062e+01 -1.290025711059570312e-01 2.677585124969482422e+00 7.645747661590576172e-01 1.089729189872741699e+00
6.694000000000000000e+03 4.676345062255859375e+01 1.452622127532958984e+01 -3.147996068000793457e-01 1.187722086906433105e+00 2.618767321109771729e-01 1.967426836490631104e-01
6.695000000000000000e+03 5.426737213134765625e+01 2.219018173217773438e+01 -1.749395132064819336e-01 2.994034290313720703e+00 8.457283973693847656e-01 1.159123420715332031e+00
6.696000000000000000e+03 4.746683883666992188e+01 1.600223159790039062e+01 -3.133003413677215576e-01 1.205394268035888672e+00 2.676281630992889404e-01 2.391509264707565308e-01
6.697000000000000000e+03 5.120468902587890625e+01 2.012462425231933594e+01 -2.219779789447784424e-01 1.918477416038513184e+00 5.089498162269592285e-01 6.709802746772766113e-01
6.698000000000000000e+03 5.120422744750976562e+01 2.063900947570800781e+01 -2.086401581764221191e-01 1.836125493049621582e+00 4.882455766201019287e-01 6.679275631904602051e-01
6.699000000000000000e+03 5.267652511596679688e+01 2.083623504638671875e+01 -2.065049856901168823e-01 2.425651073455810547e+00 6.657438278198242188e-01 8.864744901657104492e-01
6.700000000000000000e+03 5.217908477783203125e+01 2.074538040161132812e+01 -2.032048255205154419e-01 2.222548484802246094e+00 6.058030724525451660e-01 8.139131665229797363e-01
6.701000000000000000e+03 4.702832031250000000e+01 1.557776927947998047e+01 -3.146252334117889404e-01 1.149671316146850586e+00 2.505138218402862549e-01 1.983827650547027588e-01
6.702000000000000000e+03 4.834373855590820312e+01 1.564155769348144531e+01 -2.920568585395812988e-01 1.499378561973571777e+00 3.621965050697326660e-01 3.452750444412231445e-01
6.703000000000000000e+03 5.069005584716796875e+01 2.014498138427734375e+01 -2.249828726053237915e-01 1.717292785644531250e+00 4.476929605007171631e-01 5.924326777458190918e-01
6.704000000000000000e+03 5.428469085693359375e+01 2.369572448730468750e+01 -3.881770744919776917e-02 2.752549886703491211e+00 8.141196370124816895e-01 1.214590907096862793e+00
6.705000000000000000e+03 4.854444885253906250e+01 1.756406784057617188e+01 -2.854779660701751709e-01 1.336693525314331055e+00 3.153646588325500488e-01 3.434122800827026367e-01
6.706000000000000000e+03 4.827991485595703125e+01 1.712667655944824219e+01 -2.940011918544769287e-01 1.314327836036682129e+00 3.060979843139648438e-01 3.156591653823852539e-01
6.707000000000000000e+03 4.308238601684570312e+01 1.242046451568603516e+01 -4.092178344726562500e-01 5.341923832893371582e-01 3.749236091971397400e-02 -8.622173219919204712e-02
6.708000000000000000e+03 4.759808349609375000e+01 1.513763141632080078e+01 -3.047620952129364014e-01 1.355394005775451660e+00 3.151895701885223389e-01 2.702586054801940918e-01
6.709000000000000000e+03 4.731240844726562500e+01 1.474027442932128906e+01 -3.034900426864624023e-01 1.316899180412292480e+00 3.040227591991424561e-01 2.552148401737213135e-01
6.710000000000000000e+03 5.520648193359375000e+01 2.494401550292968750e+01 8.265354484319686890e-02 3.075043439865112305e+00 9.473090767860412598e-01 1.438832879066467285e+00
6.711000000000000000e+03 5.898570251464843750e+01 2.717518424987792969e+01 8.327276259660720825e-02 6.052492141723632812e+00 1.840729475021362305e+00 2.436944007873535156e+00
6.712000000000000000e+03 4.465370178222656250e+01 1.293894577026367188e+01 -3.555631339550018311e-01 8.314310312271118164e-01 1.427603811025619507e-01 3.638890385627746582e-02
6.713000000000000000e+03 4.240391921997070312e+01 9.992704391479492188e+00 -3.671022951602935791e-01 6.023416519165039062e-01 7.057180255651473999e-02 -4.163587838411331177e-02
6.714000000000000000e+03 4.078808593750000000e+01 8.303445816040039062e+00 -3.761099576950073242e-01 4.149475097656250000e-01 1.165126357227563858e-02 -9.151749312877655029e-02
6.715000000000000000e+03 4.194163894653320312e+01 8.966051101684570312e+00 -3.528937399387359619e-01 5.780835747718811035e-01 6.755694746971130371e-02 -3.744941949844360352e-02
6.716000000000000000e+03 4.941553497314453125e+01 1.901802444458007812e+01 -2.640456855297088623e-01 1.424927949905395508e+00 3.482646644115447998e-01 4.211421310901641846e-01
6.717000000000000000e+03 4.038952636718750000e+01 7.572221755981445312e+00 -3.618290722370147705e-01 3.946684896945953369e-01 9.851817041635513306e-03 -8.651205897331237793e-02
6.718000000000000000e+03 4.163251113891601562e+01 8.448225975036621094e+00 -3.461080789566040039e-01 5.564571619033813477e-01 6.310471892356872559e-02 -3.986270353198051453e-02
6.719000000000000000e+03 4.182516860961914062e+01 1.098385334014892578e+01 -4.220162332057952881e-01 4.114446640014648438e-01 -3.171465126797556877e-03 -1.311154216527938843e-01
6.720000000000000000e+03 5.507150650024414062e+01 2.270752334594726562e+01 -1.642975211143493652e-01 3.379943609237670898e+00 9.646938443183898926e-01 1.307870507240295410e+00
6.721000000000000000e+03 5.906567382812500000e+01 2.534594345092773438e+01 -3.660809993743896484e-01 6.175567150115966797e+00 1.742845892906188965e+00 1.968310356140136719e+00
6.722000000000000000e+03 5.697409820556640625e+01 2.590853691101074219e+01 1.234067305922508240e-01 4.171211242675781250e+00 1.288385391235351562e+00 1.892471432685852051e+00
6.723000000000000000e+03 4.180118560791015625e+01 7.603644371032714844e+00 -3.057078421115875244e-01 6.456209421157836914e-01 1.019739285111427307e-01 1.153129036538302898e-03
6.724000000000000000e+03 4.219548034667968750e+01 9.487496376037597656e+00 -3.579840958118438721e-01 5.946220755577087402e-01 7.099138945341110229e-02 -4.219179973006248474e-02
6.725000000000000000e+03 4.261221694946289062e+01 1.195856857299804688e+01 -4.199535250663757324e-01 4.734413921833038330e-01 1.604636199772357941e-02 -1.086402758955955505e-01
6.726000000000000000e+03 4.207765197753906250e+01 1.148801040649414062e+01 -4.303426146507263184e-01 4.135050475597381592e-01 -5.051271058619022369e-03 -1.330496966838836670e-01
6.727000000000000000e+03 5.618828201293945312e+01 2.563078880310058594e+01 1.509605199098587036e-01 3.586301326751708984e+00 1.121178627014160156e+00 1.699408411979675293e+00
6.728000000000000000e+03 4.168139266967773438e+01 1.166492843627929688e+01 -4.503449797630310059e-01 3.190907239913940430e-01 -3.937627747654914856e-02 -1.766743957996368408e-01
6.729000000000000000e+03 5.994798660278320312e+01 2.506610870361328125e+01 -6.034210920333862305e-01 6.908428668975830078e+00 1.891502261161804199e+00 1.831725955009460449e+00
6.730000000000000000e+03 4.018387222290039062e+01 6.350589275360107422e+00 -3.138337731361389160e-01 4.395762681961059570e-01 3.772274032235145569e-02 -5.291534960269927979e-02
6.731000000000000000e+03 4.934331130981445312e+01 1.956927871704101562e+01 -2.548124194145202637e-01 1.337385416030883789e+00 3.247719109058380127e-01 4.039356708526611328e-01
6.732000000000000000e+03 3.792002487182617188e+01 5.338588714599609375e+00 -3.720816969871520996e-01 1.433035880327224731e-01 -6.863342970609664917e-02 -1.291896402835845947e-01
6.733000000000000000e+03 3.972022247314453125e+01 6.718449115753173828e+00 -3.499059677124023438e-01 3.313397169113159180e-01 -5.569876637309789658e-03 -9.304028749465942383e-02
6.734000000000000000e+03 3.752569198608398438e+01 2.561895608901977539e+00 -2.107642292976379395e-01 2.047764658927917480e-01 -1.796330092474818230e-03 -1.040518656373023987e-02
6.735000000000000000e+03 3.874645233154296875e+01 1.360350370407104492e+00 -6.811977177858352661e-02 4.139573276042938232e-01 1.037512645125389099e-01 6.099966913461685181e-02
6.736000000000000000e+03 6.161988449096679688e+01 2.434000587463378906e+01 -9.896678924560546875e-01 7.993872642517089844e+00 2.101261377334594727e+00 1.244980335235595703e+00
6.737000000000000000e+03 6.003488922119140625e+01 2.564953994750976562e+01 -5.487733483314514160e-01 7.104712009429931641e+00 1.966781616210937500e+00 1.947823882102966309e+00
6.738000000000000000e+03 6.113879013061523438e+01 2.045701026916503906e+01 -9.640578627586364746e-01 6.823861598968505859e+00 1.757941126823425293e+00 8.742477893829345703e-01
6.739000000000000000e+03 6.162983322143554688e+01 2.496792221069335938e+01 -9.630901217460632324e-01 8.205605506896972656e+00 2.172754764556884766e+00 1.337277770042419434e+00
6.740000000000000000e+03 5.442394638061523438e+01 1.989235115051269531e+01 -3.283325135707855225e-01 3.350683450698852539e+00 9.067053198814392090e-01 1.050786256790161133e+00
6.741000000000000000e+03 3.836920166015625000e+01 5.697975158691406250e+00 -3.611825704574584961e-01 1.889027506113052368e-01 -5.168395116925239563e-02 -1.236933544278144836e-01
6.742000000000000000e+03 6.104489517211914062e+01 2.304047012329101562e+01 -9.479590058326721191e-01 7.299361228942871094e+00 1.905420660972595215e+00 1.207441329956054688e+00
6.743000000000000000e+03 6.203333282470703125e+01 2.314421463012695312e+01 -1.073500990867614746e+00 7.874744415283203125e+00 2.040373086929321289e+00 9.504261612892150879e-01
6.744000000000000000e+03 3.815003967285156250e+01 1.150367736816406250e+00 -7.738186419010162354e-02 3.271924853324890137e-01 7.494319230318069458e-02 5.380416661500930786e-02
6.745000000000000000e+03 4.176663208007812500e+01 8.461423516273498535e-01 2.862170571461319923e-03 9.356642961502075195e-01 2.815579175949096680e-01 1.449476927518844604e-01
6.746000000000000000e+03 4.281229400634765625e+01 7.772627353668212891e+00 -2.799125015735626221e-01 8.344212174415588379e-01 1.663526147603988647e-01 5.838140472769737244e-02
6.747000000000000000e+03 4.315428924560546875e+01 1.291329288482666016e+01 -4.153122603893280029e-01 4.961178600788116455e-01 2.424168027937412262e-02 -1.004472523927688599e-01
6.748000000000000000e+03 6.158065414428710938e+01 2.007812309265136719e+01 -9.925536513328552246e-01 6.918918132781982422e+00 1.777909278869628906e+00 7.640964388847351074e-01
6.749000000000000000e+03 6.160210037231445312e+01 2.095946693420410156e+01 -1.015749812126159668e+00 7.108776092529296875e+00 1.827907919883728027e+00 8.364349603652954102e-01
6.750000000000000000e+03 4.774806213378906250e+01 -2.355592966079711914e+00 3.957759961485862732e-02 2.240054130554199219e+00 6.838895082473754883e-01 2.481347918510437012e-01
6.751000000000000000e+03 6.030776596069335938e+01 1.475414276123046875e+01 -7.347963452339172363e-01 5.785026550292968750e+00 1.515069007873535156e+00 6.120088696479797363e-01
6.752000000000000000e+03 6.141738510131835938e+01 1.692827987670898438e+01 -8.777278065681457520e-01 6.404760360717773438e+00 1.658109784126281738e+00 5.965546369552612305e-01
6.753000000000000000e+03 5.724270629882812500e+01 -5.430541038513183594e-01 -1.549922376871109009e-01 4.444129467010498047e+00 1.286741137504577637e+00 3.803884983062744141e-01
6.754000000000000000e+03 6.023387908935546875e+01 1.149479770660400391e+01 -5.939221978187561035e-01 5.533451557159423828e+00 1.481858849525451660e+00 4.999220073223114014e-01
6.755000000000000000e+03 6.094264602661132812e+01 1.159536647796630859e+01 -6.082655787467956543e-01 5.749948978424072266e+00 1.542505025863647461e+00 4.505163729190826416e-01
6.756000000000000000e+03 5.800439453125000000e+01 9.298190116882324219e+00 -4.454328417778015137e-01 4.798046588897705078e+00 1.305784106254577637e+00 5.371011495590209961e-01
6.757000000000000000e+03 4.657497406005859375e+01 8.735524863004684448e-02 -4.085228312760591507e-03 1.931504964828491211e+00 5.782259106636047363e-01 2.633109092712402344e-01
6.758000000000000000e+03 6.127061462402343750e+01 2.243371391296386719e+01 -9.929597973823547363e-01 7.279176712036132812e+00 1.885865092277526855e+00 1.067605853080749512e+00
6.759000000000000000e+03 5.679713439941406250e+01 1.674605965614318848e+00 -1.905147582292556763e-01 4.347430706024169922e+00 1.247074723243713379e+00 4.081907570362091064e-01
6.760000000000000000e+03 6.036243438720703125e+01 1.296674156188964844e+01 -6.572608351707458496e-01 5.675151348114013672e+00 1.505367159843444824e+00 5.426508188247680664e-01
6.761000000000000000e+03 3.921007537841796875e+01 5.562791347503662109e+00 -3.156835138797760010e-01 3.261487483978271484e-01 3.139571752399206161e-03 -7.140086591243743896e-02
6.762000000000000000e+03 3.994830703735351562e+01 3.571676015853881836e-01 -3.471723524853587151e-03 6.282576918601989746e-01 1.874357759952545166e-01 1.093205511569976807e-01
6.763000000000000000e+03 4.488701629638671875e+01 -7.647633552551269531e-02 1.705694012343883514e-02 1.567792534828186035e+00 4.754548668861389160e-01 2.225545793771743774e-01
6.764000000000000000e+03 5.715213012695312500e+01 -5.792540073394775391e+00 -6.724622100591659546e-02 4.439504146575927734e+00 1.311677336692810059e+00 3.228271603584289551e-01
6.765000000000000000e+03 5.803050994873046875e+01 3.953437566757202148e+00 -2.686747312545776367e-01 4.689663887023925781e+00 1.326296806335449219e+00 4.259846806526184082e-01
6.766000000000000000e+03 3.846083831787109375e+01 2.715431928634643555e+00 -1.852242350578308105e-01 3.313160240650177002e-01 4.382753744721412659e-02 1.690735295414924622e-02
6.767000000000000000e+03 5.901619338989257812e+01 9.323364257812500000e+00 -4.758625924587249756e-01 5.094112873077392578e+00 1.385475039482116699e+00 5.044935941696166992e-01
6.768000000000000000e+03 5.787318801879882812e+01 5.510414600372314453e+00 -3.187330663204193115e-01 4.671796798706054688e+00 1.305919051170349121e+00 4.589337110519409180e-01
6.769000000000000000e+03 5.066080093383789062e+01 -7.111718177795410156e+00 2.392876334488391876e-02 2.990074157714843750e+00 9.042008519172668457e-01 2.190055549144744873e-01
6.770000000000000000e+03 5.091382980346679688e+01 -5.899041652679443359e+00 2.136652544140815735e-02 3.023126125335693359e+00 9.133477807044982910e-01 2.426000386476516724e-01
6.771000000000000000e+03 5.299235534667968750e+01 -3.912291765213012695e+00 -3.374497219920158386e-02 3.466552972793579102e+00 1.029842376708984375e+00 3.119145035743713379e-01
6.772000000000000000e+03 5.998680496215820312e+01 9.351469039916992188e+00 -4.944141805171966553e-01 5.370306968688964844e+00 1.462767720222473145e+00 4.688456952571868896e-01
6.773000000000000000e+03 5.679403305053710938e+01 -9.148692131042480469e+00 -4.808305576443672180e-02 4.388739109039306641e+00 1.302196860313415527e+00 2.898275554180145264e-01
6.774000000000000000e+03 5.364805603027343750e+01 -6.900449275970458984e+00 -2.656261995434761047e-02 3.656845808029174805e+00 1.089084982872009277e+00 2.684214115142822266e-01
6.775000000000000000e+03 5.579733657836914062e+01 -9.747306823730468750e+00 -4.137541353702545166e-02 4.184274196624755859e+00 1.242869615554809570e+00 2.782303392887115479e-01
6.776000000000000000e+03 5.692425918579101562e+01 -2.781840324401855469e+00 -1.013304516673088074e-01 4.383225440979003906e+00 1.284568428993225098e+00 3.519424796104431152e-01
6.777000000000000000e+03 5.644650650024414062e+01 -5.025932788848876953e+00 -7.066097110509872437e-02 4.276930809020996094e+00 1.261880874633789062e+00 3.295847475528717041e-01
6.778000000000000000e+03 5.204594039916992188e+01 -6.037041664123535156e+00 -4.633561766240745783e-04 3.291489839553833008e+00 9.873079061508178711e-01 2.611505687236785889e-01
6.779000000000000000e+03 5.578590011596679688e+01 -4.326346397399902344e+00 -6.882233917713165283e-02 4.120618820190429688e+00 1.215538859367370605e+00 3.341771066188812256e-01
6.780000000000000000e+03 5.475788879394531250e+01 -8.083070755004882812e+00 -3.416544198989868164e-02 3.918038606643676758e+00 1.165161967277526855e+00 2.723764479160308838e-01
6.781000000000000000e+03 5.059334564208984375e+01 1.926657485961914062e+01 -2.387259751558303833e-01 1.821222782135009766e+00 4.747490286827087402e-01 5.851969122886657715e-01
6.782000000000000000e+03 5.766770172119140625e+01 2.715510368347167969e+01 3.674898147583007812e-01 4.543377876281738281e+00 1.473260283470153809e+00 2.227343082427978516e+00
6.783000000000000000e+03 5.711977767944335938e+01 2.632694244384765625e+01 2.081023752689361572e-01 4.227542877197265625e+00 1.330693483352661133e+00 1.978870630264282227e+00
6.784000000000000000e+03 4.895692062377929688e+01 1.788941001892089844e+01 -2.780181765556335449e-01 1.425371170043945312e+00 3.442059159278869629e-01 3.803844451904296875e-01
6.785000000000000000e+03 5.516991806030273438e+01 2.399862289428710938e+01 -4.418877512216567993e-02 3.224725723266601562e+00 9.541611075401306152e-01 1.393766045570373535e+00
6.786000000000000000e+03 5.519876861572265625e+01 2.446619796752929688e+01 9.575951844453811646e-03 3.166303157806396484e+00 9.527637362480163574e-01 1.417405247688293457e+00
6.787000000000000000e+03 5.318380737304687500e+01 2.094614028930664062e+01 -2.143066823482513428e-01 2.652540683746337891e+00 7.314701676368713379e-01 9.668146371841430664e-01
6.788000000000000000e+03 5.961204528808593750e+01 2.628763580322265625e+01 -3.310341536998748779e-01 6.754453182220458984e+00 1.927025675773620605e+00 2.167395353317260742e+00
6.789000000000000000e+03 5.451202392578125000e+01 2.175476264953613281e+01 -2.237131297588348389e-01 3.177093744277954102e+00 8.860141634941101074e-01 1.163119912147521973e+00
6.790000000000000000e+03 5.379887008666992188e+01 2.154197502136230469e+01 -2.042477428913116455e-01 2.853522062301635742e+00 7.947822809219360352e-01 1.068367242813110352e+00
6.791000000000000000e+03 5.430501174926757812e+01 2.322941398620605469e+01 -8.829861134290695190e-02 2.834867238998413086e+00 8.239706158638000488e-01 1.206885457038879395e+00
6.792000000000000000e+03 5.470040130615234375e+01 2.362862586975097656e+01 -5.636243894696235657e-02 3.020827054977416992e+00 8.893393278121948242e-01 1.298076391220092773e+00
6.793000000000000000e+03 4.888359832763671875e+01 1.725679779052734375e+01 -2.827453613281250000e-01 1.489172458648681641e+00 3.619281351566314697e-01 3.843678832054138184e-01
6.794000000000000000e+03 4.786585617065429688e+01 1.584006118774414062e+01 -3.022701442241668701e-01 1.352730631828308105e+00 3.151381611824035645e-01 2.911124825477600098e-01
6.795000000000000000e+03 5.467888259887695312e+01 2.247060585021972656e+01 -1.697284579277038574e-01 3.194270610809326172e+00 9.073626399040222168e-01 1.233020901679992676e+00
6.796000000000000000e+03 5.325090789794921875e+01 2.029936790466308594e+01 -2.500590085983276367e-01 2.774757623672485352e+00 7.574095726013183594e-01 9.487202763557434082e-01
6.797000000000000000e+03 5.273799514770507812e+01 2.023598289489746094e+01 -2.348105013370513916e-01 2.542282104492187500e+00 6.922414302825927734e-01 8.865215182304382324e-01
6.798000000000000000e+03 5.171103668212890625e+01 2.013096237182617188e+01 -2.255392670631408691e-01 2.114659547805786133e+00 5.667361021041870117e-01 7.425876259803771973e-01
6.799000000000000000e+03 4.820834732055664062e+01 1.506982707977294922e+01 -2.942690551280975342e-01 1.518293023109436035e+00 3.672071993350982666e-01 3.347470462322235107e-01
6.800000000000000000e+03 4.256025695800781250e+01 1.140914630889892578e+01 -4.023053348064422607e-01 5.160764455795288086e-01 3.413134440779685974e-02 -8.887304365634918213e-02
6.801000000000000000e+03 4.358708953857421875e+01 1.280721187591552734e+01 -3.954626917839050293e-01 5.994292497634887695e-01 6.118996068835258484e-02 -5.698918923735618591e-02
6.802000000000000000e+03 4.305707931518554688e+01 1.192244720458984375e+01 -3.952350616455078125e-01 5.773729681968688965e-01 5.464138090610504150e-02 -6.860810518264770508e-02
6.803000000000000000e+03 5.500758743286132812e+01 2.310555458068847656e+01 -1.248202919960021973e-01 3.271528005599975586e+00 9.440122842788696289e-01 1.318952083587646484e+00
6.804000000000000000e+03 5.510450363159179688e+01 2.354453849792480469e+01 -9.114126116037368774e-02 3.257231473922729492e+00 9.498270750045776367e-01 1.354512333869934082e+00
6.805000000000000000e+03 4.248326873779296875e+01 8.692421913146972656e+00 -3.219710886478424072e-01 7.079168558120727539e-01 1.157837361097335815e-01 4.866030998528003693e-03
6.806000000000000000e+03 4.221113204956054688e+01 1.068183231353759766e+01 -3.952790498733520508e-01 5.031191110610961914e-01 3.235202282667160034e-02 -8.797059208154678345e-02
6.807000000000000000e+03 5.778573226928710938e+01 2.677065658569335938e+01 2.215788066387176514e-01 4.760618686676025391e+00 1.494659304618835449e+00 2.182779073715209961e+00
6.808000000000000000e+03 6.097524642944335938e+01 2.368600463867187500e+01 -9.122407436370849609e-01 7.394863605499267578e+00 1.944786906242370605e+00 1.323523044586181641e+00
6.809000000000000000e+03 6.104081726074218750e+01 2.495523452758789062e+01 -8.510284423828125000e-01 7.778754711151123047e+00 2.078317880630493164e+00 1.540459871292114258e+00
6.810000000000000000e+03 6.047855377197265625e+01 2.498344612121582031e+01 -7.339450716972351074e-01 7.334762096405029297e+00 1.980245113372802734e+00 1.694805741310119629e+00
6.811000000000000000e+03 5.045907211303710938e+01 1.882819938659667969e+01 -2.500611543655395508e-01 1.845843076705932617e+00 4.787345826625823975e-01 5.809229612350463867e-01
6.812000000000000000e+03 4.939838409423828125e+01 1.846654129028320312e+01 -2.636049389839172363e-01 1.502136707305908203e+00 3.715595304965972900e-01 4.362652301788330078e-01
6.813000000000000000e+03 4.271619033813476562e+01 9.263321876525878906e+00 -3.363627195358276367e-01 7.181157469749450684e-01 1.145259141921997070e-01 6.614291109144687653e-03
6.814000000000000000e+03 3.761164855957031250e+01 3.886231184005737305e+00 -2.932619154453277588e-01 1.674066036939620972e-01 -3.775659203529357910e-02 -7.072854042053222656e-02
6.815000000000000000e+03 3.996551895141601562e+01 2.752782583236694336e+00 -1.297169476747512817e-01 5.696738958358764648e-01 1.319870948791503906e-01 6.722344458103179932e-02
6.816000000000000000e+03 3.659686660766601562e+01 2.463763713836669922e+00 -2.454625964164733887e-01 8.847720921039581299e-02 -4.709561914205551147e-02 -3.542871028184890747e-02
6.817000000000000000e+03 4.864669799804687500e+01 1.693763923645019531e+01 -2.869427204132080078e-01 1.441500306129455566e+00 3.463672995567321777e-01 3.691326677799224854e-01
6.818000000000000000e+03 4.055345916748046875e+01 6.852348804473876953e+00 -3.205051124095916748e-01 4.727188944816589355e-01 4.566413536667823792e-02 -4.547137022018432617e-02
6.819000000000000000e+03 4.088808441162109375e+01 7.392319679260253906e+00 -3.311257958412170410e-01 4.957958161830902100e-01 4.940101131796836853e-02 -5.193812772631645203e-02
6.820000000000000000e+03 4.401888656616210938e+01 1.022293949127197266e+01 -3.217281997203826904e-01 9.151515364646911621e-01 1.780270040035247803e-01 6.942123919725418091e-02
6.821000000000000000e+03 3.973987579345703125e+01 5.873676300048828125e+00 -3.116514384746551514e-01 3.848250508308410645e-01 2.195208892226219177e-02 -5.325055122375488281e-02
6.822000000000000000e+03 4.098468017578125000e+01 1.076420426368713379e+00 -2.800735086202621460e-02 7.882497310638427734e-01 2.280727177858352661e-01 1.240258961915969849e-01
6.823000000000000000e+03 5.677611923217773438e+01 2.564903259277343750e+01 8.963290601968765259e-02 4.096226215362548828e+00 1.255757689476013184e+00 1.830431699752807617e+00
6.824000000000000000e+03 5.560730743408203125e+01 2.489570617675781250e+01 5.357837304472923279e-02 3.352899074554443359e+00 1.021943211555480957e+00 1.527308821678161621e+00
6.825000000000000000e+03 6.158036041259765625e+01 2.373258399963378906e+01 -1.007141113281250000e+00 7.794670581817626953e+00 2.036258935928344727e+00 1.167285442352294922e+00
6.826000000000000000e+03 6.033841323852539062e+01 2.362324523925781250e+01 -8.090657591819763184e-01 6.954131603240966797e+00 1.843519687652587891e+00 1.463602662086486816e+00
6.827000000000000000e+03 5.962152862548828125e+01 1.256648159027099609e+01 -6.122867465019226074e-01 5.419433116912841797e+00 1.442143917083740234e+00 5.682772994041442871e-01
6.828000000000000000e+03 3.728799057006835938e+01 3.390520334243774414e+00 -2.809967100620269775e-01 1.437828093767166138e-01 -4.116417095065116882e-02 -5.997835472226142883e-02
6.829000000000000000e+03 3.971224212646484375e+01 1.069575786590576172e+00 -3.721037134528160095e-02 5.764324069023132324e-01 1.617666184902191162e-01 9.501682221889495850e-02
6.830000000000000000e+03 5.711525726318359375e+01 3.182960271835327148e+00 -2.346783131361007690e-01 4.452571392059326172e+00 1.265367865562438965e+00 4.287257790565490723e-01
6.831000000000000000e+03 5.735077667236328125e+01 8.782060742378234863e-01 -1.743558645248413086e-01 4.481160640716552734e+00 1.292041420936584473e+00 3.982816040515899658e-01
6.832000000000000000e+03 4.257009506225585938e+01 1.045541381835937500e+01 -3.693705797195434570e-01 6.018238663673400879e-01 6.973598897457122803e-02 -4.938827082514762878e-02
6.833000000000000000e+03 3.695663833618164062e+01 2.918138265609741211e+00 -2.566343247890472412e-01 1.208241805434226990e-01 -4.074304178357124329e-02 -4.403338953852653503e-02
6.834000000000000000e+03 3.929895401000976562e+01 6.347089290618896484e+00 -3.561747372150421143e-01 2.845525741577148438e-01 -2.148664742708206177e-02 -1.035378649830818176e-01
6.835000000000000000e+03 3.891617965698242188e+01 4.542404174804687500e+00 -2.743772566318511963e-01 3.306196033954620361e-01 1.687270216643810272e-02 -3.805235773324966431e-02
6.836000000000000000e+03 6.128978347778320312e+01 1.964720153808593750e+01 -9.644581675529479980e-01 6.728174209594726562e+00 1.729114770889282227e+00 7.890650033950805664e-01
6.837000000000000000e+03 4.624089813232421875e+01 1.305521965026855469e+01 -3.159043192863464355e-01 1.197640419006347656e+00 2.645208239555358887e-01 1.769389361143112183e-01
6.838000000000000000e+03 6.100997924804687500e+01 1.843519973754882812e+01 -9.075278043746948242e-01 6.429161071777343750e+00 1.656489968299865723e+00 7.500382661819458008e-01
6.839000000000000000e+03 5.367893218994140625e+01 2.098504066467285156e+01 -2.281818389892578125e-01 2.871973037719726562e+00 7.931373119354248047e-01 1.029394507408142090e+00
6.840000000000000000e+03 6.043508529663085938e+01 2.285619354248046875e+01 -8.576180338859558105e-01 6.851724624633789062e+00 1.798232078552246094e+00 1.324682950973510742e+00
6.841000000000000000e+03 4.784765625000000000e+01 1.371493053436279297e+01 -2.948982119560241699e-01 1.560377478599548340e+00 3.796437978744506836e-01 3.147245645523071289e-01
6.842000000000000000e+03 4.644195556640625000e+01 1.381048679351806641e+01 -3.194482922554016113e-01 1.173375844955444336e+00 2.561782598495483398e-01 1.796557456254959106e-01
6.843000000000000000e+03 4.761102676391601562e+01 1.427673912048339844e+01 -3.026227355003356934e-01 1.439536452293395996e+00 3.410741388797760010e-01 2.847803533077239990e-01
6.844000000000000000e+03 6.059028625488281250e+01 1.638120460510253906e+01 -8.177211284637451172e-01 6.039962291717529297e+00 1.566672325134277344e+00 6.703869700431823730e-01
6.845000000000000000e+03 5.903699874877929688e+01 1.658634757995605469e+01 -7.208735942840576172e-01 5.468271732330322266e+00 1.424219369888305664e+00 8.098112940788269043e-01
6.846000000000000000e+03 5.993608093261718750e+01 1.553536796569824219e+01 -7.434648275375366211e-01 5.717156410217285156e+00 1.492107510566711426e+00 6.802857518196105957e-01
6.847000000000000000e+03 5.110325622558593750e+01 -4.765026569366455078e+00 6.307167466729879379e-03 3.055877923965454102e+00 9.186555147171020508e-01 2.674152851104736328e-01
6.848000000000000000e+03 5.637342834472656250e+01 -3.580484628677368164e+00 -8.743415772914886475e-02 4.258294105529785156e+00 1.251258015632629395e+00 3.440072536468505859e-01
6.849000000000000000e+03 5.995285415649414062e+01 1.365503406524658203e+01 -6.698096394538879395e-01 5.603107452392578125e+00 1.479989409446716309e+00 5.856021642684936523e-01
6.850000000000000000e+03 4.252811431884765625e+01 7.410928010940551758e-01 -4.324499052017927170e-03 1.080366492271423340e+00 3.228126168251037598e-01 1.698467433452606201e-01
6.851000000000000000e+03 4.410843276977539062e+01 1.511646270751953125e+00 -2.362948469817638397e-02 1.372423887252807617e+00 4.046383202075958252e-01 2.074662297964096069e-01
6.852000000000000000e+03 4.659462356567382812e+01 9.811682701110839844e-01 -1.992753334343433380e-02 1.910134315490722656e+00 5.670620203018188477e-01 2.731162607669830322e-01
6.853000000000000000e+03 4.659785461425781250e+01 -8.127641081809997559e-01 2.111356332898139954e-02 1.952405571937561035e+00 5.920557379722595215e-01 2.525266110897064209e-01
6.854000000000000000e+03 5.650798034667968750e+01 1.873587518930435181e-01 -1.489510089159011841e-01 4.271785736083984375e+00 1.236850500106811523e+00 3.929259479045867920e-01
6.855000000000000000e+03 5.793690490722656250e+01 1.475428789854049683e-01 -1.663399636745452881e-01 4.635769844055175781e+00 1.340828895568847656e+00 3.805179595947265625e-01
6.856000000000000000e+03 5.714818191528320312e+01 -4.249217033386230469e+00 -8.411748707294464111e-02 4.437611103057861328e+00 1.306048035621643066e+00 3.371523022651672363e-01
6.857000000000000000e+03 5.938951110839843750e+01 1.102477645874023438e+01 -5.551672577857971191e-01 5.241265296936035156e+00 1.405829429626464844e+00 5.475147962570190430e-01
6.858000000000000000e+03 6.177880477905273438e+01 1.900079917907714844e+01 -9.802067875862121582e-01 6.832074642181396484e+00 1.755560398101806641e+00 6.641753315925598145e-01
6.859000000000000000e+03 6.178997802734375000e+01 1.960752487182617188e+01 -9.953594803810119629e-01 6.922894477844238281e+00 1.778260588645935059e+00 7.023541927337646484e-01
6.860000000000000000e+03 5.471574783325195312e+01 -6.400338649749755859e+00 -4.117690026760101318e-02 3.891237974166870117e+00 1.155018329620361328e+00 2.994423210620880127e-01
6.861000000000000000e+03 5.775040435791015625e+01 -8.366101264953613281e+00 -6.094320863485336304e-02 4.591874122619628906e+00 1.359279274940490723e+00 3.032423853874206543e-01
6.862000000000000000e+03 5.630694580078125000e+01 -6.560813426971435547e+00 -5.932573601603507996e-02 4.250137805938720703e+00 1.257243633270263672e+00 3.108216822147369385e-01
6.863000000000000000e+03 4.487792587280273438e+01 7.512623667716979980e-01 -2.634303877130150795e-03 1.536164522171020508e+00 4.600590467453002930e-01 2.274009585380554199e-01
6.864000000000000000e+03 4.308971023559570312e+01 8.448003768920898438e+00 -2.978642582893371582e-01 8.490709066390991211e-01 1.653620004653930664e-01 5.821675807237625122e-02
6.865000000000000000e+03 4.945601272583007812e+01 -3.249958038330078125e+00 2.400043234229087830e-02 2.650259971618652344e+00 8.022781014442443848e-01 2.659567892551422119e-01
6.866000000000000000e+03 4.823866653442382812e+01 -1.660721778869628906e+00 1.397227589040994644e-02 2.351763248443603516e+00 7.097206711769104004e-01 2.715180218219757080e-01
6.867000000000000000e+03 5.011040115356445312e+01 -4.560594081878662109e+00 2.999349497258663177e-02 2.819521665573120117e+00 8.548545241355895996e-01 2.536881864070892334e-01
6.868000000000000000e+03 4.898951339721679688e+01 -2.000064849853515625e+00 1.576654613018035889e-02 2.523068666458129883e+00 7.616505622863769531e-01 2.879504263401031494e-01
6.869000000000000000e+03 5.874494552612304688e+01 7.306800365447998047e+00 -3.858182430267333984e-01 4.959684371948242188e+00 1.372159838676452637e+00 4.575758576393127441e-01
6.870000000000000000e+03 5.716702270507812500e+01 4.710227966308593750e+00 -2.766901552677154541e-01 4.484930038452148438e+00 1.262472033500671387e+00 4.523982703685760498e-01
6.871000000000000000e+03 5.805367279052734375e+01 8.423101425170898438e+00 -4.115882813930511475e-01 4.797983646392822266e+00 1.315918684005737305e+00 5.071595907211303711e-01
6.872000000000000000e+03 5.658699798583984375e+01 -1.316206216812133789e+00 -1.226748898625373840e-01 4.295073509216308594e+00 1.251719594001770020e+00 3.660843372344970703e-01
6.873000000000000000e+03 5.384205245971679688e+01 -7.871783256530761719e+00 -1.632159017026424408e-02 3.745888233184814453e+00 1.118870019912719727e+00 2.674549221992492676e-01
6.874000000000000000e+03 5.542030334472656250e+01 -7.283812046051025391e+00 -4.307721555233001709e-02 4.044964790344238281e+00 1.200566291809082031e+00 2.929123640060424805e-01
6.875000000000000000e+03 5.320015335083007812e+01 -5.889597892761230469e+00 -1.773917488753795624e-02 3.548814773559570312e+00 1.059322714805603027e+00 2.859716713428497314e-01
6.876000000000000000e+03 5.564345169067382812e+01 -5.740623474121093750e+00 -4.976539686322212219e-02 4.096632957458496094e+00 1.214060306549072266e+00 3.132170438766479492e-01
6.877000000000000000e+03 4.855754089355468750e+01 1.657753372192382812e+01 -2.859430313110351562e-01 1.466373562812805176e+00 3.541291654109954834e-01 3.628240227699279785e-01
6.878000000000000000e+03 4.850572967529296875e+01 1.614069366455078125e+01 -2.892251610755920410e-01 1.497634053230285645e+00 3.625226914882659912e-01 3.604792058467864990e-01
6.879000000000000000e+03 5.845763778686523438e+01 2.653555297851562500e+01 4.226642474532127380e-02 5.499704837799072266e+00 1.662591457366943359e+00 2.237233400344848633e+00
6.880000000000000000e+03 5.746690750122070312e+01 2.638538360595703125e+01 1.890183538198471069e-01 4.521113872528076172e+00 1.413039684295654297e+00 2.062744855880737305e+00
6.881000000000000000e+03 5.602219772338867188e+01 2.523826217651367188e+01 9.406311810016632080e-02 3.560672760009765625e+00 1.096420764923095703e+00 1.642869114875793457e+00
6.882000000000000000e+03 5.883638763427734375e+01 2.617522621154785156e+01 -1.562832593917846680e-01 5.954510211944580078e+00 1.739468097686767578e+00 2.168186902999877930e+00
6.883000000000000000e+03 5.721320724487304688e+01 2.602971076965332031e+01 1.289543360471725464e-01 4.361029148101806641e+00 1.346995115280151367e+00 1.963045001029968262e+00
6.884000000000000000e+03 5.222190093994140625e+01 2.017469596862792969e+01 -2.287889271974563599e-01 2.321885824203491211e+00 6.279290914535522461e-01 8.113146424293518066e-01
6.885000000000000000e+03 5.102560424804687500e+01 1.914347076416015625e+01 -2.417543232440948486e-01 1.986282229423522949e+00 5.233584046363830566e-01 6.459057331085205078e-01
6.886000000000000000e+03 5.464534378051757812e+01 2.318476867675781250e+01 -1.076754033565521240e-01 3.064272165298461914e+00 8.869789838790893555e-01 1.265776038169860840e+00
6.887000000000000000e+03 6.068563842773437500e+01 2.208785057067871094e+01 -9.180074334144592285e-01 6.865188121795654297e+00 1.784154295921325684e+00 1.141270756721496582e+00
6.888000000000000000e+03 5.129133605957031250e+01 1.882373809814453125e+01 -2.528180480003356934e-01 2.121756315231323242e+00 5.606814622879028320e-01 6.790773272514343262e-01
6.889000000000000000e+03 5.817527008056640625e+01 2.622599792480468750e+01 1.169399078935384750e-02 5.226910591125488281e+00 1.571581363677978516e+00 2.134298563003540039e+00
6.890000000000000000e+03 3.833484649658203125e+01 4.892567157745361328e+00 -3.230490684509277344e-01 2.156351953744888306e-01 -3.222415596246719360e-02 -9.003262966871261597e-02
6.891000000000000000e+03 3.821025848388671875e+01 3.556494235992431641e+00 -2.465466558933258057e-01 2.620980739593505859e-01 4.665426444262266159e-03 -2.800313197076320648e-02
6.892000000000000000e+03 4.382930374145507812e+01 1.217052936553955078e+01 -3.756427466869354248e-01 7.176153063774108887e-01 1.025917604565620422e-01 -7.129989564418792725e-03
6.893000000000000000e+03 4.942444610595703125e+01 1.803432464599609375e+01 -2.735451161861419678e-01 1.555090546607971191e+00 3.844636380672454834e-01 4.451779127120971680e-01
6.894000000000000000e+03 4.919965362548828125e+01 1.752628326416015625e+01 -2.801702916622161865e-01 1.561013579368591309e+00 3.842529952526092529e-01 4.160448014736175537e-01
6.895000000000000000e+03 4.306025695800781250e+01 1.140665626525878906e+01 -3.855769336223602295e-01 6.190819144248962402e-01 7.005149126052856445e-02 -4.597086086869239807e-02
6.896000000000000000e+03 4.258484268188476562e+01 1.089914608001708984e+01 -3.930966556072235107e-01 5.594183206558227539e-01 4.989649355411529541e-02 -6.734372675418853760e-02
6.897000000000000000e+03 3.875232315063476562e+01 1.897085785865783691e+00 -1.171364709734916687e-01 3.977396786212921143e-01 8.418096601963043213e-02 4.713013395667076111e-02
6.898000000000000000e+03 4.342071914672851562e+01 9.689792633056640625e+00 -3.255110383033752441e-01 8.276245594024658203e-01 1.506340503692626953e-01 4.238713160157203674e-02
6.899000000000000000e+03 4.401650619506835938e+01 1.264113807678222656e+01 -3.743466734886169434e-01 7.186484932899475098e-01 1.032905355095863342e-01 -8.430865593254566193e-03
6.900000000000000000e+03 5.224695205688476562e+01 1.959770774841308594e+01 -2.505544722080230713e-01 2.415591239929199219e+00 6.495110392570495605e-01 8.070772886276245117e-01
6.901000000000000000e+03 6.056003952026367188e+01 1.925019264221191406e+01 -8.939441442489624023e-01 6.345771312713623047e+00 1.635548233985900879e+00 8.718773722648620605e-01
6.902000000000000000e+03 5.419395446777343750e+01 2.140227127075195312e+01 -2.306955754756927490e-01 3.069374084472656250e+00 8.516035676002502441e-01 1.107053995132446289e+00
6.903000000000000000e+03 5.658550643920898438e+01 2.527548408508300781e+01 4.131823033094406128e-02 4.022709846496582031e+00 1.219208359718322754e+00 1.754134774208068848e+00
6.904000000000000000e+03 5.560721588134765625e+01 2.391817283630371094e+01 -7.929402589797973633e-02 3.522703886032104492e+00 1.033022999763488770e+00 1.451357364654541016e+00
6.905000000000000000e+03 4.139808654785156250e+01 7.108597755432128906e+00 -2.975690960884094238e-01 6.080078482627868652e-01 9.313161671161651611e-02 -9.091524407267570496e-04
6.906000000000000000e+03 4.073254394531250000e+01 6.014538288116455078e+00 -2.802627086639404297e-01 5.485798716545104980e-01 8.049514144659042358e-02 -4.632025025784969330e-03
6.907000000000000000e+03 5.331209945678710938e+01 1.968186187744140625e+01 -2.817943096160888672e-01 2.856068849563598633e+00 7.722823619842529297e-01 9.283879995346069336e-01
6.908000000000000000e+03 5.848666381835937500e+01 2.588490867614746094e+01 -1.332426667213439941e-01 5.567237377166748047e+00 1.630198359489440918e+00 2.085177659988403320e+00
6.909000000000000000e+03 5.914387893676757812e+01 2.652253723144531250e+01 -1.484593451023101807e-01 6.264171600341796875e+00 1.834713697433471680e+00 2.259047985076904297e+00
6.910000000000000000e+03 5.599086761474609375e+01 2.485710334777832031e+01 2.439806237816810608e-02 3.624391794204711914e+00 1.094636917114257812e+00 1.596592068672180176e+00
6.911000000000000000e+03 3.972485351562500000e+01 3.332790136337280273e+00 -1.683700233697891235e-01 5.147079229354858398e-01 1.039013713598251343e-01 3.401769697666168213e-02
6.912000000000000000e+03 4.917278671264648438e+01 1.699075126647949219e+01 -2.816041707992553711e-01 1.623711109161376953e+00 4.026320874691009521e-01 4.232557415962219238e-01
6.913000000000000000e+03 4.972284317016601562e+01 1.739791488647460938e+01 -2.700810134410858154e-01 1.740937948226928711e+00 4.412570893764495850e-01 4.856651127338409424e-01
6.914000000000000000e+03 5.065014266967773438e+01 1.968356132507324219e+01 -2.396473884582519531e-01 1.753566384315490723e+00 4.541757106781005859e-01 5.907051563262939453e-01
6.915000000000000000e+03 4.997432327270507812e+01 1.897617340087890625e+01 -2.492124140262603760e-01 1.616807937622070312e+00 4.102786779403686523e-01 5.093144178390502930e-01
6.916000000000000000e+03 5.953203582763671875e+01 2.575872421264648438e+01 -3.998577594757080078e-01 6.614216327667236328e+00 1.864307522773742676e+00 2.047238111495971680e+00
6.917000000000000000e+03 6.099958419799804688e+01 2.432870864868164062e+01 -8.880053162574768066e-01 7.564904689788818359e+00 2.003069877624511719e+00 1.429987788200378418e+00
6.918000000000000000e+03 4.990504455566406250e+01 1.843406105041503906e+01 -2.603525221347808838e-01 1.673348069190979004e+00 4.238986372947692871e-01 4.997886121273040771e-01
6.919000000000000000e+03 5.039110183715820312e+01 1.832145309448242188e+01 -2.648241519927978516e-01 1.866148233413696289e+00 4.803972244262695312e-01 5.668342113494873047e-01
6.920000000000000000e+03 3.787190246582031250e+01 3.053380012512207031e+00 -2.212151288986206055e-01 2.383773773908615112e-01 5.148673430085182190e-03 -1.836594566702842712e-02
6.921000000000000000e+03 6.114962387084960938e+01 1.907768440246582031e+01 -9.366066455841064453e-01 6.577148437500000000e+00 1.692162513732910156e+00 7.766159772872924805e-01
6.922000000000000000e+03 6.108425521850585938e+01 2.145057487487792969e+01 -9.679514765739440918e-01 6.953850269317626953e+00 1.795769691467285156e+00 9.956424832344055176e-01
6.923000000000000000e+03 4.615999984741210938e+01 1.237767410278320312e+01 -3.105047047138214111e-01 1.239739656448364258e+00 2.787705063819885254e-01 1.838183552026748657e-01
6.924000000000000000e+03 4.808786773681640625e+01 1.315113830566406250e+01 -2.936393916606903076e-01 1.677346348762512207e+00 4.151121079921722412e-01 3.390192687511444092e-01
6.925000000000000000e+03 3.855561447143554688e+01 4.054208278656005859e+00 -2.569051086902618408e-01 2.981984615325927734e-01 1.238800585269927979e-02 -3.457591682672500610e-02
6.926000000000000000e+03 5.526956176757812500e+01 2.054537963867187500e+01 -3.454053401947021484e-01 3.725071430206298828e+00 1.013899803161621094e+00 1.168238997459411621e+00
6.927000000000000000e+03 6.018001174926757812e+01 1.790323638916015625e+01 -8.313612341880798340e-01 6.026562690734863281e+00 1.558560371398925781e+00 8.144339919090270996e-01
6.928000000000000000e+03 5.954128265380859375e+01 1.439478778839111328e+01 -6.821745038032531738e-01 5.511291980743408203e+00 1.448735237121582031e+00 6.414424777030944824e-01
6.929000000000000000e+03 5.982994842529296875e+01 1.637103271484375000e+01 -7.695704102516174316e-01 5.748107433319091797e+00 1.493561148643493652e+00 7.382645010948181152e-01
6.930000000000000000e+03 4.193185043334960938e+01 1.504327774047851562e+00 -4.766013100743293762e-02 9.363212585449218750e-01 2.665983438491821289e-01 1.469423323869705200e-01
6.931000000000000000e+03 5.911251449584960938e+01 1.518812084197998047e+01 -6.892378330230712891e-01 5.404716491699218750e+00 1.414643526077270508e+00 7.208985090255737305e-01
6.932000000000000000e+03 5.917114257812500000e+01 1.323783588409423828e+01 -6.235440373420715332e-01 5.311060905456542969e+00 1.406255006790161133e+00 6.171687245368957520e-01
6.933000000000000000e+03 4.673295593261718750e+01 1.329223537445068359e+01 -3.104434311389923096e-01 1.292861223220825195e+00 2.947253286838531494e-01 2.178091555833816528e-01
6.934000000000000000e+03 6.016080093383789062e+01 1.085929679870605469e+01 -5.673928260803222656e-01 5.482794284820556641e+00 1.474620461463928223e+00 4.889096617698669434e-01
6.935000000000000000e+03 5.966098022460937500e+01 1.162581729888916016e+01 -5.838183760643005371e-01 5.380682945251464844e+00 1.439059376716613770e+00 5.433022379875183105e-01
6.936000000000000000e+03 4.750122833251953125e+01 -1.564293742179870605e+00 2.671150863170623779e-02 2.155182600021362305e+00 6.545681953430175781e-01 2.573250234127044678e-01
6.937000000000000000e+03 5.909107208251953125e+01 1.027672672271728516e+01 -5.118857026100158691e-01 5.135237693786621094e+00 1.387005567550659180e+00 5.311473608016967773e-01
6.938000000000000000e+03 4.570943832397460938e+01 8.894236087799072266e-01 -1.870742067694664001e-02 1.721886277198791504e+00 5.109536647796630859e-01 2.521287798881530762e-01
6.939000000000000000e+03 4.484043884277343750e+01 1.492294311523437500e+00 -3.411019220948219299e-02 1.511122703552246094e+00 4.431037604808807373e-01 2.268426418304443359e-01
6.940000000000000000e+03 4.184674072265625000e+01 6.804485321044921875e+00 -2.743977904319763184e-01 7.037568688392639160e-01 1.288077235221862793e-01 2.766955085098743439e-02
6.941000000000000000e+03 4.258892440795898438e+01 2.153239727020263672e+00 -6.775032728910446167e-02 1.047795414924621582e+00 2.940135002136230469e-01 1.587307751178741455e-01
6.942000000000000000e+03 5.565951919555664062e+01 -6.015771627426147461e-01 -1.265728026628494263e-01 4.058977127075195312e+00 1.179721355438232422e+00 3.793543875217437744e-01
6.943000000000000000e+03 5.555152893066406250e+01 -2.997302055358886719e+00 -8.215827494859695435e-02 4.059543609619140625e+00 1.193215489387512207e+00 3.490162491798400879e-01
6.944000000000000000e+03 4.330928039550781250e+01 2.295790910720825195e+00 -5.527713522315025330e-02 1.179911851882934570e+00 3.373904228210449219e-01 1.808813214302062988e-01
6.945000000000000000e+03 4.031688690185546875e+01 1.576555848121643066e+00 -5.624087154865264893e-02 6.651760339736938477e-01 1.826805472373962402e-01 9.987007826566696167e-02
6.946000000000000000e+03 5.131835937500000000e+01 -3.700153112411499023e+00 -2.940977457910776138e-03 3.084520578384399414e+00 9.244738817214965820e-01 2.942532300949096680e-01
6.947000000000000000e+03 5.208055114746093750e+01 -4.875266075134277344e+00 -8.418719284236431122e-03 3.279905796051025391e+00 9.814461469650268555e-01 2.839180529117584229e-01
6.948000000000000000e+03 5.998828125000000000e+01 1.946306991577148438e+01 -8.466682434082031250e-01 6.124551296234130859e+00 1.583364963531494141e+00 9.573176503181457520e-01
6.949000000000000000e+03 5.891729354858398438e+01 1.832032585144042969e+01 -7.439414858818054199e-01 5.539294242858886719e+00 1.438605785369873047e+00 9.558431506156921387e-01
6.950000000000000000e+03 5.508400344848632812e+01 -4.964127063751220703e+00 -5.286569520831108093e-02 3.957794666290283203e+00 1.171478748321533203e+00 3.169192075729370117e-01
6.951000000000000000e+03 5.601925277709960938e+01 -2.151112318038940430e+00 -1.061788201332092285e-01 4.170073032379150391e+00 1.219168305397033691e+00 3.592821657657623291e-01
6.952000000000000000e+03 5.370412063598632812e+01 -3.717842102050781250e+00 -4.482865706086158752e-02 3.628674983978271484e+00 1.075153946876525879e+00 3.193662464618682861e-01
6.953000000000000000e+03 4.812399291992187500e+01 -5.195033550262451172e-01 -8.662017062306404114e-03 2.283807754516601562e+00 6.825437545776367188e-01 2.825597226619720459e-01
6.954000000000000000e+03 4.742721939086914062e+01 -7.152143120765686035e-01 4.451880231499671936e-03 2.125319719314575195e+00 6.389314532279968262e-01 2.665773630142211914e-01
6.955000000000000000e+03 5.444243621826171875e+01 -3.503147363662719727e+00 -5.900728702545166016e-02 3.789125204086303711e+00 1.119035363197326660e+00 3.294475674629211426e-01
6.956000000000000000e+03 5.786157608032226562e+01 7.608742237091064453e+00 -3.800831735134124756e-01 4.712940216064453125e+00 1.299857020378112793e+00 4.974052309989929199e-01
6.957000000000000000e+03 5.501613235473632812e+01 -1.560290575027465820e+00 -9.816563129425048828e-02 3.911835432052612305e+00 1.144100904464721680e+00 3.637256920337677002e-01
6.958000000000000000e+03 4.573614501953125000e+01 5.209542810916900635e-03 1.474309805780649185e-02 1.751860499382019043e+00 5.299810767173767090e-01 2.475637942552566528e-01
6.959000000000000000e+03 5.697531890869140625e+01 6.115254402160644531e+00 -3.196173310279846191e-01 4.446011066436767578e+00 1.237918138504028320e+00 4.818400442600250244e-01
6.960000000000000000e+03 5.839864349365234375e+01 6.379108905792236328e+00 -3.512136936187744141e-01 4.820385932922363281e+00 1.340751767158508301e+00 4.560322463512420654e-01
6.961000000000000000e+03 5.586427688598632812e+01 9.907346367835998535e-01 -1.607349067926406860e-01 4.127499580383300781e+00 1.190029382705688477e+00 4.007115364074707031e-01
6.962000000000000000e+03 5.527000427246093750e+01 1.842533111572265625e+00 -1.706892549991607666e-01 3.968538522720336914e+00 1.139354825019836426e+00 4.124395251274108887e-01
6.963000000000000000e+03 5.617692565917968750e+01 6.718655586242675781e+00 -3.191703259944915771e-01 4.232426166534423828e+00 1.173976659774780273e+00 5.102395415306091309e-01
6.964000000000000000e+03 5.553350067138671875e+01 2.341944122314453125e+01 -1.311013102531433105e-01 3.542038440704345703e+00 1.023281097412109375e+00 1.416326403617858887e+00
6.965000000000000000e+03 5.277653884887695312e+01 1.964293479919433594e+01 -2.642177343368530273e-01 2.633231163024902344e+00 7.107040286064147949e-01 8.734828233718872070e-01
6.966000000000000000e+03 5.946564102172851562e+01 2.520110321044921875e+01 -4.832038581371307373e-01 6.518822193145751953e+00 1.810685515403747559e+00 1.891878843307495117e+00
6.967000000000000000e+03 5.908588409423828125e+01 2.576549911499023438e+01 -2.943203747272491455e-01 6.199930667877197266e+00 1.771683096885681152e+00 2.063144207000732422e+00
6.968000000000000000e+03 4.942600631713867188e+01 1.463275241851806641e+01 -2.928918004035949707e-01 1.940224766731262207e+00 4.941999018192291260e-01 4.518595635890960693e-01
6.969000000000000000e+03 4.923988723754882812e+01 1.643251037597656250e+01 -2.833523750305175781e-01 1.692298054695129395e+00 4.226836860179901123e-01 4.324810802936553955e-01
6.970000000000000000e+03 5.477773666381835938e+01 2.136539649963378906e+01 -2.659704089164733887e-01 3.386194705963134766e+00 9.360673427581787109e-01 1.171171903610229492e+00
6.971000000000000000e+03 5.948157882690429688e+01 2.180112457275390625e+01 -7.597897648811340332e-01 6.123965263366699219e+00 1.609252691268920898e+00 1.294852495193481445e+00
6.972000000000000000e+03 5.089378738403320312e+01 1.874439239501953125e+01 -2.536990642547607422e-01 1.982002735137939453e+00 5.184910893440246582e-01 6.157033443450927734e-01
6.973000000000000000e+03 5.711018753051757812e+01 2.545772552490234375e+01 1.971570402383804321e-02 4.389155387878417969e+00 1.322661280632019043e+00 1.868508934974670410e+00
6.974000000000000000e+03 5.491129302978515625e+01 2.204944038391113281e+01 -2.278944253921508789e-01 3.372476577758789062e+00 9.433746933937072754e-01 1.233192324638366699e+00
6.975000000000000000e+03 5.537006378173828125e+01 2.298569488525390625e+01 -1.589282900094985962e-01 3.528717279434204102e+00 1.010936737060546875e+00 1.371518015861511230e+00
6.976000000000000000e+03 4.030314636230468750e+01 5.423710823059082031e+00 -2.689972817897796631e-01 5.073758959770202637e-01 7.151357829570770264e-02 -1.076558418571949005e-02
6.977000000000000000e+03 5.170788192749023438e+01 1.955412292480468750e+01 -2.411706596612930298e-01 2.190202474594116211e+00 5.847095251083374023e-01 7.353582382202148438e-01
6.978000000000000000e+03 5.979870986938476562e+01 2.441528511047363281e+01 -6.463906764984130859e-01 6.690917015075683594e+00 1.813357949256896973e+00 1.691633820533752441e+00
6.979000000000000000e+03 5.387915420532226562e+01 1.971723175048828125e+01 -3.025533258914947510e-01 3.117134809494018555e+00 8.443744182586669922e-01 9.920930266380310059e-01
6.980000000000000000e+03 4.954943466186523438e+01 1.547753810882568359e+01 -2.893821299076080322e-01 1.887602925300598145e+00 4.794662296772003174e-01 4.709329903125762939e-01
6.981000000000000000e+03 4.843717193603515625e+01 1.389459896087646484e+01 -2.947610020637512207e-01 1.706367731094360352e+00 4.234820008277893066e-01 3.645865023136138916e-01
6.982000000000000000e+03 6.059646224975585938e+01 2.084488677978515625e+01 -9.116132855415344238e-01 6.618531227111816406e+00 1.712075352668762207e+00 1.011578679084777832e+00
6.983000000000000000e+03 4.328691482543945312e+01 9.085033416748046875e+00 -3.089796006679534912e-01 8.421524763107299805e-01 1.599518507719039917e-01 4.892536997795104980e-02
6.984000000000000000e+03 4.701483154296875000e+01 1.402875137329101562e+01 -3.081094324588775635e-01 1.296729683876037598e+00 2.965860962867736816e-01 2.308856248855590820e-01
6.985000000000000000e+03 5.854079437255859375e+01 2.463010215759277344e+01 -3.561059832572937012e-01 5.677498817443847656e+00 1.596417903900146484e+00 1.859283328056335449e+00
6.986000000000000000e+03 4.893577575683593750e+01 1.554379940032958984e+01 -2.945588231086730957e-01 1.687604784965515137e+00 4.179137945175170898e-01 4.042459130287170410e-01
6.987000000000000000e+03 4.941518402099609375e+01 1.503349208831787109e+01 -2.877941131591796875e-01 1.895611643791198730e+00 4.823452830314636230e-01 4.583985805511474609e-01
6.988000000000000000e+03 4.301187133789062500e+01 1.035486125946044922e+01 -3.565821945667266846e-01 6.929073333740234375e-01 1.008975431323051453e-01 -9.468915872275829315e-03
6.989000000000000000e+03 4.305801391601562500e+01 1.088171958923339844e+01 -3.674173951148986816e-01 6.590645313262939453e-01 8.749413490295410156e-02 -2.635235339403152466e-02
6.990000000000000000e+03 5.787387847900390625e+01 2.569947242736816406e+01 -5.912565067410469055e-02 5.000691890716552734e+00 1.482469916343688965e+00 1.991027951240539551e+00
6.991000000000000000e+03 5.877353668212890625e+01 2.556712150573730469e+01 -2.463730424642562866e-01 5.827435970306396484e+00 1.674318790435791016e+00 2.041739702224731445e+00
6.992000000000000000e+03 5.135467529296875000e+01 1.831311798095703125e+01 -2.681654691696166992e-01 2.205759763717651367e+00 5.812783241271972656e-01 6.722738742828369141e-01
6.993000000000000000e+03 4.958237457275390625e+01 1.770628929138183594e+01 -2.760616838932037354e-01 1.654737472534179688e+00 4.136027395725250244e-01 4.657354950904846191e-01
6.994000000000000000e+03 4.825295639038085938e+01 1.446559715270996094e+01 -2.951239645481109619e-01 1.593010544776916504e+00 3.893659710884094238e-01 3.435582816600799561e-01
6.995000000000000000e+03 4.727609634399414062e+01 1.350690555572509766e+01 -3.029016852378845215e-01 1.417868971824645996e+00 3.344902098178863525e-01 2.636922597885131836e-01
6.996000000000000000e+03 4.235725402832031250e+01 7.202319622039794922e+00 -2.740375697612762451e-01 7.823189496994018555e-01 1.524844020605087280e-01 5.111102014780044556e-02
6.997000000000000000e+03 4.155014801025390625e+01 6.386259555816650391e+00 -2.744221985340118408e-01 6.678671240806579590e-01 1.180334836244583130e-01 2.805425599217414856e-02
6.998000000000000000e+03 5.655224990844726562e+01 2.383990859985351562e+01 -1.695863455533981323e-01 4.175552368164062500e+00 1.201789736747741699e+00 1.608169198036193848e+00
6.999000000000000000e+03 5.607231521606445312e+01 2.384814262390136719e+01 -1.208117380738258362e-01 3.867751359939575195e+00 1.124081850051879883e+00 1.538847804069519043e+00
7.000000000000000000e+03 4.983330154418945312e+01 1.797883033752441406e+01 -2.730982303619384766e-01 1.700491070747375488e+00 4.282178282737731934e-01 4.896356165409088135e-01
7.001000000000000000e+03 5.030453872680664062e+01 1.777858161926269531e+01 -2.717894613742828369e-01 1.888355731964111328e+00 4.849698841571807861e-01 5.497921109199523926e-01
7.002000000000000000e+03 3.986482238769531250e+01 4.812689304351806641e+00 -2.559867203235626221e-01 4.613676071166992188e-01 6.161426380276679993e-02 -8.988897316157817841e-03
7.003000000000000000e+03 3.928147125244140625e+01 1.604467749595642090e+00 -7.438242435455322266e-02 5.025338530540466309e-01 1.284454166889190674e-01 7.408944517374038696e-02
7.004000000000000000e+03 5.013354110717773438e+01 1.733225059509277344e+01 -2.785753905773162842e-01 1.882587075233459473e+00 4.812035262584686279e-01 5.269731879234313965e-01
7.005000000000000000e+03 5.117127609252929688e+01 1.959531402587890625e+01 -2.388730794191360474e-01 1.982207417488098145e+00 5.230002999305725098e-01 6.667654514312744141e-01
7.006000000000000000e+03 6.039870834350585938e+01 2.433882713317871094e+01 -7.726752161979675293e-01 7.139818191528320312e+00 1.910142898559570312e+00 1.583340644836425781e+00
7.007000000000000000e+03 4.444441986083984375e+01 1.241972351074218750e+01 -3.579902350902557373e-01 8.221738338470458984e-01 1.392550915479660034e-01 3.686563298106193542e-02
7.008000000000000000e+03 4.350128936767578125e+01 1.192775154113769531e+01 -3.792372643947601318e-01 6.723248362541198730e-01 8.792626112699508667e-02 -2.688390389084815979e-02
7.009000000000000000e+03 5.600769042968750000e+01 7.975295543670654297e+00 -3.518365621566772461e-01 4.188834190368652344e+00 1.151099205017089844e+00 5.403671264648437500e-01
7.010000000000000000e+03 5.969954299926757812e+01 2.370049476623535156e+01 -6.945486068725585938e-01 6.525118827819824219e+00 1.749171018600463867e+00 1.570690512657165527e+00
7.011000000000000000e+03 4.104743957519531250e+01 6.588976860046386719e+00 -2.911550104618072510e-01 5.729342103004455566e-01 8.453375846147537231e-02 -9.834814816713333130e-03
7.012000000000000000e+03 5.410390090942382812e+01 2.096972846984863281e+01 -2.444053739309310913e-01 3.072989463806152344e+00 8.485752344131469727e-01 1.081562638282775879e+00
7.013000000000000000e+03 4.736963272094726562e+01 1.312292218208312988e-01 -1.260152179747819901e-02 2.103438615798950195e+00 6.272511482238769531e-01 2.788212001323699951e-01
7.014000000000000000e+03 4.333912277221679688e+01 1.496717333793640137e+00 -3.301380202174186707e-02 1.222503423690795898e+00 3.568468689918518066e-01 1.868343502283096313e-01
7.015000000000000000e+03 4.653992843627929688e+01 1.257457447052001953e+01 -3.026993572711944580e-01 1.312217712402343750e+00 3.028554916381835938e-01 2.144487947225570679e-01
7.016000000000000000e+03 4.554379272460937500e+01 1.235132408142089844e+01 -3.196436464786529541e-01 1.079400658607482910e+00 2.279270887374877930e-01 1.330328881740570068e-01
7.017000000000000000e+03 6.036702728271484375e+01 1.859142684936523438e+01 -8.633010387420654297e-01 6.185464859008789062e+00 1.596649169921875000e+00 8.428380489349365234e-01
7.018000000000000000e+03 4.984877395629882812e+01 -2.251246929168701172e+00 -7.640260737389326096e-03 2.722242116928100586e+00 8.143805861473083496e-01 2.916938364505767822e-01
7.019000000000000000e+03 4.871507263183593750e+01 -3.620255291461944580e-01 -2.121873199939727783e-02 2.431196212768554688e+00 7.229932546615600586e-01 3.064405620098114014e-01
7.020000000000000000e+03 5.930804061889648438e+01 1.736851692199707031e+01 -7.608481645584106445e-01 5.644420623779296875e+00 1.465071678161621094e+00 8.508212566375732422e-01
7.021000000000000000e+03 4.113224029541015625e+01 4.175720691680908203e+00 -1.833353489637374878e-01 7.090315222740173340e-01 1.577088534832000732e-01 7.167048007249832153e-02
7.022000000000000000e+03 5.160219192504882812e+01 -2.710955858230590820e+00 -2.544134669005870819e-02 3.118624448776245117e+00 9.279549717903137207e-01 3.180133402347564697e-01
7.023000000000000000e+03 6.079542160034179688e+01 1.987959480285644531e+01 -9.270536303520202637e-01 6.548312187194824219e+00 1.686377525329589844e+00 8.924346566200256348e-01
7.024000000000000000e+03 5.848170089721679688e+01 2.083109855651855469e+01 -6.629523634910583496e-01 5.475511074066162109e+00 1.443767666816711426e+00 1.248472332954406738e+00
7.025000000000000000e+03 3.924383926391601562e+01 5.052504539489746094e+00 -2.868838012218475342e-01 3.520839810371398926e-01 1.956005766987800598e-02 -4.674588888883590698e-02
7.026000000000000000e+03 5.941460418701171875e+01 1.968507003784179688e+01 -7.950084209442138672e-01 5.884665489196777344e+00 1.526897192001342773e+00 1.043254256248474121e+00
7.027000000000000000e+03 5.618272399902343750e+01 2.492640018463134766e+00 -1.999201476573944092e-01 4.211407661437988281e+00 1.203446269035339355e+00 4.224412143230438232e-01
7.028000000000000000e+03 4.419679260253906250e+01 2.327985286712646484e+00 -6.147786602377891541e-02 1.370006918907165527e+00 3.925586938858032227e-01 2.102693021297454834e-01
7.029000000000000000e+03 4.376783752441406250e+01 8.279141426086425781e+00 -2.709637284278869629e-01 9.891650676727294922e-01 2.154604047536849976e-01 1.026630252599716187e-01
7.030000000000000000e+03 4.072017669677734375e+01 2.766906023025512695e+00 -1.185104772448539734e-01 6.900681257247924805e-01 1.714672893285751343e-01 8.651789277791976929e-02
7.031000000000000000e+03 4.143910217285156250e+01 2.176800489425659180e+00 -8.167901635169982910e-02 8.420094847679138184e-01 2.280991375446319580e-01 1.309031695127487183e-01
7.032000000000000000e+03 5.728479003906250000e+01 8.490404129028320312e+00 -3.953277468681335449e-01 4.572266101837158203e+00 1.253081560134887695e+00 5.359415411949157715e-01
7.033000000000000000e+03 5.748830032348632812e+01 6.845574855804443359e+00 -3.481582403182983398e-01 4.593480587005615234e+00 1.273596644401550293e+00 4.922156035900115967e-01
7.034000000000000000e+03 3.935075759887695312e+01 2.912007093429565430e+00 -1.666571795940399170e-01 4.488850235939025879e-01 8.466834574937820435e-02 3.614305704832077026e-02
7.035000000000000000e+03 5.462397766113281250e+01 -2.594875574111938477e+00 -7.957340031862258911e-02 3.816452264785766602e+00 1.121063709259033203e+00 3.417759239673614502e-01
7.036000000000000000e+03 5.324370956420898438e+01 -3.155036926269531250e+00 -5.148345977067947388e-02 3.530679225921630859e+00 1.043758749961853027e+00 3.202719092369079590e-01
7.037000000000000000e+03 5.013531875610351562e+01 7.564004659652709961e-01 -6.004029512405395508e-02 2.732427120208740234e+00 8.017160296440124512e-01 3.521912693977355957e-01
7.038000000000000000e+03 4.750115966796875000e+01 9.623236656188964844e-01 -3.089719824492931366e-02 2.121977806091308594e+00 6.273241639137268066e-01 2.924523055553436279e-01
7.039000000000000000e+03 5.818621063232421875e+01 1.074393749237060547e+01 -5.044822692871093750e-01 4.895377159118652344e+00 1.317268371582031250e+00 5.694702267646789551e-01
7.040000000000000000e+03 5.040495681762695312e+01 -3.499130249023437500e+00 4.661287646740674973e-03 2.868832826614379883e+00 8.620482087135314941e-01 2.780651152133941650e-01
7.041000000000000000e+03 4.930880737304687500e+01 -1.145911455154418945e+00 -1.581365428864955902e-02 2.580637693405151367e+00 7.694472074508666992e-01 3.051761388778686523e-01
7.042000000000000000e+03 5.912256622314453125e+01 1.199874019622802734e+01 -5.762756466865539551e-01 5.235913276672363281e+00 1.397891283035278320e+00 5.866414308547973633e-01
7.043000000000000000e+03 5.879473114013671875e+01 1.400139904022216797e+01 -6.330134272575378418e-01 5.218350887298583984e+00 1.375601291656494141e+00 6.812856793403625488e-01
7.044000000000000000e+03 5.669542694091796875e+01 7.350166320800781250e+00 -3.452984988689422607e-01 4.383514881134033203e+00 1.211464881896972656e+00 5.104547739028930664e-01
7.045000000000000000e+03 5.390178680419921875e+01 -4.583763599395751953e+00 -4.207802936434745789e-02 3.702975511550903320e+00 1.098269224166870117e+00 3.089722692966461182e-01
7.046000000000000000e+03 5.463576126098632812e+01 -4.251657009124755859e+00 -5.188939347863197327e-02 3.844335556030273438e+00 1.137733936309814453e+00 3.159208297729492188e-01
7.047000000000000000e+03 5.303282546997070312e+01 -4.825102329254150391e+00 -2.764035202562808990e-02 3.480106115341186523e+00 1.035739779472351074e+00 2.997904717922210693e-01
7.048000000000000000e+03 5.422925567626953125e+01 -5.475000858306884766e+00 -3.826123848557472229e-02 3.776393651962280273e+00 1.121439695358276367e+00 2.981323897838592529e-01
7.049000000000000000e+03 5.437004089355468750e+01 1.254568815231323242e+00 -1.455566883087158203e-01 3.744352579116821289e+00 1.079638838768005371e+00 4.053103327751159668e-01
7.050000000000000000e+03 5.636228179931640625e+01 3.976155519485473633e+00 -2.436379790306091309e-01 4.265252113342285156e+00 1.206484198570251465e+00 4.487150907516479492e-01
7.051000000000000000e+03 5.388408279418945312e+01 -1.256460547447204590e+00 -9.114434570074081421e-02 3.658273696899414062e+00 1.070138812065124512e+00 3.627420663833618164e-01
7.052000000000000000e+03 5.658850479125976562e+01 2.315215110778808594e+01 -2.629125714302062988e-01 4.278482913970947266e+00 1.204671144485473633e+00 1.520559906959533691e+00
7.053000000000000000e+03 5.444569396972656250e+01 2.109922790527343750e+01 -2.526448071002960205e-01 3.242103576660156250e+00 8.968375921249389648e-01 1.129503607749938965e+00
7.054000000000000000e+03 5.287380218505859375e+01 1.735419845581054688e+01 -3.341677784919738770e-01 2.887022972106933594e+00 7.658565640449523926e-01 7.913677692413330078e-01
7.055000000000000000e+03 4.753269195556640625e+01 1.295865440368652344e+01 -2.959777414798736572e-01 1.540411353111267090e+00 3.733300864696502686e-01 2.952854037284851074e-01
7.056000000000000000e+03 5.910727691650390625e+01 2.363874816894531250e+01 -5.881635546684265137e-01 6.069966793060302734e+00 1.644540905952453613e+00 1.629938483238220215e+00
7.057000000000000000e+03 5.501209640502929688e+01 2.095555877685546875e+01 -2.983605563640594482e-01 3.557946920394897461e+00 9.778758883476257324e-01 1.176722764968872070e+00
7.058000000000000000e+03 5.088277053833007812e+01 1.825983619689941406e+01 -2.634656429290771484e-01 2.032428979873657227e+00 5.306890606880187988e-01 6.224136352539062500e-01
7.059000000000000000e+03 5.885607910156250000e+01 2.496102142333984375e+01 -3.756485581398010254e-01 5.926149845123291016e+00 1.665150403976440430e+00 1.912479281425476074e+00
7.060000000000000000e+03 5.826479721069335938e+01 2.497239685058593750e+01 -2.515144944190979004e-01 5.412743091583251953e+00 1.548368573188781738e+00 1.920928359031677246e+00
7.061000000000000000e+03 5.279885864257812500e+01 1.906437301635742188e+01 -2.821012735366821289e-01 2.704967498779296875e+00 7.268598675727844238e-01 8.557588458061218262e-01
7.062000000000000000e+03 5.175215530395507812e+01 1.896428298950195312e+01 -2.580054104328155518e-01 2.283890962600708008e+00 6.077656149864196777e-01 7.285866141319274902e-01
7.063000000000000000e+03 5.514374923706054688e+01 2.164974594116210938e+01 -2.733002305030822754e-01 3.541100978851318359e+00 9.803402423858642578e-01 1.230598211288452148e+00
7.064000000000000000e+03 5.822920227050781250e+01 2.554992485046386719e+01 -1.461833715438842773e-01 5.326873302459716797e+00 1.554206967353820801e+00 2.013326644897460938e+00
7.065000000000000000e+03 5.751111221313476562e+01 2.338121604919433594e+01 -3.465001285076141357e-01 4.891579627990722656e+00 1.363523840904235840e+00 1.630769371986389160e+00
7.066000000000000000e+03 5.089489364624023438e+01 1.766400527954101562e+01 -2.777312994003295898e-01 2.115804195404052734e+00 5.514218211174011230e-01 6.208267211914062500e-01
7.067000000000000000e+03 5.786991882324218750e+01 2.605869865417480469e+01 1.588806137442588806e-02 4.978273868560791016e+00 1.498248696327209473e+00 2.051010131835937500e+00
7.068000000000000000e+03 5.751742553710937500e+01 2.605259704589843750e+01 8.528010547161102295e-02 4.633623600006103516e+00 1.415671110153198242e+00 2.018006801605224609e+00
7.069000000000000000e+03 4.888149642944335938e+01 1.455095386505126953e+01 -2.930075526237487793e-01 1.779582738876342773e+00 4.459725618362426758e-01 4.085834026336669922e-01
7.070000000000000000e+03 4.391789245605468750e+01 8.967408180236816406e+00 -2.916478812694549561e-01 9.790259599685668945e-01 2.062134146690368652e-01 9.666697680950164795e-02
7.071000000000000000e+03 4.902263259887695312e+01 1.404218769073486328e+01 -2.952238321304321289e-01 1.861159563064575195e+00 4.697807133197784424e-01 4.166156649589538574e-01
7.072000000000000000e+03 5.182429504394531250e+01 1.840216827392578125e+01 -2.771948575973510742e-01 2.400455474853515625e+00 6.369781494140625000e-01 7.327723503112792969e-01
7.073000000000000000e+03 5.227799606323242188e+01 1.902309608459472656e+01 -2.687208652496337891e-01 2.496791601181030273e+00 6.684212088584899902e-01 7.991853952407836914e-01
7.074000000000000000e+03 5.936302947998046875e+01 2.228382301330566406e+01 -7.173539996147155762e-01 6.130546569824218750e+00 1.623957753181457520e+00 1.369539380073547363e+00
7.075000000000000000e+03 4.356445312500000000e+01 7.533008098602294922e+00 -2.557847499847412109e-01 9.951441884040832520e-01 2.218078225851058960e-01 1.112559810280799866e-01
7.076000000000000000e+03 5.942594909667968750e+01 2.312501144409179688e+01 -6.901364326477050781e-01 6.272780895233154297e+00 1.674793362617492676e+00 1.496104836463928223e+00
7.077000000000000000e+03 5.887248229980468750e+01 2.420609092712402344e+01 -4.914403855800628662e-01 5.932299137115478516e+00 1.632257699966430664e+00 1.746251106262207031e+00
7.078000000000000000e+03 5.605271911621093750e+01 2.439493751525878906e+01 -5.326521396636962891e-02 3.732895374298095703e+00 1.103889107704162598e+00 1.573977589607238770e+00
7.079000000000000000e+03 5.601966857910156250e+01 2.322933959960937500e+01 -1.977927982807159424e-01 3.909773111343383789e+00 1.113594055175781250e+00 1.464304566383361816e+00
7.080000000000000000e+03 5.983463668823242188e+01 2.259069252014160156e+01 -7.799018621444702148e-01 6.468285560607910156e+00 1.706515073776245117e+00 1.361013889312744141e+00
7.081000000000000000e+03 4.488587951660156250e+01 1.215926837921142578e+01 -3.382907807826995850e-01 9.457651376724243164e-01 1.822423040866851807e-01 7.857376337051391602e-02
7.082000000000000000e+03 4.630600738525390625e+01 1.198024654388427734e+01 -2.959311902523040771e-01 1.311894893646240234e+00 3.047891259193420410e-01 2.069995999336242676e-01
7.083000000000000000e+03 5.025664520263671875e+01 1.652196884155273438e+01 -2.799634635448455811e-01 2.026237010955810547e+00 5.238820314407348633e-01 5.426576137542724609e-01
7.084000000000000000e+03 5.035266494750976562e+01 1.699152183532714844e+01 -2.811887562274932861e-01 1.979820728302001953e+00 5.095896124839782715e-01 5.577076673507690430e-01
7.085000000000000000e+03 6.025728607177734375e+01 2.014130973815917969e+01 -8.764211535453796387e-01 6.328548431396484375e+00 1.635638117790222168e+00 9.921653866767883301e-01
7.086000000000000000e+03 5.575333786010742188e+01 2.269444084167480469e+01 -2.227318137884140015e-01 3.806586265563964844e+00 1.075156331062316895e+00 1.391829490661621094e+00
7.087000000000000000e+03 4.700835037231445312e+01 1.276548576354980469e+01 -2.987923026084899902e-01 1.414889693260192871e+00 3.348292112350463867e-01 2.499214857816696167e-01
7.088000000000000000e+03 4.922750473022460938e+01 1.351907920837402344e+01 -2.914456427097320557e-01 1.962991118431091309e+00 5.014636516571044922e-01 4.307290315628051758e-01
7.089000000000000000e+03 4.139663314819335938e+01 5.842515945434570312e+00 -2.486476153135299683e-01 6.681191921234130859e-01 1.258414685726165771e-01 3.175983577966690063e-02
7.090000000000000000e+03 4.165393447875976562e+01 3.367489814758300781e+00 -1.323536485433578491e-01 8.400962948799133301e-01 2.123227864503860474e-01 1.124658137559890747e-01
7.091000000000000000e+03 5.463331604003906250e+01 2.067716217041015625e+01 -2.967314720153808594e-01 3.384471893310546875e+00 9.263221621513366699e-01 1.117508769035339355e+00
7.092000000000000000e+03 4.554360198974609375e+01 2.787533044815063477e+00 -7.191309332847595215e-02 1.626819729804992676e+00 4.664719700813293457e-01 2.521617412567138672e-01
7.093000000000000000e+03 5.857633590698242188e+01 1.923196792602539062e+01 -7.119511961936950684e-01 5.431243896484375000e+00 1.415787935256958008e+00 1.062888622283935547e+00
7.094000000000000000e+03 4.499356079101562500e+01 2.166364908218383789e+00 -4.927398636937141418e-02 1.530094027519226074e+00 4.442460238933563232e-01 2.362022399902343750e-01
7.095000000000000000e+03 5.700276184082031250e+01 2.504380416870117188e+01 -4.126420244574546814e-02 4.365536689758300781e+00 1.297281742095947266e+00 1.794593095779418945e+00
7.096000000000000000e+03 5.633434295654296875e+01 2.495170783996582031e+01 1.526673790067434311e-02 3.878584146499633789e+00 1.168155312538146973e+00 1.683384299278259277e+00
7.097000000000000000e+03 5.745441818237304688e+01 2.538953018188476562e+01 -4.563482105731964111e-02 4.684518337249755859e+00 1.391665101051330566e+00 1.901072502136230469e+00
7.098000000000000000e+03 5.785641098022460938e+01 2.101986885070800781e+01 -5.827158093452453613e-01 5.122943878173828125e+00 1.362068414688110352e+00 1.293570160865783691e+00
7.099000000000000000e+03 5.953752136230468750e+01 1.809115600585937500e+01 -7.893012762069702148e-01 5.787311553955078125e+00 1.499403119087219238e+00 8.935315608978271484e-01
7.100000000000000000e+03 4.355863571166992188e+01 1.141657066345214844e+01 -3.646936714649200439e-01 7.237147092819213867e-01 1.077063158154487610e-01 -6.218049675226211548e-03
7.101000000000000000e+03 4.349954223632812500e+01 1.027272891998291016e+01 -3.353968858718872070e-01 8.016034960746765137e-01 1.398619860410690308e-01 2.962753362953662872e-02
7.102000000000000000e+03 5.836095046997070312e+01 1.699632072448730469e+01 -6.810021996498107910e-01 5.200390815734863281e+00 1.355816602706909180e+00 8.836178183555603027e-01
7.103000000000000000e+03 4.048728942871093750e+01 4.453142642974853516e+00 -2.076311111450195312e-01 5.824986696243286133e-01 1.124602705240249634e-01 3.581374883651733398e-02
7.104000000000000000e+03 4.904770278930664062e+01 1.601446914672851562e+01 -2.855905890464782715e-01 1.669019818305969238e+00 4.150287806987762451e-01 4.127674996852874756e-01
7.105000000000000000e+03 5.546427536010742188e+01 7.327311992645263672e+00 -3.180050253868103027e-01 4.015980720520019531e+00 1.109392642974853516e+00 5.249035954475402832e-01
7.106000000000000000e+03 5.975712203979492188e+01 1.878427314758300781e+01 -8.200722336769104004e-01 5.946090221405029297e+00 1.537805318832397461e+00 9.259166717529296875e-01
7.107000000000000000e+03 5.738056564331054688e+01 1.819243049621582031e+01 -6.049849390983581543e-01 4.818995952606201172e+00 1.264203310012817383e+00 1.009245753288269043e+00
7.108000000000000000e+03 5.996814727783203125e+01 2.109530639648437500e+01 -8.495904803276062012e-01 6.351268768310546875e+00 1.650503396987915039e+00 1.134008646011352539e+00
7.109000000000000000e+03 3.952009963989257812e+01 4.223076820373535156e+00 -2.334596961736679077e-01 4.331329464912414551e-01 5.990197136998176575e-02 -4.058789927512407303e-03
7.110000000000000000e+03 5.336798477172851562e+01 4.288058757781982422e+00 -1.951728612184524536e-01 3.476160287857055664e+00 9.842962622642517090e-01 4.531355202198028564e-01
7.111000000000000000e+03 4.399999237060546875e+01 9.612852096557617188e+00 -3.039980828762054443e-01 9.513899683952331543e-01 1.942175626754760742e-01 8.429843932390213013e-02
7.112000000000000000e+03 5.711629867553710938e+01 7.916820526123046875e+00 -3.753740191459655762e-01 4.499268054962158203e+00 1.237168192863464355e+00 5.254182815551757812e-01
7.113000000000000000e+03 5.198928833007812500e+01 -1.794390797615051270e+00 -4.587136581540107727e-02 3.197168111801147461e+00 9.453890323638916016e-01 3.434042036533355713e-01
7.114000000000000000e+03 5.551360321044921875e+01 3.304109811782836914e+00 -2.085694968700408936e-01 4.036462306976318359e+00 1.148367881774902344e+00 4.372566938400268555e-01
7.115000000000000000e+03 5.490842056274414062e+01 2.831444144248962402e-01 -1.282101720571517944e-01 3.881302118301391602e+00 1.125927567481994629e+00 3.908408284187316895e-01
7.116000000000000000e+03 4.085630035400390625e+01 2.068720102310180664e+00 -7.181168347597122192e-02 7.356588840484619141e-01 1.991541534662246704e-01 1.100099533796310425e-01
7.117000000000000000e+03 3.879378890991210938e+01 3.226748228073120117e+00 -1.935244202613830566e-01 3.666853010654449463e-01 5.194826051592826843e-02 1.078872289508581161e-02
7.118000000000000000e+03 5.837549209594726562e+01 1.472382831573486328e+01 -6.324104666709899902e-01 5.096821308135986328e+00 1.339323163032531738e+00 7.376893162727355957e-01
7.119000000000000000e+03 5.808084106445312500e+01 1.365574836730957031e+01 -5.853249430656433105e-01 4.960955619812011719e+00 1.312689185142517090e+00 6.943815946578979492e-01
7.120000000000000000e+03 3.906780242919921875e+01 2.408791780471801758e+00 -1.455047130584716797e-01 4.264320135116577148e-01 8.427818864583969116e-02 4.366121068596839905e-02
7.121000000000000000e+03 5.855085372924804688e+01 1.589115142822265625e+01 -6.777338385581970215e-01 5.239757061004638672e+00 1.368606925010681152e+00 7.953101396560668945e-01
7.122000000000000000e+03 5.074703598022460938e+01 -2.473960161209106445e+00 -1.229362934827804565e-02 2.930098533630371094e+00 8.753414750099182129e-01 3.002949357032775879e-01
7.123000000000000000e+03 5.557297897338867188e+01 6.065890312194824219e+00 -2.852706909179687500e-01 4.053590297698974609e+00 1.130495786666870117e+00 4.962060153484344482e-01
7.124000000000000000e+03 5.633906936645507812e+01 5.403773784637451172e+00 -2.869426906108856201e-01 4.267324447631835938e+00 1.194114565849304199e+00 4.768210649490356445e-01
7.125000000000000000e+03 5.755638122558593750e+01 1.008395862579345703e+01 -4.625821411609649658e-01 4.687313556671142578e+00 1.267419338226318359e+00 5.612233877182006836e-01
7.126000000000000000e+03 5.273088073730468750e+01 -2.098198890686035156e+00 -5.355539545416831970e-02 3.394923210144042969e+00 1.002410411834716797e+00 3.377953469753265381e-01
7.127000000000000000e+03 4.328625106811523438e+01 3.080947160720825195e+00 -9.786807000637054443e-02 1.152718424797058105e+00 3.164550960063934326e-01 1.705144345760345459e-01
7.128000000000000000e+03 4.268527984619140625e+01 4.575657844543457031e+00 -1.592721343040466309e-01 9.848175048828125000e-01 2.476636022329330444e-01 1.318813711404800415e-01
7.129000000000000000e+03 4.610863494873046875e+01 2.155384063720703125e+00 -4.901280254125595093e-02 1.780486702919006348e+00 5.194422006607055664e-01 2.616964578628540039e-01
7.130000000000000000e+03 5.570200729370117188e+01 9.392670631408691406e+00 -3.826894462108612061e-01 4.102606773376464844e+00 1.115975141525268555e+00 5.779467225074768066e-01
7.131000000000000000e+03 5.721754837036132812e+01 9.105697631835937500e+00 -4.139196276664733887e-01 4.560268402099609375e+00 1.243904590606689453e+00 5.440850257873535156e-01
7.132000000000000000e+03 5.465815353393554688e+01 2.690245628356933594e+00 -1.779576539993286133e-01 3.813451051712036133e+00 1.090648055076599121e+00 4.293136894702911377e-01
7.133000000000000000e+03 5.231491470336914062e+01 1.845367813110351562e+01 -2.781568169593811035e-01 2.567829132080078125e+00 6.869016885757446289e-01 7.909520268440246582e-01
7.134000000000000000e+03 5.332753753662109375e+01 1.908901023864746094e+01 -2.983915805816650391e-01 2.918237686157226562e+00 7.859538793563842773e-01 9.121006131172180176e-01
7.135000000000000000e+03 5.853357696533203125e+01 2.526352310180664062e+01 -2.545485496520996094e-01 5.657960414886474609e+00 1.621023654937744141e+00 1.986167788505554199e+00
7.136000000000000000e+03 5.281537628173828125e+01 1.849079322814941406e+01 -2.931585013866424561e-01 2.768363714218139648e+00 7.425615787506103516e-01 8.356803655624389648e-01
7.137000000000000000e+03 5.532326507568359375e+01 2.233992576599121094e+01 -2.339980006217956543e-01 3.575171947479248047e+00 1.002352237701416016e+00 1.299692511558532715e+00
7.138000000000000000e+03 5.487934112548828125e+01 2.021545982360839844e+01 -3.428208529949188232e-01 3.554753303527832031e+00 9.635797739028930664e-01 1.119461178779602051e+00
7.139000000000000000e+03 4.405161666870117188e+01 1.136543655395507812e+01 -3.513706624507904053e-01 8.292791843414306641e-01 1.433725655078887939e-01 3.641186282038688660e-02
7.140000000000000000e+03 4.958757400512695312e+01 1.420129585266113281e+01 -2.978575229644775391e-01 2.010164499282836914e+00 5.136920809745788574e-01 4.611652195453643799e-01
7.141000000000000000e+03 5.536922454833984375e+01 2.124632453918457031e+01 -3.069316446781158447e-01 3.707868814468383789e+00 1.020281195640563965e+00 1.231908202171325684e+00
7.142000000000000000e+03 5.899982070922851562e+01 2.266616630554199219e+01 -6.483299136161804199e-01 5.946887016296386719e+00 1.589567065238952637e+00 1.452805638313293457e+00
7.143000000000000000e+03 4.464465713500976562e+01 9.604126930236816406e+00 -2.897832989692687988e-01 1.091981530189514160e+00 2.406594753265380859e-01 1.292805671691894531e-01
7.144000000000000000e+03 5.331336212158203125e+01 1.852055358886718750e+01 -3.160986006259918213e-01 2.984212875366210938e+00 8.004342913627624512e-01 8.890090584754943848e-01
7.145000000000000000e+03 5.335011672973632812e+01 1.796840667724609375e+01 -3.343709111213684082e-01 3.058233022689819336e+00 8.171586394309997559e-01 8.566383123397827148e-01
7.146000000000000000e+03 4.592406845092773438e+01 1.208200073242187500e+01 -3.085704147815704346e-01 1.205749392509460449e+00 2.691536843776702881e-01 1.687515377998352051e-01
7.147000000000000000e+03 5.001729965209960938e+01 1.609335517883300781e+01 -2.883731722831726074e-01 1.985733628273010254e+00 5.092081427574157715e-01 5.111927986145019531e-01
7.148000000000000000e+03 5.088005828857421875e+01 1.700614547729492188e+01 -2.872395515441894531e-01 2.180466175079345703e+00 5.679680109024047852e-01 6.102049946784973145e-01
7.149000000000000000e+03 5.750210571289062500e+01 2.456867790222167969e+01 -1.894185096025466919e-01 4.830188274383544922e+00 1.392230868339538574e+00 1.779019951820373535e+00
7.150000000000000000e+03 4.436531448364257812e+01 7.455011844635009766e+00 -2.292278409004211426e-01 1.177068829536437988e+00 2.843522727489471436e-01 1.602030843496322632e-01
7.151000000000000000e+03 6.004499435424804688e+01 2.185619735717773438e+01 -8.398462533950805664e-01 6.497921943664550781e+00 1.697422623634338379e+00 1.212930679321289062e+00
7.152000000000000000e+03 4.084365844726562500e+01 5.018443107604980469e+00 -2.267249226570129395e-01 6.145681738853454590e-01 1.163529753684997559e-01 3.383651748299598694e-02
7.153000000000000000e+03 5.142201614379882812e+01 1.777212142944335938e+01 -2.853453457355499268e-01 2.312589168548583984e+00 6.081731915473937988e-01 6.713293194770812988e-01
7.154000000000000000e+03 5.788767623901367188e+01 1.537627220153808594e+01 -6.197100877761840820e-01 4.951329231262207031e+00 1.299485802650451660e+00 7.876574993133544922e-01
7.155000000000000000e+03 4.347456359863281250e+01 6.740427494049072266e+00 -2.265125066041946411e-01 1.022880315780639648e+00 2.389103323221206665e-01 1.235695183277130127e-01
7.156000000000000000e+03 5.700254058837890625e+01 2.449607658386230469e+01 -1.309332996606826782e-01 4.439620018005371094e+00 1.292605996131896973e+00 1.719352602958679199e+00
7.157000000000000000e+03 5.788294982910156250e+01 2.233745193481445312e+01 -5.019173026084899902e-01 5.200998783111572266e+00 1.409724473953247070e+00 1.482600331306457520e+00
7.158000000000000000e+03 5.968554306030273438e+01 2.037298011779785156e+01 -8.158685564994812012e-01 6.096978664398193359e+00 1.584333062171936035e+00 1.082154512405395508e+00
7.159000000000000000e+03 4.209609603881835938e+01 5.852445125579833984e+00 -2.302119582891464233e-01 8.066332340240478516e-01 1.729263812303543091e-01 7.541044056415557861e-02
7.160000000000000000e+03 4.461557006835937500e+01 4.109176158905029297e+00 -1.251015663146972656e-01 1.381723523139953613e+00 3.769865930080413818e-01 2.186499834060668945e-01
7.161000000000000000e+03 5.016450881958007812e+01 1.530482387542724609e+01 -2.948997318744659424e-01 2.109084606170654297e+00 5.442554354667663574e-01 5.231939554214477539e-01
7.162000000000000000e+03 5.873387145996093750e+01 2.219059371948242188e+01 -6.403980255126953125e-01 5.706017494201660156e+00 1.519685864448547363e+00 1.400072216987609863e+00
7.163000000000000000e+03 5.044081497192382812e+01 1.585228824615478516e+01 -2.859967648983001709e-01 2.150181055068969727e+00 5.592553019523620605e-01 5.555436611175537109e-01
7.164000000000000000e+03 5.230899047851562500e+01 1.732087135314941406e+01 -3.138295114040374756e-01 2.666637659072875977e+00 7.058424353599548340e-01 7.547450065612792969e-01
7.165000000000000000e+03 4.467803573608398438e+01 1.166898059844970703e+01 -3.406223952770233154e-01 9.350519776344299316e-01 1.783288717269897461e-01 7.811574637889862061e-02
7.166000000000000000e+03 4.138521194458007812e+01 5.275821685791015625e+00 -2.326139807701110840e-01 6.958008408546447754e-01 1.389560699462890625e-01 4.999277740716934204e-02
7.167000000000000000e+03 5.650403976440429688e+01 2.445206069946289062e+01 -8.037671446800231934e-02 4.066431522369384766e+00 1.195816397666931152e+00 1.661928892135620117e+00
7.168000000000000000e+03 4.015424346923828125e+01 3.827531576156616211e+00 -1.906724125146865845e-01 5.520814657211303711e-01 1.084227189421653748e-01 4.232854768633842468e-02
7.169000000000000000e+03 5.866285705566406250e+01 1.764545249938964844e+01 -7.066506743431091309e-01 5.382682800292968750e+00 1.402809619903564453e+00 9.094727635383605957e-01
7.170000000000000000e+03 5.480237197875976562e+01 7.868608474731445312e+00 -3.206162452697753906e-01 3.843483924865722656e+00 1.056860327720642090e+00 5.285989046096801758e-01
7.171000000000000000e+03 5.744483566284179688e+01 1.693794250488281250e+01 -6.134013533592224121e-01 4.811809062957763672e+00 1.259522318840026855e+00 9.155843257904052734e-01
7.172000000000000000e+03 5.793056869506835938e+01 1.643914031982421875e+01 -6.435939073562622070e-01 5.008070945739746094e+00 1.309342980384826660e+00 8.667358160018920898e-01
7.173000000000000000e+03 5.480225372314453125e+01 1.935704803466796875e+01 -3.721576333045959473e-01 3.572502374649047852e+00 9.601034522056579590e-01 1.054102778434753418e+00
7.174000000000000000e+03 4.890326690673828125e+01 1.277421092987060547e+01 -2.864229083061218262e-01 1.933446407318115234e+00 4.941070377826690674e-01 4.045487344264984131e-01
7.175000000000000000e+03 4.777390289306640625e+01 1.238967418670654297e+01 -2.876750230789184570e-01 1.657217860221862793e+00 4.108628332614898682e-01 3.211249709129333496e-01
7.176000000000000000e+03 4.691199493408203125e+01 3.057952642440795898e+00 -8.671142160892486572e-02 1.933478593826293945e+00 5.540301799774169922e-01 2.969331443309783936e-01
7.177000000000000000e+03 5.837368774414062500e+01 2.396097564697265625e+01 -4.237059652805328369e-01 5.523786544799804688e+00 1.530024170875549316e+00 1.712397575378417969e+00
7.178000000000000000e+03 4.498473358154296875e+01 3.424088239669799805e+00 -9.228911995887756348e-02 1.489430069923400879e+00 4.191423058509826660e-01 2.346887290477752686e-01
7.179000000000000000e+03 5.381944274902343750e+01 2.138776779174804688e+00 -1.521006226539611816e-01 3.604286670684814453e+00 1.035655736923217773e+00 4.175091087818145752e-01
7.180000000000000000e+03 5.380405044555664062e+01 -1.868752688169479370e-01 -1.014368087053298950e-01 3.636743068695068359e+00 1.060591816902160645e+00 3.794943392276763916e-01
7.181000000000000000e+03 4.562303924560546875e+01 1.114675140380859375e+01 -3.046546876430511475e-01 1.187456011772155762e+00 2.648403942584991455e-01 1.662016212940216064e-01
7.182000000000000000e+03 4.674321746826171875e+01 1.206112670898437500e+01 -2.968440651893615723e-01 1.409261584281921387e+00 3.337252736091613770e-01 2.364286333322525024e-01
7.183000000000000000e+03 5.916223526000976562e+01 1.900152778625488281e+01 -7.691163420677185059e-01 5.697478771209716797e+00 1.478508710861206055e+00 1.000960826873779297e+00
7.184000000000000000e+03 4.865792083740234375e+01 1.333630275726318359e+01 -2.893740832805633545e-01 1.817514300346374512e+00 4.584420621395111084e-01 3.861729204654693604e-01
7.185000000000000000e+03 5.883338546752929688e+01 1.991091156005859375e+01 -7.266811728477478027e-01 5.611359596252441406e+00 1.465403437614440918e+00 1.121927499771118164e+00
7.186000000000000000e+03 5.909103012084960938e+01 2.058412742614746094e+01 -7.438463568687438965e-01 5.817004680633544922e+00 1.521947503089904785e+00 1.180925250053405762e+00
7.187000000000000000e+03 5.017870330810546875e+01 -1.267237663269042969e+00 -1.946225948631763458e-02 2.780943632125854492e+00 8.284443616867065430e-01 3.200200200080871582e-01
7.188000000000000000e+03 4.450473785400390625e+01 8.192659378051757812e+00 -2.561615109443664551e-01 1.156566500663757324e+00 2.701215147972106934e-01 1.524022519588470459e-01
7.189000000000000000e+03 5.764334487915039062e+01 1.274202442169189453e+01 -5.368324518203735352e-01 4.785492420196533203e+00 1.274598002433776855e+00 6.627825498580932617e-01
7.190000000000000000e+03 4.517787170410156250e+01 4.497955322265625000e+00 -1.286098957061767578e-01 1.479104757308959961e+00 4.051484763622283936e-01 2.293967753648757935e-01
7.191000000000000000e+03 4.457281875610351562e+01 1.024236488342285156e+01 -3.036530613899230957e-01 1.033976793289184570e+00 2.190971225500106812e-01 1.082307398319244385e-01
7.192000000000000000e+03 4.401237869262695312e+01 1.079887485504150391e+01 -3.305445909500122070e-01 8.702110648155212402e-01 1.618999391794204712e-01 5.025480315089225769e-02
7.193000000000000000e+03 5.243311309814453125e+01 -2.924522638320922852e+00 -3.397559374570846558e-02 3.342549085617065430e+00 9.925720691680908203e-01 3.309690654277801514e-01
7.194000000000000000e+03 4.913834762573242188e+01 2.985354900360107422e+00 -1.058378964662551880e-01 2.446636915206909180e+00 7.022397518157958984e-01 3.513652086257934570e-01
7.195000000000000000e+03 4.757937622070312500e+01 1.790649294853210449e+00 -5.171545594930648804e-02 2.121650457382202148e+00 6.209805011749267578e-01 3.091580569744110107e-01
7.196000000000000000e+03 5.766332626342773438e+01 1.201469230651855469e+01 -5.272048115730285645e-01 4.759477615356445312e+00 1.269681930541992188e+00 6.375065445899963379e-01
7.197000000000000000e+03 5.737883377075195312e+01 1.128660297393798828e+01 -4.935994148254394531e-01 4.653091430664062500e+00 1.247847676277160645e+00 6.179365515708923340e-01
7.198000000000000000e+03 5.488079452514648438e+01 6.696991920471191406e+00 -2.885693311691284180e-01 3.863417863845825195e+00 1.072454571723937988e+00 5.066782236099243164e-01
7.199000000000000000e+03 5.364142990112304688e+01 -2.305940628051757812e+00 -6.185266748070716858e-02 3.598707914352416992e+00 1.061056613922119141e+00 3.440947532653808594e-01
7.200000000000000000e+03 5.844437026977539062e+01 1.208198165893554688e+01 -5.554948449134826660e-01 5.028840065002441406e+00 1.342003583908081055e+00 6.032644510269165039e-01
7.201000000000000000e+03 5.482500839233398438e+01 4.089788436889648438e+00 -2.164587080478668213e-01 3.856534957885742188e+00 1.092022895812988281e+00 4.553974568843841553e-01
7.202000000000000000e+03 5.560990142822265625e+01 4.724071025848388672e+00 -2.472444325685501099e-01 4.064664363861083984e+00 1.145226001739501953e+00 4.651984274387359619e-01
7.203000000000000000e+03 4.257699584960937500e+01 3.888549327850341797e+00 -1.355817317962646484e-01 9.913709759712219238e-01 2.567367851734161377e-01 1.403456032276153564e-01
7.204000000000000000e+03 4.339133834838867188e+01 4.532230377197265625e+00 -1.553154140710830688e-01 1.121954083442687988e+00 2.899915874004364014e-01 1.634868979454040527e-01
7.205000000000000000e+03 5.688243484497070312e+01 9.623389244079589844e+00 -4.293951392173767090e-01 4.449805259704589844e+00 1.206123113632202148e+00 5.597932338714599609e-01
7.206000000000000000e+03 5.345062255859375000e+01 7.962151765823364258e-01 -1.202022358775138855e-01 3.531727075576782227e+00 1.023457407951354980e+00 3.917813301086425781e-01
7.207000000000000000e+03 5.185870361328125000e+01 1.788478851318359375e+01 -2.800806462764739990e-01 2.462152242660522461e+00 6.546214818954467773e-01 7.386957406997680664e-01
7.208000000000000000e+03 5.722164154052734375e+01 1.751621627807617188e+01 -5.951061844825744629e-01 4.733749389648437500e+00 1.241593003273010254e+00 9.673469662666320801e-01
7.209000000000000000e+03 5.174678039550781250e+01 1.740980529785156250e+01 -2.966626584529876709e-01 2.458945512771606445e+00 6.486847996711730957e-01 7.107411623001098633e-01
7.210000000000000000e+03 5.688479232788085938e+01 1.659830474853515625e+01 -5.725430250167846680e-01 4.603510379791259766e+00 1.209290146827697754e+00 8.969391584396362305e-01
7.211000000000000000e+03 5.852826690673828125e+01 2.343225669860839844e+01 -5.046580433845520020e-01 5.640237331390380859e+00 1.540673732757568359e+00 1.616709589958190918e+00
7.212000000000000000e+03 5.814648056030273438e+01 2.438456726074218750e+01 -3.205171525478363037e-01 5.352081775665283203e+00 1.509469389915466309e+00 1.800548195838928223e+00
7.213000000000000000e+03 4.513928985595703125e+01 1.136281967163085938e+01 -3.154450356960296631e-01 1.072608113288879395e+00 2.271489351987838745e-01 1.270284205675125122e-01
7.214000000000000000e+03 4.446908569335937500e+01 1.078269386291503906e+01 -3.230213224887847900e-01 9.720225930213928223e-01 1.947003751993179321e-01 8.957461267709732056e-02
7.215000000000000000e+03 5.563953399658203125e+01 2.085637092590332031e+01 -3.530986905097961426e-01 3.913566589355468750e+00 1.068140387535095215e+00 1.228564858436584473e+00
7.216000000000000000e+03 5.792308807373046875e+01 2.382148933410644531e+01 -3.583437800407409668e-01 5.216343402862548828e+00 1.457399845123291016e+00 1.690990567207336426e+00
7.217000000000000000e+03 5.704463577270507812e+01 2.388357543945312500e+01 -2.329325526952743530e-01 4.513702869415283203e+00 1.284231185913085938e+00 1.629606723785400391e+00
7.218000000000000000e+03 5.555337905883789062e+01 2.193365097045898438e+01 -2.817662656307220459e-01 3.717174053192138672e+00 1.030622363090515137e+00 1.288493514060974121e+00
7.219000000000000000e+03 5.605929565429687500e+01 2.220038986206054688e+01 -3.044273555278778076e-01 4.032685279846191406e+00 1.118477344512939453e+00 1.378572821617126465e+00
7.220000000000000000e+03 4.978487777709960938e+01 1.371400833129882812e+01 -2.918953299522399902e-01 2.113569021224975586e+00 5.465020537376403809e-01 4.824729263782501221e-01
7.221000000000000000e+03 5.073120880126953125e+01 1.639723014831542969e+01 -2.895816564559936523e-01 2.199786186218261719e+00 5.730613470077514648e-01 5.915178656578063965e-01
7.222000000000000000e+03 5.155652999877929688e+01 1.684063148498535156e+01 -3.016711175441741943e-01 2.442903041839599609e+00 6.423695683479309082e-01 6.723164916038513184e-01
7.223000000000000000e+03 5.733251953125000000e+01 2.117003059387207031e+01 -5.108732581138610840e-01 4.809214591979980469e+00 1.289502501487731934e+00 1.309701323509216309e+00
7.224000000000000000e+03 5.073471450805664062e+01 1.455740261077880859e+01 -3.045219480991363525e-01 2.337864398956298828e+00 6.100027561187744141e-01 5.605109930038452148e-01
7.225000000000000000e+03 4.986849212646484375e+01 1.485036659240722656e+01 -2.967450618743896484e-01 2.060969829559326172e+00 5.292674303054809570e-01 4.965938925743103027e-01
7.226000000000000000e+03 5.772336959838867188e+01 1.883227920532226562e+01 -6.344267725944519043e-01 4.984713077545166016e+00 1.305085897445678711e+00 1.059100985527038574e+00
7.227000000000000000e+03 5.797888946533203125e+01 2.337517356872558594e+01 -4.169901013374328613e-01 5.210782051086425781e+00 1.438137531280517578e+00 1.615816593170166016e+00
7.228000000000000000e+03 5.667654418945312500e+01 2.238916969299316406e+01 -3.428906798362731934e-01 4.385894298553466797e+00 1.212900996208190918e+00 1.438087463378906250e+00
7.229000000000000000e+03 4.512173080444335938e+01 7.391914367675781250e+00 -2.225218117237091064e-01 1.341478228569030762e+00 3.356869220733642578e-01 2.008248716592788696e-01
7.230000000000000000e+03 5.003253936767578125e+01 1.319883632659912109e+01 -2.942622303962707520e-01 2.235592365264892578e+00 5.823990702629089355e-01 4.954269528388977051e-01
7.231000000000000000e+03 5.031342697143554688e+01 1.391710186004638672e+01 -2.989506423473358154e-01 2.269820213317871094e+00 5.912608504295349121e-01 5.233653783798217773e-01
7.232000000000000000e+03 5.228834915161132812e+01 1.670235824584960938e+01 -3.259306252002716064e-01 2.721576690673828125e+00 7.186937928199768066e-01 7.382269501686096191e-01
7.233000000000000000e+03 5.709597396850585938e+01 2.329441070556640625e+01 -3.118986785411834717e-01 4.612396240234375000e+00 1.290149331092834473e+00 1.551724076271057129e+00
7.234000000000000000e+03 4.278013992309570312e+01 5.920001506805419922e+00 -2.084640413522720337e-01 9.377388358116149902e-01 2.187824398279190063e-01 1.112011596560478210e-01
7.235000000000000000e+03 5.078512954711914062e+01 1.510621738433837891e+01 -3.001878559589385986e-01 2.317139387130737305e+00 6.050854921340942383e-01 5.695081353187561035e-01
7.236000000000000000e+03 5.099415206909179688e+01 1.566022682189941406e+01 -3.036475181579589844e-01 2.352146625518798828e+00 6.145497560501098633e-01 5.907834172248840332e-01
7.237000000000000000e+03 5.792527008056640625e+01 2.474611663818359375e+01 -2.288099527359008789e-01 5.165768623352050781e+00 1.481087565422058105e+00 1.841280817985534668e+00
7.238000000000000000e+03 5.660831832885742188e+01 8.405868530273437500e+00 -3.771520256996154785e-01 4.345173835754394531e+00 1.190406560897827148e+00 5.390428900718688965e-01
7.239000000000000000e+03 4.207046508789062500e+01 5.261303901672363281e+00 -2.024630457162857056e-01 8.295602798461914062e-01 1.881291717290878296e-01 8.992849290370941162e-02
7.240000000000000000e+03 5.770229721069335938e+01 1.432280540466308594e+01 -5.892590880393981934e-01 4.850605487823486328e+00 1.278403878211975098e+00 7.337419390678405762e-01
7.241000000000000000e+03 4.462081146240234375e+01 8.914740562438964844e+00 -2.702418565750122070e-01 1.128771424293518066e+00 2.575588524341583252e-01 1.432726681232452393e-01
7.242000000000000000e+03 4.526257324218750000e+01 8.129000663757324219e+00 -2.348871231079101562e-01 1.335652589797973633e+00 3.302296400070190430e-01 1.995354592800140381e-01
7.243000000000000000e+03 5.803381347656250000e+01 2.524127197265625000e+01 -1.714870333671569824e-01 5.203583717346191406e+00 1.509629011154174805e+00 1.929613709449768066e+00
7.244000000000000000e+03 5.377876281738281250e+01 1.852032852172851562e+01 -3.404285311698913574e-01 3.184357166290283203e+00 8.531785607337951660e-01 9.227612018585205078e-01
7.245000000000000000e+03 5.779637908935546875e+01 1.735797882080078125e+01 -6.430926322937011719e-01 5.006877422332763672e+00 1.309135437011718750e+00 9.403458237648010254e-01
7.246000000000000000e+03 5.644470977783203125e+01 2.147858238220214844e+01 -3.957445323467254639e-01 4.304453372955322266e+00 1.172612547874450684e+00 1.335012555122375488e+00
7.247000000000000000e+03 5.803739547729492188e+01 1.793809890747070312e+01 -6.583057641983032227e-01 5.117277145385742188e+00 1.337691426277160645e+00 9.662981629371643066e-01
7.248000000000000000e+03 4.833132171630859375e+01 1.257937812805175781e+01 -2.838133573532104492e-01 1.787974238395690918e+00 4.512482583522796631e-01 3.645278215408325195e-01
7.249000000000000000e+03 4.975037765502929688e+01 1.242724895477294922e+01 -2.868664264678955078e-01 2.205060005187988281e+00 5.754580497741699219e-01 4.652613401412963867e-01
7.250000000000000000e+03 5.768110656738281250e+01 2.030022811889648438e+01 -5.918635725975036621e-01 5.018183708190917969e+00 1.327896118164062500e+00 1.205226540565490723e+00
7.251000000000000000e+03 4.540910339355468750e+01 8.908403396606445312e+00 -2.610263824462890625e-01 1.318562030792236328e+00 3.172606825828552246e-01 1.957075744867324829e-01
7.252000000000000000e+03 4.199205398559570312e+01 4.645298480987548828e+00 -1.842062920331954956e-01 8.416133522987365723e-01 1.972221136093139648e-01 9.806355834007263184e-02
7.253000000000000000e+03 5.836027908325195312e+01 2.232723808288574219e+01 -5.717576146125793457e-01 5.456145286560058594e+00 1.465316295623779297e+00 1.442937850952148438e+00
7.254000000000000000e+03 5.033996582031250000e+01 -2.426914125680923462e-01 -4.951461777091026306e-02 2.795139789581298828e+00 8.236875534057617188e-01 3.362027108669281006e-01
7.255000000000000000e+03 4.417914199829101562e+01 3.131181955337524414e+00 -8.132346719503402710e-02 1.338465690612792969e+00 3.771426379680633545e-01 2.086493223905563354e-01
7.256000000000000000e+03 4.673670959472656250e+01 2.435988903045654297e+00 -6.158585473895072937e-02 1.892391920089721680e+00 5.492418408393859863e-01 2.841642200946807861e-01
7.257000000000000000e+03 4.622063064575195312e+01 8.764374732971191406e+00 -2.411636114120483398e-01 1.506127953529357910e+00 3.794893026351928711e-01 2.453503906726837158e-01
7.258000000000000000e+03 5.401902770996093750e+01 3.504706859588623047e+00 -1.858274787664413452e-01 3.647972345352172852e+00 1.038643479347229004e+00 4.414010047912597656e-01
7.259000000000000000e+03 5.825339889526367188e+01 2.013025283813476562e+01 -6.567337512969970703e-01 5.319458007812500000e+00 1.398817300796508789e+00 1.183476448059082031e+00
7.260000000000000000e+03 5.529524230957031250e+01 1.892667961120605469e+01 -4.204956293106079102e-01 3.848303556442260742e+00 1.028342366218566895e+00 1.059167981147766113e+00
7.261000000000000000e+03 5.488952636718750000e+01 5.436130046844482422e+00 -2.551555037498474121e-01 3.871543884277343750e+00 1.084916472434997559e+00 4.802586138248443604e-01
7.262000000000000000e+03 4.244430923461914062e+01 3.187900543212890625e+00 -9.556676447391510010e-02 9.922446012496948242e-01 2.690033614635467529e-01 1.472466588020324707e-01
7.263000000000000000e+03 4.332304763793945312e+01 3.824466943740844727e+00 -1.119531467556953430e-01 1.143048882484436035e+00 3.093287348747253418e-01 1.714653223752975464e-01
7.264000000000000000e+03 5.115840911865234375e+01 -1.436847329139709473e+00 -4.631289094686508179e-02 3.007745027542114258e+00 8.884296417236328125e-01 3.264860808849334717e-01
7.265000000000000000e+03 5.274893569946289062e+01 -1.292896866798400879e+00 -7.135444134473800659e-02 3.363356113433837891e+00 9.876004457473754883e-01 3.556906282901763916e-01
7.266000000000000000e+03 5.743648529052734375e+01 1.338821220397949219e+01 -5.502749085426330566e-01 4.733276844024658203e+00 1.254900693893432617e+00 6.969408988952636719e-01
7.267000000000000000e+03 4.723915481567382812e+01 1.221260356903076172e+01 -2.920629680156707764e-01 1.530017256736755371e+00 3.713862895965576172e-01 2.784375250339508057e-01
7.268000000000000000e+03 4.799547195434570312e+01 1.180735492706298828e+01 -2.769418358802795410e-01 1.756798028945922852e+00 4.439568519592285156e-01 3.445182144641876221e-01
7.269000000000000000e+03 5.700469589233398438e+01 1.218270683288574219e+01 -5.023031234741210938e-01 4.537765979766845703e+00 1.210638761520385742e+00 6.617536544799804688e-01
7.270000000000000000e+03 4.743325424194335938e+01 2.575750112533569336e+00 -7.632106542587280273e-02 2.061937093734741211e+00 5.956848263740539551e-01 3.094678521156311035e-01
7.271000000000000000e+03 4.885443878173828125e+01 1.229171991348266602e+00 -5.442543327808380127e-02 2.421093940734863281e+00 7.100005745887756348e-01 3.205582499504089355e-01
7.272000000000000000e+03 5.419574356079101562e+01 8.256155014038085938e+00 -3.075104653835296631e-01 3.691335201263427734e+00 1.015147447586059570e+00 5.484822392463684082e-01
7.273000000000000000e+03 5.524890899658203125e+01 8.602443695068359375e+00 -3.483293652534484863e-01 3.971421003341674805e+00 1.086927413940429688e+00 5.510473251342773438e-01
7.274000000000000000e+03 5.426776504516601562e+01 7.276807785034179688e+00 -2.921240329742431641e-01 3.690846204757690430e+00 1.019616603851318359e+00 5.189579725265502930e-01
7.275000000000000000e+03 5.422704696655273438e+01 6.116141319274902344e+00 -2.579823136329650879e-01 3.687737703323364258e+00 1.028926610946655273e+00 4.930985569953918457e-01
7.276000000000000000e+03 4.087433242797851562e+01 3.520085096359252930e+00 -1.507426202297210693e-01 6.872910857200622559e-01 1.609645336866378784e-01 7.865557819604873657e-02
7.277000000000000000e+03 4.183949279785156250e+01 4.008011817932128906e+00 -1.480761319398880005e-01 8.466615080833435059e-01 2.095756232738494873e-01 1.040892601013183594e-01
7.278000000000000000e+03 5.322288131713867188e+01 2.959803581237792969e+00 -1.600884944200515747e-01 3.450486660003662109e+00 9.871194958686828613e-01 4.288108944892883301e-01
7.279000000000000000e+03 5.736078643798828125e+01 1.597817230224609375e+01 -5.971583127975463867e-01 4.765705108642578125e+00 1.250564098358154297e+00 8.451082706451416016e-01
7.280000000000000000e+03 5.725194168090820312e+01 1.493137550354003906e+01 -5.734301805496215820e-01 4.703527927398681641e+00 1.239029288291931152e+00 7.832702994346618652e-01
7.281000000000000000e+03 4.560087585449218750e+01 3.896028518676757812e+00 -1.077044084668159485e-01 1.611270546913146973e+00 4.510698318481445312e-01 2.501940429210662842e-01
7.282000000000000000e+03 5.245285797119140625e+01 2.438212156295776367e+00 -1.339602768421173096e-01 3.271250009536743164e+00 9.411869049072265625e-01 4.148301482200622559e-01
7.283000000000000000e+03 5.656010818481445312e+01 1.731065177917480469e+01 -5.498132109642028809e-01 4.474040985107421875e+00 1.177268266677856445e+00 9.577051997184753418e-01
7.284000000000000000e+03 5.388969039916992188e+01 1.907158279418945312e+01 -3.278509974479675293e-01 3.180589199066162109e+00 8.558214902877807617e-01 9.640231132507324219e-01
7.285000000000000000e+03 5.694166946411132812e+01 2.122604560852050781e+01 -4.651148915290832520e-01 4.600411415100097656e+00 1.240588903427124023e+00 1.328407287597656250e+00
7.286000000000000000e+03 4.536507797241210938e+01 9.685756683349609375e+00 -2.722968757152557373e-01 1.260908007621765137e+00 2.965833246707916260e-01 1.835271567106246948e-01
7.287000000000000000e+03 5.683133697509765625e+01 2.172449302673339844e+01 -4.231196939945220947e-01 4.504854679107666016e+00 1.224520444869995117e+00 1.366398096084594727e+00
7.288000000000000000e+03 5.772657012939453125e+01 2.417855072021484375e+01 -2.901136875152587891e-01 5.013429641723632812e+00 1.416994810104370117e+00 1.722882866859436035e+00
7.289000000000000000e+03 5.055406570434570312e+01 1.343285274505615234e+01 -3.003653287887573242e-01 2.382693290710449219e+00 6.246984004974365234e-01 5.344679951667785645e-01
7.290000000000000000e+03 4.947460174560546875e+01 1.297903633117675781e+01 -2.871364057064056396e-01 2.081711053848266602e+00 5.383723974227905273e-01 4.531472027301788330e-01
7.291000000000000000e+03 4.135079956054687500e+01 4.746714115142822266e+00 -1.908075362443923950e-01 7.245473265647888184e-01 1.601219326257705688e-01 6.457073986530303955e-02
7.292000000000000000e+03 5.841414642333984375e+01 2.183452033996582031e+01 -6.130601167678833008e-01 5.472751617431640625e+00 1.457907438278198242e+00 1.372548103332519531e+00
7.293000000000000000e+03 5.849676132202148438e+01 2.285684967041015625e+01 -5.507137775421142578e-01 5.615060329437255859e+00 1.519303917884826660e+00 1.531067252159118652e+00
7.294000000000000000e+03 5.130669021606445312e+01 1.621699523925781250e+01 -3.035157918930053711e-01 2.408317804336547852e+00 6.314406394958496094e-01 6.341629624366760254e-01
7.295000000000000000e+03 5.175582885742187500e+01 1.590684986114501953e+01 -3.116378188133239746e-01 2.589559316635131836e+00 6.833764314651489258e-01 6.769965887069702148e-01
7.296000000000000000e+03 4.403276824951171875e+01 3.841707706451416016e+00 -1.225352957844734192e-01 1.276232719421386719e+00 3.461092114448547363e-01 1.925839632749557495e-01
7.297000000000000000e+03 4.566162872314453125e+01 5.948867321014404297e+00 -1.697232723236083984e-01 1.536673426628112793e+00 4.100850224494934082e-01 2.410563081502914429e-01
7.298000000000000000e+03 5.079998016357421875e+01 1.407227706909179688e+01 -3.099906742572784424e-01 2.399985551834106445e+00 6.269984245300292969e-01 5.567988157272338867e-01
7.299000000000000000e+03 5.343925094604492188e+01 1.742020797729492188e+01 -3.590222299098968506e-01 3.130318164825439453e+00 8.313887715339660645e-01 8.350158333778381348e-01
7.300000000000000000e+03 5.443768310546875000e+01 1.884560585021972656e+01 -3.657463788986206055e-01 3.448626041412353516e+00 9.248639345169067383e-01 9.862921833992004395e-01
7.301000000000000000e+03 5.791133880615234375e+01 2.171771621704101562e+01 -5.596098303794860840e-01 5.191645145416259766e+00 1.389610648155212402e+00 1.380725502967834473e+00
7.302000000000000000e+03 4.513916778564453125e+01 1.039464187622070312e+01 -2.970016896724700928e-01 1.149568557739257812e+00 2.557700574398040771e-01 1.509737819433212280e-01
7.303000000000000000e+03 5.522117233276367188e+01 1.977555274963378906e+01 -3.834232687950134277e-01 3.742776155471801758e+00 1.007805824279785156e+00 1.115004539489746094e+00
7.304000000000000000e+03 5.620222473144531250e+01 1.905535507202148438e+01 -4.900749623775482178e-01 4.264816761016845703e+00 1.132422566413879395e+00 1.093313932418823242e+00
7.305000000000000000e+03 5.750478363037109375e+01 2.383929443359375000e+01 -2.985711395740509033e-01 4.876105785369873047e+00 1.373260378837585449e+00 1.674251079559326172e+00
7.306000000000000000e+03 5.135254669189453125e+01 1.450183010101318359e+01 -3.166225552558898926e-01 2.558404922485351562e+00 6.725347042083740234e-01 6.062030792236328125e-01
7.307000000000000000e+03 4.578385925292968750e+01 1.164649200439453125e+01 -3.072363138198852539e-01 1.186799049377441406e+00 2.638688385486602783e-01 1.675211489200592041e-01
7.308000000000000000e+03 4.427274322509765625e+01 6.711490631103515625e+00 -2.148530781269073486e-01 1.194334864616394043e+00 2.938445210456848145e-01 1.689011603593826294e-01
7.309000000000000000e+03 4.349633789062500000e+01 5.963675022125244141e+00 -2.039734572172164917e-01 1.074165821075439453e+00 2.610577046871185303e-01 1.401695311069488525e-01
7.310000000000000000e+03 4.584851074218750000e+01 7.304893016815185547e+00 -2.060652375221252441e-01 1.510218381881713867e+00 3.912459313869476318e-01 2.387689799070358276e-01
7.311000000000000000e+03 5.721094512939453125e+01 1.915705490112304688e+01 -5.753312110900878906e-01 4.761044502258300781e+00 1.255714058876037598e+00 1.107568860054016113e+00
7.312000000000000000e+03 5.555962371826171875e+01 2.015809059143066406e+01 -3.911274075508117676e-01 3.874062299728393555e+00 1.044880390167236328e+00 1.160808920860290527e+00
7.313000000000000000e+03 5.148484802246093750e+01 1.549605369567871094e+01 -3.065165877342224121e-01 2.509705781936645508e+00 6.609567403793334961e-01 6.344000101089477539e-01
7.314000000000000000e+03 4.276007080078125000e+01 5.248270511627197266e+00 -1.963123679161071777e-01 9.684099555015563965e-01 2.316292822360992432e-01 1.213907897472381592e-01
7.315000000000000000e+03 5.230241775512695312e+01 1.610123825073242188e+01 -3.285028338432312012e-01 2.780985593795776367e+00 7.357448339462280273e-01 7.141278982162475586e-01
7.316000000000000000e+03 4.857390975952148438e+01 1.200105381011962891e+01 -2.794906497001647949e-01 1.900146484375000000e+00 4.861967563629150391e-01 3.815428614616394043e-01
7.317000000000000000e+03 5.032632827758789062e+01 1.127996444702148438e+01 -2.857722938060760498e-01 2.444490671157836914e+00 6.476155519485473633e-01 4.839168488979339600e-01
7.318000000000000000e+03 5.348616409301757812e+01 1.686760711669921875e+01 -3.663049936294555664e-01 3.187830209732055664e+00 8.464576005935668945e-01 8.296109437942504883e-01
7.319000000000000000e+03 5.801695632934570312e+01 1.945809364318847656e+01 -6.433287858963012695e-01 5.160842418670654297e+00 1.355254173278808594e+00 1.114959478378295898e+00
7.320000000000000000e+03 5.794785690307617188e+01 2.288058090209960938e+01 -4.640081226825714111e-01 5.193825721740722656e+00 1.418945312500000000e+00 1.551049947738647461e+00
7.321000000000000000e+03 5.731423187255859375e+01 2.240037918090820312e+01 -4.114453196525573730e-01 4.801016330718994141e+00 1.316871285438537598e+00 1.472028970718383789e+00
7.322000000000000000e+03 5.491508102416992188e+01 1.844041061401367188e+01 -4.080892205238342285e-01 3.723631620407104492e+00 9.946627616882324219e-01 1.010414600372314453e+00
7.323000000000000000e+03 5.709225463867187500e+01 1.395658779144287109e+01 -5.488305687904357910e-01 4.623526096343994141e+00 1.222408652305603027e+00 7.350229024887084961e-01
7.324000000000000000e+03 5.284025192260742188e+01 1.791779327392578125e+01 -3.111953437328338623e-01 2.830557584762573242e+00 7.558087110519409180e-01 8.162497282028198242e-01
7.325000000000000000e+03 5.293596649169921875e+01 1.679619789123535156e+01 -3.497876822948455811e-01 2.953742504119873047e+00 7.811864018440246582e-01 7.670831084251403809e-01
7.326000000000000000e+03 5.651362609863281250e+01 9.068224906921386719e+00 -3.949772417545318604e-01 4.331121921539306641e+00 1.180843353271484375e+00 5.503704547882080078e-01
7.327000000000000000e+03 5.032914352416992188e+01 1.267094421386718750e+01 -2.974574565887451172e-01 2.364734411239624023e+00 6.201830506324768066e-01 5.083439946174621582e-01
7.328000000000000000e+03 4.617028808593750000e+01 3.397820472717285156e+00 -8.755945414304733276e-02 1.750434160232543945e+00 4.988624155521392822e-01 2.684511542320251465e-01
7.329000000000000000e+03 4.565469360351562500e+01 5.308410167694091797e+00 -1.528094857931137085e-01 1.563506007194519043e+00 4.232089519500732422e-01 2.448012679815292358e-01
7.330000000000000000e+03 4.601055145263671875e+01 8.014033317565917969e+00 -2.307193130254745483e-01 1.503355026245117188e+00 3.817907273769378662e-01 2.418047636747360229e-01
7.331000000000000000e+03 5.752128219604492188e+01 1.965580940246582031e+01 -5.939837694168090820e-01 4.941532135009765625e+00 1.304264545440673828e+00 1.149012446403503418e+00
7.332000000000000000e+03 5.683935165405273438e+01 1.066392326354980469e+01 -4.488477110862731934e-01 4.473129272460937500e+00 1.207284450531005859e+00 6.056985855102539062e-01
7.333000000000000000e+03 5.138235473632812500e+01 1.330795097351074219e+01 -3.146742284297943115e-01 2.650164604187011719e+00 7.006471157073974609e-01 5.845577120780944824e-01
7.334000000000000000e+03 5.414572143554687500e+01 4.844353675842285156e+00 -2.237580120563507080e-01 3.674070119857788086e+00 1.035093665122985840e+00 4.667493104934692383e-01
7.335000000000000000e+03 5.666168975830078125e+01 1.169799137115478516e+01 -4.795267581939697266e-01 4.417441844940185547e+00 1.181374549865722656e+00 6.523947119712829590e-01
7.336000000000000000e+03 5.705890274047851562e+01 1.266813850402832031e+01 -5.177143812179565430e-01 4.586663722991943359e+00 1.220684766769409180e+00 6.774723529815673828e-01
7.337000000000000000e+03 4.846958923339843750e+01 1.994755268096923828e+00 -6.944736838340759277e-02 2.318809747695922852e+00 6.748086810111999512e-01 3.225544691085815430e-01
7.338000000000000000e+03 4.409358978271484375e+01 4.474688529968261719e+00 -1.317522078752517700e-01 1.261950016021728516e+00 3.390593230724334717e-01 1.945441812276840210e-01
7.339000000000000000e+03 4.916181182861328125e+01 1.220727443695068359e+01 -2.788993120193481445e-01 2.049053192138671875e+00 5.310461521148681641e-01 4.270328581333160400e-01
7.340000000000000000e+03 5.259877777099609375e+01 -3.883895277976989746e-01 -7.870128750801086426e-02 3.332327842712402344e+00 9.760879874229431152e-01 3.640394210815429688e-01
7.341000000000000000e+03 5.364167785644531250e+01 6.769564628601074219e+00 -2.637859284877777100e-01 3.531489133834838867e+00 9.803109765052795410e-01 5.011446475982666016e-01
7.342000000000000000e+03 5.674319458007812500e+01 1.553348064422607422e+01 -5.549712777137756348e-01 4.525362491607666016e+00 1.191117286682128906e+00 8.209890127182006836e-01
7.343000000000000000e+03 5.624433135986328125e+01 1.008071708679199219e+01 -4.114337861537933350e-01 4.286959171295166016e+00 1.162657618522644043e+00 5.928239822387695312e-01
7.344000000000000000e+03 5.300513839721679688e+01 1.655510544776916504e+00 -1.307544410228729248e-01 3.407477378845214844e+00 9.830168485641479492e-01 4.044663608074188232e-01
7.345000000000000000e+03 4.986723709106445312e+01 2.748329877853393555e+00 -1.071600988507270813e-01 2.622107744216918945e+00 7.544842958450317383e-01 3.750861287117004395e-01
7.346000000000000000e+03 4.968183517456054688e+01 1.598945498466491699e+00 -7.650410383939743042e-02 2.599628448486328125e+00 7.569373250007629395e-01 3.520194888114929199e-01
7.347000000000000000e+03 4.573094558715820312e+01 6.618819236755371094e+00 -1.931866705417633057e-01 1.516460418701171875e+00 3.969821333885192871e-01 2.390076071023941040e-01
7.348000000000000000e+03 5.142652511596679688e+01 -3.391125202178955078e-01 -5.946094170212745667e-02 3.048129558563232422e+00 8.966006040573120117e-01 3.540993928909301758e-01
7.349000000000000000e+03 5.224200439453125000e+01 1.223165273666381836e+00 -1.084289848804473877e-01 3.230144262313842773e+00 9.365146160125732422e-01 3.898924291133880615e-01
7.350000000000000000e+03 5.259006881713867188e+01 3.750587224960327148e+00 -1.667578816413879395e-01 3.286027908325195312e+00 9.357810020446777344e-01 4.360564053058624268e-01
7.351000000000000000e+03 5.563816452026367188e+01 1.761344146728515625e+01 -4.817703366279602051e-01 4.035902023315429688e+00 1.066239595413208008e+00 9.577504396438598633e-01
7.352000000000000000e+03 5.382214736938476562e+01 1.805565071105957031e+01 -3.586618900299072266e-01 3.240359067916870117e+00 8.645091652870178223e-01 9.015251398086547852e-01
7.353000000000000000e+03 5.571775436401367188e+01 2.151929855346679688e+01 -3.094598948955535889e-01 3.874832868576049805e+00 1.069611907005310059e+00 1.301347851753234863e+00
7.354000000000000000e+03 5.659487533569335938e+01 2.111655807495117188e+01 -4.439591169357299805e-01 4.464690685272216797e+00 1.206219553947448730e+00 1.302616357803344727e+00
7.355000000000000000e+03 5.415279388427734375e+01 1.685904502868652344e+01 -3.947630226612091064e-01 3.426440477371215820e+00 9.095032215118408203e-01 8.623493909835815430e-01
7.356000000000000000e+03 5.126714706420898438e+01 1.403163719177246094e+01 -3.172957301139831543e-01 2.551662921905517578e+00 6.703101992607116699e-01 5.922063589096069336e-01
7.357000000000000000e+03 5.735254669189453125e+01 2.176038360595703125e+01 -4.804775714874267578e-01 4.822349071502685547e+00 1.302561402320861816e+00 1.384660482406616211e+00
7.358000000000000000e+03 5.417138671875000000e+01 1.833263587951660156e+01 -3.666266798973083496e-01 3.351002931594848633e+00 8.953129053115844727e-01 9.390283823013305664e-01
7.359000000000000000e+03 4.657162475585937500e+01 1.050484371185302734e+01 -2.727416157722473145e-01 1.490175127983093262e+00 3.652300536632537842e-01 2.514715194702148438e-01
7.360000000000000000e+03 5.443528366088867188e+01 8.891562461853027344e+00 -3.332477807998657227e-01 3.746962070465087891e+00 1.024114251136779785e+00 5.662434101104736328e-01
7.361000000000000000e+03 5.566629791259765625e+01 1.940223121643066406e+01 -4.313180744647979736e-01 3.983297109603881836e+00 1.065593719482421875e+00 1.113702178001403809e+00
7.362000000000000000e+03 5.287985610961914062e+01 1.587578392028808594e+01 -3.561783134937286377e-01 3.010364770889282227e+00 7.962558865547180176e-01 7.502195239067077637e-01
7.363000000000000000e+03 4.346890640258789062e+01 5.233759403228759766e+00 -1.728700101375579834e-01 1.100635170936584473e+00 2.783295512199401855e-01 1.555741578340530396e-01
7.364000000000000000e+03 5.375555801391601562e+01 7.816291809082031250e+00 -2.921592891216278076e-01 3.545047760009765625e+00 9.758665561676025391e-01 5.303567051887512207e-01
7.365000000000000000e+03 4.685758590698242188e+01 1.148294353485107422e+01 -2.814722955226898193e-01 1.490406632423400879e+00 3.626802861690521240e-01 2.585864663124084473e-01
7.366000000000000000e+03 4.742629241943359375e+01 1.164417743682861328e+01 -2.772766351699829102e-01 1.632832646369934082e+00 4.066667854785919189e-01 3.009381890296936035e-01
7.367000000000000000e+03 5.712385177612304688e+01 2.031391525268554688e+01 -5.341928005218505859e-01 4.709567070007324219e+00 1.252612233161926270e+00 1.214610457420349121e+00
7.368000000000000000e+03 5.197210693359375000e+01 1.498000335693359375e+01 -3.293874263763427734e-01 2.756659269332885742e+00 7.281816005706787109e-01 6.590636968612670898e-01
7.369000000000000000e+03 5.139694213867187500e+01 1.500942802429199219e+01 -3.084494769573211670e-01 2.542258739471435547e+00 6.701427698135375977e-01 6.192682981491088867e-01
7.370000000000000000e+03 4.501823806762695312e+01 6.672513484954833984e+00 -1.953217238187789917e-01 1.356081604957580566e+00 3.482279479503631592e-01 2.044451087713241577e-01
7.371000000000000000e+03 4.423667907714843750e+01 5.956779956817626953e+00 -1.846725195646286011e-01 1.220959424972534180e+00 3.108860552310943604e-01 1.808511167764663696e-01
7.372000000000000000e+03 5.240829849243164062e+01 1.560080146789550781e+01 -3.400809764862060547e-01 2.857658863067626953e+00 7.552734017372131348e-01 6.867762804031372070e-01
7.373000000000000000e+03 5.623377609252929688e+01 1.799436187744140625e+01 -5.211499929428100586e-01 4.301768779754638672e+00 1.134185552597045898e+00 9.968963861465454102e-01
7.374000000000000000e+03 5.703025436401367188e+01 1.967672920227050781e+01 -5.471370220184326172e-01 4.679562091827392578e+00 1.239727497100830078e+00 1.147632122039794922e+00
7.375000000000000000e+03 4.942515945434570312e+01 1.163714504241943359e+01 -2.782045602798461914e-01 2.160190582275390625e+00 5.645958185195922852e-01 4.367427825927734375e-01
7.376000000000000000e+03 4.629490280151367188e+01 1.147022438049316406e+01 -2.952042222023010254e-01 1.352951765060424805e+00 3.173242509365081787e-01 2.138991057872772217e-01
7.377000000000000000e+03 4.568466186523437500e+01 1.060610008239746094e+01 -2.860831022262573242e-01 1.251186728477478027e+00 2.895311117172241211e-01 1.846953183412551880e-01
7.378000000000000000e+03 4.674048995971679688e+01 7.829371929168701172e+00 -2.152768671512603760e-01 1.685648083686828613e+00 4.411113858222961426e-01 2.850400805473327637e-01
7.379000000000000000e+03 4.655469894409179688e+01 7.177855968475341797e+00 -2.018371373414993286e-01 1.676735997200012207e+00 4.424696564674377441e-01 2.794879078865051270e-01
7.380000000000000000e+03 5.676424407958984375e+01 1.859007453918457031e+01 -5.508747696876525879e-01 4.544965267181396484e+00 1.198227167129516602e+00 1.051083087921142578e+00
7.381000000000000000e+03 5.594110107421875000e+01 1.990870666503906250e+01 -4.334126710891723633e-01 4.100343704223632812e+00 1.100079298019409180e+00 1.160382866859436035e+00
7.382000000000000000e+03 5.315974044799804688e+01 1.229130077362060547e+01 -3.665370345115661621e-01 3.260108709335327148e+00 8.680714964866638184e-01 6.301280856132507324e-01
7.383000000000000000e+03 5.706354522705078125e+01 2.081285476684570312e+01 -4.945988655090332031e-01 4.698264598846435547e+00 1.261099696159362793e+00 1.275261044502258301e+00
7.384000000000000000e+03 5.619370269775390625e+01 1.618325805664062500e+01 -5.193994045257568359e-01 4.298305034637451172e+00 1.133671641349792480e+00 8.783066272735595703e-01
7.385000000000000000e+03 5.294127655029296875e+01 6.290295124053955078e+00 -2.356940060853958130e-01 3.342858314514160156e+00 9.321493506431579590e-01 4.872580468654632568e-01
7.386000000000000000e+03 4.906672286987304688e+01 3.709220409393310547e+00 -1.187459900975227356e-01 2.423299789428710938e+00 6.913661360740661621e-01 3.575211763381958008e-01
7.387000000000000000e+03 4.657897186279296875e+01 4.012142658233642578e+00 -1.163039803504943848e-01 1.818109631538391113e+00 5.105416774749755859e-01 2.888985276222229004e-01
7.388000000000000000e+03 5.639763259887695312e+01 1.304813861846923828e+01 -4.938730299472808838e-01 4.346859455108642578e+00 1.155895948410034180e+00 7.089121937751770020e-01
7.389000000000000000e+03 5.660046768188476562e+01 1.252213573455810547e+01 -4.931173622608184814e-01 4.396935462951660156e+00 1.171145558357238770e+00 6.873620748519897461e-01
7.390000000000000000e+03 4.815563964843750000e+01 3.644632339477539062e+00 -1.117725819349288940e-01 2.187205314636230469e+00 6.226298809051513672e-01 3.367303907871246338e-01
7.391000000000000000e+03 4.728952407836914062e+01 3.744232416152954102e+00 -1.031257882714271545e-01 1.983101606369018555e+00 5.639927387237548828e-01 3.126842677593231201e-01
7.392000000000000000e+03 5.042489242553710938e+01 2.063330173492431641e+00 -9.761880338191986084e-02 2.769793033599853516e+00 8.016523122787475586e-01 3.791272342205047607e-01
7.393000000000000000e+03 5.182011032104492188e+01 1.284250450134277344e+01 -3.274547159671783447e-01 2.800105094909667969e+00 7.417951226234436035e-01 5.929278731346130371e-01
7.394000000000000000e+03 5.350628662109375000e+01 5.575021266937255859e+00 -2.310362607240676880e-01 3.503122568130493164e+00 9.816259145736694336e-01 4.756932258605957031e-01
7.395000000000000000e+03 4.422060394287109375e+01 5.180966377258300781e+00 -1.658487915992736816e-01 1.255902647972106934e+00 3.270161449909210205e-01 1.890432089567184448e-01
7.396000000000000000e+03 4.823851394653320312e+01 2.829920053482055664e+00 -8.723960071802139282e-02 2.228471994400024414e+00 6.423697471618652344e-01 3.315623104572296143e-01
7.397000000000000000e+03 4.927910232543945312e+01 2.296579122543334961e+00 -8.703395724296569824e-02 2.499073028564453125e+00 7.236117124557495117e-01 3.470277488231658936e-01
7.398000000000000000e+03 5.097361755371093750e+01 1.255913615226745605e+00 -8.645929396152496338e-02 2.929110050201416016e+00 8.527952432632446289e-01 3.685583174228668213e-01
7.399000000000000000e+03 5.167338943481445312e+01 6.211451292037963867e-01 -8.459326624870300293e-02 3.088652610778808594e+00 9.012178182601928711e-01 3.733834624290466309e-01
7.400000000000000000e+03 5.666242218017578125e+01 1.448997879028320312e+01 -5.368126034736633301e-01 4.485400676727294922e+00 1.184576392173767090e+00 7.642138600349426270e-01
7.401000000000000000e+03 5.610977172851562500e+01 1.399333000183105469e+01 -4.995030462741851807e-01 4.274230003356933594e+00 1.132418155670166016e+00 7.510761618614196777e-01
7.402000000000000000e+03 5.400338363647460938e+01 1.612372207641601562e+01 -3.970531225204467773e-01 3.409825325012207031e+00 9.038316607475280762e-01 8.184630870819091797e-01
7.403000000000000000e+03 4.758964157104492188e+01 1.107809925079345703e+01 -2.683500349521636963e-01 1.714592218399047852e+00 4.338726699352264404e-01 3.140223920345306396e-01
7.404000000000000000e+03 5.577836990356445312e+01 1.850736999511718750e+01 -4.647473394870758057e-01 4.078894138336181641e+00 1.084244132041931152e+00 1.041392445564270020e+00
7.405000000000000000e+03 5.192753601074218750e+01 1.547764492034912109e+01 -3.263472914695739746e-01 2.728237152099609375e+00 7.205669879913330078e-01 6.814247369766235352e-01
7.406000000000000000e+03 5.617193984985351562e+01 1.504791355133056641e+01 -5.161549448966979980e-01 4.315349578857421875e+00 1.139758348464965820e+00 8.070726394653320312e-01
7.407000000000000000e+03 5.180218887329101562e+01 1.378884029388427734e+01 -3.232620656490325928e-01 2.757747411727905273e+00 7.303456068038940430e-01 6.246698498725891113e-01
7.408000000000000000e+03 5.088000488281250000e+01 1.295227527618408203e+01 -3.071428537368774414e-01 2.512434959411621094e+00 6.615876555442810059e-01 5.461023449897766113e-01
7.409000000000000000e+03 5.004045867919921875e+01 1.186319732666015625e+01 -2.853720486164093018e-01 2.328386306762695312e+00 6.129042506217956543e-01 4.790527820587158203e-01
7.410000000000000000e+03 5.491540908813476562e+01 1.001001262664794922e+01 -3.717555701732635498e-01 3.859339237213134766e+00 1.046275138854980469e+00 5.944955945014953613e-01
7.411000000000000000e+03 5.646912384033203125e+01 1.972664451599121094e+01 -4.875754714012145996e-01 4.383534908294677734e+00 1.168787837028503418e+00 1.152069330215454102e+00
7.412000000000000000e+03 5.198617935180664062e+01 1.439018058776855469e+01 -3.288207054138183594e-01 2.782975912094116211e+00 7.362465262413024902e-01 6.418918371200561523e-01
7.413000000000000000e+03 5.329037475585937500e+01 1.633787155151367188e+01 -3.614603877067565918e-01 3.128293275833129883e+00 8.300498723983764648e-01 7.907159924507141113e-01
7.414000000000000000e+03 4.611190795898437500e+01 1.094050312042236328e+01 -2.853946387767791748e-01 1.345855951309204102e+00 3.181383907794952393e-01 2.112683653831481934e-01
7.415000000000000000e+03 4.604162597656250000e+01 9.994555473327636719e+00 -2.734833061695098877e-01 1.385088086128234863e+00 3.334814310073852539e-01 2.168250977993011475e-01
7.416000000000000000e+03 4.862963867187500000e+01 5.731779575347900391e+00 -1.625040620565414429e-01 2.250208139419555664e+00 6.263112425804138184e-01 3.731759488582611084e-01
7.417000000000000000e+03 4.770148468017578125e+01 8.197162628173828125e+00 -2.155426740646362305e-01 1.896102786064147949e+00 5.041680335998535156e-01 3.306151926517486572e-01
7.418000000000000000e+03 5.255265045166015625e+01 1.507929325103759766e+01 -3.406670093536376953e-01 2.916807174682617188e+00 7.728420495986938477e-01 6.886118650436401367e-01
7.419000000000000000e+03 4.881518173217773438e+01 1.142436027526855469e+01 -2.684687972068786621e-01 2.005652904510498047e+00 5.211552381515502930e-01 4.016727805137634277e-01
7.420000000000000000e+03 5.374172210693359375e+01 9.052440643310546875e+00 -3.226080834865570068e-01 3.494636774063110352e+00 9.516086578369140625e-01 5.543246269226074219e-01
7.421000000000000000e+03 5.404463195800781250e+01 1.753497123718261719e+01 -3.780948519706726074e-01 3.377885580062866211e+00 8.999372124671936035e-01 8.921651840209960938e-01
7.422000000000000000e+03 4.723775863647460938e+01 7.007792949676513672e+00 -1.939211636781692505e-01 1.856736063957214355e+00 4.988444745540618896e-01 3.167518377304077148e-01
7.423000000000000000e+03 5.741873168945312500e+01 2.294824790954589844e+01 -3.884097039699554443e-01 4.836908817291259766e+00 1.334549784660339355e+00 1.547275424003601074e+00
7.424000000000000000e+03 5.359987258911132812e+01 8.403877258300781250e+00 -2.970482707023620605e-01 3.477589607238769531e+00 9.541624188423156738e-01 5.369952917098999023e-01
7.425000000000000000e+03 4.633218765258789062e+01 5.904193878173828125e+00 -1.681529432535171509e-01 1.693719625473022461e+00 4.576700031757354736e-01 2.740002870559692383e-01
7.426000000000000000e+03 4.604415130615234375e+01 4.317267417907714844e+00 -1.214308142662048340e-01 1.687951445579528809e+00 4.699562191963195801e-01 2.656019330024719238e-01
7.427000000000000000e+03 5.614271545410156250e+01 1.118633651733398438e+01 -4.426943659782409668e-01 4.262719631195068359e+00 1.146007657051086426e+00 6.309035420417785645e-01
7.428000000000000000e+03 5.065690612792968750e+01 1.212053775787353516e+01 -2.968204915523529053e-01 2.496770620346069336e+00 6.599850654602050781e-01 5.162509083747863770e-01
7.429000000000000000e+03 5.666500091552734375e+01 2.072155952453613281e+01 -4.510023295879364014e-01 4.484370708465576172e+00 1.210010528564453125e+00 1.269871354103088379e+00
7.430000000000000000e+03 5.591919708251953125e+01 2.041834068298339844e+01 -4.077459871768951416e-01 4.081595420837402344e+00 1.102154850959777832e+00 1.193754553794860840e+00
7.431000000000000000e+03 4.697864532470703125e+01 8.474594116210937500e+00 -2.318271994590759277e-01 1.714946389198303223e+00 4.449357688426971436e-01 2.974441349506378174e-01
7.432000000000000000e+03 4.660036849975585938e+01 9.461401939392089844e+00 -2.558766007423400879e-01 1.555092215538024902e+00 3.897646963596343994e-01 2.661214768886566162e-01
7.433000000000000000e+03 5.170404815673828125e+01 1.895197749137878418e+00 -1.114699319005012512e-01 3.107937097549438477e+00 8.989401459693908691e-01 3.961924612522125244e-01
7.434000000000000000e+03 5.433446502685546875e+01 1.239667129516601562e+01 -4.027227163314819336e-01 3.657198905944824219e+00 9.763428568840026855e-01 6.643420457839965820e-01
7.435000000000000000e+03 5.111656570434570312e+01 2.637591361999511719e+00 -1.212246268987655640e-01 2.950884342193603516e+00 8.488979339599609375e-01 3.890825808048248291e-01
7.436000000000000000e+03 4.820540237426757812e+01 4.392292499542236328e+00 -1.246456652879714966e-01 2.171324491500854492e+00 6.140036582946777344e-01 3.462730944156646729e-01
7.437000000000000000e+03 5.566793823242187500e+01 1.454028511047363281e+01 -4.799605906009674072e-01 4.088379383087158203e+00 1.082525610923767090e+00 7.823184132575988770e-01
7.438000000000000000e+03 5.044525146484375000e+01 3.383595705032348633e+00 -1.253436505794525146e-01 2.752558708190917969e+00 7.881645560264587402e-01 3.947036862373352051e-01
7.439000000000000000e+03 5.193753433227539062e+01 4.549239635467529297e+00 -1.781924068927764893e-01 3.105794191360473633e+00 8.782805800437927246e-01 4.368171095848083496e-01
7.440000000000000000e+03 5.385928726196289062e+01 1.476820659637451172e+01 -3.913893699645996094e-01 3.427810430526733398e+00 9.109262824058532715e-01 7.528458833694458008e-01
7.441000000000000000e+03 5.509300613403320312e+01 1.252937984466552734e+01 -4.313642084598541260e-01 3.894899368286132812e+00 1.039060592651367188e+00 6.831098794937133789e-01
7.442000000000000000e+03 5.125581359863281250e+01 1.243412303924560547e+01 -3.138976097106933594e-01 2.655983686447143555e+00 7.026258111000061035e-01 5.578651428222656250e-01
7.443000000000000000e+03 5.534698104858398438e+01 1.806659889221191406e+01 -4.445517957210540771e-01 3.899881601333618164e+00 1.036598920822143555e+00 9.990909099578857422e-01
7.444000000000000000e+03 5.517007446289062500e+01 1.410299301147460938e+01 -4.500344097614288330e-01 3.907640933990478516e+00 1.037281990051269531e+00 7.537313103675842285e-01
7.445000000000000000e+03 5.317090225219726562e+01 1.529913806915283203e+01 -3.637931644916534424e-01 3.152607202529907227e+00 8.366441726684570312e-01 7.486566901206970215e-01
7.446000000000000000e+03 5.483536911010742188e+01 1.599802398681640625e+01 -4.419230222702026367e-01 3.762446641921997070e+00 9.961571097373962402e-01 8.441140651702880859e-01
7.447000000000000000e+03 4.705290603637695312e+01 1.092239761352539062e+01 -2.723056077957153320e-01 1.561224102973937988e+00 3.866755366325378418e-01 2.776741087436676025e-01
7.448000000000000000e+03 5.129472351074218750e+01 5.403980255126953125e+00 -1.891382932662963867e-01 2.917052507400512695e+00 8.183742761611938477e-01 4.390418827533721924e-01
7.449000000000000000e+03 5.263817214965820312e+01 1.445185279846191406e+01 -3.456024229526519775e-01 3.001021862030029297e+00 7.966258525848388672e-01 6.800960302352905273e-01
7.450000000000000000e+03 5.426801681518554688e+01 1.064057731628417969e+01 -3.665491342544555664e-01 3.652426958084106445e+00 9.857633709907531738e-01 6.034047007560729980e-01
7.451000000000000000e+03 4.883609390258789062e+01 9.055048942565917969e+00 -2.432041317224502563e-01 2.145779132843017578e+00 5.707725286483764648e-01 3.885599672794342041e-01
7.452000000000000000e+03 4.497123336791992188e+01 5.207912921905517578e+00 -1.524189859628677368e-01 1.408888697624206543e+00 3.769409060478210449e-01 2.208818197250366211e-01
7.453000000000000000e+03 4.680065155029296875e+01 4.610941886901855469e+00 -1.268492490053176880e-01 1.849107861518859863e+00 5.166775584220886230e-01 2.950501441955566406e-01
7.454000000000000000e+03 5.167074966430664062e+01 1.183811759948730469e+01 -3.125900924205780029e-01 2.817339420318603516e+00 7.514247894287109375e-01 5.677080154418945312e-01
7.455000000000000000e+03 4.817389678955078125e+01 7.332376480102539062e+00 -2.026614546775817871e-01 2.066662549972534180e+00 5.592003464698791504e-01 3.578630685806274414e-01
7.456000000000000000e+03 5.267113876342773438e+01 7.997309684753417969e+00 -2.707301676273345947e-01 3.240059852600097656e+00 8.907989263534545898e-01 5.136863589286804199e-01
7.457000000000000000e+03 5.554601287841796875e+01 1.062349700927734375e+01 -4.050892591476440430e-01 4.083206176757812500e+00 1.103435158729553223e+00 6.121864914894104004e-01
7.458000000000000000e+03 5.297497940063476562e+01 8.507306098937988281e+00 -2.959616780281066895e-01 3.330245733261108398e+00 9.102852344512939453e-01 5.318782329559326172e-01
7.459000000000000000e+03 5.581579208374023438e+01 1.692866897583007812e+01 -4.958568811416625977e-01 4.131088733673095703e+00 1.090569615364074707e+00 9.191884994506835938e-01
7.460000000000000000e+03 5.504897308349609375e+01 1.755761718750000000e+01 -4.365367293357849121e-01 3.779698610305786133e+00 1.002948522567749023e+00 9.478422999382019043e-01
7.461000000000000000e+03 4.624692153930664062e+01 4.765359401702880859e+00 -1.354465335607528687e-01 1.721014261245727539e+00 4.756703078746795654e-01 2.745725512504577637e-01
7.462000000000000000e+03 5.342636108398437500e+01 1.357529544830322266e+01 -3.810271620750427246e-01 3.311316490173339844e+00 8.790867924690246582e-01 6.802979707717895508e-01
7.463000000000000000e+03 5.612641143798828125e+01 1.221327400207519531e+01 -4.690202772617340088e-01 4.254789829254150391e+00 1.135730862617492676e+00 6.748183965682983398e-01
7.464000000000000000e+03 4.752192687988281250e+01 5.099311351776123047e+00 -1.406058967113494873e-01 1.998638629913330078e+00 5.574098229408264160e-01 3.250210583209991455e-01
7.465000000000000000e+03 5.273244476318359375e+01 5.060005664825439453e+00 -2.058236896991729736e-01 3.301178693771362305e+00 9.286065101623535156e-01 4.606132805347442627e-01
7.466000000000000000e+03 5.183779525756835938e+01 3.208678483963012695e+00 -1.453751325607299805e-01 3.110656023025512695e+00 8.895843029022216797e-01 4.155631661415100098e-01
7.467000000000000000e+03 4.708338546752929688e+01 1.003818607330322266e+01 -2.568941712379455566e-01 1.642902016639709473e+00 4.158023297786712646e-01 2.902843654155731201e-01
7.468000000000000000e+03 5.442995834350585938e+01 1.429555034637451172e+01 -4.204021394252777100e-01 3.639395475387573242e+00 9.656980037689208984e-01 7.411094903945922852e-01
7.469000000000000000e+03 5.117195510864257812e+01 3.998720407485961914e+00 -1.520472317934036255e-01 2.935521125793457031e+00 8.350421190261840820e-01 4.141214191913604736e-01
7.470000000000000000e+03 5.044434738159179688e+01 4.829020500183105469e+00 -1.625767797231674194e-01 2.721891403198242188e+00 7.677944302558898926e-01 4.061649739742279053e-01
7.471000000000000000e+03 5.386396408081054688e+01 1.541745471954345703e+01 -3.942250013351440430e-01 3.410848379135131836e+00 9.049870371818542480e-01 7.845849394798278809e-01
7.472000000000000000e+03 5.326315307617187500e+01 1.465773963928222656e+01 -3.698954582214355469e-01 3.250321626663208008e+00 8.641278743743896484e-01 7.283796668052673340e-01
7.473000000000000000e+03 5.497611618041992188e+01 1.681425285339355469e+01 -4.438658952713012695e-01 3.782644510269165039e+00 1.001633644104003906e+00 8.940808773040771484e-01
7.474000000000000000e+03 4.729637145996093750e+01 9.088657379150390625e+00 -2.399954944849014282e-01 1.755472421646118164e+00 4.546431005001068115e-01 3.043165802955627441e-01
7.475000000000000000e+03 4.796436691284179688e+01 8.769974708557128906e+00 -2.322621941566467285e-01 1.932958245277404785e+00 5.102087855339050293e-01 3.447387516498565674e-01
7.476000000000000000e+03 5.348926162719726562e+01 1.300300979614257812e+01 -3.709517717361450195e-01 3.355128288269042969e+00 8.952529430389404297e-01 6.581648588180541992e-01
7.477000000000000000e+03 5.227044677734375000e+01 1.229193592071533203e+01 -3.311669528484344482e-01 2.969433307647705078e+00 7.914798855781555176e-01 6.082096099853515625e-01
7.478000000000000000e+03 5.405211257934570312e+01 1.364670848846435547e+01 -4.058774411678314209e-01 3.536636352539062500e+00 9.392277002334594727e-01 7.009788155555725098e-01
7.479000000000000000e+03 5.456722259521484375e+01 1.531102752685546875e+01 -4.246136248111724854e-01 3.670190334320068359e+00 9.736729860305786133e-01 7.980163693428039551e-01
7.480000000000000000e+03 5.551358413696289062e+01 1.353845977783203125e+01 -4.624873101711273193e-01 4.041752815246582031e+00 1.073779702186584473e+00 7.281195521354675293e-01
7.481000000000000000e+03 5.288795471191406250e+01 1.383475399017333984e+01 -3.524119257926940918e-01 3.125024557113647461e+00 8.317837715148925781e-01 6.732606887817382812e-01
7.482000000000000000e+03 5.308497619628906250e+01 1.074594497680664062e+01 -3.397557139396667480e-01 3.295062780380249023e+00 8.865921497344970703e-01 5.884599685668945312e-01
7.483000000000000000e+03 5.313964462280273438e+01 7.425405025482177734e+00 -2.677270472049713135e-01 3.382035017013549805e+00 9.342923760414123535e-01 5.112624168395996094e-01
7.484000000000000000e+03 4.696717834472656250e+01 5.807163238525390625e+00 -1.588031649589538574e-01 1.847136974334716797e+00 5.065001845359802246e-01 3.022578954696655273e-01
7.485000000000000000e+03 5.517152023315429688e+01 1.501239967346191406e+01 -4.566821753978729248e-01 3.894937515258789062e+00 1.031476616859436035e+00 7.954913377761840820e-01
7.486000000000000000e+03 4.906237030029296875e+01 1.085623931884765625e+01 -2.720631361007690430e-01 2.101350069046020508e+00 5.487860441207885742e-01 4.117590188980102539e-01
7.487000000000000000e+03 5.153570938110351562e+01 1.016315746307373047e+01 -2.836318314075469971e-01 2.849799871444702148e+00 7.698503732681274414e-01 5.267372727394104004e-01
7.488000000000000000e+03 5.550648880004882812e+01 1.180056953430175781e+01 -4.346436858177185059e-01 4.047057151794433594e+00 1.083724021911621094e+00 6.570045351982116699e-01
7.489000000000000000e+03 4.863943862915039062e+01 1.012297344207763672e+01 -2.581068575382232666e-01 2.046814441680908203e+00 5.366122722625732422e-01 3.827477097511291504e-01
7.490000000000000000e+03 4.641851806640625000e+01 6.533879280090332031e+00 -1.822517365217208862e-01 1.685434579849243164e+00 4.509548544883728027e-01 2.747547626495361328e-01
7.491000000000000000e+03 4.628636932373046875e+01 5.306091785430908203e+00 -1.452257633209228516e-01 1.711309552192687988e+00 4.698251485824584961e-01 2.737390697002410889e-01
7.492000000000000000e+03 5.203826522827148438e+01 1.113764667510986328e+01 -3.122501671314239502e-01 2.952378034591674805e+00 7.920383214950561523e-01 5.664554834365844727e-01
7.493000000000000000e+03 5.305935668945312500e+01 9.167664527893066406e+00 -3.040283024311065674e-01 3.351164340972900391e+00 9.141408205032348633e-01 5.468996167182922363e-01
7.494000000000000000e+03 5.247137832641601562e+01 6.988940715789794922e+00 -2.472592741250991821e-01 3.203840017318725586e+00 8.869742155075073242e-01 4.902771711349487305e-01
7.495000000000000000e+03 5.579751968383789062e+01 1.287020206451416016e+01 -4.682103097438812256e-01 4.154318809509277344e+00 1.105832576751708984e+00 6.996664404869079590e-01
7.496000000000000000e+03 5.558702850341796875e+01 1.562121677398681641e+01 -4.807282388210296631e-01 4.049523353576660156e+00 1.070638537406921387e+00 8.400889635086059570e-01
7.497000000000000000e+03 4.745738983154296875e+01 7.604817390441894531e+00 -2.084460258483886719e-01 1.874223947525024414e+00 4.997333884239196777e-01 3.293690383434295654e-01
7.498000000000000000e+03 4.745118331909179688e+01 4.458202362060546875e+00 -1.289429664611816406e-01 2.003719091415405273e+00 5.624328255653381348e-01 3.203381896018981934e-01
7.499000000000000000e+03 4.978339767456054688e+01 4.109700679779052734e+00 -1.423344910144805908e-01 2.565835714340209961e+00 7.270503640174865723e-01 3.831923604011535645e-01
7.500000000000000000e+03 5.216304397583007812e+01 5.838981628417968750e+00 -2.111553698778152466e-01 3.144109964370727539e+00 8.798863887786865234e-01 4.633340537548065186e-01
7.501000000000000000e+03 4.813314056396484375e+01 5.613720417022705078e+00 -1.478804051876068115e-01 2.128828287124633789e+00 5.942844152450561523e-01 3.475735783576965332e-01
7.502000000000000000e+03 5.419596099853515625e+01 1.306668472290039062e+01 -4.017519354820251465e-01 3.603369951248168945e+00 9.604853987693786621e-01 6.901125907897949219e-01
7.503000000000000000e+03 5.282648086547851562e+01 9.764031410217285156e+00 -3.154195249080657959e-01 3.237141370773315430e+00 8.765165805816650391e-01 5.517991185188293457e-01
7.504000000000000000e+03 5.393025207519531250e+01 1.419502925872802734e+01 -3.972400426864624023e-01 3.470232009887695312e+00 9.218975901603698730e-01 7.191780209541320801e-01
7.505000000000000000e+03 5.356919097900390625e+01 1.198152637481689453e+01 -3.712896704673767090e-01 3.403230190277099609e+00 9.095821976661682129e-01 6.328356266021728516e-01
7.506000000000000000e+03 4.748615646362304688e+01 1.055172824859619141e+01 -2.667149901390075684e-01 1.714607119560241699e+00 4.343676567077636719e-01 3.106845915317535400e-01
7.507000000000000000e+03 5.482448196411132812e+01 1.454510974884033203e+01 -4.410417377948760986e-01 3.781648874282836914e+00 1.002182126045227051e+00 7.679088115692138672e-01
7.508000000000000000e+03 5.099297714233398438e+01 1.152689456939697266e+01 -2.985991835594177246e-01 2.630125522613525391e+00 6.994579434394836426e-01 5.260017514228820801e-01
7.509000000000000000e+03 4.928383255004882812e+01 6.595581531524658203e+00 -1.854269355535507202e-01 2.359287261962890625e+00 6.521580815315246582e-01 3.914711475372314453e-01
7.510000000000000000e+03 4.770058441162109375e+01 9.667338371276855469e+00 -2.582730352878570557e-01 1.819514036178588867e+00 4.683723151683807373e-01 3.270944654941558838e-01
7.511000000000000000e+03 4.968339157104492188e+01 1.106165313720703125e+01 -2.716190814971923828e-01 2.267988920211791992e+00 5.989109277725219727e-01 4.479389190673828125e-01
7.512000000000000000e+03 5.358898925781250000e+01 1.014648246765136719e+01 -3.385164439678192139e-01 3.463716983795166016e+00 9.375602006912231445e-01 5.829200744628906250e-01
7.513000000000000000e+03 5.487182235717773438e+01 1.124185752868652344e+01 -3.965067267417907715e-01 3.839962959289550781e+00 1.033036828041076660e+00 6.297453045845031738e-01
7.514000000000000000e+03 5.172842407226562500e+01 6.625452995300292969e+00 -2.222040742635726929e-01 3.016880273818969727e+00 8.384028673171997070e-01 4.674382507801055908e-01
7.515000000000000000e+03 5.208679962158203125e+01 7.656426429748535156e+00 -2.515832185745239258e-01 3.098583459854125977e+00 8.541001081466674805e-01 4.955241382122039795e-01
7.516000000000000000e+03 5.486186599731445312e+01 1.323109340667724609e+01 -4.297827482223510742e-01 3.802865028381347656e+00 1.011924624443054199e+00 7.087827324867248535e-01
7.517000000000000000e+03 5.365524673461914062e+01 1.244329738616943359e+01 -3.782540261745452881e-01 3.411563634872436523e+00 9.099928736686706543e-01 6.434158086776733398e-01
7.518000000000000000e+03 4.819755554199218750e+01 5.053601741790771484e+00 -1.489506810903549194e-01 2.148871421813964844e+00 5.999761819839477539e-01 3.492107093334197998e-01
7.519000000000000000e+03 4.803794860839843750e+01 1.024368095397949219e+01 -2.546563148498535156e-01 1.872817873954772949e+00 4.854484498500823975e-01 3.451114296913146973e-01
7.520000000000000000e+03 4.981364059448242188e+01 7.876030921936035156e+00 -2.247661054134368896e-01 2.473994016647338867e+00 6.747683286666870117e-01 4.271882772445678711e-01
7.521000000000000000e+03 5.463246917724609375e+01 1.380817222595214844e+01 -4.237148463726043701e-01 3.721806287765502930e+00 9.894273877143859863e-01 7.297496199607849121e-01
7.522000000000000000e+03 4.896772003173828125e+01 5.146053791046142578e+00 -1.505380570888519287e-01 2.352999210357666016e+00 6.607383489608764648e-01 3.768264055252075195e-01
7.523000000000000000e+03 4.843936920166015625e+01 7.927893161773681641e+00 -2.089476138353347778e-01 2.112018108367919922e+00 5.709211230278015137e-01 3.745150268077850342e-01
7.524000000000000000e+03 5.418148422241210938e+01 1.171500015258789062e+01 -3.809712827205657959e-01 3.625227928161621094e+00 9.732769727706909180e-01 6.398881673812866211e-01
7.525000000000000000e+03 4.929056549072265625e+01 1.027827548980712891e+01 -2.652088701725006104e-01 2.206261873245239258e+00 5.823158621788024902e-01 4.257007539272308350e-01
7.526000000000000000e+03 5.276607894897460938e+01 1.188717269897460938e+01 -3.465723395347595215e-01 3.149159193038940430e+00 8.407760262489318848e-01 6.094316244125366211e-01
7.527000000000000000e+03 4.767591094970703125e+01 6.250157833099365234e+00 -1.733363568782806396e-01 1.994757056236267090e+00 5.464261770248413086e-01 3.326526582241058350e-01
7.528000000000000000e+03 5.058004379272460938e+01 1.067721748352050781e+01 -2.774759829044342041e-01 2.556723833084106445e+00 6.837744116783142090e-01 4.891193211078643799e-01
7.529000000000000000e+03 4.826794052124023438e+01 9.296517372131347656e+00 -2.430780082941055298e-01 1.985729455947875977e+00 5.227954387664794922e-01 3.665947020053863525e-01
7.530000000000000000e+03 5.069965362548828125e+01 7.225005149841308594e+00 -2.227329760789871216e-01 2.712269544601440430e+00 7.468609809875488281e-01 4.433672428131103516e-01
7.531000000000000000e+03 5.369421768188476562e+01 1.115747070312500000e+01 -3.563154041767120361e-01 3.484428882598876953e+00 9.384340643882751465e-01 6.094034910202026367e-01
7.532000000000000000e+03 5.088922500610351562e+01 6.334862232208251953e+00 -2.020118683576583862e-01 2.793877840042114258e+00 7.775598168373107910e-01 4.409039616584777832e-01
7.533000000000000000e+03 4.756721878051757812e+01 5.693002223968505859e+00 -1.582298129796981812e-01 1.985731959342956543e+00 5.482506155967712402e-01 3.290892541408538818e-01
7.534000000000000000e+03 5.234534454345703125e+01 8.559842109680175781e+00 -2.810220122337341309e-01 3.109392166137695312e+00 8.485110402107238770e-01 5.218300819396972656e-01
7.535000000000000000e+03 5.152989196777343750e+01 9.396428108215332031e+00 -2.861687541007995605e-01 2.879778146743774414e+00 7.780828475952148438e-01 5.111246109008789062e-01
7.536000000000000000e+03 4.878168487548828125e+01 9.575938224792480469e+00 -2.490337938070297241e-01 2.100184202194213867e+00 5.553451180458068848e-01 3.879202008247375488e-01
7.537000000000000000e+03 4.864766693115234375e+01 8.521044731140136719e+00 -2.222439795732498169e-01 2.135951280593872070e+00 5.741121768951416016e-01 3.854010403156280518e-01
7.538000000000000000e+03 4.845606613159179688e+01 6.489576816558837891e+00 -1.847710758447647095e-01 2.154345750808715820e+00 5.908724069595336914e-01 3.698707818984985352e-01
7.539000000000000000e+03 5.271973800659179688e+01 1.133986186981201172e+01 -3.294625282287597656e-01 3.157905340194702148e+00 8.485328555107116699e-01 5.996913313865661621e-01
7.540000000000000000e+03 5.236228942871093750e+01 1.039465332031250000e+01 -3.082538545131683350e-01 3.089016199111938477e+00 8.342286944389343262e-01 5.576452612876892090e-01
7.541000000000000000e+03 4.997354888916015625e+01 7.157303333282470703e+00 -2.089437395334243774e-01 2.551805019378662109e+00 7.028583884239196777e-01 4.300273954868316650e-01
7.542000000000000000e+03 5.129693984985351562e+01 1.087564563751220703e+01 -2.931418418884277344e-01 2.747688531875610352e+00 7.363639473915100098e-01 5.335428714752197266e-01
7.543000000000000000e+03 4.992408370971679688e+01 1.047453117370605469e+01 -2.730643153190612793e-01 2.357774257659912109e+00 6.254129409790039062e-01 4.543081820011138916e-01
7.544000000000000000e+03 4.959487152099609375e+01 8.946032524108886719e+00 -2.420652359724044800e-01 2.354774951934814453e+00 6.338129043579101562e-01 4.303217232227325439e-01
7.545000000000000000e+03 5.234164047241210938e+01 9.245130538940429688e+00 -2.896956801414489746e-01 3.093204498291015625e+00 8.410526514053344727e-01 5.306693315505981445e-01
7.546000000000000000e+03 5.142230224609375000e+01 7.389626979827880859e+00 -2.363288253545761108e-01 2.892212152481079102e+00 7.967649698257446289e-01 4.730250835418701172e-01
7.547000000000000000e+03 4.821213912963867188e+01 6.064540386199951172e+00 -1.777417510747909546e-01 2.122938394546508789e+00 5.835589766502380371e-01 3.578477501869201660e-01
7.548000000000000000e+03 5.322983932495117188e+01 1.158008480072021484e+01 -3.466457724571228027e-01 3.343664407730102539e+00 8.991055488586425781e-01 6.131994128227233887e-01
7.549000000000000000e+03 5.121195983886718750e+01 8.086810111999511719e+00 -2.487519383430480957e-01 2.821079492568969727e+00 7.716982364654541016e-01 4.760929346084594727e-01
7.550000000000000000e+03 5.177832031250000000e+01 8.310412406921386719e+00 -2.628135085105895996e-01 2.974885225296020508e+00 8.136215209960937500e-01 4.958522319793701172e-01
7.551000000000000000e+03 4.952038955688476562e+01 9.649245262145996094e+00 -2.569533288478851318e-01 2.310646295547485352e+00 6.161078810691833496e-01 4.314852356910705566e-01
7.552000000000000000e+03 4.916944122314453125e+01 7.767283916473388672e+00 -2.161404341459274292e-01 2.299913167953491211e+00 6.251318454742431641e-01 3.932003974914550781e-01
7.553000000000000000e+03 4.902267456054687500e+01 6.101058006286621094e+00 -1.823883056640625000e-01 2.313512086868286133e+00 6.393371224403381348e-01 3.918165266513824463e-01
7.554000000000000000e+03 5.046762466430664062e+01 8.828164100646972656e+00 -2.509799003601074219e-01 2.598864316940307617e+00 7.043653130531311035e-01 4.644193053245544434e-01
7.555000000000000000e+03 4.936126708984375000e+01 8.321866989135742188e+00 -2.238752692937850952e-01 2.338605165481567383e+00 6.344189643859863281e-01 4.110996127128601074e-01
7.556000000000000000e+03 5.001877593994140625e+01 6.343834877014160156e+00 -1.930737495422363281e-01 2.578870058059692383e+00 7.157388925552368164e-01 4.117802679538726807e-01
7.557000000000000000e+03 5.127783203125000000e+01 8.707019805908203125e+00 -2.572898268699645996e-01 2.840820550918579102e+00 7.750592231750488281e-01 4.912225902080535889e-01
7.558000000000000000e+03 5.076655960083007812e+01 1.008253383636474609e+01 -2.714781761169433594e-01 2.618889331817626953e+00 7.042233347892761230e-01 4.949602484703063965e-01
7.559000000000000000e+03 4.926630020141601562e+01 7.164481163024902344e+00 -1.994643211364746094e-01 2.335516214370727539e+00 6.408155560493469238e-01 3.888465464115142822e-01
7.560000000000000000e+03 5.049952697753906250e+01 8.036499977111816406e+00 -2.335566729307174683e-01 2.635165929794311523e+00 7.204827666282653809e-01 4.546430110931396484e-01
7.561000000000000000e+03 5.390316009521484375e+01 -3.119634628295898438e+01 2.356010824441909790e-01 4.259361267089843750e+00 1.348488688468933105e+00 3.858828246593475342e-01
7.562000000000000000e+03 2.748051452636718750e+01 4.101381301879882812e+01 1.901800744235515594e-02 6.885841488838195801e-02 2.636292576789855957e-02 4.402310121804475784e-03
7.563000000000000000e+03 2.524888992309570312e+01 3.662265396118164062e+01 1.511025894433259964e-02 7.049657404422760010e-02 2.568204887211322784e-02 1.899959705770015717e-02
7.564000000000000000e+03 8.350103378295898438e+00 4.104484558105468750e+01 -5.009816959500312805e-03 -4.328337684273719788e-02 -1.448795758187770844e-02 -8.166365441866219044e-04
7.565000000000000000e+03 7.824844837188720703e+00 3.551414489746093750e+01 -5.127249285578727722e-03 -4.471985250711441040e-02 -1.495413016527891159e-02 -5.024932324886322021e-03
7.566000000000000000e+03 2.072854042053222656e+01 -3.493761062622070312e+01 2.487854212522506714e-01 5.636118352413177490e-02 9.154397994279861450e-02 -1.722230762243270874e-01
7.567000000000000000e+03 1.964872741699218750e+01 -3.149856758117675781e+01 2.084770500659942627e-01 2.921925485134124756e-02 7.130888849496841431e-02 -2.183592170476913452e-01
7.568000000000000000e+03 5.661159896850585938e+01 -2.872820281982421875e+01 1.241008117794990540e-01 4.687706470489501953e+00 1.443542122840881348e+00 3.642415404319763184e-01
7.569000000000000000e+03 1.432789325714111328e+01 -3.386949539184570312e+01 1.347174346446990967e-01 -3.527541458606719971e-01 -6.541100889444351196e-02 -1.404099017381668091e-01
7.570000000000000000e+03 5.251768493652343750e+01 -4.122237014770507812e+01 7.791859507560729980e-01 4.095640659332275391e+00 1.462448000907897949e+00 4.120193049311637878e-02
7.571000000000000000e+03 1.291767406463623047e+01 3.533384323120117188e+01 -6.814570631831884384e-03 6.709013134241104126e-03 -3.166725946357473731e-05 -3.249566943850368261e-04
7.572000000000000000e+03 1.915810394287109375e+01 -2.848800659179687500e+01 1.914777606725692749e-01 2.274231612682342529e-02 6.426602602005004883e-02 -2.508637905120849609e-01
7.573000000000000000e+03 1.785795021057128906e+01 -3.024758911132812500e+01 1.903420239686965942e-01 -8.300905674695968628e-02 3.219988942146301270e-02 -2.190043926239013672e-01
7.574000000000000000e+03 1.517443275451660156e+01 3.370512390136718750e+01 -7.338347844779491425e-03 2.769504114985466003e-02 6.107008084654808044e-03 5.093778483569622040e-03
7.575000000000000000e+03 1.832449340820312500e+01 3.205621337890625000e+01 -2.227815333753824234e-03 5.509571358561515808e-02 1.586036942899227142e-02 1.561289001256227493e-02
7.576000000000000000e+03 5.090036773681640625e+01 -3.603322982788085938e+01 7.029795050621032715e-01 3.915530920028686523e+00 1.385553121566772461e+00 2.964485287666320801e-01
7.577000000000000000e+03 6.286880493164062500e+01 -2.989978790283203125e+01 1.322092860937118530e-01 5.712091445922851562e+00 1.753290176391601562e+00 3.414770066738128662e-01
7.578000000000000000e+03 6.507318115234375000e+01 -2.882410240173339844e+01 8.816240727901458740e-02 6.073648929595947266e+00 1.848543405532836914e+00 3.446682095527648926e-01
7.579000000000000000e+03 2.404506111145019531e+01 3.404123687744140625e+01 7.373219355940818787e-03 7.108058780431747437e-02 2.353614196181297302e-02 2.485669404268264771e-02
7.580000000000000000e+03 2.063513183593750000e+01 3.188233757019042969e+01 -3.827986947726458311e-04 6.608019024133682251e-02 1.970921829342842102e-02 2.241946570575237274e-02
7.581000000000000000e+03 9.503864288330078125e+00 -3.210929489135742188e+01 7.846900820732116699e-02 -6.397830843925476074e-01 -1.683942228555679321e-01 -1.306662261486053467e-01
7.582000000000000000e+03 6.697736358642578125e+01 -3.036508941650390625e+01 1.083802804350852966e-01 6.317326068878173828e+00 1.927711963653564453e+00 3.160886168479919434e-01
7.583000000000000000e+03 1.916271781921386719e+01 -3.777598953247070312e+01 2.251585721969604492e-01 -7.498551905155181885e-02 4.505191370844841003e-02 -9.412425756454467773e-02
7.584000000000000000e+03 1.610325050354003906e+01 -3.611591339111328125e+01 1.585077494382858276e-01 -2.313707321882247925e-01 -2.185889333486557007e-02 -1.163854151964187622e-01
7.585000000000000000e+03 1.283911800384521484e+01 -3.788372039794921875e+01 1.160574108362197876e-01 -4.449734985828399658e-01 -9.867482632398605347e-02 -7.246103882789611816e-02
7.586000000000000000e+03 5.727895736694335938e+01 -4.079491806030273438e+01 5.880467891693115234e-01 4.737894535064697266e+00 1.597782492637634277e+00 6.758695840835571289e-02
7.587000000000000000e+03 6.722982788085937500e+01 -4.080330657958984375e+01 2.129599153995513916e-01 6.319340705871582031e+00 1.959690213203430176e+00 4.068563133478164673e-02
7.588000000000000000e+03 6.693982696533203125e+01 -3.723295593261718750e+01 2.075342983007431030e-01 6.287999629974365234e+00 1.948660135269165039e+00 1.447207480669021606e-01
7.589000000000000000e+03 1.757055282592773438e+01 3.794301223754882812e+01 -4.277220927178859711e-03 3.746798262000083923e-02 9.957228787243366241e-03 5.453489255160093307e-03
7.590000000000000000e+03 1.282316780090332031e+01 4.109399414062500000e+01 -6.860629189759492874e-03 2.116759242198895663e-05 -2.051838440820574760e-03 -2.831756319210398942e-05
7.591000000000000000e+03 6.956205749511718750e+01 -3.310563278198242188e+01 1.082709059119224548e-01 6.748621463775634766e+00 2.057067632675170898e+00 2.031802684068679810e-01
7.592000000000000000e+03 5.869584274291992188e+01 -2.804691886901855469e+01 1.225358918309211731e-01 5.006928443908691406e+00 1.538839340209960938e+00 3.608660101890563965e-01
7.593000000000000000e+03 6.043429565429687500e+01 -2.747946548461914062e+01 8.810780942440032959e-02 5.344714164733886719e+00 1.629846572875976562e+00 3.643703758716583252e-01
7.594000000000000000e+03 1.627115631103515625e+01 3.147453308105468750e+01 -5.796890705823898315e-03 4.329629614949226379e-02 1.124982163310050964e-02 9.792761877179145813e-03
7.595000000000000000e+03 4.923934936523437500e+01 -3.422690582275390625e+01 5.757886767387390137e-01 3.719732046127319336e+00 1.288656234741210938e+00 3.194661438465118408e-01
7.596000000000000000e+03 5.414260864257812500e+01 -2.646185111999511719e+01 1.836671581258997321e-04 4.260450839996337891e+00 1.278190374374389648e+00 3.028357326984405518e-01
7.597000000000000000e+03 9.625390052795410156e+00 3.826224517822265625e+01 -6.393931340426206589e-03 -2.965413965284824371e-02 -1.081442087888717651e-02 -2.709327032789587975e-03
7.598000000000000000e+03 6.304271316528320312e+01 -3.314798355102539062e+01 2.317027300596237183e-01 5.695139408111572266e+00 1.778052568435668945e+00 3.027476966381072998e-01
7.599000000000000000e+03 6.226072692871093750e+01 -2.734959030151367188e+01 6.493395566940307617e-02 5.587935924530029297e+00 1.695860981941223145e+00 3.915185332298278809e-01
7.600000000000000000e+03 2.120351982116699219e+01 3.460300064086914062e+01 3.265206003561615944e-03 6.241008639335632324e-02 1.970258727669715881e-02 1.848827674984931946e-02
7.601000000000000000e+03 5.964244842529296875e+01 -3.243697738647460938e+01 2.584366500377655029e-01 5.153501033782958984e+00 1.623581290245056152e+00 3.150736689567565918e-01
7.602000000000000000e+03 5.658642959594726562e+01 -3.170125579833984375e+01 2.879265248775482178e-01 4.626896381378173828e+00 1.474446892738342285e+00 3.673277199268341064e-01
7.603000000000000000e+03 6.028454971313476562e+01 -2.967769432067871094e+01 1.627783477306365967e-01 5.245986461639404297e+00 1.622629523277282715e+00 3.581409752368927002e-01
7.604000000000000000e+03 5.053361892700195312e+01 3.791881179809570312e+01 2.542585730552673340e-01 6.505604367703199387e-03 7.822924852371215820e-02 1.459006220102310181e-01
7.605000000000000000e+03 4.718708801269531250e+01 3.645906829833984375e+01 1.637306660413742065e-01 8.958607912063598633e-02 7.599502801895141602e-02 8.445953577756881714e-02
7.606000000000000000e+03 4.513256835937500000e+01 3.590341949462890625e+01 1.234274581074714661e-01 4.499763250350952148e-02 5.052752792835235596e-02 6.333097815513610840e-02
7.607000000000000000e+03 1.800567626953125000e+01 -1.289534091949462891e+00 -1.861949324607849121e+00 -8.973049521446228027e-01 -8.277763128280639648e-01 -1.151901602745056152e+00
7.608000000000000000e+03 1.827053451538085938e+01 -1.347470879554748535e+00 -1.821963191032409668e+00 -9.914565682411193848e-01 -8.440259099006652832e-01 -1.155200719833374023e+00
7.609000000000000000e+03 1.831821060180664062e+01 -1.120365023612976074e+00 -1.955205917358398438e+00 -1.051604509353637695e+00 -9.020431041717529297e-01 -1.205417156219482422e+00
7.610000000000000000e+03 1.907221794128417969e+01 -1.029844641685485840e+00 -1.898983478546142578e+00 -1.688484668731689453e+00 -1.076240420341491699e+00 -1.748863101005554199e+00
7.611000000000000000e+03 1.956695556640625000e+01 -3.791193068027496338e-01 -2.312999010086059570e+00 -2.443035125732421875e+00 -1.426810264587402344e+00 -1.373725652694702148e+00
7.612000000000000000e+03 1.972537040710449219e+01 -2.344240546226501465e-01 -2.064466714859008789e+00 -2.369123697280883789e+00 -1.330077171325683594e+00 -1.811538457870483398e+00
7.613000000000000000e+03 1.986763381958007812e+01 -1.346804052591323853e-01 -2.071574211120605469e+00 -2.538189888000488281e+00 -1.382929205894470215e+00 -1.632457375526428223e+00
7.614000000000000000e+03 2.009781837463378906e+01 -2.294591963291168213e-01 -1.949755549430847168e+00 -2.881201028823852539e+00 -1.449287056922912598e+00 -1.698219060897827148e+00
7.615000000000000000e+03 2.116404342651367188e+01 5.447440743446350098e-01 -1.913319587707519531e+00 -6.883589029312133789e-01 -7.805035710334777832e-01 -2.071272373199462891e+00
7.616000000000000000e+03 2.168793106079101562e+01 9.060288667678833008e-01 -1.979087829589843750e+00 -5.489563345909118652e-01 -7.584132552146911621e-01 -1.749848484992980957e+00
7.617000000000000000e+03 2.229335784912109375e+01 1.353638052940368652e+00 -2.172318935394287109e+00 -5.276497006416320801e-01 -8.099905848503112793e-01 -1.454518556594848633e+00
7.618000000000000000e+03 2.246876716613769531e+01 1.448207855224609375e+00 -2.261558532714843750e+00 -5.181490182876586914e-01 -8.339122533798217773e-01 -1.425839662551879883e+00
7.619000000000000000e+03 2.330587387084960938e+01 1.988023281097412109e+00 -2.310524225234985352e+00 -4.349733293056488037e-01 -8.236492872238159180e-01 -1.214933753013610840e+00
7.620000000000000000e+03 2.345422172546386719e+01 2.080744743347167969e+00 -2.370313167572021484e+00 -5.033449530601501465e-01 -8.620974421501159668e-01 -1.145223498344421387e+00
7.621000000000000000e+03 2.366303443908691406e+01 1.862056612968444824e+00 -2.172448396682739258e+00 -3.987663388252258301e-01 -7.713644504547119141e-01 -1.017057061195373535e+00
7.622000000000000000e+03 2.390606307983398438e+01 1.884978294372558594e+00 -2.024306058883666992e+00 -3.711204230785369873e-01 -7.186279296875000000e-01 -9.729539155960083008e-01
7.623000000000000000e+03 2.413305473327636719e+01 2.011003971099853516e+00 -2.096032142639160156e+00 -4.161076545715332031e-01 -7.536419630050659180e-01 -9.653633236885070801e-01
7.624000000000000000e+03 2.417601966857910156e+01 2.455551624298095703e+00 -2.281499624252319336e+00 -5.321884155273437500e-01 -8.441064357757568359e-01 -1.098119139671325684e+00
7.625000000000000000e+03 2.469234275817871094e+01 2.801489114761352539e+00 -2.248408555984497070e+00 -5.282697081565856934e-01 -8.330035209655761719e-01 -1.068158984184265137e+00
7.626000000000000000e+03 2.467886924743652344e+01 2.457185506820678711e+00 -2.107217073440551758e+00 -4.491632580757141113e-01 -7.669141292572021484e-01 -9.506078958511352539e-01
7.627000000000000000e+03 2.500582504272460938e+01 2.694062232971191406e+00 -2.103410720825195312e+00 -4.929611086845397949e-01 -7.789115905761718750e-01 -9.778348207473754883e-01
7.628000000000000000e+03 2.516125679016113281e+01 2.804594516754150391e+00 -2.119694709777832031e+00 -5.389084815979003906e-01 -7.975809574127197266e-01 -9.783293604850769043e-01
7.629000000000000000e+03 2.537026214599609375e+01 3.209224939346313477e+00 -2.164656639099121094e+00 -5.867694616317749023e-01 -8.254278302192687988e-01 -1.070822596549987793e+00
7.630000000000000000e+03 2.530814361572265625e+01 2.905450344085693359e+00 -2.106947422027587891e+00 -5.257627964019775391e-01 -7.898130416870117188e-01 -9.886626005172729492e-01
7.631000000000000000e+03 2.591469383239746094e+01 3.530001163482666016e+00 -2.092967987060546875e+00 -6.748858690261840820e-01 -8.303561210632324219e-01 -1.070047974586486816e+00
7.632000000000000000e+03 2.627331542968750000e+01 3.435986757278442383e+00 -1.966969251632690430e+00 -6.455322504043579102e-01 -7.837504744529724121e-01 -9.750717282295227051e-01
7.633000000000000000e+03 2.644008445739746094e+01 3.565000057220458984e+00 -1.939414858818054199e+00 -6.743518114089965820e-01 -7.841300368309020996e-01 -9.767304658889770508e-01
7.634000000000000000e+03 2.668420219421386719e+01 3.825362443923950195e+00 -1.940714716911315918e+00 -7.388069629669189453e-01 -8.038564920425415039e-01 -1.022485733032226562e+00
7.635000000000000000e+03 2.656008148193359375e+01 3.993720769882202148e+00 -2.023621082305908203e+00 -7.599194049835205078e-01 -8.350622057914733887e-01 -1.094363451004028320e+00
7.636000000000000000e+03 2.701915931701660156e+01 3.988597869873046875e+00 -1.879467010498046875e+00 -7.584725022315979004e-01 -7.913818955421447754e-01 -1.002978801727294922e+00
7.637000000000000000e+03 2.728901290893554688e+01 3.821871042251586914e+00 -1.741097927093505859e+00 -7.347471714019775391e-01 -7.427535653114318848e-01 -8.962599635124206543e-01
7.638000000000000000e+03 2.743247604370117188e+01 4.117354393005371094e+00 -1.768009662628173828e+00 -8.115227818489074707e-01 -7.738597393035888672e-01 -9.615003466606140137e-01
7.639000000000000000e+03 2.792173385620117188e+01 4.828207969665527344e+00 -1.795044541358947754e+00 -1.010288596153259277e+00 -8.415999412536621094e-01 -1.076794266700744629e+00
7.640000000000000000e+03 2.843658447265625000e+01 4.745294570922851562e+00 -1.607385635375976562e+00 -9.647179245948791504e-01 -7.716310620307922363e-01 -8.998294472694396973e-01
7.641000000000000000e+03 2.878192901611328125e+01 5.391526699066162109e+00 -1.642024159431457520e+00 -1.108254551887512207e+00 -8.250836133956909180e-01 -9.719082713127136230e-01
7.642000000000000000e+03 4.246647262573242188e+01 3.329133224487304688e+01 7.456956803798675537e-02 4.859497770667076111e-02 3.694936260581016541e-02 6.289596855640411377e-02
7.643000000000000000e+03 4.153242874145507812e+01 3.249160766601562500e+01 7.323927432298660278e-02 5.428333207964897156e-02 3.825678303837776184e-02 5.739387869834899902e-02
7.644000000000000000e+03 5.270735549926757812e+01 3.306798171997070312e+01 -6.061723232269287109e-01 -5.597895383834838867e-01 -3.497885465621948242e-01 -6.404489278793334961e-01
7.645000000000000000e+03 2.934081268310546875e+01 9.591669082641601562e+00 -1.693575382232666016e+00 -9.258102178573608398e-01 -7.858157157897949219e-01 -1.273417949676513672e+00
7.646000000000000000e+03 2.831796073913574219e+01 9.099116325378417969e+00 -2.378173589706420898e+00 -1.648189544677734375e+00 -1.207908987998962402e+00 -1.925345897674560547e+00
7.647000000000000000e+03 2.742436790466308594e+01 8.270503997802734375e+00 -3.994367122650146484e+00 -2.058044910430908203e+00 -1.815723657608032227e+00 -3.052965879440307617e+00
7.648000000000000000e+03 2.710642814636230469e+01 8.175982475280761719e+00 -4.614178180694580078e+00 -3.137530565261840820e+00 -2.325512647628784180e+00 -3.840234756469726562e+00
7.649000000000000000e+03 2.595891952514648438e+01 7.296532154083251953e+00 -6.652283191680908203e+00 -3.435955286026000977e+00 -3.026471614837646484e+00 -4.067076683044433594e+00
7.650000000000000000e+03 5.964227294921875000e+01 3.290732574462890625e+01 3.698131322860717773e+00 2.418390750885009766e+00 1.834956645965576172e+00 3.443858861923217773e+00
7.651000000000000000e+03 6.003679656982421875e+01 3.264474105834960938e+01 4.060895442962646484e+00 4.862742424011230469e+00 2.677091360092163086e+00 5.073998928070068359e+00
7.652000000000000000e+03 6.043581390380859375e+01 3.254270553588867188e+01 3.791397809982299805e+00 7.362562656402587891e+00 3.346188068389892578e+00 6.079054355621337891e+00
7.653000000000000000e+03 6.091684341430664062e+01 3.238076782226562500e+01 2.701332807540893555e+00 1.170384979248046875e+01 4.321554660797119141e+00 6.372757434844970703e+00
7.654000000000000000e+03 6.112041854858398438e+01 3.271127700805664062e+01 3.088014364242553711e+00 1.302442932128906250e+01 4.833733081817626953e+00 6.720733165740966797e+00
7.655000000000000000e+03 6.012697601318359375e+01 3.624516677856445312e+01 1.813157081604003906e+00 5.414775371551513672e+00 2.168379783630371094e+00 -4.111887931823730469e+00
7.656000000000000000e+03 6.045059967041015625e+01 3.621931838989257812e+01 1.884746909141540527e+00 7.053092479705810547e+00 2.681351900100708008e+00 -4.975722312927246094e+00
7.657000000000000000e+03 5.166641235351562500e+01 3.864122009277343750e+01 1.809505373239517212e-01 2.471556067466735840e-01 1.284318417310714722e-01 9.809568524360656738e-02
7.658000000000000000e+03 1.501755809783935547e+01 9.275605678558349609e-01 9.622712135314941406e+00 1.525841236114501953e+00 3.344566106796264648e+00 -3.650479316711425781e+00
7.659000000000000000e+03 4.431164169311523438e+01 -4.103178024291992188e+01 1.213581919670104980e+00 2.686540842056274414e+00 1.170036792755126953e+00 2.374995350837707520e-01
7.660000000000000000e+03 4.518071365356445312e+01 -4.010566329956054688e+01 1.096554875373840332e+00 3.173024654388427734e+00 1.280873894691467285e+00 4.487904012203216553e-01
7.661000000000000000e+03 4.645296859741210938e+01 -3.961867141723632812e+01 1.032105922698974609e+00 3.618633031845092773e+00 1.395221710205078125e+00 3.685695677995681763e-02
7.662000000000000000e+03 4.459444808959960938e+01 -3.925203704833984375e+01 1.063377261161804199e+00 3.813669204711914062e+00 1.463113903999328613e+00 6.441696882247924805e-01
7.663000000000000000e+03 5.916013336181640625e+01 3.255728912353515625e+01 3.096966028213500977e+00 2.308383226394653320e+00 1.621604681015014648e+00 2.964994907379150391e+00
7.664000000000000000e+03 5.996901702880859375e+01 3.243646240234375000e+01 3.722997903823852539e+00 5.070863246917724609e+00 2.638158321380615234e+00 4.988409042358398438e+00
7.665000000000000000e+03 5.986143112182617188e+01 3.264529418945312500e+01 3.859974622726440430e+00 3.970751285552978516e+00 2.349217653274536133e+00 4.463191509246826172e+00
7.666000000000000000e+03 6.022777557373046875e+01 3.259215545654296875e+01 4.042243957519531250e+00 5.984705448150634766e+00 3.008084774017333984e+00 5.632438182830810547e+00
7.667000000000000000e+03 6.018088912963867188e+01 3.232340240478515625e+01 3.492285013198852539e+00 6.344934463500976562e+00 2.951165914535522461e+00 5.372708320617675781e+00
7.668000000000000000e+03 5.658319473266601562e+01 3.797040939331054688e+01 9.136385470628738403e-02 1.018714547157287598e+00 3.330235183238983154e-01 2.708010375499725342e-01
7.669000000000000000e+03 2.072844314575195312e+01 -3.960016667842864990e-01 -2.746085643768310547e+00 -1.384383678436279297e+00 -1.239140748977661133e+00 -2.220972061157226562e+00
7.670000000000000000e+03 2.116442680358886719e+01 -1.756304502487182617e-01 -1.624607920646667480e+00 3.398538231849670410e-01 -3.854262530803680420e-01 -2.075620174407958984e+00
7.671000000000000000e+03 2.260744476318359375e+01 1.258612632751464844e+00 -2.057025909423828125e+00 -2.606715857982635498e-01 -6.953092813491821289e-01 -1.295904874801635742e+00
7.672000000000000000e+03 2.915829467773437500e+01 5.295096397399902344e+00 -1.572420358657836914e+00 -9.448816180229187012e-01 -7.551906108856201172e-01 -8.627240061759948730e-01
7.673000000000000000e+03 5.289079284667968750e+01 3.274904251098632812e+01 -5.748983621597290039e-01 -3.617007434368133545e-01 -2.809797525405883789e-01 -5.543760657310485840e-01
7.674000000000000000e+03 2.190270423889160156e+01 7.385888695716857910e-01 -1.943377614021301270e+00 -4.453843533992767334e-01 -7.166286110877990723e-01 -1.676019430160522461e+00
7.675000000000000000e+03 2.595020103454589844e+01 2.910292863845825195e+00 -1.915185213088989258e+00 -5.609597563743591309e-01 -7.428435087203979492e-01 -8.586823940277099609e-01
7.676000000000000000e+03 2.675670814514160156e+01 3.649221658706665039e+00 -1.892910838127136230e+00 -7.082537412643432617e-01 -7.803493738174438477e-01 -9.579269289970397949e-01
7.677000000000000000e+03 2.684382057189941406e+01 3.907209634780883789e+00 -1.925767540931701660e+00 -7.643743753433227539e-01 -8.070425391197204590e-01 -1.026290059089660645e+00
7.678000000000000000e+03 2.705475616455078125e+01 3.507264852523803711e+00 -1.739949107170104980e+00 -7.060361504554748535e-01 -7.337955832481384277e-01 -8.653590679168701172e-01
7.679000000000000000e+03 2.600069046020507812e+01 2.554464340209960938e+00 -1.719184637069702148e+00 -4.717315733432769775e-01 -6.572748422622680664e-01 -7.387754321098327637e-01
7.680000000000000000e+03 2.531646156311035156e+01 2.595302343368530273e+00 -1.938340425491333008e+00 -4.749098420143127441e-01 -7.239750623703002930e-01 -8.720341324806213379e-01
7.681000000000000000e+03 2.545553207397460938e+01 2.730607032775878906e+00 -1.962523698806762695e+00 -5.065972208976745605e-01 -7.407363057136535645e-01 -8.872051239013671875e-01
7.682000000000000000e+03 2.486151695251464844e+01 1.991482377052307129e+00 -1.772185206413269043e+00 -4.002229869365692139e-01 -6.517224311828613281e-01 -7.601063847541809082e-01
7.683000000000000000e+03 2.335440444946289062e+01 1.666976690292358398e+00 -2.137722730636596680e+00 -3.445453345775604248e-01 -7.446804046630859375e-01 -1.093203544616699219e+00
7.684000000000000000e+03 2.361643791198730469e+01 1.555920004844665527e+00 -1.954915642738342285e+00 -2.638516128063201904e-01 -6.656301617622375488e-01 -9.544334411621093750e-01
7.685000000000000000e+03 6.065195083618164062e+01 3.196890640258789062e+01 2.316534519195556641e+00 9.792022705078125000e+00 3.632567405700683594e+00 5.629459857940673828e+00
7.686000000000000000e+03 6.139863586425781250e+01 3.162276077270507812e+01 9.925863146781921387e-01 1.341899871826171875e+01 4.323475360870361328e+00 4.532432556152343750e+00
7.687000000000000000e+03 4.666423034667968750e+01 3.812835693359375000e+01 1.454689800739288330e-01 3.494745120406150818e-02 5.412492901086807251e-02 3.749096393585205078e-02
7.688000000000000000e+03 1.976119804382324219e+01 -5.545312762260437012e-01 -2.687053680419921875e+00 -2.496490716934204102e+00 -1.555063247680664062e+00 -1.565642476081848145e+00
7.689000000000000000e+03 1.936515808105468750e+01 -6.927618384361267090e-01 -2.604763269424438477e+00 -1.803210139274597168e+00 -1.322391986846923828e+00 -1.365072846412658691e+00
7.690000000000000000e+03 1.874153709411621094e+01 -2.338049411773681641e+00 -1.256440877914428711e+00 -2.043791055679321289e+00 -9.900696277618408203e-01 -1.305573344230651855e+00
7.691000000000000000e+03 1.667883110046386719e+01 -2.569138526916503906e+00 -1.311216711997985840e+00 -7.931523919105529785e-01 -6.313107609748840332e-01 -8.379930257797241211e-01
7.692000000000000000e+03 2.955628204345703125e+01 5.348618507385253906e+00 -1.470857739448547363e+00 -8.375853300094604492e-01 -6.925329566001892090e-01 -8.041865825653076172e-01
7.693000000000000000e+03 4.328469085693359375e+01 3.465666198730468750e+01 9.952557086944580078e-02 4.500109702348709106e-02 4.335800185799598694e-02 5.841607600450515747e-02
7.694000000000000000e+03 4.276952362060546875e+01 3.411404037475585938e+01 8.355428278446197510e-02 5.145464092493057251e-02 4.050267487764358521e-02 5.566256865859031677e-02
7.695000000000000000e+03 1.319494438171386719e+01 4.121913909912109375e+00 2.307001501321792603e-01 1.021729230880737305e+00 3.757288157939910889e-01 -1.804420799016952515e-01
7.696000000000000000e+03 6.302394866943359375e+01 3.843618011474609375e+01 -1.271867632865905762e+00 1.420482826232910156e+01 3.879888057708740234e+00 1.521903723478317261e-01
7.697000000000000000e+03 5.284318161010742188e+01 4.189008712768554688e+01 7.590191960334777832e-01 -5.619433522224426270e-01 5.912276729941368103e-02 2.081674635410308838e-01
7.698000000000000000e+03 4.655134963989257812e+01 3.943401336669921875e+01 1.640093922615051270e-01 6.413701456040143967e-03 5.112692713737487793e-02 2.791434153914451599e-02
7.699000000000000000e+03 2.194446372985839844e+01 -2.017416507005691528e-01 -1.097502589225769043e+00 3.884104490280151367e-01 -2.127276659011840820e-01 -1.179737091064453125e+00
7.700000000000000000e+03 2.273302268981933594e+01 -5.597130656242370605e-01 -3.905123174190521240e-01 5.977682471275329590e-01 6.217676773667335510e-02 -7.364593744277954102e-01
7.701000000000000000e+03 2.279400825500488281e+01 1.371897220611572266e+00 -2.128783702850341797e+00 -3.506295979022979736e-01 -7.438239455223083496e-01 -1.217269659042358398e+00
7.702000000000000000e+03 4.059521865844726562e+01 3.215866851806640625e+01 6.631180644035339355e-02 5.620490759611129761e-02 3.675501421093940735e-02 6.414505839347839355e-02
7.703000000000000000e+03 1.313227844238281250e+01 1.738478779792785645e+00 1.530999064445495605e+00 6.527125239372253418e-01 6.551134586334228516e-01 -5.142325758934020996e-01
7.704000000000000000e+03 2.694219779968261719e+01 3.712226390838623047e+00 -1.834221839904785156e+00 -7.015094757080078125e-01 -7.607193589210510254e-01 -9.246972799301147461e-01
7.705000000000000000e+03 2.684247779846191406e+01 3.428019762039184570e+00 -1.769548296928405762e+00 -6.642954349517822266e-01 -7.301531434059143066e-01 -8.648917675018310547e-01
7.706000000000000000e+03 2.209264945983886719e+01 7.876558899879455566e-01 -1.894307255744934082e+00 -1.032851189374923706e-01 -5.992777347564697266e-01 -1.526069164276123047e+00
7.707000000000000000e+03 2.207855606079101562e+01 8.513153791427612305e-01 -1.915243029594421387e+00 -9.662369638681411743e-02 -6.035600304603576660e-01 -1.533153772354125977e+00
7.708000000000000000e+03 2.203480720520019531e+01 6.059220433235168457e-01 -1.863554358482360840e+00 4.160613939166069031e-02 -5.465844273567199707e-01 -1.475315213203430176e+00
7.709000000000000000e+03 2.278077697753906250e+01 8.833259344100952148e-01 -1.818414926528930664e+00 -1.227876469492912292e-01 -5.823607444763183594e-01 -1.103848099708557129e+00
7.710000000000000000e+03 2.236404991149902344e+01 6.966167092323303223e-01 -1.775239825248718262e+00 -1.084068939089775085e-01 -5.650939941406250000e-01 -1.195197582244873047e+00
7.711000000000000000e+03 2.227028656005859375e+01 3.742430210113525391e-01 -1.524824380874633789e+00 1.587558090686798096e-01 -4.098205566406250000e-01 -1.219724297523498535e+00
7.712000000000000000e+03 3.994249343872070312e+01 1.989131164550781250e+01 -7.785658240318298340e-01 -7.889241576194763184e-01 -4.702470004558563232e-01 -8.642042875289916992e-01
7.713000000000000000e+03 2.923283767700195312e+01 4.702802658081054688e+00 -1.441720366477966309e+00 -8.203936815261840820e-01 -6.786342263221740723e-01 -7.205130457878112793e-01
7.714000000000000000e+03 4.852091312408447266e+00 -3.807878971099853516e+00 -1.017442643642425537e-01 -7.154618203639984131e-02 -5.198713392019271851e-02 -1.215139031410217285e-01
7.715000000000000000e+03 5.166827392578125000e+01 3.965762329101562500e+01 -1.132346093654632568e-01 -1.555316150188446045e-01 -8.062987029552459717e-02 3.964774608612060547e-01
7.716000000000000000e+03 1.777232742309570312e+01 -2.450388908386230469e+00 -1.520674943923950195e+00 -1.234280824661254883e+00 -8.264867663383483887e-01 -1.127125382423400879e+00
7.717000000000000000e+03 6.065404510498046875e+01 3.617844772338867188e+01 1.586117148399353027e+00 8.330100059509277344e+00 2.974865198135375977e+00 -5.209921360015869141e+00
7.718000000000000000e+03 1.170317554473876953e+01 3.189221620559692383e+00 6.492830514907836914e-01 4.270558804273605347e-02 2.075966000556945801e-01 -1.851062327623367310e-01
7.719000000000000000e+03 5.962156677246093750e+01 3.624972152709960938e+01 1.856870412826538086e+00 3.375006914138793945e+00 1.569563150405883789e+00 -2.961296081542968750e+00
7.720000000000000000e+03 5.988217163085937500e+01 3.641530227661132812e+01 1.602933883666992188e+00 4.629599571228027344e+00 1.869760036468505859e+00 -3.488923072814941406e+00
7.721000000000000000e+03 5.973241806030273438e+01 3.186430358886718750e+01 2.870594263076782227e+00 5.203006267547607422e+00 2.422080039978027344e+00 4.399773597717285156e+00
7.722000000000000000e+03 2.861595916748046875e+01 4.260726928710937500e+00 -1.451594710350036621e+00 -8.466417789459228516e-01 -6.894709467887878418e-01 -7.403139472007751465e-01
7.723000000000000000e+03 2.878319168090820312e+01 4.583751678466796875e+00 -1.507235288619995117e+00 -8.699382543563842773e-01 -7.131520509719848633e-01 -7.686437368392944336e-01
7.724000000000000000e+03 5.657213592529296875e+01 3.951937484741210938e+01 3.627051413059234619e-01 1.959387421607971191e+00 6.966277956962585449e-01 -1.246638670563697815e-01
7.725000000000000000e+03 5.542372894287109375e+01 4.013850784301757812e+01 6.367258429527282715e-01 5.653390288352966309e-01 3.606194555759429932e-01 1.368386596441268921e-01
7.726000000000000000e+03 2.660802841186523438e+01 2.753364324569702148e+00 -1.646563768386840820e+00 -5.632094144821166992e-01 -6.629319787025451660e-01 -7.216304540634155273e-01
7.727000000000000000e+03 3.339618682861328125e+01 2.453610992431640625e+01 5.667591094970703125e-02 8.349595218896865845e-02 4.205155745148658752e-02 7.208625972270965576e-02
7.728000000000000000e+03 1.669195365905761719e+01 -3.748254060745239258e+00 -7.629684209823608398e-01 -8.490360975265502930e-01 -4.836013615131378174e-01 -7.754564881324768066e-01
7.729000000000000000e+03 2.564847183227539062e+01 2.276877164840698242e+00 -1.712788105010986328e+00 -4.123369157314300537e-01 -6.375375390052795410e-01 -7.090817093849182129e-01
7.730000000000000000e+03 2.722853088378906250e+01 3.631879329681396484e+00 -1.728648781776428223e+00 -7.051261663436889648e-01 -7.301325201988220215e-01 -8.511290550231933594e-01
7.731000000000000000e+03 4.746364212036132812e+01 4.021671295166015625e+01 1.287111192941665649e-01 6.481717573478817940e-04 3.880778700113296509e-02 5.411596223711967468e-02
7.732000000000000000e+03 3.086060142517089844e+01 1.067842102050781250e+01 -1.275991559028625488e+00 -1.098203659057617188e+00 -7.122585773468017578e-01 -1.143100380897521973e+00
7.733000000000000000e+03 3.950490570068359375e+01 3.070244789123535156e+01 6.640946865081787109e-02 6.110892817378044128e-02 3.825552016496658325e-02 6.276167184114456177e-02
7.734000000000000000e+03 5.410147857666015625e+01 3.198829078674316406e+01 -1.572424024343490601e-01 2.782086133956909180e-01 3.628986328840255737e-02 -2.190349400043487549e-01
7.735000000000000000e+03 1.287310409545898438e+01 4.509863853454589844e+00 2.295306473970413208e-01 7.291368246078491211e-01 2.876002490520477295e-01 -1.614289432764053345e-01
7.736000000000000000e+03 4.247406005859375000e+01 3.443448257446289062e+01 8.736177533864974976e-02 4.585469886660575867e-02 3.996494039893150330e-02 6.258882582187652588e-02
7.737000000000000000e+03 4.183408355712890625e+01 3.398832702636718750e+01 8.042152971029281616e-02 4.771087318658828735e-02 3.843972086906433105e-02 5.761698633432388306e-02
7.738000000000000000e+03 2.762561798095703125e+01 -3.186579704284667969e+01 3.185461163520812988e-01 5.110390186309814453e-01 2.488755434751510620e-01 -3.477885723114013672e-01
7.739000000000000000e+03 6.455056762695312500e+01 3.099566459655761719e+01 1.237658858299255371e+00 1.324819087982177734e+01 4.345754623413085938e+00 -1.231026411056518555e+00
7.740000000000000000e+03 2.911544036865234375e+01 4.920006275177001953e+00 -1.508915901184082031e+00 -9.028993248939514160e-01 -7.235445976257324219e-01 -7.897211909294128418e-01
7.741000000000000000e+03 2.944709968566894531e+01 4.485378742218017578e+00 -1.342130184173583984e+00 -7.661036252975463867e-01 -6.324701309204101562e-01 -6.498892903327941895e-01
7.742000000000000000e+03 5.107322692871093750e+01 4.121646881103515625e+01 3.694828152656555176e-01 -4.046922326087951660e-01 -1.056283246725797653e-02 1.786003410816192627e-01
7.743000000000000000e+03 2.956651115417480469e+01 4.958782672882080078e+00 -1.391275167465209961e+00 -7.811670899391174316e-01 -6.517326831817626953e-01 -7.154490947723388672e-01
7.744000000000000000e+03 2.881659698486328125e+01 3.605104064941406250e+01 2.534604258835315704e-02 7.374177873134613037e-02 2.972634695470333099e-02 2.519585005939006805e-02
7.745000000000000000e+03 6.659416198730468750e+01 3.502529525756835938e+01 3.733404874801635742e+00 1.119355583190917969e+01 4.478088378906250000e+00 7.140563130378723145e-01
7.746000000000000000e+03 2.360281944274902344e+01 -2.677297592163085938e-01 -4.750280082225799561e-01 2.872668504714965820e-01 -5.632834881544113159e-02 -4.606716632843017578e-01
7.747000000000000000e+03 2.201896667480468750e+01 8.002020716667175293e-01 -1.903186440467834473e+00 -8.087823539972305298e-02 -5.952193737030029297e-01 -1.528079867362976074e+00
7.748000000000000000e+03 2.210174369812011719e+01 7.217197418212890625e-01 -1.874260425567626953e+00 -1.153163835406303406e-01 -5.968730449676513672e-01 -1.529195666313171387e+00
7.749000000000000000e+03 2.660090065002441406e+01 3.047588825225830078e+00 -1.735886693000793457e+00 -6.111603379249572754e-01 -7.041140794754028320e-01 -7.972923517227172852e-01
7.750000000000000000e+03 6.062648773193359375e+01 3.222784805297851562e+01 2.926561117172241211e+00 9.390685081481933594e+00 3.695173740386962891e+00 6.116160392761230469e+00
7.751000000000000000e+03 6.052431488037109375e+01 3.758701705932617188e+01 -7.040967699140310287e-03 9.605945587158203125e+00 2.879671335220336914e+00 -3.893019676208496094e+00
7.752000000000000000e+03 5.939765930175781250e+01 3.131582069396972656e+01 2.440599441528320312e+00 4.969730854034423828e+00 2.223098993301391602e+00 3.968743085861206055e+00
7.753000000000000000e+03 2.425065612792968750e+01 1.431330323219299316e+00 -1.667368173599243164e+00 -2.744016051292419434e-01 -5.825309753417968750e-01 -7.723886966705322266e-01
7.754000000000000000e+03 4.320778274536132812e+01 3.525950622558593750e+01 1.032149195671081543e-01 3.546334803104400635e-02 4.160347953438758850e-02 5.146638303995132446e-02
7.755000000000000000e+03 2.448484802246093750e+01 1.968278527259826660e+00 -2.009112119674682617e+00 -3.933103680610656738e-01 -7.207267284393310547e-01 -9.159011840820312500e-01
7.756000000000000000e+03 2.483444595336914062e+01 2.226276159286499023e+00 -2.003452062606811523e+00 -4.290224611759185791e-01 -7.297424077987670898e-01 -8.839567899703979492e-01
7.757000000000000000e+03 2.516366767883300781e+01 2.491371393203735352e+00 -1.975249886512756348e+00 -4.632130861282348633e-01 -7.315388917922973633e-01 -8.572968244552612305e-01
7.758000000000000000e+03 2.756798553466796875e+01 3.320244073867797852e+00 -1.565353989601135254e+00 -6.700884699821472168e-01 -6.706327199935913086e-01 -7.080426812171936035e-01
7.759000000000000000e+03 8.252411842346191406e+00 -5.332449913024902344e+00 -2.329147458076477051e-01 -1.477355509996414185e-01 -1.141950860619544983e-01 -3.320740163326263428e-01
7.760000000000000000e+03 1.343703937530517578e+01 -5.631450176239013672e+00 -3.694783747196197510e-01 -3.824854493141174316e-01 -2.255891412496566772e-01 -6.380720734596252441e-01
7.761000000000000000e+03 6.116256713867187500e+01 3.136153030395507812e+01 1.049940824508666992e+00 1.191743469238281250e+01 3.890212535858154297e+00 4.498430252075195312e+00
7.762000000000000000e+03 2.677046203613281250e+01 2.897914648056030273e+00 -1.663916707038879395e+00 -5.501696467399597168e-01 -6.642259359359741211e-01 -7.145100831985473633e-01
7.763000000000000000e+03 7.571624755859375000e+01 3.631354904174804688e+01 3.360763192176818848e-01 5.657345771789550781e+00 1.798026680946350098e+00 -2.168252021074295044e-01
7.764000000000000000e+03 7.632790374755859375e+01 3.873632049560546875e+01 3.224227428436279297e-01 5.427465438842773438e+00 1.724966526031494141e+00 -7.384345680475234985e-02
7.765000000000000000e+03 6.263403701782226562e+01 3.110874748229980469e+01 3.456158638000488281e-01 1.476727008819580078e+01 4.533865928649902344e+00 1.253208518028259277e+00
7.766000000000000000e+03 7.004074096679687500e+00 -3.341701889038085938e+01 5.055941268801689148e-02 -8.225291967391967773e-01 -2.315909266471862793e-01 -9.559552371501922607e-02
7.767000000000000000e+03 5.424171447753906250e+01 -2.871960258483886719e+01 1.223096027970314026e-01 4.268256664276123047e+00 1.317169904708862305e+00 3.464892208576202393e-01
7.768000000000000000e+03 5.814260864257812500e+01 -2.542918586730957031e+01 1.696038432419300079e-02 4.905527591705322266e+00 1.476746439933776855e+00 3.371753692626953125e-01
7.769000000000000000e+03 2.738363075256347656e+01 3.460114955902099609e+00 -1.619243741035461426e+00 -7.150397896766662598e-01 -7.002850770950317383e-01 -7.838754057884216309e-01
7.770000000000000000e+03 7.916057109832763672e+00 -3.183466339111328125e+01 5.391727760434150696e-02 -7.322032451629638672e-01 -2.034858018159866333e-01 -1.156402155756950378e-01
7.771000000000000000e+03 2.466076087951660156e+01 1.056603550910949707e+00 -1.323205471038818359e+00 -1.106152608990669250e-01 -4.301462173461914062e-01 -5.060139894485473633e-01
7.772000000000000000e+03 1.554536151885986328e+01 6.750863552093505859e+00 1.631346642971038818e-01 3.361689448356628418e-01 1.497910767793655396e-01 2.100949734449386597e-01
7.773000000000000000e+03 1.540236568450927734e+01 2.888116645812988281e+01 -6.550176534801721573e-03 4.488961398601531982e-02 1.150183100253343582e-02 9.985670447349548340e-03
7.774000000000000000e+03 2.298449707031250000e+01 -1.084938123822212219e-01 -8.073167800903320312e-01 2.786248326301574707e-01 -1.586075872182846069e-01 -7.243847846984863281e-01
7.775000000000000000e+03 2.301384544372558594e+01 4.704078733921051025e-01 -1.327465176582336426e+00 1.436234712600708008e-01 -3.551525175571441650e-01 -7.888211607933044434e-01
7.776000000000000000e+03 2.479227066040039062e+01 1.749535202980041504e+00 -1.836373805999755859e+00 -2.700827717781066895e-01 -6.319369673728942871e-01 -7.623196840286254883e-01
7.777000000000000000e+03 2.774602127075195312e+01 3.003326177597045898e+00 -1.442152261734008789e+00 -6.044972538948059082e-01 -6.139948368072509766e-01 -5.933699607849121094e-01
7.778000000000000000e+03 2.824496459960937500e+01 2.637935638427734375e+00 -1.181355357170104980e+00 -5.612944960594177246e-01 -5.227949619293212891e-01 -4.280286729335784912e-01
7.779000000000000000e+03 4.751175308227539062e+01 -3.042935752868652344e+01 2.447293885052204132e-02 3.307542085647583008e+00 9.996045231819152832e-01 1.555327028036117554e-01
7.780000000000000000e+03 3.350610733032226562e+01 1.248629951477050781e+01 -1.038769006729125977e+00 -1.071839213371276855e+00 -6.331824660301208496e-01 -1.047071933746337891e+00
7.781000000000000000e+03 6.123744964599609375e+01 3.078216934204101562e+01 5.217100977897644043e-01 1.146385002136230469e+01 3.595668077468872070e+00 3.801809787750244141e+00
7.782000000000000000e+03 2.569091987609863281e+01 1.455153465270996094e+00 -1.366305828094482422e+00 -2.550020813941955566e-01 -4.863923788070678711e-01 -4.625729620456695557e-01
7.783000000000000000e+03 3.321466064453125000e+01 6.261349201202392578e+00 -7.755496501922607422e-01 -5.122524499893188477e-01 -3.863406181335449219e-01 -5.528835654258728027e-01
7.784000000000000000e+03 6.368748474121093750e+01 3.049842453002929688e+01 2.844235897064208984e-01 1.346385478973388672e+01 4.124483585357666016e+00 -1.344996392726898193e-01
7.785000000000000000e+03 2.677109336853027344e+01 1.905506849288940430e+00 -1.245741605758666992e+00 -4.378443062305450439e-01 -5.050758123397827148e-01 -4.551464915275573730e-01
7.786000000000000000e+03 6.186531448364257812e+01 -2.531264877319335938e+01 4.060789570212364197e-02 5.574059963226318359e+00 1.684400320053100586e+00 3.822695314884185791e-01
7.787000000000000000e+03 4.009414672851562500e+01 3.298006820678710938e+01 7.754459977149963379e-02 5.773883312940597534e-02 4.058502987027168274e-02 5.703825503587722778e-02
7.788000000000000000e+03 3.913564682006835938e+01 3.200394821166992188e+01 5.763477832078933716e-02 6.507222354412078857e-02 3.681210055947303772e-02 6.080703809857368469e-02
7.789000000000000000e+03 3.865093231201171875e+01 3.225309371948242188e+01 7.220703363418579102e-02 6.074556708335876465e-02 3.988577798008918762e-02 5.600957572460174561e-02
7.790000000000000000e+03 2.999844932556152344e+01 3.175991439819335938e+01 3.199239820241928101e-02 7.993954420089721680e-02 3.357958421111106873e-02 4.400433227419853210e-02
7.791000000000000000e+03 8.067462921142578125e+00 -3.048804283142089844e+01 5.648867040872573853e-02 -7.172657847404479980e-01 -1.982331275939941406e-01 -1.347064822912216187e-01
7.792000000000000000e+03 4.443737411499023438e+01 -1.927957534790039062e+01 -7.485213875770568848e-02 1.852866768836975098e+00 5.334043502807617188e-01 -1.005998775362968445e-01
7.793000000000000000e+03 4.257831954956054688e+01 -1.737184333801269531e+01 -1.271511148661375046e-02 1.389712095260620117e+00 4.130990803241729736e-01 -9.391468018293380737e-02
7.794000000000000000e+03 2.496536827087402344e+01 1.257723927497863770e+00 -1.423541426658630371e+00 -2.444614320993423462e-01 -5.004008412361145020e-01 -5.708164572715759277e-01
7.795000000000000000e+03 1.536990356445312500e+01 7.026621341705322266e+00 1.410094499588012695e-01 3.405109643936157227e-01 1.444561332464218140e-01 1.969648897647857666e-01
7.796000000000000000e+03 6.581676483154296875e+00 -2.459736633300781250e+01 4.254706203937530518e-02 -7.458636164665222168e-01 -2.109949588775634766e-01 -1.833536475896835327e-01
7.797000000000000000e+03 3.355049133300781250e+00 4.574941158294677734e+00 -3.609969280660152435e-04 -9.384310990571975708e-02 -2.826123125851154327e-02 9.816438704729080200e-02
7.798000000000000000e+03 1.763906669616699219e+01 9.300618171691894531e+00 1.391971260309219360e-01 2.141869962215423584e-01 1.060152351856231689e-01 1.629191637039184570e-01
7.799000000000000000e+03 6.127673721313476562e+01 3.020415306091308594e+01 2.286864370107650757e-01 1.099860477447509766e+01 3.368187427520751953e+00 3.307881355285644531e+00
7.800000000000000000e+03 2.528274917602539062e+01 7.365499138832092285e-01 -1.061231017112731934e+00 -1.577298194169998169e-01 -3.656882643699645996e-01 -4.011749923229217529e-01
7.801000000000000000e+03 2.515640449523925781e+01 1.014056086540222168e+00 -1.218585729598999023e+00 -1.994872093200683594e-01 -4.254218935966491699e-01 -4.211249351501464844e-01
7.802000000000000000e+03 1.161877727508544922e+01 -6.750249862670898438e+00 -2.346635758876800537e-01 -3.071633875370025635e-01 -1.625480949878692627e-01 -5.492455959320068359e-01
7.803000000000000000e+03 3.543437194824218750e+01 2.749593544006347656e+01 5.720055103302001953e-02 7.841049134731292725e-02 4.068331420421600342e-02 6.785316765308380127e-02
7.804000000000000000e+03 3.507963180541992188e+01 3.034926033020019531e+01 5.661056563258171082e-02 7.781539112329483032e-02 4.032778739929199219e-02 5.636308714747428894e-02
7.805000000000000000e+03 2.716310882568359375e+01 1.387010335922241211e+00 -9.426286816596984863e-01 -3.798249363899230957e-01 -3.967360854148864746e-01 -2.780736088752746582e-01
7.806000000000000000e+03 2.725235557556152344e+01 1.866720676422119141e+00 -1.144687414169311523e+00 -4.511627852916717529e-01 -4.787550568580627441e-01 -4.141365289688110352e-01
7.807000000000000000e+03 2.701149940490722656e+01 1.938434958457946777e+00 -1.242118358612060547e+00 -4.704500734806060791e-01 -5.137705206871032715e-01 -4.208888411521911621e-01
7.808000000000000000e+03 1.117864799499511719e+01 5.226856708526611328e+00 2.687852382659912109e-01 1.518949419260025024e-01 1.262040585279464722e-01 -1.361884772777557373e-01
7.809000000000000000e+03 2.970848846435546875e+01 3.085330009460449219e+01 3.589521721005439758e-02 8.278243243694305420e-02 3.560329601168632507e-02 4.850372299551963806e-02
7.810000000000000000e+03 6.696427917480468750e+01 -2.199389457702636719e+01 -7.731305435299873352e-03 6.445338249206542969e+00 1.931282043457031250e+00 3.328669965267181396e-01
7.811000000000000000e+03 3.082397460937500000e+01 3.147497940063476562e+01 4.030311107635498047e-02 8.135844022035598755e-02 3.649846464395523071e-02 5.052880570292472839e-02
7.812000000000000000e+03 3.869337081909179688e+01 -1.197027206420898438e+01 1.672572791576385498e-01 5.602457523345947266e-01 2.182509005069732666e-01 -7.349599152803421021e-02
7.813000000000000000e+03 4.113872146606445312e+01 1.993751907348632812e+01 -7.249239683151245117e-01 -6.535530686378479004e-01 -4.135431051254272461e-01 -7.657765746116638184e-01
7.814000000000000000e+03 2.255054283142089844e+01 2.543358802795410156e+01 1.684306748211383820e-02 9.502671658992767334e-02 3.356093540787696838e-02 5.007993429899215698e-02
7.815000000000000000e+03 4.940936565399169922e+00 4.772175312042236328e+00 2.611547708511352539e-02 -1.129117384552955627e-01 -2.603887766599655151e-02 1.270946860313415527e-01
7.816000000000000000e+03 4.686278915405273438e+01 -2.731773757934570312e+01 -1.150055453181266785e-01 2.849872112274169922e+00 8.204600214958190918e-01 -1.798627898097038269e-02
7.817000000000000000e+03 7.176765441894531250e+01 -2.511713027954101562e+01 1.539476774632930756e-02 7.220547199249267578e+00 2.170782566070556641e+00 2.605693340301513672e-01
7.818000000000000000e+03 7.365972137451171875e+01 2.764071655273437500e+01 9.794073551893234253e-02 7.615697860717773438e+00 2.314091444015502930e+00 -1.520139455795288086e+00
7.819000000000000000e+03 3.118253707885742188e+01 3.020279312133789062e+01 4.111591354012489319e-02 7.989285141229629517e-02 3.630262985825538635e-02 5.209136009216308594e-02
7.820000000000000000e+03 3.267834091186523438e+01 2.419266510009765625e+01 6.068758666515350342e-02 8.287736028432846069e-02 4.306948184967041016e-02 7.105025649070739746e-02
7.821000000000000000e+03 3.542728042602539062e+01 2.838855934143066406e+01 5.924218520522117615e-02 7.888095080852508545e-02 4.143694043159484863e-02 6.181809678673744202e-02
7.822000000000000000e+03 3.457099914550781250e+01 2.697379875183105469e+01 5.508615449070930481e-02 8.040937781333923340e-02 4.064865782856941223e-02 6.762064248323440552e-02
7.823000000000000000e+03 6.154249954223632812e+01 2.942351341247558594e+01 -2.839896678924560547e-01 1.081451511383056641e+01 3.159157514572143555e+00 2.622971773147583008e+00
7.824000000000000000e+03 2.773901367187500000e+01 9.891645312309265137e-01 -7.096573114395141602e-01 -4.184200167655944824e-01 -3.384232223033905029e-01 -2.060322165489196777e-01
7.825000000000000000e+03 2.892790603637695312e+01 1.480278849601745605e+00 -7.591117024421691895e-01 -4.709855914115905762e-01 -3.690291941165924072e-01 -1.777496039867401123e-01
7.826000000000000000e+03 3.417447662353515625e+01 2.983567237854003906e+01 5.472679808735847473e-02 7.831467688083648682e-02 3.991244360804557800e-02 5.607060343027114868e-02
7.827000000000000000e+03 6.752569580078125000e+01 -2.013076782226562500e+01 -7.153404876589775085e-03 6.585246086120605469e+00 1.973427891731262207e+00 3.242458999156951904e-01
7.828000000000000000e+03 3.441910552978515625e+01 5.240880966186523438e+00 -6.256954669952392578e-01 -2.836016714572906494e-01 -2.727891504764556885e-01 -3.482529520988464355e-01
7.829000000000000000e+03 4.879003143310546875e+01 -2.606705856323242188e+01 -1.066654473543167114e-01 3.210474491119384766e+00 9.311426877975463867e-01 7.782530039548873901e-02
7.830000000000000000e+03 1.746898460388183594e+01 1.011140441894531250e+01 1.137284785509109497e-01 2.127077281475067139e-01 9.793085604906082153e-02 1.489380002021789551e-01
7.831000000000000000e+03 1.741240310668945312e+01 9.820993423461914062e+00 1.196847185492515564e-01 2.149153500795364380e-01 1.003800258040428162e-01 1.536542773246765137e-01
7.832000000000000000e+03 1.710922813415527344e+01 1.017043018341064453e+01 1.057862192392349243e-01 2.166864722967147827e-01 9.674180299043655396e-02 1.436516493558883667e-01
7.833000000000000000e+03 1.667223739624023438e+01 2.521056365966796875e+01 -1.338614732958376408e-03 7.194246351718902588e-02 2.118115313351154327e-02 2.303926460444927216e-02
7.834000000000000000e+03 2.741235733032226562e+01 1.704548478126525879e+00 -1.047243952751159668e+00 -4.221211075782775879e-01 -4.408095180988311768e-01 -3.250266015529632568e-01
7.835000000000000000e+03 2.755733489990234375e+01 1.192548871040344238e+00 -8.196180462837219238e-01 -4.016590714454650879e-01 -3.663831353187561035e-01 -2.342115193605422974e-01
7.836000000000000000e+03 2.495328140258789062e+01 1.826373100280761719e+01 7.850803434848785400e-02 1.162420436739921570e-01 5.842502415180206299e-02 9.528046846389770508e-02
7.837000000000000000e+03 6.308641815185546875e+01 2.709423446655273438e+01 -9.872159361839294434e-01 1.020407295227050781e+01 2.765057325363159180e+00 8.618299365043640137e-01
7.838000000000000000e+03 1.129790782928466797e+01 -7.398173332214355469e+00 -2.015150338411331177e-01 -3.331703245639801025e-01 -1.604056060314178467e-01 -5.509787201881408691e-01
7.839000000000000000e+03 3.119126510620117188e+01 2.545022392272949219e+01 5.240470543503761292e-02 8.681246638298034668e-02 4.176514968276023865e-02 6.902534514665603638e-02
7.840000000000000000e+03 5.979722976684570312e+01 2.898723602294921875e+01 4.717440307140350342e-01 7.157489299774169922e+00 2.288769960403442383e+00 3.143152236938476562e+00
7.841000000000000000e+03 5.654164314270019531e+00 6.154244899749755859e+00 7.856053858995437622e-02 -1.291796565055847168e-01 -1.518573332577943802e-02 9.182202070951461792e-02
7.842000000000000000e+03 3.478685379028320312e+01 2.835175895690917969e+01 5.568926781415939331e-02 7.912610471248626709e-02 4.044461250305175781e-02 6.199264153838157654e-02
7.843000000000000000e+03 3.453151321411132812e+01 2.874734878540039062e+01 5.433008819818496704e-02 7.963348925113677979e-02 4.018907248973846436e-02 6.171237677335739136e-02
7.844000000000000000e+03 3.187851905822753906e+01 2.716517448425292969e+01 4.870501905679702759e-02 8.421158045530319214e-02 3.987497836351394653e-02 6.450501829385757446e-02
7.845000000000000000e+03 1.171862316131591797e+01 -1.207292175292968750e+01 1.034060195088386536e-01 -4.250475466251373291e-01 -9.649246186017990112e-02 -4.582044482231140137e-01
7.846000000000000000e+03 5.272201538085937500e+01 2.940503692626953125e+01 1.489249896258115768e-02 3.702845871448516846e-01 1.155531257390975952e-01 2.017175406217575073e-01
7.847000000000000000e+03 2.713548088073730469e+01 2.217860412597656250e+01 5.434545129537582397e-02 1.021672636270523071e-01 4.695381224155426025e-02 7.866985350847244263e-02
7.848000000000000000e+03 7.253598785400390625e+01 -1.443793106079101562e+01 -2.131417393684387207e-02 7.615028381347656250e+00 2.278114318847656250e+00 2.286117821931838989e-01
7.849000000000000000e+03 5.135815048217773438e+01 -2.025477600097656250e+01 -9.242165088653564453e-02 3.488975048065185547e+00 1.018966078758239746e+00 1.345525383949279785e-01
7.850000000000000000e+03 1.524633502960205078e+01 2.437149047851562500e+01 -4.042662214487791061e-03 6.546711921691894531e-02 1.842733658850193024e-02 1.652265153825283051e-02
7.851000000000000000e+03 1.681271553039550781e+01 1.161797142028808594e+01 7.714304327964782715e-02 2.011727392673492432e-01 8.349473029375076294e-02 1.165991276502609253e-01
7.852000000000000000e+03 2.781400108337402344e+01 1.244063496589660645e+00 -8.267650604248046875e-01 -4.547150135040283203e-01 -3.844440281391143799e-01 -2.138918489217758179e-01
7.853000000000000000e+03 2.841363334655761719e+01 7.750133872032165527e-01 -5.338584780693054199e-01 -4.369118809700012207e-01 -2.912310957908630371e-01 -1.415081918239593506e-01
7.854000000000000000e+03 3.001365089416503906e+01 3.453967571258544922e+00 -1.089495539665222168e+00 -5.642820000648498535e-01 -4.961332678794860840e-01 -4.140822291374206543e-01
7.855000000000000000e+03 3.316949081420898438e+01 2.473281145095825195e+00 -4.731253683567047119e-01 -2.524244785308837891e-01 -2.176649570465087891e-01 -1.304247230291366577e-01
7.856000000000000000e+03 2.075745391845703125e+01 1.290793228149414062e+01 1.098416596651077271e-01 1.547382175922393799e-01 7.937396317720413208e-02 1.301488280296325684e-01
7.857000000000000000e+03 2.068787002563476562e+01 1.326241302490234375e+01 1.044606119394302368e-01 1.541029363870620728e-01 7.756906747817993164e-02 1.256879717111587524e-01
7.858000000000000000e+03 2.106242179870605469e+01 1.298211002349853516e+01 1.122293323278427124e-01 1.530469954013824463e-01 7.958289980888366699e-02 1.305200010538101196e-01
7.859000000000000000e+03 5.309845733642578125e+01 2.909959602355957031e+01 1.170579567551612854e-01 6.003344058990478516e-01 2.152176946401596069e-01 3.600030541419982910e-01
7.860000000000000000e+03 2.870158004760742188e+01 3.280441462993621826e-01 -3.589408993721008301e-01 -4.046455919742584229e-01 -2.290759384632110596e-01 -7.676299661397933960e-02
7.861000000000000000e+03 3.559482192993164062e+01 1.018464660644531250e+01 -7.682632803916931152e-01 -5.744178295135498047e-01 -4.028043448925018311e-01 -6.299207806587219238e-01
7.862000000000000000e+03 3.412985610961914062e+01 2.853893280029296875e+01 5.022138357162475586e-02 8.022236824035644531e-02 3.913312405347824097e-02 6.060908734798431396e-02
7.863000000000000000e+03 3.074922370910644531e+01 2.513969230651855469e+01 5.289385467767715454e-02 8.714985102415084839e-02 4.201311245560646057e-02 7.099186629056930542e-02
7.864000000000000000e+03 3.013120269775390625e+01 2.561699485778808594e+01 4.708715528249740601e-02 8.940438926219940186e-02 4.094746336340904236e-02 6.823264807462692261e-02
7.865000000000000000e+03 5.668650054931640625e+01 2.867892265319824219e+01 8.650215864181518555e-01 2.985155582427978516e+00 1.155053138732910156e+00 1.901976943016052246e+00
7.866000000000000000e+03 6.090670013427734375e+01 2.915979003906250000e+01 -3.442521393299102783e-02 9.414175987243652344e+00 2.813925266265869141e+00 2.996859550476074219e+00
7.867000000000000000e+03 2.881587028503417969e+01 6.634860038757324219e-01 -5.350387692451477051e-01 -4.067864120006561279e-01 -2.825475633144378662e-01 -7.926190644502639771e-02
7.868000000000000000e+03 9.302433967590332031e+00 -1.811548423767089844e+01 1.061350032687187195e-01 -5.080774426460266113e-01 -1.205827370285987854e-01 -3.226654231548309326e-01
7.869000000000000000e+03 4.713135147094726562e+01 2.548868942260742188e+01 -5.938733220100402832e-01 -3.583733439445495605e-01 -2.856740057468414307e-01 -4.877469539642333984e-01
7.870000000000000000e+03 1.539305210113525391e+01 1.057573795318603516e+01 6.687199324369430542e-02 2.314210534095764160e-01 8.948791772127151489e-02 1.051447913050651550e-01
7.871000000000000000e+03 6.119113540649414062e+01 2.851825904846191406e+01 -3.675270974636077881e-01 9.467081069946289062e+00 2.729866027832031250e+00 2.514448881149291992e+00
7.872000000000000000e+03 5.900261688232421875e+01 2.851583099365234375e+01 5.736043453216552734e-01 5.903060436248779297e+00 1.942999482154846191e+00 2.870178222656250000e+00
7.873000000000000000e+03 4.055827713012695312e+01 1.903679275512695312e+01 -7.301586270332336426e-01 -6.293340921401977539e-01 -4.078478217124938965e-01 -7.675324678421020508e-01
7.874000000000000000e+03 4.113451385498046875e+01 1.860496330261230469e+01 -6.783785820007324219e-01 -4.941647946834564209e-01 -3.517630100250244141e-01 -6.752039790153503418e-01
7.875000000000000000e+03 2.798431015014648438e+01 2.418961715698242188e+01 4.349892586469650269e-02 9.642566740512847900e-02 4.197737947106361389e-02 7.138764113187789917e-02
7.876000000000000000e+03 1.563992786407470703e+01 2.314232826232910156e+01 -1.716379658319056034e-03 7.706220448017120361e-02 2.260374836623668671e-02 2.239684015512466431e-02
7.877000000000000000e+03 2.700097274780273438e+01 2.410321807861328125e+01 4.182371869683265686e-02 9.729765355587005615e-02 4.173641279339790344e-02 6.841490417718887329e-02
7.878000000000000000e+03 3.300244522094726562e+01 2.881790733337402344e+01 5.368366464972496033e-02 7.973515987396240234e-02 4.002564772963523865e-02 6.135517358779907227e-02
7.879000000000000000e+03 6.548389911651611328e+00 7.535951137542724609e+00 1.047809273004531860e-01 -1.034267693758010864e-01 4.062473890371620655e-04 4.270514473319053650e-02
7.880000000000000000e+03 5.249373245239257812e+01 2.899996185302734375e+01 -8.769937790930271149e-03 3.698027133941650391e-01 1.083098351955413818e-01 2.150324136018753052e-01
7.881000000000000000e+03 3.468218231201171875e+01 1.269338893890380859e+01 -9.555600881576538086e-01 -9.473567605018615723e-01 -5.708750486373901367e-01 -9.179955124855041504e-01
7.882000000000000000e+03 4.891419982910156250e+01 -1.412025928497314453e+01 -2.270131371915340424e-02 2.773854255676269531e+00 8.253458738327026367e-01 6.958331167697906494e-02
7.883000000000000000e+03 3.411629486083984375e+01 6.738404035568237305e-01 -1.710133552551269531e-01 -1.617722064256668091e-01 -9.983567148447036743e-02 7.124897558242082596e-03
7.884000000000000000e+03 3.257527160644531250e+01 2.803276062011718750e+01 4.843873530626296997e-02 8.309520035982131958e-02 3.946018218994140625e-02 6.357092410326004028e-02
7.885000000000000000e+03 3.566012954711914062e+01 6.139288902282714844e+00 -5.589283108711242676e-01 -2.106202691793441772e-01 -2.308645844459533691e-01 -3.334259688854217529e-01
7.886000000000000000e+03 1.553080844879150391e+01 -1.722359466552734375e+01 1.982504874467849731e-01 -2.276779115200042725e-01 -8.828225545585155487e-03 -3.205163180828094482e-01
7.887000000000000000e+03 1.455570125579833984e+01 -1.588958358764648438e+01 1.961845755577087402e-01 -2.933691442012786865e-01 -2.915537543594837189e-02 -3.478157222270965576e-01
7.888000000000000000e+03 1.407021617889404297e+01 -1.786371803283691406e+01 1.824321895837783813e-01 -3.112073540687561035e-01 -3.863255307078361511e-02 -3.300078809261322021e-01
7.889000000000000000e+03 3.024660873413085938e+01 2.501656532287597656e+01 5.012390390038490295e-02 8.891022205352783203e-02 4.171023517847061157e-02 7.129364460706710815e-02
7.890000000000000000e+03 1.189989852905273438e+01 7.652976989746093750e+00 9.660178422927856445e-02 2.642908692359924316e-01 1.082677990198135376e-01 -3.674615547060966492e-02
7.891000000000000000e+03 5.276191329956054688e+01 2.797029304504394531e+01 1.340499371290206909e-01 8.122816681861877441e-01 2.838994860649108887e-01 5.130051374435424805e-01
7.892000000000000000e+03 5.342845916748046875e+01 2.732378005981445312e+01 2.278142273426055908e-01 1.337620973587036133e+00 4.696305394172668457e-01 8.231584429740905762e-01
7.893000000000000000e+03 5.841590881347656250e+01 2.817210197448730469e+01 5.823855400085449219e-01 5.100752353668212891e+00 1.704941391944885254e+00 2.568603992462158203e+00
7.894000000000000000e+03 5.881809997558593750e+01 2.824114418029785156e+01 5.163373947143554688e-01 5.667828559875488281e+00 1.855249881744384766e+00 2.727197885513305664e+00
7.895000000000000000e+03 6.794367980957031250e+01 -1.393257522583007812e+01 -2.949045784771442413e-02 6.718370437622070312e+00 2.006664037704467773e+00 2.990708947181701660e-01
7.896000000000000000e+03 2.587545776367187500e+01 2.288228416442871094e+01 4.312405362725257874e-02 1.039827242493629456e-01 4.413203522562980652e-02 7.253172993659973145e-02
7.897000000000000000e+03 6.214146041870117188e+01 2.565996170043945312e+01 -9.991512298583984375e-01 8.862608909606933594e+00 2.359037399291992188e+00 1.247258543968200684e+00
7.898000000000000000e+03 4.360172271728515625e+01 -1.236190795898437500e+01 8.818493038415908813e-02 1.535496950149536133e+00 4.871045649051666260e-01 -2.432815730571746826e-02
7.899000000000000000e+03 4.277105331420898438e+01 -1.207076644897460938e+01 1.379642039537429810e-01 1.391842365264892578e+00 4.589419662952423096e-01 -2.627795003354549408e-02
7.900000000000000000e+03 2.613224983215332031e+01 2.411089515686035156e+01 3.813989087939262390e-02 9.995722770690917969e-02 4.142913594841957092e-02 6.687011569738388062e-02
7.901000000000000000e+03 3.237157440185546875e+01 7.591534256935119629e-01 -2.772264182567596436e-01 -3.001646399497985840e-01 -1.732173115015029907e-01 -2.886418625712394714e-02
7.902000000000000000e+03 3.505256652832031250e+01 1.173143291473388672e+01 -8.817925453186035156e-01 -7.897915244102478027e-01 -5.014752149581909180e-01 -7.977127432823181152e-01
7.903000000000000000e+03 2.623455238342285156e+01 1.916660118103027344e+01 7.729409635066986084e-02 1.097020804882049561e-01 5.609885230660438538e-02 9.144014120101928711e-02
7.904000000000000000e+03 1.968160247802734375e+01 1.411444377899169922e+01 8.147180080413818359e-02 1.553852260112762451e-01 7.105710357427597046e-02 1.110180914402008057e-01
7.905000000000000000e+03 1.173770904541015625e+01 1.891637229919433594e+01 -4.853479913435876369e-04 5.994199961423873901e-02 1.783699542284011841e-02 2.733949339017271996e-03
7.906000000000000000e+03 2.024189186096191406e+01 1.486960983276367188e+01 7.859531044960021973e-02 1.497908085584640503e-01 6.851583719253540039e-02 1.068032160401344299e-01
7.907000000000000000e+03 1.003569316864013672e+01 -1.859255218505859375e+01 1.131485253572463989e-01 -4.823364913463592529e-01 -1.107563897967338562e-01 -3.233225047588348389e-01
7.908000000000000000e+03 1.420967769622802734e+01 -2.069803237915039062e+01 1.642472296953201294e-01 -2.908865809440612793e-01 -3.799180313944816589e-02 -3.049064874649047852e-01
7.909000000000000000e+03 5.745180606842041016e+00 7.925180912017822266e+00 8.427801728248596191e-02 -1.084582507610321045e-01 -7.254069205373525620e-03 4.418368637561798096e-02
7.910000000000000000e+03 6.224602890014648438e+01 -1.503919696807861328e+01 -5.315538495779037476e-02 5.577955722808837891e+00 1.657440066337585449e+00 3.276185989379882812e-01
7.911000000000000000e+03 6.811457824707031250e+01 -1.698600959777832031e+01 -2.926423773169517517e-02 6.702003002166748047e+00 2.001821756362915039e+00 3.032842278480529785e-01
7.912000000000000000e+03 6.754976654052734375e+01 2.355526351928710938e+01 -9.636139869689941406e-01 9.077346801757812500e+00 2.434119939804077148e+00 -8.312290310859680176e-01
7.913000000000000000e+03 7.049716949462890625e+01 7.916108608245849609e+00 -2.870909869670867920e-01 7.653919696807861328e+00 2.210048675537109375e+00 -6.565098464488983154e-02
7.914000000000000000e+03 5.827585601806640625e+01 2.796770858764648438e+01 5.346688032150268555e-01 5.024544715881347656e+00 1.667764067649841309e+00 2.504449367523193359e+00
7.915000000000000000e+03 5.889060974121093750e+01 2.773119544982910156e+01 3.022879660129547119e-01 5.865176677703857422e+00 1.850239396095275879e+00 2.589703559875488281e+00
7.916000000000000000e+03 5.808376312255859375e+01 2.809102249145507812e+01 6.270859241485595703e-01 4.776141643524169922e+00 1.620968222618103027e+00 2.492383003234863281e+00
7.917000000000000000e+03 4.708650970458984375e+01 2.495786094665527344e+01 -5.653420090675354004e-01 -2.679060995578765869e-01 -2.499744445085525513e-01 -4.185626506805419922e-01
7.918000000000000000e+03 5.534217071533203125e+01 2.652517127990722656e+01 3.160986304283142090e-01 2.722089529037475586e+00 9.114564061164855957e-01 1.483646512031555176e+00
7.919000000000000000e+03 3.852360153198242188e+01 7.205355167388916016e+00 -4.347611963748931885e-01 1.084998995065689087e-01 -9.787838906049728394e-02 -1.969469189643859863e-01
7.920000000000000000e+03 4.163588714599609375e+01 -5.612086772918701172e+00 2.051810324192047119e-01 1.029808163642883301e+00 3.704967796802520752e-01 7.862049341201782227e-02
7.921000000000000000e+03 1.418015575408935547e+01 2.024949836730957031e+01 1.057122251950204372e-03 8.214581012725830078e-02 2.496088109910488129e-02 1.939361542463302612e-02
7.922000000000000000e+03 6.276207733154296875e+01 2.519407844543457031e+01 -1.094369530677795410e+00 8.973587036132812500e+00 2.363765001296997070e+00 8.771256804466247559e-01
7.923000000000000000e+03 6.898480987548828125e+01 1.696448516845703125e+01 -7.679287195205688477e-01 7.999298095703125000e+00 2.169410705566406250e+00 -4.863051772117614746e-01
7.924000000000000000e+03 6.841580200195312500e+01 6.837370395660400391e-01 -1.642980873584747314e-01 7.032035350799560547e+00 2.060321092605590820e+00 1.844390481710433960e-01
7.925000000000000000e+03 2.606999969482421875e+01 2.223974037170410156e+01 4.822211712598800659e-02 1.045009791851043701e-01 4.581692814826965332e-02 7.555117458105087280e-02
7.926000000000000000e+03 3.638579940795898438e+01 1.230632662773132324e+00 -1.332332640886306763e-01 9.776957333087921143e-02 -1.063910871744155884e-02 2.169885858893394470e-02
7.927000000000000000e+03 3.565536880493164062e+01 -3.071341812610626221e-01 -8.561653085052967072e-03 2.712879516184329987e-02 5.570142529904842377e-03 4.980098456144332886e-02
7.928000000000000000e+03 2.700703430175781250e+01 2.500155830383300781e+01 3.899639844894409180e-02 9.528151154518127441e-02 4.028337448835372925e-02 6.575445085763931274e-02
7.929000000000000000e+03 6.075254821777343750e+01 2.809220695495605469e+01 -2.818362414836883545e-01 8.563000679016113281e+00 2.484349489212036133e+00 2.521807193756103516e+00
7.930000000000000000e+03 2.037381935119628906e+01 1.535740661621093750e+01 7.394747436046600342e-02 1.461757570505142212e-01 6.603696942329406738e-02 1.025496274232864380e-01
7.931000000000000000e+03 7.132723236083984375e+01 -7.201826095581054688e+00 -3.796996548771858215e-02 7.513159751892089844e+00 2.242556810379028320e+00 2.191509902477264404e-01
7.932000000000000000e+03 7.037406921386718750e+01 -8.123432159423828125e+00 -4.118680208921432495e-02 7.299955844879150391e+00 2.177630662918090820e+00 2.385818064212799072e-01
7.933000000000000000e+03 1.967699623107910156e+01 1.449023628234863281e+01 7.752154767513275146e-02 1.536476016044616699e-01 6.935074180364608765e-02 1.072396039962768555e-01
7.934000000000000000e+03 1.973973274230957031e+01 1.480569744110107422e+01 7.345350086688995361e-02 1.519419550895690918e-01 6.761863827705383301e-02 1.042266339063644409e-01
7.935000000000000000e+03 3.650245666503906250e+01 -9.796379804611206055e-01 6.490717828273773193e-02 1.295732110738754272e-01 5.834411829710006714e-02 6.647257506847381592e-02
7.936000000000000000e+03 1.219054031372070312e+01 8.191832542419433594e+00 7.881719619035720825e-02 2.602217793464660645e-01 1.017116904258728027e-01 -1.365265343338251114e-02
7.937000000000000000e+03 5.279456329345703125e+01 2.679350090026855469e+01 1.175715252757072449e-01 1.167614340782165527e+00 3.855557739734649658e-01 6.872100830078125000e-01
7.938000000000000000e+03 3.958703613281250000e+01 1.758062934875488281e+01 -7.735298871994018555e-01 -6.525296568870544434e-01 -4.278178513050079346e-01 -7.563549876213073730e-01
7.939000000000000000e+03 3.915116500854492188e+01 3.717829942703247070e+00 -2.167293429374694824e-01 3.997887969017028809e-01 5.491783469915390015e-02 7.957952911965548992e-04
7.940000000000000000e+03 5.315813827514648438e+01 2.630020332336425781e+01 1.370223313570022583e-01 1.492170333862304688e+00 4.887578189373016357e-01 8.453720808029174805e-01
7.941000000000000000e+03 2.007492065429687500e+01 1.536512851715087891e+01 7.025944441556930542e-02 1.472740024328231812e-01 6.526003777980804443e-02 1.006938889622688293e-01
7.942000000000000000e+03 6.693575286865234375e+01 1.503835868835449219e+01 -7.874079942703247070e-01 7.521192073822021484e+00 2.020135164260864258e+00 -1.385479420423507690e-01
7.943000000000000000e+03 6.913603973388671875e+01 8.388972282409667969e+00 -3.682875931262969971e-01 7.412091732025146484e+00 2.113141298294067383e+00 -2.944356016814708710e-02
7.944000000000000000e+03 5.653514862060546875e+01 2.698958778381347656e+01 4.000761210918426514e-01 3.523549079895019531e+00 1.177087545394897461e+00 1.858559012413024902e+00
7.945000000000000000e+03 5.625206756591796875e+01 2.641733741760253906e+01 2.929535508155822754e-01 3.458502531051635742e+00 1.125436782836914062e+00 1.756318807601928711e+00
7.946000000000000000e+03 6.693135070800781250e+01 2.184648704528808594e+01 -1.060492992401123047e+00 8.663435935974121094e+00 2.280883073806762695e+00 -5.194874405860900879e-01
7.947000000000000000e+03 6.721953582763671875e+01 -1.955933809280395508e+00 -1.262290626764297485e-01 6.709084987640380859e+00 1.974856734275817871e+00 2.472852319478988647e-01
7.948000000000000000e+03 5.819637680053710938e+01 2.762709617614746094e+01 4.130344092845916748e-01 5.012338638305664062e+00 1.627611875534057617e+00 2.402188539505004883e+00
7.949000000000000000e+03 5.988379287719726562e+01 2.719027709960937500e+01 -2.047232389450073242e-01 7.212752342224121094e+00 2.102408647537231445e+00 2.429283857345581055e+00
7.950000000000000000e+03 7.844802856445312500e+00 2.025487709045410156e+01 -3.678437555208802223e-03 -2.286779507994651794e-02 -7.963869720697402954e-03 -1.859884709119796753e-02
7.951000000000000000e+03 3.875111007690429688e+01 5.296104907989501953e+00 -3.282519876956939697e-01 2.555361390113830566e-01 -2.181475423276424408e-02 -8.543109893798828125e-02
7.952000000000000000e+03 6.773522186279296875e+01 5.021988391876220703e+00 -2.833395302295684814e-01 6.993810176849365234e+00 2.013141155242919922e+00 1.242255195975303650e-01
7.953000000000000000e+03 6.606167602539062500e+01 2.129381752014160156e+01 -1.119832634925842285e+00 8.496961593627929688e+00 2.213138818740844727e+00 -2.766518294811248779e-01
7.954000000000000000e+03 4.247178649902343750e+01 2.037046623229980469e+01 -6.741741895675659180e-01 -5.018107891082763672e-01 -3.527955114841461182e-01 -6.331914067268371582e-01
7.955000000000000000e+03 2.040860366821289062e+01 1.778000450134277344e+01 4.922773316502571106e-02 1.317653357982635498e-01 5.429792031645774841e-02 8.181677013635635376e-02
7.956000000000000000e+03 1.903005409240722656e+01 1.946955299377441406e+01 2.656191959977149963e-02 1.194310411810874939e-01 4.379788786172866821e-02 6.069489941000938416e-02
7.957000000000000000e+03 1.593948936462402344e+01 1.923831939697265625e+01 1.117439568042755127e-02 1.072671785950660706e-01 3.553247451782226562e-02 3.880405426025390625e-02
7.958000000000000000e+03 5.212642669677734375e+01 2.651806640625000000e+01 4.767570644617080688e-02 9.639407396316528320e-01 3.034849464893341064e-01 5.549525618553161621e-01
7.959000000000000000e+03 6.890725708007812500e+01 -5.164738178253173828e+00 -7.072056084871292114e-02 7.024873256683349609e+00 2.086245775222778320e+00 2.464752346277236938e-01
7.960000000000000000e+03 1.490982532501220703e+01 1.398753833770751953e+01 3.280200436711311340e-02 1.617635935544967651e-01 5.836968123912811279e-02 5.775783210992813110e-02
7.961000000000000000e+03 1.460969829559326172e+01 1.446245765686035156e+01 2.690572850406169891e-02 1.494981944561004639e-01 5.292117595672607422e-02 5.030725896358489990e-02
7.962000000000000000e+03 5.815839385986328125e+01 2.738248634338378906e+01 3.315350115299224854e-01 5.008493423461914062e+00 1.602008581161499023e+00 2.360483407974243164e+00
7.963000000000000000e+03 1.180054473876953125e+01 8.608731269836425781e+00 7.722329348325729370e-02 2.182097733020782471e-01 8.862991631031036377e-02 -1.775173656642436981e-02
7.964000000000000000e+03 7.896615505218505859e+00 1.857422065734863281e+01 -1.554279238916933537e-03 -1.799190603196620941e-02 -5.863855127245187759e-03 -1.928377151489257812e-02
7.965000000000000000e+03 6.217419052124023438e+01 2.368846511840820312e+01 -1.082110285758972168e+00 8.120016098022460938e+00 2.111371755599975586e+00 9.551402926445007324e-01
7.966000000000000000e+03 5.459531402587890625e+01 -9.009467124938964844e+00 -2.679117582738399506e-02 3.896256923675537109e+00 1.160839796066284180e+00 2.549765408039093018e-01
7.967000000000000000e+03 3.835921859741210938e+01 -5.239108204841613770e-01 4.180776700377464294e-02 3.835518658161163330e-01 1.276078820228576660e-01 8.407964557409286499e-02
7.968000000000000000e+03 3.618014526367187500e+01 1.168617630004882812e+01 -7.944927215576171875e-01 -6.325589418411254883e-01 -4.281154870986938477e-01 -6.858718991279602051e-01
7.969000000000000000e+03 3.585900115966796875e+01 1.153087902069091797e+01 -8.111979961395263672e-01 -6.641471982002258301e-01 -4.426035583019256592e-01 -7.033105492591857910e-01
7.970000000000000000e+03 5.809463882446289062e+01 2.787437629699707031e+01 5.384854078292846680e-01 4.833613872528076172e+00 1.611629724502563477e+00 2.445906400680541992e+00
7.971000000000000000e+03 3.685105133056640625e+01 -4.725083112716674805e-01 2.606160938739776611e-02 1.821273863315582275e-01 6.245670095086097717e-02 6.542504578828811646e-02
7.972000000000000000e+03 6.328459548950195312e+01 -1.019713401794433594e+01 -6.448282301425933838e-02 5.792160987854003906e+00 1.718303442001342773e+00 3.144907355308532715e-01
7.973000000000000000e+03 1.812092590332031250e+01 1.769122695922851562e+01 3.272572532296180725e-02 1.316144615411758423e-01 4.930206015706062317e-02 6.667403131723403931e-02
7.974000000000000000e+03 1.799160957336425781e+01 1.664851951599121094e+01 3.858644887804985046e-02 1.401790380477905273e-01 5.362964421510696411e-02 7.327535748481750488e-02
7.975000000000000000e+03 5.561824417114257812e+01 2.441660881042480469e+01 -2.095403335988521576e-02 3.456819772720336914e+00 1.030759692192077637e+00 1.491837263107299805e+00
7.976000000000000000e+03 5.783845520019531250e+01 2.640242576599121094e+01 1.349425911903381348e-01 4.889101505279541016e+00 1.507213234901428223e+00 2.141500711441040039e+00
7.977000000000000000e+03 6.621599578857421875e+01 2.068827247619628906e+01 -1.098902583122253418e+00 8.361923217773437500e+00 2.178906202316284180e+00 -2.700472474098205566e-01
7.978000000000000000e+03 3.784801101684570312e+01 3.669471740722656250e-01 -2.419463545083999634e-02 2.996424734592437744e-01 8.263435214757919312e-02 6.937371194362640381e-02
7.979000000000000000e+03 6.319752502441406250e+01 1.459557563066482544e-01 -1.940832883119583130e-01 5.863448619842529297e+00 1.700809597969055176e+00 3.049642443656921387e-01
7.980000000000000000e+03 6.833015441894531250e+01 7.906608104705810547e+00 -3.670869171619415283e-01 7.238945960998535156e+00 2.061557769775390625e+00 1.451676711440086365e-02
7.981000000000000000e+03 4.345169067382812500e+01 1.821658325195312500e+01 -5.095697641372680664e-01 -2.917234599590301514e-02 -1.616226285696029663e-01 -3.571529090404510498e-01
7.982000000000000000e+03 6.394074630737304688e+01 1.992786598205566406e+01 -1.108100533485412598e+00 7.743880271911621094e+00 1.990733861923217773e+00 2.747482955455780029e-01
7.983000000000000000e+03 6.765043640136718750e+01 7.475604534149169922e+00 -3.801572620868682861e-01 7.078072071075439453e+00 2.009374380111694336e+00 6.613124161958694458e-02
7.984000000000000000e+03 6.272574615478515625e+01 7.426577806472778320e-01 -2.077873498201370239e-01 5.767930984497070312e+00 1.668043017387390137e+00 3.146826922893524170e-01
7.985000000000000000e+03 1.977773475646972656e+01 1.613669967651367188e+01 5.958157777786254883e-02 1.432389467954635620e-01 6.084615737199783325e-02 9.113007038831710815e-02
7.986000000000000000e+03 2.016133308410644531e+01 1.748109817504882812e+01 5.089132115244865417e-02 1.348976194858551025e-01 5.573667958378791809e-02 8.306232839822769165e-02
7.987000000000000000e+03 4.036794281005859375e+01 7.995360851287841797e+00 -3.746967911720275879e-01 3.649862706661224365e-01 -2.913157921284437180e-03 -1.094354465603828430e-01
7.988000000000000000e+03 3.737902069091796875e+01 1.388380813598632812e+01 -7.934149503707885742e-01 -6.717892289161682129e-01 -4.395612478256225586e-01 -7.276130914688110352e-01
7.989000000000000000e+03 9.574346542358398438e+00 1.257665348052978516e+01 3.763789311051368713e-02 5.771368369460105896e-02 2.860547229647636414e-02 -1.468978542834520340e-02
7.990000000000000000e+03 1.114628219604492188e+01 1.035136032104492188e+01 5.598166212439537048e-02 1.447335332632064819e-01 6.021456047892570496e-02 -1.084158755838871002e-02
7.991000000000000000e+03 9.926980972290039062e+00 1.322040367126464844e+01 2.615573816001415253e-02 6.161073222756385803e-02 2.632994204759597778e-02 -8.403171785175800323e-03
7.992000000000000000e+03 1.416177368164062500e+01 1.337713146209716797e+01 3.101968206465244293e-02 1.647862941026687622e-01 5.874178931117057800e-02 4.848985746502876282e-02
7.993000000000000000e+03 6.720512390136718750e+01 6.931158542633056641e+00 -3.681455552577972412e-01 6.951490402221679688e+00 1.975003480911254883e+00 1.025622040033340454e-01
7.994000000000000000e+03 5.721081161499023438e+01 2.576431465148925781e+01 5.880851298570632935e-02 4.424949645996093750e+00 1.345127463340759277e+00 1.928516626358032227e+00
7.995000000000000000e+03 5.751461410522460938e+01 2.572675704956054688e+01 7.424003444612026215e-03 4.670684814453125000e+00 1.403432607650756836e+00 1.958888649940490723e+00
7.996000000000000000e+03 5.260516357421875000e+01 2.626806831359863281e+01 9.565649926662445068e-02 1.252535820007324219e+00 4.044577181339263916e-01 7.141963243484497070e-01
7.997000000000000000e+03 6.356130218505859375e+01 -8.630129814147949219e+00 -6.683401018381118774e-02 5.844737529754638672e+00 1.733371019363403320e+00 3.090666234493255615e-01
7.998000000000000000e+03 6.209217453002929688e+01 1.050484552979469299e-01 -1.945092380046844482e-01 5.607269763946533203e+00 1.623828053474426270e+00 3.269668519496917725e-01
7.999000000000000000e+03 4.753763961791992188e+01 2.442401695251464844e+01 -4.733112156391143799e-01 -5.967644974589347839e-02 -1.598962992429733276e-01 -2.611298859119415283e-01
8.000000000000000000e+03 4.751351165771484375e+01 2.394108772277832031e+01 -4.510064423084259033e-01 1.714923419058322906e-02 -1.301571577787399292e-01 -2.105889171361923218e-01
8.001000000000000000e+03 5.394839859008789062e+01 2.487550544738769531e+01 8.752189576625823975e-02 2.293957710266113281e+00 7.144438624382019043e-01 1.150090336799621582e+00
8.002000000000000000e+03 6.469259643554687500e+01 -6.061174392700195312e+00 -8.938591927289962769e-02 6.107002258300781250e+00 1.805284857749938965e+00 3.045973181724548340e-01
8.003000000000000000e+03 1.158201885223388672e+01 1.440434551239013672e+01 1.818694919347763062e-02 1.023329496383666992e-01 3.615596890449523926e-02 6.497251335531473160e-03
8.004000000000000000e+03 4.125467300415039062e+01 7.934128761291503906e+00 -3.439313769340515137e-01 5.220577120780944824e-01 5.343789979815483093e-02 -4.479050636291503906e-02
8.005000000000000000e+03 5.408939743041992188e+01 2.439926147460937500e+01 3.307497501373291016e-02 2.508893013000488281e+00 7.625904083251953125e-01 1.191705465316772461e+00
8.006000000000000000e+03 5.212178421020507812e+01 2.505421257019042969e+01 5.646280478686094284e-03 1.340470075607299805e+00 4.038349092006683350e-01 6.922468543052673340e-01
8.007000000000000000e+03 3.751375961303710938e+01 1.360430431365966797e+01 -7.741990685462951660e-01 -6.191062927246093750e-01 -4.179916083812713623e-01 -6.931461095809936523e-01
8.008000000000000000e+03 5.436434936523437500e+01 2.413740921020507812e+01 -2.078892895951867104e-03 2.707191705703735352e+00 8.115338087081909180e-01 1.240951895713806152e+00
8.009000000000000000e+03 1.290525531768798828e+01 1.394453239440917969e+01 2.170658111572265625e-02 1.346449851989746094e-01 4.690546914935112000e-02 2.695665508508682251e-02
8.010000000000000000e+03 1.359134292602539062e+01 1.544605636596679688e+01 1.561885047703981400e-02 1.260039061307907104e-01 4.248682782053947449e-02 3.038599155843257904e-02
8.011000000000000000e+03 1.240215682983398438e+01 1.541034889221191406e+01 1.318566314876079559e-02 1.062769070267677307e-01 3.583877161145210266e-02 1.475377008318901062e-02
8.012000000000000000e+03 1.293844509124755859e+01 1.587742614746093750e+01 1.226161327213048935e-02 1.086248084902763367e-01 3.626592829823493958e-02 2.123096957802772522e-02
8.013000000000000000e+03 1.323340702056884766e+01 1.482742309570312500e+01 1.795800775289535522e-02 1.294451653957366943e-01 4.422095045447349548e-02 2.835081703960895538e-02
8.014000000000000000e+03 1.314315032958984375e+01 1.531907558441162109e+01 1.722480542957782745e-02 1.201228871941566467e-01 4.120430722832679749e-02 2.612770535051822662e-02
8.015000000000000000e+03 1.197639465332031250e+01 1.490253162384033203e+01 1.487537566572427750e-02 1.029862388968467712e-01 3.535848483443260193e-02 1.126062776893377304e-02
8.016000000000000000e+03 6.623162841796875000e+01 1.802054214477539062e+01 -9.851052165031433105e-01 7.850025653839111328e+00 2.059476137161254883e+00 -1.598605215549468994e-01
8.017000000000000000e+03 6.561739349365234375e+01 1.754042625427246094e+01 -9.713035821914672852e-01 7.637720108032226562e+00 1.999924898147583008e+00 -3.441023826599121094e-02
8.018000000000000000e+03 6.539240264892578125e+01 1.830721092224121094e+01 -1.033602118492126465e+00 7.711560726165771484e+00 2.003387451171875000e+00 5.693786311894655228e-03
8.019000000000000000e+03 4.130316162109375000e+01 1.665413618087768555e+00 -4.963065311312675476e-02 8.278328180313110352e-01 2.334606498479843140e-01 1.237903758883476257e-01
8.020000000000000000e+03 5.906789398193359375e+01 2.192297744750976562e+01 -6.953605413436889648e-01 5.893733024597167969e+00 1.559511780738830566e+00 1.364711046218872070e+00
8.021000000000000000e+03 5.778022384643554688e+01 2.506768798828125000e+01 -1.647918522357940674e-01 5.008736610412597656e+00 1.453183412551879883e+00 1.876832723617553711e+00
8.022000000000000000e+03 4.149638748168945312e+01 2.746729612350463867e+00 -8.700026571750640869e-02 8.385859131813049316e-01 2.254756987094879150e-01 1.210209652781486511e-01
8.023000000000000000e+03 4.960290527343750000e+01 2.477448654174804688e+01 -2.320437729358673096e-01 4.514930546283721924e-01 6.583478301763534546e-02 1.225720718502998352e-01
8.024000000000000000e+03 6.601589202880859375e+01 7.830758571624755859e+00 -4.285965859889984131e-01 6.756492614746093750e+00 1.898368835449218750e+00 1.452330499887466431e-01
8.025000000000000000e+03 4.803740692138671875e+01 2.351008987426757812e+01 -3.727734684944152832e-01 2.412991821765899658e-01 -3.944228589534759521e-02 -6.191129982471466064e-02
8.026000000000000000e+03 6.542291259765625000e+01 7.442545890808105469e+00 -4.236575067043304443e-01 6.611005783081054688e+00 1.856204390525817871e+00 1.809373944997787476e-01
8.027000000000000000e+03 6.192067337036132812e+01 1.089514923095703125e+01 -5.939201712608337402e-01 5.990312099456787109e+00 1.618917584419250488e+00 3.806288838386535645e-01
8.028000000000000000e+03 5.742623519897460938e+01 2.501028823852539062e+01 -1.173203438520431519e-01 4.721604824066162109e+00 1.381285309791564941e+00 1.829360008239746094e+00
8.029000000000000000e+03 5.878335952758789062e+01 2.144267654418945312e+01 -6.786274313926696777e-01 5.655746459960937500e+00 1.493135690689086914e+00 1.310839772224426270e+00
8.030000000000000000e+03 4.407670211791992188e+01 7.086618542671203613e-01 -7.373711559921503067e-03 1.384469270706176758e+00 4.131286740303039551e-01 2.023927271366119385e-01
8.031000000000000000e+03 4.329396438598632812e+01 7.068428397178649902e-01 6.485243793576955795e-03 1.234485626220703125e+00 3.722912669181823730e-01 1.867600381374359131e-01
8.032000000000000000e+03 5.515248107910156250e+01 -3.748785734176635742e+00 -7.038360834121704102e-02 3.964323043823242188e+00 1.168181896209716797e+00 3.363082706928253174e-01
8.033000000000000000e+03 4.519657135009765625e+01 1.799365997314453125e+01 -4.155081212520599365e-01 3.783678114414215088e-01 -1.114209275692701340e-02 -1.198810115456581116e-01
8.034000000000000000e+03 4.201645278930664062e+01 2.085621833801269531e+00 -6.345146894454956055e-02 9.423611760139465332e-01 2.636729180812835693e-01 1.375300884246826172e-01
8.035000000000000000e+03 4.220064163208007812e+01 2.595815896987915039e+00 -8.572714030742645264e-02 9.745218157768249512e-01 2.666383981704711914e-01 1.451862454414367676e-01
8.036000000000000000e+03 3.940851211547851562e+01 1.496199417114257812e+01 -6.971243023872375488e-01 -4.233905076980590820e-01 -3.361544311046600342e-01 -5.852693319320678711e-01
8.037000000000000000e+03 5.777564239501953125e+01 2.536508750915527344e+01 -1.088556796312332153e-01 4.964035511016845703e+00 1.456554055213928223e+00 1.922120094299316406e+00
8.038000000000000000e+03 4.207694244384765625e+01 6.394182682037353516e+00 -2.543102800846099854e-01 7.654377818107604980e-01 1.533382534980773926e-01 5.457156524062156677e-02
8.039000000000000000e+03 4.270608520507812500e+01 6.615283966064453125e+00 -2.451853305101394653e-01 8.822980523109436035e-01 1.911338120698928833e-01 8.568659424781799316e-02
8.040000000000000000e+03 4.041968917846679688e+01 1.408426856994628906e+01 -5.938267111778259277e-01 -1.523984223604202271e-01 -2.238675355911254883e-01 -4.265149831771850586e-01
8.041000000000000000e+03 3.877392578125000000e+01 1.310623359680175781e+01 -6.690129637718200684e-01 -3.485197126865386963e-01 -3.052597939968109131e-01 -5.269471406936645508e-01
8.042000000000000000e+03 6.074676132202148438e+01 1.576237583160400391e+01 -8.001639246940612793e-01 6.053401947021484375e+00 1.575971364974975586e+00 6.196588873863220215e-01
8.043000000000000000e+03 4.855880737304687500e+01 2.357204437255859375e+01 -3.149320185184478760e-01 3.755367696285247803e-01 1.818142458796501160e-02 3.417794033885002136e-02
8.044000000000000000e+03 5.444515991210937500e+01 2.285667228698730469e+01 -1.152072250843048096e-01 3.002973556518554688e+00 8.663299083709716797e-01 1.220673918724060059e+00
8.045000000000000000e+03 6.078130340576171875e+01 9.360237121582031250e+00 -5.032154917716979980e-01 5.596014976501464844e+00 1.527839779853820801e+00 4.335025548934936523e-01
8.046000000000000000e+03 6.186909103393554688e+01 9.984016418457031250e+00 -5.472401976585388184e-01 5.916509151458740234e+00 1.610780596733093262e+00 3.750668168067932129e-01
8.047000000000000000e+03 4.646930694580078125e+01 2.075766944885253906e+01 -4.044550359249114990e-01 2.961888015270233154e-01 -3.247987106442451477e-02 -9.357339143753051758e-02
8.048000000000000000e+03 3.934992218017578125e+01 1.265865516662597656e+01 -6.136372685432434082e-01 -2.078891545534133911e-01 -2.464579343795776367e-01 -4.448681473731994629e-01
8.049000000000000000e+03 5.933942794799804688e+01 2.122147560119628906e+01 -7.656232714653015137e-01 5.999410152435302734e+00 1.570135951042175293e+00 1.240479230880737305e+00
8.050000000000000000e+03 3.927096939086914062e+01 1.320387268066406250e+01 -6.376016139984130859e-01 -2.716146409511566162e-01 -2.727648615837097168e-01 -4.847349822521209717e-01
8.051000000000000000e+03 4.780678939819335938e+01 2.220074844360351562e+01 -3.510428071022033691e-01 4.125618636608123779e-01 1.845571026206016541e-02 1.980292424559593201e-02
8.052000000000000000e+03 4.857830810546875000e+01 2.302001571655273438e+01 -3.042519092559814453e-01 4.888394176959991455e-01 5.537625402212142944e-02 8.817706257104873657e-02
8.053000000000000000e+03 4.803483581542968750e+01 1.375210732221603394e-01 -2.284099347889423370e-02 2.230874538421630859e+00 6.624100804328918457e-01 2.885372638702392578e-01
8.054000000000000000e+03 4.822869873046875000e+01 7.536349296569824219e-01 -3.563730418682098389e-02 2.285567760467529297e+00 6.749791502952575684e-01 3.048920929431915283e-01
8.055000000000000000e+03 4.859886169433593750e+01 2.500023245811462402e-01 -3.546278551220893860e-02 2.407365322113037109e+00 7.115707993507385254e-01 3.077515363693237305e-01
8.056000000000000000e+03 4.675527191162109375e+01 1.858640098571777344e+01 -3.493528962135314941e-01 6.839233040809631348e-01 1.003711223602294922e-01 6.503511965274810791e-02
8.057000000000000000e+03 5.610363006591796875e+01 2.164402198791503906e+01 -3.504685163497924805e-01 4.138092994689941406e+00 1.136287331581115723e+00 1.336377859115600586e+00
8.058000000000000000e+03 5.626420211791992188e+01 2.106838226318359375e+01 -3.957590460777282715e-01 4.186146736145019531e+00 1.137116312980651855e+00 1.265943884849548340e+00
8.059000000000000000e+03 5.594043731689453125e+01 2.120534515380859375e+01 -3.724646866321563721e-01 4.055909156799316406e+00 1.105033278465270996e+00 1.266393542289733887e+00
8.060000000000000000e+03 4.218286514282226562e+01 1.201638698577880859e+01 -4.330979287624359131e-01 3.873366415500640869e-01 -1.372838113456964493e-02 -1.495900303125381470e-01
8.061000000000000000e+03 4.551042175292968750e+01 1.660594701766967773e+00 -3.973356261849403381e-02 1.665211677551269531e+00 4.876434504985809326e-01 2.547912895679473877e-01
8.062000000000000000e+03 5.837170028686523438e+01 1.290214157104492188e+01 -5.793539285659790039e-01 5.024582862854003906e+00 1.333568692207336426e+00 6.475564837455749512e-01
8.063000000000000000e+03 4.942391204833984375e+01 -3.185726404190063477e-01 -3.031229972839355469e-02 2.580947160720825195e+00 7.651904821395874023e-01 3.188130259513854980e-01
8.064000000000000000e+03 4.926645278930664062e+01 4.893396794795989990e-01 -4.101083427667617798e-02 2.531794548034667969e+00 7.472351193428039551e-01 3.215921819210052490e-01
8.065000000000000000e+03 4.932177352905273438e+01 2.333580017089843750e+01 -2.525588572025299072e-01 6.590861678123474121e-01 1.219581961631774902e-01 2.043574154376983643e-01
8.066000000000000000e+03 4.618712997436523438e+01 1.900834274291992188e+01 -3.837001919746398926e-01 4.868640303611755371e-01 3.094915300607681274e-02 -3.208465874195098877e-02
8.067000000000000000e+03 4.726919937133789062e+01 2.126346206665039062e+01 -3.656693994998931885e-01 4.169860184192657471e-01 1.539498474448919296e-02 1.616085064597427845e-03
8.068000000000000000e+03 5.830806732177734375e+01 1.857156562805175781e+01 -6.882382035255432129e-01 5.261852264404296875e+00 1.372084140777587891e+00 1.010727763175964355e+00
8.069000000000000000e+03 4.353619766235351562e+01 1.084176063537597656e+01 -3.510740697383880615e-01 7.682521343231201172e-01 1.251534223556518555e-01 1.361889392137527466e-02
8.070000000000000000e+03 5.870774459838867188e+01 1.141186332702636719e+01 -5.451905727386474609e-01 5.065177917480468750e+00 1.355996251106262207e+00 5.796074271202087402e-01
8.071000000000000000e+03 4.496327209472656250e+01 5.950637340545654297e+00 -1.823824197053909302e-01 1.373811006546020508e+00 3.574285805225372314e-01 2.090892344713211060e-01
8.072000000000000000e+03 4.659177017211914062e+01 1.937867355346679688e+01 -3.633540868759155273e-01 5.218871235847473145e-01 4.755990952253341675e-02 8.272293023765087128e-03
8.073000000000000000e+03 4.996334075927734375e+01 2.161411285400390625e+01 -2.170097082853317261e-01 1.194491863250732422e+00 2.932446599006652832e-01 4.230364859104156494e-01
8.074000000000000000e+03 4.265744018554687500e+01 1.248371219635009766e+01 -4.227468371391296387e-01 4.382903575897216797e-01 4.663060419261455536e-03 -1.283783763647079468e-01
8.075000000000000000e+03 5.630736160278320312e+01 2.059905052185058594e+01 -4.282739162445068359e-01 4.268215179443359375e+00 1.151982307434082031e+00 1.237764596939086914e+00
8.076000000000000000e+03 5.662502288818359375e+01 2.030816459655761719e+01 -4.845097661018371582e-01 4.432244300842285156e+00 1.184320449829101562e+00 1.217467308044433594e+00
8.077000000000000000e+03 4.532953643798828125e+01 1.188209819793701172e+01 -3.221330642700195312e-01 1.067818641662597656e+00 2.237056791782379150e-01 1.296455264091491699e-01
8.078000000000000000e+03 4.421719741821289062e+01 1.190934562683105469e+01 -3.544085621833801270e-01 8.165342211723327637e-01 1.386376917362213135e-01 3.310729563236236572e-02
8.079000000000000000e+03 5.253525161743164062e+01 5.133070349693298340e-01 -9.648960828781127930e-02 3.312430143356323242e+00 9.647821784019470215e-01 3.776605725288391113e-01
8.080000000000000000e+03 4.642550277709960938e+01 1.917983055114746094e+01 -3.689601123332977295e-01 5.341174006462097168e-01 4.954718798398971558e-02 -8.597522042691707611e-03
8.081000000000000000e+03 5.049583816528320312e+01 2.169704437255859375e+01 -1.891443878412246704e-01 1.387421488761901855e+00 3.594831228256225586e-01 5.302253365516662598e-01
8.082000000000000000e+03 4.678557205200195312e+01 1.915752220153808594e+01 -3.429623842239379883e-01 6.152247786521911621e-01 8.167872577905654907e-02 5.871846154332160950e-02
8.083000000000000000e+03 4.574382781982421875e+01 4.739301204681396484e+00 -1.342903524637222290e-01 1.603913187980651855e+00 4.408868551254272461e-01 2.538570165634155273e-01
8.084000000000000000e+03 4.449723434448242188e+01 1.122433376312255859e+01 -3.286714255809783936e-01 9.355717897415161133e-01 1.820701211690902710e-01 7.689658552408218384e-02
8.085000000000000000e+03 4.904818344116210938e+01 4.429886817932128906e+00 -1.431962102651596069e-01 2.389919042587280273e+00 6.740168929100036621e-01 3.695121407508850098e-01
8.086000000000000000e+03 4.752797698974609375e+01 1.907758522033691406e+01 -3.166751861572265625e-01 8.236756324768066406e-01 1.521001458168029785e-01 1.476683020591735840e-01
8.087000000000000000e+03 5.421388244628906250e+01 2.046866416931152344e+01 -2.835477292537689209e-01 3.173087835311889648e+00 8.668620586395263672e-01 1.069339871406555176e+00
8.088000000000000000e+03 4.486600875854492188e+01 1.093970870971679688e+01 -3.136883080005645752e-01 1.049079418182373047e+00 2.206173241138458252e-01 1.171571239829063416e-01
8.089000000000000000e+03 4.689868164062500000e+01 5.209050655364990234e+00 -1.458559930324554443e-01 1.852280616760253906e+00 5.119274258613586426e-01 3.010484278202056885e-01
8.090000000000000000e+03 4.845592498779296875e+01 1.064642238616943359e+01 -2.666693329811096191e-01 1.951585769653320312e+00 5.054749250411987305e-01 3.760870397090911865e-01
8.091000000000000000e+03 5.656494522094726562e+01 1.355793285369873047e+01 -5.130927562713623047e-01 4.418724060058593750e+00 1.171689391136169434e+00 7.169714570045471191e-01
8.092000000000000000e+03 4.941340255737304688e+01 1.725160598754882812e+01 -2.743756771087646484e-01 1.639370799064636230e+00 4.094985425472259521e-01 4.465462267398834229e-01
8.093000000000000000e+03 4.707195281982421875e+01 6.409067630767822266e+00 -1.814436912536621094e-01 1.841376781463623047e+00 4.979799389839172363e-01 3.075759112834930420e-01
8.094000000000000000e+03 5.690053176879882812e+01 1.316160869598388672e+01 -5.132598280906677246e-01 4.559842109680175781e+00 1.213974714279174805e+00 6.967098712921142578e-01
8.095000000000000000e+03 4.891610717773437500e+01 1.668922233581542969e+01 -2.877441346645355225e-01 1.571523427963256836e+00 3.851338028907775879e-01 3.971013128757476807e-01
8.096000000000000000e+03 5.420178985595703125e+01 9.537458419799804688e+00 -3.431771993637084961e-01 3.650396347045898438e+00 9.921657443046569824e-01 5.708642601966857910e-01
8.097000000000000000e+03 4.819512939453125000e+01 1.120109462738037109e+01 -2.699596583843231201e-01 1.855190038681030273e+00 4.755690991878509521e-01 3.600639402866363525e-01
8.098000000000000000e+03 4.904841232299804688e+01 2.077661132812500000e+01 -2.564939260482788086e-01 1.027843117713928223e+00 2.314047813415527344e-01 3.217661976814270020e-01
8.099000000000000000e+03 4.968983459472656250e+01 5.570466995239257812e+00 -1.704890131950378418e-01 2.515737533569335938e+00 7.035745978355407715e-01 3.954917192459106445e-01
8.100000000000000000e+03 4.947945404052734375e+01 1.678120994567871094e+01 -2.832200527191162109e-01 1.729167580604553223e+00 4.337842464447021484e-01 4.631480872631072998e-01
8.101000000000000000e+03 5.020610046386718750e+01 1.948946380615234375e+01 -2.366251796483993530e-01 1.636221766471862793e+00 4.198789596557617188e-01 5.331500172615051270e-01
8.102000000000000000e+03 5.014107894897460938e+01 1.442433166503906250e+01 -2.980670928955078125e-01 2.167185068130493164e+00 5.607353448867797852e-01 5.157015919685363770e-01
8.103000000000000000e+03 4.815136718750000000e+01 2.051601028442382812e+01 -3.038994967937469482e-01 8.043924570083618164e-01 1.501478850841522217e-01 1.867734342813491821e-01
8.104000000000000000e+03 4.787843704223632812e+01 6.785330295562744141e+00 -1.961318552494049072e-01 2.014532804489135742e+00 5.455203056335449219e-01 3.455925881862640381e-01
8.105000000000000000e+03 4.998044586181640625e+01 1.699287605285644531e+01 -2.888795137405395508e-01 1.862786293029785156e+00 4.721720516681671143e-01 4.909064173698425293e-01
8.106000000000000000e+03 4.966746520996093750e+01 1.628289413452148438e+01 -2.837757766246795654e-01 1.834648847579956055e+00 4.652619063854217529e-01 4.798762798309326172e-01
8.107000000000000000e+03 4.965670013427734375e+01 1.708817291259765625e+01 -2.739925682544708252e-01 1.767088055610656738e+00 4.479286372661590576e-01 4.832376837730407715e-01
8.108000000000000000e+03 4.875439834594726562e+01 6.946379184722900391e+00 -1.968079954385757446e-01 2.207695007324218750e+00 6.032660603523254395e-01 3.844468295574188232e-01
8.109000000000000000e+03 4.959502029418945312e+01 1.591443538665771484e+01 -2.829793989658355713e-01 1.872341752052307129e+00 4.768086969852447510e-01 4.736137390136718750e-01
8.110000000000000000e+03 4.985134124755859375e+01 1.663770866394042969e+01 -2.826860845088958740e-01 1.844018459320068359e+00 4.683997035026550293e-01 4.842512011528015137e-01
8.111000000000000000e+03 5.454671859741210938e+01 1.790305519104003906e+01 -3.972381949424743652e-01 3.563591003417968750e+00 9.499058723449707031e-01 9.427224993705749512e-01
8.112000000000000000e+03 5.016974258422851562e+01 9.872529029846191406e+00 -2.658887505531311035e-01 2.464499473571777344e+00 6.595832109451293945e-01 4.646050930023193359e-01
8.113000000000000000e+03 5.068801116943359375e+01 9.505116462707519531e+00 -2.672813832759857178e-01 2.605115652084350586e+00 7.013502717018127441e-01 4.843412339687347412e-01
8.114000000000000000e+03 5.100022125244140625e+01 1.368502330780029297e+01 -3.041640222072601318e-01 2.498587608337402344e+00 6.583271026611328125e-01 5.662043094635009766e-01
8.115000000000000000e+03 5.233265304565429688e+01 1.788716506958007812e+01 -2.928838431835174561e-01 2.623878240585327148e+00 6.992983222007751465e-01 7.728274464607238770e-01
8.116000000000000000e+03 5.439893722534179688e+01 1.476123809814453125e+01 -4.216867685317993164e-01 3.616294145584106445e+00 9.583821892738342285e-01 7.645376324653625488e-01
8.117000000000000000e+03 5.237601852416992188e+01 1.335184383392333984e+01 -3.433434963226318359e-01 2.974514484405517578e+00 7.893512845039367676e-01 6.381092667579650879e-01
8.118000000000000000e+03 5.282670593261718750e+01 1.277485179901123047e+01 -3.503668904304504395e-01 3.148233413696289062e+00 8.393599987030029297e-01 6.458643674850463867e-01
8.119000000000000000e+03 5.338932800292968750e+01 1.409546661376953125e+01 -3.729814291000366211e-01 3.290617942810058594e+00 8.752909302711486816e-01 7.148565649986267090e-01
8.120000000000000000e+03 2.584251785278320312e+01 7.212073326110839844e+00 -5.915266990661621094e+00 -3.169531106948852539e+00 -2.725439548492431641e+00 -4.500180721282958984e+00
8.121000000000000000e+03 2.572043228149414062e+01 7.138077259063720703e+00 -6.103542804718017578e+00 -2.996181726455688477e+00 -2.729917287826538086e+00 -4.213860511779785156e+00
8.122000000000000000e+03 2.634960937500000000e+01 7.597590446472167969e+00 -5.571268081665039062e+00 -3.415809631347656250e+00 -2.696123361587524414e+00 -4.445178508758544922e+00
8.123000000000000000e+03 2.616344833374023438e+01 7.453263759613037109e+00 -6.243325710296630859e+00 -3.886376142501831055e+00 -3.038910627365112305e+00 -4.638592243194580078e+00
8.124000000000000000e+03 2.604765129089355469e+01 7.368196010589599609e+00 -4.757711887359619141e+00 -2.783543109893798828e+00 -2.262376546859741211e+00 -4.325746536254882812e+00
8.125000000000000000e+03 2.604761314392089844e+01 7.351262569427490234e+00 -5.560433864593505859e+00 -2.975574970245361328e+00 -2.560802698135375977e+00 -4.630475997924804688e+00
8.126000000000000000e+03 2.595621299743652344e+01 7.306093692779541016e+00 -7.201436996459960938e+00 -3.784735202789306641e+00 -3.295851707458496094e+00 -4.540952682495117188e+00
8.127000000000000000e+03 2.575144386291503906e+01 7.166223526000976562e+00 -6.103202342987060547e+00 -3.027341127395629883e+00 -2.739162921905517578e+00 -4.316471576690673828e+00
8.128000000000000000e+03 2.577326011657714844e+01 7.178963184356689453e+00 -5.993070602416992188e+00 -2.984256744384765625e+00 -2.693198204040527344e+00 -3.739737987518310547e+00
8.129000000000000000e+03 2.584219551086425781e+01 7.227824687957763672e+00 -5.949607849121093750e+00 -3.092565774917602539e+00 -2.712652206420898438e+00 -4.571602821350097656e+00
8.130000000000000000e+03 2.585137367248535156e+01 7.226731300354003906e+00 -5.912848949432373047e+00 -3.186440229415893555e+00 -2.729786872863769531e+00 -4.799384593963623047e+00
8.131000000000000000e+03 2.605745124816894531e+01 7.387742996215820312e+00 -5.849727630615234375e+00 -3.380343198776245117e+00 -2.769021272659301758e+00 -4.503495693206787109e+00
8.132000000000000000e+03 1.440315914154052734e+01 9.624524116516113281e-01 3.124204158782958984e+00 2.414049863815307617e+00 1.661476254463195801e+00 -1.965872287750244141e+00
8.133000000000000000e+03 1.114653110504150391e+01 1.993262022733688354e-01 -1.812919020652770996e+00 -1.512368321418762207e-01 -5.892467498779296875e-01 5.628027915954589844e-01
8.134000000000000000e+03 1.121876430511474609e+01 9.378392100334167480e-01 -7.854653596878051758e-01 -3.876986801624298096e-01 -3.519492149353027344e-01 6.586915254592895508e-01
8.135000000000000000e+03 1.040455722808837891e+01 3.265222907066345215e-01 -1.438915252685546875e+00 -1.811269819736480713e-01 -4.860126674175262451e-01 3.943648636341094971e-01
8.136000000000000000e+03 1.188854217529296875e+01 7.071893662214279175e-02 -2.359583854675292969e+00 -2.559810876846313477e-01 -7.846694588661193848e-01 7.319982051849365234e-01
8.137000000000000000e+03 1.271423625946044922e+01 6.772393584251403809e-01 -9.255183935165405273e-01 -3.904952704906463623e-01 -3.948040902614593506e-01 9.608008861541748047e-01
8.138000000000000000e+03 1.263056278228759766e+01 -5.929099395871162415e-02 -3.018385887145996094e+00 -1.692211329936981201e-01 -9.562820792198181152e-01 8.848846554756164551e-01
8.139000000000000000e+03 1.047107124328613281e+01 1.066026568412780762e+00 -6.762114167213439941e-01 -3.050818443298339844e-01 -2.943879961967468262e-01 5.055895447731018066e-01
8.140000000000000000e+03 1.196649551391601562e+01 8.082405924797058105e-01 -8.215740919113159180e-01 -3.645969331264495850e-01 -3.558513224124908447e-01 8.011677265167236328e-01
8.141000000000000000e+03 9.729189872741699219e+00 1.127164006233215332e+00 -6.056502461433410645e-01 -2.302286773920059204e-01 -2.507636845111846924e-01 4.277175068855285645e-01
8.142000000000000000e+03 8.895327568054199219e+00 3.831142783164978027e-01 -7.463700175285339355e-01 -3.080918267369270325e-02 -2.331537604331970215e-01 1.143242269754409790e-01
8.143000000000000000e+03 8.136641502380371094e+00 3.810498118400573730e-01 -5.446074604988098145e-01 -4.931515548378229141e-03 -1.648617088794708252e-01 8.049727976322174072e-02
8.144000000000000000e+03 6.620836257934570312e+00 3.807878792285919189e-01 -2.960843443870544434e-01 5.554765230044722557e-04 -8.865866810083389282e-02 4.514859616756439209e-02
8.145000000000000000e+03 5.863288402557373047e+00 3.777014017105102539e-01 -2.147962749004364014e-01 -9.017625823616981506e-03 -6.714417040348052979e-02 3.352199122309684753e-02
8.146000000000000000e+03 5.318059444427490234e+00 1.113148808479309082e+00 -1.562240421772003174e-01 -1.890648528933525085e-02 -5.253915861248970032e-02 8.151751756668090820e-02
8.147000000000000000e+03 4.347115039825439453e+00 3.710395395755767822e-01 -9.910858422517776489e-02 -5.476900376379489899e-03 -3.137564659118652344e-02 2.066767029464244843e-02
8.148000000000000000e+03 2.831676959991455078e+00 3.606979846954345703e-01 -2.967349253594875336e-02 -3.904035547748208046e-03 -1.007325854152441025e-02 1.117903832346200943e-02
8.149000000000000000e+03 2.076213359832763672e+00 3.580279946327209473e-01 -1.036254037171602249e-02 -8.439010125584900379e-04 -3.361932467669248581e-03 7.319123018532991409e-03
8.150000000000000000e+03 2.380638122558593750e+00 1.098027944564819336e+00 -3.016187995672225952e-02 -1.228364091366529465e-02 -1.273365598171949387e-02 2.639793977141380310e-02
8.151000000000000000e+03 1.333085298538208008e+00 3.664900958538055420e-01 -2.047780202701687813e-03 -2.765944693237543106e-03 -1.444117515347898006e-03 2.079705009236931801e-03
8.152000000000000000e+03 1.660440564155578613e+00 1.106490135192871094e+00 -1.483920216560363770e-02 -9.549519978463649750e-03 -7.316616363823413849e-03 1.568946242332458496e-02
8.153000000000000000e+03 6.547182202339172363e-01 3.947406113147735596e-01 1.138822408393025398e-03 3.069788508582860231e-04 4.337403515819460154e-04 1.340235467068850994e-03
8.154000000000000000e+03 3.519233465194702148e-01 9.575628638267517090e-01 -2.021886641159653664e-03 -1.868314691819250584e-03 -1.167060458101332188e-03 4.544713010545819998e-04
8.155000000000000000e+03 3.113171100616455078e+00 1.100697994232177734e+00 -5.162889510393142700e-02 -8.484509773552417755e-03 -1.803402230143547058e-02 3.896810486912727356e-02
8.156000000000000000e+03 3.588829517364501953e+00 3.677253723144531250e-01 -5.911184102296829224e-02 2.183753240387886763e-04 -1.766804046928882599e-02 1.711149886250495911e-02
8.157000000000000000e+03 5.105357170104980469e+00 3.731488585472106934e-01 -1.501391530036926270e-01 9.778359672054648399e-04 -4.474839568138122559e-02 2.786739729344844818e-02
8.158000000000000000e+03 6.053060531616210938e+00 1.117701411247253418e+00 -2.083052992820739746e-01 -1.545249205082654953e-02 -6.712733954191207886e-02 1.020782291889190674e-01
8.159000000000000000e+03 7.522262096405029297e+00 1.121038317680358887e+00 -3.483565449714660645e-01 -3.432737290859222412e-02 -1.148051768541336060e-01 1.653031408786773682e-01
8.160000000000000000e+03 7.378351211547851562e+00 3.810383677482604980e-01 -4.020223319530487061e-01 -1.508496981114149094e-02 -1.251321882009506226e-01 5.704263597726821899e-02
8.161000000000000000e+03 8.257620811462402344e+00 1.121049761772155762e+00 -4.412862062454223633e-01 -6.690853089094161987e-02 -1.524584293365478516e-01 2.183030992746353149e-01
8.162000000000000000e+03 8.993377685546875000e+00 1.123114228248596191e+00 -5.602867007255554199e-01 -1.040094718337059021e-01 -1.992888599634170532e-01 3.128567337989807129e-01
8.163000000000000000e+03 9.654070854187011719e+00 3.871639966964721680e-01 -1.084293127059936523e+00 -7.137776911258697510e-02 -3.467012643814086914e-01 2.177392691373825073e-01
8.164000000000000000e+03 6.787677288055419922e+00 1.120787858963012695e+00 -2.708785533905029297e-01 -3.227790072560310364e-02 -9.094693511724472046e-02 1.283911466598510742e-01
8.165000000000000000e+03 4.582747936248779297e+00 1.111039519309997559e+00 -1.139295101165771484e-01 -9.386569261550903320e-03 -3.699482604861259460e-02 6.600508093833923340e-02
8.166000000000000000e+03 3.847393035888671875e+00 1.107725381851196289e+00 -7.875499129295349121e-02 -1.369524188339710236e-02 -2.773506939411163330e-02 5.149092525243759155e-02
8.167000000000000000e+03 1.005004048347473145e+00 1.134740591049194336e+00 -6.954568438231945038e-03 -9.188177064061164856e-03 -4.842823836952447891e-03 6.730087101459503174e-03
8.168000000000000000e+03 9.574274063110351562e+00 -3.935540616512298584e-01 -2.162662595510482788e-01 2.219502115622162819e-03 -6.421402841806411743e-02 -1.276795286685228348e-02
8.169000000000000000e+03 8.789978027343750000e+00 -3.986168801784515381e-01 -1.851500570774078369e-01 4.278218839317560196e-03 -5.426155030727386475e-02 -1.965004019439220428e-02
8.170000000000000000e+03 8.686211585998535156e+00 -1.138616919517517090e+00 -2.298180162906646729e-01 -5.412224214524030685e-03 -7.056907564401626587e-02 -6.304778158664703369e-02
8.171000000000000000e+03 8.006248474121093750e+00 -3.998050093650817871e-01 -1.438671201467514038e-01 -4.227902740240097046e-03 -4.442850872874259949e-02 -2.061978541314601898e-02
8.172000000000000000e+03 7.223060607910156250e+00 -3.997795581817626953e-01 -1.053770706057548523e-01 2.167204627767205238e-03 -3.096296079456806183e-02 -1.775207556784152985e-02
8.173000000000000000e+03 6.439927577972412109e+00 -4.006183743476867676e-01 -6.970649957656860352e-02 -4.503953270614147186e-03 -2.226313576102256775e-02 -1.650580950081348419e-02
8.174000000000000000e+03 5.657042503356933594e+00 -4.034312665462493896e-01 -4.056805372238159180e-02 1.054530730471014977e-03 -1.185405720025300980e-02 -1.199912931770086288e-02
8.175000000000000000e+03 4.874185085296630859e+00 -4.075828790664672852e-01 -1.705266349017620087e-02 -3.691007848829030991e-03 -6.223101168870925903e-03 -1.035850029438734055e-02
8.176000000000000000e+03 4.091480255126953125e+00 -4.106692969799041748e-01 -4.031734715681523085e-04 -4.459390474949032068e-04 -2.547337498981505632e-04 -5.652746185660362244e-03
8.177000000000000000e+03 3.310033082962036133e+00 -4.133046567440032959e-01 9.770367294549942017e-03 -2.674782648682594299e-03 2.128675347194075584e-03 -2.950620139017701149e-03
8.178000000000000000e+03 2.531398296356201172e+00 -4.163123965263366699e-01 1.269589085131883621e-02 -8.231848478317260742e-04 3.561811987310647964e-03 7.216921076178550720e-04
8.179000000000000000e+03 6.962535381317138672e-01 -1.126455783843994141e+00 1.566903549246490002e-03 3.185374662280082703e-03 1.425683498382568359e-03 4.256335552781820297e-03
8.180000000000000000e+03 3.739950358867645264e-01 -5.643373131752014160e-01 9.854397503659129143e-04 3.060571616515517235e-03 1.213803421705961227e-03 1.668717013671994209e-03
8.181000000000000000e+03 9.497249603271484375e+00 -1.133554100990295410e+00 -2.995638251304626465e-01 1.604419760406017303e-02 -8.505588769912719727e-02 -6.304383277893066406e-02
8.182000000000000000e+03 7.875741004943847656e+00 -1.139804959297180176e+00 -1.838889718055725098e-01 1.660371082834899426e-03 -5.466857925057411194e-02 -5.956976860761642456e-02
8.183000000000000000e+03 7.065812587738037109e+00 -1.139779567718505859e+00 -1.373994052410125732e-01 -1.100790780037641525e-02 -4.452219605445861816e-02 -5.454291030764579773e-02
8.184000000000000000e+03 6.255938053131103516e+00 -1.140618443489074707e+00 -1.026863306760787964e-01 -2.496183151379227638e-03 -3.155475482344627380e-02 -4.448069259524345398e-02
8.185000000000000000e+03 5.446311473846435547e+00 -1.143431305885314941e+00 -6.959598511457443237e-02 -1.115452684462070465e-02 -2.422515302896499634e-02 -3.800275921821594238e-02
8.186000000000000000e+03 4.636712551116943359e+00 -1.147582888603210449e+00 -4.646995663642883301e-02 -4.658672492951154709e-03 -1.533858943730592728e-02 -2.617636322975158691e-02
8.187000000000000000e+03 3.827266693115234375e+00 -1.150669336318969727e+00 -2.627939172089099884e-02 -9.946000762283802032e-03 -1.086761709302663803e-02 -1.934084668755531311e-02
8.188000000000000000e+03 3.019078254699707031e+00 -1.153304696083068848e+00 -1.295045018196105957e-02 -6.516855675727128983e-03 -5.840191617608070374e-03 -7.987787947058677673e-03
8.189000000000000000e+03 2.213702201843261719e+00 -1.156312346458435059e+00 -3.457624930888414383e-03 -5.959202069789171219e-03 -2.825048053637146950e-03 1.555449998704716563e-04
8.190000000000000000e+03 1.420517802238464355e+00 -1.151062846183776855e+00 -2.301051048561930656e-03 2.736751594056840986e-05 -6.821050192229449749e-04 5.764936096966266632e-03
8.191000000000000000e+03 1.764955043792724609e+00 -4.110628962516784668e-01 1.106180623173713684e-02 -2.089468180201947689e-04 3.255857853218913078e-03 2.425779122859239578e-03
8.192000000000000000e+03 1.067432165145874023e+00 -3.864558041095733643e-01 5.274085793644189835e-03 -1.099557732231914997e-03 1.252358430065214634e-03 2.973660826683044434e-03
8.193000000000000000e+03 1.107046413421630859e+01 -5.791122317314147949e-01 -3.828936815261840820e-01 -1.002416014671325684e-03 -1.151688322424888611e-01 8.859687484800815582e-03
8.194000000000000000e+03 1.172848224639892578e+01 -1.444193720817565918e+00 -6.093894839286804199e-01 -4.888329654932022095e-03 -1.842833459377288818e-01 -1.227177232503890991e-01
8.195000000000000000e+03 1.026795482635498047e+01 -1.192459702491760254e+00 -3.755292594432830811e-01 7.206900510936975479e-03 -1.104967072606086731e-01 -7.258421927690505981e-02
8.196000000000000000e+03 1.245870399475097656e+01 -1.572161674499511719e+00 -7.513838410377502441e-01 -6.675015203654766083e-03 -2.274176478385925293e-01 -1.725240647792816162e-01
8.197000000000000000e+03 1.254237651824951172e+01 -8.356313705444335938e-01 -7.181129455566406250e-01 -1.173816062510013580e-02 -2.189553231000900269e-01 3.898941911756992340e-03
8.198000000000000000e+03 1.180643558502197266e+01 -7.066720724105834961e-01 -5.194603204727172852e-01 1.235537813045084476e-03 -1.554674357175827026e-01 1.253075897693634033e-02
8.199000000000000000e+03 1.099823093414306641e+01 -1.317625284194946289e+00 -4.783611893653869629e-01 2.083850465714931488e-02 -1.372568011283874512e-01 -9.284936636686325073e-02
8.200000000000000000e+03 1.033446884155273438e+01 -4.529553353786468506e-01 -2.781755924224853516e-01 9.701457805931568146e-03 -8.054223656654357910e-02 -7.821418112143874168e-04
8.201000000000000000e+03 1.412816143035888672e+01 -9.967193007469177246e-01 -1.200383901596069336e+00 -1.768424175679683685e-02 -3.654204308986663818e-01 -9.156583249568939209e-02
8.202000000000000000e+03 1.524391746520996094e+01 -1.466321945190429688e+00 -1.691538810729980469e+00 -2.682071924209594727e-01 -5.879238247871398926e-01 -6.101465225219726562e-01
8.203000000000000000e+03 1.616965675354003906e+01 -1.725686669349670410e+00 -1.616150856018066406e+00 -6.212126612663269043e-01 -6.712090373039245605e-01 -7.204962968826293945e-01
8.204000000000000000e+03 1.574865627288818359e+01 -1.673639893531799316e+00 -1.536760568618774414e+00 -5.978450775146484375e-01 -6.403816938400268555e-01 -6.446436047554016113e-01
8.205000000000000000e+03 1.561703586578369141e+01 -9.138993620872497559e-01 -2.491396427154541016e+00 -2.687727212905883789e-01 -8.280507326126098633e-01 -3.344197273254394531e-01
8.206000000000000000e+03 1.330834674835205078e+01 -9.333403110504150391e-01 -9.461518526077270508e-01 -2.762615121901035309e-02 -2.921334207057952881e-01 -4.021869227290153503e-02
8.207000000000000000e+03 1.325672912597656250e+01 -1.671557903289794922e+00 -9.289303421974182129e-01 -6.716346740722656250e-02 -2.988281548023223877e-01 -2.295893728733062744e-01
8.208000000000000000e+03 1.414637279510498047e+01 -1.739302992820739746e+00 -1.181604146957397461e+00 -5.611565336585044861e-02 -3.713159263134002686e-01 -3.188976049423217773e-01
8.209000000000000000e+03 1.646326637268066406e+01 -1.909508228302001953e+00 -1.544153571128845215e+00 -7.841802835464477539e-01 -6.985001564025878906e-01 -7.308396697044372559e-01
8.210000000000000000e+03 1.419766807556152344e+01 -2.838388085365295410e-01 -5.540116786956787109e+00 2.077088803052902222e-01 -1.599722266197204590e+00 1.001576662063598633e+00
8.211000000000000000e+03 1.352537155151367188e+01 5.852731466293334961e-01 -4.029309451580047607e-01 -2.254815958440303802e-02 -1.276437342166900635e-01 8.913990855216979980e-01
8.212000000000000000e+03 1.342303657531738281e+01 -1.497735083103179932e-01 -4.118106365203857422e+00 -1.818266361951828003e-01 -1.289979815483093262e+00 1.014762401580810547e+00
8.213000000000000000e+03 1.515072631835937500e+01 6.366986036300659180e-01 4.844252586364746094e+00 1.262876510620117188e+00 1.832138776779174805e+00 -1.361496686935424805e+00
8.214000000000000000e+03 1.436956024169921875e+01 6.066150665283203125e-01 1.704553961753845215e+00 1.450158596038818359e+00 9.464137554168701172e-01 -4.874675869941711426e-01
8.215000000000000000e+03 2.157444953918457031e+01 4.003563880920410156e+00 -1.874080896377563477e+00 -1.132497310638427734e+00 -9.019734263420104980e-01 -1.500108361244201660e+00
8.216000000000000000e+03 2.389948272705078125e+01 5.596093177795410156e+00 -4.433600425720214844e+00 -2.142980813980102539e+00 -1.972974300384521484e+00 -3.012756347656250000e+00
8.217000000000000000e+03 2.412474632263183594e+01 4.887040615081787109e+00 1.301026582717895508e+00 -6.130807474255561829e-02 3.719155490398406982e-01 5.377016663551330566e-01
8.218000000000000000e+03 1.590177440643310547e+01 -5.061372518539428711e-01 -4.037750720977783203e+00 -2.168992161750793457e-01 -1.276394963264465332e+00 -1.213836193084716797e+00
8.219000000000000000e+03 1.952704048156738281e+01 2.294429063796997070e+00 -2.034706324338912964e-01 -8.204473853111267090e-01 -3.071753978729248047e-01 -7.392311096191406250e-01
8.220000000000000000e+03 2.090116500854492188e+01 2.502764463424682617e+00 -2.637363672256469727e-01 -2.470598816871643066e-01 -1.532388776540756226e-01 -2.847670018672943115e-01
8.221000000000000000e+03 2.118369483947753906e+01 2.726105928421020508e+00 2.079028338193893433e-01 -1.053691953420639038e-01 3.076009079813957214e-02 -8.167362213134765625e-02
8.222000000000000000e+03 2.619468307495117188e+01 6.949645519256591797e+00 -2.807338237762451172e+00 -1.681123971939086914e+00 -1.346538662910461426e+00 -2.110312223434448242e+00
8.223000000000000000e+03 2.673808860778808594e+01 7.608308792114257812e+00 -4.021015644073486328e+00 -2.474329233169555664e+00 -1.948603391647338867e+00 -3.122742652893066406e+00
8.224000000000000000e+03 2.781131172180175781e+01 8.301882743835449219e+00 -2.950757503509521484e+00 -1.248291492462158203e+00 -1.259714722633361816e+00 -1.919460058212280273e+00
8.225000000000000000e+03 2.843750381469726562e+01 8.249814033508300781e+00 -1.870453000068664551e+00 2.034668922424316406e-01 -5.000958442687988281e-01 -6.573726534843444824e-01
8.226000000000000000e+03 2.872324943542480469e+01 8.505600929260253906e+00 -2.059060335159301758e+00 -7.782202959060668945e-01 -8.511841893196105957e-01 -7.624574899673461914e-01
8.227000000000000000e+03 2.901180076599121094e+01 8.513568878173828125e+00 -1.718311548233032227e+00 -5.599719882011413574e-01 -6.834850907325744629e-01 -5.030011534690856934e-01
8.228000000000000000e+03 2.951800727844238281e+01 8.114252090454101562e+00 -6.430482864379882812e-01 -9.274966716766357422e-01 -4.711634814739227295e-01 -3.942112624645233154e-01
8.229000000000000000e+03 2.974779701232910156e+01 7.457363605499267578e+00 -3.164659440517425537e-01 -1.315962910652160645e+00 -4.897286593914031982e-01 -9.709582328796386719e-01
8.230000000000000000e+03 2.969834518432617188e+01 6.596699714660644531e+00 -1.203460097312927246e+00 -9.392227530479431152e-01 -6.428048610687255859e-01 -1.222347736358642578e+00
8.231000000000000000e+03 2.914324760437011719e+01 6.185403347015380859e+00 -1.676547646522521973e+00 -1.131737947463989258e+00 -8.424856662750244141e-01 -1.098218560218811035e+00
8.232000000000000000e+03 2.731749725341796875e+01 6.180770397186279297e+00 -2.592651367187500000e+00 -1.081645131111145020e+00 -1.102288961410522461e+00 -1.662316441535949707e+00
8.233000000000000000e+03 2.667770767211914062e+01 5.437873363494873047e+00 -2.407622575759887695e+00 -9.701511859893798828e-01 -1.013332128524780273e+00 -1.496746420860290527e+00
8.234000000000000000e+03 2.510387229919433594e+01 4.538621902465820312e+00 -2.563572883605957031e+00 -9.246693849563598633e-01 -1.046472668647766113e+00 -1.537506699562072754e+00
8.235000000000000000e+03 2.605690193176269531e+01 5.097530364990234375e+00 -2.450871706008911133e+00 -9.325698018074035645e-01 -1.015032410621643066e+00 -1.497960686683654785e+00
8.236000000000000000e+03 2.561135482788085938e+01 5.157556533813476562e+00 -2.524734973907470703e+00 -9.648584723472595215e-01 -1.046877980232238770e+00 -1.573602199554443359e+00
8.237000000000000000e+03 2.728079605102539062e+01 4.737926959991455078e+00 -1.994657993316650391e+00 -9.539860486984252930e-01 -8.845932483673095703e-01 -1.209743618965148926e+00
8.238000000000000000e+03 2.848536109924316406e+01 5.469244956970214844e+00 -1.747488021850585938e+00 -1.177325487136840820e+00 -8.774440288543701172e-01 -1.092311263084411621e+00
8.239000000000000000e+03 2.787462043762207031e+01 6.200993061065673828e+00 -2.394016742706298828e+00 -1.356174945831298828e+00 -1.125057458877563477e+00 -1.714110851287841797e+00
8.240000000000000000e+03 2.660818672180175781e+01 6.537590503692626953e+00 1.533677935600280762e+00 3.590084016323089600e-01 5.678058862686157227e-01 7.906097173690795898e-01
8.241000000000000000e+03 2.734742164611816406e+01 6.542398452758789062e+00 4.246586322784423828e+00 1.560668468475341797e+00 1.742176413536071777e+00 2.596770763397216797e+00
8.242000000000000000e+03 2.703376388549804688e+01 6.653264045715332031e+00 2.251457452774047852e+00 9.395477175712585449e-01 9.573015570640563965e-01 1.433939933776855469e+00
8.243000000000000000e+03 2.627173042297363281e+01 4.064880847930908203e+00 -2.118891477584838867e+00 -7.649090290069580078e-01 -8.651401400566101074e-01 -1.159922480583190918e+00
8.244000000000000000e+03 2.386675453186035156e+01 2.603332996368408203e+00 -2.483374357223510742e+00 -6.160798668861389160e-01 -9.298362731933593750e-01 -1.247712969779968262e+00
8.245000000000000000e+03 2.220455932617187500e+01 3.039056539535522461e+00 -3.324982643127441406e+00 -1.223608255386352539e+00 -1.364577293395996094e+00 -2.053823947906494141e+00
8.246000000000000000e+03 2.217053604125976562e+01 1.547746300697326660e+00 -2.380265712738037109e+00 -6.457657814025878906e-01 -9.078094959259033203e-01 -1.540867447853088379e+00
8.247000000000000000e+03 2.025352096557617188e+01 4.149144887924194336e-01 -1.695254206657409668e+00 -1.942505240440368652e+00 -1.091327905654907227e+00 -2.269110441207885742e+00
8.248000000000000000e+03 1.814858818054199219e+01 4.918190240859985352e-01 -1.242608428001403809e+00 -4.692186117172241211e-01 -5.135480761528015137e-01 -7.561104893684387207e-01
8.249000000000000000e+03 1.820799827575683594e+01 -8.796090483665466309e-01 -2.045531034469604492e+00 -9.381044507026672363e-01 -8.950906395912170410e-01 -1.165455102920532227e+00
8.250000000000000000e+03 2.170348358154296875e+01 2.723834276199340820e+00 -3.412459135055541992e+00 -1.331634283065795898e+00 -1.423228025436401367e+00 -2.095203161239624023e+00
8.251000000000000000e+03 2.102823257446289062e+01 2.260757684707641602e+00 -3.283133029937744141e+00 -1.336010813713073730e+00 -1.385743141174316406e+00 -2.094439983367919922e+00
8.252000000000000000e+03 1.607972335815429688e+01 -8.520542383193969727e-01 -2.970653295516967773e+00 -7.967534065246582031e-01 -1.130221962928771973e+00 -9.260526895523071289e-01
8.253000000000000000e+03 1.663420677185058594e+01 -1.785859823226928711e+00 -1.643654108047485352e+00 -6.935775876045227051e-01 -7.011694908142089844e-01 -7.008794546127319336e-01
8.254000000000000000e+03 1.890606498718261719e+01 -4.218147695064544678e-01 -2.203980684280395508e+00 -1.415237784385681152e+00 -1.085765600204467773e+00 -1.308883905410766602e+00
8.255000000000000000e+03 2.062004280090332031e+01 6.062549352645874023e-01 -1.383522987365722656e+00 -1.387551784515380859e+00 -8.313224911689758301e-01 -2.002350330352783203e+00
8.256000000000000000e+03 2.088251113891601562e+01 1.380865573883056641e+00 -2.201620340347290039e+00 -1.454641103744506836e+00 -1.096878409385681152e+00 -2.071597337722778320e+00
8.257000000000000000e+03 2.300205802917480469e+01 2.110841751098632812e+00 -2.494178533554077148e+00 -5.856417417526245117e-01 -9.239460825920104980e-01 -1.360263109207153320e+00
8.258000000000000000e+03 2.438932991027832031e+01 2.960635662078857422e+00 -2.405299186706542969e+00 -5.992240309715270996e-01 -9.013569355010986328e-01 -1.192504048347473145e+00
8.259000000000000000e+03 2.521880340576171875e+01 3.450610637664794922e+00 -2.305926561355590820e+00 -6.708319783210754395e-01 -8.930276036262512207e-01 -1.170239090919494629e+00
8.260000000000000000e+03 2.289822006225585938e+01 3.422800064086914062e+00 -3.147013902664184570e+00 -1.152455687522888184e+00 -1.289840936660766602e+00 -1.911444067955017090e+00
8.261000000000000000e+03 2.307255363464355469e+01 3.524418592453002930e+00 -3.102715969085693359e+00 -1.152261853218078613e+00 -1.276493310928344727e+00 -1.879316687583923340e+00
8.262000000000000000e+03 2.407131767272949219e+01 4.178638458251953125e+00 -2.824943065643310547e+00 -1.059991240501403809e+00 -1.165480256080627441e+00 -1.726586103439331055e+00
8.263000000000000000e+03 1.780109024047851562e+01 1.569384574890136719e+00 2.249910831451416016e+00 5.421714186668395996e-01 8.376247286796569824e-01 1.082178592681884766e+00
8.264000000000000000e+03 2.510248374938964844e+01 4.799768447875976562e+00 -2.606230735778808594e+00 -9.849689602851867676e-01 -1.077359914779663086e+00 -1.589488148689270020e+00
8.265000000000000000e+03 2.383655929565429688e+01 3.735404729843139648e+00 -2.823497772216796875e+00 -9.597596526145935059e-01 -1.134977221488952637e+00 -1.656288504600524902e+00
8.266000000000000000e+03 2.356903648376464844e+01 3.872204303741455078e+00 -2.947945594787597656e+00 -1.096937298774719238e+00 -1.213464856147766113e+00 -1.803141474723815918e+00
8.267000000000000000e+03 2.272424316406250000e+01 3.322763919830322266e+00 -3.206168413162231445e+00 -1.184385895729064941e+00 -1.317166328430175781e+00 -1.937654376029968262e+00
8.268000000000000000e+03 2.186722183227539062e+01 2.835867881774902344e+00 -3.379707813262939453e+00 -1.264438867568969727e+00 -1.393244028091430664e+00 -2.111728191375732422e+00
8.269000000000000000e+03 1.797665786743164062e+01 3.892868459224700928e-01 -1.268668174743652344e+00 -4.669095575809478760e-01 -5.206733345985412598e-01 -7.604975104331970215e-01
8.270000000000000000e+03 1.780901718139648438e+01 2.828388810157775879e-01 -1.312625646591186523e+00 -4.691145718097686768e-01 -5.345220565795898438e-01 -7.829503417015075684e-01
8.271000000000000000e+03 1.786056327819824219e+01 -7.438153028488159180e-01 -1.976934075355529785e+00 -6.943065524101257324e-01 -8.013721704483032227e-01 -1.040516495704650879e+00
8.272000000000000000e+03 1.490975666046142578e+01 -9.672126770019531250e-01 -1.520232081413269043e+00 6.836105138063430786e-02 -4.355612993240356445e-01 -7.571917027235031128e-02
8.273000000000000000e+03 1.553082847595214844e+01 -5.301201939582824707e-01 -6.004332542419433594e+00 4.426157772541046143e-01 -1.668514966964721680e+00 -9.586025029420852661e-02
8.274000000000000000e+03 2.761780357360839844e+01 7.930091857910156250e+00 -2.380397558212280273e+00 -7.860782742500305176e-01 -9.499427676200866699e-01 -1.649941802024841309e+00
8.275000000000000000e+03 2.491459465026855469e+01 6.318172931671142578e+00 -4.141398906707763672e+00 -2.406097650527954102e+00 -1.964249014854431152e+00 -3.227619171142578125e+00
8.276000000000000000e+03 2.509618377685546875e+01 5.497509956359863281e+00 1.882247686386108398e+00 7.191425561904907227e-01 7.804170846939086914e-01 8.920065164566040039e-01
8.277000000000000000e+03 2.355752754211425781e+01 5.373759746551513672e+00 -4.392009735107421875e+00 -1.944014906883239746e+00 -1.900807380676269531e+00 -2.861278295516967773e+00
8.278000000000000000e+03 2.223781585693359375e+01 4.491950511932373047e+00 -2.593306303024291992e+00 -1.316349625587463379e+00 -1.172896862030029297e+00 -1.863159656524658203e+00
8.279000000000000000e+03 2.086944961547851562e+01 3.572295188903808594e+00 -1.456286072731018066e+00 -8.731122016906738281e-01 -6.988195180892944336e-01 -1.190830945968627930e+00
8.280000000000000000e+03 2.071192550659179688e+01 3.059936761856079102e+00 -4.199998080730438232e-01 -8.748759031295776367e-01 -3.884627223014831543e-01 -8.633679747581481934e-01
8.281000000000000000e+03 2.016724014282226562e+01 3.137828350067138672e+00 -7.934157252311706543e-01 -6.225310564041137695e-01 -4.247840344905853271e-01 -7.623921036720275879e-01
8.282000000000000000e+03 2.013880538940429688e+01 2.411051511764526367e+00 -4.963586330413818359e-01 -8.655518293380737305e-01 -4.085731506347656250e-01 -8.595628142356872559e-01
8.283000000000000000e+03 1.905813980102539062e+01 1.327856063842773438e+00 -3.371144056320190430e+00 -1.225312471389770508e+00 -1.378936886787414551e+00 -1.967036008834838867e+00
8.284000000000000000e+03 1.744436645507812500e+01 1.317501544952392578e+00 2.694338560104370117e+00 5.885756015777587891e-01 9.848742485046386719e-01 1.146626472473144531e+00
8.285000000000000000e+03 1.628603553771972656e+01 8.226152062416076660e-01 4.517075538635253906e+00 3.323490023612976074e-01 1.454827427864074707e+00 1.353971242904663086e+00
8.286000000000000000e+03 1.592049598693847656e+01 7.100230455398559570e-01 4.996258258819580078e+00 6.521275043487548828e-01 1.694515705108642578e+00 7.965812683105468750e-01
8.287000000000000000e+03 1.661206626892089844e+01 8.281219750642776489e-03 -4.993095397949218750e+00 -1.104794263839721680e+00 -1.829366922378540039e+00 -2.689425945281982422e+00
8.288000000000000000e+03 1.869659805297851562e+01 1.178386449813842773e+00 -3.548705101013183594e+00 -1.540617465972900391e+00 -1.526796698570251465e+00 -2.251532793045043945e+00
8.289000000000000000e+03 1.813349723815917969e+01 1.811456799507141113e+00 1.838280200958251953e+00 4.052074253559112549e-01 6.730462908744812012e-01 9.049127697944641113e-01
8.290000000000000000e+03 1.867108726501464844e+01 1.794123888015747070e+00 2.265373170375823975e-01 -6.183518171310424805e-01 -1.175443530082702637e-01 -4.227364063262939453e-01
8.291000000000000000e+03 2.021986579895019531e+01 2.136486768722534180e+00 -1.043510317802429199e+00 -6.606591939926147461e-01 -5.112508535385131836e-01 -8.215638995170593262e-01
8.292000000000000000e+03 2.072131156921386719e+01 2.411337137222290039e+00 -4.291647970676422119e-01 -2.913866937160491943e-01 -2.161654531955718994e-01 -3.829356133937835693e-01
8.293000000000000000e+03 2.134403800964355469e+01 2.867102384567260742e+00 4.497894048690795898e-01 -8.548471331596374512e-02 1.092914119362831116e-01 1.882403716444969177e-02
8.294000000000000000e+03 2.052456855773925781e+01 3.346909999847412109e+00 -1.190978169441223145e+00 -8.144750595092773438e-01 -6.016359925270080566e-01 -9.898766279220581055e-01
8.295000000000000000e+03 2.190268898010253906e+01 3.133645534515380859e+00 1.014419555664062500e+00 2.438632100820541382e-01 3.774848282337188721e-01 4.332588911056518555e-01
8.296000000000000000e+03 2.170759963989257812e+01 3.228340387344360352e+00 6.364163756370544434e-01 -2.990251183509826660e-01 1.012173816561698914e-01 1.252737455070018768e-02
8.297000000000000000e+03 2.218294525146484375e+01 3.758147478103637695e+00 1.055205315351486206e-01 -4.995672404766082764e-01 -1.182140111923217773e-01 -4.026952683925628662e-01
8.298000000000000000e+03 2.309049415588378906e+01 3.885665655136108398e+00 2.183303833007812500e+00 6.844875812530517578e-01 8.603374361991882324e-01 1.135871052742004395e+00
8.299000000000000000e+03 2.343356513977050781e+01 4.924833297729492188e+00 -1.691686987876892090e+00 -1.265124917030334473e+00 -8.870435953140258789e-01 -1.541921973228454590e+00
8.300000000000000000e+03 2.389833259582519531e+01 4.438695907592773438e+00 3.193503618240356445e+00 9.111486673355102539e-01 1.231395721435546875e+00 1.669245600700378418e+00
8.301000000000000000e+03 2.493483924865722656e+01 5.057234764099121094e+00 3.738243579864501953e+00 1.234608888626098633e+00 1.491855740547180176e+00 2.241569995880126953e+00
8.302000000000000000e+03 2.634406471252441406e+01 5.882075309753417969e+00 4.288739204406738281e+00 1.459720015525817871e+00 1.724537730216979980e+00 2.569808006286621094e+00
8.303000000000000000e+03 2.651717948913574219e+01 6.223111629486083984e+00 3.309847116470336914e+00 1.036768555641174316e+00 1.303984642028808594e+00 1.934543371200561523e+00
8.304000000000000000e+03 2.752372932434082031e+01 6.642493247985839844e+00 4.251198768615722656e+00 1.594852685928344727e+00 1.753815412521362305e+00 2.611884832382202148e+00
8.305000000000000000e+03 2.770738792419433594e+01 6.731254100799560547e+00 4.340591907501220703e+00 1.621443748474121094e+00 1.788610696792602539e+00 2.585658550262451172e+00
8.306000000000000000e+03 2.837801170349121094e+01 8.509162902832031250e+00 -2.533216238021850586e+00 -3.592063486576080322e-01 -8.677268028259277344e-01 -1.260922551155090332e+00
8.307000000000000000e+03 2.877238655090332031e+01 8.255836486816406250e+00 -1.195070624351501465e+00 -1.447789520025253296e-01 -4.019548594951629639e-01 -1.937176585197448730e-01
8.308000000000000000e+03 2.819168090820312500e+01 8.265731811523437500e+00 -2.430465936660766602e+00 -2.889935672283172607e-01 -8.158378005027770996e-01 -1.200664997100830078e+00
8.309000000000000000e+03 2.762212753295898438e+01 6.936492919921875000e+00 2.868036746978759766e+00 1.073860168457031250e+00 1.182569026947021484e+00 1.708670377731323242e+00
8.310000000000000000e+03 2.782902908325195312e+01 6.540134429931640625e+00 -2.815506935119628906e+00 -1.268457889556884766e+00 -1.225189447402954102e+00 -1.876900434494018555e+00
8.311000000000000000e+03 2.816375541687011719e+01 6.255253791809082031e+00 -2.215742111206054688e+00 -1.579845666885375977e+00 -1.138676404953002930e+00 -1.684145808219909668e+00
8.312000000000000000e+03 2.855319404602050781e+01 6.142180919647216797e+00 -1.869246006011962891e+00 -1.548949003219604492e+00 -1.025458455085754395e+00 -1.312502622604370117e+00
8.313000000000000000e+03 2.994088172912597656e+01 7.355839729309082031e+00 -5.678064227104187012e-01 -1.220878839492797852e+00 -5.366055369377136230e-01 -1.069213986396789551e+00
8.314000000000000000e+03 2.965469932556152344e+01 6.280673980712890625e+00 -1.425315022468566895e+00 -8.671277165412902832e-01 -6.877328157424926758e-01 -1.111872434616088867e+00
8.315000000000000000e+03 2.813894844055175781e+01 5.262156963348388672e+00 -1.811735630035400391e+00 -1.152457952499389648e+00 -8.892580866813659668e-01 -1.166248083114624023e+00
8.316000000000000000e+03 2.796563339233398438e+01 5.154746055603027344e+00 -1.859401226043701172e+00 -1.116428852081298828e+00 -8.927490115165710449e-01 -1.185644626617431641e+00
8.317000000000000000e+03 2.745028686523437500e+01 4.845677852630615234e+00 -1.958108782768249512e+00 -9.695944786071777344e-01 -8.783109784126281738e-01 -1.198720693588256836e+00
8.318000000000000000e+03 2.690469741821289062e+01 4.545875072479248047e+00 -2.056293010711669922e+00 -8.803917765617370605e-01 -8.810054659843444824e-01 -1.210706114768981934e+00
8.319000000000000000e+03 2.642532920837402344e+01 4.458956241607666016e+00 -2.184852838516235352e+00 -8.351996541023254395e-01 -9.060157537460327148e-01 -1.261303305625915527e+00
8.320000000000000000e+03 2.658790779113769531e+01 4.286829948425292969e+00 -2.101655483245849609e+00 -8.049126863479614258e-01 -8.719704151153564453e-01 -1.178098320960998535e+00
8.321000000000000000e+03 2.574311637878417969e+01 3.786098003387451172e+00 -2.226560831069946289e+00 -6.934871077537536621e-01 -8.760144114494323730e-01 -1.169176936149597168e+00
8.322000000000000000e+03 2.541836547851562500e+01 3.930738449096679688e+00 -2.364006757736206055e+00 -7.414692640304565430e-01 -9.316427707672119141e-01 -1.282126307487487793e+00
8.323000000000000000e+03 2.420208168029785156e+01 2.860757350921630859e+00 -2.462841272354125977e+00 -6.408133506774902344e-01 -9.310964345932006836e-01 -1.237490773200988770e+00
8.324000000000000000e+03 2.345994377136230469e+01 2.607226133346557617e+00 -2.553695678710937500e+00 -6.505370736122131348e-01 -9.612698554992675781e-01 -1.363906025886535645e+00
8.325000000000000000e+03 2.318541145324707031e+01 2.221759319305419922e+00 -2.503487586975097656e+00 -6.227358579635620117e-01 -9.378670454025268555e-01 -1.311793088912963867e+00
8.326000000000000000e+03 2.254116249084472656e+01 2.054912328720092773e+00 -2.622307062149047852e+00 -7.272014021873474121e-01 -1.004852533340454102e+00 -1.516144037246704102e+00
8.327000000000000000e+03 2.216105842590332031e+01 1.763288617134094238e+00 -2.497106075286865234e+00 -7.087404727935791016e-01 -9.617539644241333008e-01 -1.597294211387634277e+00
8.328000000000000000e+03 2.199205207824707031e+01 1.458675265312194824e+00 -2.316998958587646484e+00 -6.408028602600097656e-01 -8.873405456542968750e-01 -1.652965784072875977e+00
8.329000000000000000e+03 2.183944702148437500e+01 1.690778493881225586e+00 -2.511117696762084961e+00 -8.465614318847656250e-01 -1.007303714752197266e+00 -1.706642746925354004e+00
8.330000000000000000e+03 2.182098770141601562e+01 1.338136911392211914e+00 -2.279761075973510742e+00 -7.143002152442932129e-01 -8.982183933258056641e-01 -1.667492985725402832e+00
8.331000000000000000e+03 2.131197357177734375e+01 1.024908065795898438e+00 -2.075765848159790039e+00 -7.289412617683410645e-01 -8.414121270179748535e-01 -2.029101848602294922e+00
8.332000000000000000e+03 2.114123344421386719e+01 9.171155691146850586e-01 -2.048779010772705078e+00 -1.085596203804016113e+00 -9.403126239776611328e-01 -2.082276821136474609e+00
8.333000000000000000e+03 2.067724800109863281e+01 9.409630894660949707e-01 -1.788239121437072754e+00 -1.241195201873779297e+00 -9.088302850723266602e-01 -2.024042129516601562e+00
8.334000000000000000e+03 2.001682472229003906e+01 1.637134432792663574e+00 -2.479226350784301758e+00 -1.173143863677978516e+00 -1.095711112022399902e+00 -1.648533105850219727e+00
8.335000000000000000e+03 2.044163322448730469e+01 5.099294185638427734e-01 -1.897333264350891113e+00 -1.716343402862548828e+00 -1.084102988243103027e+00 -2.119022607803344727e+00
8.336000000000000000e+03 1.973522758483886719e+01 4.402073472738265991e-02 -1.811718583106994629e+00 -2.157007932662963867e+00 -1.190618038177490234e+00 -1.665514349937438965e+00
8.337000000000000000e+03 2.007245063781738281e+01 2.987338006496429443e-01 -1.305054426193237305e+00 -2.196941137313842773e+00 -1.050598621368408203e+00 -2.002537012100219727e+00
8.338000000000000000e+03 1.928709983825683594e+01 -2.650651633739471436e-01 -2.261208772659301758e+00 -1.903106927871704102e+00 -1.249294638633728027e+00 -1.308078050613403320e+00
8.339000000000000000e+03 1.904242515563964844e+01 -6.172461062669754028e-02 -2.010922670364379883e+00 -1.528284549713134766e+00 -1.061762213706970215e+00 -1.260431051254272461e+00
8.340000000000000000e+03 1.837055206298828125e+01 -4.188842475414276123e-01 -1.884684681892395020e+00 -8.373680114746093750e-01 -8.166158199310302734e-01 -1.114982843399047852e+00
8.341000000000000000e+03 1.854799652099609375e+01 -6.623200178146362305e-01 -2.184410333633422852e+00 -1.063792943954467773e+00 -9.744610190391540527e-01 -1.245475530624389648e+00
8.342000000000000000e+03 1.837671661376953125e+01 -7.712314128875732422e-01 -1.959746360778808594e+00 -9.323608279228210449e-01 -8.676321506500244141e-01 -1.234807968139648438e+00
8.343000000000000000e+03 2.547790527343750000e+01 6.817430019378662109e+00 -4.972498416900634766e+00 -2.457036256790161133e+00 -2.228860378265380859e+00 -3.502154588699340820e+00
8.344000000000000000e+03 2.751976966857910156e+01 8.118475914001464844e+00 -3.237468719482421875e+00 -1.709144234657287598e+00 -1.483983874320983887e+00 -2.473381757736206055e+00
8.345000000000000000e+03 2.774594306945800781e+01 8.091825485229492188e+00 -2.539889097213745117e+00 -8.724863529205322266e-01 -1.023712635040283203e+00 -1.675120592117309570e+00
8.346000000000000000e+03 2.639754867553710938e+01 7.404555320739746094e+00 -4.406441211700439453e+00 -2.750510454177856445e+00 -2.147085428237915039e+00 -3.329677581787109375e+00
8.347000000000000000e+03 2.606106948852539062e+01 7.185231208801269531e+00 -4.917558193206787109e+00 -2.787787914276123047e+00 -2.311603784561157227e+00 -3.600513458251953125e+00
8.348000000000000000e+03 2.798363685607910156e+01 8.158415794372558594e+00 -2.542174577713012695e+00 -4.638681709766387939e-01 -9.018128514289855957e-01 -1.404217720031738281e+00
8.349000000000000000e+03 2.766287040710449219e+01 7.594291687011718750e+00 -7.627525925636291504e-01 -1.424528751522302628e-02 -2.330993562936782837e-01 -7.159956693649291992e-01
8.350000000000000000e+03 2.922995376586914062e+01 8.264119148254394531e+00 -1.032829046249389648e+00 -8.010641336441040039e-01 -5.501679778099060059e-01 -2.939127683639526367e-01
8.351000000000000000e+03 2.787303733825683594e+01 7.956303119659423828e+00 -2.087134838104248047e+00 -1.002157703042030334e-01 -6.562052369117736816e-01 -1.261125683784484863e+00
8.352000000000000000e+03 2.732738494873046875e+01 7.844492435455322266e+00 -2.796635389328002930e+00 -1.416625380516052246e+00 -1.263978242874145508e+00 -2.141957521438598633e+00
8.353000000000000000e+03 2.705543899536132812e+01 7.530703067779541016e+00 -2.307221651077270508e+00 -1.299972057342529297e+00 -1.082158088684082031e+00 -1.750640869140625000e+00
8.354000000000000000e+03 2.968653678894042969e+01 7.849141120910644531e+00 -4.586902260780334473e-01 -1.153132319450378418e+00 -4.835467338562011719e-01 -6.964464187622070312e-01
8.355000000000000000e+03 2.835629081726074219e+01 6.176811218261718750e+00 -2.050697565078735352e+00 -1.612986087799072266e+00 -1.099105119705200195e+00 -1.524629712104797363e+00
8.356000000000000000e+03 2.950033187866210938e+01 6.448091506958007812e+00 -1.513602733612060547e+00 -9.168918132781982422e-01 -7.291483879089355469e-01 -1.243690490722656250e+00
8.357000000000000000e+03 2.894675827026367188e+01 6.136587142944335938e+00 -1.730183005332946777e+00 -1.252343893051147461e+00 -8.947580456733703613e-01 -1.093032240867614746e+00
8.358000000000000000e+03 2.874980735778808594e+01 6.135490417480468750e+00 -1.825206041336059570e+00 -1.442890524864196777e+00 -9.804289937019348145e-01 -1.201464772224426270e+00
8.359000000000000000e+03 2.767642974853515625e+01 6.402858257293701172e+00 -2.686885595321655273e+00 -1.194208145141601562e+00 -1.164328098297119141e+00 -1.794009566307067871e+00
8.360000000000000000e+03 2.937743759155273438e+01 6.025830745697021484e+00 -1.563102841377258301e+00 -9.821841716766357422e-01 -7.635861039161682129e-01 -1.017982125282287598e+00
8.361000000000000000e+03 2.971186447143554688e+01 7.641345977783203125e+00 -1.574116200208663940e-01 -1.339254498481750488e+00 -4.489998519420623779e-01 -8.661533594131469727e-01
8.362000000000000000e+03 1.572074985504150391e+01 2.189624011516571045e-01 -5.527212619781494141e-01 1.486359238624572754e+00 2.800913751125335693e-01 -1.008914232254028320e+00
8.363000000000000000e+03 2.408654022216796875e+01 4.547325134277343750e+00 3.410350322723388672e+00 9.374601840972900391e-01 1.304343104362487793e+00 1.792749524116516113e+00
8.364000000000000000e+03 2.037843704223632812e+01 2.863221883773803711e+00 -4.345242381095886230e-01 -8.671443462371826172e-01 -3.905005753040313721e-01 -8.160177469253540039e-01
8.365000000000000000e+03 2.261888504028320312e+01 3.930613756179809570e+00 9.496517181396484375e-01 -1.644082516431808472e-01 2.355730533599853516e-01 1.475558131933212280e-01
8.366000000000000000e+03 2.189883041381835938e+01 4.254463672637939453e+00 -2.172636747360229492e+00 -1.183946490287780762e+00 -1.006974935531616211e+00 -1.667049646377563477e+00
8.367000000000000000e+03 1.715502357482910156e+01 2.484077364206314087e-01 -5.297203540802001953e+00 -1.776729941368103027e+00 -2.122179985046386719e+00 -3.376444101333618164e+00
8.368000000000000000e+03 1.699773979187011719e+01 1.264773458242416382e-01 -5.460212230682373047e+00 -1.576257824897766113e+00 -2.110940933227539062e+00 -3.109383106231689453e+00
8.369000000000000000e+03 1.885128974914550781e+01 2.235883474349975586e+00 8.970123529434204102e-01 -3.030629642307758331e-02 2.600118219852447510e-01 2.086956053972244263e-01
8.370000000000000000e+03 1.847843170166015625e+01 2.026584863662719727e+00 1.406068682670593262e+00 1.321771591901779175e-01 4.614737629890441895e-01 5.921726822853088379e-01
8.371000000000000000e+03 2.543092918395996094e+01 5.707922935485839844e+00 1.462767004966735840e+00 2.390675991773605347e-01 5.105503797531127930e-01 7.875046730041503906e-01
8.372000000000000000e+03 2.457446861267089844e+01 5.008879184722900391e+00 2.755452871322631836e+00 5.616051554679870605e-01 9.951174259185791016e-01 1.296252727508544922e+00
8.373000000000000000e+03 2.325514793395996094e+01 3.987225294113159180e+00 2.411826372146606445e+00 6.517127752304077148e-01 9.190617203712463379e-01 1.206716060638427734e+00
8.374000000000000000e+03 2.463901519775390625e+01 4.825169563293457031e+00 3.565529346466064453e+00 1.277234196662902832e+00 1.452829003334045410e+00 2.301903724670410156e+00
8.375000000000000000e+03 2.104832649230957031e+01 2.598700046539306641e+00 -4.979517683386802673e-02 -1.609296053647994995e-01 -6.321743875741958618e-02 -1.454119384288787842e-01
8.376000000000000000e+03 2.219436645507812500e+01 3.388534784317016602e+00 1.436137437820434570e+00 2.895749211311340332e-01 5.177137255668640137e-01 5.956159830093383789e-01
8.377000000000000000e+03 2.275546455383300781e+01 3.693754434585571289e+00 1.896995425224304199e+00 4.540098011493682861e-01 7.053015232086181641e-01 9.647569060325622559e-01
8.378000000000000000e+03 2.191262245178222656e+01 3.660018205642700195e+00 -9.334023296833038330e-02 -5.741238594055175781e-01 -2.002392411231994629e-01 -5.402741432189941406e-01
8.379000000000000000e+03 2.427522277832031250e+01 4.646494388580322266e+00 3.628662586212158203e+00 1.007949948310852051e+00 1.390983700752258301e+00 1.942065358161926270e+00
8.380000000000000000e+03 2.446111488342285156e+01 4.740173339843750000e+00 3.723179817199707031e+00 1.090899109840393066e+00 1.444223642349243164e+00 2.152021646499633789e+00
8.381000000000000000e+03 2.528694915771484375e+01 5.271379947662353516e+00 3.862352371215820312e+00 1.388567566871643066e+00 1.575276017189025879e+00 2.188115596771240234e+00
8.382000000000000000e+03 2.717264175415039062e+01 6.434658527374267578e+00 4.230356216430664062e+00 1.477632999420166016e+00 1.712396740913391113e+00 2.555721759796142578e+00
8.383000000000000000e+03 1.733164405822753906e+01 3.668887019157409668e-01 -5.361769676208496094e+00 -2.214250802993774414e+00 -2.272806167602539062e+00 -3.120822906494140625e+00
8.384000000000000000e+03 1.705279922485351562e+01 1.104628801345825195e+00 3.282530546188354492e+00 5.755510330200195312e-01 1.157424449920654297e+00 1.153926253318786621e+00
8.385000000000000000e+03 1.820470809936523438e+01 1.020192623138427734e+00 -2.728299617767333984e+00 -1.606064796447753906e+00 -1.300309300422668457e+00 -2.240401983261108398e+00
8.386000000000000000e+03 1.934757041931152344e+01 1.523654103279113770e+00 -2.561622381210327148e+00 -1.184480071067810059e+00 -1.123830795288085938e+00 -1.677622914314270020e+00
8.387000000000000000e+03 1.620856475830078125e+01 -2.564688026905059814e-01 -4.587935447692871094e+00 -1.124945044517517090e+00 -1.713864088058471680e+00 -2.089967966079711914e+00
8.388000000000000000e+03 1.637600135803222656e+01 -1.055432707071304321e-01 -4.838163852691650391e+00 -1.068213701248168945e+00 -1.771913290023803711e+00 -2.364718198776245117e+00
8.389000000000000000e+03 1.682551574707031250e+01 6.590063869953155518e-02 -5.210715293884277344e+00 -1.547607898712158203e+00 -2.027497053146362305e+00 -2.811738014221191406e+00
8.390000000000000000e+03 2.681288909912109375e+01 6.210831165313720703e+00 4.076673030853271484e+00 1.625151276588439941e+00 1.710547208786010742e+00 2.570048093795776367e+00
8.391000000000000000e+03 2.041065216064453125e+01 2.207756280899047852e+00 -8.344637751579284668e-01 -5.125877261161804199e-01 -4.041154384613037109e-01 -6.641387343406677246e-01
8.392000000000000000e+03 1.647114562988281250e+01 -6.173247694969177246e-01 -2.016627550125122070e+00 -5.789687037467956543e-01 -7.786788940429687500e-01 -1.046459913253784180e+00
8.393000000000000000e+03 2.714648437500000000e+01 6.079617023468017578e+00 -2.550239801406860352e+00 -1.046981215476989746e+00 -1.079166293144226074e+00 -1.636947154998779297e+00
8.394000000000000000e+03 2.610667991638183594e+01 3.989916086196899414e+00 -2.160960435867309570e+00 -7.386012673377990723e-01 -8.698685169219970703e-01 -1.179855227470397949e+00
8.395000000000000000e+03 1.833070755004882812e+01 5.895792841911315918e-01 -1.219384312629699707e+00 -5.069830417633056641e-01 -5.179102420806884766e-01 -7.538457512855529785e-01
8.396000000000000000e+03 2.237835693359375000e+01 3.131584405899047852e+00 -3.297130823135375977e+00 -1.243689656257629395e+00 -1.362246155738830566e+00 -2.000069856643676758e+00
8.397000000000000000e+03 1.764385032653808594e+01 1.744001954793930054e-01 -1.360997200012207031e+00 -4.811533689498901367e-01 -5.526451468467712402e-01 -7.968654036521911621e-01
8.398000000000000000e+03 1.916730690002441406e+01 1.125744342803955078e+00 -1.513633847236633301e+00 -7.641644477844238281e-01 -6.833394765853881836e-01 -1.090088486671447754e+00
8.399000000000000000e+03 2.649093246459960938e+01 5.643176078796386719e+00 -2.478945493698120117e+00 -9.872469902038574219e-01 -1.039857745170593262e+00 -1.551260948181152344e+00
8.400000000000000000e+03 2.631550598144531250e+01 5.527283191680908203e+00 -2.483548164367675781e+00 -9.733192324638366699e-01 -1.037060141563415527e+00 -1.544890642166137695e+00
8.401000000000000000e+03 2.612833976745605469e+01 5.438388347625732422e+00 -2.492362976074218750e+00 -9.634770154953002930e-01 -1.036751985549926758e+00 -1.547193646430969238e+00
8.402000000000000000e+03 2.492999267578125000e+01 4.705292224884033203e+00 -2.638123273849487305e+00 -9.792785644531250000e-01 -1.085220575332641602e+00 -1.621591687202453613e+00
8.403000000000000000e+03 2.546989440917968750e+01 4.657116889953613281e+00 -2.495842695236206055e+00 -9.083501696586608887e-01 -1.021257877349853516e+00 -1.491311550140380859e+00
8.404000000000000000e+03 2.545153236389160156e+01 5.036966800689697266e+00 -2.551982402801513672e+00 -9.870973825454711914e-01 -1.061723947525024414e+00 -1.568489551544189453e+00
8.405000000000000000e+03 2.459490013122558594e+01 4.509659290313720703e+00 -2.705933809280395508e+00 -1.005788445472717285e+00 -1.113516688346862793e+00 -1.665684342384338379e+00
8.406000000000000000e+03 2.469862174987792969e+01 4.145606040954589844e+00 -2.638003587722778320e+00 -9.073509573936462402e-01 -1.063606381416320801e+00 -1.527017116546630859e+00
8.407000000000000000e+03 2.373550224304199219e+01 3.974582195281982422e+00 -2.907305717468261719e+00 -1.085145235061645508e+00 -1.197735309600830078e+00 -1.773807168006896973e+00
8.408000000000000000e+03 2.424369049072265625e+01 4.286685943603515625e+00 -2.784486770629882812e+00 -1.027057886123657227e+00 -1.143463373184204102e+00 -1.702299952507019043e+00
8.409000000000000000e+03 2.339944267272949219e+01 3.365537881851196289e+00 -2.915078639984130859e+00 -9.663771986961364746e-01 -1.164436697959899902e+00 -1.672114133834838867e+00
8.410000000000000000e+03 1.737028121948242188e+01 -1.417335867881774902e+00 -1.844535470008850098e+00 -6.781936287879943848e-01 -7.568187117576599121e-01 -8.881319761276245117e-01
8.411000000000000000e+03 1.628935050964355469e+01 -7.278177142143249512e-01 -2.268514156341552734e+00 -6.225937008857727051e-01 -8.673323392868041992e-01 -1.084914565086364746e+00
8.412000000000000000e+03 1.664281463623046875e+01 -5.031195878982543945e-01 -1.848771095275878906e+00 -5.853012204170227051e-01 -7.302216887474060059e-01 -9.857466220855712891e-01
8.413000000000000000e+03 2.750169563293457031e+01 6.282786369323730469e+00 -2.636134624481201172e+00 -1.166222333908081055e+00 -1.140707135200500488e+00 -1.709626555442810059e+00
8.414000000000000000e+03 2.573222351074218750e+01 4.982469081878662109e+00 -2.494028329849243164e+00 -9.324762821197509766e-01 -1.027951359748840332e+00 -1.515837550163269043e+00
8.415000000000000000e+03 2.255205917358398438e+01 3.223788022994995117e+00 -3.240960597991943359e+00 -1.182078123092651367e+00 -1.326911568641662598e+00 -1.986849546432495117e+00
8.416000000000000000e+03 2.247628593444824219e+01 2.902311563491821289e+00 -3.133825778961181641e+00 -1.061733603477478027e+00 -1.258667826652526855e+00 -1.865029692649841309e+00
8.417000000000000000e+03 2.120512962341308594e+01 2.366119623184204102e+00 -3.327866077423095703e+00 -1.297260165214538574e+00 -1.387537837028503418e+00 -2.117444992065429688e+00
8.418000000000000000e+03 1.982842826843261719e+01 1.562138557434082031e+00 -2.339550256729125977e+00 -1.024235248565673828e+00 -1.009135723114013672e+00 -1.585690140724182129e+00
8.419000000000000000e+03 1.685240936279296875e+01 -8.052365779876708984e-01 -2.029394149780273438e+00 -5.137945413589477539e-01 -7.629566192626953125e-01 -9.082131981849670410e-01
8.420000000000000000e+03 2.866297340393066406e+01 5.560963630676269531e+00 -1.720435976982116699e+00 -1.198167204856872559e+00 -8.755809664726257324e-01 -1.054737687110900879e+00
8.421000000000000000e+03 2.709033966064453125e+01 4.650040626525878906e+00 -2.026563644409179688e+00 -9.036363959312438965e-01 -8.790599703788757324e-01 -1.210499525070190430e+00
8.422000000000000000e+03 1.701620674133300781e+01 -1.598754167556762695e+00 -1.690485477447509766e+00 -7.054691910743713379e-01 -7.187864184379577637e-01 -7.761981487274169922e-01
8.423000000000000000e+03 1.990662193298339844e+01 1.681541800498962402e-01 -1.774308562278747559e+00 -2.307629585266113281e+00 -1.224581480026245117e+00 -1.589197516441345215e+00
8.424000000000000000e+03 2.402393531799316406e+01 2.738673686981201172e+00 -2.469501018524169922e+00 -5.956253409385681152e-01 -9.195379018783569336e-01 -1.226144790649414062e+00
8.425000000000000000e+03 2.919072723388671875e+01 5.915001869201660156e+00 -1.628161787986755371e+00 -1.052441358566284180e+00 -8.041809201240539551e-01 -9.928885102272033691e-01
8.426000000000000000e+03 2.800765800476074219e+01 5.494798660278320312e+00 -1.941581010818481445e+00 -1.230511903762817383e+00 -9.516279101371765137e-01 -1.311191082000732422e+00
8.427000000000000000e+03 2.761833190917968750e+01 4.951700210571289062e+00 -1.927219748497009277e+00 -1.016718745231628418e+00 -8.831815719604492188e-01 -1.196876287460327148e+00
8.428000000000000000e+03 2.456723022460937500e+01 3.055789470672607422e+00 -2.404026031494140625e+00 -6.455042958259582520e-01 -9.148591160774230957e-01 -1.205860733985900879e+00
8.429000000000000000e+03 2.249617195129394531e+01 1.752540349960327148e+00 -2.428624629974365234e+00 -6.354068517684936523e-01 -9.192094206809997559e-01 -1.461704134941101074e+00
8.430000000000000000e+03 2.233315849304199219e+01 1.638239860534667969e+00 -2.376006841659545898e+00 -6.081382632255554199e-01 -8.952435255050659180e-01 -1.503007054328918457e+00
8.431000000000000000e+03 2.148179817199707031e+01 1.128484606742858887e+00 -2.176192998886108398e+00 -8.208163380622863770e-01 -8.991028070449829102e-01 -1.850757956504821777e+00
8.432000000000000000e+03 2.096979713439941406e+01 8.090916872024536133e-01 -1.929215073585510254e+00 -9.448202252388000488e-01 -8.622106313705444336e-01 -2.376975536346435547e+00
8.433000000000000000e+03 2.354416084289550781e+01 2.388252258300781250e+00 -2.509565830230712891e+00 -5.889499783515930176e-01 -9.295547604560852051e-01 -1.247173666954040527e+00
8.434000000000000000e+03 2.522423934936523438e+01 4.140122890472412109e+00 -2.461649417877197266e+00 -8.172609806060791016e-01 -9.836730957031250000e-01 -1.402445673942565918e+00
8.435000000000000000e+03 2.577788734436035156e+01 4.142484188079833984e+00 -2.296453952789306641e+00 -7.722494006156921387e-01 -9.206109642982482910e-01 -1.279184222221374512e+00
8.436000000000000000e+03 2.091345596313476562e+01 1.713690042495727539e+00 -2.528865575790405273e+00 -1.375483036041259766e+00 -1.171304583549499512e+00 -2.000239610671997070e+00
8.437000000000000000e+03 2.337233734130859375e+01 2.300741434097290039e+00 -2.449134349822998047e+00 -5.617066621780395508e-01 -9.032523036003112793e-01 -1.299839615821838379e+00
8.438000000000000000e+03 2.489199066162109375e+01 3.406341314315795898e+00 -2.372537136077880859e+00 -6.630294919013977051e-01 -9.106699824333190918e-01 -1.228567957878112793e+00
8.439000000000000000e+03 2.883820724487304688e+01 5.658454418182373047e+00 -1.661702871322631836e+00 -1.175943732261657715e+00 -8.512939810752868652e-01 -1.019993424415588379e+00
8.440000000000000000e+03 2.854191970825195312e+01 5.962574481964111328e+00 -1.842302918434143066e+00 -1.447699069976806641e+00 -9.870005846023559570e-01 -1.267411947250366211e+00
8.441000000000000000e+03 2.817785644531250000e+01 5.623554706573486328e+00 -1.899073123931884766e+00 -1.279106378555297852e+00 -9.534538388252258301e-01 -1.288482904434204102e+00
8.442000000000000000e+03 2.474594879150390625e+01 3.141265630722045898e+00 -2.344314098358154297e+00 -6.120302081108093262e-01 -8.869032859802246094e-01 -1.172347307205200195e+00
8.443000000000000000e+03 2.469014930725097656e+01 3.378220081329345703e+00 -2.471146583557128906e+00 -7.211644649505615234e-01 -9.576933383941650391e-01 -1.290189981460571289e+00
8.444000000000000000e+03 2.319405364990234375e+01 2.760295867919921875e+00 -2.771768569946289062e+00 -7.968947887420654297e-01 -1.070598959922790527e+00 -1.512846708297729492e+00
8.445000000000000000e+03 2.271275901794433594e+01 2.695827960968017578e+00 -2.925107002258300781e+00 -9.054579138755798340e-01 -1.149169445037841797e+00 -1.680033445358276367e+00
8.446000000000000000e+03 2.165103340148925781e+01 1.230265378952026367e+00 -2.169041395187377930e+00 -6.808452606201171875e-01 -8.549659848213195801e-01 -1.814137816429138184e+00
8.447000000000000000e+03 2.101836776733398438e+01 1.156368136405944824e+00 -2.082146167755126953e+00 -1.049206972122192383e+00 -9.394059181213378906e-01 -2.118191003799438477e+00
8.448000000000000000e+03 1.959152603149414062e+01 -8.714351803064346313e-02 -1.925194025039672852e+00 -2.170083045959472656e+00 -1.228583097457885742e+00 -1.312107563018798828e+00
8.449000000000000000e+03 1.910376167297363281e+01 -3.396536111831665039e-01 -2.093974828720092773e+00 -1.409403443336486816e+00 -1.051013469696044922e+00 -1.265278816223144531e+00
8.450000000000000000e+03 1.737996482849121094e+01 -1.082728028297424316e+00 -1.918630003929138184e+00 -5.932701826095581055e-01 -7.535700201988220215e-01 -9.118772149085998535e-01
8.451000000000000000e+03 1.665299797058105469e+01 -1.366106986999511719e+00 -1.768464922904968262e+00 -6.599887609481811523e-01 -7.285361289978027344e-01 -6.492626070976257324e-01
8.452000000000000000e+03 2.560299110412597656e+01 4.036937236785888672e+00 -2.352840900421142578e+00 -7.724288105964660645e-01 -9.375809431076049805e-01 -1.286129593849182129e+00
8.453000000000000000e+03 2.556997489929199219e+01 3.676821708679199219e+00 -2.262749433517456055e+00 -6.989894509315490723e-01 -8.885216712951660156e-01 -1.180502057075500488e+00
8.454000000000000000e+03 2.267225265502929688e+01 1.856473326683044434e+00 -2.424468040466308594e+00 -5.564863681793212891e-01 -8.942863345146179199e-01 -1.408505320549011230e+00
8.455000000000000000e+03 1.875694274902343750e+01 1.500918716192245483e-01 -1.833328962326049805e+00 -1.040376663208007812e+00 -8.621116876602172852e-01 -1.090268135070800781e+00
8.456000000000000000e+03 1.945619201660156250e+01 -1.930207461118698120e-01 -1.923556208610534668e+00 -1.858261227607727051e+00 -1.134545207023620605e+00 -1.395795345306396484e+00
8.457000000000000000e+03 2.010481643676757812e+01 1.357575654983520508e+00 -2.008002758026123047e+00 -1.590999364852905273e+00 -1.079700708389282227e+00 -1.882611870765686035e+00
8.458000000000000000e+03 1.841072654724121094e+01 5.619067698717117310e-02 -1.712975740432739258e+00 -7.990123629570007324e-01 -7.535964250564575195e-01 -9.911027550697326660e-01
8.459000000000000000e+03 2.293848037719726562e+01 3.778915882110595703e+00 1.967558622360229492e+00 5.290026068687438965e-01 7.489683628082275391e-01 1.116655111312866211e+00
8.460000000000000000e+03 2.319155120849609375e+01 4.172224521636962891e+00 1.598497867584228516e+00 1.932659298181533813e-01 5.375291109085083008e-01 6.373210549354553223e-01
8.461000000000000000e+03 2.230008888244628906e+01 2.838378667831420898e+00 -3.200634479522705078e+00 -1.147683024406433105e+00 -1.304495215415954590e+00 -1.901073694229125977e+00
8.462000000000000000e+03 2.168866348266601562e+01 2.394690036773681641e+00 -3.151277065277099609e+00 -1.192725658416748047e+00 -1.303200721740722656e+00 -1.951743364334106445e+00
8.463000000000000000e+03 1.698645019531250000e+01 5.031378865242004395e-01 -1.755541920661926270e+00 -5.476273894309997559e-01 -6.909508109092712402e-01 -1.211848020553588867e+00
8.464000000000000000e+03 1.666123962402343750e+01 9.482248425483703613e-01 4.002718448638916016e+00 4.657112360000610352e-01 1.340528845787048340e+00 1.186948180198669434e+00
8.465000000000000000e+03 1.766868972778320312e+01 5.414660573005676270e-01 -4.937353134155273438e+00 -2.101572513580322266e+00 -2.111677646636962891e+00 -3.209512710571289062e+00
8.466000000000000000e+03 2.321248054504394531e+01 5.169775009155273438e+00 -4.109208583831787109e+00 -1.706533789634704590e+00 -1.744722723960876465e+00 -2.645984172821044922e+00
8.467000000000000000e+03 2.459815216064453125e+01 6.050763130187988281e+00 -4.182773113250732422e+00 -2.407979488372802734e+00 -1.977225780487060547e+00 -3.063570737838745117e+00
8.468000000000000000e+03 2.424361228942871094e+01 5.820015430450439453e+00 -4.313069820404052734e+00 -2.257865428924560547e+00 -1.971280574798583984e+00 -3.071248769760131836e+00
8.469000000000000000e+03 2.288629722595214844e+01 4.957085609436035156e+00 -3.566897153854370117e+00 -1.541752219200134277e+00 -1.532594799995422363e+00 -2.404864311218261719e+00
8.470000000000000000e+03 2.257455825805664062e+01 4.721637248992919922e+00 -2.977420091629028320e+00 -1.424408674240112305e+00 -1.320548653602600098e+00 -2.112845182418823242e+00
8.471000000000000000e+03 1.947818183898925781e+01 2.024142265319824219e+00 -6.915008425712585449e-01 -9.746989011764526367e-01 -4.998599290847778320e-01 -9.866378307342529297e-01
8.472000000000000000e+03 1.982610702514648438e+01 2.928222179412841797e+00 -4.510010480880737305e-01 -4.724202156066894531e-01 -2.770263850688934326e-01 -4.662710130214691162e-01
8.473000000000000000e+03 2.083228874206542969e+01 2.681646585464477539e+00 -1.224190369248390198e-01 -5.131194591522216797e-01 -1.906615495681762695e-01 -4.393033683300018311e-01
8.474000000000000000e+03 1.949709129333496094e+01 2.715226173400878906e+00 -7.300917059183120728e-02 -2.550842761993408203e-01 -9.842803329229354858e-02 -2.470954060554504395e-01
8.475000000000000000e+03 1.919207572937011719e+01 2.472609281539916992e+00 4.106430411338806152e-01 -1.414343863725662231e-01 8.076259493827819824e-02 -1.081688050180673599e-02
8.476000000000000000e+03 2.121676445007324219e+01 3.790680646896362305e+00 -1.732586264610290527e+00 -1.062767386436462402e+00 -8.386061191558837891e-01 -1.303516387939453125e+00
8.477000000000000000e+03 2.519695091247558594e+01 6.583257198333740234e+00 -4.543809890747070312e+00 -2.384678125381469727e+00 -2.078546524047851562e+00 -3.374986648559570312e+00
8.478000000000000000e+03 1.563149452209472656e+01 6.393854022026062012e-01 5.610633373260498047e+00 1.049725174903869629e+00 1.998107552528381348e+00 -1.338341832160949707e-01
8.479000000000000000e+03 2.067097282409667969e+01 2.069600105285644531e+00 -3.104722976684570312e+00 -1.317073225975036621e+00 -1.326538920402526855e+00 -2.020965576171875000e+00
8.480000000000000000e+03 1.747878456115722656e+01 6.543330848217010498e-02 -1.417833685874938965e+00 -4.861122667789459229e-01 -5.711838006973266602e-01 -8.339256048202514648e-01
8.481000000000000000e+03 2.746684837341308594e+01 5.217572212219238281e+00 -2.058200597763061523e+00 -1.049256324768066406e+00 -9.322370290756225586e-01 -1.328588843345642090e+00
8.482000000000000000e+03 2.720285987854003906e+01 7.952029705047607422e+00 -3.670197010040283203e+00 -2.119996070861816406e+00 -1.737057924270629883e+00 -2.736180782318115234e+00
8.483000000000000000e+03 2.720083045959472656e+01 7.676205158233642578e+00 -2.551579952239990234e+00 -1.385981321334838867e+00 -1.181268453598022461e+00 -1.971217632293701172e+00
8.484000000000000000e+03 2.689942932128906250e+01 7.720446586608886719e+00 -3.869980335235595703e+00 -2.365286111831665039e+00 -1.870579957962036133e+00 -3.094601631164550781e+00
8.485000000000000000e+03 2.759079551696777344e+01 7.387093544006347656e+00 1.317003667354583740e-01 1.772861778736114502e-01 9.269596636295318604e-02 -9.409976005554199219e-02
8.486000000000000000e+03 2.735442161560058594e+01 8.031585693359375000e+00 -3.462826251983642578e+00 -1.660277724266052246e+00 -1.536931157112121582e+00 -2.582057476043701172e+00
8.487000000000000000e+03 2.757423591613769531e+01 7.161364555358886719e+00 1.383230805397033691e+00 6.496332287788391113e-01 6.098592281341552734e-01 7.502777576446533203e-01
8.488000000000000000e+03 1.913147354125976562e+01 1.708049178123474121e+00 -1.351309776306152344e+00 -1.096708059310913086e+00 -7.344053387641906738e-01 -1.312421321868896484e+00
8.489000000000000000e+03 1.783256149291992188e+01 6.709766387939453125e-01 -4.772161006927490234e+00 -2.003971338272094727e+00 -2.032839775085449219e+00 -3.015702009201049805e+00
8.490000000000000000e+03 2.203362846374511719e+01 3.262252807617187500e+00 1.194141507148742676e+00 2.319060862064361572e-01 4.278142750263214111e-01 5.485824942588806152e-01
8.491000000000000000e+03 2.494200134277343750e+01 5.372527599334716797e+00 1.817580342292785645e+00 4.595338106155395508e-01 6.831342577934265137e-01 1.111619591712951660e+00
8.492000000000000000e+03 2.355599021911621094e+01 4.197517395019531250e+00 2.806926727294921875e+00 8.224403858184814453e-01 1.088810086250305176e+00 1.500642180442810059e+00
8.493000000000000000e+03 1.835742568969726562e+01 9.198219180107116699e-01 -4.092432498931884766e+00 -1.600144267082214355e+00 -1.707773089408874512e+00 -2.652981042861938477e+00
8.494000000000000000e+03 1.981208992004394531e+01 1.908708810806274414e+00 -1.398213267326354980e+00 -8.175788521766662598e-01 -6.647376418113708496e-01 -1.180310368537902832e+00
8.495000000000000000e+03 1.889168930053710938e+01 1.260418415069580078e+00 -3.417419672012329102e+00 -1.334411144256591797e+00 -1.425549268722534180e+00 -2.125592708587646484e+00
8.496000000000000000e+03 2.579296684265136719e+01 5.605371475219726562e+00 3.993719577789306641e+00 1.479482769966125488e+00 1.641960740089416504e+00 2.353424549102783203e+00
8.497000000000000000e+03 2.328168487548828125e+01 4.355839252471923828e+00 1.162931323051452637e+00 -1.560978740453720093e-01 3.020500242710113525e-01 2.213213443756103516e-01
8.498000000000000000e+03 1.962993812561035156e+01 1.788683295249938965e+00 -1.798671483993530273e+00 -1.008600234985351562e+00 -8.421815037727355957e-01 -1.293046474456787109e+00
8.499000000000000000e+03 2.154427337646484375e+01 2.975977420806884766e+00 6.322783231735229492e-01 -6.115830689668655396e-02 1.713359951972961426e-01 1.309363991022109985e-01
8.500000000000000000e+03 2.562596130371093750e+01 5.488987922668457031e+00 3.924725532531738281e+00 1.345757126808166504e+00 1.581144809722900391e+00 2.412075757980346680e+00
8.501000000000000000e+03 2.240906715393066406e+01 3.824522256851196289e+00 6.719464063644409180e-01 -3.295930922031402588e-01 1.027059927582740784e-01 -6.231602653861045837e-02
8.502000000000000000e+03 1.945355224609375000e+01 1.662100911140441895e+00 -1.905916929244995117e+00 -1.025360226631164551e+00 -8.793831467628479004e-01 -1.548471808433532715e+00
8.503000000000000000e+03 2.344686126708984375e+01 4.526854038238525391e+00 8.552860021591186523e-01 -3.078551888465881348e-01 1.642292588949203491e-01 1.550964894704520702e-03
8.504000000000000000e+03 2.002790832519531250e+01 2.680840253829956055e+00 -3.122459650039672852e-01 -8.093907833099365234e-01 -3.364910185337066650e-01 -7.299294471740722656e-01
8.505000000000000000e+03 1.999521446228027344e+01 2.037484884262084961e+00 -1.233126759529113770e+00 -8.021282553672790527e-01 -6.105765104293823242e-01 -9.826690554618835449e-01
8.506000000000000000e+03 2.472340774536132812e+01 5.524893760681152344e+00 -5.204230546951293945e-01 -7.252433896064758301e-01 -3.736999332904815674e-01 -5.120058059692382812e-01
8.507000000000000000e+03 1.850706863403320312e+01 1.045880794525146484e+00 -3.724610090255737305e+00 -1.605078220367431641e+00 -1.598906517028808594e+00 -2.480737209320068359e+00
8.508000000000000000e+03 1.807388114929199219e+01 1.353222250938415527e+00 1.870020627975463867e-01 -7.821961045265197754e-01 -1.785582154989242554e-01 -5.981663465499877930e-01
8.509000000000000000e+03 2.476775360107421875e+01 5.282151699066162109e+00 1.513489603996276855e+00 2.509800791740417480e-01 5.293408632278442383e-01 8.131206035614013672e-01
8.510000000000000000e+03 1.802577590942382812e+01 7.688775658607482910e-01 -4.623374462127685547e+00 -1.828760027885437012e+00 -1.935640335083007812e+00 -2.911863803863525391e+00
8.511000000000000000e+03 1.751261901855468750e+01 4.459056854248046875e-01 -5.250939846038818359e+00 -1.647259950637817383e+00 -2.069459915161132812e+00 -3.310412168502807617e+00
8.512000000000000000e+03 1.748308944702148438e+01 7.161186337471008301e-01 -1.909858822822570801e+00 -8.989662528038024902e-01 -8.426475524902343750e-01 -1.765267968177795410e+00
8.513000000000000000e+03 2.175073432922363281e+01 3.445808649063110352e+00 9.485220909118652344e-02 -5.301535725593566895e-01 -1.305904239416122437e-01 -3.632465004920959473e-01
8.514000000000000000e+03 2.698365974426269531e+01 6.330865859985351562e+00 4.186724185943603516e+00 1.616997003555297852e+00 1.741116404533386230e+00 2.467430830001831055e+00
8.515000000000000000e+03 2.316289901733398438e+01 4.730809688568115234e+00 -1.446912050247192383e+00 -1.112564563751220703e+00 -7.678430080413818359e-01 -1.389143109321594238e+00
8.516000000000000000e+03 2.390306663513183594e+01 4.072781562805175781e+00 -2.863477230072021484e+00 -1.067713737487792969e+00 -1.179357290267944336e+00 -1.748964667320251465e+00
8.517000000000000000e+03 2.434104156494140625e+01 4.051373481750488281e+00 -2.722224235534667969e+00 -9.609057903289794922e-01 -1.104938983917236328e+00 -1.606400132179260254e+00
8.518000000000000000e+03 1.749348831176757812e+01 -2.773938775062561035e-01 -1.720607161521911621e+00 -5.085034966468811035e-01 -6.687331795692443848e-01 -9.100107550621032715e-01
8.519000000000000000e+03 1.681100463867187500e+01 -3.843196630477905273e-01 -1.713574886322021484e+00 -5.582039356231689453e-01 -6.815336346626281738e-01 -9.649902582168579102e-01
8.520000000000000000e+03 2.064845657348632812e+01 1.720833301544189453e+00 -2.638609170913696289e+00 -1.362726211547851562e+00 -1.200400710105895996e+00 -2.011300563812255859e+00
8.521000000000000000e+03 2.354714202880859375e+01 3.523911237716674805e+00 -2.898008108139038086e+00 -9.776284694671630859e-01 -1.162690997123718262e+00 -1.683544039726257324e+00
8.522000000000000000e+03 2.284470939636230469e+01 3.051742553710937500e+00 -3.037522554397583008e+00 -9.978967905044555664e-01 -1.210625767707824707e+00 -1.773590445518493652e+00
8.523000000000000000e+03 2.114830780029296875e+01 1.961969375610351562e+00 -2.826558351516723633e+00 -1.199979901313781738e+00 -1.207961440086364746e+00 -1.978012442588806152e+00
8.524000000000000000e+03 2.664954948425292969e+01 5.772653579711914062e+00 -2.481621265411376953e+00 -9.961987733840942383e-01 -1.043346047401428223e+00 -1.568869471549987793e+00
8.525000000000000000e+03 2.085013771057128906e+01 2.169435262680053711e+00 -3.203890085220336914e+00 -1.304614186286926270e+00 -1.352551341056823730e+00 -2.076354265213012695e+00
8.526000000000000000e+03 2.347192382812500000e+01 2.782396554946899414e+00 -2.700264930725097656e+00 -6.868532896041870117e-01 -1.016135454177856445e+00 -1.366159081459045410e+00
8.527000000000000000e+03 2.442706489562988281e+01 4.389493942260742188e+00 -2.746285915374755859e+00 -1.039316654205322266e+00 -1.135680794715881348e+00 -1.671558976173400879e+00
8.528000000000000000e+03 1.697849273681640625e+01 -2.681143581867218018e-01 -1.617368221282958984e+00 -5.366106033325195312e-01 -6.461936235427856445e-01 -9.247480630874633789e-01
8.529000000000000000e+03 1.953655624389648438e+01 1.334767699241638184e+00 -1.777283072471618652e+00 -9.694784879684448242e-01 -8.240284919738769531e-01 -1.301755666732788086e+00
8.530000000000000000e+03 1.868786430358886719e+01 5.500091910362243652e-01 -1.552186489105224609e+00 -7.071624398231506348e-01 -6.778047084808349609e-01 -9.628270864486694336e-01
8.531000000000000000e+03 1.882062339782714844e+01 9.368521571159362793e-01 -1.314600467681884766e+00 -6.139150261878967285e-01 -5.785546302795410156e-01 -8.676264286041259766e-01
8.532000000000000000e+03 2.038509559631347656e+01 1.609160423278808594e+00 -2.484413385391235352e+00 -1.439828515052795410e+00 -1.177272558212280273e+00 -1.962744474411010742e+00
8.533000000000000000e+03 2.033870124816894531e+01 1.899681448936462402e+00 -2.802408456802368164e+00 -1.183501720428466797e+00 -1.195773124694824219e+00 -1.903311967849731445e+00
8.534000000000000000e+03 1.850164413452148438e+01 7.063417434692382812e-01 -1.215943098068237305e+00 -5.185238718986511230e-01 -5.203400850296020508e-01 -7.911188602447509766e-01
8.535000000000000000e+03 2.476949882507324219e+01 4.374063491821289062e+00 -2.624202966690063477e+00 -9.378360509872436523e-01 -1.068611741065979004e+00 -1.567672491073608398e+00
8.536000000000000000e+03 2.643661117553710938e+01 5.221018314361572266e+00 -2.382792949676513672e+00 -9.542331695556640625e-01 -1.001107811927795410e+00 -1.474258542060852051e+00
8.537000000000000000e+03 1.714562606811523438e+01 -1.553380340337753296e-01 -1.545442104339599609e+00 -5.243592262268066406e-01 -6.209403872489929199e-01 -8.900685310363769531e-01
8.538000000000000000e+03 2.687044715881347656e+01 5.361169338226318359e+00 -2.295764207839965820e+00 -9.884578585624694824e-01 -9.852666258811950684e-01 -1.459817051887512207e+00
8.539000000000000000e+03 2.709128570556640625e+01 5.285356521606445312e+00 -2.226101160049438477e+00 -1.020760059356689453e+00 -9.740583300590515137e-01 -1.426276922225952148e+00
8.540000000000000000e+03 2.118954086303710938e+01 1.274497270584106445e+00 -2.201522350311279297e+00 -1.168930411338806152e+00 -1.011135816574096680e+00 -2.001300334930419922e+00
8.541000000000000000e+03 2.019433784484863281e+01 1.759514331817626953e+00 -2.570794820785522461e+00 -1.207438588142395020e+00 -1.133470058441162109e+00 -1.778371810913085938e+00
8.542000000000000000e+03 2.018190765380859375e+01 1.064736366271972656e+00 -1.841019153594970703e+00 -1.464750170707702637e+00 -9.917308092117309570e-01 -1.838581562042236328e+00
8.543000000000000000e+03 1.935871696472167969e+01 1.216935992240905762e+00 -1.659182310104370117e+00 -8.805226087570190430e-01 -7.619115114212036133e-01 -1.176691293716430664e+00
8.544000000000000000e+03 2.539921188354492188e+01 3.561335802078247070e+00 -2.267324447631835938e+00 -6.828265786170959473e-01 -8.850452899932861328e-01 -1.191712856292724609e+00
8.545000000000000000e+03 1.571566581726074219e+01 -1.323912382125854492e+00 -1.789107561111450195e+00 -5.190680027008056641e-01 -6.924526691436767578e-01 -6.395012140274047852e-01
8.546000000000000000e+03 2.263900375366210938e+01 2.504871845245361328e+00 -2.823819398880004883e+00 -8.657505512237548828e-01 -1.106871008872985840e+00 -1.616000056266784668e+00
8.547000000000000000e+03 2.800488471984863281e+01 5.848486900329589844e+00 -2.067538976669311523e+00 -1.352311730384826660e+00 -1.025955200195312500e+00 -1.476361989974975586e+00
8.548000000000000000e+03 1.719545364379882812e+01 -1.510667562484741211e+00 -1.867677688598632812e+00 -7.287487387657165527e-01 -7.789279222488403320e-01 -8.269716501235961914e-01
8.549000000000000000e+03 1.787138938903808594e+01 -1.097423791885375977e+00 -1.944121956825256348e+00 -8.160898089408874512e-01 -8.280635476112365723e-01 -1.087475657463073730e+00
8.550000000000000000e+03 2.079612731933593750e+01 7.050688266754150391e-01 -1.677178978919982910e+00 -1.953338027000427246e+00 -1.089155077934265137e+00 -2.328320026397705078e+00
8.551000000000000000e+03 2.169133377075195312e+01 1.558170557022094727e+00 -2.418330430984497070e+00 -8.357308506965637207e-01 -9.762184023857116699e-01 -1.810918211936950684e+00
8.552000000000000000e+03 2.729758262634277344e+01 5.097759246826171875e+00 -2.083730220794677734e+00 -1.013615608215332031e+00 -9.292037487030029297e-01 -1.322309494018554688e+00
8.553000000000000000e+03 2.415109443664550781e+01 3.541301012039184570e+00 -2.695704698562622070e+00 -8.196605443954467773e-01 -1.054609537124633789e+00 -1.481970548629760742e+00
8.554000000000000000e+03 2.448440170288085938e+01 3.341402530670166016e+00 -2.501559257507324219e+00 -6.890030503273010254e-01 -9.571686983108520508e-01 -1.307407975196838379e+00
8.555000000000000000e+03 1.683305740356445312e+01 -1.691916942596435547e+00 -1.833042979240417480e+00 -6.897708773612976074e-01 -7.568441629409790039e-01 -7.780274152755737305e-01
8.556000000000000000e+03 2.622740745544433594e+01 7.297908306121826172e+00 -4.616121768951416016e+00 -2.693379402160644531e+00 -2.192850351333618164e+00 -3.508271694183349609e+00
8.557000000000000000e+03 2.697657012939453125e+01 5.983730792999267578e+00 -2.526826858520507812e+00 -1.036879420280456543e+00 -1.069111943244934082e+00 -1.597909092903137207e+00
8.558000000000000000e+03 2.779113769531250000e+01 5.052097320556640625e+00 -1.884301900863647461e+00 -1.053032636642456055e+00 -8.812003731727600098e-01 -1.190315365791320801e+00
8.559000000000000000e+03 2.248469924926757812e+01 4.194937229156494141e+00 -7.112820148468017578e-01 -8.488356471061706543e-01 -4.680352807044982910e-01 -9.106571674346923828e-01
8.560000000000000000e+03 2.810100364685058594e+01 6.046474933624267578e+00 -2.126368045806884766e+00 -1.452421665191650391e+00 -1.073636889457702637e+00 -1.555975914001464844e+00
8.561000000000000000e+03 2.771772384643554688e+01 5.859869003295898438e+00 -2.218045711517333984e+00 -1.249818563461303711e+00 -1.040359258651733398e+00 -1.563499093055725098e+00
8.562000000000000000e+03 2.727552604675292969e+01 5.811677932739257812e+00 -2.377202987670898438e+00 -1.095303416252136230e+00 -1.041751980781555176e+00 -1.572166204452514648e+00
8.563000000000000000e+03 1.802574157714843750e+01 -6.289025545120239258e-01 -1.919553756713867188e+00 -6.855915188789367676e-01 -7.815435528755187988e-01 -1.094804286956787109e+00
8.564000000000000000e+03 2.210570907592773438e+01 2.492837190628051758e+00 -3.044379711151123047e+00 -1.045009374618530273e+00 -1.226816773414611816e+00 -1.845014572143554688e+00
8.565000000000000000e+03 2.677413558959960938e+01 6.737572669982910156e+00 8.725669980049133301e-01 2.098525017499923706e-01 3.247258365154266357e-01 4.933927059173583984e-01
8.566000000000000000e+03 2.137590599060058594e+01 2.484710216522216797e+00 -3.370581150054931641e+00 -1.352650523185729980e+00 -1.416969537734985352e+00 -2.103926897048950195e+00
8.567000000000000000e+03 2.203787803649902344e+01 2.063200950622558594e+00 -2.752823829650878906e+00 -9.010135531425476074e-01 -1.096151232719421387e+00 -1.716463685035705566e+00
8.568000000000000000e+03 2.509796905517578125e+01 3.919186592102050781e+00 -2.492472648620605469e+00 -7.712506055831909180e-01 -9.791169762611389160e-01 -1.356435418128967285e+00
8.569000000000000000e+03 2.195049285888671875e+01 1.871048808097839355e+00 -2.613415002822875977e+00 -8.784418106079101562e-01 -1.047556996345520020e+00 -1.722410082817077637e+00
8.570000000000000000e+03 2.650942611694335938e+01 5.975653648376464844e+00 4.284021854400634766e+00 1.580164790153503418e+00 1.759256005287170410e+00 2.626947402954101562e+00
8.571000000000000000e+03 2.526243782043457031e+01 3.778376102447509766e+00 -2.376054286956787109e+00 -7.332424521446228027e-01 -9.327890276908874512e-01 -1.259450435638427734e+00
8.572000000000000000e+03 2.581404304504394531e+01 5.989075660705566406e+00 1.559663534164428711e+00 3.871828913688659668e-01 5.840539336204528809e-01 7.361638545989990234e-01
8.573000000000000000e+03 2.056393432617187500e+01 2.613148450851440430e+00 -2.768280506134033203e-01 -7.130917906761169434e-01 -2.969759702682495117e-01 -6.502751708030700684e-01
8.574000000000000000e+03 2.220507812500000000e+01 4.010235309600830078e+00 -7.173619866371154785e-01 -7.968899011611938477e-01 -4.542755782604217529e-01 -8.930080533027648926e-01
8.575000000000000000e+03 2.517549514770507812e+01 5.827631950378417969e+00 -5.166153907775878906e-01 -3.246812522411346436e-01 -2.523890137672424316e-01 -4.385310411453247070e-01
8.576000000000000000e+03 2.293656158447265625e+01 4.501118659973144531e+00 -8.183189630508422852e-01 -8.675314188003540039e-01 -5.057551264762878418e-01 -1.000845193862915039e+00
8.577000000000000000e+03 2.442124557495117188e+01 5.519610404968261719e+00 -1.620136737823486328e+00 -1.221140503883361816e+00 -8.523831963539123535e-01 -1.296282529830932617e+00
8.578000000000000000e+03 2.104181480407714844e+01 3.073762416839599609e+00 -1.918328404426574707e-01 -7.271440029144287109e-01 -2.756930589675903320e-01 -6.783454418182373047e-01
8.579000000000000000e+03 2.142096900939941406e+01 3.482760190963745117e+00 -4.842332005500793457e-01 -8.724846839904785156e-01 -4.070153832435607910e-01 -8.607062697410583496e-01
8.580000000000000000e+03 2.412429046630859375e+01 5.373105525970458984e+00 -1.984044075012207031e+00 -1.311128735542297363e+00 -9.885518550872802734e-01 -1.538164019584655762e+00
8.581000000000000000e+03 2.116611099243164062e+01 3.312534093856811523e+00 -4.876898229122161865e-01 -9.175443649291992188e-01 -4.215702414512634277e-01 -8.414974808692932129e-01
8.582000000000000000e+03 1.517877674102783203e+01 2.289497256278991699e-01 -2.660780847072601318e-01 1.675591826438903809e+00 4.228541254997253418e-01 -9.182083606719970703e-01
8.583000000000000000e+03 2.783670806884765625e+01 5.383440017700195312e+00 -1.974690556526184082e+00 -1.148443937301635742e+00 -9.369403123855590820e-01 -1.312713861465454102e+00
8.584000000000000000e+03 1.819314384460449219e+01 -5.126250386238098145e-01 -2.035423278808593750e+00 -7.967227697372436523e-01 -8.496437668800354004e-01 -1.110891699790954590e+00
8.585000000000000000e+03 2.597503852844238281e+01 5.709755897521972656e+00 4.094007968902587891e+00 1.421418190002441406e+00 1.654627799987792969e+00 2.376649618148803711e+00
8.586000000000000000e+03 1.796308708190917969e+01 1.059279084205627441e+00 -1.219090819358825684e+00 -1.117404699325561523e+00 -7.009486556053161621e-01 -1.456848382949829102e+00
8.587000000000000000e+03 2.720183753967285156e+01 6.784772396087646484e+00 2.128955125808715820e+00 7.592370510101318359e-01 8.664576411247253418e-01 1.363203167915344238e+00
8.588000000000000000e+03 1.673983955383300781e+01 5.516457557678222656e-01 -6.645877361297607422e-01 -1.025476679205894470e-01 -2.301406264305114746e-01 -5.754655599594116211e-01
8.589000000000000000e+03 2.389292526245117188e+01 4.802043437957763672e+00 1.019742608070373535e+00 -1.179227605462074280e-01 2.705459594726562500e-01 1.349684298038482666e-01
8.590000000000000000e+03 1.610945892333984375e+01 3.070570528507232666e-01 -3.836768567562103271e-01 2.322553694248199463e-01 -4.542644321918487549e-02 -6.107960343360900879e-01
8.591000000000000000e+03 2.368414306640625000e+01 3.659442424774169922e+00 -2.889198303222656250e+00 -9.900442957878112793e-01 -1.163772821426391602e+00 -1.678030967712402344e+00
8.592000000000000000e+03 2.561004066467285156e+01 4.838339805603027344e+00 -2.506090402603149414e+00 -9.187554121017456055e-01 -1.027453780174255371e+00 -1.511317014694213867e+00
8.593000000000000000e+03 2.371541023254394531e+01 2.803117275238037109e+00 -2.592656373977661133e+00 -6.709121465682983398e-01 -9.790705442428588867e-01 -1.319680094718933105e+00
8.594000000000000000e+03 2.558269309997558594e+01 4.275063514709472656e+00 -2.367727756500244141e+00 -8.122411966323852539e-01 -9.539906978607177734e-01 -1.354358196258544922e+00
8.595000000000000000e+03 2.534510612487792969e+01 4.405199050903320312e+00 -2.498978376388549805e+00 -8.639282584190368652e-01 -1.008871912956237793e+00 -1.447512745857238770e+00
8.596000000000000000e+03 2.360383987426757812e+01 3.146109819412231445e+00 -2.791297435760498047e+00 -8.224740624427795410e-01 -1.084131479263305664e+00 -1.513622283935546875e+00
8.597000000000000000e+03 2.136069869995117188e+01 1.376713991165161133e+00 -2.257663249969482422e+00 -9.001061916351318359e-01 -9.473308324813842773e-01 -1.946000099182128906e+00
8.598000000000000000e+03 1.911192321777343750e+01 8.317236304283142090e-01 -1.420735120773315430e+00 -1.009713649749755859e+00 -7.291346788406372070e-01 -1.091795206069946289e+00
8.599000000000000000e+03 2.709817886352539062e+01 5.751211166381835938e+00 -2.392348766326904297e+00 -1.052475452423095703e+00 -1.033447265625000000e+00 -1.558371305465698242e+00
8.600000000000000000e+03 2.756222724914550781e+01 5.541855812072753906e+00 -2.128619670867919922e+00 -1.130790233612060547e+00 -9.778229594230651855e-01 -1.438484430313110352e+00
8.601000000000000000e+03 1.706620979309082031e+01 -1.017040967941284180e+00 -1.969894766807556152e+00 -5.012114048004150391e-01 -7.413318753242492676e-01 -8.383563160896301270e-01
8.602000000000000000e+03 2.030491447448730469e+01 7.856969833374023438e-01 -1.452493667602539062e+00 -1.852471232414245605e+00 -9.914894700050354004e-01 -2.091221809387207031e+00
8.603000000000000000e+03 2.607737541198730469e+01 4.842619895935058594e+00 -2.362995147705078125e+00 -8.970394134521484375e-01 -9.780104160308837891e-01 -1.433985471725463867e+00
8.604000000000000000e+03 2.666492843627929688e+01 4.805519580841064453e+00 -2.214487314224243164e+00 -8.922396302223205566e-01 -9.320181012153625488e-01 -1.323025465011596680e+00
8.605000000000000000e+03 2.630720329284667969e+01 4.768382549285888672e+00 -2.313946247100830078e+00 -8.811210393905639648e-01 -9.585201740264892578e-01 -1.375711679458618164e+00
8.606000000000000000e+03 2.283657073974609375e+01 1.973399281501770020e+00 -2.499614715576171875e+00 -6.067742705345153809e-01 -9.319167137145996094e-01 -1.375160098075866699e+00
8.607000000000000000e+03 2.334562683105468750e+01 2.934128522872924805e+00 -2.820464849472045898e+00 -8.282327651977539062e-01 -1.094609379768371582e+00 -1.534187793731689453e+00
8.608000000000000000e+03 1.984938049316406250e+01 5.231701135635375977e-01 -1.449861168861389160e+00 -1.854377508163452148e+00 -9.912716150283813477e-01 -1.851269721984863281e+00
8.609000000000000000e+03 2.011395072937011719e+01 7.077939510345458984e-01 -1.518570899963378906e+00 -1.625688552856445312e+00 -9.432778358459472656e-01 -1.863980174064636230e+00
8.610000000000000000e+03 1.963491249084472656e+01 7.110378742218017578e-01 -1.562540650367736816e+00 -1.536451578140258789e+00 -9.296976923942565918e-01 -1.508506417274475098e+00
8.611000000000000000e+03 1.723280715942382812e+01 -1.188942551612854004e+00 -1.950228452682495117e+00 -6.446455121040344238e-01 -7.784622311592102051e-01 -9.067295789718627930e-01
8.612000000000000000e+03 1.616164016723632812e+01 -1.410947084426879883e+00 -1.791828036308288574e+00 -7.350909113883972168e-01 -7.580757141113281250e-01 -5.849599838256835938e-01
8.613000000000000000e+03 2.569254302978515625e+01 4.493881225585937500e+00 -2.437803745269775391e+00 -8.400781750679016113e-01 -9.833645820617675781e-01 -1.401869654655456543e+00
8.614000000000000000e+03 1.685601615905761719e+01 -1.279227972030639648e+00 -2.028009653091430664e+00 -5.762954950332641602e-01 -7.812915444374084473e-01 -7.256024479866027832e-01
8.615000000000000000e+03 1.799986267089843750e+01 -2.705654203891754150e-01 -1.779683947563171387e+00 -5.855345726013183594e-01 -7.095655202865600586e-01 -9.802781939506530762e-01
8.616000000000000000e+03 2.143686676025390625e+01 1.690131187438964844e+00 -2.541648149490356445e+00 -1.001005291938781738e+00 -1.062795996665954590e+00 -1.887481808662414551e+00
8.617000000000000000e+03 2.634053611755371094e+01 6.562598705291748047e+00 1.593441665172576904e-01 -3.194820880889892578e-01 -4.804137721657752991e-02 -1.561772171407938004e-02
8.618000000000000000e+03 2.582064056396484375e+01 6.539969921112060547e+00 -2.061558485031127930e+00 -1.264479398727416992e+00 -9.978113174438476562e-01 -1.619003534317016602e+00
8.619000000000000000e+03 2.690040969848632812e+01 7.386531829833984375e+00 -2.248725891113281250e+00 -1.304118037223815918e+00 -1.065853118896484375e+00 -1.751417756080627441e+00
8.620000000000000000e+03 2.739855003356933594e+01 6.886539459228515625e+00 2.348321437835693359e+00 9.117652177810668945e-01 9.780259728431701660e-01 1.384552836418151855e+00
8.621000000000000000e+03 2.546012306213378906e+01 6.374949455261230469e+00 -2.390956640243530273e+00 -1.420442700386047363e+00 -1.143419861793518066e+00 -1.939539670944213867e+00
8.622000000000000000e+03 2.576717567443847656e+01 6.282899379730224609e+00 -6.106627583503723145e-01 -4.513874053955078125e-01 -3.186150491237640381e-01 -6.094092130661010742e-01
8.623000000000000000e+03 2.224742889404296875e+01 2.353343725204467773e+00 -2.906804323196411133e+00 -9.650017023086547852e-01 -1.161541819572448730e+00 -1.746406197547912598e+00
8.624000000000000000e+03 1.846948242187500000e+01 3.501643538475036621e-01 -1.579276919364929199e+00 -7.200649380683898926e-01 -6.898025274276733398e-01 -9.344066381454467773e-01
8.625000000000000000e+03 2.635047340393066406e+01 7.097494602203369141e+00 -3.056656360626220703e+00 -1.828380465507507324e+00 -1.465511083602905273e+00 -2.222139835357666016e+00
8.626000000000000000e+03 1.812079811096191406e+01 1.768802553415298462e-01 -1.547682046890258789e+00 -5.669772028923034668e-01 -6.343977451324462891e-01 -8.820605874061584473e-01
8.627000000000000000e+03 2.571139526367187500e+01 6.977231502532958984e+00 -5.095265388488769531e+00 -2.672087669372558594e+00 -2.330205917358398438e+00 -3.592041254043579102e+00
8.628000000000000000e+03 2.285479354858398438e+01 4.230628013610839844e+00 1.728777140378952026e-01 -4.989546537399291992e-01 -9.782308340072631836e-02 -3.697814047336578369e-01
8.629000000000000000e+03 1.606735420227050781e+01 -3.954804837703704834e-01 -3.895160675048828125e+00 -2.797815203666687012e-01 -1.252482652664184570e+00 -2.171839475631713867e+00
8.630000000000000000e+03 1.644632148742675781e+01 -1.453485488891601562e+00 -1.866616845130920410e+00 -6.510062217712402344e-01 -7.552869319915771484e-01 -7.086392045021057129e-01
8.631000000000000000e+03 1.625562286376953125e+01 -1.167083740234375000e+00 -2.038331985473632812e+00 -6.468713283538818359e-01 -8.055610060691833496e-01 -4.873131215572357178e-01
8.632000000000000000e+03 1.906036376953125000e+01 1.955818653106689453e+00 -2.524600028991699219e-01 -7.616488337516784668e-01 -3.042326569557189941e-01 -7.654059529304504395e-01
8.633000000000000000e+03 1.830961990356445312e+01 -2.198664695024490356e-01 -1.992002844810485840e+00 -7.222465872764587402e-01 -8.142748475074768066e-01 -1.106879949569702148e+00
8.634000000000000000e+03 1.897157478332519531e+01 5.663049221038818359e-01 -1.697989821434020996e+00 -1.016324877738952637e+00 -8.142943978309631348e-01 -1.213495254516601562e+00
8.635000000000000000e+03 2.714145660400390625e+01 5.515115261077880859e+00 -2.276025533676147461e+00 -1.035190224647521973e+00 -9.933646917343139648e-01 -1.480311036109924316e+00
8.636000000000000000e+03 2.736359596252441406e+01 5.513992786407470703e+00 -2.212305307388305664e+00 -1.100232839584350586e+00 -9.937614798545837402e-01 -1.463490962982177734e+00
8.637000000000000000e+03 2.710399055480957031e+01 7.190565109252929688e+00 -5.662555098533630371e-01 -2.501764595508575439e-01 -2.449295818805694580e-01 -3.631877601146697998e-01
8.638000000000000000e+03 2.526805114746093750e+01 6.093179225921630859e+00 -1.576592564582824707e+00 -8.451054692268371582e-01 -7.265093922615051270e-01 -1.271813750267028809e+00
8.639000000000000000e+03 2.039383125305175781e+01 1.114218592643737793e+00 -1.740886449813842773e+00 -1.614042162895202637e+00 -1.006478548049926758e+00 -1.963102817535400391e+00
8.640000000000000000e+03 2.417414855957031250e+01 3.933209896087646484e+00 -2.754276037216186523e+00 -9.371024966239929199e-01 -1.107413649559020996e+00 -1.615853309631347656e+00
8.641000000000000000e+03 2.251664733886718750e+01 2.358477115631103516e+00 -2.824005365371704102e+00 -8.577855825424194336e-01 -1.104537248611450195e+00 -1.640286564826965332e+00
8.642000000000000000e+03 1.867271995544433594e+01 3.759214282035827637e-01 -1.444884419441223145e+00 -7.992925047874450684e-01 -6.732530593872070312e-01 -1.051868200302124023e+00
8.643000000000000000e+03 1.949674224853515625e+01 9.525567889213562012e-01 -1.629203677177429199e+00 -1.484439611434936523e+00 -9.340929985046386719e-01 -1.494950056076049805e+00
8.644000000000000000e+03 1.783939170837402344e+01 -3.905213475227355957e-01 -1.881484389305114746e+00 -5.926946997642517090e-01 -7.422537207603454590e-01 -9.800094962120056152e-01
8.645000000000000000e+03 2.321898460388183594e+01 3.217948198318481445e+00 -2.941530227661132812e+00 -9.499071836471557617e-01 -1.167431235313415527e+00 -1.681912422180175781e+00
8.646000000000000000e+03 2.300796318054199219e+01 2.877877712249755859e+00 -2.913351535797119141e+00 -8.925649523735046387e-01 -1.141774892807006836e+00 -1.637566089630126953e+00
8.647000000000000000e+03 2.580160903930664062e+01 4.695583820343017578e+00 -2.410890340805053711e+00 -8.784187436103820801e-01 -9.867927432060241699e-01 -1.437208890914916992e+00
8.648000000000000000e+03 2.489657402038574219e+01 4.026909351348876953e+00 -2.535455942153930664e+00 -8.319256305694580078e-01 -1.010214447975158691e+00 -1.442171454429626465e+00
8.649000000000000000e+03 1.720486450195312500e+01 -8.704810738563537598e-01 -1.988921284675598145e+00 -5.404865741729736328e-01 -7.588223814964294434e-01 -9.195029735565185547e-01
8.650000000000000000e+03 1.967807006835937500e+01 1.468261122703552246e+00 -1.986101388931274414e+00 -9.959989190101623535e-01 -8.946301341056823730e-01 -1.483291745185852051e+00
8.651000000000000000e+03 1.999178695678710938e+01 9.750122427940368652e-01 -1.585430502891540527e+00 -1.666714429855346680e+00 -9.756435155868530273e-01 -1.876392483711242676e+00
8.652000000000000000e+03 1.881453514099121094e+01 -1.145941466093063354e-01 -1.828971505165100098e+00 -1.021903753280639648e+00 -8.552625775337219238e-01 -1.098947405815124512e+00
8.653000000000000000e+03 2.476461601257324219e+01 3.816526651382446289e+00 -2.560939311981201172e+00 -7.836211919784545898e-01 -1.003368139266967773e+00 -1.392101645469665527e+00
8.654000000000000000e+03 2.222923851013183594e+01 2.596244335174560547e+00 -3.090800285339355469e+00 -1.083150982856750488e+00 -1.252185344696044922e+00 -1.835585951805114746e+00
8.655000000000000000e+03 2.157818603515625000e+01 1.730562210083007812e+00 -2.534143924713134766e+00 -9.820640683174133301e-01 -1.054862380027770996e+00 -1.863293051719665527e+00
8.656000000000000000e+03 1.753607368469238281e+01 -9.707576036453247070e-01 -1.961783766746520996e+00 -6.468907594680786133e-01 -7.826023697853088379e-01 -9.823931455612182617e-01
8.657000000000000000e+03 1.557396507263183594e+01 -2.852958738803863525e-01 -4.815181255340576172e+00 1.251888751983642578e+00 -1.068987727165222168e+00 -1.045003056526184082e+00
8.658000000000000000e+03 1.580789661407470703e+01 -2.014942407608032227e+00 -1.431181550025939941e+00 -6.316252946853637695e-01 -6.188420653343200684e-01 -7.268500328063964844e-01
8.659000000000000000e+03 2.779977416992187500e+01 6.011123180389404297e+00 -2.313756465911865234e+00 -1.307235360145568848e+00 -1.086297512054443359e+00 -1.624769687652587891e+00
8.660000000000000000e+03 2.430105209350585938e+01 3.707533121109008789e+00 -2.665932655334472656e+00 -8.501648306846618652e-01 -1.054829239845275879e+00 -1.488801360130310059e+00
8.661000000000000000e+03 1.976152992248535156e+01 8.037325739860534668e-01 -1.711576581001281738e+00 -1.444434285163879395e+00 -9.468032717704772949e-01 -1.598925232887268066e+00
8.662000000000000000e+03 2.400750732421875000e+01 3.809019565582275391e+00 -2.795238256454467773e+00 -9.681988358497619629e-01 -1.129031181335449219e+00 -1.630279779434204102e+00
8.663000000000000000e+03 2.676595687866210938e+01 6.886943340301513672e+00 3.193440660834312439e-02 -2.010945975780487061e-01 -5.074805766344070435e-02 -8.383577689528465271e-03
8.664000000000000000e+03 2.651888465881347656e+01 7.204801559448242188e+00 -2.925930738449096680e+00 -1.795281529426574707e+00 -1.416363716125488281e+00 -2.144066572189331055e+00
8.665000000000000000e+03 1.628826141357421875e+01 -2.017508745193481445e+00 -1.464033603668212891e+00 -6.679551005363464355e-01 -6.395966410636901855e-01 -7.254659533500671387e-01
8.666000000000000000e+03 2.591839790344238281e+01 4.346871852874755859e+00 -2.288388729095458984e+00 -8.105702996253967285e-01 -9.296877384185791016e-01 -1.303232192993164062e+00
8.667000000000000000e+03 1.501998519897460938e+01 -1.876763939857482910e+00 -1.464931607246398926e+00 -2.809651494026184082e-01 -5.237690210342407227e-01 -5.822263956069946289e-01
8.668000000000000000e+03 2.733472442626953125e+01 7.141497611999511719e+00 5.600699782371520996e-01 3.184519410133361816e-01 2.635565698146820068e-01 3.968572914600372314e-01
8.669000000000000000e+03 2.684387207031250000e+01 6.556024074554443359e+00 2.095159530639648438e+00 8.873232603073120117e-01 8.947448134422302246e-01 1.277595281600952148e+00
8.670000000000000000e+03 2.666568374633789062e+01 6.083534240722656250e+00 4.174070835113525391e+00 1.606296777725219727e+00 1.734110355377197266e+00 2.635146856307983398e+00
8.671000000000000000e+03 2.625601196289062500e+01 6.063596248626708984e+00 2.906140327453613281e+00 8.723952174186706543e-01 1.133560657501220703e+00 1.671100974082946777e+00
8.672000000000000000e+03 2.616489219665527344e+01 5.798119544982910156e+00 4.214993000030517578e+00 1.417310714721679688e+00 1.689691185951232910e+00 2.443455457687377930e+00
8.673000000000000000e+03 2.606442070007324219e+01 6.034417629241943359e+00 2.265887260437011719e+00 6.375095248222351074e-01 8.710190057754516602e-01 1.261725068092346191e+00
8.674000000000000000e+03 2.558020401000976562e+01 5.873181343078613281e+00 1.354520082473754883e+00 2.381528466939926147e-01 4.778018891811370850e-01 5.566509962081909180e-01
8.675000000000000000e+03 2.528006172180175781e+01 5.593722820281982422e+00 1.712416291236877441e+00 4.883847534656524658e-01 6.602402925491333008e-01 9.562478661537170410e-01
8.676000000000000000e+03 2.545791816711425781e+01 5.377339839935302734e+00 3.964013576507568359e+00 1.289377808570861816e+00 1.576017498970031738e+00 2.294129610061645508e+00
8.677000000000000000e+03 2.511786651611328125e+01 5.163075447082519531e+00 3.709094285964965820e+00 1.341577529907226562e+00 1.515201568603515625e+00 2.261142730712890625e+00
8.678000000000000000e+03 2.478065109252929688e+01 4.935214519500732422e+00 3.759488105773925781e+00 1.430295228958129883e+00 1.556934952735900879e+00 2.081972360610961914e+00
8.679000000000000000e+03 2.434786415100097656e+01 4.955834388732910156e+00 1.726375699043273926e+00 2.464833259582519531e-01 5.918577313423156738e-01 9.289192557334899902e-01
8.680000000000000000e+03 2.371851730346679688e+01 4.320669174194335938e+00 2.973620414733886719e+00 8.557492494583129883e-01 1.148810863494873047e+00 1.596918582916259766e+00
8.681000000000000000e+03 2.365928649902343750e+01 4.679716110229492188e+00 7.843102216720581055e-01 -2.837357223033905029e-01 1.501723378896713257e-01 -3.832572139799594879e-03
8.682000000000000000e+03 2.341914558410644531e+01 4.077101707458496094e+00 2.604009151458740234e+00 6.969343423843383789e-01 9.902830123901367188e-01 1.438221454620361328e+00
8.683000000000000000e+03 2.287387466430664062e+01 3.978004455566406250e+00 1.465585947036743164e+00 -1.489451341331005096e-02 4.352074265480041504e-01 4.668757915496826172e-01
8.684000000000000000e+03 2.257127761840820312e+01 3.593299865722656250e+00 1.732025265693664551e+00 4.100066721439361572e-01 6.426095962524414062e-01 8.444858193397521973e-01
8.685000000000000000e+03 2.238205909729003906e+01 3.494225025177001953e+00 1.555580854415893555e+00 2.774710357189178467e-01 5.499155521392822266e-01 7.609007358551025391e-01
8.686000000000000000e+03 2.175230789184570312e+01 3.041884422302246094e+00 7.626435160636901855e-01 4.164665006101131439e-03 2.300424426794052124e-01 3.552617728710174561e-01
8.687000000000000000e+03 2.091606521606445312e+01 2.871060132980346680e+00 -4.013600572943687439e-02 -6.006676554679870605e-01 -1.922410875558853149e-01 -5.266533493995666504e-01
8.688000000000000000e+03 2.039735031127929688e+01 2.418879747390747070e+00 -5.104466676712036133e-01 -7.307274937629699707e-01 -3.723522424697875977e-01 -7.372587323188781738e-01
8.689000000000000000e+03 2.056420326232910156e+01 2.295139312744140625e+00 -5.953131318092346191e-01 -3.831470310688018799e-01 -2.935380637645721436e-01 -4.718616604804992676e-01
8.690000000000000000e+03 1.985025787353515625e+01 2.300310134887695312e+00 -5.770354270935058594e-01 -9.701641201972961426e-01 -4.641598463058471680e-01 -9.628601670265197754e-01
8.691000000000000000e+03 1.921669578552246094e+01 1.422919631004333496e+00 -3.005241632461547852e+00 -1.136337995529174805e+00 -1.242473840713500977e+00 -2.024729251861572266e+00
8.692000000000000000e+03 1.834779357910156250e+01 1.595245122909545898e+00 5.557729601860046387e-01 -6.068850159645080566e-01 -1.533362362533807755e-02 -2.712978124618530273e-01
8.693000000000000000e+03 1.854553031921386719e+01 1.398307919502258301e+00 -1.361976861953735352e+00 -1.270061373710632324e+00 -7.896114587783813477e-01 -1.432530283927917480e+00
8.694000000000000000e+03 1.820831489562988281e+01 8.324990868568420410e-01 -4.465301036834716797e+00 -1.772080659866333008e+00 -1.871214509010314941e+00 -2.765463829040527344e+00
8.695000000000000000e+03 1.684770965576171875e+01 3.050752580165863037e-01 -3.148563623428344727e+00 -1.222374320030212402e+00 -1.311281442642211914e+00 -2.422435045242309570e+00
8.696000000000000000e+03 1.643051910400390625e+01 4.287737011909484863e-01 -1.170791834592819214e-01 -1.751993000507354736e-01 -8.768354356288909912e-02 -6.316182613372802734e-01
8.697000000000000000e+03 1.508499240875244141e+01 -1.196102350950241089e-01 -4.166090488433837891e+00 6.327292919158935547e-01 -1.060008406639099121e+00 -2.574030756950378418e-01
8.698000000000000000e+03 1.489139747619628906e+01 -4.429558813571929932e-01 -7.115009307861328125e+00 -1.804424077272415161e-01 -2.188635587692260742e+00 5.520372986793518066e-01
8.699000000000000000e+03 1.458994865417480469e+01 1.278747320175170898e-01 -1.929514169692993164e+00 5.003473758697509766e-01 -4.287500083446502686e-01 3.942762315273284912e-01
8.700000000000000000e+03 2.798352813720703125e+01 6.378621101379394531e+00 -2.519471406936645508e+00 -1.445265293121337891e+00 -1.189421057701110840e+00 -1.840291380882263184e+00
8.701000000000000000e+03 2.744732856750488281e+01 5.919847488403320312e+00 -2.373249053955078125e+00 -1.169225096702575684e+00 -1.062742233276367188e+00 -1.615374207496643066e+00
8.702000000000000000e+03 2.681096076965332031e+01 5.881733417510986328e+00 -2.502308368682861328e+00 -9.985209703445434570e-01 -1.050248861312866211e+00 -1.586078643798828125e+00
8.703000000000000000e+03 2.695290946960449219e+01 5.657287120819091797e+00 -2.392952203750610352e+00 -1.021771907806396484e+00 -1.024417281150817871e+00 -1.534873008728027344e+00
8.704000000000000000e+03 2.680890464782714844e+01 5.554503917694091797e+00 -2.409420013427734375e+00 -9.889260530471801758e-01 -1.019503831863403320e+00 -1.523502707481384277e+00
8.705000000000000000e+03 2.595121192932128906e+01 5.348055839538574219e+00 -2.499613761901855469e+00 -9.627262353897094727e-01 -1.038702011108398438e+00 -1.553006410598754883e+00
8.706000000000000000e+03 2.624352073669433594e+01 5.168264389038085938e+00 -2.422501325607299805e+00 -9.283822178840637207e-01 -1.005264997482299805e+00 -1.490714311599731445e+00
8.707000000000000000e+03 2.577732086181640625e+01 5.259509563446044922e+00 -2.518867492675781250e+00 -9.708015918731689453e-01 -1.046900749206542969e+00 -1.555324554443359375e+00
8.708000000000000000e+03 2.587140464782714844e+01 5.063723564147949219e+00 -2.462532520294189453e+00 -9.291207194328308105e-01 -1.017495989799499512e+00 -1.518077969551086426e+00
8.709000000000000000e+03 2.528497123718261719e+01 4.897889137268066406e+00 -2.576619625091552734e+00 -9.715401530265808105e-01 -1.064447999000549316e+00 -1.582597374916076660e+00
8.710000000000000000e+03 2.476001930236816406e+01 4.607118606567382812e+00 -2.672108411788940430e+00 -1.011912107467651367e+00 -1.105206131935119629e+00 -1.629466056823730469e+00
8.711000000000000000e+03 2.340548515319824219e+01 3.757633924484252930e+00 -3.008519172668457031e+00 -1.123656034469604492e+00 -1.239652514457702637e+00 -1.819411873817443848e+00
8.712000000000000000e+03 2.324150848388671875e+01 3.638243675231933594e+00 -3.052503585815429688e+00 -1.114375114440917969e+00 -1.250063657760620117e+00 -1.858755469322204590e+00
8.713000000000000000e+03 2.301863098144531250e+01 3.138655900955200195e+00 -3.001709222793579102e+00 -9.989132285118103027e-01 -1.200186729431152344e+00 -1.713043093681335449e+00
8.714000000000000000e+03 2.266702651977539062e+01 2.957285165786743164e+00 -3.087889194488525391e+00 -1.043521285057067871e+00 -1.239423155784606934e+00 -1.792125821113586426e+00
8.715000000000000000e+03 2.203386688232421875e+01 2.941110372543334961e+00 -3.377683877944946289e+00 -1.293142676353454590e+00 -1.401247978210449219e+00 -2.060606241226196289e+00
8.716000000000000000e+03 2.213482093811035156e+01 2.759301662445068359e+00 -3.204511880874633789e+00 -1.129571914672851562e+00 -1.300225138664245605e+00 -1.955264806747436523e+00
8.717000000000000000e+03 2.154034233093261719e+01 2.606009721755981445e+00 -3.377674818038940430e+00 -1.283469557762145996e+00 -1.398343324661254883e+00 -2.138852357864379883e+00
8.718000000000000000e+03 2.183447265625000000e+01 2.533674716949462891e+00 -3.180765628814697266e+00 -1.157859683036804199e+00 -1.301587581634521484e+00 -1.979256510734558105e+00
8.719000000000000000e+03 2.136129570007324219e+01 2.078829288482666016e+00 -2.912087678909301758e+00 -1.240710973739624023e+00 -1.245839595794677734e+00 -1.948046803474426270e+00
8.720000000000000000e+03 2.154104804992675781e+01 2.237478971481323242e+00 -3.029322147369384766e+00 -1.159198641777038574e+00 -1.256556272506713867e+00 -1.974197983741760254e+00
8.721000000000000000e+03 2.077692985534667969e+01 1.859538793563842773e+00 -2.758665800094604492e+00 -1.316661119461059570e+00 -1.222598075866699219e+00 -1.954224228858947754e+00
8.722000000000000000e+03 2.049374771118164062e+01 1.987400770187377930e+00 -3.037410974502563477e+00 -1.280331015586853027e+00 -1.295322656631469727e+00 -1.936215400695800781e+00
8.723000000000000000e+03 2.048386955261230469e+01 1.801054954528808594e+00 -2.637530088424682617e+00 -1.313129901885986328e+00 -1.185198068618774414e+00 -1.965103149414062500e+00
8.724000000000000000e+03 2.034474945068359375e+01 1.374484896659851074e+00 -2.124877214431762695e+00 -1.287381649017333984e+00 -1.023677706718444824e+00 -1.882973074913024902e+00
8.725000000000000000e+03 1.986848831176757812e+01 1.354785084724426270e+00 -1.787291407585144043e+00 -1.181309819221496582e+00 -8.905803561210632324e-01 -1.652965068817138672e+00
8.726000000000000000e+03 1.977758979797363281e+01 1.160026073455810547e+00 -2.038434505462646484e+00 -1.373239398002624512e+00 -1.023502111434936523e+00 -1.642644166946411133e+00
8.727000000000000000e+03 1.899002265930175781e+01 1.033178091049194336e+00 -1.380364537239074707e+00 -7.078413367271423340e-01 -6.264617443084716797e-01 -9.637734293937683105e-01
8.728000000000000000e+03 1.865701293945312500e+01 8.324456810951232910e-01 -1.252482891082763672e+00 -5.395270586013793945e-01 -5.376030206680297852e-01 -8.206027150154113770e-01
8.729000000000000000e+03 1.796325874328613281e+01 6.934621185064315796e-02 -1.560311675071716309e+00 -5.145447850227355957e-01 -6.224569082260131836e-01 -8.849212527275085449e-01
8.730000000000000000e+03 1.781099510192871094e+01 -4.681610688567161560e-02 -1.620017647743225098e+00 -5.267863869667053223e-01 -6.440411806106567383e-01 -8.966284990310668945e-01
8.731000000000000000e+03 1.731255149841308594e+01 -4.446045309305191040e-02 -1.469439029693603516e+00 -5.076861381530761719e-01 -5.931375622749328613e-01 -8.584267497062683105e-01
8.732000000000000000e+03 1.716968917846679688e+01 -5.165702104568481445e-01 -1.828357100486755371e+00 -5.144097805023193359e-01 -7.028300762176513672e-01 -9.361743927001953125e-01
8.733000000000000000e+03 1.733124160766601562e+01 -3.948403298854827881e-01 -1.747262835502624512e+00 -4.974621236324310303e-01 -6.734175086021423340e-01 -9.295715689659118652e-01
8.734000000000000000e+03 1.700969696044921875e+01 -6.479260325431823730e-01 -1.902471661567687988e+00 -4.931311011314392090e-01 -7.186808586120605469e-01 -9.318137764930725098e-01
8.735000000000000000e+03 1.667558479309082031e+01 -9.449340701103210449e-01 -2.108738660812377930e+00 -4.932653605937957764e-01 -7.806012034416198730e-01 -8.485491871833801270e-01
8.736000000000000000e+03 2.749036979675292969e+01 7.732102394104003906e+00 -1.876180887222290039e+00 -7.510098814964294434e-01 -7.881572246551513672e-01 -1.451855778694152832e+00
8.737000000000000000e+03 2.737743186950683594e+01 7.516111850738525391e+00 -1.225505828857421875e+00 -4.836518466472625732e-01 -5.127472877502441406e-01 -9.595726132392883301e-01
8.738000000000000000e+03 2.775899505615234375e+01 7.781839847564697266e+00 -1.436708569526672363e+00 -1.752378642559051514e-01 -4.835839569568634033e-01 -1.071633458137512207e+00
8.739000000000000000e+03 2.767353057861328125e+01 8.236301422119140625e+00 -3.167365074157714844e+00 -1.541419386863708496e+00 -1.412635326385498047e+00 -2.250993490219116211e+00
8.740000000000000000e+03 2.705670928955078125e+01 7.836090087890625000e+00 -3.596723794937133789e+00 -2.259902477264404297e+00 -1.756987929344177246e+00 -2.866349220275878906e+00
8.741000000000000000e+03 2.657050704956054688e+01 7.504411220550537109e+00 -4.177111148834228516e+00 -2.668946504592895508e+00 -2.053817272186279297e+00 -3.286073923110961914e+00
8.742000000000000000e+03 2.671600341796875000e+01 7.279695510864257812e+00 -2.491619110107421875e+00 -1.474914312362670898e+00 -1.189960002899169922e+00 -1.777887105941772461e+00
8.743000000000000000e+03 2.589096641540527344e+01 7.078425884246826172e+00 -4.959920883178710938e+00 -2.708057165145874023e+00 -2.300393342971801758e+00 -3.645668268203735352e+00
8.744000000000000000e+03 2.600694847106933594e+01 6.826173305511474609e+00 -2.947402238845825195e+00 -1.767402768135070801e+00 -1.414441585540771484e+00 -2.175046443939208984e+00
8.745000000000000000e+03 2.562108039855957031e+01 6.621604919433593750e+00 -3.169727563858032227e+00 -1.843955039978027344e+00 -1.504104733467102051e+00 -2.470295429229736328e+00
8.746000000000000000e+03 2.579959106445312500e+01 6.754337787628173828e+00 -3.341548919677734375e+00 -1.968038678169250488e+00 -1.592876315116882324e+00 -2.415899038314819336e+00
8.747000000000000000e+03 2.861095428466796875e+01 8.252856254577636719e+00 -1.703143954277038574e+00 -1.238792166113853455e-01 -5.481069684028625488e-01 -6.194880008697509766e-01
8.748000000000000000e+03 2.853674888610839844e+01 8.360008239746093750e+00 -1.862601637840270996e+00 6.087294220924377441e-02 -5.405185818672180176e-01 -7.046309709548950195e-01
8.749000000000000000e+03 2.883415985107421875e+01 8.333746910095214844e+00 -1.314969778060913086e+00 -4.262962937355041504e-01 -5.223798155784606934e-01 -5.593001842498779297e-02
8.750000000000000000e+03 2.870514488220214844e+01 8.375977516174316406e+00 -1.911431550979614258e+00 -4.703035950660705566e-01 -7.145205140113830566e-01 -7.319927811622619629e-01
8.751000000000000000e+03 1.971903610229492188e+01 2.516002416610717773e+00 -6.198497489094734192e-02 -7.299885153770446777e-01 -2.375920563936233521e-01 -5.709635615348815918e-01
8.752000000000000000e+03 2.373731422424316406e+01 5.086797237396240234e+00 -1.570685148239135742e+00 -1.147988915443420410e+00 -8.156021833419799805e-01 -1.373159646987915039e+00
8.753000000000000000e+03 2.900718116760253906e+01 8.279201507568359375e+00 -1.258432865142822266e+00 -3.251291513442993164e-01 -4.750685989856719971e-01 -1.788783967494964600e-01
8.754000000000000000e+03 2.995883560180664062e+01 7.631362438201904297e+00 -4.712418615818023682e-01 -1.259750962257385254e+00 -5.192978382110595703e-01 -9.179412722587585449e-01
8.755000000000000000e+03 2.986109924316406250e+01 7.173797130584716797e+00 -5.992850661277770996e-01 -1.189900040626525879e+00 -5.367555022239685059e-01 -1.192728996276855469e+00
8.756000000000000000e+03 2.977012825012207031e+01 7.303269386291503906e+00 -3.799507021903991699e-01 -1.286706566810607910e+00 -4.999971687793731689e-01 -1.229388475418090820e+00
8.757000000000000000e+03 1.753824615478515625e+01 -1.313276886940002441e+00 -1.908769011497497559e+00 -7.639207839965820312e-01 -8.018069267272949219e-01 -9.848108291625976562e-01
8.758000000000000000e+03 1.770430946350097656e+01 -1.205825805664062500e+00 -1.890262722969055176e+00 -7.291749715805053711e-01 -7.858312726020812988e-01 -1.016796112060546875e+00
8.759000000000000000e+03 1.803942489624023438e+01 -9.887551069259643555e-01 -1.959053993225097656e+00 -7.987307906150817871e-01 -8.273354768753051758e-01 -1.146865844726562500e+00
8.760000000000000000e+03 1.769699668884277344e+01 -8.576623797416687012e-01 -1.939814329147338867e+00 -6.194998621940612793e-01 -7.677942514419555664e-01 -1.024174928665161133e+00
8.761000000000000000e+03 1.871887207031250000e+01 -5.354961752891540527e-01 -2.060154676437377930e+00 -1.035413265228271484e+00 -9.286704063415527344e-01 -1.221439719200134277e+00
8.762000000000000000e+03 1.851503944396972656e+01 -2.948162555694580078e-01 -1.952671170234680176e+00 -9.855121970176696777e-01 -8.814550042152404785e-01 -1.141015768051147461e+00
8.763000000000000000e+03 1.856393241882324219e+01 1.237389743328094482e-01 -1.649766683578491211e+00 -8.165873885154724121e-01 -7.399062514305114746e-01 -1.071276664733886719e+00
8.764000000000000000e+03 1.924990653991699219e+01 -5.019795522093772888e-02 -1.828269481658935547e+00 -1.484198451042175293e+00 -9.937403798103332520e-01 -1.269200801849365234e+00
8.765000000000000000e+03 1.943012428283691406e+01 -4.136993363499641418e-02 -2.009308576583862305e+00 -2.050800323486328125e+00 -1.218032717704772949e+00 -1.516719937324523926e+00
8.766000000000000000e+03 1.920506477355957031e+01 2.889018356800079346e-01 -1.796344280242919922e+00 -1.493384718894958496e+00 -9.869186878204345703e-01 -1.287059903144836426e+00
8.767000000000000000e+03 1.935403060913085938e+01 1.091038063168525696e-01 -1.733184218406677246e+00 -1.638519525527954102e+00 -1.011511087417602539e+00 -1.316386818885803223e+00
8.768000000000000000e+03 1.970587158203125000e+01 3.779152035713195801e-01 -1.511498093605041504e+00 -1.951080203056335449e+00 -1.038773536682128906e+00 -1.654345393180847168e+00
8.769000000000000000e+03 2.085043907165527344e+01 1.039960861206054688e+00 -1.885121822357177734e+00 -1.621303558349609375e+00 -1.051927566528320312e+00 -2.141132354736328125e+00
8.770000000000000000e+03 2.049315261840820312e+01 8.613141179084777832e-01 -1.884199500083923340e+00 -1.689941048622131348e+00 -1.072242140769958496e+00 -2.201897621154785156e+00
8.771000000000000000e+03 2.152845191955566406e+01 1.460379362106323242e+00 -2.381500244140625000e+00 -9.515679478645324707e-01 -9.999204277992248535e-01 -1.824283957481384277e+00
8.772000000000000000e+03 2.228789710998535156e+01 2.100796222686767578e+00 -2.731339454650878906e+00 -8.439631462097167969e-01 -1.072590827941894531e+00 -1.648560166358947754e+00
8.773000000000000000e+03 2.268266296386718750e+01 2.183539867401123047e+00 -2.612066030502319336e+00 -6.903998255729675293e-01 -9.907397627830505371e-01 -1.484959006309509277e+00
8.774000000000000000e+03 2.282362365722656250e+01 2.349183797836303711e+00 -2.716501712799072266e+00 -7.370195984840393066e-01 -1.036056399345397949e+00 -1.500383734703063965e+00
8.775000000000000000e+03 2.291903305053710938e+01 2.602031946182250977e+00 -2.780496835708618164e+00 -8.180733919143676758e-01 -1.079571127891540527e+00 -1.550697565078735352e+00
8.776000000000000000e+03 2.312372589111328125e+01 2.517670631408691406e+00 -2.698086738586425781e+00 -6.939527392387390137e-01 -1.017611861228942871e+00 -1.465506076812744141e+00
8.777000000000000000e+03 2.329864883422851562e+01 2.554312467575073242e+00 -2.643939495086669922e+00 -6.872528195381164551e-01 -9.993577003479003906e-01 -1.384616851806640625e+00
8.778000000000000000e+03 2.370875740051269531e+01 2.486496210098266602e+00 -2.423992156982421875e+00 -5.889399647712707520e-01 -9.038796424865722656e-01 -1.238963246345520020e+00
8.779000000000000000e+03 2.360039710998535156e+01 2.670200109481811523e+00 -2.592125177383422852e+00 -6.710928678512573242e-01 -9.789654612541198730e-01 -1.336739063262939453e+00
8.780000000000000000e+03 2.383144950866699219e+01 2.970955133438110352e+00 -2.620391845703125000e+00 -7.184699773788452148e-01 -1.001658558845520020e+00 -1.378755927085876465e+00
8.781000000000000000e+03 2.428691291809082031e+01 3.261617898941040039e+00 -2.567791938781738281e+00 -7.339324355125427246e-01 -9.905173182487487793e-01 -1.351327776908874512e+00
8.782000000000000000e+03 2.491758537292480469e+01 3.217509746551513672e+00 -2.341072082519531250e+00 -6.371614933013916016e-01 -8.934701085090637207e-01 -1.160794019699096680e+00
8.783000000000000000e+03 2.506211090087890625e+01 3.325509548187255859e+00 -2.310320377349853516e+00 -6.414111852645874023e-01 -8.855194449424743652e-01 -1.185249686241149902e+00
8.784000000000000000e+03 2.508978843688964844e+01 3.686359405517578125e+00 -2.401184558868408203e+00 -7.065320014953613281e-01 -9.323149919509887695e-01 -1.286830782890319824e+00
8.785000000000000000e+03 2.592293930053710938e+01 3.904886245727539062e+00 -2.213239192962646484e+00 -7.362521290779113770e-01 -8.848474025726318359e-01 -1.179912328720092773e+00
8.786000000000000000e+03 2.642688369750976562e+01 4.173763751983642578e+00 -2.111356258392333984e+00 -7.738342881202697754e-01 -8.655571341514587402e-01 -1.164337396621704102e+00
8.787000000000000000e+03 2.612514495849609375e+01 4.211234092712402344e+00 -2.228578329086303711e+00 -7.771609425544738770e-01 -9.017217755317687988e-01 -1.236635446548461914e+00
8.788000000000000000e+03 2.628206062316894531e+01 4.349055767059326172e+00 -2.217098236083984375e+00 -8.089462518692016602e-01 -9.078133702278137207e-01 -1.254613637924194336e+00
8.789000000000000000e+03 2.674450492858886719e+01 4.412423610687255859e+00 -2.077012777328491211e+00 -8.375121951103210449e-01 -8.743575215339660645e-01 -1.194456696510314941e+00
8.790000000000000000e+03 2.653885078430175781e+01 4.620157718658447266e+00 -2.184161424636840820e+00 -8.584963083267211914e-01 -9.127973318099975586e-01 -1.285995960235595703e+00
8.791000000000000000e+03 2.699238395690917969e+01 4.901086807250976562e+00 -2.158805608749389648e+00 -9.283551573753356934e-01 -9.261482357978820801e-01 -1.301074147224426270e+00
8.792000000000000000e+03 2.765724372863769531e+01 5.295273303985595703e+00 -2.029618740081787109e+00 -1.106940388679504395e+00 -9.409677386283874512e-01 -1.321732282638549805e+00
8.793000000000000000e+03 2.831085968017578125e+01 5.369943618774414062e+00 -1.784703612327575684e+00 -1.204030871391296387e+00 -8.966203927993774414e-01 -1.152179718017578125e+00
8.794000000000000000e+03 2.837192344665527344e+01 5.715072154998779297e+00 -1.853723287582397461e+00 -1.348144769668579102e+00 -9.605604410171508789e-01 -1.260312795639038086e+00
8.795000000000000000e+03 2.900979804992675781e+01 5.785435676574707031e+00 -1.655158519744873047e+00 -1.151385545730590820e+00 -8.419632315635681152e-01 -1.004603624343872070e+00
8.796000000000000000e+03 2.888737106323242188e+01 5.938385963439941406e+00 -1.709257960319519043e+00 -1.236491441726684570e+00 -8.837248086929321289e-01 -1.069192171096801758e+00
8.797000000000000000e+03 2.932737922668457031e+01 6.294694900512695312e+00 -1.545437812805175781e+00 -9.739705324172973633e-01 -7.558224797248840332e-01 -1.166238427162170410e+00
8.798000000000000000e+03 2.987050247192382812e+01 6.886860370635986328e+00 -8.749665021896362305e-01 -1.040628194808959961e+00 -5.746784210205078125e-01 -1.276828885078430176e+00
8.799000000000000000e+03 2.857546615600585938e+01 5.763775825500488281e+00 -1.757407784461975098e+00 -1.312112331390380859e+00 -9.208560585975646973e-01 -1.163214445114135742e+00
8.800000000000000000e+03 2.832865715026855469e+01 5.965070724487304688e+00 -1.925510168075561523e+00 -1.454501271247863770e+00 -1.014003396034240723e+00 -1.380426049232482910e+00
8.801000000000000000e+03 1.585226917266845703e+01 -1.314679533243179321e-01 -4.451674461364746094e+00 1.292201161384582520e+00 -9.478419423103332520e-01 -1.573268413543701172e+00
8.802000000000000000e+03 2.700904464721679688e+01 6.986386775970458984e+00 1.127495169639587402e-01 7.976426929235458374e-02 5.775413662195205688e-02 9.539902210235595703e-02
8.803000000000000000e+03 1.915440750122070312e+01 1.539692163467407227e+00 -2.044986248016357422e+00 -1.175289511680603027e+00 -9.660827517509460449e-01 -1.686318397521972656e+00
8.804000000000000000e+03 1.895336532592773438e+01 1.434279918670654297e+00 -2.356775999069213867e+00 -1.389756679534912109e+00 -1.123959779739379883e+00 -1.944355487823486328e+00
8.805000000000000000e+03 1.832626342773437500e+01 1.212554574012756348e+00 -2.075691699981689453e+00 -1.379767775535583496e+00 -1.036637783050537109e+00 -1.731214165687561035e+00
8.806000000000000000e+03 1.881803703308105469e+01 1.581102371215820312e+00 -1.096411943435668945e+00 -1.081346869468688965e+00 -6.533276438713073730e-01 -1.283214092254638672e+00
8.807000000000000000e+03 1.720338821411132812e+01 7.016548514366149902e-01 -1.212651014328002930e+00 -6.562765836715698242e-01 -5.606783032417297363e-01 -1.133378386497497559e+00
8.808000000000000000e+03 1.766154289245605469e+01 9.660823345184326172e-01 -9.540234208106994629e-01 -1.063263535499572754e+00 -6.051861047744750977e-01 -1.184553861618041992e+00
8.809000000000000000e+03 2.660479927062988281e+01 6.350921630859375000e+00 2.428262472152709961e+00 7.433295845985412598e-01 9.514776468276977539e-01 1.503351211547851562e+00
8.810000000000000000e+03 2.639602661132812500e+01 6.356693744659423828e+00 1.471604108810424805e+00 2.670220732688903809e-01 5.215878486633300781e-01 8.497812747955322266e-01
8.811000000000000000e+03 2.637787246704101562e+01 6.789946079254150391e+00 -1.202012062072753906e+00 -8.309574723243713379e-01 -6.098908782005310059e-01 -9.229473471641540527e-01
8.812000000000000000e+03 2.639554023742675781e+01 6.124566555023193359e+00 3.246227025985717773e+00 9.785650968551635742e-01 1.267437577247619629e+00 1.923586249351501465e+00
8.813000000000000000e+03 2.626122474670410156e+01 6.240300655364990234e+00 1.812976360321044922e+00 3.927910625934600830e-01 6.617302298545837402e-01 9.761721491813659668e-01
8.814000000000000000e+03 2.605123901367187500e+01 6.284544944763183594e+00 9.411296844482421875e-01 -6.735208909958600998e-03 2.803183495998382568e-01 3.422851860523223877e-01
8.815000000000000000e+03 2.451865959167480469e+01 5.238244056701660156e+00 1.040804266929626465e+00 -1.805035211145877838e-02 3.068261444568634033e-01 3.653466999530792236e-01
8.816000000000000000e+03 2.402710723876953125e+01 5.146443367004394531e+00 -9.221023917198181152e-01 -1.008039355278015137e+00 -5.790424942970275879e-01 -8.899586200714111328e-01
8.817000000000000000e+03 2.145628166198730469e+01 3.227499723434448242e+00 2.267383486032485962e-01 -3.044998049736022949e-01 -2.332843281328678131e-02 -2.203828096389770508e-01
8.818000000000000000e+03 2.426770591735839844e+01 5.176071166992187500e+00 4.380488395690917969e-01 -5.144695043563842773e-01 -2.292620949447154999e-02 -1.743527054786682129e-01
8.819000000000000000e+03 2.872770690917968750e+01 5.972564697265625000e+00 -1.752469897270202637e+00 -1.362621307373046875e+00 -9.345273375511169434e-01 -1.146018266677856445e+00
8.820000000000000000e+03 2.875193977355957031e+01 5.821742534637451172e+00 -1.727274417877197266e+00 -1.277571678161621094e+00 -9.014537930488586426e-01 -1.096391081809997559e+00
8.821000000000000000e+03 2.641004180908203125e+01 4.976247310638427734e+00 -2.305329561233520508e+00 -9.234289526939392090e-01 -9.686275720596313477e-01 -1.422653675079345703e+00
8.822000000000000000e+03 2.677645301818847656e+01 4.986546516418457031e+00 -2.211300373077392578e+00 -9.389784932136535645e-01 -9.450836181640625000e-01 -1.366497874259948730e+00
8.823000000000000000e+03 2.664482498168945312e+01 5.213761329650878906e+00 -2.327706813812255859e+00 -9.397344589233398438e-01 -9.802323579788208008e-01 -1.453675508499145508e+00
8.824000000000000000e+03 2.723494148254394531e+01 7.353139877319335938e+00 -9.855943918228149414e-01 -5.031442642211914062e-01 -4.466215968132019043e-01 -8.249736428260803223e-01
8.825000000000000000e+03 2.647268295288085938e+01 6.952697277069091797e+00 -1.841822743415832520e+00 -1.215276718139648438e+00 -9.171298146247863770e-01 -1.364611029624938965e+00
8.826000000000000000e+03 2.488064193725585938e+01 5.748773574829101562e+00 -9.247956275939941406e-01 -7.436884045600891113e-01 -5.005452036857604980e-01 -8.352722525596618652e-01
8.827000000000000000e+03 2.606977462768554688e+01 6.554043769836425781e+00 -1.032664775848388672e+00 -7.099919319152832031e-01 -5.227969884872436523e-01 -7.340234518051147461e-01
8.828000000000000000e+03 1.970203399658203125e+01 9.767117500305175781e-01 -1.400872468948364258e+00 -1.269885301589965820e+00 -8.012273311614990234e-01 -1.661273956298828125e+00
8.829000000000000000e+03 2.451392555236816406e+01 4.150055408477783203e+00 -2.675099134445190430e+00 -9.233641624450683594e-01 -1.079538941383361816e+00 -1.569344878196716309e+00
8.830000000000000000e+03 2.222106933593750000e+01 1.953441381454467773e+00 -2.622689247131347656e+00 -8.058145046234130859e-01 -1.028551101684570312e+00 -1.612874746322631836e+00
8.831000000000000000e+03 2.499477386474609375e+01 4.285282135009765625e+00 -2.573744058609008789e+00 -8.844832777976989746e-01 -1.037468194961547852e+00 -1.494442701339721680e+00
8.832000000000000000e+03 2.772571945190429688e+01 5.587497234344482422e+00 -2.076655626296997070e+00 -1.198096871376037598e+00 -9.824257493019104004e-01 -1.416496634483337402e+00
8.833000000000000000e+03 2.786710739135742188e+01 5.700411319732666016e+00 -2.074337720870971680e+00 -1.234848141670227051e+00 -9.927557706832885742e-01 -1.418842196464538574e+00
8.834000000000000000e+03 2.761308097839355469e+01 6.036466598510742188e+00 -2.384081125259399414e+00 -1.210760951042175293e+00 -1.078452587127685547e+00 -1.646578192710876465e+00
8.835000000000000000e+03 2.683716011047363281e+01 5.168988704681396484e+00 -2.240670919418334961e+00 -9.923983812332153320e-01 -9.699208140373229980e-01 -1.419378757476806641e+00
8.836000000000000000e+03 2.701836776733398438e+01 5.092906475067138672e+00 -2.172771692276000977e+00 -9.774550199508666992e-01 -9.450680017471313477e-01 -1.380091071128845215e+00
8.837000000000000000e+03 2.715846061706542969e+01 4.960176944732666016e+00 -2.098383665084838867e+00 -9.516844153404235840e-01 -9.150204062461853027e-01 -1.288257837295532227e+00
8.838000000000000000e+03 2.239185333251953125e+01 1.953694581985473633e+00 -2.560360431671142578e+00 -6.840571761131286621e-01 -9.733252525329589844e-01 -1.533065438270568848e+00
8.839000000000000000e+03 2.253596496582031250e+01 2.679699420928955078e+00 -3.022851228713989258e+00 -1.002451062202453613e+00 -1.207590699195861816e+00 -1.759467720985412598e+00
8.840000000000000000e+03 2.059241485595703125e+01 1.542418837547302246e+00 -2.320208787918090820e+00 -1.310632109642028809e+00 -1.089252233505249023e+00 -1.971811413764953613e+00
8.841000000000000000e+03 1.705965614318847656e+01 -1.238278031349182129e+00 -1.956781625747680664e+00 -5.771291851997375488e-01 -7.601732611656188965e-01 -8.160633444786071777e-01
8.842000000000000000e+03 1.735778236389160156e+01 -7.449176907539367676e-01 -1.916002392768859863e+00 -5.163292884826660156e-01 -7.296994924545288086e-01 -9.458646178245544434e-01
8.843000000000000000e+03 1.751641082763671875e+01 -6.253772377967834473e-01 -1.905030727386474609e+00 -5.605069994926452637e-01 -7.396613359451293945e-01 -9.619185328483581543e-01
8.844000000000000000e+03 1.767763137817382812e+01 -5.077363848686218262e-01 -1.842628955841064453e+00 -5.493960380554199219e-01 -7.176074981689453125e-01 -9.890760183334350586e-01
8.845000000000000000e+03 1.858691024780273438e+01 -9.391445666551589966e-02 -1.942961454391479492e+00 -9.351711869239807129e-01 -8.634397983551025391e-01 -1.126446604728698730e+00
8.846000000000000000e+03 1.897811508178710938e+01 2.083240002393722534e-01 -1.610581517219543457e+00 -1.133728384971618652e+00 -8.232929706573486328e-01 -1.144050955772399902e+00
8.847000000000000000e+03 1.828685569763183594e+01 2.713023126125335693e-01 -1.512674212455749512e+00 -5.500699281692504883e-01 -6.188232302665710449e-01 -9.084237217903137207e-01
8.848000000000000000e+03 2.410520935058593750e+01 3.153629302978515625e+00 -2.583411693572998047e+00 -6.929153800010681152e-01 -9.828981757164001465e-01 -1.341111898422241211e+00
8.849000000000000000e+03 2.391318130493164062e+01 3.180729627609252930e+00 -2.679689884185791016e+00 -7.641683220863342285e-01 -1.033157467842102051e+00 -1.419314861297607422e+00
8.850000000000000000e+03 2.399816131591796875e+01 3.385308742523193359e+00 -2.718569517135620117e+00 -8.205362558364868164e-01 -1.061731815338134766e+00 -1.497231483459472656e+00
8.851000000000000000e+03 2.488282585144042969e+01 3.632354021072387695e+00 -2.463064432144165039e+00 -7.482111454010009766e-01 -9.633827209472656250e-01 -1.310237526893615723e+00
8.852000000000000000e+03 2.444554328918457031e+01 3.841858625411987305e+00 -2.618821620941162109e+00 -8.588303327560424805e-01 -1.043295621871948242e+00 -1.485019445419311523e+00
8.853000000000000000e+03 2.601859092712402344e+01 4.594632148742675781e+00 -2.350028753280639648e+00 -8.502026200294494629e-01 -9.600694179534912109e-01 -1.364682674407958984e+00
8.854000000000000000e+03 2.623686027526855469e+01 4.541726589202880859e+00 -2.250362157821655273e+00 -8.356313705444335938e-01 -9.257980585098266602e-01 -1.310863852500915527e+00
8.855000000000000000e+03 1.928930854797363281e+01 8.976932168006896973e-01 -1.431861281394958496e+00 -1.005511641502380371e+00 -7.312119007110595703e-01 -1.307284593582153320e+00
8.856000000000000000e+03 1.927956962585449219e+01 6.948968768119812012e-01 -1.787384271621704102e+00 -1.235852360725402832e+00 -9.069709777832031250e-01 -1.397727727890014648e+00
8.857000000000000000e+03 1.991943740844726562e+01 6.985806822776794434e-01 -1.767481327056884766e+00 -1.990142583847045898e+00 -1.127287149429321289e+00 -1.709367156028747559e+00
8.858000000000000000e+03 2.460322952270507812e+01 3.955327272415161133e+00 -2.617165803909301758e+00 -8.709255456924438477e-01 -1.046427369117736816e+00 -1.508674621582031250e+00
8.859000000000000000e+03 2.382778739929199219e+01 3.521178722381591797e+00 -2.793573856353759766e+00 -9.014261364936828613e-01 -1.108500003814697266e+00 -1.569261550903320312e+00
8.860000000000000000e+03 2.198137664794921875e+01 2.655979156494140625e+00 -3.237848520278930664e+00 -1.189981222152709961e+00 -1.328348875045776367e+00 -1.951884031295776367e+00
8.861000000000000000e+03 2.185815811157226562e+01 2.212323427200317383e+00 -2.909526109695434570e+00 -1.039764404296875000e+00 -1.184787154197692871e+00 -1.841597199440002441e+00
8.862000000000000000e+03 2.198051834106445312e+01 2.364504098892211914e+00 -3.021260976791381836e+00 -1.062863111495971680e+00 -1.225237250328063965e+00 -1.843140721321105957e+00
8.863000000000000000e+03 2.148756027221679688e+01 1.866619586944580078e+00 -2.712332725524902344e+00 -1.027882695198059082e+00 -1.122064709663391113e+00 -1.889635086059570312e+00
8.864000000000000000e+03 2.106024551391601562e+01 1.529556989669799805e+00 -2.384967803955078125e+00 -1.150259256362915039e+00 -1.060568094253540039e+00 -2.009743452072143555e+00
8.865000000000000000e+03 2.125181007385253906e+01 1.653330326080322266e+00 -2.517029762268066406e+00 -1.226621270179748535e+00 -1.123095273971557617e+00 -1.954514503479003906e+00
8.866000000000000000e+03 2.094637107849121094e+01 1.918027877807617188e+00 -2.808867454528808594e+00 -1.330317616462707520e+00 -1.241755485534667969e+00 -1.994777441024780273e+00
8.867000000000000000e+03 2.076650810241699219e+01 1.574730277061462402e+00 -2.319399833679199219e+00 -1.293527126312255859e+00 -1.083878040313720703e+00 -1.922242879867553711e+00
8.868000000000000000e+03 2.587970352172851562e+01 4.881956577301025391e+00 -2.454051017761230469e+00 -9.051662087440490723e-01 -1.007765173912048340e+00 -1.473537206649780273e+00
8.869000000000000000e+03 1.765451049804687500e+01 -1.619453579187393188e-01 -1.633417963981628418e+00 -5.062603354454040527e-01 -6.419034600257873535e-01 -9.011616110801696777e-01
8.870000000000000000e+03 1.812890052795410156e+01 -1.340038925409317017e-01 -1.775431871414184570e+00 -6.473562121391296387e-01 -7.268364429473876953e-01 -9.757328033447265625e-01
8.871000000000000000e+03 1.826277923583984375e+01 -2.977999858558177948e-02 -1.695786714553833008e+00 -6.204292178153991699e-01 -6.948648095130920410e-01 -9.834314584732055664e-01
8.872000000000000000e+03 1.880193901062011719e+01 6.758607029914855957e-01 -1.325115919113159180e+00 -7.672233581542968750e-01 -6.277017593383789062e-01 -9.385506510734558105e-01
8.873000000000000000e+03 1.894854354858398438e+01 7.549192905426025391e-01 -1.353237509727478027e+00 -8.418458104133605957e-01 -6.585249900817871094e-01 -1.046085357666015625e+00
8.874000000000000000e+03 2.678519821166992188e+01 7.062376022338867188e+00 -1.249209403991699219e+00 -7.828403711318969727e-01 -6.096149086952209473e-01 -9.020209312438964844e-01
8.875000000000000000e+03 2.690731239318847656e+01 6.818960189819335938e+00 7.848724126815795898e-01 3.907715976238250732e-01 3.526932001113891602e-01 5.059694647789001465e-01
8.876000000000000000e+03 2.660069084167480469e+01 7.038652420043945312e+00 -1.862044572830200195e+00 -1.181068658828735352e+00 -9.129339456558227539e-01 -1.323080539703369141e+00
8.877000000000000000e+03 2.659112930297851562e+01 6.734062194824218750e+00 3.698008656501770020e-01 -1.272378563880920410e-01 7.276890426874160767e-02 1.568780541419982910e-01
8.878000000000000000e+03 2.661147308349609375e+01 6.894548892974853516e+00 -9.162160158157348633e-01 -6.551127433776855469e-01 -4.713986217975616455e-01 -6.653599143028259277e-01
8.879000000000000000e+03 2.073003196716308594e+01 1.245025277137756348e+00 -2.116113662719726562e+00 -1.162183403968811035e+00 -9.834891557693481445e-01 -2.019806861877441406e+00
8.880000000000000000e+03 2.058207511901855469e+01 1.154570817947387695e+00 -1.998718261718750000e+00 -1.571546196937561035e+00 -1.071079373359680176e+00 -2.140634298324584961e+00
8.881000000000000000e+03 2.174007797241210938e+01 2.035988092422485352e+00 -2.806521177291870117e+00 -1.025112390518188477e+00 -1.149489998817443848e+00 -1.815396189689636230e+00
8.882000000000000000e+03 1.986181449890136719e+01 8.778309226036071777e-01 -1.429902553558349609e+00 -1.796377658843994141e+00 -9.678840637207031250e-01 -1.776208281517028809e+00
8.883000000000000000e+03 1.949866867065429688e+01 5.670157074928283691e-01 -1.430668711662292480e+00 -1.636825680732727051e+00 -9.202482700347900391e-01 -1.451468586921691895e+00
8.884000000000000000e+03 1.954581260681152344e+01 2.329013496637344360e-01 -1.705000162124633789e+00 -1.906577587127685547e+00 -1.083473324775695801e+00 -1.385412573814392090e+00
8.885000000000000000e+03 2.056551742553710938e+01 1.350121736526489258e+00 -2.022316217422485352e+00 -1.626279473304748535e+00 -1.094578623771667480e+00 -1.998357653617858887e+00
8.886000000000000000e+03 2.213665390014648438e+01 2.220813751220703125e+00 -2.820647239685058594e+00 -9.312812685966491699e-01 -1.125578522682189941e+00 -1.714869737625122070e+00
8.887000000000000000e+03 2.759283638000488281e+01 5.736433982849121094e+00 -2.236956596374511719e+00 -1.168128013610839844e+00 -1.021525382995605469e+00 -1.497887492179870605e+00
8.888000000000000000e+03 1.647349929809570312e+01 -1.049277424812316895e+00 -2.400508880615234375e+00 -5.124776959419250488e-01 -8.738960027694702148e-01 -6.752043366432189941e-01
8.889000000000000000e+03 2.371811103820800781e+01 3.334536314010620117e+00 -2.785108089447021484e+00 -8.575114011764526367e-01 -1.092785835266113281e+00 -1.550543665885925293e+00
8.890000000000000000e+03 1.918312644958496094e+01 5.033789277076721191e-01 -1.356433868408203125e+00 -1.289558649063110352e+00 -7.937977313995361328e-01 -1.210808515548706055e+00
8.891000000000000000e+03 2.467941284179687500e+01 3.614620447158813477e+00 -2.518445968627929688e+00 -7.275249361991882324e-01 -9.737912416458129883e-01 -1.352834582328796387e+00
8.892000000000000000e+03 1.937634086608886719e+01 4.028036594390869141e-01 -1.607837677001953125e+00 -1.572382330894470215e+00 -9.540659785270690918e-01 -1.435340404510498047e+00
8.893000000000000000e+03 1.885597801208496094e+01 4.195890128612518311e-01 -1.582310795783996582e+00 -1.074796199798583984e+00 -7.971320748329162598e-01 -1.167841911315917969e+00
8.894000000000000000e+03 2.240024375915527344e+01 2.218441963195800781e+00 -2.737314462661743164e+00 -8.200529217720031738e-01 -1.067210197448730469e+00 -1.610351204872131348e+00
8.895000000000000000e+03 2.447861862182617188e+01 3.615789175033569336e+00 -2.635492563247680664e+00 -7.872236371040344238e-01 -1.026814818382263184e+00 -1.426965236663818359e+00
8.896000000000000000e+03 2.235301589965820312e+01 2.481110811233520508e+00 -2.944044113159179688e+00 -9.574118852615356445e-01 -1.170436739921569824e+00 -1.726744771003723145e+00
8.897000000000000000e+03 2.166055107116699219e+01 1.858121275901794434e+00 -2.681183576583862305e+00 -1.043790936470031738e+00 -1.117492318153381348e+00 -1.839497804641723633e+00
8.898000000000000000e+03 2.237258148193359375e+01 2.643537998199462891e+00 -3.027263164520263672e+00 -9.978225827217102051e-01 -1.207525730133056641e+00 -1.803985834121704102e+00
8.899000000000000000e+03 2.353147506713867188e+01 2.949220895767211914e+00 -2.744694232940673828e+00 -7.808510661125183105e-01 -1.057663559913635254e+00 -1.492197632789611816e+00
8.900000000000000000e+03 2.845718574523925781e+01 7.030216693878173828e+00 -4.854742050170898438e+00 -2.428897619247436523e+00 -2.185091972351074219e+00 -3.448428869247436523e+00
8.901000000000000000e+03 2.829931449890136719e+01 6.909000873565673828e+00 -3.723332166671752930e+00 -1.826765060424804688e+00 -1.665029168128967285e+00 -2.575586080551147461e+00
8.902000000000000000e+03 2.814144515991210938e+01 6.787785530090332031e+00 -3.269306898117065430e+00 -1.501713275909423828e+00 -1.431306004524230957e+00 -2.201571226119995117e+00
8.903000000000000000e+03 2.798357582092285156e+01 6.666570186614990234e+00 -2.995402097702026367e+00 -1.352937817573547363e+00 -1.304502010345458984e+00 -2.017276048660278320e+00
8.904000000000000000e+03 2.849719047546386719e+01 6.987525463104248047e+00 -3.723600149154663086e+00 -2.834152221679687500e+00 -1.967325687408447266e+00 -3.256417512893676758e+00
8.905000000000000000e+03 2.836599349975585938e+01 6.837849140167236328e+00 -3.160210132598876953e+00 -2.233243942260742188e+00 -1.618036150932312012e+00 -2.465000629425048828e+00
8.906000000000000000e+03 2.823479461669921875e+01 6.688172817230224609e+00 -2.840852975845336914e+00 -1.794464349746704102e+00 -1.390595197677612305e+00 -2.191314935684204102e+00
8.907000000000000000e+03 2.810359573364257812e+01 6.538496494293212891e+00 -2.655823945999145508e+00 -1.587305188179016113e+00 -1.272938728332519531e+00 -1.970638632774353027e+00
8.908000000000000000e+03 2.854475593566894531e+01 6.953455924987792969e+00 -2.941461086273193359e+00 -3.121182918548583984e+00 -1.818793177604675293e+00 -2.859704017639160156e+00
8.909000000000000000e+03 2.844526672363281250e+01 6.781066894531250000e+00 -2.698953390121459961e+00 -2.367501735687255859e+00 -1.519936561584472656e+00 -2.224719285964965820e+00
8.910000000000000000e+03 2.834577941894531250e+01 6.608678340911865234e+00 -2.450938940048217773e+00 -2.000726699829101562e+00 -1.335499763488769531e+00 -1.990796923637390137e+00
8.911000000000000000e+03 2.824629020690917969e+01 6.436289310455322266e+00 -2.352223396301269531e+00 -1.734373092651367188e+00 -1.225978970527648926e+00 -1.835717678070068359e+00
8.912000000000000000e+03 2.859805107116699219e+01 6.929316997528076172e+00 -2.466695308685302734e+00 -3.138499736785888672e+00 -1.681558489799499512e+00 -2.350784301757812500e+00
8.913000000000000000e+03 2.853409385681152344e+01 6.740835666656494141e+00 -2.347413063049316406e+00 -2.355890750885009766e+00 -1.410991191864013672e+00 -1.943565368652343750e+00
8.914000000000000000e+03 2.847013473510742188e+01 6.552354335784912109e+00 -2.208601236343383789e+00 -2.019178628921508789e+00 -1.268333911895751953e+00 -1.748489618301391602e+00
8.915000000000000000e+03 2.840617561340332031e+01 6.363872528076171875e+00 -2.078166007995605469e+00 -1.781792640686035156e+00 -1.157987594604492188e+00 -1.610894322395324707e+00
8.916000000000000000e+03 2.865503120422363281e+01 6.916035652160644531e+00 -2.216055393218994141e+00 -2.848544597625732422e+00 -1.519379973411560059e+00 -1.888737797737121582e+00
8.917000000000000000e+03 2.862905883789062500e+01 6.718699932098388672e+00 -2.182024478912353516e+00 -2.210763216018676758e+00 -1.317836284637451172e+00 -1.689914822578430176e+00
8.918000000000000000e+03 2.860308647155761719e+01 6.521364212036132812e+00 -2.004815578460693359e+00 -1.904194951057434082e+00 -1.172703146934509277e+00 -1.514854073524475098e+00
8.919000000000000000e+03 2.857711601257324219e+01 6.324028491973876953e+00 -1.961615920066833496e+00 -1.706085324287414551e+00 -1.100310325622558594e+00 -1.415995001792907715e+00
8.920000000000000000e+03 2.871350669860839844e+01 6.914121627807617188e+00 -2.237009763717651367e+00 -2.381185054779052734e+00 -1.385458350181579590e+00 -1.620627880096435547e+00
8.921000000000000000e+03 2.872651863098144531e+01 6.715509891510009766e+00 -2.029804706573486328e+00 -1.936610221862792969e+00 -1.189924478530883789e+00 -1.507109284400939941e+00
8.922000000000000000e+03 2.873953056335449219e+01 6.516898155212402344e+00 -1.954180598258972168e+00 -1.718964695930480957e+00 -1.101943612098693848e+00 -1.369670033454895020e+00
8.923000000000000000e+03 2.875254249572753906e+01 6.318286418914794922e+00 -1.828947544097900391e+00 -1.528000473976135254e+00 -1.007084369659423828e+00 -1.243280410766601562e+00
8.924000000000000000e+03 2.877123260498046875e+01 6.923648357391357422e+00 -2.202811002731323242e+00 -1.815495848655700684e+00 -1.205492019653320312e+00 -1.592100381851196289e+00
8.925000000000000000e+03 2.882272911071777344e+01 6.731388092041015625e+00 -2.006744623184204102e+00 -1.659750342369079590e+00 -1.099948406219482422e+00 -1.458513855934143066e+00
8.926000000000000000e+03 2.887422561645507812e+01 6.539127349853515625e+00 -1.849353909492492676e+00 -1.459508419036865234e+00 -9.926586747169494629e-01 -1.294646143913269043e+00
8.927000000000000000e+03 2.892572212219238281e+01 6.346867084503173828e+00 -1.793620586395263672e+00 -1.359738230705261230e+00 -9.460076093673706055e-01 -1.190616488456726074e+00
8.928000000000000000e+03 2.882599258422851562e+01 6.944250583648681641e+00 -2.169185161590576172e+00 -1.410578370094299316e+00 -1.073929071426391602e+00 -1.814520835876464844e+00
8.929000000000000000e+03 2.891399574279785156e+01 6.765724658966064453e+00 -1.849031209945678711e+00 -1.365307450294494629e+00 -9.643015861511230469e-01 -1.495636224746704102e+00
8.930000000000000000e+03 2.900199890136718750e+01 6.587198734283447266e+00 -1.821624755859375000e+00 -1.261393666267395020e+00 -9.249055385589599609e-01 -1.335972189903259277e+00
8.931000000000000000e+03 2.909000015258789062e+01 6.408672809600830078e+00 -1.683214902877807617e+00 -1.154445886611938477e+00 -8.512982130050659180e-01 -1.210499048233032227e+00
8.932000000000000000e+03 2.887568473815917969e+01 6.975136280059814453e+00 -1.841672658920288086e+00 -1.145910382270812988e+00 -8.962749242782592773e-01 -2.105720758438110352e+00
8.933000000000000000e+03 2.899681282043457031e+01 6.817201137542724609e+00 -1.701470613479614258e+00 -1.213405370712280273e+00 -8.744627833366394043e-01 -1.661774396896362305e+00
8.934000000000000000e+03 2.911794281005859375e+01 6.659265518188476562e+00 -1.623798131942749023e+00 -1.097499132156372070e+00 -8.163892030715942383e-01 -1.399130940437316895e+00
8.935000000000000000e+03 2.923907279968261719e+01 6.501330375671386719e+00 -1.650930404663085938e+00 -1.028708696365356445e+00 -8.038917183876037598e-01 -1.298178791999816895e+00
8.936000000000000000e+03 2.891839790344238281e+01 7.015120029449462891e+00 -1.319632887840270996e+00 -1.206962108612060547e+00 -7.579784989356994629e-01 -2.406688451766967773e+00
8.937000000000000000e+03 2.906800079345703125e+01 6.883840560913085938e+00 -1.417750358581542969e+00 -1.105028510093688965e+00 -7.568336725234985352e-01 -1.792312860488891602e+00
8.938000000000000000e+03 2.921760559082031250e+01 6.752560615539550781e+00 -1.393094658851623535e+00 -1.079745531082153320e+00 -7.418520450592041016e-01 -1.566528201103210449e+00
8.939000000000000000e+03 2.936721229553222656e+01 6.621281147003173828e+00 -1.410205125808715820e+00 -9.742820858955383301e-01 -7.153461575508117676e-01 -1.326019406318664551e+00
8.940000000000000000e+03 2.895249176025390625e+01 7.062665939331054688e+00 -6.858951449394226074e-01 -1.380220055580139160e+00 -6.198346018791198730e-01 -2.554762601852416992e+00
8.941000000000000000e+03 2.912482643127441406e+01 6.963083744049072266e+00 -9.861088395118713379e-01 -1.174357771873474121e+00 -6.481400132179260254e-01 -1.890351772308349609e+00
8.942000000000000000e+03 2.929716110229492188e+01 6.863501071929931641e+00 -1.152522802352905273e+00 -1.076394319534301758e+00 -6.686751842498779297e-01 -1.672534346580505371e+00
8.943000000000000000e+03 2.946949577331542969e+01 6.763918876647949219e+00 -1.051786422729492188e+00 -1.076758146286010742e+00 -6.385633349418640137e-01 -1.469630360603332520e+00
8.944000000000000000e+03 2.897665977478027344e+01 7.115948200225830078e+00 6.866513937711715698e-02 -1.628134250640869141e+00 -4.678407311439514160e-01 -2.447451591491699219e+00
8.945000000000000000e+03 2.916510581970214844e+01 7.051887512207031250e+00 -5.694555044174194336e-01 -1.316487431526184082e+00 -5.657828450202941895e-01 -1.943700909614562988e+00
8.946000000000000000e+03 2.935355186462402344e+01 6.987826824188232422e+00 -7.557561397552490234e-01 -1.159001827239990234e+00 -5.744273662567138672e-01 -1.648621201515197754e+00
8.947000000000000000e+03 2.954199981689453125e+01 6.923766136169433594e+00 -9.047266840934753418e-01 -1.145083189010620117e+00 -6.149429678916931152e-01 -1.590653419494628906e+00
8.948000000000000000e+03 2.898997116088867188e+01 7.172920703887939453e+00 6.731346845626831055e-01 -1.887808442115783691e+00 -3.644021451473236084e-01 -2.208121776580810547e+00
8.949000000000000000e+03 2.918729400634765625e+01 7.146841526031494141e+00 -7.370891422033309937e-02 -1.428714275360107422e+00 -4.507269561290740967e-01 -1.812181115150451660e+00
8.950000000000000000e+03 2.938461494445800781e+01 7.120762348175048828e+00 -3.983298540115356445e-01 -1.343247652053833008e+00 -5.224732756614685059e-01 -1.604802608489990234e+00
8.951000000000000000e+03 2.958193588256835938e+01 7.094683170318603516e+00 -6.471875309944152832e-01 -1.167967438697814941e+00 -5.445464849472045898e-01 -1.431830286979675293e+00
8.952000000000000000e+03 2.899191665649414062e+01 7.231395721435546875e+00 1.188537955284118652e+00 -1.924604773521423340e+00 -2.208200246095657349e-01 -1.790438532829284668e+00
8.953000000000000000e+03 2.919053649902343750e+01 7.244299411773681641e+00 3.348090648651123047e-01 -1.616857767105102539e+00 -3.846146166324615479e-01 -1.619952321052551270e+00
8.954000000000000000e+03 2.938915443420410156e+01 7.257203578948974609e+00 -4.030869528651237488e-02 -1.415994405746459961e+00 -4.368909299373626709e-01 -1.404743194580078125e+00
8.955000000000000000e+03 2.958777427673339844e+01 7.270107746124267578e+00 -3.026898503303527832e-01 -1.351573467254638672e+00 -4.962789714336395264e-01 -1.246677517890930176e+00
8.956000000000000000e+03 2.898242187500000000e+01 7.289126873016357422e+00 1.496085405349731445e+00 -1.951963543891906738e+00 -1.367634683847427368e-01 -1.390787720680236816e+00
8.957000000000000000e+03 2.917471122741699219e+01 7.340518474578857422e+00 7.099571228027343750e-01 -1.618736743927001953e+00 -2.726339101791381836e-01 -1.282333016395568848e+00
8.958000000000000000e+03 2.936699867248535156e+01 7.391910076141357422e+00 2.080231010913848877e-01 -1.538177251815795898e+00 -3.990462422370910645e-01 -1.155750155448913574e+00
8.959000000000000000e+03 2.955928802490234375e+01 7.443301677703857422e+00 -3.295174241065979004e-02 -1.395882010459899902e+00 -4.286501407623291016e-01 -1.047530412673950195e+00
8.960000000000000000e+03 2.896185111999511719e+01 7.343897819519042969e+00 1.721511244773864746e+00 -1.699336528778076172e+00 6.652412004768848419e-03 -9.866080284118652344e-01
8.961000000000000000e+03 2.914042282104492188e+01 7.431803703308105469e+00 9.383148550987243652e-01 -1.689305663108825684e+00 -2.252972424030303955e-01 -9.267524480819702148e-01
8.962000000000000000e+03 2.931899642944335938e+01 7.519709587097167969e+00 4.054446220397949219e-01 -1.431681632995605469e+00 -3.078711032867431641e-01 -8.016148805618286133e-01
8.963000000000000000e+03 2.949757194519042969e+01 7.607614994049072266e+00 -2.943789586424827576e-02 -1.399520516395568848e+00 -4.286875128746032715e-01 -8.211793303489685059e-01
8.964000000000000000e+03 2.893099212646484375e+01 7.393605232238769531e+00 1.857979893684387207e+00 -1.616042852401733398e+00 7.258111983537673950e-02 -6.475657224655151367e-01
8.965000000000000000e+03 2.908899307250976562e+01 7.514648914337158203e+00 1.074289321899414062e+00 -1.434777021408081055e+00 -1.081463247537612915e-01 -5.305699110031127930e-01
8.966000000000000000e+03 2.924699401855468750e+01 7.635693073272705078e+00 4.590345323085784912e-01 -1.426981210708618164e+00 -2.903839945793151855e-01 -4.740067720413208008e-01
8.967000000000000000e+03 2.940499496459960938e+01 7.756736755371093750e+00 -5.444299057126045227e-02 -1.144935727119445801e+00 -3.598136007785797119e-01 -4.180534482002258301e-01
8.968000000000000000e+03 2.889103126525878906e+01 7.436339855194091797e+00 2.027403354644775391e+00 -1.246328115463256836e+00 2.343225628137588501e-01 -3.757395744323730469e-01
8.969000000000000000e+03 2.902239227294921875e+01 7.585873603820800781e+00 1.061944246292114258e+00 -1.330948591232299805e+00 -8.070129901170730591e-02 -1.214710995554924011e-01
8.970000000000000000e+03 2.915375137329101562e+01 7.735406875610351562e+00 3.786503374576568604e-01 -1.054046273231506348e+00 -2.026187926530838013e-01 -1.966070234775543213e-01
8.971000000000000000e+03 2.928511238098144531e+01 7.884940624237060547e+00 3.180603031069040298e-03 -1.170772790908813477e+00 -3.502776622772216797e-01 -1.159965172410011292e-01
8.972000000000000000e+03 2.884350395202636719e+01 7.470460414886474609e+00 2.082795619964599609e+00 -1.107828497886657715e+00 2.924901545047760010e-01 -4.422607365995645523e-03
8.973000000000000000e+03 2.894317817687988281e+01 7.642741680145263672e+00 1.021516203880310059e+00 -8.693803548812866211e-01 4.564075171947479248e-02 1.141178905963897705e-01
8.974000000000000000e+03 2.904285430908203125e+01 7.815021991729736328e+00 1.705971956253051758e-01 -8.810334801673889160e-01 -2.131308764219284058e-01 1.392786502838134766e-01
8.975000000000000000e+03 2.914253044128417969e+01 7.987303256988525391e+00 -1.609359234571456909e-01 -7.891740798950195312e-01 -2.850330173969268799e-01 -1.549838483333587646e-01
8.976000000000000000e+03 2.879023361206054688e+01 7.494657516479492188e+00 2.255718708038330078e+00 -7.341901659965515137e-01 4.564585685729980469e-01 2.810553014278411865e-01
8.977000000000000000e+03 2.885439682006835938e+01 7.683069229125976562e+00 7.663889527320861816e-01 -4.901556670665740967e-01 8.286999911069869995e-02 3.994995653629302979e-01
8.978000000000000000e+03 2.891856002807617188e+01 7.871481418609619141e+00 2.218249067664146423e-02 -4.716869592666625977e-01 -1.348513364791870117e-01 1.767952442169189453e-01
8.979000000000000000e+03 2.898272323608398438e+01 8.059893608093261719e+00 -7.014635205268859863e-01 -5.272967219352722168e-01 -3.686280548572540283e-01 -5.524221435189247131e-02
8.980000000000000000e+03 2.873326873779296875e+01 7.508000850677490234e+00 2.256258249282836914e+00 -2.955787777900695801e-01 5.882038474082946777e-01 5.843222141265869141e-01
8.981000000000000000e+03 2.875945472717285156e+01 7.705308437347412109e+00 5.939736366271972656e-01 -5.132849887013435364e-02 1.627935469150543213e-01 5.018576383590698242e-01
8.982000000000000000e+03 2.878564071655273438e+01 7.902615547180175781e+00 -2.907866537570953369e-01 -6.440114229917526245e-02 -1.065563410520553589e-01 2.080143988132476807e-01
8.983000000000000000e+03 2.881182670593261719e+01 8.099923133850097656e+00 -1.067215561866760254e+00 -1.300212591886520386e-01 -3.591710627079010010e-01 -8.545120805501937866e-02
8.984000000000000000e+03 2.867479515075683594e+01 7.509978294372558594e+00 2.046368598937988281e+00 1.922324448823928833e-01 6.715803146362304688e-01 8.166276216506958008e-01
8.985000000000000000e+03 2.866199874877929688e+01 7.708603858947753906e+00 6.025333404541015625e-01 4.116581380367279053e-01 3.042574524879455566e-01 4.856660962104797363e-01
8.986000000000000000e+03 2.864920234680175781e+01 7.907229900360107422e+00 -6.828679442405700684e-01 2.851692736148834229e-01 -1.193096041679382324e-01 1.587014049291610718e-01
8.987000000000000000e+03 2.863640785217285156e+01 8.105855941772460938e+00 -1.207617759704589844e+00 1.812994480133056641e-01 -3.078955113887786865e-01 -1.598800718784332275e-01
8.988000000000000000e+03 2.861705780029296875e+01 7.500514030456542969e+00 2.177006959915161133e+00 8.384876847267150879e-01 9.046484231948852539e-01 9.358554482460021973e-01
8.989000000000000000e+03 2.856577110290527344e+01 7.692830562591552734e+00 3.404747843742370605e-01 7.472673058509826660e-01 3.263226151466369629e-01 3.272975385189056396e-01
8.990000000000000000e+03 2.851448440551757812e+01 7.885146617889404297e+00 -5.240459442138671875e-01 6.145453453063964844e-01 2.714982442557811737e-02 1.034556403756141663e-01
8.991000000000000000e+03 2.846319770812988281e+01 8.077463150024414062e+00 -1.697965025901794434e+00 2.407658696174621582e-01 -4.371597468852996826e-01 -4.153863489627838135e-01
8.992000000000000000e+03 2.856227684020996094e+01 7.479971885681152344e+00 2.128787517547607422e+00 1.244110465049743652e+00 1.011869430541992188e+00 7.396380901336669922e-01
8.993000000000000000e+03 2.847446632385253906e+01 7.658593177795410156e+00 5.530545711517333984e-01 1.093470215797424316e+00 4.939574599266052246e-01 2.957406044006347656e-01
8.994000000000000000e+03 2.838665962219238281e+01 7.837214469909667969e+00 -5.675506591796875000e-01 6.999934911727905273e-01 3.973285853862762451e-02 -1.655543148517608643e-01
8.995000000000000000e+03 2.829885101318359375e+01 8.015835762023925781e+00 -1.555081486701965332e+00 6.355027556419372559e-01 -2.758736312389373779e-01 -4.566387236118316650e-01
8.996000000000000000e+03 2.851255226135253906e+01 7.449139595031738281e+00 2.291722297668457031e+00 1.601364016532897949e+00 1.167925953865051270e+00 5.276183485984802246e-01
8.997000000000000000e+03 2.839159393310546875e+01 7.607206821441650391e+00 9.707088470458984375e-01 1.168024539947509766e+00 6.416200399398803711e-01 2.004200220108032227e-01
8.998000000000000000e+03 2.827063560485839844e+01 7.765273571014404297e+00 -4.597217440605163574e-01 8.812983632087707520e-01 1.264729797840118408e-01 -2.850210070610046387e-01
8.999000000000000000e+03 2.814967727661132812e+01 7.923340797424316406e+00 -1.160299062728881836e+00 5.480415225028991699e-01 -1.836772710084915161e-01 -4.699301421642303467e-01
9.000000000000000000e+03 2.846979522705078125e+01 7.409202575683593750e+00 2.999347448348999023e+00 1.727867484092712402e+00 1.418164491653442383e+00 3.909894824028015137e-01
9.001000000000000000e+03 2.832033348083496094e+01 7.540644645690917969e+00 1.342801332473754883e+00 1.100885868072509766e+00 7.331061959266662598e-01 9.904889017343521118e-02
9.002000000000000000e+03 2.817087173461914062e+01 7.672087192535400391e+00 1.186505556106567383e-01 1.003455996513366699e+00 3.366319835186004639e-01 -1.070623323321342468e-01
9.003000000000000000e+03 2.802140998840332031e+01 7.803529262542724609e+00 -9.509230256080627441e-01 1.757530272006988525e-01 -2.325510084629058838e-01 -6.927545666694641113e-01
9.004000000000000000e+03 2.843564987182617188e+01 7.361693859100341797e+00 3.670866012573242188e+00 1.358571887016296387e+00 1.508831381797790527e+00 2.958770692348480225e-01
9.005000000000000000e+03 2.826342201232910156e+01 7.461463451385498047e+00 2.107005596160888672e+00 1.228646516799926758e+00 1.000695586204528809e+00 3.345165550708770752e-01
9.006000000000000000e+03 2.809119606018066406e+01 7.561233043670654297e+00 7.162351012229919434e-01 7.313566803932189941e-01 4.342775344848632812e-01 -5.815179087221622467e-03
9.007000000000000000e+03 2.791897010803222656e+01 7.661002635955810547e+00 -4.079740643501281738e-01 4.389705061912536621e-01 9.298933669924736023e-03 -5.207574963569641113e-01
9.008000000000000000e+03 2.841142272949218750e+01 7.308437824249267578e+00 4.685739994049072266e+00 1.257445454597473145e+00 1.782955646514892578e+00 6.167175769805908203e-01
9.009000000000000000e+03 2.822304725646972656e+01 7.372703552246093750e+00 2.773780584335327148e+00 9.700422286987304688e-01 1.123146891593933105e+00 6.206020712852478027e-01
9.010000000000000000e+03 2.803466987609863281e+01 7.436968803405761719e+00 1.578380346298217773e+00 8.655960559844970703e-01 7.331929206848144531e-01 3.557600677013397217e-01
9.011000000000000000e+03 2.784629249572753906e+01 7.501234531402587891e+00 3.300437927246093750e-01 4.772519171237945557e-01 2.421887069940567017e-01 -1.067054942250251770e-01
9.012000000000000000e+03 2.839804840087890625e+01 7.251480102539062500e+00 5.458939552307128906e+00 8.585541248321533203e-01 1.895248174667358398e+00 1.209514141082763672e+00
9.013000000000000000e+03 2.820075607299804688e+01 7.277773380279541016e+00 3.588689565658569336e+00 1.121154904365539551e+00 1.412953376770019531e+00 1.125930547714233398e+00
9.014000000000000000e+03 2.800346374511718750e+01 7.304067134857177734e+00 2.365356683731079102e+00 7.792197465896606445e-01 9.433729052543640137e-01 8.127157092094421387e-01
9.015000000000000000e+03 2.780616950988769531e+01 7.330360889434814453e+00 1.423166036605834961e+00 7.629368901252746582e-01 6.558308601379394531e-01 5.487945079803466797e-01
9.016000000000000000e+03 2.839603996276855469e+01 7.193007469177246094e+00 6.096908569335937500e+00 1.010857939720153809e+00 2.132329940795898438e+00 2.038313388824462891e+00
9.017000000000000000e+03 2.819740867614746094e+01 7.180319309234619141e+00 4.220779895782470703e+00 1.090560555458068848e+00 1.593402147293090820e+00 1.717255234718322754e+00
9.018000000000000000e+03 2.799877548217773438e+01 7.167631149291992188e+00 3.241398572921752930e+00 1.085656523704528809e+00 1.298116564750671387e+00 1.442567229270935059e+00
9.019000000000000000e+03 2.780014228820800781e+01 7.154942989349365234e+00 2.440730094909667969e+00 8.207045793533325195e-01 9.784304499626159668e-01 1.195797801017761230e+00
9.020000000000000000e+03 2.840547180175781250e+01 7.135265827178955078e+00 6.274797439575195312e+00 1.257448434829711914e+00 2.259673595428466797e+00 2.947037696838378906e+00
9.021000000000000000e+03 2.821312904357910156e+01 7.084083080291748047e+00 4.800872325897216797e+00 1.440397858619689941e+00 1.872381091117858887e+00 2.311765193939208984e+00
9.022000000000000000e+03 2.802078437805175781e+01 7.032900810241699219e+00 4.038414001464843750e+00 1.242544889450073242e+00 1.584287762641906738e+00 2.130542039871215820e+00
9.023000000000000000e+03 2.782843971252441406e+01 6.981718063354492188e+00 3.404407739639282227e+00 1.239975333213806152e+00 1.393314838409423828e+00 1.961033463478088379e+00
9.024000000000000000e+03 2.842598533630371094e+01 7.080472469329833984e+00 6.207211971282958984e+00 1.987676382064819336e+00 2.458466529846191406e+00 3.614396333694458008e+00
9.025000000000000000e+03 2.824731636047363281e+01 6.992761135101318359e+00 5.240458965301513672e+00 1.731655836105346680e+00 2.091634511947631836e+00 2.933792591094970703e+00
9.026000000000000000e+03 2.806864738464355469e+01 6.905049324035644531e+00 4.653708457946777344e+00 1.673215627670288086e+00 1.898077249526977539e+00 2.768500566482543945e+00
9.027000000000000000e+03 2.788997840881347656e+01 6.817337989807128906e+00 4.468008041381835938e+00 1.562611103057861328e+00 1.809185862541198730e+00 2.672583580017089844e+00
9.028000000000000000e+03 2.861505317687988281e+01 7.151432037353515625e+00 -7.579939842224121094e+00 -3.319605588912963867e+00 -3.269863605499267578e+00 -5.061790466308593750e+00
9.029000000000000000e+03 2.862838935852050781e+01 7.137201309204101562e+00 -6.733692646026611328e+00 -3.872384786605834961e+00 -3.181823253631591797e+00 -5.163455963134765625e+00
9.030000000000000000e+03 2.864424514770507812e+01 7.125844955444335938e+00 -5.558551788330078125e+00 -4.275591850280761719e+00 -2.950243234634399414e+00 -5.054514408111572266e+00
9.031000000000000000e+03 2.866201019287109375e+01 7.117798805236816406e+00 -4.359743118286132812e+00 -4.401398658752441406e+00 -2.628342628479003906e+00 -4.754033088684082031e+00
9.032000000000000000e+03 2.868100357055664062e+01 7.113371372222900391e+00 -3.313017606735229492e+00 -4.253407478332519531e+00 -2.269927501678466797e+00 -4.375934123992919922e+00
9.033000000000000000e+03 2.870049476623535156e+01 7.112733364105224609e+00 -2.292511463165283203e+00 -3.846272468566894531e+00 -1.841635227203369141e+00 -4.029015541076660156e+00
9.034000000000000000e+03 2.871973609924316406e+01 7.115909099578857422e+00 -1.434512853622436523e+00 -3.381459474563598633e+00 -1.444791674613952637e+00 -3.788108110427856445e+00
9.035000000000000000e+03 2.873798942565917969e+01 7.122776508331298828e+00 -4.722545444965362549e-01 -2.879612922668457031e+00 -1.005560278892517090e+00 -3.606364488601684570e+00
9.036000000000000000e+03 2.875455474853515625e+01 7.133071899414062500e+00 4.223290681838989258e-01 -2.576753139495849609e+00 -6.463271975517272949e-01 -3.484042644500732422e+00
9.037000000000000000e+03 2.876879119873046875e+01 7.146399497985839844e+00 1.336752057075500488e+00 -2.318769454956054688e+00 -2.946052551269531250e-01 -3.269172906875610352e+00
9.038000000000000000e+03 2.878015708923339844e+01 7.162248134613037109e+00 2.211081027984619141e+00 -2.237425565719604492e+00 -7.903300225734710693e-03 -2.930834293365478516e+00
9.039000000000000000e+03 2.878821182250976562e+01 7.180008888244628906e+00 2.819804430007934570e+00 -2.180689334869384766e+00 1.917345225811004639e-01 -2.509860992431640625e+00
9.040000000000000000e+03 2.879265022277832031e+01 7.198999881744384766e+00 3.255170106887817383e+00 -2.027058362960815430e+00 3.684334754943847656e-01 -1.955047369003295898e+00
9.041000000000000000e+03 2.879329872131347656e+01 7.218491554260253906e+00 3.352559566497802734e+00 -1.902845859527587891e+00 4.349141120910644531e-01 -1.470361351966857910e+00
9.042000000000000000e+03 2.879013252258300781e+01 7.237735271453857422e+00 3.274617910385131836e+00 -1.587911486625671387e+00 5.060119628906250000e-01 -1.040639281272888184e+00
9.043000000000000000e+03 2.878327560424804688e+01 7.255992412567138672e+00 3.044474601745605469e+00 -1.449759483337402344e+00 4.784145057201385498e-01 -8.030422925949096680e-01
9.044000000000000000e+03 2.877298927307128906e+01 7.272561550140380859e+00 2.856624841690063477e+00 -1.143251180648803711e+00 5.140120983123779297e-01 -7.077147960662841797e-01
9.045000000000000000e+03 2.875966835021972656e+01 7.286806106567382812e+00 2.732280254364013672e+00 -1.199205994606018066e+00 4.599222540855407715e-01 -6.693458557128906250e-01
9.046000000000000000e+03 2.874382781982421875e+01 7.298179626464843750e+00 2.895599126815795898e+00 -1.062338232994079590e+00 5.499782562255859375e-01 -7.282603383064270020e-01
9.047000000000000000e+03 2.872607040405273438e+01 7.306245326995849609e+00 3.067199945449829102e+00 -1.119403362274169922e+00 5.843389630317687988e-01 -6.583877801895141602e-01
9.048000000000000000e+03 2.870708084106445312e+01 7.310693264007568359e+00 3.484871864318847656e+00 -1.046733736991882324e+00 7.314414978027343750e-01 -5.300431847572326660e-01
9.049000000000000000e+03 2.868759155273437500e+01 7.311352252960205078e+00 4.157080173492431641e+00 -7.720701098442077637e-01 1.015503048896789551e+00 -3.907776176929473877e-01
9.050000000000000000e+03 2.866834640502929688e+01 7.308197498321533203e+00 4.616686820983886719e+00 -5.329633951187133789e-01 1.225117087364196777e+00 -2.810706794261932373e-01
9.051000000000000000e+03 2.865008544921875000e+01 7.301350116729736328e+00 5.500291347503662109e+00 -1.206194888800382614e-02 1.646468758583068848e+00 -6.192555651068687439e-02
9.052000000000000000e+03 2.863351058959960938e+01 7.291072845458984375e+00 6.589295864105224609e+00 3.204384744167327881e-01 2.072920322418212891e+00 6.900677829980850220e-02
9.053000000000000000e+03 2.861925697326660156e+01 7.277760505676269531e+00 7.554829597473144531e+00 5.288961529731750488e-01 2.425117731094360352e+00 2.800556123256683350e-01
9.054000000000000000e+03 2.860787582397460938e+01 7.261924266815185547e+00 8.894638061523437500e+00 9.191194772720336914e-01 2.944127082824707031e+00 8.075150251388549805e-01
9.055000000000000000e+03 2.859980010986328125e+01 7.244172573089599609e+00 9.869355201721191406e+00 9.101502895355224609e-01 3.233851671218872070e+00 1.496855258941650391e+00
9.056000000000000000e+03 2.859534263610839844e+01 7.225186347961425781e+00 1.070851230621337891e+01 1.372124314308166504e+00 3.624191045761108398e+00 2.468564510345458984e+00
9.057000000000000000e+03 2.859467124938964844e+01 7.205695629119873047e+00 1.094902801513671875e+01 1.694217801094055176e+00 3.792973756790161133e+00 3.560667753219604492e+00
9.058000000000000000e+03 2.859781646728515625e+01 7.186448097229003906e+00 1.077320766448974609e+01 2.443881273269653320e+00 3.965126752853393555e+00 4.571464538574218750e+00
9.059000000000000000e+03 2.860465431213378906e+01 7.168183803558349609e+00 9.983724594116210938e+00 3.132355451583862305e+00 3.934824228286743164e+00 5.449061870574951172e+00
9.060000000000000000e+03 6.142786407470703125e+01 3.435092544555664062e+01 3.260039138793945312e+01 3.856181383132934570e+00 1.093697166442871094e+01 8.786553382873535156e+00
9.061000000000000000e+03 6.142941284179687500e+01 3.433152008056640625e+01 3.275001525878906250e+01 1.321557044982910156e+01 1.378967571258544922e+01 2.120391654968261719e+01
9.062000000000000000e+03 6.143471145629882812e+01 3.431278610229492188e+01 3.171020698547363281e+01 2.418326950073242188e+01 1.676804351806640625e+01 2.646233558654785156e+01
9.063000000000000000e+03 6.144355773925781250e+01 3.429544067382812500e+01 2.856721305847167969e+01 3.613891983032226562e+01 1.941183853149414062e+01 2.932412719726562500e+01
9.064000000000000000e+03 6.145560836791992188e+01 3.428015136718750000e+01 2.518569564819335938e+01 4.767907333374023438e+01 2.185943031311035156e+01 2.913316726684570312e+01
9.065000000000000000e+03 6.147040557861328125e+01 3.426750183105468750e+01 2.145656585693359375e+01 5.830257034301757812e+01 2.392774200439453125e+01 2.633214759826660156e+01
9.066000000000000000e+03 6.148738098144531250e+01 3.425797271728515625e+01 1.876401901245117188e+01 6.691181945800781250e+01 2.570275115966796875e+01 2.122613525390625000e+01
9.067000000000000000e+03 6.150588989257812500e+01 3.425193405151367188e+01 1.719983291625976562e+01 7.247470092773437500e+01 2.690235900878906250e+01 1.467364311218261719e+01
9.068000000000000000e+03 6.152522277832031250e+01 3.424961090087890625e+01 1.803393363952636719e+01 7.510097503662109375e+01 2.794047164916992188e+01 7.458411693572998047e+00
9.069000000000000000e+03 6.154463195800781250e+01 3.425109863281250000e+01 2.048335266113281250e+01 7.450973510742187500e+01 2.849792671203613281e+01 7.223639488220214844e-01
9.070000000000000000e+03 6.156338119506835938e+01 3.425633239746093750e+01 2.460692787170410156e+01 7.142761230468750000e+01 2.881036186218261719e+01 -4.684072017669677734e+00
9.071000000000000000e+03 6.158075332641601562e+01 3.426512145996093750e+01 2.968136405944824219e+01 6.674741363525390625e+01 2.892863464355468750e+01 -8.117594718933105469e+00
9.072000000000000000e+03 6.159608459472656250e+01 3.427712249755859375e+01 3.494150543212890625e+01 6.135570144653320312e+01 2.888916206359863281e+01 -9.432711601257324219e+00
9.073000000000000000e+03 6.160878372192382812e+01 3.429187774658203125e+01 3.981968307495117188e+01 5.620217132568359375e+01 2.880655670166015625e+01 -8.715600013732910156e+00
9.074000000000000000e+03 6.161836624145507812e+01 3.430882263183593750e+01 4.363839340209960938e+01 5.200754928588867188e+01 2.869378280639648438e+01 -6.380942821502685547e+00
9.075000000000000000e+03 6.162446975708007812e+01 3.432730865478515625e+01 4.616341781616210938e+01 4.916487503051757812e+01 2.859848785400390625e+01 -2.848803758621215820e+00
9.076000000000000000e+03 6.162685775756835938e+01 3.434663009643554688e+01 4.731603622436523438e+01 4.839247131347656250e+01 2.871255111694335938e+01 1.339995384216308594e+00
9.077000000000000000e+03 6.162543487548828125e+01 3.436604690551757812e+01 4.656188201904296875e+01 4.881844711303710938e+01 2.861409950256347656e+01 5.730441570281982422e+00
9.078000000000000000e+03 6.162026214599609375e+01 3.438481521606445312e+01 4.458501815795898438e+01 5.181992340087890625e+01 2.892148208618164062e+01 9.483156204223632812e+00
9.079000000000000000e+03 6.161153411865234375e+01 3.440221786499023438e+01 4.057888031005859375e+01 5.583904266357421875e+01 2.892537689208984375e+01 1.246385669708251953e+01
9.080000000000000000e+03 6.159958267211914062e+01 3.441758728027343750e+01 3.565894317626953125e+01 6.127326583862304688e+01 2.907966232299804688e+01 1.367355537414550781e+01
9.081000000000000000e+03 6.158486938476562500e+01 3.443033599853515625e+01 2.987516975402832031e+01 6.700071716308593750e+01 2.906276702880859375e+01 1.286930465698242188e+01
9.082000000000000000e+03 6.156795501708984375e+01 3.443997573852539062e+01 2.391352653503417969e+01 7.222904968261718750e+01 2.884277343750000000e+01 9.764363288879394531e+00
9.083000000000000000e+03 6.154948806762695312e+01 3.444614028930664062e+01 1.894423294067382812e+01 7.586915588378906250e+01 2.844401741027832031e+01 4.578032016754150391e+00
9.084000000000000000e+03 6.153017425537109375e+01 3.444858932495117188e+01 1.520007324218750000e+01 7.696181488037109375e+01 2.764856719970703125e+01 -2.278688907623291016e+00
9.085000000000000000e+03 6.151075363159179688e+01 3.444723510742187500e+01 1.356417179107666016e+01 7.497480773925781250e+01 2.656169319152832031e+01 -9.748869895935058594e+00
9.086000000000000000e+03 6.149197006225585938e+01 3.444212341308593750e+01 1.401855468750000000e+01 6.967195129394531250e+01 2.510715293884277344e+01 -1.692779541015625000e+01
9.087000000000000000e+03 6.147454071044921875e+01 3.443345260620117188e+01 1.610970878601074219e+01 6.115165328979492188e+01 2.317840957641601562e+01 -2.284467124938964844e+01
9.088000000000000000e+03 6.145912933349609375e+01 3.442155456542968750e+01 1.943942451477050781e+01 5.060205078125000000e+01 2.101244354248046875e+01 -2.642696380615234375e+01
9.089000000000000000e+03 6.144633102416992188e+01 3.440688323974609375e+01 2.364716339111328125e+01 3.779755401611328125e+01 1.843341445922851562e+01 -2.732952499389648438e+01
9.090000000000000000e+03 6.143663406372070312e+01 3.439000320434570312e+01 2.726893424987792969e+01 2.508531761169433594e+01 1.570627498626708984e+01 -2.508520126342773438e+01
9.091000000000000000e+03 6.143041229248046875e+01 3.437155532836914062e+01 3.266293334960937500e+01 9.671657562255859375e+00 1.270037746429443359e+01 -1.579530334472656250e+01
