# el_label, x, y, sXX, sYY, sZZ, sXY
1.000000000000000000e+00 6.721489715576171875e+01 3.393035888671875000e+01 -8.067713737487792969e+00 -2.273058176040649414e+00 -3.102231740951538086e+00 -2.607679605484008789e+00
2.000000000000000000e+00 6.701614379882812500e+01 3.391963195800781250e+01 -3.063281059265136719e+00 8.805714845657348633e-01 -6.548128724098205566e-01 7.627003192901611328e-01
3.000000000000000000e+00 6.681739044189453125e+01 3.390890121459960938e+01 -4.112450599670410156e+00 -4.370557963848114014e-01 -1.364851951599121094e+00 7.321424782276153564e-02
4.000000000000000000e+00 6.661863708496093750e+01 3.389817047119140625e+01 -4.305877685546875000e+00 2.089491635560989380e-01 -1.229078531265258789e+00 3.019299805164337158e-01
5.000000000000000000e+00 6.722373199462890625e+01 3.387263107299804688e+01 7.498520374298095703e+00 -2.591440916061401367e+00 1.472123742103576660e+00 1.054298281669616699e+00
6.000000000000000000e+00 6.703087615966796875e+01 3.382341003417968750e+01 9.696723818778991699e-01 1.937551796436309814e-01 3.490282595157623291e-01 1.022284626960754395e+00
7.000000000000000000e+00 6.683801269531250000e+01 3.377419281005859375e+01 1.059471011161804199e+00 5.264471173286437988e-01 4.757754504680633545e-01 1.857290625572204590e+00
8.000000000000000000e+00 6.664515686035156250e+01 3.372497558593750000e+01 7.143766433000564575e-02 9.448229521512985229e-02 4.977598786354064941e-02 1.182146668434143066e+00
9.000000000000000000e+00 6.724364471435546875e+01 3.381772232055664062e+01 1.334298133850097656e+01 1.693927645683288574e+00 4.511072635650634766e+00 7.758148193359375000e+00
1.000000000000000000e+01 6.706405639648437500e+01 3.373189926147460938e+01 7.176503658294677734e+00 9.315665364265441895e-01 2.432420969009399414e+00 4.533875465393066406e+00
1.100000000000000000e+01 6.688446807861328125e+01 3.364607620239257812e+01 4.220709800720214844e+00 1.580370426177978516e+00 1.740324139595031738e+00 3.657238960266113281e+00
1.200000000000000000e+01 6.670487976074218750e+01 3.356025314331054688e+01 3.391842842102050781e+00 1.426356077194213867e+00 1.445459604263305664e+00 3.478983879089355469e+00
1.300000000000000000e+01 6.727385711669921875e+01 3.376774215698242188e+01 1.556119441986083984e+01 7.945444583892822266e+00 7.051991939544677734e+00 1.319897270202636719e+01
1.400000000000000000e+01 6.711441802978515625e+01 3.364859771728515625e+01 9.320052146911621094e+00 4.771698951721191406e+00 4.227525234222412109e+00 8.619120597839355469e+00
1.500000000000000000e+01 6.695497131347656250e+01 3.352945709228515625e+01 6.954579830169677734e+00 3.962253570556640625e+00 3.275049924850463867e+00 6.792720794677734375e+00
1.600000000000000000e+01 6.679552459716796875e+01 3.341031265258789062e+01 5.060256958007812500e+00 3.600494146347045898e+00 2.598225355148315430e+00 5.797489166259765625e+00
1.700000000000000000e+01 6.731322479248046875e+01 3.372459793090820312e+01 1.415799236297607422e+01 1.599354839324951172e+01 9.045461654663085938e+00 1.689721488952636719e+01
1.800000000000000000e+01 6.718003082275390625e+01 3.357669448852539062e+01 9.750289916992187500e+00 1.028696823120117188e+01 6.011177539825439453e+00 1.174140930175781250e+01
1.900000000000000000e+01 6.704682922363281250e+01 3.342879104614257812e+01 7.170413017272949219e+00 8.021147727966308594e+00 4.557467937469482422e+00 9.428112983703613281e+00
2.000000000000000000e+01 6.691363525390625000e+01 3.328088760375976562e+01 5.927601814270019531e+00 7.025812149047851562e+00 3.886024236679077148e+00 8.247357368469238281e+00
2.100000000000000000e+01 6.736024475097656250e+01 3.368994522094726562e+01 1.165461063385009766e+01 2.464578247070312500e+01 1.089011764526367188e+01 1.805686759948730469e+01
2.200000000000000000e+01 6.725838470458984375e+01 3.351894378662109375e+01 8.134703636169433594e+00 1.672119522094726562e+01 7.456769466400146484e+00 1.324912834167480469e+01
2.300000000000000000e+01 6.715653228759765625e+01 3.334793853759765625e+01 6.507977485656738281e+00 1.323750019073486328e+01 5.923643589019775391e+00 1.095999908447265625e+01
2.400000000000000000e+01 6.705467987060546875e+01 3.317692947387695312e+01 5.043166637420654297e+00 1.113250160217285156e+01 4.852700233459472656e+00 9.496726989746093750e+00
2.500000000000000000e+01 6.741310119628906250e+01 3.366511154174804688e+01 8.455936431884765625e+00 3.283904647827148438e+01 1.238849449157714844e+01 1.659588432312011719e+01
2.600000000000000000e+01 6.734648895263671875e+01 3.347754669189453125e+01 6.331850051879882812e+00 2.313560676574707031e+01 8.840236663818359375e+00 1.299206352233886719e+01
2.700000000000000000e+01 6.727987670898437500e+01 3.328998565673828125e+01 4.795192241668701172e+00 1.874154853820800781e+01 7.061022281646728516e+00 1.088565444946289062e+01
2.800000000000000000e+01 6.721325683593750000e+01 3.310242462158203125e+01 3.750744581222534180e+00 1.603849983215332031e+01 5.936773300170898438e+00 9.604366302490234375e+00
2.900000000000000000e+01 6.746978759765625000e+01 3.365103912353515625e+01 6.294480800628662109e+00 3.943356704711914062e+01 1.371841430664062500e+01 1.314057064056396484e+01
3.000000000000000000e+01 6.744096374511718750e+01 3.345409774780273438e+01 4.630647659301757812e+00 2.878664207458496094e+01 1.002518653869628906e+01 1.091942882537841797e+01
3.100000000000000000e+01 6.741213226318359375e+01 3.325715255737304688e+01 3.279154777526855469e+00 2.377308464050292969e+01 8.115672111511230469e+00 9.526397705078125000e+00
3.200000000000000000e+01 6.738330841064453125e+01 3.306021118164062500e+01 2.496842145919799805e+00 2.077924728393554688e+01 6.982826709747314453e+00 8.439929008483886719e+00
3.300000000000000000e+01 6.752812957763671875e+01 3.364827346801757812e+01 5.773507595062255859e+00 4.383036041259765625e+01 1.488115978240966797e+01 8.270643234252929688e+00
3.400000000000000000e+01 6.753819274902343750e+01 3.344948959350585938e+01 3.794979810714721680e+00 3.302906799316406250e+01 1.104721450805664062e+01 7.770920753479003906e+00
3.500000000000000000e+01 6.754825592041015625e+01 3.325070190429687500e+01 2.555935621261596680e+00 2.768593406677246094e+01 9.072561264038085938e+00 6.928677558898925781e+00
3.600000000000000000e+01 6.755832672119140625e+01 3.305191421508789062e+01 1.761072278022766113e+00 2.440067481994628906e+01 7.848524093627929688e+00 6.404757022857666016e+00
3.700000000000000000e+01 6.758589172363281250e+01 3.365692138671875000e+01 7.040189743041992188e+00 4.576719284057617188e+01 1.584221553802490234e+01 3.228741645812988281e+00
3.800000000000000000e+01 6.763446044921875000e+01 3.346389770507812500e+01 4.348039150238037109e+00 3.550699996948242188e+01 1.195651245117187500e+01 3.961843729019165039e+00
3.900000000000000000e+01 6.768303680419921875e+01 3.327087402343750000e+01 2.803972482681274414e+00 3.011781120300292969e+01 9.876535415649414062e+00 3.823791265487670898e+00
4.000000000000000000e+01 6.773161315917968750e+01 3.307785034179687500e+01 2.050331354141235352e+00 2.656855583190917969e+01 8.585666656494140625e+00 3.596036672592163086e+00
4.100000000000000000e+01 6.764086151123046875e+01 3.367664337158203125e+01 1.005975055694580078e+01 4.550897598266601562e+01 1.667061805725097656e+01 -1.188415050506591797e+00
4.200000000000000000e+01 6.772608184814453125e+01 3.349677276611328125e+01 6.141225814819335938e+00 3.622074127197265625e+01 1.270859050750732422e+01 3.384080529212951660e-01
4.300000000000000000e+01 6.781130981445312500e+01 3.331689834594726562e+01 4.330824851989746094e+00 3.091237449645996094e+01 1.057295989990234375e+01 6.554164290428161621e-01
4.400000000000000000e+01 6.789653015136718750e+01 3.313702774047851562e+01 3.185277700424194336e+00 2.743292236328125000e+01 9.185460090637207031e+00 7.542650103569030762e-01
4.500000000000000000e+01 6.769094085693359375e+01 3.370669555664062500e+01 1.405427932739257812e+01 4.371359634399414062e+01 1.733036231994628906e+01 -4.224804401397705078e+00
4.600000000000000000e+01 6.780955505371093750e+01 3.354685592651367188e+01 9.126340866088867188e+00 3.536756896972656250e+01 1.334817314147949219e+01 -2.570599555969238281e+00
4.700000000000000000e+01 6.792816162109375000e+01 3.338701629638671875e+01 6.746630191802978516e+00 3.039503097534179688e+01 1.114249897003173828e+01 -1.915055513381958008e+00
4.800000000000000000e+01 6.804677581787109375e+01 3.322717666625976562e+01 5.310633659362792969e+00 2.699915504455566406e+01 9.692936897277832031e+00 -1.608850121498107910e+00
4.900000000000000000e+01 6.773421478271484375e+01 3.374591827392578125e+01 1.850719070434570312e+01 4.108117675781250000e+01 1.787651062011718750e+01 -5.632071495056152344e+00
5.000000000000000000e+01 6.788166809082031250e+01 3.361222839355468750e+01 1.259951686859130859e+01 3.352886199951171875e+01 1.383851432800292969e+01 -4.274309635162353516e+00
5.100000000000000000e+01 6.802912902832031250e+01 3.347853851318359375e+01 9.859132766723632812e+00 2.887232017517089844e+01 1.161943626403808594e+01 -3.493139505386352539e+00
5.200000000000000000e+01 6.817658996582031250e+01 3.334484863281250000e+01 7.950924873352050781e+00 2.580620193481445312e+01 1.012713813781738281e+01 -3.077541589736938477e+00
5.300000000000000000e+01 6.776902008056640625e+01 3.379281616210937500e+01 2.245650672912597656e+01 3.838589096069335938e+01 1.825271987915039062e+01 -5.499669075012207031e+00
5.400000000000000000e+01 6.793968963623046875e+01 3.369039154052734375e+01 1.620990371704101562e+01 3.126657485961914062e+01 1.424294376373291016e+01 -4.547664165496826172e+00
5.500000000000000000e+01 6.811035156250000000e+01 3.358796691894531250e+01 1.287194442749023438e+01 2.697463226318359375e+01 1.195397377014160156e+01 -3.900906801223754883e+00
5.600000000000000000e+01 6.828102111816406250e+01 3.348554229736328125e+01 1.082917881011962891e+01 2.419045829772949219e+01 1.050589084625244141e+01 -3.410828351974487305e+00
5.700000000000000000e+01 6.779403686523437500e+01 3.384559631347656250e+01 2.561186790466308594e+01 3.621068191528320312e+01 1.854676437377929688e+01 -4.035835266113281250e+00
5.800000000000000000e+01 6.798137664794921875e+01 3.377835464477539062e+01 1.908966636657714844e+01 2.920373916625976562e+01 1.448802185058593750e+01 -3.585469245910644531e+00
5.900000000000000000e+01 6.816871643066406250e+01 3.371111679077148438e+01 1.549809455871582031e+01 2.524619483947753906e+01 1.222328662872314453e+01 -3.062288761138916016e+00
6.000000000000000000e+01 6.835605621337890625e+01 3.364387512207031250e+01 1.308170890808105469e+01 2.260506820678710938e+01 1.070603370666503906e+01 -2.744394540786743164e+00
6.100000000000000000e+01 6.780829620361328125e+01 3.390223312377929688e+01 2.739705657958984375e+01 3.485857391357421875e+01 1.867668914794921875e+01 -1.812796950340270996e+00
6.200000000000000000e+01 6.800514221191406250e+01 3.387275314331054688e+01 2.096070098876953125e+01 2.790353202819824219e+01 1.465927028656005859e+01 -1.585748672485351562e+00
6.300000000000000000e+01 6.820198822021484375e+01 3.384326934814453125e+01 1.705887603759765625e+01 2.410031890869140625e+01 1.234775829315185547e+01 -1.402826666831970215e+00
6.400000000000000000e+01 6.839883422851562500e+01 3.381378936767578125e+01 1.454263210296630859e+01 2.153292655944824219e+01 1.082266712188720703e+01 -1.191952586174011230e+00
6.500000000000000000e+01 6.781125640869140625e+01 3.396056365966796875e+01 2.785075187683105469e+01 3.466192626953125000e+01 1.875380325317382812e+01 8.901152610778808594e-01
6.600000000000000000e+01 6.801007080078125000e+01 3.396996688842773438e+01 2.128974914550781250e+01 2.756194114685058594e+01 1.465550708770751953e+01 7.633846402168273926e-01
6.700000000000000000e+01 6.820889282226562500e+01 3.397937393188476562e+01 1.744853019714355469e+01 2.390034484863281250e+01 1.240466308593750000e+01 7.642078399658203125e-01
6.800000000000000000e+01 6.840770721435546875e+01 3.398877716064453125e+01 1.487658977508544922e+01 2.130810165405273438e+01 1.085540771484375000e+01 6.090895533561706543e-01
6.900000000000000000e+01 6.780280303955078125e+01 3.401835250854492188e+01 2.672314834594726562e+01 3.527743911743164062e+01 1.860017776489257812e+01 3.347464561462402344e+00
7.000000000000000000e+01 6.799598693847656250e+01 3.406628417968750000e+01 2.023649024963378906e+01 2.857761955261230469e+01 1.464423274993896484e+01 3.102641582489013672e+00
7.100000000000000000e+01 6.818917083740234375e+01 3.411421585083007812e+01 1.641326141357421875e+01 2.446038055419921875e+01 1.226209259033203125e+01 2.665128231048583984e+00
7.200000000000000000e+01 6.838235473632812500e+01 3.416214752197265625e+01 1.396313762664794922e+01 2.216403770446777344e+01 1.083815193176269531e+01 2.398633956909179688e+00
7.300000000000000000e+01 6.778326416015625000e+01 3.407339096069335938e+01 2.433961868286132812e+01 3.739527130126953125e+01 1.852046585083007812e+01 5.295382499694824219e+00
7.400000000000000000e+01 6.796341705322265625e+01 3.415801620483398438e+01 1.777280807495117188e+01 3.001033782958984375e+01 1.433494377136230469e+01 4.654316902160644531e+00
7.500000000000000000e+01 6.814356994628906250e+01 3.424263763427734375e+01 1.430561256408691406e+01 2.629243850708007812e+01 1.217941474914550781e+01 3.995113611221313477e+00
7.600000000000000000e+01 6.832372283935546875e+01 3.432726287841796875e+01 1.188524723052978516e+01 2.327760124206542969e+01 1.054885482788085938e+01 3.576006174087524414e+00
7.700000000000000000e+01 6.775337982177734375e+01 3.412356948852539062e+01 2.064258003234863281e+01 3.957717132568359375e+01 1.806592559814453125e+01 6.232984542846679688e+00
7.800000000000000000e+01 6.791361236572265625e+01 3.424164962768554688e+01 1.455361270904541016e+01 3.259643173217773438e+01 1.414501285552978516e+01 4.991408348083496094e+00
7.900000000000000000e+01 6.807384490966796875e+01 3.435972595214843750e+01 1.131176471710205078e+01 2.785812759399414062e+01 1.175096797943115234e+01 4.333872795104980469e+00
8.000000000000000000e+01 6.823407745361328125e+01 3.447780227661132812e+01 9.384848594665527344e+00 2.531570625305175781e+01 1.041016578674316406e+01 3.810217380523681641e+00
8.100000000000000000e+01 6.771429443359375000e+01 3.416697311401367188e+01 1.650841331481933594e+01 4.263687896728515625e+01 1.774358749389648438e+01 5.577609539031982422e+00
8.200000000000000000e+01 6.784848022460937500e+01 3.431398773193359375e+01 1.080480003356933594e+01 3.448454284667968750e+01 1.358680343627929688e+01 4.107290744781494141e+00
8.300000000000000000e+01 6.798265838623046875e+01 3.446100234985351562e+01 8.253129959106445312e+00 2.992193603515625000e+01 1.145252037048339844e+01 3.284181594848632812e+00
8.400000000000000000e+01 6.811683654785156250e+01 3.460801315307617188e+01 6.519901752471923828e+00 2.645800399780273438e+01 9.893371582031250000e+00 2.958030462265014648e+00
8.500000000000000000e+01 6.766751098632812500e+01 3.420193862915039062e+01 1.206518745422363281e+01 4.481735229492187500e+01 1.706476211547851562e+01 3.433442354202270508e+00
8.600000000000000000e+01 6.777050781250000000e+01 3.437226104736328125e+01 7.570911407470703125e+00 3.612445831298828125e+01 1.310861015319824219e+01 1.696082472801208496e+00
8.700000000000000000e+01 6.787349700927734375e+01 3.454258346557617188e+01 5.366423130035400391e+00 3.079759025573730469e+01 1.084920406341552734e+01 1.264644145965576172e+00
8.800000000000000000e+01 6.797649383544921875e+01 3.471290588378906250e+01 3.988415718078613281e+00 2.756018066406250000e+01 9.464578628540039062e+00 9.013862609863281250e-01
8.900000000000000000e+01 6.761482238769531250e+01 3.422712707519531250e+01 8.500660896301269531e+00 4.613729858398437500e+01 1.639138793945312500e+01 -4.187134802341461182e-01
9.000000000000000000e+01 6.768267822265625000e+01 3.441424179077148438e+01 5.065991401672363281e+00 3.612613296508789062e+01 1.235763740539550781e+01 -1.588114500045776367e+00
9.100000000000000000e+01 6.775054931640625000e+01 3.460135650634765625e+01 3.367125272750854492e+00 3.081350708007812500e+01 1.025418949127197266e+01 -1.769591331481933594e+00
9.200000000000000000e+01 6.781841278076171875e+01 3.478847122192382812e+01 2.303204536437988281e+00 2.723789787292480469e+01 8.862330436706542969e+00 -1.573634862899780273e+00
9.300000000000000000e+01 6.755822753906250000e+01 3.424157333374023438e+01 6.210308074951171875e+00 4.530794906616210938e+01 1.545547771453857422e+01 -5.192600250244140625e+00
9.400000000000000000e+01 6.758836364746093750e+01 3.443832015991210938e+01 3.894360303878784180e+00 3.466651916503906250e+01 1.156826305389404297e+01 -5.526114463806152344e+00
9.500000000000000000e+01 6.761850738525390625e+01 3.463506698608398438e+01 2.469925880432128906e+00 2.908469390869140625e+01 9.466385841369628906e+00 -4.922598361968994141e+00
9.600000000000000000e+01 6.764864349365234375e+01 3.483181381225585938e+01 1.637877106666564941e+00 2.565035057067871094e+01 8.186468124389648438e+00 -4.573442459106445312e+00
9.700000000000000000e+01 6.749990844726562500e+01 3.424472808837890625e+01 5.895577430725097656e+00 4.222370529174804688e+01 1.443578529357910156e+01 -1.042379665374755859e+01
9.800000000000000000e+01 6.749116516113281250e+01 3.444357681274414062e+01 3.967698574066162109e+00 3.120977210998535156e+01 1.055324077606201172e+01 -9.035363197326660156e+00
9.900000000000000000e+01 6.748242950439453125e+01 3.464242553710937500e+01 2.829157590866088867e+00 2.593313789367675781e+01 8.628688812255859375e+00 -8.029684066772460938e+00
1.000000000000000000e+02 6.747367858886718750e+01 3.484127426147460938e+01 1.929329514503479004e+00 2.259802055358886719e+01 7.358205318450927734e+00 -7.021644115447998047e+00
1.010000000000000000e+02 6.744209289550781250e+01 3.423646926879882812e+01 7.208761692047119141e+00 3.659625244140625000e+01 1.314150428771972656e+01 -1.468969440460205078e+01
1.020000000000000000e+02 6.739480590820312500e+01 3.442980957031250000e+01 5.404934406280517578e+00 2.616824531555175781e+01 9.471954345703125000e+00 -1.183580017089843750e+01
1.030000000000000000e+02 6.734751892089843750e+01 3.462315368652343750e+01 3.898433685302734375e+00 2.137161636352539062e+01 7.581014633178710938e+00 -1.000108242034912109e+01
1.040000000000000000e+02 6.730023193359375000e+01 3.481649398803710938e+01 3.189613342285156250e+00 1.852533149719238281e+01 6.514483451843261719e+00 -8.865406036376953125e+00
1.050000000000000000e+02 6.738699340820312500e+01 3.421710968017578125e+01 1.017772674560546875e+01 2.893836593627929688e+01 1.173482799530029297e+01 -1.739231300354003906e+01
1.060000000000000000e+02 6.730297088623046875e+01 3.439754486083984375e+01 7.175457954406738281e+00 1.993110847473144531e+01 8.131970405578613281e+00 -1.290690135955810547e+01
1.070000000000000000e+02 6.721894836425781250e+01 3.457798385620117188e+01 5.638342857360839844e+00 1.602237701416015625e+01 6.498215675354003906e+00 -1.080212974548339844e+01
1.080000000000000000e+02 6.713491821289062500e+01 3.475841903686523438e+01 4.446753025054931641e+00 1.376042175292968750e+01 5.462152481079101562e+00 -9.273183822631835938e+00
1.090000000000000000e+02 6.733670806884765625e+01 3.418739318847656250e+01 1.304969215393066406e+01 2.020627593994140625e+01 9.976790428161621094e+00 -1.747002029418945312e+01
1.100000000000000000e+02 6.721916961669921875e+01 3.434801864624023438e+01 9.226833343505859375e+00 1.319789314270019531e+01 6.727417945861816406e+00 -1.230468273162841797e+01
1.110000000000000000e+02 6.710162353515625000e+01 3.450864791870117188e+01 6.713917732238769531e+00 1.057461833953857422e+01 5.186561107635498047e+00 -9.760628700256347656e+00
1.120000000000000000e+02 6.698407745361328125e+01 3.466927337646484375e+01 5.534588813781738281e+00 9.064178466796875000e+00 4.379630565643310547e+00 -8.570377349853515625e+00
1.130000000000000000e+02 6.729317474365234375e+01 3.414845657348632812e+01 1.552173042297363281e+01 1.125941181182861328e+01 8.034342765808105469e+00 -1.489772510528564453e+01
1.140000000000000000e+02 6.714661407470703125e+01 3.428313064575195312e+01 9.576937675476074219e+00 7.126452445983886719e+00 5.011017322540283203e+00 -9.690272331237792969e+00
1.150000000000000000e+02 6.700004577636718750e+01 3.441780090332031250e+01 7.299694061279296875e+00 5.750199794769287109e+00 3.914968013763427734e+00 -7.569809436798095703e+00
1.160000000000000000e+02 6.685348510742187500e+01 3.455246734619140625e+01 5.220503807067871094e+00 5.047940731048583984e+00 3.080533266067504883e+00 -6.380534648895263672e+00
1.170000000000000000e+02 6.725805664062500000e+01 3.410179519653320312e+01 1.475641345977783203e+01 3.803407192230224609e+00 5.567945957183837891e+00 -9.925846099853515625e+00
1.180000000000000000e+02 6.708808135986328125e+01 3.420535278320312500e+01 8.594384193420410156e+00 2.268000364303588867e+00 3.258715391159057617e+00 -5.768840789794921875e+00
1.190000000000000000e+02 6.691809844970703125e+01 3.430891418457031250e+01 5.386316776275634766e+00 2.653634071350097656e+00 2.411985158920288086e+00 -4.442278385162353516e+00
1.200000000000000000e+02 6.674812316894531250e+01 3.441247177124023438e+01 4.409038066864013672e+00 2.239137649536132812e+00 1.994452595710754395e+00 -4.152390956878662109e+00
1.210000000000000000e+02 6.723269653320312500e+01 3.404918670654296875e+01 1.077808189392089844e+01 -2.147924423217773438e+00 2.589047193527221680e+00 -2.925067663192749023e+00
1.220000000000000000e+02 6.704580688476562500e+01 3.411767196655273438e+01 3.382909297943115234e+00 7.149078845977783203e-01 1.229345083236694336e+00 -1.717250823974609375e+00
1.230000000000000000e+02 6.685891723632812500e+01 3.418615722656250000e+01 2.974265575408935547e+00 9.783805012702941895e-01 1.185793757438659668e+00 -2.344181537628173828e+00
1.240000000000000000e+02 6.667202758789062500e+01 3.425464248657226562e+01 1.719132900238037109e+00 4.839531779289245605e-01 6.609258055686950684e-01 -1.625558137893676758e+00
1.250000000000000000e+02 6.721805572509765625e+01 3.399264526367187500e+01 -3.499419212341308594e+00 -2.738776922225952148e+00 -1.871458888053894043e+00 2.557752370834350586e+00
1.260000000000000000e+02 6.702141571044921875e+01 3.402343750000000000e+01 -2.136479765176773071e-01 1.043792843818664551e+00 2.490434646606445312e-01 -7.603170871734619141e-01
1.270000000000000000e+02 6.682476806640625000e+01 3.405422592163085938e+01 -1.657984733581542969e+00 -4.115123450756072998e-01 -6.208491325378417969e-01 -2.504241839051246643e-02
1.280000000000000000e+02 6.662812042236328125e+01 3.408502197265625000e+01 -2.154301404953002930e+00 2.773419618606567383e-01 -5.630878806114196777e-01 -8.811870962381362915e-02
1.290000000000000000e+02 5.662155914306640625e+01 3.460263824462890625e+01 -1.576437354087829590e+00 2.589582651853561401e-02 -4.651624560356140137e-01 3.027108870446681976e-02
1.300000000000000000e+02 5.648379135131835938e+01 3.387492752075195312e+01 -1.511449575424194336e+00 1.164804473519325256e-01 -4.184907674789428711e-01 -2.982909679412841797e-01
1.310000000000000000e+02 5.571845626831054688e+01 3.398872375488281250e+01 -1.224378347396850586e+00 1.315670162439346313e-01 -3.278434276580810547e-01 -3.555945754051208496e-01
1.320000000000000000e+02 5.801555252075195312e+01 3.365230941772460938e+01 -2.010030746459960938e+00 8.950096368789672852e-02 -5.761589407920837402e-01 -2.099380642175674438e-01
1.330000000000000000e+02 5.812237167358398438e+01 3.438455963134765625e+01 -2.339780330657958984e+00 2.927174791693687439e-03 -7.010559439659118652e-01 1.334455013275146484e-01
1.340000000000000000e+02 5.737181472778320312e+01 3.449321365356445312e+01 -1.954470753669738770e+00 1.475244853645563126e-02 -5.819154977798461914e-01 8.598554134368896484e-02
1.350000000000000000e+02 5.724952316284179688e+01 3.376323318481445312e+01 -1.774281024932861328e+00 1.160522103309631348e-01 -4.974686503410339355e-01 -2.538464367389678955e-01
1.360000000000000000e+02 5.587170028686523438e+01 3.471416091918945312e+01 -1.198629975318908691e+00 2.062239870429039001e-02 -3.534022867679595947e-01 -1.946570537984371185e-02
1.370000000000000000e+02 6.036611557006835938e+01 3.409850692749023438e+01 -3.307637691497802734e+00 -9.376844391226768494e-03 -9.951043725013732910e-01 2.360931187868118286e-01
1.380000000000000000e+02 6.028128051757812500e+01 3.336336135864257812e+01 -2.586796045303344727e+00 6.496715545654296875e-02 -7.565486431121826172e-01 -7.920634746551513672e-02
1.390000000000000000e+02 5.877515792846679688e+01 3.354987716674804688e+01 -2.227379322052001953e+00 7.631288468837738037e-02 -6.453199386596679688e-01 -1.566312909126281738e-01
1.400000000000000000e+02 6.103430938720703125e+01 3.327088928222656250e+01 -2.661995649337768555e+00 7.134947809390723705e-04 -7.983846068382263184e-01 -5.300982668995857239e-02
1.410000000000000000e+02 6.111344909667968750e+01 3.400674057006835938e+01 -3.648824691772460938e+00 -3.751202672719955444e-02 -1.105901002883911133e+00 2.425984591245651245e-01
1.420000000000000000e+02 5.961875534057617188e+01 3.419079971313476562e+01 -2.999495267868041992e+00 -2.552603604272007942e-03 -9.006143212318420410e-01 1.973565071821212769e-01
1.430000000000000000e+02 5.887139129638671875e+01 3.428361511230468750e+01 -2.690848112106323242e+00 -8.764765225350856781e-03 -8.098838329315185547e-01 1.648525893688201904e-01
1.440000000000000000e+02 5.952822113037109375e+01 3.345635986328125000e+01 -2.424170255661010742e+00 6.555330753326416016e-02 -7.075850963592529297e-01 -1.100012660026550293e-01
1.450000000000000000e+02 6.390385437011718750e+01 3.357143402099609375e+01 -3.528256654739379883e+00 -7.463309913873672485e-02 -1.080866932868957520e+00 2.334121465682983398e-01
1.460000000000000000e+02 6.188330078125000000e+01 3.392839813232421875e+01 -3.937879800796508789e+00 -4.107236862182617188e-02 -1.193685650825500488e+00 2.078031599521636963e-01
1.470000000000000000e+02 6.420976257324218750e+01 3.296789169311523438e+01 -1.375663638114929199e+00 1.561256349086761475e-01 -3.658614158630371094e-01 6.672078371047973633e-01
1.480000000000000000e+02 6.177229690551757812e+01 3.319510650634765625e+01 -2.633509635925292969e+00 1.731360703706741333e-02 -7.848588228225708008e-01 3.928676992654800415e-02
1.490000000000000000e+02 6.413935089111328125e+01 3.274386215209960938e+01 -9.676588773727416992e-01 2.707231044769287109e-01 -2.090807408094406128e-01 8.027420639991760254e-01
1.500000000000000000e+02 6.283857345581054688e+01 3.338221740722656250e+01 -3.045047998428344727e+00 1.948775537312030792e-02 -9.076680541038513184e-01 1.643050760030746460e-01
1.510000000000000000e+02 6.266192626953125000e+01 3.392303848266601562e+01 -4.170787334442138672e+00 -9.945398196578025818e-03 -1.254219770431518555e+00 1.864967495203018188e-01
1.520000000000000000e+02 6.430967712402343750e+01 3.335526657104492188e+01 -2.727410316467285156e+00 -7.559050340205430984e-03 -8.204907774925231934e-01 3.168401420116424561e-01
1.530000000000000000e+02 6.337939453125000000e+01 3.394443893432617188e+01 -4.513746261596679688e+00 2.292383089661598206e-02 -1.347246646881103516e+00 2.516669929027557373e-01
1.540000000000000000e+02 6.429297637939453125e+01 3.377350234985351562e+01 -4.120340824127197266e+00 1.088084802031517029e-01 -1.203459739685058594e+00 1.437550485134124756e-01
1.550000000000000000e+02 6.375650787353515625e+01 3.315105056762695312e+01 -2.337604045867919922e+00 5.100846663117408752e-02 -6.859786510467529297e-01 3.304210603237152100e-01
1.560000000000000000e+02 6.390304183959960938e+01 3.386170959472656250e+01 -4.534454822540283203e+00 -1.147588193416595459e-01 -1.394764184951782227e+00 2.784575521945953369e-01
1.570000000000000000e+02 6.428943634033203125e+01 3.356428146362304688e+01 -3.527899742126464844e+00 2.845510840415954590e-03 -1.057516336441040039e+00 2.433376610279083252e-01
1.580000000000000000e+02 6.422226715087890625e+01 3.399205398559570312e+01 -5.050622940063476562e+00 4.402912035584449768e-02 -1.501978039741516113e+00 2.852807044982910156e-01
1.590000000000000000e+02 6.403119659423828125e+01 3.331567764282226562e+01 -2.758014678955078125e+00 -2.720279432833194733e-02 -8.355652689933776855e-01 3.019106090068817139e-01
1.600000000000000000e+02 6.238812637329101562e+01 3.305464172363281250e+01 -2.503376007080078125e+00 -1.655615051276981831e-03 -7.515094876289367676e-01 9.182378649711608887e-02
1.610000000000000000e+02 6.294719696044921875e+01 3.294139862060546875e+01 -2.091420412063598633e+00 1.166216060519218445e-01 -5.924396514892578125e-01 1.805260777473449707e-01
1.620000000000000000e+02 6.355363464355468750e+01 3.285969543457031250e+01 -1.703657150268554688e+00 1.605698019266128540e-01 -4.629262089729309082e-01 3.884369134902954102e-01
1.630000000000000000e+02 6.344777679443359375e+01 3.350040054321289062e+01 -3.327023744583129883e+00 4.930497333407402039e-02 -9.833156466484069824e-01 1.721089333295822144e-01
1.640000000000000000e+02 6.428816986083984375e+01 3.316497802734375000e+01 -2.034859418869018555e+00 6.304303556680679321e-02 -5.915449261665344238e-01 5.338925719261169434e-01
1.650000000000000000e+02 6.562989807128906250e+01 3.390935516357421875e+01 -4.877689838409423828e+00 -5.125810205936431885e-02 -1.478684306144714355e+00 1.790068894624710083e-01
1.660000000000000000e+02 6.655188751220703125e+01 3.263919067382812500e+01 3.062159061431884766e+00 6.421360015869140625e+00 2.845055818557739258e+00 6.290442943572998047e+00
1.670000000000000000e+02 6.857776641845703125e+01 3.479008865356445312e+01 6.074492931365966797e+00 2.129226112365722656e+01 8.210026741027832031e+00 2.936830043792724609e+00
1.680000000000000000e+02 6.729882049560546875e+01 3.534432220458984375e+01 1.426474928855895996e+00 1.645496559143066406e+01 5.364432334899902344e+00 -6.462382316589355469e+00
1.690000000000000000e+02 6.557339477539062500e+01 3.443768310546875000e+01 -1.878747463226318359e+00 1.885757595300674438e-01 -5.070515275001525879e-01 -3.510586023330688477e-01
1.700000000000000000e+02 6.453810882568359375e+01 3.270713043212890625e+01 -4.853948354721069336e-01 4.915961027145385742e-01 1.860374934040009975e-03 1.153937101364135742e+00
1.710000000000000000e+02 6.474735260009765625e+01 3.335514068603515625e+01 -2.311998128890991211e+00 9.187011420726776123e-02 -6.660383939743041992e-01 5.004885792732238770e-01
1.720000000000000000e+02 6.772416687011718750e+01 3.259133148193359375e+01 7.058808207511901855e-01 2.075245285034179688e+01 6.437500000000000000e+00 4.168592453002929688e+00
1.730000000000000000e+02 6.641863250732421875e+01 3.389049911499023438e+01 -4.511003017425537109e+00 -7.486123591661453247e-02 -1.375759243965148926e+00 1.718775331974029541e-01
1.740000000000000000e+02 6.473921203613281250e+01 3.267708969116210938e+01 -2.539978921413421631e-01 4.960854947566986084e-01 7.262628525495529175e-02 1.313787579536437988e+00
1.750000000000000000e+02 6.766905212402343750e+01 3.505231094360351562e+01 1.054323434829711914e+00 2.295561981201171875e+01 7.202982902526855469e+00 -4.210040569305419922e+00
1.760000000000000000e+02 6.810635375976562500e+01 3.484381484985351562e+01 3.403968334197998047e+00 2.534779930114746094e+01 8.625530242919921875e+00 1.198280334472656250e+00
1.770000000000000000e+02 6.839139556884765625e+01 3.462097930908203125e+01 7.623940467834472656e+00 2.297064208984375000e+01 9.178374290466308594e+00 3.378780603408813477e+00
1.780000000000000000e+02 6.884149169921875000e+01 3.359534454345703125e+01 1.016654586791992188e+01 1.813627433776855469e+01 8.490845680236816406e+00 -1.721265316009521484e+00
1.790000000000000000e+02 6.860768890380859375e+01 3.342658233642578125e+01 9.664667129516601562e+00 2.057722282409667969e+01 9.072566986083984375e+00 -2.649816989898681641e+00
1.800000000000000000e+02 6.818658447265625000e+01 3.305949401855468750e+01 4.426286220550537109e+00 2.453956413269042969e+01 8.689754486083984375e+00 -1.490949511528015137e+00
1.810000000000000000e+02 6.873717498779296875e+01 3.327398681640625000e+01 7.848889827728271484e+00 1.965099525451660156e+01 8.249965667724609375e+00 -2.795800447463989258e+00
1.820000000000000000e+02 6.773699188232421875e+01 3.284924316406250000e+01 1.186531186103820801e+00 2.361006355285644531e+01 7.438978672027587891e+00 3.738968610763549805e+00
1.830000000000000000e+02 6.471127319335937500e+01 3.547954559326171875e+01 1.407406330108642578e-01 1.318273305892944336e+00 4.377041757106781006e-01 -1.082895517349243164e+00
1.840000000000000000e+02 6.591638946533203125e+01 3.539785385131835938e+01 2.169828414916992188e+00 2.985434055328369141e+00 1.546578764915466309e+00 -3.693031311035156250e+00
1.850000000000000000e+02 6.713333129882812500e+01 3.515017700195312500e+01 2.496790885925292969e+00 1.376583385467529297e+01 4.878787517547607422e+00 -7.459867954254150391e+00
1.860000000000000000e+02 6.729958343505859375e+01 3.511832809448242188e+01 1.823951840400695801e+00 1.717995452880859375e+01 5.701171875000000000e+00 -7.152770042419433594e+00
1.870000000000000000e+02 6.462630462646484375e+01 3.421824264526367188e+01 -4.134807586669921875e+00 -7.346669584512710571e-02 -1.262482404708862305e+00 2.413739711046218872e-01
1.880000000000000000e+02 6.580706024169921875e+01 3.417222976684570312e+01 -3.461424112319946289e+00 8.428897708654403687e-02 -1.013140559196472168e+00 5.375511199235916138e-02
1.890000000000000000e+02 6.621697235107421875e+01 3.414723968505859375e+01 -2.858297586441040039e+00 7.626598328351974487e-02 -8.346095085144042969e-01 -2.551789395511150360e-02
1.900000000000000000e+02 6.642429351806640625e+01 3.412039947509765625e+01 -2.552694320678710938e+00 -1.191548332571983337e-01 -8.015547990798950195e-01 4.890284035354852676e-04
1.910000000000000000e+02 6.863607025146484375e+01 3.397911071777343750e+01 1.290207672119140625e+01 1.943733406066894531e+01 9.701823234558105469e+00 5.264930129051208496e-01
1.920000000000000000e+02 6.878475189208984375e+01 3.446210098266601562e+01 8.996143341064453125e+00 1.906872558593750000e+01 8.419461250305175781e+00 2.704426050186157227e+00
1.930000000000000000e+02 6.785480499267578125e+01 3.501258087158203125e+01 1.520295739173889160e+00 2.445227622985839844e+01 7.791771888732910156e+00 -1.965420126914978027e+00
1.940000000000000000e+02 6.747908782958984375e+01 3.507048034667968750e+01 1.374377965927124023e+00 2.040648651123046875e+01 6.534259796142578125e+00 -6.317586421966552734e+00
1.950000000000000000e+02 6.655509185791015625e+01 3.456087875366210938e+01 3.363938331604003906e+00 2.038271188735961914e+00 1.620662808418273926e+00 -3.690076351165771484e+00
1.960000000000000000e+02 6.645796203613281250e+01 3.434919357299804688e+01 1.051092982292175293e+00 6.554752588272094727e-01 5.119704604148864746e-01 -1.625089764595031738e+00
1.970000000000000000e+02 6.647422790527343750e+01 3.308023452758789062e+01 3.745980978012084961e+00 3.405061244964599609e+00 2.145312786102294922e+00 5.145068645477294922e+00
1.980000000000000000e+02 6.702043151855468750e+01 3.277933883666992188e+01 3.020825147628784180e+00 1.199240779876708984e+01 4.503970146179199219e+00 8.063468933105468750e+00
1.990000000000000000e+02 6.858417510986328125e+01 3.361026000976562500e+01 1.153968429565429688e+01 2.036109542846679688e+01 9.570234298706054688e+00 -2.285731792449951172e+00
2.000000000000000000e+02 6.526004028320312500e+01 3.290811920166015625e+01 2.024861574172973633e-01 6.110911965370178223e-01 2.440732121467590332e-01 1.683660984039306641e+00
2.010000000000000000e+02 6.566287994384765625e+01 3.293123626708984375e+01 1.037195324897766113e+00 1.203027486801147461e+00 6.720668077468872070e-01 2.463575839996337891e+00
2.020000000000000000e+02 6.457018280029296875e+01 3.354833602905273438e+01 -3.238577604293823242e+00 4.176859557628631592e-02 -9.590427279472351074e-01 1.178868636488914490e-01
2.030000000000000000e+02 6.460609436035156250e+01 3.396566390991210938e+01 -5.243211746215820312e+00 -1.832562237977981567e-01 -1.627940416336059570e+00 3.410005271434783936e-01
2.040000000000000000e+02 6.862051391601562500e+01 3.379254913330078125e+01 1.265946292877197266e+01 1.961529350280761719e+01 9.682426452636718750e+00 -1.068014144897460938e+00
2.050000000000000000e+02 6.613766479492187500e+01 3.520210647583007812e+01 2.531006574630737305e+00 3.400635004043579102e+00 1.779492497444152832e+00 -4.110408782958984375e+00
2.060000000000000000e+02 6.688129425048828125e+01 3.483149337768554688e+01 4.676350116729736328e+00 8.613016128540039062e+00 3.986809730529785156e+00 -7.580816268920898438e+00
2.070000000000000000e+02 6.804265594482421875e+01 3.500987243652343750e+01 2.232120752334594727e+00 2.439044952392578125e+01 7.986771106719970703e+00 -5.611522495746612549e-02
2.080000000000000000e+02 6.601195526123046875e+01 3.415999221801757812e+01 -3.175285577774047852e+00 -2.718717418611049652e-02 -9.607418775558471680e-01 9.808132424950599670e-03
2.090000000000000000e+02 6.695824432373046875e+01 3.510969543457031250e+01 3.138586997985839844e+00 1.108130550384521484e+01 4.265967845916748047e+00 -7.432651042938232422e+00
2.100000000000000000e+02 6.690447998046875000e+01 3.534791564941406250e+01 2.517976760864257812e+00 1.030858802795410156e+01 3.847969532012939453e+00 -6.985267639160156250e+00
2.110000000000000000e+02 6.671407318115234375e+01 3.471472167968750000e+01 4.669664859771728516e+00 4.899586200714111328e+00 2.870775222778320312e+00 -5.936372756958007812e+00
2.120000000000000000e+02 6.734531402587890625e+01 3.288013458251953125e+01 1.989976048469543457e+00 1.863851928710937500e+01 6.188548564910888672e+00 7.834478378295898438e+00
2.130000000000000000e+02 6.753768920898437500e+01 3.283760070800781250e+01 1.261260151863098145e+00 2.143163681030273438e+01 6.807868957519531250e+00 6.137622833251953125e+00
2.140000000000000000e+02 6.679614257812500000e+01 3.309559631347656250e+01 4.752421379089355469e+00 6.760910511016845703e+00 3.453999519348144531e+00 7.380201816558837891e+00
2.150000000000000000e+02 6.803289794921875000e+01 3.295335006713867188e+01 2.605420589447021484e+00 2.477939414978027344e+01 8.215444564819335938e+00 4.451144635677337646e-01
2.160000000000000000e+02 6.845010375976562500e+01 3.332989883422851562e+01 8.752048492431640625e+00 2.221349143981933594e+01 9.289662361145019531e+00 -3.119961023330688477e+00
2.170000000000000000e+02 6.835436248779296875e+01 3.287213897705078125e+01 3.601825237274169922e+00 2.223095321655273438e+01 7.749833583831787109e+00 -1.416844487190246582e+00
2.180000000000000000e+02 6.698719024658203125e+01 3.298729324340820312e+01 4.104149818420410156e+00 1.104371833801269531e+01 4.544360637664794922e+00 8.570794105529785156e+00
2.190000000000000000e+02 6.633116912841796875e+01 3.266498565673828125e+01 2.981590270996093750e+00 4.741816043853759766e+00 2.317021846771240234e+00 5.466839790344238281e+00
2.200000000000000000e+02 6.832895660400390625e+01 3.318819427490234375e+01 6.566935062408447266e+00 2.355574035644531250e+01 9.036802291870117188e+00 -2.708249092102050781e+00
2.210000000000000000e+02 6.710258483886718750e+01 3.256961441040039062e+01 1.943427801132202148e+00 1.345290565490722656e+01 4.618900299072265625e+00 7.327315807342529297e+00
2.220000000000000000e+02 6.886193847656250000e+01 3.430896377563476562e+01 1.005206394195556641e+01 1.825581359863281250e+01 8.492362976074218750e+00 2.191863059997558594e+00
2.230000000000000000e+02 6.791882324218750000e+01 3.280607604980468750e+01 1.616374373435974121e+00 2.348993301391601562e+01 7.531892299652099609e+00 2.073062896728515625e+00
2.240000000000000000e+02 6.805742645263671875e+01 3.266133880615234375e+01 1.429232239723205566e+00 2.219141006469726562e+01 7.086192607879638672e+00 9.307466745376586914e-01
2.250000000000000000e+02 6.862383270263671875e+01 3.313917541503906250e+01 6.625480651855468750e+00 2.050560569763183594e+01 8.139326095581054688e+00 -2.658507585525512695e+00
2.260000000000000000e+02 6.821924591064453125e+01 3.503794479370117188e+01 2.801530122756958008e+00 2.297080421447753906e+01 7.731700420379638672e+00 1.166200637817382812e+00
2.270000000000000000e+02 6.849725341796875000e+01 3.300108718872070312e+01 5.229950428009033203e+00 2.164781761169433594e+01 8.063330650329589844e+00 -2.322507619857788086e+00
2.280000000000000000e+02 6.804981994628906250e+01 3.522954177856445312e+01 9.046204686164855957e-01 2.235328865051269531e+01 6.977372646331787109e+00 -9.121637344360351562e-01
2.290000000000000000e+02 6.870459747314453125e+01 3.416698074340820312e+01 1.165923213958740234e+01 1.924180793762207031e+01 9.270312309265136719e+00 1.534235239028930664e+00
2.300000000000000000e+02 6.786816406250000000e+01 3.527046966552734375e+01 4.935191273689270020e-01 2.173636817932128906e+01 6.668965816497802734e+00 -2.284014463424682617e+00
2.310000000000000000e+02 6.827543640136718750e+01 3.488793945312500000e+01 4.062860965728759766e+00 2.364571571350097656e+01 8.312572479248046875e+00 2.037489652633666992e+00
2.320000000000000000e+02 6.850145721435546875e+01 3.445341110229492188e+01 9.964333534240722656e+00 2.164634704589843750e+01 9.483203887939453125e+00 3.271733760833740234e+00
2.330000000000000000e+02 6.820355987548828125e+01 3.276049423217773438e+01 2.248302936553955078e+00 2.219996070861816406e+01 7.334479331970214844e+00 -2.076881825923919678e-01
2.340000000000000000e+02 6.880752563476562500e+01 3.342244338989257812e+01 9.440775871276855469e+00 1.868849563598632812e+01 8.438780784606933594e+00 -2.397615909576416016e+00
2.350000000000000000e+02 6.887174987792968750e+01 3.377952575683593750e+01 1.098079872131347656e+01 1.781489562988281250e+01 8.638708114624023438e+00 -8.037204146385192871e-01
2.360000000000000000e+02 6.748942565917968750e+01 3.532490921020507812e+01 8.307522535324096680e-01 1.843486022949218750e+01 5.779684066772460938e+00 -5.295736312866210938e+00
2.370000000000000000e+02 6.491080474853515625e+01 3.545906066894531250e+01 3.987805843353271484e-01 1.310352921485900879e+00 5.127400755882263184e-01 -1.530420064926147461e+00
2.380000000000000000e+02 6.509967803955078125e+01 3.518553924560546875e+01 1.966523081064224243e-01 9.439429640769958496e-01 3.421785831451416016e-01 -1.329256057739257812e+00
2.390000000000000000e+02 6.587058258056640625e+01 3.504792022705078125e+01 1.691854238510131836e+00 1.876148104667663574e+00 1.070400714874267578e+00 -2.877439022064208984e+00
2.400000000000000000e+02 6.649687957763671875e+01 3.538501358032226562e+01 2.607741594314575195e+00 6.346785068511962891e+00 2.686357975006103516e+00 -5.551741600036621094e+00
2.410000000000000000e+02 6.710496520996093750e+01 3.535592269897460938e+01 2.024378776550292969e+00 1.329806232452392578e+01 4.596732616424560547e+00 -6.837569236755371094e+00
2.420000000000000000e+02 6.531455993652343750e+01 3.495333099365234375e+01 7.991475611925125122e-02 7.340239286422729492e-01 2.441816031932830811e-01 -1.247603416442871094e+00
2.430000000000000000e+02 6.489311981201171875e+01 3.521092224121093750e+01 -1.219758391380310059e-01 8.853560090065002441e-01 2.290140390396118164e-01 -1.046834826469421387e+00
2.440000000000000000e+02 6.622459411621093750e+01 3.440638351440429688e+01 3.055320680141448975e-01 4.316530525684356689e-01 2.211555391550064087e-01 -1.242781162261962891e+00
2.450000000000000000e+02 6.464474487304687500e+01 3.443151473999023438e+01 -3.044045925140380859e+00 -6.223469041287899017e-03 -9.150808453559875488e-01 2.237470746040344238e-01
2.460000000000000000e+02 6.571188354492187500e+01 3.540060806274414062e+01 1.764313697814941406e+00 2.407498598098754883e+00 1.251543641090393066e+00 -3.163301944732666016e+00
2.470000000000000000e+02 6.530823516845703125e+01 3.543441009521484375e+01 1.127082467079162598e+00 1.590284347534179688e+00 8.152100443840026855e-01 -2.239959478378295898e+00
2.480000000000000000e+02 6.550398254394531250e+01 3.267171859741210938e+01 1.153934597969055176e+00 1.534571170806884766e+00 8.065517544746398926e-01 2.701107263565063477e+00
2.490000000000000000e+02 6.480324554443359375e+01 3.394386291503906250e+01 -5.024411678314208984e+00 5.724589154124259949e-02 -1.490149736404418945e+00 2.712839841842651367e-01
2.500000000000000000e+02 6.601840972900390625e+01 3.391082382202148438e+01 -4.717904090881347656e+00 -7.027955353260040283e-02 -1.436455130577087402e+00 2.302080690860748291e-01
2.510000000000000000e+02 6.530510711669921875e+01 3.267176437377929688e+01 8.165978789329528809e-01 1.144332289695739746e+00 5.882790684700012207e-01 2.265742301940917969e+00
2.520000000000000000e+02 6.567891693115234375e+01 3.367368698120117188e+01 -2.993554830551147461e+00 7.538590580224990845e-02 -8.754506707191467285e-01 3.957388699054718018e-01
2.530000000000000000e+02 6.730867004394531250e+01 3.257982254028320312e+01 1.348890185356140137e+00 1.644412612915039062e+01 5.337904930114746094e+00 6.930426597595214844e+00
2.540000000000000000e+02 6.752355957031250000e+01 3.258625411987304688e+01 9.326820373535156250e-01 1.908723831176757812e+01 6.005976200103759766e+00 5.749300479888916016e+00
2.550000000000000000e+02 6.563013458251953125e+01 3.321018218994140625e+01 3.654672205448150635e-02 4.890333712100982666e-01 1.576740294694900513e-01 1.517190217971801758e+00
2.560000000000000000e+02 6.587137603759765625e+01 3.291917037963867188e+01 1.644598603248596191e+00 1.670515894889831543e+00 9.945343732833862305e-01 3.027770280838012695e+00
2.570000000000000000e+02 6.691925811767578125e+01 3.255907440185546875e+01 2.471143960952758789e+00 1.124593162536621094e+01 4.115122795104980469e+00 7.458987712860107422e+00
2.580000000000000000e+02 6.607702636718750000e+01 3.291846847534179688e+01 2.210619449615478516e+00 2.350349426269531250e+00 1.368290662765502930e+00 3.717492341995239258e+00
2.590000000000000000e+02 6.488251495361328125e+01 3.463573074340820312e+01 -1.994795203208923340e+00 1.714510917663574219e-01 -5.470032095909118652e-01 -1.248355805873870850e-01
2.600000000000000000e+02 6.482613372802734375e+01 3.420477676391601562e+01 -4.133458614349365234e+00 1.908873952925205231e-02 -1.234310984611511230e+00 2.702547907829284668e-01
2.610000000000000000e+02 6.454949951171875000e+01 3.313913726806640625e+01 -1.637794137001037598e+00 1.565411984920501709e-01 -4.443759024143218994e-01 6.643347740173339844e-01
2.620000000000000000e+02 6.455446624755859375e+01 3.292626953125000000e+01 -1.031075716018676758e+00 3.014240562915802002e-01 -2.188954949378967285e-01 9.003308415412902832e-01
2.630000000000000000e+02 6.621752929687500000e+01 3.389607238769531250e+01 -4.591584682464599609e+00 2.784918993711471558e-02 -1.369120717048645020e+00 1.972412914037704468e-01
2.640000000000000000e+02 6.549868774414062500e+01 3.517952346801757812e+01 1.067428588867187500e+00 1.391235709190368652e+00 7.375992536544799805e-01 -2.162622690200805664e+00
2.650000000000000000e+02 6.669799804687500000e+01 3.535760498046875000e+01 2.521160840988159180e+00 8.452142715454101562e+00 3.291990995407104492e+00 -6.442283153533935547e+00
2.660000000000000000e+02 6.530588531494140625e+01 3.518817901611328125e+01 6.522305607795715332e-01 1.240013480186462402e+00 5.676732063293457031e-01 -1.793635487556457520e+00
2.670000000000000000e+02 6.579107666015625000e+01 3.489015960693359375e+01 1.240495443344116211e+00 1.162315726280212402e+00 7.208433747291564941e-01 -2.106351852416992188e+00
2.680000000000000000e+02 6.503980255126953125e+01 3.438794326782226562e+01 -3.066649675369262695e+00 9.370690584182739258e-02 -8.918828368186950684e-01 9.412267804145812988e-02
2.690000000000000000e+02 6.541230773925781250e+01 3.417480087280273438e+01 -3.868797063827514648e+00 4.046292230486869812e-02 -1.148500204086303711e+00 1.442921310663223267e-01
2.700000000000000000e+02 6.522265625000000000e+01 3.387446594238281250e+01 -4.852315425872802734e+00 -8.536655455827713013e-02 -1.481304526329040527e+00 1.648301333189010620e-01
2.710000000000000000e+02 6.500751495361328125e+01 3.389723587036132812e+01 -4.893580913543701172e+00 -8.765164762735366821e-02 -1.494369745254516602e+00 2.491111606359481812e-01
2.720000000000000000e+02 6.550177764892578125e+01 3.361810302734375000e+01 -2.788247108459472656e+00 2.063605934381484985e-02 -8.302832841873168945e-01 4.862300157546997070e-01
2.730000000000000000e+02 6.543242645263671875e+01 3.389501190185546875e+01 -4.866426467895507812e+00 6.700862944126129150e-02 -1.439825415611267090e+00 1.407234966754913330e-01
2.740000000000000000e+02 6.621861267089843750e+01 3.367034149169921875e+01 -1.586310982704162598e+00 1.197978779673576355e-01 -4.399539530277252197e-01 8.230541944503784180e-01
2.750000000000000000e+02 6.606336975097656250e+01 3.330284500122070312e+01 1.067680597305297852e+00 8.624684810638427734e-01 5.790446996688842773e-01 2.178341150283813477e+00
2.760000000000000000e+02 6.499231719970703125e+01 3.307246017456054688e+01 -9.556354284286499023e-01 2.442666441202163696e-01 -2.134106308221817017e-01 1.004952430725097656e+00
2.770000000000000000e+02 6.651147460937500000e+01 3.345511245727539062e+01 2.472546339035034180e+00 1.150828599929809570e+00 1.087012410163879395e+00 2.952015399932861328e+00
2.780000000000000000e+02 6.596641540527343750e+01 3.355686187744140625e+01 -1.589906930923461914e+00 1.933922320604324341e-01 -4.189544022083282471e-01 8.859716057777404785e-01
2.790000000000000000e+02 6.466899871826171875e+01 3.465636825561523438e+01 -2.233854532241821289e+00 1.711937934160232544e-01 -6.187982559204101562e-01 -6.757258903235197067e-03
2.800000000000000000e+02 6.617513275146484375e+01 3.466809463500976562e+01 1.785989284515380859e+00 1.196889042854309082e+00 8.948634862899780273e-01 -2.474061489105224609e+00
2.810000000000000000e+02 6.630740356445312500e+01 3.518582916259765625e+01 2.983389139175415039e+00 4.050020217895507812e+00 2.110022783279418945e+00 -4.798888206481933594e+00
2.820000000000000000e+02 6.663651275634765625e+01 3.492000579833984375e+01 4.020217418670654297e+00 5.361992835998535156e+00 2.814663171768188477e+00 -5.974781990051269531e+00
2.830000000000000000e+02 6.643791961669921875e+01 3.367178344726562500e+01 -5.130898356437683105e-01 3.514659106731414795e-01 -4.848717525601387024e-02 1.193046689033508301e+00
2.840000000000000000e+02 6.663782501220703125e+01 3.326245880126953125e+01 4.377182006835937500e+00 3.640832662582397461e+00 2.405404329299926758e+00 5.455177783966064453e+00
2.850000000000000000e+02 6.466482543945312500e+01 3.505645751953125000e+01 -7.761124968528747559e-01 4.544489681720733643e-01 -9.649904817342758179e-02 -5.026804208755493164e-01
2.860000000000000000e+02 6.603569030761718750e+01 3.488128662109375000e+01 2.178807497024536133e+00 1.834097623825073242e+00 1.203871488571166992e+00 -2.970737695693969727e+00
2.870000000000000000e+02 6.579168701171875000e+01 3.442780685424804688e+01 -1.381875872611999512e+00 1.733174175024032593e-01 -3.625675141811370850e-01 -4.992132484912872314e-01
2.880000000000000000e+02 6.526654052734375000e+01 3.452648925781250000e+01 -1.923364400863647461e+00 1.090912520885467529e-01 -5.442819595336914062e-01 -2.361541092395782471e-01
2.890000000000000000e+02 6.491630554199218750e+01 3.265473937988281250e+01 2.735809981822967529e-01 8.970411419868469238e-01 3.511866331100463867e-01 1.703820109367370605e+00
2.900000000000000000e+02 6.519212341308593750e+01 3.315814208984375000e+01 -8.893563151359558105e-01 3.174131512641906738e-01 -1.715829521417617798e-01 1.058353185653686523e+00
2.910000000000000000e+02 6.600613403320312500e+01 3.440504837036132812e+01 -7.400580644607543945e-01 3.405542373657226562e-01 -1.198511496186256409e-01 -7.833651304244995117e-01
2.920000000000000000e+02 6.565536499023437500e+01 3.494853591918945312e+01 8.368195295333862305e-01 9.693230986595153809e-01 5.418428182601928711e-01 -1.952602028846740723e+00
2.930000000000000000e+02 6.585413360595703125e+01 3.370510101318359375e+01 -3.054611682891845703e+00 -6.920392625033855438e-03 -9.184596538543701172e-01 3.869363963603973389e-01
2.940000000000000000e+02 6.665913391113281250e+01 3.288413619995117188e+01 3.796983718872070312e+00 6.616867542266845703e+00 3.124155282974243164e+00 6.795459270477294922e+00
2.950000000000000000e+02 6.507742309570312500e+01 3.342691802978515625e+01 -2.303348302841186523e+00 5.329399555921554565e-02 -6.750162839889526367e-01 5.429899692535400391e-01
2.960000000000000000e+02 6.618919372558593750e+01 3.317564392089843750e+01 2.175441026687622070e+00 1.559002280235290527e+00 1.120332956314086914e+00 3.177046775817871094e+00
2.970000000000000000e+02 6.530113983154296875e+01 3.353635025024414062e+01 -2.603617191314697266e+00 3.704358264803886414e-02 -7.699720859527587891e-01 5.241708159446716309e-01
2.980000000000000000e+02 6.648266601562500000e+01 3.516169738769531250e+01 3.155353784561157227e+00 5.594253540039062500e+00 2.624882221221923828e+00 -5.685282230377197266e+00
2.990000000000000000e+02 6.531811523437500000e+01 3.472026443481445312e+01 -1.006483316421508789e+00 4.050228297710418701e-01 -1.804381459951400757e-01 -6.321529150009155273e-01
3.000000000000000000e+02 6.552454376220703125e+01 3.470348358154296875e+01 -5.625969171524047852e-01 4.195784032344818115e-01 -4.290556162595748901e-02 -8.729807734489440918e-01
3.010000000000000000e+02 6.545870208740234375e+01 3.293071746826171875e+01 6.538332700729370117e-01 8.618345856666564941e-01 4.547003507614135742e-01 2.019605875015258789e+00
3.020000000000000000e+02 6.566583251953125000e+01 3.345766448974609375e+01 -1.556009173393249512e+00 1.736042499542236328e-01 -4.147214591503143311e-01 8.502565622329711914e-01
3.030000000000000000e+02 6.512673950195312500e+01 3.476522445678710938e+01 -1.141351819038391113e+00 2.819032371044158936e-01 -2.578345537185668945e-01 -5.365726351737976074e-01
3.040000000000000000e+02 6.481983947753906250e+01 3.498099899291992188e+01 -9.542704224586486816e-01 4.185876548290252686e-01 -1.607048213481903076e-01 -5.461067557334899902e-01
3.050000000000000000e+02 6.629561614990234375e+01 3.497507858276367188e+01 2.643254280090332031e+00 2.994868040084838867e+00 1.691436648368835449e+00 -4.050165653228759766e+00
3.060000000000000000e+02 6.510646057128906250e+01 3.266651916503906250e+01 5.583672523498535156e-01 8.510960340499877930e-01 4.228389859199523926e-01 1.895020127296447754e+00
3.070000000000000000e+02 6.478280639648437500e+01 3.298016738891601562e+01 -9.080773591995239258e-01 3.535962700843811035e-01 -1.663443297147750854e-01 9.912499785423278809e-01
3.080000000000000000e+02 6.473738098144531250e+01 3.317065048217773438e+01 -1.631810426712036133e+00 1.977904587984085083e-01 -4.302060008049011230e-01 7.377510666847229004e-01
3.090000000000000000e+02 6.455778503417968750e+01 3.334527206420898438e+01 -2.580817222595214844e+00 2.472040429711341858e-02 -7.668290138244628906e-01 4.134133160114288330e-01
3.100000000000000000e+02 6.475750732421875000e+01 3.354419708251953125e+01 -2.962496519088745117e+00 -1.154226809740066528e-01 -9.233757853507995605e-01 2.556041479110717773e-01
3.110000000000000000e+02 6.476417541503906250e+01 3.372976684570312500e+01 -4.339815139770507812e+00 -7.565695792436599731e-02 -1.324641704559326172e+00 2.038552761077880859e-01
3.120000000000000000e+02 6.458545684814453125e+01 3.375338745117187500e+01 -4.161295413970947266e+00 -1.356366723775863647e-01 -1.289079546928405762e+00 2.075560688972473145e-01
3.130000000000000000e+02 6.492729187011718750e+01 3.364037704467773438e+01 -3.557476997375488281e+00 2.368605881929397583e-02 -1.060137271881103516e+00 2.015993893146514893e-01
3.140000000000000000e+02 6.582386779785156250e+01 3.391513824462890625e+01 -4.833704948425292969e+00 7.879262417554855347e-02 -1.426473617553710938e+00 1.964737623929977417e-01
3.150000000000000000e+02 6.633200836181640625e+01 3.330808258056640625e+01 2.169860601425170898e+00 1.402818083763122559e+00 1.071803569793701172e+00 3.042562484741210938e+00
3.160000000000000000e+02 6.502295684814453125e+01 3.418899536132812500e+01 -4.118212699890136719e+00 3.856767201796174049e-03 -1.234306812286376953e+00 2.182410806417465210e-01
3.170000000000000000e+02 6.484751892089843750e+01 3.441500473022460938e+01 -3.077169656753540039e+00 5.550587922334671021e-02 -9.064991474151611328e-01 1.334269195795059204e-01
3.180000000000000000e+02 6.521862030029296875e+01 3.417603302001953125e+01 -4.022848129272460938e+00 -9.487420320510864258e-03 -1.209700703620910645e+00 1.956366896629333496e-01
3.190000000000000000e+02 6.538465118408203125e+01 3.438890075683593750e+01 -2.510117053985595703e+00 1.030272245407104492e-01 -7.221269607543945312e-01 -1.137564480304718018e-01
3.200000000000000000e+02 6.469522094726562500e+01 3.526015090942382812e+01 -4.075991511344909668e-01 7.035259008407592773e-01 8.877801895141601562e-02 -7.172659039497375488e-01
3.210000000000000000e+02 6.466411590576171875e+01 3.486746215820312500e+01 -1.407456755638122559e+00 2.489826828241348267e-01 -3.475422263145446777e-01 -3.100049793720245361e-01
3.220000000000000000e+02 6.510924530029296875e+01 3.544390487670898438e+01 7.688131332397460938e-01 1.581020236015319824e+00 7.049499750137329102e-01 -1.945985913276672363e+00
3.230000000000000000e+02 6.550698089599609375e+01 3.542275619506835938e+01 1.375665783882141113e+00 2.003744840621948242e+00 1.013823151588439941e+00 -2.593830585479736328e+00
3.240000000000000000e+02 6.611212921142578125e+01 3.540824508666992188e+01 2.565513610839843750e+00 3.894789218902587891e+00 1.938090801239013672e+00 -4.363945007324218750e+00
3.250000000000000000e+02 6.630435180664062500e+01 3.540032577514648438e+01 2.645568609237670898e+00 5.023227214813232422e+00 2.300638675689697266e+00 -5.034686565399169922e+00
3.260000000000000000e+02 6.666173553466796875e+01 3.512790679931640625e+01 3.327204942703247070e+00 7.069854259490966797e+00 3.119117736816406250e+00 -6.395133972167968750e+00
3.270000000000000000e+02 6.679459381103515625e+01 3.501188659667968750e+01 3.841427326202392578e+00 8.097299575805664062e+00 3.581618070602416992e+00 -7.013087272644042969e+00
3.280000000000000000e+02 6.721355438232421875e+01 3.498566436767578125e+01 2.607675313949584961e+00 1.620221519470214844e+01 5.642966747283935547e+00 -8.068858146667480469e+00
3.290000000000000000e+02 6.768044281005859375e+01 3.530379867553710938e+01 5.138058066368103027e-01 2.041309547424316406e+01 6.278070449829101562e+00 -3.968450546264648438e+00
3.300000000000000000e+02 6.821781921386718750e+01 3.518235015869140625e+01 1.816135048866271973e+00 2.258958625793457031e+01 7.321716308593750000e+00 5.895271301269531250e-01
3.310000000000000000e+02 6.835231018066406250e+01 3.509542465209960938e+01 2.933833122253417969e+00 2.222184371948242188e+01 7.546703338623046875e+00 1.292036294937133789e+00
3.320000000000000000e+02 6.846091461181640625e+01 3.495332717895507812e+01 4.413475036621093750e+00 2.174457931518554688e+01 7.847416400909423828e+00 2.367361068725585938e+00
3.330000000000000000e+02 6.869361114501953125e+01 3.462556838989257812e+01 7.889447689056396484e+00 2.004372787475585938e+01 8.379952430725097656e+00 3.118757247924804688e+00
3.340000000000000000e+02 6.889508056640625000e+01 3.414751815795898438e+01 1.087967109680175781e+01 1.778552627563476562e+01 8.599559783935546875e+00 1.144515275955200195e+00
3.350000000000000000e+02 6.888733673095703125e+01 3.396663665771484375e+01 1.093623924255371094e+01 1.757627105712890625e+01 8.553752899169921875e+00 2.108182460069656372e-01
3.360000000000000000e+02 6.790226745605468750e+01 3.260599899291992188e+01 7.332642078399658203e-01 2.157105255126953125e+01 6.691294670104980469e+00 2.823837280273437500e+00
3.370000000000000000e+02 6.717385101318359375e+01 3.293870925903320312e+01 3.147653818130493164e+00 1.507445335388183594e+01 5.466632366180419922e+00 8.930698394775390625e+00
3.380000000000000000e+02 6.683847808837890625e+01 3.272646713256835938e+01 3.225453853607177734e+00 9.603223800659179688e+00 3.848603487014770508e+00 7.521608829498291016e+00
3.390000000000000000e+02 6.674765014648437500e+01 3.257740402221679688e+01 2.911313295364379883e+00 8.631890296936035156e+00 3.462961196899414062e+00 7.105398654937744141e+00
3.400000000000000000e+02 6.611507415771484375e+01 3.265631866455078125e+01 2.573191881179809570e+00 3.378955602645874023e+00 1.785644292831420898e+00 4.494654655456542969e+00
3.410000000000000000e+02 6.628380584716796875e+01 3.295516204833984375e+01 2.997242450714111328e+00 3.117331743240356445e+00 1.834372162818908691e+00 4.568317413330078125e+00
3.420000000000000000e+02 6.590851593017578125e+01 3.265969467163085938e+01 2.068181514739990234e+00 2.607598304748535156e+00 1.402733922004699707e+00 3.811424493789672852e+00
3.430000000000000000e+02 6.570482635498046875e+01 3.266695785522460938e+01 1.656853199005126953e+00 1.972079992294311523e+00 1.088679909706115723e+00 3.191462755203247070e+00
3.440000000000000000e+02 6.506061553955078125e+01 3.286770629882812500e+01 -1.597159504890441895e-01 5.895753502845764160e-01 1.289578229188919067e-01 1.495999813079833984e+00
3.450000000000000000e+02 6.560684204101562500e+01 3.417855072021484375e+01 -3.683703899383544922e+00 -2.180955745279788971e-02 -1.111654043197631836e+00 1.172467097640037537e-01
3.460000000000000000e+02 6.646313476562500000e+01 3.493928909301757812e+01 3.591436147689819336e+00 3.937811374664306641e+00 2.258774280548095703e+00 -5.025524139404296875e+00
3.470000000000000000e+02 6.704806518554687500e+01 3.492595672607421875e+01 3.913500308990478516e+00 1.225652885437011719e+01 4.851008892059326172e+00 -8.399494171142578125e+00
3.480000000000000000e+02 6.722438812255859375e+01 3.278746795654296875e+01 2.326061964035034180e+00 1.608027076721191406e+01 5.521899700164794922e+00 7.928236961364746094e+00
3.490000000000000000e+02 6.824486541748046875e+01 3.474629974365234375e+01 5.503998756408691406e+00 2.458924102783203125e+01 9.027971267700195312e+00 2.581426382064819336e+00
3.500000000000000000e+02 6.858058166503906250e+01 3.428536224365234375e+01 1.165791225433349609e+01 2.023303794860839844e+01 9.567285537719726562e+00 2.509958982467651367e+00
3.510000000000000000e+02 6.507624053955078125e+01 3.458127975463867188e+01 -1.895667910575866699e+00 2.307849377393722534e-01 -4.994648993015289307e-01 -2.060604095458984375e-01
3.520000000000000000e+02 6.615979766845703125e+01 3.346387863159179688e+01 4.210117459297180176e-01 4.570231139659881592e-01 2.634104490280151367e-01 1.693686008453369141e+00
3.530000000000000000e+02 6.512284088134765625e+01 3.495449447631835938e+01 -4.518498182296752930e-01 6.155487895011901855e-01 4.910969361662864685e-02 -9.088206887245178223e-01
3.540000000000000000e+02 6.569091796875000000e+01 3.476521682739257812e+01 2.419804036617279053e-01 5.862679481506347656e-01 2.484745085239410400e-01 -1.285515308380126953e+00
3.550000000000000000e+02 6.599084472656250000e+01 3.461695098876953125e+01 3.901399672031402588e-01 6.533575057983398438e-01 3.130492568016052246e-01 -1.513938188552856445e+00
3.560000000000000000e+02 6.549606323242187500e+01 3.494846725463867188e+01 5.259863138198852539e-01 9.679878950119018555e-01 4.481922686100006104e-01 -1.595278739929199219e+00
3.570000000000000000e+02 6.569123840332031250e+01 3.515179824829101562e+01 1.482375264167785645e+00 1.695146441459655762e+00 9.532564878463745117e-01 -2.538487911224365234e+00
3.580000000000000000e+02 6.598382568359375000e+01 3.517107772827148438e+01 2.129879474639892578e+00 2.509667634963989258e+00 1.391864180564880371e+00 -3.411632776260375977e+00
3.590000000000000000e+02 6.612651824951171875e+01 3.502293777465820312e+01 2.310180664062500000e+00 2.598794460296630859e+00 1.472692608833312988e+00 -3.607046604156494141e+00
3.600000000000000000e+02 6.522000122070312500e+01 3.436260604858398438e+01 -3.020870447158813477e+00 4.278876632452011108e-02 -8.934245109558105469e-01 -4.641015082597732544e-03
3.610000000000000000e+02 6.496546936035156250e+01 3.484975814819335938e+01 -1.029266595840454102e+00 4.529480040073394775e-01 -1.728955805301666260e-01 -5.108364224433898926e-01
3.620000000000000000e+02 6.588056182861328125e+01 3.338478851318359375e+01 -1.111527606844902039e-01 4.198129177093505859e-01 9.259805083274841309e-02 1.383350014686584473e+00
3.630000000000000000e+02 6.585099792480468750e+01 3.316197967529296875e+01 9.089383482933044434e-01 9.153183698654174805e-01 5.472770333290100098e-01 2.201738357543945312e+00
3.640000000000000000e+02 6.540261840820312500e+01 3.321747207641601562e+01 -6.414144635200500488e-01 2.778358459472656250e-01 -1.090735793113708496e-01 1.151992559432983398e+00
3.650000000000000000e+02 6.602191162109375000e+01 3.371665191650390625e+01 -2.771401166915893555e+00 1.062008813023567200e-01 -7.995600700378417969e-01 4.514203965663909912e-01
3.660000000000000000e+02 6.591576385498046875e+01 3.477205657958984375e+01 1.349081873893737793e+00 9.827820062637329102e-01 6.995591521263122559e-01 -1.950570821762084961e+00
3.670000000000000000e+02 6.486033630371093750e+01 3.280571365356445312e+01 -3.331504762172698975e-01 5.146860480308532715e-01 5.446066707372665405e-02 1.251504898071289062e+00
3.680000000000000000e+02 6.490013885498046875e+01 3.326824188232421875e+01 -1.871813654899597168e+00 1.862890273332595825e-01 -5.056573748588562012e-01 6.728944778442382812e-01
3.690000000000000000e+02 6.603771972656250000e+01 3.313462829589843750e+01 1.737384915351867676e+00 1.441296100616455078e+00 9.536042809486389160e-01 2.838106870651245117e+00
3.700000000000000000e+02 6.636539459228515625e+01 3.476339721679687500e+01 3.002332448959350586e+00 2.437630891799926758e+00 1.631989002227783203e+00 -3.715515851974487305e+00
3.710000000000000000e+02 6.582197570800781250e+01 3.463742828369140625e+01 -8.505922555923461914e-02 5.942908525466918945e-01 1.527694910764694214e-01 -1.203114032745361328e+00
3.720000000000000000e+02 6.323850250244140625e+01 3.537177658081054688e+01 -1.412436127662658691e+00 1.158819794654846191e-01 -3.889662325382232666e-01 1.243609935045242310e-01
3.730000000000000000e+02 6.445853424072265625e+01 3.531044387817382812e+01 -3.502610027790069580e-01 6.678537726402282715e-01 9.527783095836639404e-02 -5.695198178291320801e-01
3.740000000000000000e+02 6.261582946777343750e+01 3.536407089233398438e+01 -1.637193679809570312e+00 3.527244180440902710e-02 -4.805763959884643555e-01 3.033617138862609863e-01
3.750000000000000000e+02 6.397026062011718750e+01 3.496915817260742188e+01 -1.768801927566528320e+00 9.614580869674682617e-02 -5.017968416213989258e-01 5.235925689339637756e-02
3.760000000000000000e+02 6.380153274536132812e+01 3.541080093383789062e+01 -9.727823138236999512e-01 2.995339930057525635e-01 -2.019744962453842163e-01 -1.956013292074203491e-01
3.770000000000000000e+02 6.440103912353515625e+01 3.514208984375000000e+01 -9.138889908790588379e-01 5.592674016952514648e-01 -1.063864901661872864e-01 -3.981957137584686279e-01
3.780000000000000000e+02 6.419864654541015625e+01 3.537438583374023438e+01 -6.079836487770080566e-01 5.108866691589355469e-01 -2.912909537553787231e-02 -4.942667484283447266e-01
3.790000000000000000e+02 6.196253967285156250e+01 3.543639373779296875e+01 -1.599525690078735352e+00 7.353390753269195557e-02 -4.577975273132324219e-01 4.193332493305206299e-01
3.800000000000000000e+02 6.192626953125000000e+01 3.469683837890625000e+01 -2.855855941772460938e+00 1.642885431647300720e-02 -8.518280982971191406e-01 3.989360034465789795e-01
3.810000000000000000e+02 6.265960311889648438e+01 3.461780548095703125e+01 -3.133883953094482422e+00 -6.257086247205734253e-02 -9.589363932609558105e-01 3.750352263450622559e-01
3.820000000000000000e+02 6.336594390869140625e+01 3.447685623168945312e+01 -3.385224342346191406e+00 -3.795170411467552185e-02 -1.026952743530273438e+00 4.126581251621246338e-01
3.830000000000000000e+02 6.435898590087890625e+01 3.493965148925781250e+01 -1.476547360420227051e+00 3.295781314373016357e-01 -3.440907597541809082e-01 -8.575343340635299683e-02
3.840000000000000000e+02 6.427364349365234375e+01 3.449451828002929688e+01 -3.116755723953247070e+00 1.139973998069763184e-01 -9.008274674415588379e-01 3.106911182403564453e-01
3.850000000000000000e+02 6.439389038085937500e+01 3.551112747192382812e+01 -3.299991190433502197e-01 7.042837738990783691e-01 1.122853979468345642e-01 -7.107471227645874023e-01
3.860000000000000000e+02 6.421652221679687500e+01 3.426036834716796875e+01 -3.904934883117675781e+00 2.515853010118007660e-02 -1.163932919502258301e+00 4.049085676670074463e-01
3.870000000000000000e+02 6.385271072387695312e+01 3.446440124511718750e+01 -3.447576999664306641e+00 -8.818349987268447876e-02 -1.060728192329406738e+00 3.888846337795257568e-01
3.880000000000000000e+02 6.356245803833007812e+01 3.482859420776367188e+01 -2.450523614883422852e+00 1.151761692017316818e-02 -7.317017912864685059e-01 2.190157622098922729e-01
3.890000000000000000e+02 6.431403350830078125e+01 3.471586608886718750e+01 -2.432824850082397461e+00 1.748241931200027466e-01 -6.774002313613891602e-01 9.946091473102569580e-02
3.900000000000000000e+02 6.045466995239257812e+01 3.487708282470703125e+01 -2.258829593658447266e+00 -6.649342179298400879e-02 -6.975969076156616211e-01 4.470204412937164307e-01
3.910000000000000000e+02 5.980386352539062500e+01 3.570315170288085938e+01 -1.288010120391845703e+00 -1.179378926753997803e-01 -4.217844009399414062e-01 5.591877102851867676e-01
3.920000000000000000e+02 6.127589035034179688e+01 3.551908111572265625e+01 -1.516712188720703125e+00 3.140792995691299438e-02 -4.455913007259368896e-01 4.981173872947692871e-01
3.930000000000000000e+02 5.906895828247070312e+01 3.579169464111328125e+01 -1.101293444633483887e+00 -9.982279688119888306e-02 -3.603348731994628906e-01 5.555556416511535645e-01
3.940000000000000000e+02 6.053950500488281250e+01 3.561222839355468750e+01 -1.418826460838317871e+00 -1.041932776570320129e-01 -4.569059312343597412e-01 5.453282594680786133e-01
3.950000000000000000e+02 5.897272491455078125e+01 3.505795669555664062e+01 -1.634662270545959473e+00 -4.405989870429039001e-02 -5.036166906356811523e-01 3.618206381797790527e-01
3.960000000000000000e+02 6.119675064086914062e+01 3.478322982788085938e+01 -2.558698415756225586e+00 -4.794713854789733887e-02 -7.819936871528625488e-01 4.513237476348876953e-01
3.970000000000000000e+02 5.971332931518554688e+01 3.496871185302734375e+01 -1.945146322250366211e+00 -8.783184736967086792e-02 -6.098934412002563477e-01 3.944569826126098633e-01
3.980000000000000000e+02 5.676622772216796875e+01 3.537297821044921875e+01 -7.794513106346130371e-01 -4.768317937850952148e-02 -2.481403350830078125e-01 2.575081884860992432e-01
3.990000000000000000e+02 5.690399551391601562e+01 3.610068511962890625e+01 -5.204566121101379395e-01 -1.565764546394348145e-01 -2.031099200248718262e-01 4.622629880905151367e-01
4.000000000000000000e+02 5.603319931030273438e+01 3.547965621948242188e+01 -4.963334500789642334e-01 -6.080946326255798340e-02 -1.671428829431533813e-01 2.151014208793640137e-01
4.010000000000000000e+02 5.750018692016601562e+01 3.526519775390625000e+01 -1.056148409843444824e+00 -6.955701857805252075e-02 -3.377116024494171143e-01 2.909865379333496094e-01
4.020000000000000000e+02 5.834177017211914062e+01 3.588873672485351562e+01 -9.432957172393798828e-01 -1.333862096071243286e-01 -3.230045735836029053e-01 4.988699257373809814e-01
4.030000000000000000e+02 5.823495101928710938e+01 3.515648651123046875e+01 -1.331300258636474609e+00 -6.993209570646286011e-02 -4.203696846961975098e-01 3.384846448898315430e-01
4.040000000000000000e+02 5.618644332885742188e+01 3.620509338378906250e+01 -3.930947780609130859e-01 -1.232369989156723022e-01 -1.548995375633239746e-01 3.923078477382659912e-01
4.050000000000000000e+02 5.762247848510742188e+01 3.599517822265625000e+01 -7.372215390205383301e-01 -1.019692718982696533e-01 -2.517572343349456787e-01 5.124434828758239746e-01
4.060000000000000000e+02 5.384532546997070312e+01 3.667871856689453125e+01 5.118922889232635498e-02 -2.549531757831573486e-01 -6.112917885184288025e-02 2.191121689975261688e-02
4.070000000000000000e+02 5.390139770507812500e+01 3.633741760253906250e+01 -2.379431389272212982e-02 -9.235103428363800049e-02 -3.484360501170158386e-02 7.287509739398956299e-02
4.080000000000000000e+02 5.457950592041015625e+01 3.674075698852539062e+01 -1.087990030646324158e-01 -2.623177170753479004e-01 -1.113350167870521545e-01 2.723638713359832764e-01
4.090000000000000000e+02 5.383747482299804688e+01 3.704690551757812500e+01 -3.845135122537612915e-02 -3.413218855857849121e-01 -1.139319762587547302e-01 3.099599108099937439e-02
4.100000000000000000e+02 5.522666168212890625e+01 3.569715881347656250e+01 -2.323099970817565918e-01 -6.305743008852005005e-02 -8.861023187637329102e-02 1.680824607610702515e-01
4.110000000000000000e+02 5.406111526489257812e+01 3.588264846801757812e+01 -2.982394210994243622e-02 -1.663423143327236176e-02 -1.393745187669992447e-02 2.234762907028198242e-02
4.120000000000000000e+02 5.539877319335937500e+01 3.641811752319335938e+01 -2.790997028350830078e-01 -1.748190671205520630e-01 -1.361756324768066406e-01 3.691427409648895264e-01
4.130000000000000000e+02 5.409225845336914062e+01 3.654366683959960938e+01 1.118653360754251480e-02 -1.739451885223388672e-01 -4.882759600877761841e-02 1.366359144449234009e-01
4.140000000000000000e+02 5.450753784179687500e+01 3.614347457885742188e+01 -1.025040447711944580e-01 -1.526339054107666016e-01 -7.654137909412384033e-02 1.500565707683563232e-01
4.150000000000000000e+02 5.406600952148437500e+01 3.695836257934570312e+01 -1.100234687328338623e-02 -3.781989514827728271e-01 -1.167603954672813416e-01 1.559841036796569824e-01
4.160000000000000000e+02 5.344662094116210938e+01 3.479689788818359375e+01 -1.706801205873489380e-01 -1.135481223464012146e-01 -8.526847511529922485e-02 -1.433160006999969482e-01
4.170000000000000000e+02 5.366340637207031250e+01 3.510863113403320312e+01 -9.334751963615417480e-02 -3.139553591609001160e-02 -3.742291405797004700e-02 -1.073918789625167847e-01
4.180000000000000000e+02 5.494368743896484375e+01 3.414394760131835938e+01 -9.535920619964599609e-01 9.090746194124221802e-02 -2.588053941726684570e-01 -3.696262240409851074e-01
4.190000000000000000e+02 5.424127578735351562e+01 3.501722717285156250e+01 -3.102116584777832031e-01 -2.828875789418816566e-03 -9.391215443611145020e-02 -1.164371892809867859e-01
4.200000000000000000e+02 5.503524398803710938e+01 3.488909530639648438e+01 -6.733578443527221680e-01 3.821215778589248657e-02 -1.905437111854553223e-01 -6.060779094696044922e-02
4.210000000000000000e+02 5.318430709838867188e+01 3.449492645263671875e+01 -2.453197538852691650e-01 -1.985691636800765991e-01 -1.331666707992553711e-01 -2.311826199293136597e-01
4.220000000000000000e+02 5.394946670532226562e+01 3.541463851928710938e+01 -1.038368716835975647e-01 -4.258890694472938776e-04 -3.127883002161979675e-02 -6.646722089499235153e-03
4.230000000000000000e+02 5.366458129882812500e+01 3.433396148681640625e+01 -4.802785813808441162e-01 -9.030232578516006470e-02 -1.711742728948593140e-01 -3.362538516521453857e-01
4.240000000000000000e+02 5.396925354003906250e+01 3.460595321655273438e+01 -4.770970940589904785e-01 1.104606315493583679e-02 -1.398153007030487061e-01 -2.081282585859298706e-01
4.250000000000000000e+02 5.424771118164062500e+01 3.423815917968750000e+01 -7.434073090553283691e-01 5.599005147814750671e-02 -2.062251865863800049e-01 -3.502603173255920410e-01
4.260000000000000000e+02 5.296697235107421875e+01 3.414298629760742188e+01 -3.385525643825531006e-01 -3.486574590206146240e-01 -2.061630040407180786e-01 -3.588707149028778076e-01
4.270000000000000000e+02 5.429192352294921875e+01 3.244157028198242188e+01 -1.151152133941650391e+00 8.162566274404525757e-02 -3.208579421043395996e-01 -7.176711559295654297e-01
4.280000000000000000e+02 5.943013381958007812e+01 3.224594497680664062e+01 -1.550574541091918945e+00 1.958597004413604736e-01 -4.064144492149353027e-01 -3.416197299957275391e-01
4.290000000000000000e+02 5.276592254638671875e+01 3.376179504394531250e+01 -4.618090093135833740e-01 -4.692239165306091309e-01 -2.793098688125610352e-01 -4.564437866210937500e-01
4.300000000000000000e+02 4.948359298706054688e+01 3.017861557006835938e+01 -1.408459305763244629e+00 -1.314176917076110840e+00 -8.167908787727355957e-01 -1.358094930648803711e+00
4.310000000000000000e+02 4.743196105957031250e+01 2.828448867797851562e+01 -1.574751853942871094e+00 -1.299370527267456055e+00 -8.622367382049560547e-01 -1.431382060050964355e+00
4.320000000000000000e+02 5.714381027221679688e+01 2.184176254272460938e+01 -1.586424857378005981e-01 1.891237378120422363e+00 5.197784900665283203e-01 4.462373554706573486e-01
4.330000000000000000e+02 6.636765289306640625e+01 1.074952316284179688e+01 -1.388287693262100220e-01 5.720841407775878906e+00 1.674603700637817383e+00 6.136292219161987305e-01
4.340000000000000000e+02 7.201034545898437500e+01 4.690940380096435547e+00 -1.524448115378618240e-02 7.132717609405517578e+00 2.135241985321044922e+00 3.915972113609313965e-01
4.350000000000000000e+02 7.800438690185546875e+01 -2.955421209335327148e+00 1.031873980537056923e-03 8.312022209167480469e+00 2.493916273117065430e+00 9.987627714872360229e-02
4.360000000000000000e+02 7.934174346923828125e+01 2.753643035888671875e+00 -4.432128334883600473e-04 8.996908187866210938e+00 2.698939561843872070e+00 2.361802756786346436e-02
4.370000000000000000e+02 7.807741546630859375e+01 4.112172126770019531e+00 -1.997926970943808556e-03 8.743916511535644531e+00 2.622575759887695312e+00 1.050082072615623474e-01
4.380000000000000000e+02 7.940890502929687500e+01 8.339232444763183594e+00 -1.802580227376893163e-04 9.388771057128906250e+00 2.816577196121215820e+00 1.136063691228628159e-02
4.390000000000000000e+02 7.401937103271484375e+01 1.756114196777343750e+01 -3.394551277160644531e-01 8.329386711120605469e+00 2.396979570388793945e+00 -4.608168452978134155e-02
4.400000000000000000e+02 6.161258316040039062e+01 2.830484771728515625e+01 2.888138890266418457e-01 1.958419322967529297e+00 6.741699576377868652e-01 1.147171497344970703e+00
4.410000000000000000e+02 5.871500396728515625e+01 3.290031433105468750e+01 -1.859419822692871094e+00 1.439153999090194702e-01 -5.146513581275939941e-01 -3.446504175662994385e-01
4.420000000000000000e+02 5.832561111450195312e+01 2.855097389221191406e+01 -3.358436524868011475e-01 8.769130706787109375e-01 1.623208224773406982e-01 -5.758466944098472595e-02
4.430000000000000000e+02 5.703288269042968750e+01 2.835206413269042969e+01 -5.254709720611572266e-01 7.136902809143066406e-01 5.646579712629318237e-02 -2.753316462039947510e-01
4.440000000000000000e+02 3.280249786376953125e+01 -1.419492912292480469e+01 -7.374579459428787231e-02 -3.997620046138763428e-01 -1.420523375272750854e-01 2.008773982524871826e-01
4.450000000000000000e+02 3.324212646484375000e+01 -1.043310928344726562e+01 3.691885769367218018e-01 -2.946104109287261963e-01 2.237344905734062195e-02 -1.038916260004043579e-01
4.460000000000000000e+02 4.042600631713867188e+01 -9.774487495422363281e+00 4.554722011089324951e-01 1.496167778968811035e-01 1.815266907215118408e-01 1.026256475597620010e-03
4.470000000000000000e+02 4.618144607543945312e+01 -1.326302814483642578e+01 2.756561636924743652e-01 1.167102932929992676e+00 4.328277409076690674e-01 5.851111188530921936e-02
4.480000000000000000e+02 5.510170745849609375e+01 -1.510900306701660156e+01 1.414874494075775146e-01 3.023646831512451172e+00 9.495402574539184570e-01 2.600628137588500977e-01
4.490000000000000000e+02 6.687818145751953125e+01 -1.007648181915283203e+01 7.946003228425979614e-02 5.494955539703369141e+00 1.672324657440185547e+00 3.936276435852050781e-01
4.500000000000000000e+02 7.302613067626953125e+01 -1.175376224517822266e+01 2.170995809137821198e-02 6.833950042724609375e+00 2.056698083877563477e+00 2.601169943809509277e-01
4.510000000000000000e+02 7.937274932861328125e+01 -1.258455562591552734e+01 7.145864656195044518e-04 8.113045692443847656e+00 2.434128046035766602e+00 1.711297035217285156e-02
4.520000000000000000e+02 7.810845947265625000e+01 -9.915259361267089844e+00 1.038344693370163441e-03 7.980328083038330078e+00 2.394409894943237305e+00 7.859490066766738892e-02
4.530000000000000000e+02 7.935273742675781250e+01 -5.634850025177001953e+00 2.873385965358465910e-04 8.468965530395507812e+00 2.540776014328002930e+00 2.044259570538997650e-02
4.540000000000000000e+02 7.139950561523437500e+01 -2.673484086990356445e+00 3.999694809317588806e-02 6.727112770080566406e+00 2.030133008956909180e+00 3.834515810012817383e-01
4.550000000000000000e+02 6.642855072021484375e+01 -3.127975463867187500e+00 8.831181377172470093e-02 5.472604274749755859e+00 1.668274879455566406e+00 4.711801707744598389e-01
4.560000000000000000e+02 6.059245300292968750e+01 -6.433890461921691895e-01 1.552391350269317627e-01 4.034281730651855469e+00 1.256856322288513184e+00 5.295376181602478027e-01
4.570000000000000000e+02 4.682455062866210938e+01 -4.882765769958496094e+00 3.549605011940002441e-01 1.093028903007507324e+00 4.343968033790588379e-01 1.925744116306304932e-01
4.580000000000000000e+02 4.191424560546875000e+01 -6.695261001586914062e+00 4.556396007537841797e-01 3.120174705982208252e-01 2.302971184253692627e-01 8.112783730030059814e-02
4.590000000000000000e+02 3.519965362548828125e+01 -7.212955951690673828e+00 6.155811548233032227e-01 -3.856625258922576904e-01 6.897559762001037598e-02 -7.578261196613311768e-02
4.600000000000000000e+02 2.745726394653320312e+01 -6.281177043914794922e+00 7.406235933303833008e-01 6.258850693702697754e-01 4.099526107311248779e-01 -7.635414600372314453e-01
4.610000000000000000e+02 2.562239265441894531e+01 -4.112237930297851562e+00 1.307678580284118652e+00 9.952281713485717773e-01 6.908720135688781738e-01 -1.228023171424865723e+00
4.620000000000000000e+02 2.844746398925781250e+01 -5.723248004913330078e+00 9.687849283218383789e-01 2.423296868801116943e-01 3.633343875408172607e-01 -5.878524184226989746e-01
4.630000000000000000e+02 3.228675460815429688e+01 -1.117043495178222656e+01 1.836058944463729858e-01 -2.476686984300613403e-01 -1.921884156763553619e-02 -5.739088356494903564e-02
4.640000000000000000e+02 3.130588531494140625e+01 -1.188956451416015625e+01 4.204471781849861145e-02 -1.866098940372467041e-01 -4.336955398321151733e-02 5.527511984109878540e-02
4.650000000000000000e+02 3.237953948974609375e+01 1.293234920501708984e+01 -1.398604750633239746e+00 -1.514287948608398438e+00 -8.738678097724914551e-01 -1.485767602920532227e+00
4.660000000000000000e+02 3.183452796936035156e+01 1.235171031951904297e+01 -1.464941024780273438e+00 -1.648707985877990723e+00 -9.340947270393371582e-01 -1.554506540298461914e+00
4.670000000000000000e+02 3.210686874389648438e+01 1.264310359954833984e+01 -1.410710573196411133e+00 -1.587193012237548828e+00 -8.993710875511169434e-01 -1.496551156044006348e+00
4.680000000000000000e+02 3.127693939208984375e+01 1.177993965148925781e+01 -1.668922066688537598e+00 -1.618430495262145996e+00 -9.862057566642761230e-01 -1.616731047630310059e+00
4.690000000000000000e+02 3.071613121032714844e+01 1.122357273101806641e+01 -1.644139289855957031e+00 -1.399710178375244141e+00 -9.131548404693603516e-01 -1.527980089187622070e+00
4.700000000000000000e+02 3.068691253662109375e+01 7.420856952667236328e+00 -1.158064484596252441e+00 -1.452005267143249512e+00 -7.830209136009216309e-01 -1.398845791816711426e+00
4.710000000000000000e+02 2.956410408020019531e+01 5.696716785430908203e+00 -2.221818447113037109e+00 -1.308136105537414551e+00 -1.058986425399780273e+00 -1.195293068885803223e+00
4.720000000000000000e+02 3.049747657775878906e+01 6.218773365020751953e+00 -1.748435735702514648e+00 -1.117859601974487305e+00 -8.598886132240295410e-01 -1.322783827781677246e+00
4.730000000000000000e+02 2.287581443786621094e+01 1.626784205436706543e+00 -3.276380538940429688e+00 -6.433781385421752930e-01 -1.175927639007568359e+00 -1.907722473144531250e+00
4.740000000000000000e+02 2.267570877075195312e+01 1.517764568328857422e+00 -3.104773044586181641e+00 -5.758825540542602539e-01 -1.104196667671203613e+00 -1.915355205535888672e+00
4.750000000000000000e+02 2.200933265686035156e+01 1.062210321426391602e+00 -2.683555841445922852e+00 -5.882122516632080078e-01 -9.815304875373840332e-01 -2.357841968536376953e+00
4.760000000000000000e+02 1.948554039001464844e+01 -8.101362586021423340e-01 -3.275875329971313477e+00 -4.895535945892333984e+00 -2.451423406600952148e+00 -2.473330974578857422e+00
4.770000000000000000e+02 2.043238639831542969e+01 2.127374410629272461e-01 -2.129954099655151367e+00 -2.607519865036010742e+00 -1.421242117881774902e+00 -3.402044534683227539e+00
4.780000000000000000e+02 1.583742809295654297e+01 -2.456223726272583008e+00 -1.555139183998107910e+00 -6.679707169532775879e-01 -6.669329404830932617e-01 -8.493857979774475098e-01
4.790000000000000000e+02 1.171663379669189453e+01 -2.206862449645996094e+00 -6.492157578468322754e-01 -9.263111278414726257e-03 -1.975436657667160034e-01 -2.372409999370574951e-01
4.800000000000000000e+02 1.097944927215576172e+01 -2.100985527038574219e+00 -5.331510305404663086e-01 -1.555504743009805679e-02 -1.646118164062500000e-01 -1.904173195362091064e-01
4.810000000000000000e+02 1.046787452697753906e+01 -7.255865097045898438e+00 -3.164441585540771484e-01 -3.421877622604370117e-01 -1.975895762443542480e-01 -6.042561531066894531e-01
4.820000000000000000e+02 7.181004047393798828e+00 -1.987021446228027344e+01 8.242881298065185547e-02 -7.870320677757263184e-01 -2.113809883594512939e-01 -3.520162701606750488e-01
4.830000000000000000e+02 7.423205852508544922e+00 -2.712352180480957031e+01 7.837501168251037598e-02 -9.294161796569824219e-01 -2.553123533725738525e-01 -2.367539554834365845e-01
4.840000000000000000e+02 7.542072772979736328e+00 -4.104021072387695312e+01 5.364389345049858093e-02 -1.078671932220458984e+00 -3.075084090232849121e-01 -2.413017116487026215e-02
4.850000000000000000e+02 1.195172691345214844e+01 -3.744379043579101562e+01 1.429219543933868408e-01 -6.969013810157775879e-01 -1.661938279867172241e-01 -9.955511987209320068e-02
4.860000000000000000e+02 2.005699157714843750e+01 -3.901957702636718750e+01 3.276554048061370850e-01 -8.395236730575561523e-02 7.311090826988220215e-02 -8.896118402481079102e-02
4.870000000000000000e+02 1.669360542297363281e+01 -4.053100204467773438e+01 2.537393867969512939e-01 -3.145440518856048584e-01 -1.824139244854450226e-02 -5.149347335100173950e-02
4.880000000000000000e+02 1.379110050201416016e+01 -2.820075035095214844e+01 1.777945458889007568e-01 -4.856557250022888184e-01 -9.235835075378417969e-02 -2.812474071979522705e-01
4.890000000000000000e+02 1.729251289367675781e+01 -2.513625717163085938e+01 2.342978119850158691e-01 -2.162790596485137939e-01 5.405624862760305405e-03 -3.282917737960815430e-01
4.900000000000000000e+02 1.932010078430175781e+01 -1.809972763061523438e+01 2.503026127815246582e-01 -7.179965078830718994e-02 5.355088785290718079e-02 -3.203734457492828369e-01
4.910000000000000000e+02 2.225713920593261719e+01 -1.318287944793701172e+01 1.996094286441802979e-01 3.295622467994689941e-01 1.587515026330947876e-01 -2.269622534513473511e-01
4.920000000000000000e+02 1.975905799865722656e+01 -8.198087692260742188e+00 8.805711567401885986e-02 -6.040716171264648438e-01 -1.548043489456176758e-01 5.749933049082756042e-02
4.930000000000000000e+02 1.911076927185058594e+01 -1.001868343353271484e+01 2.052117288112640381e-01 -4.888184964656829834e-01 -8.508203178644180298e-02 -1.808599680662155151e-01
4.940000000000000000e+02 1.938381385803222656e+01 -6.842555999755859375e+00 -9.869425743818283081e-02 -1.165308117866516113e+00 -3.792006969451904297e-01 -8.609031792730093002e-04
4.950000000000000000e+02 1.901052284240722656e+01 -4.016184806823730469e+00 -4.084272384643554688e-01 -3.460120916366577148e+00 -1.160564422607421875e+00 -5.404959321022033691e-01
4.960000000000000000e+02 1.886734962463378906e+01 -7.585978507995605469e-01 -2.700222492218017578e+00 -2.576904535293579102e+00 -1.583138108253479004e+00 -2.083088397979736328e+00
4.970000000000000000e+02 1.916320419311523438e+01 -5.580821037292480469e-01 -2.843537807464599609e+00 -3.266068458557128906e+00 -1.832881808280944824e+00 -1.925891876220703125e+00
4.980000000000000000e+02 1.024410915374755859e+01 -1.997956037521362305e+00 -4.297254085540771484e-01 7.879881188273429871e-03 -1.265536546707153320e-01 -1.549557596445083618e-01
4.990000000000000000e+02 3.773662090301513672e+00 -1.984779715538024902e+00 -4.459545388817787170e-02 -1.858726330101490021e-02 -1.895481534302234650e-02 -2.638384513556957245e-02
5.000000000000000000e+02 1.654494285583496094e+00 -1.065147018432617188e+01 -3.800132311880588531e-03 -3.825486600399017334e-01 -1.159046366810798645e-01 -1.328043341636657715e-01
5.010000000000000000e+02 1.879200458526611328e+00 -1.757931327819824219e+01 4.356246907263994217e-03 -8.922141194343566895e-01 -2.663573622703552246e-01 -1.400799155235290527e-01
5.020000000000000000e+02 6.487839221954345703e-01 -2.474191284179687500e+01 1.440355787053704262e-03 -1.408485054969787598e+00 -4.221134185791015625e-01 -3.053405508399009705e-02
5.030000000000000000e+02 7.842467427253723145e-01 -3.176571464538574219e+01 1.590516767464578152e-03 -1.652321934700012207e+00 -4.952194094657897949e-01 -1.599770411849021912e-02
5.040000000000000000e+02 6.844329357147216797e+00 -3.854739379882812500e+01 4.735900089144706726e-02 -1.134171247482299805e+00 -3.260436952114105225e-01 -5.617621913552284241e-02
5.050000000000000000e+02 1.215375781059265137e+00 -3.750327682495117188e+01 1.008972432464361191e-02 -1.725795745849609375e+00 -5.147117972373962402e-01 -4.763201810419559479e-03
5.060000000000000000e+02 2.327493858337402344e+01 -4.088869094848632812e+01 4.282632470130920410e-01 8.461350947618484497e-02 1.538630276918411255e-01 -5.099337548017501831e-02
5.070000000000000000e+02 2.206947708129882812e+01 -3.674739837646484375e+01 3.953251242637634277e-01 7.567255198955535889e-02 1.412993073463439941e-01 -1.765391230583190918e-01
5.080000000000000000e+02 2.797121810913085938e+01 -3.355991744995117188e+01 4.626795649528503418e-01 5.416519045829772949e-01 3.012994527816772461e-01 -3.715755045413970947e-01
5.090000000000000000e+02 2.634754753112792969e+01 -2.031796073913574219e+01 1.953008919954299927e-01 6.605351567268371582e-01 2.567507922649383545e-01 -3.528195619583129883e-01
5.100000000000000000e+02 2.574625015258789062e+01 -2.215796089172363281e+01 2.135556191205978394e-01 5.864498615264892578e-01 2.400016337633132935e-01 -3.643857240676879883e-01
5.110000000000000000e+02 2.369662284851074219e+01 -1.553760528564453125e+01 2.296120673418045044e-01 4.527449607849121094e-01 2.047071009874343872e-01 -2.995605766773223877e-01
5.120000000000000000e+02 2.325815773010253906e+01 -1.734027290344238281e+01 2.109786719083786011e-01 3.804466724395751953e-01 1.774276047945022583e-01 -3.027561604976654053e-01
5.130000000000000000e+02 3.735358428955078125e+01 -3.763776397705078125e+01 1.066563010215759277e+00 7.009528279304504395e-01 5.302547812461853027e-01 -6.797918081283569336e-01
5.140000000000000000e+02 3.279681777954101562e+01 -3.252333068847656250e+01 5.858551263809204102e-01 8.891943097114562988e-01 4.425148367881774902e-01 -6.897621154785156250e-01
5.150000000000000000e+02 3.196502304077148438e+01 -3.143042373657226562e+01 5.239887237548828125e-01 1.015839576721191406e+00 4.619484841823577881e-01 -6.594635844230651855e-01
5.160000000000000000e+02 3.166809844970703125e+01 -3.323698806762695312e+01 5.270888209342956543e-01 8.196981549263000488e-01 4.040360748767852783e-01 -5.395253300666809082e-01
5.170000000000000000e+02 2.995886993408203125e+01 -2.777479362487792969e+01 2.539183199405670166e-01 9.135101437568664551e-01 3.502285182476043701e-01 -4.767765104770660400e-01
5.180000000000000000e+02 2.814880752563476562e+01 -2.402889060974121094e+01 2.186961174011230469e-01 8.082773685455322266e-01 3.080920279026031494e-01 -4.200147986412048340e-01
5.190000000000000000e+02 4.479939270019531250e+01 -3.898208999633789062e+01 1.579743385314941406e+00 2.075534343719482422e+00 1.096583366394042969e+00 6.969434022903442383e-01
5.200000000000000000e+02 4.632778930664062500e+01 -3.727584075927734375e+01 9.802978038787841797e-01 1.993171930313110352e+00 8.920409083366394043e-01 5.977385044097900391e-01
5.210000000000000000e+02 4.880515670776367188e+01 -3.747026824951171875e+01 8.894887566566467285e-01 2.159860610961914062e+00 9.148048162460327148e-01 4.941698908805847168e-01
5.220000000000000000e+02 5.496815490722656250e+01 -3.667422485351562500e+01 5.084643363952636719e-01 3.137384653091430664e+00 1.093754768371582031e+00 3.264676928520202637e-01
5.230000000000000000e+02 5.445590209960937500e+01 -2.230308532714843750e+01 2.731751650571823120e-02 3.065941810607910156e+00 9.279778003692626953e-01 2.463821023702621460e-01
5.240000000000000000e+02 5.490282440185546875e+01 -2.026025581359863281e+01 4.552675038576126099e-02 3.122627496719360352e+00 9.504462480545043945e-01 2.433335185050964355e-01
5.250000000000000000e+02 5.389484405517578125e+01 -1.817520904541015625e+01 8.404295891523361206e-02 2.867326021194458008e+00 8.854106664657592773e-01 2.220114767551422119e-01
5.260000000000000000e+02 4.881427764892578125e+01 -1.927492141723632812e+01 6.124117597937583923e-02 1.820909500122070312e+00 5.646451711654663086e-01 8.271526545286178589e-02
5.270000000000000000e+02 5.014200210571289062e+01 -1.994419860839843750e+01 3.786572813987731934e-02 2.120461702346801758e+00 6.474982500076293945e-01 1.193752959370613098e-01
5.280000000000000000e+02 4.669409942626953125e+01 -2.462605857849121094e+01 -1.085603907704353333e-01 1.473518967628479004e+00 4.094875752925872803e-01 7.810106128454208374e-02
5.290000000000000000e+02 4.805320358276367188e+01 -3.012426376342773438e+01 -8.244422078132629395e-02 1.999530553817749023e+00 5.751259326934814453e-01 2.465753853321075439e-01
5.300000000000000000e+02 4.647869491577148438e+01 -3.287310791015625000e+01 -8.929916657507419586e-03 1.835596561431884766e+00 5.479999780654907227e-01 2.913359999656677246e-01
5.310000000000000000e+02 5.817349243164062500e+01 -4.045736312866210938e+01 5.106822252273559570e-01 3.663808584213256836e+00 1.252347230911254883e+00 9.132293611764907837e-02
5.320000000000000000e+02 6.304819107055664062e+01 -4.070036697387695312e+01 3.230421543121337891e-01 4.499420642852783203e+00 1.446738839149475098e+00 6.106972321867942810e-02
5.330000000000000000e+02 6.630235290527343750e+01 -2.912523841857910156e+01 7.463604956865310669e-02 5.265079021453857422e+00 1.601914525032043457e+00 2.760977149009704590e-01
5.340000000000000000e+02 6.699769592285156250e+01 -2.544875144958496094e+01 4.891240969300270081e-02 5.427055835723876953e+00 1.642790555953979492e+00 2.879530787467956543e-01
5.350000000000000000e+02 6.295572662353515625e+01 -1.866036605834960938e+01 7.133527845144271851e-02 4.667928218841552734e+00 1.421779036521911621e+00 3.439872562885284424e-01
5.360000000000000000e+02 6.492992401123046875e+01 -1.721950721740722656e+01 6.561803072690963745e-02 5.067505836486816406e+00 1.539937138557434082e+00 3.461493253707885742e-01
5.370000000000000000e+02 5.868587875366210938e+01 -3.656526947021484375e+01 3.974013626575469971e-01 3.785582304000854492e+00 1.254895091056823730e+00 2.604434788227081299e-01
5.380000000000000000e+02 6.777413940429687500e+01 -4.116417694091796875e+01 1.741317510604858398e-01 5.406884670257568359e+00 1.674304962158203125e+00 1.929247193038463593e-02
5.390000000000000000e+02 7.175952148437500000e+01 -3.021370315551757812e+01 3.890015557408332825e-02 6.193268299102783203e+00 1.869650602340698242e+00 1.959894448518753052e-01
5.400000000000000000e+02 7.193780517578125000e+01 -2.407636451721191406e+01 1.549741066992282867e-02 6.337051391601562500e+00 1.905764698982238770e+00 2.210698276758193970e-01
5.410000000000000000e+02 7.141929626464843750e+01 -1.751004219055175781e+01 2.468836680054664612e-02 6.369234561920166016e+00 1.918176889419555664e+00 2.618582248687744141e-01
5.420000000000000000e+02 7.268560028076171875e+01 -1.792914009094238281e+01 1.468092855066061020e-02 6.613437652587890625e+00 1.988435626029968262e+00 2.369756698608398438e-01
5.430000000000000000e+02 7.873193359375000000e+01 -4.042202377319335938e+01 -1.208428572863340378e-02 7.100504875183105469e+00 2.126526117324829102e+00 7.555389404296875000e-02
5.440000000000000000e+02 7.686271667480468750e+01 -3.776494216918945312e+01 -3.751134499907493591e-03 6.899302482604980469e+00 2.068665266036987305e+00 7.657625526189804077e-02
5.450000000000000000e+02 7.906774139404296875e+01 -3.346303939819335938e+01 8.500288822688162327e-05 7.308762073516845703e+00 2.192654132843017578e+00 2.409182302653789520e-02
5.460000000000000000e+02 7.762049102783203125e+01 -3.059147453308105469e+01 3.101656911894679070e-03 7.145658969879150391e+00 2.144628286361694336e+00 6.192441284656524658e-02
5.470000000000000000e+02 7.931695556640625000e+01 -2.647857475280761719e+01 1.680503482930362225e-03 7.538036823272705078e+00 2.261915206909179688e+00 2.021634764969348907e-02
5.480000000000000000e+02 7.800993347167968750e+01 -2.372244453430175781e+01 -1.713466597720980644e-03 7.417467594146728516e+00 2.224726200103759766e+00 6.684045493602752686e-02
5.490000000000000000e+02 7.805921936035156250e+01 -1.681879043579101562e+01 9.686767007224261761e-04 7.677531719207763672e+00 2.303550004959106445e+00 7.116734236478805542e-02
5.500000000000000000e+02 7.933605957031250000e+01 -2.231063079833984375e+01 -2.276733051985502243e-03 7.697859764099121094e+00 2.308675050735473633e+00 1.854250766336917877e-02
5.510000000000000000e+02 7.828739166259765625e+01 1.107528495788574219e+01 -1.575778238475322723e-02 9.195913314819335938e+00 2.754046440124511719e+00 5.415393039584159851e-02
5.520000000000000000e+02 7.944764709472656250e+01 1.667484664916992188e+01 -1.846267143264412880e-03 9.668054580688476562e+00 2.899862527847290039e+00 -5.112527683377265930e-02
5.530000000000000000e+02 7.379895782470703125e+01 2.464524269104003906e+01 -7.493769526481628418e-01 9.100502014160156250e+00 2.505337715148925781e+00 -8.875478506088256836e-01
5.540000000000000000e+02 6.343338012695312500e+01 3.243349075317382812e+01 -9.960169196128845215e-01 3.486147820949554443e-01 -1.942206323146820068e-01 6.164179444313049316e-01
5.550000000000000000e+02 6.211976242065429688e+01 3.200313949584960938e+01 -9.950677752494812012e-01 2.809063494205474854e-01 -2.142484337091445923e-01 2.838996052742004395e-01
5.560000000000000000e+02 5.946265411376953125e+01 3.281456756591796875e+01 -1.944233059883117676e+00 1.329135000705718994e-01 -5.433958768844604492e-01 -2.836602032184600830e-01
5.570000000000000000e+02 7.834543609619140625e+01 1.796029853820800781e+01 -3.863219171762466431e-02 9.276102066040039062e+00 2.771241188049316406e+00 -1.296806931495666504e-01
5.580000000000000000e+02 7.943519592285156250e+01 2.362864875793457031e+01 -2.663049846887588501e-02 8.558270454406738281e+00 2.559492111206054688e+00 -2.261361330747604370e-01
5.590000000000000000e+02 6.857701110839843750e+01 3.262578201293945312e+01 2.794380903244018555e+00 1.991462707519531250e+01 6.812702655792236328e+00 -1.327892422676086426e+00
5.600000000000000000e+02 7.830401611328125000e+01 2.350569343566894531e+01 -7.816701382398605347e-02 8.551091194152832031e+00 2.541877269744873047e+00 -5.318036079406738281e-01
5.610000000000000000e+02 7.945039367675781250e+01 2.919020843505859375e+01 -6.003728136420249939e-03 5.915759086608886719e+00 1.772926568984985352e+00 -3.296888172626495361e-01
5.620000000000000000e+02 6.962751770019531250e+01 3.379594039916992188e+01 7.858095645904541016e+00 1.466580104827880859e+01 6.757169246673583984e+00 -3.365833759307861328e-01
5.630000000000000000e+02 6.891104888916015625e+01 3.294366455078125000e+01 5.408244132995605469e+00 1.862534904479980469e+01 7.210077762603759766e+00 -2.498492717742919922e+00
5.640000000000000000e+02 7.944863891601562500e+01 3.196297836303710938e+01 1.022202055901288986e-02 4.628059387207031250e+00 1.391484379768371582e+00 -2.162598520517349243e-01
5.650000000000000000e+02 7.917121887207031250e+01 3.743337249755859375e+01 4.614964127540588379e-02 5.057248115539550781e+00 1.531019330024719238e+00 3.193296492099761963e-01
5.660000000000000000e+02 7.701914215087890625e+01 3.814648056030273438e+01 1.805411279201507568e-01 7.061896800994873047e+00 2.172731399536132812e+00 5.315868854522705078e-01
5.670000000000000000e+02 6.258026885986328125e+01 3.629892349243164062e+01 -3.161654770374298096e-01 6.317113041877746582e-01 9.466375410556793213e-02 -1.796431243419647217e-01
5.680000000000000000e+02 5.654910659790039062e+01 3.805721664428710938e+01 -9.387447685003280640e-02 -2.767871618270874023e-01 -1.111984923481941223e-01 4.619842171669006348e-01
5.690000000000000000e+02 5.998679733276367188e+01 3.661155700683593750e+01 -5.563473105430603027e-01 -4.212019219994544983e-02 -1.795402467250823975e-01 6.051446199417114258e-01
5.700000000000000000e+02 5.697485733032226562e+01 3.683528518676757812e+01 -3.198949098587036133e-01 -1.908867210149765015e-01 -1.532344818115234375e-01 4.905092418193817139e-01
5.710000000000000000e+02 5.385539627075195312e+01 3.745217514038085938e+01 -3.474436327815055847e-02 -7.505624890327453613e-01 -2.355920523405075073e-01 1.716883331537246704e-01
5.720000000000000000e+02 5.468864822387695312e+01 3.728039932250976562e+01 -2.170011848211288452e-01 -3.386479616165161133e-01 -1.666947454214096069e-01 3.871466219425201416e-01
5.730000000000000000e+02 4.569739913940429688e+01 3.521762847900390625e+01 7.477356493473052979e-02 3.036652319133281708e-02 3.154202550649642944e-02 5.882656201720237732e-02
5.740000000000000000e+02 4.235958862304687500e+01 3.669932556152343750e+01 8.660604059696197510e-02 3.252136334776878357e-02 3.573821857571601868e-02 4.126996919512748718e-02
5.750000000000000000e+02 4.109594726562500000e+01 3.900001144409179688e+01 8.540874719619750977e-02 3.497308492660522461e-02 3.611455112695693970e-02 3.055895119905471802e-02
5.760000000000000000e+02 3.893576049804687500e+01 3.510770797729492188e+01 6.320632249116897583e-02 4.924544319510459900e-02 3.373553231358528137e-02 4.227593168616294861e-02
5.770000000000000000e+02 3.695312881469726562e+01 2.743901252746582031e+01 5.881625413894653320e-02 7.695612311363220215e-02 4.073171317577362061e-02 6.368312984704971313e-02
5.780000000000000000e+02 3.197039413452148438e+01 2.165098381042480469e+01 6.360837817192077637e-02 6.063939630985260010e-02 3.727433085441589355e-02 6.395047158002853394e-02
5.790000000000000000e+02 3.537645339965820312e+01 2.559367561340332031e+01 5.681441724300384521e-02 7.254121452569961548e-02 3.880668804049491882e-02 6.252376735210418701e-02
5.800000000000000000e+02 3.548193359375000000e+01 3.895391082763671875e+01 5.234066396951675415e-02 5.511265248060226440e-02 3.223599493503570557e-02 2.047412469983100891e-02
5.810000000000000000e+02 3.211186981201171875e+01 3.866246414184570312e+01 3.539275005459785461e-02 6.359148025512695312e-02 2.969526872038841248e-02 1.558811869472265244e-02
5.820000000000000000e+02 3.111795425415039062e+01 2.085395240783691406e+01 7.856570184230804443e-02 7.373638451099395752e-02 4.569062590599060059e-02 7.468225806951522827e-02
5.830000000000000000e+02 2.647901725769042969e+01 1.638565444946289062e+01 9.832327067852020264e-02 1.072560101747512817e-01 6.167378276586532593e-02 1.020531728863716125e-01
5.840000000000000000e+02 1.780202674865722656e+01 1.350211143493652344e+01 5.963860452175140381e-02 1.601001173257827759e-01 6.592161953449249268e-02 9.555256366729736328e-02
5.850000000000000000e+02 6.161665916442871094e+00 1.815657615661621094e+01 -4.622757551260292530e-04 -4.982949420809745789e-02 -1.508753094822168350e-02 -2.412521280348300934e-02
5.860000000000000000e+02 1.701610088348388672e+00 1.888987159729003906e+01 1.932367449626326561e-04 -1.540497839450836182e-01 -4.615696147084236145e-02 -1.291956659406423569e-02
5.870000000000000000e+02 5.338677763938903809e-01 1.345737838745117188e+01 -9.968181075237225741e-06 -2.233493477106094360e-01 -6.700779497623443604e-02 -2.632861724123358727e-03
5.880000000000000000e+02 1.545175671577453613e+00 9.204754829406738281e+00 7.823966443538665771e-03 -1.783178299665451050e-01 -5.114815756678581238e-02 1.855196058750152588e-02
5.890000000000000000e+02 5.159525275230407715e-01 6.439184188842773438e+00 1.957860775291919708e-03 -1.510128378868103027e-01 -4.471649229526519775e-02 1.627693139016628265e-02
5.900000000000000000e+02 1.765876531600952148e+00 3.905929088592529297e+00 -5.858892574906349182e-03 -7.045613229274749756e-02 -2.289450727403163910e-02 5.426987633109092712e-02
5.910000000000000000e+02 2.238679313659667969e+01 4.116434097290039062e+01 2.246619202196598053e-03 5.593583732843399048e-02 1.745473779737949371e-02 3.503972431644797325e-03
5.920000000000000000e+02 2.641802978515625000e+01 2.845943450927734375e+01 2.113175578415393829e-02 8.155477792024612427e-02 3.080596029758453369e-02 4.500616714358329773e-02
5.930000000000000000e+02 2.752437782287597656e+01 2.286716079711914062e+01 4.444495588541030884e-02 9.108559787273406982e-02 4.065916687250137329e-02 6.798589229583740234e-02
5.940000000000000000e+02 2.574740219116210938e+01 2.178783416748046875e+01 4.439885541796684265e-02 9.801428020000457764e-02 4.272394254803657532e-02 6.921982765197753906e-02
5.950000000000000000e+02 1.750391006469726562e+01 4.099478912353515625e+01 -5.878421943634748459e-03 3.291524201631546021e-02 8.111046627163887024e-03 8.989571942947804928e-04
5.960000000000000000e+02 2.218456649780273438e+01 3.842670440673828125e+01 1.585290883667767048e-03 5.602932721376419067e-02 1.728438585996627808e-02 8.374310098588466644e-03
5.970000000000000000e+02 1.802991485595703125e+01 2.990650367736816406e+01 -3.510045120492577553e-03 5.828068405389785767e-02 1.643119193613529205e-02 1.646574772894382477e-02
5.980000000000000000e+02 1.347176361083984375e+01 2.246540069580078125e+01 -5.525040905922651291e-03 5.807008221745491028e-02 1.576351188123226166e-02 7.405674085021018982e-03
5.990000000000000000e+02 1.371986675262451172e+01 2.417042732238769531e+01 -7.117402274161577225e-03 5.085572972893714905e-02 1.312149874866008759e-02 6.403732579201459885e-03
6.000000000000000000e+02 1.260434627532958984e+01 4.106280517578125000e+01 -7.037388160824775696e-03 2.407861175015568733e-03 -1.388858072459697723e-03 -1.363957271678373218e-04
6.010000000000000000e+02 1.204874897003173828e+01 3.831878662109375000e+01 -8.035880513489246368e-03 -7.729445351287722588e-04 -2.642647596076130867e-03 -1.357693807221949100e-03
6.020000000000000000e+02 7.719688415527343750e+00 3.102408409118652344e+01 -6.643369328230619431e-03 -3.573226928710937500e-02 -1.271269097924232483e-02 -1.028601638972759247e-02
6.030000000000000000e+02 7.239560127258300781e+00 2.481060981750488281e+01 -7.250811439007520676e-03 -3.771324828267097473e-02 -1.348921749740839005e-02 -1.680045388638973236e-02
6.040000000000000000e+02 2.043236970901489258e+00 4.167251968383789062e+01 -4.238212015479803085e-03 -8.775662630796432495e-02 -2.759844996035099030e-02 -1.193244126625359058e-03
6.050000000000000000e+02 5.910695552825927734e+00 3.706750869750976562e+01 -2.486654557287693024e-03 -5.646573007106781006e-02 -1.768571510910987854e-02 -2.875087084248661995e-03
6.060000000000000000e+02 2.456264019012451172e+00 3.569864654541015625e+01 1.764447188179474324e-05 -8.869346231222152710e-02 -2.660274691879749298e-02 -4.231185652315616608e-03
6.070000000000000000e+02 2.003273248672485352e+00 2.870475959777832031e+01 -1.126799965277314186e-03 -1.050416305661201477e-01 -3.185052797198295593e-02 -6.963281892240047455e-03
6.080000000000000000e+02 1.732219219207763672e+00 2.028836250305175781e+01 -1.119333552196621895e-03 -1.452154666185379028e-01 -4.390043765306472778e-02 -1.223375927656888962e-02
6.090000000000000000e+02 5.462245941162109375e+00 1.896132469177246094e+00 -1.257925331592559814e-01 -3.522423282265663147e-02 -4.830503091216087341e-02 1.219928339123725891e-01
6.100000000000000000e+02 8.436836242675781250e+00 2.436474084854125977e+00 -9.745686501264572144e-02 -1.924918889999389648e-01 -8.698462694883346558e-02 2.866902053356170654e-01
6.110000000000000000e+02 5.895887851715087891e+00 1.134377193450927734e+01 4.100264236330986023e-02 -6.625828891992568970e-02 -7.576694246381521225e-03 -7.262102793902158737e-03
6.120000000000000000e+02 7.207816600799560547e+00 1.805748176574707031e+01 -1.085044117644429207e-03 -2.531825564801692963e-02 -7.920989766716957092e-03 -2.208054624497890472e-02
6.130000000000000000e+02 1.378427600860595703e+01 2.132241964340209961e+00 6.177319288253784180e-01 3.306642293930053711e+00 1.177312254905700684e+00 -9.474337697029113770e-01
6.140000000000000000e+02 1.412435436248779297e+01 1.346428036689758301e+00 3.108039140701293945e+00 3.056594371795654297e+00 1.849390029907226562e+00 -2.297921419143676758e+00
6.150000000000000000e+02 1.541034984588623047e+01 8.580608367919921875e-01 9.133399963378906250e+00 2.268020212650299072e-01 2.808060646057128906e+00 -8.029178977012634277e-01
6.160000000000000000e+02 1.385760021209716797e+01 1.713528275489807129e+00 1.762719869613647461e+00 3.265888214111328125e+00 1.508582472801208496e+00 -1.658236026763916016e+00
6.170000000000000000e+02 1.053670120239257812e+01 1.693185448646545410e+00 -1.634440720081329346e-01 -3.887665569782257080e-01 -1.656631976366043091e-01 4.721977412700653076e-01
6.180000000000000000e+02 1.129237556457519531e+01 1.579610228538513184e+00 -1.351207029074430466e-02 -4.414162337779998779e-01 -1.364784836769104004e-01 4.794357717037200928e-01
6.190000000000000000e+02 1.412217044830322266e+01 3.733148813247680664e+00 3.632363677024841309e-01 1.266296148300170898e+00 4.888597726821899414e-01 5.464314818382263184e-01
6.200000000000000000e+02 1.638070297241210938e+01 6.143714427947998047e+00 2.321947365999221802e-01 2.652174830436706543e-01 1.492236703634262085e-01 2.444726973772048950e-01
6.210000000000000000e+02 2.142904663085937500e+01 1.127531337738037109e+01 1.337747722864151001e-01 1.417919546365737915e-01 8.267001807689666748e-02 1.378306001424789429e-01
6.220000000000000000e+02 2.481603050231933594e+01 1.467703628540039062e+01 1.101848855614662170e-01 9.935963898897171021e-02 6.286335736513137817e-02 1.058856025338172913e-01
6.230000000000000000e+02 4.944886398315429688e+01 3.759484863281250000e+01 2.094710171222686768e-01 4.616617411375045776e-02 7.669115811586380005e-02 6.810369342565536499e-02
6.240000000000000000e+02 4.882561874389648438e+01 3.779045104980468750e+01 1.841413825750350952e-01 3.074262663722038269e-02 6.446520239114761353e-02 4.815993085503578186e-02
6.250000000000000000e+02 5.206063842773437500e+01 3.865586090087890625e+01 3.250205516815185547e-01 7.943192869424819946e-02 1.213357448577880859e-01 1.540033817291259766e-01
6.260000000000000000e+02 5.238611602783203125e+01 3.919171142578125000e+01 9.333532303571701050e-02 -4.336469992995262146e-02 1.499118655920028687e-02 2.382580190896987915e-01
6.270000000000000000e+02 5.283134841918945312e+01 3.901438903808593750e+01 2.203470654785633087e-02 -2.088149785995483398e-01 -5.603408068418502808e-02 2.877122759819030762e-01
6.280000000000000000e+02 5.322392654418945312e+01 3.942203521728515625e+01 8.912795037031173706e-02 -4.186415970325469971e-01 -9.885409474372863770e-02 3.140366673469543457e-01
6.290000000000000000e+02 5.261045074462890625e+01 3.971100997924804688e+01 1.441318988800048828e-01 -1.864371746778488159e-01 -1.269158348441123962e-02 2.929406464099884033e-01
6.300000000000000000e+02 5.372492599487304688e+01 3.822600173950195312e+01 -4.351395964622497559e-01 -9.115680456161499023e-01 -4.040122926235198975e-01 5.119149088859558105e-01
6.310000000000000000e+02 5.385237884521484375e+01 3.785664749145507812e+01 -2.632237970829010010e-01 -9.791123867034912109e-01 -3.727008402347564697e-01 3.557020425796508789e-01
6.320000000000000000e+02 5.138487625122070312e+01 3.830209350585937500e+01 2.930167913436889648e-01 5.081007629632949829e-02 1.031480580568313599e-01 1.346527934074401855e-01
6.330000000000000000e+02 7.501784515380859375e+01 3.754527282714843750e+01 2.899864912033081055e-01 8.832309722900390625e+00 2.736688852310180664e+00 1.034158706665039062e+00
6.340000000000000000e+02 6.880938720703125000e+01 3.503107070922851562e+01 4.738239288330078125e+00 1.919615745544433594e+01 7.180318832397460938e+00 2.599937200546264648e+00
6.350000000000000000e+02 6.904000854492187500e+01 3.464180755615234375e+01 7.398865222930908203e+00 1.757628822326660156e+01 7.492546081542968750e+00 2.596343040466308594e+00
6.360000000000000000e+02 3.602080535888671875e+01 -1.695943260192871094e+01 -4.411533102393150330e-02 -4.145895838737487793e-01 -1.376114785671234131e-01 1.919744908809661865e-01
6.370000000000000000e+02 4.014812469482421875e+01 -2.413051795959472656e+01 -1.527808308601379395e-01 -1.603373736143112183e-01 -9.393545985221862793e-02 2.031493037939071655e-01
6.380000000000000000e+02 4.049203109741210938e+01 -2.725004577636718750e+01 -1.795886009931564331e-01 -3.249004483222961426e-01 -1.513467133045196533e-01 2.546224594116210938e-01
6.390000000000000000e+02 3.955592727661132812e+01 -1.790045356750488281e+01 4.655874148011207581e-02 2.097709849476814270e-02 2.026075124740600586e-02 7.115352898836135864e-02
6.400000000000000000e+02 4.112906646728515625e+01 -1.536383724212646484e+01 1.947576403617858887e-01 3.097141087055206299e-01 1.513415127992630005e-01 9.560334146954119205e-04
6.410000000000000000e+02 3.564106369018554688e+01 -1.892173194885253906e+01 -1.839982718229293823e-01 -6.014528274536132812e-01 -2.356353253126144409e-01 3.402752280235290527e-01
6.420000000000000000e+02 3.424267959594726562e+01 -1.654550552368164062e+01 -1.375333964824676514e-01 -5.359627008438110352e-01 -2.020488232374191284e-01 2.871851325035095215e-01
6.430000000000000000e+02 4.339314651489257812e+01 -2.695833015441894531e+01 -1.593403667211532593e-01 5.784740447998046875e-01 1.257400959730148315e-01 6.918425858020782471e-02
6.440000000000000000e+02 4.157765960693359375e+01 -2.649525451660156250e+01 -1.588832885026931763e-01 4.935029894113540649e-02 -3.285989537835121155e-02 1.554332375526428223e-01
6.450000000000000000e+02 4.475716400146484375e+01 -3.471844863891601562e+01 1.136858090758323669e-01 1.763611078262329102e+00 5.631890892982482910e-01 3.215890005230903625e-02
6.460000000000000000e+02 4.623705673217773438e+01 -3.600802612304687500e+01 5.440793037414550781e-01 2.132914304733276367e+00 8.030980229377746582e-01 6.402854919433593750e-01
6.470000000000000000e+02 3.830571746826171875e+01 -4.148750686645507812e+01 1.799216985702514648e+00 5.626161694526672363e-01 7.085499167442321777e-01 -1.578830778598785400e-01
6.480000000000000000e+02 6.302238845825195312e+01 2.860989952087402344e+01 4.374561607837677002e-01 2.824945926666259766e+00 9.787206053733825684e-01 1.848106145858764648e+00
6.490000000000000000e+02 7.311534118652343750e+01 2.595097923278808594e+01 -8.252303004264831543e-01 9.516644477844238281e+00 2.607424259185791016e+00 -9.976933598518371582e-01
6.500000000000000000e+02 4.624836349487304688e+01 2.665110969543457031e+01 -1.394100666046142578e+00 -1.283895969390869141e+00 -8.033990263938903809e-01 -1.376774311065673828e+00
6.510000000000000000e+02 4.724990463256835938e+01 1.433283805847167969e+01 -3.890641927719116211e-01 2.366286963224411011e-01 -4.573065415024757385e-02 -2.743538618087768555e-01
6.520000000000000000e+02 4.793525314331054688e+01 -1.076564311981201172e+00 2.492977529764175415e-01 1.221606373786926270e+00 4.412712454795837402e-01 2.538161873817443848e-01
6.530000000000000000e+02 4.637010192871093750e+01 9.974129796028137207e-01 1.662449240684509277e-01 8.713901638984680176e-01 3.112905323505401611e-01 1.945959180593490601e-01
6.540000000000000000e+02 6.053322601318359375e+01 1.516650438308715820e+00 1.300477683544158936e-01 4.028674125671386719e+00 1.247616529464721680e+00 5.451392531394958496e-01
6.550000000000000000e+02 5.870776748657226562e+01 2.318017721176147461e+00 1.343017220497131348e-01 3.530246973037719727e+00 1.099364638328552246e+00 5.352972745895385742e-01
6.560000000000000000e+02 6.065787506103515625e+01 9.626327514648437500e+00 -2.521806210279464722e-02 3.948107242584228516e+00 1.176866769790649414e+00 6.446446776390075684e-01
6.570000000000000000e+02 5.806796646118164062e+01 2.061342811584472656e+01 -1.402163058519363403e-01 2.393262624740600586e+00 6.759138703346252441e-01 6.061455607414245605e-01
6.580000000000000000e+02 4.846267700195312500e+01 2.214654350280761719e+01 -7.950666546821594238e-01 -3.466320931911468506e-01 -3.425096273422241211e-01 -6.635408401489257812e-01
6.590000000000000000e+02 4.017747497558593750e+01 2.147641944885253906e+01 -1.390751719474792480e+00 -1.164057970046997070e+00 -7.664428949356079102e-01 -1.294355869293212891e+00
6.600000000000000000e+02 4.598300552368164062e+01 2.693121147155761719e+01 -1.426389098167419434e+00 -1.341985702514648438e+00 -8.305124640464782715e-01 -1.398049831390380859e+00
6.610000000000000000e+02 4.570072937011718750e+01 2.665255928039550781e+01 -1.402819156646728516e+00 -1.382896065711975098e+00 -8.357145786285400391e-01 -1.409849882125854492e+00
6.620000000000000000e+02 3.348378372192382812e+01 1.353405189514160156e+01 -1.435306429862976074e+00 -1.605042934417724609e+00 -9.121048450469970703e-01 -1.483191132545471191e+00
6.630000000000000000e+02 3.321479797363281250e+01 1.378740596771240234e+01 -1.566182017326354980e+00 -1.639747500419616699e+00 -9.617788195610046387e-01 -1.576101064682006836e+00
6.640000000000000000e+02 3.344726181030273438e+01 6.151655673980712891e+00 -1.128370881080627441e+00 -8.140027523040771484e-01 -5.827121138572692871e-01 -7.795472741127014160e-01
6.650000000000000000e+02 3.267668914794921875e+01 5.637215137481689453e+00 -1.256673812866210938e+00 -8.188822865486145020e-01 -6.226668357849121094e-01 -7.933037281036376953e-01
6.660000000000000000e+02 4.212480926513671875e+01 -8.657455444335937500e-01 2.097625434398651123e-01 2.502074539661407471e-01 1.379909962415695190e-01 1.191963404417037964e-01
6.670000000000000000e+02 4.150265884399414062e+01 -5.494485497474670410e-01 1.874366700649261475e-01 1.549475193023681641e-01 1.027152538299560547e-01 1.050567626953125000e-01
6.680000000000000000e+02 3.943785095214843750e+01 1.271794033050537109e+01 -8.531295657157897949e-01 -8.093314766883850098e-01 -4.987383186817169189e-01 -8.286662697792053223e-01
6.690000000000000000e+02 3.978561019897460938e+01 1.967622566223144531e+01 -1.143869400024414062e+00 -1.262104034423828125e+00 -7.217920422554016113e-01 -1.309004306793212891e+00
6.700000000000000000e+02 4.041964340209960938e+01 1.972513961791992188e+01 -1.124693036079406738e+00 -1.211152434349060059e+00 -7.007536888122558594e-01 -1.287958383560180664e+00
6.710000000000000000e+02 6.650327301025390625e+01 1.886413955688476562e+01 -5.583813190460205078e-01 6.252493858337402344e+00 1.708233714103698730e+00 8.426094651222229004e-01
6.720000000000000000e+02 6.627530670166015625e+01 2.042356109619140625e+01 -6.199161410331726074e-01 6.294307231903076172e+00 1.702317237854003906e+00 9.750167727470397949e-01
6.730000000000000000e+02 7.297962188720703125e+01 1.990915489196777344e+01 -5.859513878822326660e-01 8.371253967285156250e+00 2.335590839385986328e+00 -1.475740075111389160e-01
6.740000000000000000e+02 3.904927825927734375e+01 1.251903629302978516e+01 -8.728125691413879395e-01 -8.431245684623718262e-01 -5.147811770439147949e-01 -8.456101417541503906e-01
6.750000000000000000e+02 3.880054092407226562e+01 2.003743743896484375e+01 -1.078513264656066895e+00 -1.411604523658752441e+00 -7.470353245735168457e-01 -1.263629794120788574e+00
6.760000000000000000e+02 6.091629409790039062e+01 1.057504749298095703e+01 -5.209774896502494812e-02 4.008282184600830078e+00 1.186855316162109375e+00 6.648536920547485352e-01
6.770000000000000000e+02 4.882371520996093750e+01 1.506194591522216797e+01 -3.314022123813629150e-01 4.767380952835083008e-01 4.360076412558555603e-02 -1.663083434104919434e-01
6.780000000000000000e+02 7.375933837890625000e+01 1.106179237365722656e+01 -1.057057306170463562e-01 7.889026641845703125e+00 2.334996223449707031e+00 2.600604891777038574e-01
6.790000000000000000e+02 7.264331054687500000e+01 1.110249233245849609e+01 -1.283234059810638428e-01 7.579435348510742188e+00 2.235333442687988281e+00 3.172630667686462402e-01
6.800000000000000000e+02 6.728512573242187500e+01 1.052642536163330078e+01 -1.409432291984558105e-01 5.998792648315429688e+00 1.757354736328125000e+00 5.782951116561889648e-01
6.810000000000000000e+02 6.361892318725585938e+01 -7.110342383384704590e-01 1.231602355837821960e-01 4.814514636993408203e+00 1.481302499771118164e+00 5.228315591812133789e-01
6.820000000000000000e+02 7.241997528076171875e+01 1.622913241386413574e+00 1.469222269952297211e-02 7.125381469726562500e+00 2.142022132873535156e+00 3.741458356380462646e-01
6.830000000000000000e+02 6.565980529785156250e+01 3.090659379959106445e+00 4.867112636566162109e-02 5.362916469573974609e+00 1.623476386070251465e+00 5.548071861267089844e-01
6.840000000000000000e+02 1.276741027832031250e+01 -1.016170406341552734e+01 -5.532145500183105469e-02 -6.168068051338195801e-01 -2.016384750604629517e-01 -7.002075910568237305e-01
6.850000000000000000e+02 1.992069244384765625e+01 -1.923141288757324219e+01 2.383703887462615967e-01 -2.133492566645145416e-02 6.511063873767852783e-02 -3.396636247634887695e-01
6.860000000000000000e+02 6.995520591735839844e+00 -1.709951019287109375e+01 7.029099017381668091e-02 -7.132308483123779297e-01 -1.928819566965103149e-01 -3.955056965351104736e-01
6.870000000000000000e+02 5.465862751007080078e-01 -1.068182754516601562e+01 -6.238382309675216675e-03 -3.552530705928802490e-01 -1.084474399685859680e-01 -4.563169553875923157e-02
6.880000000000000000e+02 1.770242118835449219e+01 -2.318858528137207031e+01 2.319598495960235596e-01 -1.820913851261138916e-01 1.496053859591484070e-02 -3.484188616275787354e-01
6.890000000000000000e+02 7.385001659393310547e+00 -2.406974220275878906e+01 7.865160703659057617e-02 -8.776018619537353516e-01 -2.396850883960723877e-01 -2.866257727146148682e-01
6.900000000000000000e+02 6.243847012519836426e-01 -1.769990921020507812e+01 4.754682537168264389e-03 -9.594276547431945801e-01 -2.864018976688385010e-01 -4.837906360626220703e-02
6.910000000000000000e+02 1.998158454895019531e+01 -3.245991516113281250e+01 2.855187058448791504e-01 -4.428228363394737244e-02 7.237092405557632446e-02 -2.634088397026062012e-01
6.920000000000000000e+02 2.442471313476562500e+01 -2.597763061523437500e+01 2.615531980991363525e-01 4.263970851898193359e-01 2.063850909471511841e-01 -3.716564476490020752e-01
6.930000000000000000e+02 6.475907564163208008e-01 -2.333563613891601562e+01 2.701922319829463959e-03 -1.335638761520385742e+00 -3.998810648918151855e-01 -3.535344451665878296e-02
6.940000000000000000e+02 7.216010689735412598e-01 -3.035700988769531250e+01 4.915246972814202309e-04 -1.619378447532653809e+00 -4.856660962104797363e-01 -1.767459139227867126e-02
6.950000000000000000e+02 7.313579559326171875e+01 -2.990631675720214844e+01 2.138314209878444672e-02 6.427023887634277344e+00 1.934522151947021484e+00 1.731989979743957520e-01
6.960000000000000000e+02 6.520046234130859375e+01 -3.293204116821289062e+01 1.438655108213424683e-01 5.043514728546142578e+00 1.556213974952697754e+00 2.366881668567657471e-01
6.970000000000000000e+02 7.301903533935546875e+01 -2.397255706787109375e+01 6.509062368422746658e-03 6.536765098571777344e+00 1.962982296943664551e+00 2.010270804166793823e-01
6.980000000000000000e+02 6.731636810302734375e+01 -2.291690063476562500e+01 4.023794084787368774e-02 5.522222995758056641e+00 1.668738365173339844e+00 2.977609634399414062e-01
6.990000000000000000e+02 5.621239852905273438e+01 -2.261508750915527344e+01 3.037872910499572754e-02 3.395537853240966797e+00 1.027774930000305176e+00 2.750888466835021973e-01
7.000000000000000000e+02 4.488483810424804688e+01 -3.336220932006835938e+01 1.413659099489450455e-02 1.413679718971252441e+00 4.283448755741119385e-01 3.508652746677398682e-02
7.010000000000000000e+02 7.296331787109375000e+01 -4.988628864288330078e+00 2.866934798657894135e-02 7.024545192718505859e+00 2.115964412689208984e+00 3.095573186874389648e-01
7.020000000000000000e+02 7.177991485595703125e+01 -1.051464176177978516e+01 3.344944491982460022e-02 6.598889350891113281e+00 1.989701628684997559e+00 2.987177670001983643e-01
7.030000000000000000e+02 6.673889160156250000e+01 -1.712685942649841309e+00 8.126408606767654419e-02 5.567569732666015625e+00 1.694650173187255859e+00 4.895449578762054443e-01
7.040000000000000000e+02 6.704198455810546875e+01 -1.113319110870361328e+01 7.255133986473083496e-02 5.534927368164062500e+00 1.682243704795837402e+00 3.764405846595764160e-01
7.050000000000000000e+02 6.140407943725585938e+01 -3.735427379608154297e+00 1.571422964334487915e-01 4.268214225769042969e+00 1.327607035636901855e+00 4.908989369869232178e-01
7.060000000000000000e+02 5.358136367797851562e+01 -1.271918392181396484e+01 2.021246701478958130e-01 2.668054342269897461e+00 8.610537052154541016e-01 2.482476681470870972e-01
7.070000000000000000e+02 4.808216857910156250e+01 -3.915536880493164062e+00 3.247513175010681152e-01 1.312166213989257812e+00 4.910752475261688232e-01 2.426137328147888184e-01
7.080000000000000000e+02 4.655384445190429688e+01 -1.134807777404785156e+01 3.283877670764923096e-01 1.202461600303649902e+00 4.592548012733459473e-01 9.578014910221099854e-02
7.090000000000000000e+02 4.100225448608398438e+01 -6.114620208740234375e+00 4.577153623104095459e-01 1.615805029869079590e-01 1.857887506484985352e-01 7.683820277452468872e-02
7.100000000000000000e+02 3.604737854003906250e+01 -6.533042430877685547e+00 5.746978521347045898e-01 -3.609008789062500000e-01 6.413909047842025757e-02 -2.488161250948905945e-02
7.110000000000000000e+02 7.214645862579345703e+00 3.320214462280273438e+01 -5.236077122390270233e-03 -4.231437295675277710e-02 -1.426513493061065674e-02 -8.274053223431110382e-03
7.120000000000000000e+02 1.735993957519531250e+01 3.195963287353515625e+01 -5.909425672143697739e-03 4.750410094857215881e-02 1.247840281575918198e-02 1.041990425437688828e-02
7.130000000000000000e+02 2.525722503662109375e+01 2.889257049560546875e+01 1.524920016527175903e-02 8.057077974081039429e-02 2.874599397182464600e-02 4.185631498694419861e-02
7.140000000000000000e+02 3.141135215759277344e+01 2.111487197875976562e+01 7.599123567342758179e-02 6.822536140680313110e-02 4.326497763395309448e-02 7.191651314496994019e-02
7.150000000000000000e+02 2.163849353790283203e+00 3.150703620910644531e+01 -9.158254251815378666e-04 -9.650381654500961304e-02 -2.922589145600795746e-02 -5.378775298595428467e-03
7.160000000000000000e+02 1.723711204528808594e+01 6.950320243835449219e+00 1.779235601425170898e-01 1.927128136157989502e-01 1.111909076571464539e-01 1.834885925054550171e-01
7.170000000000000000e+02 1.965899276733398438e+01 1.429545974731445312e+01 7.135853171348571777e-02 1.441532969474792480e-01 6.465354561805725098e-02 1.001600623130798340e-01
7.180000000000000000e+02 5.687997817993164062e+00 1.010859394073486328e+01 5.660708993673324585e-02 -8.137039095163345337e-02 -7.428990211337804794e-03 4.771263338625431061e-03
7.190000000000000000e+02 1.696087455749511719e+01 6.675363063812255859e+00 1.921149045228958130e-01 1.953125149011611938e-01 1.162282228469848633e-01 2.003006041049957275e-01
7.200000000000000000e+02 9.797590255737304688e+00 1.764607548713684082e+00 -2.266282886266708374e-01 -2.847907543182373047e-01 -1.534257084131240845e-01 3.964866399765014648e-01
7.210000000000000000e+02 5.199208831787109375e+01 3.278204345703125000e+01 -7.562235593795776367e-01 -9.143801927566528320e-01 -5.011811256408691406e-01 -8.393355607986450195e-01
7.220000000000000000e+02 5.416155242919921875e+01 3.362422180175781250e+01 -9.191009998321533203e-01 4.448596760630607605e-02 -2.623845040798187256e-01 -5.294690728187561035e-01
7.230000000000000000e+02 5.144518661499023438e+01 3.219145965576171875e+01 -1.004158377647399902e+00 -1.144629120826721191e+00 -6.446362733840942383e-01 -1.064307689666748047e+00
7.240000000000000000e+02 5.117522811889648438e+01 3.189724922180175781e+01 -1.112235307693481445e+00 -1.203195095062255859e+00 -6.946291327476501465e-01 -1.139191150665283203e+00
7.250000000000000000e+02 5.171887969970703125e+01 3.248466873168945312e+01 -8.867941498756408691e-01 -1.056419253349304199e+00 -5.829640030860900879e-01 -9.542297720909118652e-01
7.260000000000000000e+02 5.090694427490234375e+01 3.160209274291992188e+01 -1.194733023643493652e+00 -1.223744034767150879e+00 -7.255430817604064941e-01 -1.197864174842834473e+00
7.270000000000000000e+02 5.063289260864257812e+01 3.130913925170898438e+01 -1.258828043937683105e+00 -1.240222930908203125e+00 -7.497152686119079590e-01 -1.238291978836059570e+00
7.280000000000000000e+02 4.919289398193359375e+01 2.990203857421875000e+01 -1.449690699577331543e+00 -1.340500354766845703e+00 -8.370572924613952637e-01 -1.390418052673339844e+00
7.290000000000000000e+02 4.861012268066406250e+01 2.935443115234375000e+01 -1.540506362915039062e+00 -1.363524079322814941e+00 -8.712091445922851562e-01 -1.440370559692382812e+00
7.300000000000000000e+02 4.831671524047851562e+01 2.908421897888183594e+01 -1.572189211845397949e+00 -1.352928400039672852e+00 -8.775352835655212402e-01 -1.449351191520690918e+00
7.310000000000000000e+02 4.802209091186523438e+01 2.881634902954101562e+01 -1.586546421051025391e+00 -1.333409667015075684e+00 -8.759868144989013672e-01 -1.449067592620849609e+00
7.320000000000000000e+02 4.684546661376953125e+01 2.775000190734863281e+01 -1.523434162139892578e+00 -1.287927150726318359e+00 -8.434084057807922363e-01 -1.408574223518371582e+00
7.330000000000000000e+02 4.655524826049804688e+01 2.747978973388671875e+01 -1.490419983863830566e+00 -1.295426130294799805e+00 -8.357537984848022461e-01 -1.399700284004211426e+00
7.340000000000000000e+02 4.597135162353515625e+01 2.637283706665039062e+01 -1.393989324569702148e+00 -1.309752464294433594e+00 -8.111225366592407227e-01 -1.389728307723999023e+00
7.350000000000000000e+02 4.626783370971679688e+01 2.720694541931152344e+01 -1.456021428108215332e+00 -1.312584877014160156e+00 -8.305819034576416016e-01 -1.396325469017028809e+00
7.360000000000000000e+02 4.542141723632812500e+01 2.637073707580566406e+01 -1.396744251251220703e+00 -1.441517233848571777e+00 -8.514784574508666992e-01 -1.433219075202941895e+00
7.370000000000000000e+02 4.514430618286132812e+01 2.608575439453125000e+01 -1.421839952468872070e+00 -1.512638211250305176e+00 -8.803434371948242188e-01 -1.473423838615417480e+00
7.380000000000000000e+02 4.312431716918945312e+01 2.415071105957031250e+01 -1.675315856933593750e+00 -1.383483052253723145e+00 -9.176396727561950684e-01 -1.520809531211853027e+00
7.390000000000000000e+02 4.253108596801757812e+01 2.361927223205566406e+01 -1.596482038497924805e+00 -1.347346425056457520e+00 -8.831485509872436523e-01 -1.474357366561889648e+00
7.400000000000000000e+02 4.194542694091796875e+01 2.308142662048339844e+01 -1.568726539611816406e+00 -1.382168292999267578e+00 -8.852684497833251953e-01 -1.474611401557922363e+00
7.410000000000000000e+02 4.165418624877929688e+01 2.281014442443847656e+01 -1.594394803047180176e+00 -1.396095752716064453e+00 -8.971471786499023438e-01 -1.485693931579589844e+00
7.420000000000000000e+02 4.136145782470703125e+01 2.253987503051757812e+01 -1.628565430641174316e+00 -1.380186438560485840e+00 -9.026255607604980469e-01 -1.484020829200744629e+00
7.430000000000000000e+02 4.076820373535156250e+01 2.200838279724121094e+01 -1.585222959518432617e+00 -1.248971462249755859e+00 -8.502582907676696777e-01 -1.402930140495300293e+00
7.440000000000000000e+02 3.988986587524414062e+01 2.120189857482910156e+01 -1.293326973915100098e+00 -1.172266125679016113e+00 -7.396779060363769531e-01 -1.262367010116577148e+00
7.450000000000000000e+02 3.960883712768554688e+01 2.091964912414550781e+01 -1.214053034782409668e+00 -1.207937836647033691e+00 -7.265972495079040527e-01 -1.243680119514465332e+00
7.460000000000000000e+02 3.933393478393554688e+01 2.063048171997070312e+01 -1.149399280548095703e+00 -1.259344696998596191e+00 -7.226232290267944336e-01 -1.238450884819030762e+00
7.470000000000000000e+02 3.941967391967773438e+01 2.000807952880859375e+01 -1.137587308883666992e+00 -1.300044298171997070e+00 -7.312895059585571289e-01 -1.301182389259338379e+00
7.480000000000000000e+02 3.853852844238281250e+01 1.973573112487792969e+01 -1.077440142631530762e+00 -1.503658413887023926e+00 -7.743295431137084961e-01 -1.292748928070068359e+00
7.490000000000000000e+02 3.827778625488281250e+01 1.943120384216308594e+01 -1.093138098716735840e+00 -1.594074845314025879e+00 -8.061638474464416504e-01 -1.334018111228942871e+00
7.500000000000000000e+02 3.906488037109375000e+01 2.033591842651367188e+01 -1.103880882263183594e+00 -1.328574776649475098e+00 -7.297366857528686523e-01 -1.244184136390686035e+00
7.510000000000000000e+02 3.887266159057617188e+01 1.941434669494628906e+01 -1.138043642044067383e+00 -1.404057383537292480e+00 -7.626302838325500488e-01 -1.320366144180297852e+00
7.520000000000000000e+02 3.750122833251953125e+01 1.851328468322753906e+01 -1.246193408966064453e+00 -1.793958187103271484e+00 -9.120454788208007812e-01 -1.480207443237304688e+00
7.530000000000000000e+02 3.724125289916992188e+01 1.820938110351562500e+01 -1.308648228645324707e+00 -1.802394270896911621e+00 -9.333127737045288086e-01 -1.519738316535949707e+00
7.540000000000000000e+02 3.671275711059570312e+01 1.761013031005859375e+01 -1.380882501602172852e+00 -1.746654510498046875e+00 -9.382610917091369629e-01 -1.543703913688659668e+00
7.550000000000000000e+02 3.644520187377929688e+01 1.731391334533691406e+01 -1.392771840095520020e+00 -1.716702580451965332e+00 -9.328423142433166504e-01 -1.537753582000732422e+00
7.560000000000000000e+02 3.697838211059570312e+01 1.790832519531250000e+01 -1.356776714324951172e+00 -1.782302379608154297e+00 -9.417237043380737305e-01 -1.538034081459045410e+00
7.570000000000000000e+02 3.536715698242187500e+01 1.613791465759277344e+01 -1.394595623016357422e+00 -1.652827739715576172e+00 -9.142270088195800781e-01 -1.514331936836242676e+00
7.580000000000000000e+02 3.509711074829101562e+01 1.584513187408447266e+01 -1.381000161170959473e+00 -1.639654636383056641e+00 -9.061964154243469238e-01 -1.509768843650817871e+00
7.590000000000000000e+02 3.482776260375976562e+01 1.555207538604736328e+01 -1.369674563407897949e+00 -1.641203999519348145e+00 -9.032635688781738281e-01 -1.500588893890380859e+00
7.600000000000000000e+02 3.429366683959960938e+01 1.496243762969970703e+01 -1.365898132324218750e+00 -1.689483284950256348e+00 -9.166144132614135742e-01 -1.518061161041259766e+00
7.610000000000000000e+02 3.402849197387695312e+01 1.466557598114013672e+01 -1.401564598083496094e+00 -1.725639581680297852e+00 -9.381612539291381836e-01 -1.553233861923217773e+00
7.620000000000000000e+02 3.376190185546875000e+01 1.436925697326660156e+01 -1.474610328674316406e+00 -1.747339725494384766e+00 -9.665849804878234863e-01 -1.581052899360656738e+00
7.630000000000000000e+02 3.349103927612304688e+01 1.407598781585693359e+01 -1.535590171813964844e+00 -1.712445020675659180e+00 -9.744105339050292969e-01 -1.601531624794006348e+00
7.640000000000000000e+02 3.293524932861328125e+01 1.350242710113525391e+01 -1.521794795989990234e+00 -1.549545049667358398e+00 -9.214019775390625000e-01 -1.540827870368957520e+00
7.650000000000000000e+02 3.090239143371582031e+01 1.065285301208496094e+01 -1.488931417465209961e+00 -1.424769997596740723e+00 -8.741104006767272949e-01 -1.414192199707031250e+00
7.660000000000000000e+02 3.050774765014648438e+01 8.963162422180175781e+00 -1.363194227218627930e+00 -1.306181073188781738e+00 -8.008126020431518555e-01 -1.188321471214294434e+00
7.670000000000000000e+02 3.009593009948730469e+01 9.581802368164062500e+00 -1.490477919578552246e+00 -1.269650578498840332e+00 -8.280385732650756836e-01 -1.323168039321899414e+00
7.680000000000000000e+02 2.931803131103515625e+01 9.666210174560546875e+00 -1.876248836517333984e+00 -1.152473330497741699e+00 -9.086166620254516602e-01 -1.502750277519226074e+00
7.690000000000000000e+02 2.895413589477539062e+01 9.637117385864257812e+00 -1.838131308555603027e+00 -1.522261619567871094e+00 -1.008117914199829102e+00 -1.621774554252624512e+00
7.700000000000000000e+02 2.942655754089355469e+01 1.006746196746826172e+01 -1.583645701408386230e+00 -1.154087185859680176e+00 -8.213198781013488770e-01 -1.473743081092834473e+00
7.710000000000000000e+02 2.955882072448730469e+01 9.163251876831054688e+00 -1.681551098823547363e+00 -1.137845277786254883e+00 -8.458189368247985840e-01 -1.101271748542785645e+00
7.720000000000000000e+02 2.844202232360839844e+01 9.054168701171875000e+00 -2.746743917465209961e+00 -1.677439570426940918e+00 -1.327255010604858398e+00 -1.754787325859069824e+00
7.730000000000000000e+02 2.870884704589843750e+01 9.344491958618164062e+00 -1.775958776473999023e+00 -1.577856421470642090e+00 -1.006144523620605469e+00 -1.763811945915222168e+00
7.740000000000000000e+02 2.809104347229003906e+01 8.767459869384765625e+00 -3.389447212219238281e+00 -1.583823800086975098e+00 -1.491981267929077148e+00 -2.189341545104980469e+00
7.750000000000000000e+02 2.771314430236816406e+01 8.554718017578125000e+00 -3.904550790786743164e+00 -1.891855597496032715e+00 -1.738921880722045898e+00 -3.141602277755737305e+00
7.760000000000000000e+02 2.727041435241699219e+01 8.159408569335937500e+00 -4.214712142944335938e+00 -2.644583940505981445e+00 -2.057788848876953125e+00 -3.293673753738403320e+00
7.770000000000000000e+02 2.679916191101074219e+01 7.842544555664062500e+00 -4.567983150482177734e+00 -2.856462001800537109e+00 -2.227333545684814453e+00 -4.231879711151123047e+00
7.780000000000000000e+02 2.632369041442871094e+01 7.528412818908691406e+00 -6.155969142913818359e+00 -3.358910560607910156e+00 -2.854463815689086914e+00 -4.454199790954589844e+00
7.790000000000000000e+02 2.598052787780761719e+01 7.298555850982666016e+00 -6.768057346343994141e+00 -3.520593643188476562e+00 -3.086595296859741211e+00 -4.576958179473876953e+00
7.800000000000000000e+02 2.616625404357910156e+01 7.424830436706542969e+00 -5.935081005096435547e+00 -3.937002182006835938e+00 -2.961624860763549805e+00 -4.772387027740478516e+00
7.810000000000000000e+02 2.648073196411132812e+01 7.650238037109375000e+00 -5.645225048065185547e+00 -3.753081560134887695e+00 -2.819492101669311523e+00 -4.706411838531494141e+00
7.820000000000000000e+02 2.664261054992675781e+01 7.755420207977294922e+00 -5.857092857360839844e+00 -3.803907632827758789e+00 -2.898300170898437500e+00 -4.235247611999511719e+00
7.830000000000000000e+02 2.673066902160644531e+01 7.884767055511474609e+00 -5.305651664733886719e+00 -3.714536428451538086e+00 -2.706056594848632812e+00 -4.629127025604248047e+00
7.840000000000000000e+02 2.691510009765625000e+01 7.947913169860839844e+00 -5.381145954132080078e+00 -3.368762016296386719e+00 -2.624972343444824219e+00 -3.838612079620361328e+00
7.850000000000000000e+02 2.707943534851074219e+01 8.053480148315429688e+00 -4.705705642700195312e+00 -3.005593061447143555e+00 -2.313389539718627930e+00 -3.858721971511840820e+00
7.860000000000000000e+02 2.733045387268066406e+01 8.364109039306640625e+00 -4.714963912963867188e+00 -3.246857166290283203e+00 -2.388546228408813477e+00 -3.815950870513916016e+00
7.870000000000000000e+02 2.755171966552734375e+01 8.395728111267089844e+00 -4.454922199249267578e+00 -2.303913831710815430e+00 -2.027650833129882812e+00 -3.046556949615478516e+00
7.880000000000000000e+02 2.876504516601562500e+01 5.383165359497070312e+00 -2.408681631088256836e+00 -1.584131240844726562e+00 -1.197843909263610840e+00 -1.376877188682556152e+00
7.890000000000000000e+02 2.657267761230468750e+01 3.934213161468505859e+00 -2.939313650131225586e+00 -1.021337032318115234e+00 -1.188195228576660156e+00 -1.509290695190429688e+00
7.900000000000000000e+02 2.674795150756835938e+01 4.050675392150878906e+00 -2.885451793670654297e+00 -1.052335977554321289e+00 -1.181336402893066406e+00 -1.517181038856506348e+00
7.910000000000000000e+02 2.487878227233886719e+01 2.878303527832031250e+00 -3.284563064575195312e+00 -7.560124397277832031e-01 -1.212172627449035645e+00 -1.512135028839111328e+00
7.920000000000000000e+02 2.248018646240234375e+01 1.430238842964172363e+00 -3.172656774520874023e+00 -6.274376511573791504e-01 -1.140028357505798340e+00 -2.035494327545166016e+00
7.930000000000000000e+02 2.236287307739257812e+01 5.442124605178833008e-01 -2.376029729843139648e+00 4.993822425603866577e-02 -6.978273987770080566e-01 -2.057992458343505859e+00
7.940000000000000000e+02 2.084171867370605469e+01 2.623448967933654785e-01 -1.575614571571350098e+00 -1.754180669784545898e+00 -9.989385604858398438e-01 -3.450521230697631836e+00
7.950000000000000000e+02 2.031978034973144531e+01 8.149050176143646240e-02 -1.395960927009582520e+00 -2.719363451004028320e+00 -1.234597325325012207e+00 -3.975240230560302734e+00
7.960000000000000000e+02 2.056644248962402344e+01 -2.683498859405517578e-01 -1.653930187225341797e+00 -1.538110971450805664e+00 -9.576123356819152832e-01 -3.922781705856323242e+00
7.970000000000000000e+02 2.000441360473632812e+01 -2.230288982391357422e-01 -1.711033701896667480e+00 -4.503142833709716797e+00 -1.864252924919128418e+00 -2.694062471389770508e+00
7.980000000000000000e+02 1.912350654602050781e+01 -7.250464558601379395e-01 -2.792387962341308594e+00 -3.355931282043457031e+00 -1.844495773315429688e+00 -2.087093114852905273e+00
7.990000000000000000e+02 1.855753898620605469e+01 -9.593652486801147461e-01 -2.373988389968872070e+00 -2.115424633026123047e+00 -1.346823930740356445e+00 -1.783850789070129395e+00
8.000000000000000000e+02 1.848902511596679688e+01 -1.427386403083801270e+00 -2.137550830841064453e+00 -2.476390361785888672e+00 -1.384182333946228027e+00 -1.839977383613586426e+00
8.010000000000000000e+02 1.825071525573730469e+01 -1.216396927833557129e+00 -2.342953443527221680e+00 -1.829873323440551758e+00 -1.251847982406616211e+00 -1.590042948722839355e+00
8.020000000000000000e+02 1.842354774475097656e+01 -1.088423848152160645e+00 -2.288062572479248047e+00 -1.839421510696411133e+00 -1.238245129585266113e+00 -1.643527388572692871e+00
8.030000000000000000e+02 1.735548400878906250e+01 -1.822468519210815430e+00 -2.170795679092407227e+00 -1.142717123031616211e+00 -9.940538406372070312e-01 -1.173689961433410645e+00
8.040000000000000000e+02 1.759252166748046875e+01 -1.735793709754943848e+00 -2.309543609619140625e+00 -1.386569976806640625e+00 -1.108834147453308105e+00 -1.228148460388183594e+00
8.050000000000000000e+02 1.699628829956054688e+01 -1.973998188972473145e+00 -1.911038637161254883e+00 -9.143812060356140137e-01 -8.476259708404541016e-01 -9.518911838531494141e-01
8.060000000000000000e+02 1.663526725769042969e+01 -2.269553899765014648e+00 -1.700943827629089355e+00 -8.784869909286499023e-01 -7.738292217254638672e-01 -8.927995562553405762e-01
8.070000000000000000e+02 1.715673446655273438e+01 -1.880845546722412109e+00 -2.007318973541259766e+00 -1.023676395416259766e+00 -9.092985987663269043e-01 -1.100806832313537598e+00
8.080000000000000000e+02 1.638626480102539062e+01 -2.401160478591918945e+00 -1.733374953269958496e+00 -7.644003033638000488e-01 -7.493326067924499512e-01 -9.562467932701110840e-01
8.090000000000000000e+02 1.245836925506591797e+01 -2.307739734649658203e+00 -7.912048101425170898e-01 -6.310135871171951294e-02 -2.562918365001678467e-01 -3.006175458431243896e-01
8.100000000000000000e+02 1.326418209075927734e+01 -2.377705574035644531e+00 -9.549067616462707520e-01 -6.597216427326202393e-02 -3.062636852264404297e-01 -3.572546243667602539e-01
8.110000000000000000e+02 1.413245487213134766e+01 -2.416831016540527344e+00 -1.193403720855712891e+00 -1.972856521606445312e-01 -4.172067940235137939e-01 -5.297882556915283203e-01
8.120000000000000000e+02 1.102709674835205078e+01 -2.908518552780151367e+00 -5.815530419349670410e-01 -3.186222165822982788e-02 -1.840245723724365234e-01 -3.042219579219818115e-01
8.130000000000000000e+02 9.477005004882812500e+00 -1.938527822494506836e+00 -3.384661972522735596e-01 -1.079173106700181961e-02 -1.047773733735084534e-01 -1.298377811908721924e-01
8.140000000000000000e+02 8.672278404235839844e+00 -1.926614880561828613e+00 -2.726716399192810059e-01 -3.059773705899715424e-03 -8.271942287683486938e-02 -1.151336953043937683e-01
8.150000000000000000e+02 7.860461235046386719e+00 -1.925999999046325684e+00 -2.088205665349960327e-01 -1.846669241786003113e-02 -6.818617880344390869e-02 -9.981835633516311646e-02
8.160000000000000000e+02 7.045856952667236328e+00 -1.931809782981872559e+00 -1.657895892858505249e-01 -1.346357259899377823e-02 -5.377594754099845886e-02 -8.684963732957839966e-02
8.170000000000000000e+02 5.411947250366210938e+00 -1.952303647994995117e+00 -9.241826087236404419e-02 -1.807747967541217804e-02 -3.314872086048126221e-02 -5.644695833325386047e-02
8.180000000000000000e+02 2.950538158416748047e+00 -2.017212629318237305e+00 -2.681384794414043427e-02 -1.851239614188671112e-02 -1.359787303954362869e-02 -1.431086566299200058e-02
8.190000000000000000e+02 3.121563911437988281e+00 -3.010024309158325195e+00 -5.008226633071899414e-02 -3.604172170162200928e-02 -2.583719603717327118e-02 -3.797318041324615479e-02
8.200000000000000000e+02 2.119126558303833008e+00 -2.071913242340087891e+00 -1.426164526492357254e-02 -1.481731981039047241e-02 -8.723689243197441101e-03 -2.514779102057218552e-03
8.210000000000000000e+02 1.281059741973876953e+00 -2.147290706634521484e+00 -3.587855957448482513e-03 -1.350584905594587326e-03 -1.481532235629856586e-03 6.326529197394847870e-03
8.220000000000000000e+02 4.308527112007141113e-01 -2.197666168212890625e+00 -1.797067583538591862e-03 1.634938642382621765e-02 4.365695640444755554e-03 2.678777789697051048e-03
8.230000000000000000e+02 1.916383624076843262e+00 -4.176591110229492188e+01 -5.421247705817222595e-02 -1.661211013793945312e+00 -5.146270394325256348e-01 1.541318371891975403e-02
8.240000000000000000e+02 1.357273340225219727e+00 -4.036657714843750000e+01 1.278669293969869614e-02 -1.690161108970642090e+00 -5.032123327255249023e-01 3.966724127531051636e-02
8.250000000000000000e+02 1.333988666534423828e+00 -3.897214508056640625e+01 2.987351454794406891e-02 -1.718604087829589844e+00 -5.066191554069519043e-01 1.773572340607643127e-02
8.260000000000000000e+02 9.698911309242248535e-01 -3.459889221191406250e+01 -1.911004073917865753e-03 -1.697399735450744629e+00 -5.097932219505310059e-01 -1.300915516912937164e-02
8.270000000000000000e+02 8.681768774986267090e-01 -3.317797470092773438e+01 2.180266659706830978e-03 -1.676903605461120605e+00 -5.024170279502868652e-01 -1.223660446703433990e-02
8.280000000000000000e+02 6.807315349578857422e-01 -2.894951248168945312e+01 1.918038818985223770e-03 -1.579934954643249512e+00 -4.734050631523132324e-01 -2.034029923379421234e-02
8.290000000000000000e+02 6.597300767898559570e-01 -2.754634284973144531e+01 2.086722990497946739e-03 -1.531625747680664062e+00 -4.588617086410522461e-01 -2.402796782553195953e-02
8.300000000000000000e+02 6.513551473617553711e-01 -2.614475059509277344e+01 1.220396603457629681e-03 -1.474225640296936035e+00 -4.419015645980834961e-01 -2.821988798677921295e-02
8.310000000000000000e+02 6.448776721954345703e-01 -2.192698097229003906e+01 -1.546452840557321906e-04 -1.253687262535095215e+00 -3.761525750160217285e-01 -3.791328892111778259e-02
8.320000000000000000e+02 6.396288871765136719e-01 -2.051791191101074219e+01 4.150426946580410004e-03 -1.164463996887207031e+00 -3.480940759181976318e-01 -4.226405918598175049e-02
8.330000000000000000e+02 1.925156712532043457e+00 -2.038007164001464844e+01 6.327162496745586395e-03 -1.067852973937988281e+00 -3.184577524662017822e-01 -1.226850599050521851e-01
8.340000000000000000e+02 6.145933270454406738e-01 -1.629155731201171875e+01 -3.146357135847210884e-03 -8.450060486793518066e-01 -2.544457316398620605e-01 -5.037261173129081726e-02
8.350000000000000000e+02 6.025578379631042480e-01 -1.488537788391113281e+01 4.609070718288421631e-03 -7.255253195762634277e-01 -2.162748724222183228e-01 -5.180036276578903198e-02
8.360000000000000000e+02 5.876208543777465820e-01 -1.348092269897460938e+01 -4.944436252117156982e-03 -6.012488603591918945e-01 -1.818579733371734619e-01 -5.150711163878440857e-02
8.370000000000000000e+02 1.774910688400268555e+00 -1.339809799194335938e+01 3.319227602332830429e-03 -5.908089280128479004e-01 -1.762469112873077393e-01 -1.506900489330291748e-01
8.380000000000000000e+02 5.234305858612060547e-01 -9.287538528442382812e+00 1.368990633636713028e-03 -2.425979971885681152e-01 -7.236870378255844116e-02 -3.958142548799514771e-02
8.390000000000000000e+02 5.040453076362609863e-01 -7.897541522979736328e+00 -6.386347580701112747e-03 -1.434549391269683838e-01 -4.495238512754440308e-02 -3.174537420272827148e-02
8.400000000000000000e+02 3.930790662765502930e+00 -2.937594413757324219e+00 -6.799819320440292358e-02 -4.243133962154388428e-02 -3.312886133790016174e-02 -5.558365955948829651e-02
8.410000000000000000e+02 4.092343807220458984e+00 -3.870719432830810547e+00 -8.892624080181121826e-02 -6.779861450195312500e-02 -4.701745510101318359e-02 -9.258802235126495361e-02
8.420000000000000000e+02 6.854270172119140625e+01 -3.850090408325195312e+01 1.563905328512191772e-01 5.517242431640625000e+00 1.702089905738830566e+00 7.363536208868026733e-02
8.430000000000000000e+02 1.218527507781982422e+01 -4.079339599609375000e+01 1.338557898998260498e-01 -6.869950294494628906e-01 -1.659417599439620972e-01 -2.868380956351757050e-02
8.440000000000000000e+02 7.591281890869140625e+01 4.077259445190429688e+01 -5.611020922660827637e-01 7.818356513977050781e+00 2.177176237106323242e+00 2.967894077301025391e-02
8.450000000000000000e+02 7.805993652343750000e+01 4.174953079223632812e+01 -7.538044452667236328e-01 6.645456790924072266e+00 1.767495632171630859e+00 2.104666829109191895e-01
8.460000000000000000e+02 7.879141998291015625e+01 3.884882354736328125e+01 1.650931388139724731e-01 5.705647945404052734e+00 1.761222362518310547e+00 4.996532201766967773e-01
8.470000000000000000e+02 7.941197204589843750e+01 3.470474624633789062e+01 1.558298990130424500e-02 4.240380287170410156e+00 1.276789069175720215e+00 1.212268974632024765e-02
8.480000000000000000e+02 7.831518554687500000e+01 3.312871170043945312e+01 1.956404298543930054e-01 5.584224224090576172e+00 1.733959317207336426e+00 -3.283360004425048828e-01
8.490000000000000000e+02 7.943917083740234375e+01 3.333881759643554688e+01 7.997705787420272827e-02 4.292586803436279297e+00 1.311769247055053711e+00 -9.264030307531356812e-02
8.500000000000000000e+02 7.945151519775390625e+01 3.057817649841308594e+01 4.371367767453193665e-02 5.203768253326416016e+00 1.574244499206542969e+00 -2.782821953296661377e-01
8.510000000000000000e+02 7.835125732421875000e+01 2.904697227478027344e+01 4.415811598300933838e-02 6.742561340332031250e+00 2.036015748977661133e+00 -8.377718329429626465e-01
8.520000000000000000e+02 7.943971252441406250e+01 2.641137313842773438e+01 -2.453680150210857391e-02 7.405171394348144531e+00 2.214190483093261719e+00 -3.089354634284973145e-01
8.530000000000000000e+02 7.722709655761718750e+01 2.754765319824218750e+01 -8.210796862840652466e-02 7.831429004669189453e+00 2.324796199798583984e+00 -1.156481862068176270e+00
8.540000000000000000e+02 7.943561553955078125e+01 2.502033805847167969e+01 -5.444191396236419678e-03 8.037528991699218750e+00 2.409625291824340820e+00 -2.666080892086029053e-01
8.550000000000000000e+02 7.944198608398437500e+01 2.084409523010253906e+01 -2.206531912088394165e-02 9.267881393432617188e+00 2.773745059967041016e+00 -1.388821899890899658e-01
8.560000000000000000e+02 7.944601440429687500e+01 1.945309448242187500e+01 -5.131302867084741592e-03 9.474515914916992188e+00 2.840815544128417969e+00 -1.017782762646675110e-01
8.570000000000000000e+02 7.722279357910156250e+01 2.059329414367675781e+01 -1.689802259206771851e-01 8.888051986694335938e+00 2.615721702575683594e+00 -3.921367526054382324e-01
8.580000000000000000e+02 7.944797515869140625e+01 1.806347084045410156e+01 -1.576687395572662354e-02 9.602273941040039062e+00 2.875952005386352539e+00 -7.518462091684341431e-02
8.590000000000000000e+02 7.944107818603515625e+01 1.389866065979003906e+01 -5.593224195763468742e-04 9.667621612548828125e+00 2.900118589401245117e+00 -2.007408998906612396e-02
8.600000000000000000e+02 7.943606567382812500e+01 1.251017189025878906e+01 -7.296228315681219101e-03 9.622262954711914062e+00 2.884490013122558594e+00 -1.038319803774356842e-02
8.610000000000000000e+02 7.942926025390625000e+01 1.112096118927001953e+01 -2.364578394917771220e-04 9.557320594787597656e+00 2.867125034332275391e+00 -8.170332293957471848e-04
8.620000000000000000e+02 7.939437866210937500e+01 6.945749282836914062e+00 -3.031926229596138000e-03 9.293709754943847656e+00 2.787203311920166016e+00 1.505357027053833008e-02
8.630000000000000000e+02 7.937707519531250000e+01 5.550010681152343750e+00 -7.650512852706015110e-04 9.195416450500488281e+00 2.758395433425903320e+00 1.924209855496883392e-02
8.640000000000000000e+02 7.813468170166015625e+01 5.518821716308593750e+00 -5.008159670978784561e-03 8.843657493591308594e+00 2.651594877243041992e+00 9.809315204620361328e-02
8.650000000000000000e+02 7.935851287841796875e+01 4.152227401733398438e+00 -1.498270197771489620e-03 9.095688819885253906e+00 2.728257179260253906e+00 2.171127125620841980e-02
8.660000000000000000e+02 7.932576751708984375e+01 -4.308094084262847900e-02 9.667889680713415146e-04 8.806997299194335938e+00 2.642389297485351562e+00 2.349209226667881012e-02
8.670000000000000000e+02 7.932727813720703125e+01 -1.441881060600280762e+00 -4.795879940502345562e-04 8.718009948730468750e+00 2.615259170532226562e+00 2.287953719496726990e-02
8.680000000000000000e+02 7.934346771240234375e+01 -4.239484310150146484e+00 -4.199548129690811038e-05 8.549129486083984375e+00 2.564726352691650391e+00 2.085944078862667084e-02
8.690000000000000000e+02 7.936637115478515625e+01 -8.418153762817382812e+00 -3.543743223417550325e-04 8.317707061767578125e+00 2.495205640792846680e+00 1.826098188757896423e-02
8.700000000000000000e+02 7.937297821044921875e+01 -1.119556808471679688e+01 -5.883467383682727814e-04 8.178710937500000000e+00 2.453436851501464844e+00 1.710574887692928314e-02
8.710000000000000000e+02 7.936222076416015625e+01 -1.536577892303466797e+01 5.149784847162663937e-04 7.987021923065185547e+00 2.396261215209960938e+00 1.778177917003631592e-02
8.720000000000000000e+02 7.934510803222656250e+01 -1.814619064331054688e+01 1.087194541469216347e-03 7.866188526153564453e+00 2.360182762145996094e+00 1.862828992307186127e-02
8.730000000000000000e+02 7.933566284179687500e+01 -2.370053482055664062e+01 1.917721820063889027e-03 7.644021034240722656e+00 2.293781518936157227e+00 1.911318302154541016e-02
8.740000000000000000e+02 7.933071136474609375e+01 -2.509002685546875000e+01 -2.371119102463126183e-03 7.590614795684814453e+00 2.276473045349121094e+00 1.934255287051200867e-02
8.750000000000000000e+02 7.925434875488281250e+01 -2.925496673583984375e+01 4.037075850646942854e-04 7.439211845397949219e+00 2.231884479522705078e+00 2.102557942271232605e-02
8.760000000000000000e+02 7.913722991943359375e+01 -3.205211257934570312e+01 -1.462660147808492184e-03 7.350280761718750000e+00 2.204645395278930664e+00 2.313767746090888977e-02
8.770000000000000000e+02 7.896045684814453125e+01 -3.627861022949218750e+01 2.568930620327591896e-03 7.227243900299072266e+00 2.168943881988525391e+00 2.865839935839176178e-02
8.780000000000000000e+02 7.891536712646484375e+01 -3.768235778808593750e+01 1.642852462828159332e-02 7.194357872009277344e+00 2.163235902786254883e+00 1.690112613141536713e-02
8.790000000000000000e+02 7.880767822265625000e+01 -3.908241271972656250e+01 -5.466032773256301880e-02 7.160804748535156250e+00 2.131843328475952148e+00 3.648013994097709656e-02
8.800000000000000000e+02 7.811872863769531250e+01 -4.178268051147460938e+01 9.427715092897415161e-02 7.043108940124511719e+00 2.141215801239013672e+00 2.634230442345142365e-02
8.810000000000000000e+02 8.333679199218750000e+00 3.676168441772460938e+01 -5.353407002985477448e-03 -3.050142712891101837e-02 -1.075645070523023605e-02 -4.214886575937271118e-03
8.820000000000000000e+02 2.724507141113281250e+01 4.107773590087890625e+01 1.653034053742885590e-02 6.420328468084335327e-02 2.422008663415908813e-02 3.968078177422285080e-03
8.830000000000000000e+02 6.772092437744140625e+01 3.562273406982421875e+01 3.936446085572242737e-02 1.864992523193359375e+01 5.606787204742431641e+00 -3.204220056533813477e+00
8.840000000000000000e+02 3.699819743633270264e-01 2.174242973327636719e+00 -1.083898823708295822e-03 -1.450418960303068161e-02 -4.676426295191049576e-03 5.867996253073215485e-03
8.850000000000000000e+02 2.592203378677368164e+00 2.992337703704833984e+00 -2.442840859293937683e-02 -4.929210618138313293e-02 -2.211615443229675293e-02 6.620061397552490234e-02
8.860000000000000000e+02 5.552513122558593750e+00 2.681552171707153320e+00 -7.892466336488723755e-02 -6.913778930902481079e-02 -4.441873356699943542e-02 1.486283838748931885e-01
8.870000000000000000e+02 1.558747768402099609e+00 6.446959018707275391e+00 7.010093890130519867e-03 -1.348545104265213013e-01 -3.835332393646240234e-02 4.362044110894203186e-02
8.880000000000000000e+02 5.141994953155517578e-01 9.251526832580566406e+00 2.098500262945890427e-03 -2.139389216899871826e-01 -6.355212628841400146e-02 6.424933206290006638e-03
8.890000000000000000e+02 5.254729986190795898e-01 1.205497074127197266e+01 1.499670324847102165e-03 -2.280533015727996826e-01 -6.796608865261077881e-02 -8.657926227897405624e-04
8.900000000000000000e+02 1.583985090255737305e+00 1.195329761505126953e+01 4.219704773277044296e-03 -1.888301074504852295e-01 -5.538312345743179321e-02 -8.165858453139662743e-04
8.910000000000000000e+02 5.502527952194213867e-01 1.626632690429687500e+01 -5.426530260592699051e-04 -2.032236754894256592e-01 -6.112989783287048340e-02 -4.470056388527154922e-03
8.920000000000000000e+02 5.907922387123107910e-01 2.190058708190917969e+01 -6.304538692347705364e-04 -1.573041975498199463e-01 -4.738039523363113403e-02 -4.200050607323646545e-03
8.930000000000000000e+02 6.055558323860168457e-01 2.331293678283691406e+01 2.834478218574076891e-04 -1.476547271013259888e-01 -4.421138390898704529e-02 -3.991598263382911682e-03
8.940000000000000000e+02 1.816806197166442871e+00 2.310242080688476562e+01 -1.247251057066023350e-03 -1.289684474468231201e-01 -3.906470909714698792e-02 -1.071794982999563217e-02
8.950000000000000000e+02 6.202567815780639648e-01 2.472471809387207031e+01 -5.749969277530908585e-04 -1.391774564981460571e-01 -4.192573204636573792e-02 -3.467918839305639267e-03
8.960000000000000000e+02 6.673098802566528320e-01 2.895136642456054688e+01 1.762741885613650084e-04 -1.193921416997909546e-01 -3.576476126909255981e-02 -2.558911452069878578e-03
8.970000000000000000e+02 6.918748021125793457e-01 3.036174774169921875e+01 -3.755403740797191858e-04 -1.144865453243255615e-01 -3.445862606167793274e-02 -2.216478344053030014e-03
8.980000000000000000e+02 2.075689315795898438e+00 3.010461425781250000e+01 -6.317737861536443233e-04 -1.005991473793983459e-01 -3.036927618086338043e-02 -6.057378835976123810e-03
8.990000000000000000e+02 7.215900421142578125e-01 3.177298545837402344e+01 1.413239351677475497e-05 -1.103526949882507324e-01 -3.310156986117362976e-02 -1.957706874236464500e-03
9.000000000000000000e+02 8.230154514312744141e-01 3.599293136596679688e+01 -1.754036347847431898e-04 -1.001403033733367920e-01 -3.009471297264099121e-02 -1.859006937593221664e-03
9.010000000000000000e+02 3.044021844863891602e+00 3.810456848144531250e+01 6.242547533474862576e-04 -8.140503615140914917e-02 -2.423423342406749725e-02 -3.919742070138454437e-03
9.020000000000000000e+02 1.080149769783020020e+00 3.874187088012695312e+01 7.873135618865489960e-04 -9.337987750768661499e-02 -2.777776867151260376e-02 -2.704799408093094826e-03
9.030000000000000000e+02 1.398453593254089355e+00 4.012908554077148438e+01 6.632870645262300968e-04 -8.955653011798858643e-02 -2.666797302663326263e-02 -3.552336245775222778e-03
9.040000000000000000e+02 9.074503898620605469e+00 1.790003657341003418e+00 -2.591943144798278809e-01 -2.177954018115997314e-01 -1.430969089269638062e-01 3.606722950935363770e-01
9.050000000000000000e+02 8.354763031005859375e+00 1.810188412666320801e+00 -2.693741619586944580e-01 -1.236563548445701599e-01 -1.179091557860374451e-01 2.870935499668121338e-01
9.060000000000000000e+02 7.633918285369873047e+00 1.829198956489562988e+00 -2.329916954040527344e-01 -9.146059304475784302e-02 -9.733568876981735229e-02 2.274572402238845825e-01
9.070000000000000000e+02 6.911476612091064453e+00 1.849086642265319824e+00 -1.956361830234527588e-01 -5.850002169609069824e-02 -7.624085992574691772e-02 1.815932691097259521e-01
9.080000000000000000e+02 4.734333992004394531e+00 1.923789620399475098e+00 -9.700700640678405762e-02 -3.399510309100151062e-02 -3.930063173174858093e-02 1.013921648263931274e-01
9.090000000000000000e+02 4.003850460052490234e+00 1.952762126922607422e+00 -7.240961492061614990e-02 -2.696670778095722198e-02 -2.981289662420749664e-02 8.163055032491683960e-02
9.100000000000000000e+02 3.275123357772827148e+00 1.977942943572998047e+00 -5.207779258489608765e-02 -2.749503590166568756e-02 -2.387185022234916687e-02 6.484284251928329468e-02
9.110000000000000000e+02 1.827993154525756836e+00 2.024004459381103516e+00 -2.064673043787479401e-02 -2.819062583148479462e-02 -1.465120725333690643e-02 3.565207868814468384e-02
9.120000000000000000e+02 1.102275729179382324e+00 2.091469049453735352e+00 -8.078511804342269897e-03 -2.597772702574729919e-02 -1.021687127649784088e-02 1.897589117288589478e-02
9.130000000000000000e+02 1.392251396179199219e+01 3.362628459930419922e+00 3.233461678028106689e-01 1.876209974288940430e+00 6.598668694496154785e-01 4.313675165176391602e-01
9.140000000000000000e+02 1.206192493438720703e+01 2.666103839874267578e+00 7.934209108352661133e-01 7.549767382442951202e-03 2.402912080287933350e-01 -1.915121674537658691e-01
9.150000000000000000e+02 1.324808883666992188e+01 2.611037015914916992e+00 7.217075824737548828e-01 1.664095044136047363e+00 7.157407999038696289e-01 -6.106774210929870605e-01
9.160000000000000000e+02 1.458020973205566406e+01 1.087345004081726074e+00 5.535085201263427734e+00 2.533135890960693359e+00 2.420466423034667969e+00 -3.194530248641967773e+00
9.170000000000000000e+02 1.507583236694335938e+01 8.764302134513854980e-01 9.707262992858886719e+00 1.046504497528076172e+00 3.226130247116088867e+00 -2.605840444564819336e+00
9.180000000000000000e+02 1.375454330444335938e+01 2.551610469818115234e+00 3.760030865669250488e-01 3.068735837936401367e+00 1.033421635627746582e+00 -3.628925979137420654e-01
9.190000000000000000e+02 1.437528419494628906e+01 4.066753864288330078e+00 4.183533489704132080e-01 8.040239214897155762e-01 3.667131662368774414e-01 4.802166819572448730e-01
9.200000000000000000e+02 1.520657444000244141e+01 4.987212657928466797e+00 1.877048760652542114e-01 3.008292913436889648e-01 1.465602517127990723e-01 2.676515579223632812e-01
9.210000000000000000e+02 1.467006301879882812e+01 5.305076599121093750e+00 1.672752350568771362e-01 4.884490370750427246e-01 1.967172771692276001e-01 2.797023952007293701e-01
9.220000000000000000e+02 1.609252166748046875e+01 5.869379997253417969e+00 2.275103032588958740e-01 3.196387588977813721e-01 1.641447097063064575e-01 2.503207623958587646e-01
9.230000000000000000e+02 1.580831432342529297e+01 5.587543964385986328e+00 1.965789496898651123e-01 3.287876248359680176e-01 1.576099693775177002e-01 2.485163062810897827e-01
9.240000000000000000e+02 1.667276954650878906e+01 6.409890174865722656e+00 2.201139181852340698e-01 2.260641902685165405e-01 1.338534355163574219e-01 2.163836807012557983e-01
9.250000000000000000e+02 1.774398422241210938e+01 7.548082828521728516e+00 1.598958373069763184e-01 1.963369250297546387e-01 1.068698316812515259e-01 1.753017306327819824e-01
9.260000000000000000e+02 1.853045082092285156e+01 8.473486900329589844e+00 1.690609008073806763e-01 1.956411153078079224e-01 1.094106063246726990e-01 1.791927367448806763e-01
9.270000000000000000e+02 1.880696678161621094e+01 9.377462387084960938e+00 1.436338126659393311e-01 1.799830794334411621e-01 9.708506613969802856e-02 1.541130542755126953e-01
9.280000000000000000e+02 1.882432937622070312e+01 8.763064384460449219e+00 1.758708208799362183e-01 1.851864904165267944e-01 1.083171963691711426e-01 1.734229773283004761e-01
9.290000000000000000e+02 1.912395858764648438e+01 9.044629096984863281e+00 1.704773753881454468e-01 1.647729873657226562e-01 1.005751118063926697e-01 1.659344881772994995e-01
9.300000000000000000e+02 1.942523765563964844e+01 9.320892333984375000e+00 1.590128093957901001e-01 1.491646617650985718e-01 9.245324134826660156e-02 1.529740840196609497e-01
9.310000000000000000e+02 1.906133270263671875e+01 1.035186195373535156e+01 1.192747578024864197e-01 1.672940850257873535e-01 8.597064763307571411e-02 1.465462893247604370e-01
9.320000000000000000e+02 1.972328376770019531e+01 9.594103813171386719e+00 1.421201378107070923e-01 1.380635797977447510e-01 8.405511081218719482e-02 1.447257697582244873e-01
9.330000000000000000e+02 2.001518821716308594e+01 9.867017745971679688e+00 1.313129812479019165e-01 1.392648071050643921e-01 8.117333054542541504e-02 1.378293484449386597e-01
9.340000000000000000e+02 2.030130958557128906e+01 1.014421081542968750e+01 1.253486871719360352e-01 1.441452652215957642e-01 8.084817975759506226e-02 1.381421238183975220e-01
9.350000000000000000e+02 2.058368682861328125e+01 1.042674064636230469e+01 1.279816776514053345e-01 1.529118418693542480e-01 8.426805585622787476e-02 1.389570385217666626e-01
9.360000000000000000e+02 1.970176315307617188e+01 1.023909282684326172e+01 1.284865438938140869e-01 1.509681195020675659e-01 8.383639901876449585e-02 1.476300358772277832e-01
9.370000000000000000e+02 2.114622116088867188e+01 1.099478149414062500e+01 1.364147365093231201e-01 1.510410010814666748e-01 8.623672276735305786e-02 1.408159285783767700e-01
9.380000000000000000e+02 2.171110534667968750e+01 1.155512046813964844e+01 1.288878619670867920e-01 1.361245661973953247e-01 7.950372993946075439e-02 1.321936994791030884e-01
9.390000000000000000e+02 2.198983764648437500e+01 1.183735656738281250e+01 1.219720244407653809e-01 1.328362822532653809e-01 7.644248753786087036e-02 1.291627585887908936e-01
9.400000000000000000e+02 2.253475761413574219e+01 1.241498374938964844e+01 1.182418987154960632e-01 1.370706409215927124e-01 7.659376412630081177e-02 1.280678361654281616e-01
9.410000000000000000e+02 2.307588577270507812e+01 1.300249195098876953e+01 1.238115057349205017e-01 1.371733993291854858e-01 7.829546928405761719e-02 1.294579356908798218e-01
9.420000000000000000e+02 2.335089874267578125e+01 1.329501247406005859e+01 1.268547326326370239e-01 1.334307491779327393e-01 7.808564603328704834e-02 1.281158626079559326e-01
9.430000000000000000e+02 2.363069725036621094e+01 1.358521747589111328e+01 1.276878863573074341e-01 1.271467804908752441e-01 7.645040005445480347e-02 1.260652840137481689e-01
9.440000000000000000e+02 2.391639137268066406e+01 1.387213134765625000e+01 1.274824440479278564e-01 1.201460957527160645e-01 7.428856194019317627e-02 1.218264400959014893e-01
9.450000000000000000e+02 2.451053619384765625e+01 1.442413043975830078e+01 1.180452927947044373e-01 1.046306565403938293e-01 6.680278480052947998e-02 1.108496040105819702e-01
9.460000000000000000e+02 2.510914993286132812e+01 1.493613147735595703e+01 1.025996729731559753e-01 9.780903905630111694e-02 6.012261286377906799e-02 1.015311926603317261e-01
9.470000000000000000e+02 2.483294296264648438e+01 1.516449356079101562e+01 1.004505679011344910e-01 1.038550212979316711e-01 6.129167601466178894e-02 1.057194322347640991e-01
9.480000000000000000e+02 2.564805603027343750e+01 1.550757217407226562e+01 9.547016769647598267e-02 1.026941612362861633e-01 5.944930016994476318e-02 1.002221256494522095e-01
9.490000000000000000e+02 2.591794967651367188e+01 1.580086040496826172e+01 9.552160650491714478e-02 1.057228967547416687e-01 6.037335097789764404e-02 1.009277775883674622e-01
9.500000000000000000e+02 2.505396080017089844e+01 1.544747066497802734e+01 9.771318733692169189e-02 1.034970730543136597e-01 6.036307662725448608e-02 1.042575463652610779e-01
9.510000000000000000e+02 2.705050468444824219e+01 1.695960807800292969e+01 1.009179055690765381e-01 1.027515381574630737e-01 6.110082939267158508e-02 1.007291525602340698e-01
9.520000000000000000e+02 2.762923431396484375e+01 1.752236175537109375e+01 9.921920299530029297e-02 9.423486888408660889e-02 5.803622305393218994e-02 9.598854929208755493e-02
9.530000000000000000e+02 2.733907318115234375e+01 1.724217033386230469e+01 1.007161065936088562e-01 9.863367676734924316e-02 5.980493500828742981e-02 9.882625937461853027e-02
9.540000000000000000e+02 2.820919609069824219e+01 1.808149909973144531e+01 9.348571300506591797e-02 8.725023269653320312e-02 5.422078445553779602e-02 9.020369499921798706e-02
9.550000000000000000e+02 2.849824523925781250e+01 1.836249351501464844e+01 9.038130939006805420e-02 8.489316701889038086e-02 5.258234217762947083e-02 8.802084624767303467e-02
9.560000000000000000e+02 2.878681755065917969e+01 1.864424705505371094e+01 8.802843093872070312e-02 8.342071622610092163e-02 5.143474414944648743e-02 8.567903190851211548e-02
9.570000000000000000e+02 2.936540031433105469e+01 1.920360565185546875e+01 8.339259028434753418e-02 8.062167465686798096e-02 4.920427873730659485e-02 8.197794109582901001e-02
9.580000000000000000e+02 2.965764427185058594e+01 1.948151206970214844e+01 8.084614574909210205e-02 7.920244336128234863e-02 4.801457747817039490e-02 8.067845553159713745e-02
9.590000000000000000e+02 2.995112991333007812e+01 1.975924873352050781e+01 7.922013849020004272e-02 7.873782515525817871e-02 4.738738760352134705e-02 7.894406467676162720e-02
9.600000000000000000e+02 3.024350547790527344e+01 2.003657341003417969e+01 7.756119966506958008e-02 7.801721990108489990e-02 4.667352512478828430e-02 7.837349176406860352e-02
9.610000000000000000e+02 3.082525825500488281e+01 2.058610343933105469e+01 7.785510271787643433e-02 7.636797428131103516e-02 4.626692086458206177e-02 7.689757645130157471e-02
9.620000000000000000e+02 3.220935821533203125e+01 2.197021675109863281e+01 5.688339844346046448e-02 6.213253363966941833e-02 3.570478036999702454e-02 6.201162934303283691e-02
9.630000000000000000e+02 3.247290420532226562e+01 2.228899765014648438e+01 5.258870497345924377e-02 6.588706374168395996e-02 3.554273024201393127e-02 6.237480789422988892e-02
9.640000000000000000e+02 3.276539230346679688e+01 2.258124542236328125e+01 5.339564755558967590e-02 7.215055078268051147e-02 3.766386210918426514e-02 6.236530467867851257e-02
9.650000000000000000e+02 3.330854034423828125e+01 2.317168617248535156e+01 5.738960579037666321e-02 7.654138654470443726e-02 4.017929732799530029e-02 6.494837999343872070e-02
9.660000000000000000e+02 3.239144515991210938e+01 2.291626358032226562e+01 5.630219727754592896e-02 6.908377259969711304e-02 3.761579096317291260e-02 6.549820303916931152e-02
9.670000000000000000e+02 3.385164642333984375e+01 2.375670051574707031e+01 5.523305013775825500e-02 7.260663807392120361e-02 3.835190832614898682e-02 6.297562271356582642e-02
9.680000000000000000e+02 3.358048248291015625e+01 2.346467399597167969e+01 5.636852234601974487e-02 7.401330024003982544e-02 3.911454603075981140e-02 6.507900357246398926e-02
9.690000000000000000e+02 3.411775207519531250e+01 2.405112075805664062e+01 5.170032382011413574e-02 7.197979837656021118e-02 3.710403665900230408e-02 6.273227185010910034e-02
9.700000000000000000e+02 3.437631988525390625e+01 2.435082054138183594e+01 5.219620838761329651e-02 7.473333179950714111e-02 3.807886317372322083e-02 6.202710419893264771e-02
9.710000000000000000e+02 3.487825012207031250e+01 2.496619987487792969e+01 5.642128363251686096e-02 7.833684980869293213e-02 4.042743891477584839e-02 6.442174315452575684e-02
9.720000000000000000e+02 3.512757492065429688e+01 2.527908134460449219e+01 5.606228113174438477e-02 7.549645006656646729e-02 3.946761786937713623e-02 6.545951962471008301e-02
9.730000000000000000e+02 3.588634490966796875e+01 2.621420860290527344e+01 5.126238986849784851e-02 6.961941719055175781e-02 3.626454249024391174e-02 5.936267599463462830e-02
9.740000000000000000e+02 3.642720794677734375e+01 2.682492828369140625e+01 5.189822241663932800e-02 7.519101351499557495e-02 3.812677040696144104e-02 6.048455461859703064e-02
9.750000000000000000e+02 3.669050979614257812e+01 2.713273811340332031e+01 5.264783278107643127e-02 7.597123831510543823e-02 3.858572244644165039e-02 6.436037272214889526e-02
9.760000000000000000e+02 3.748401641845703125e+01 2.803989601135253906e+01 6.238287687301635742e-02 7.039667665958404541e-02 3.983386605978012085e-02 6.276524811983108521e-02
9.770000000000000000e+02 3.775416183471679688e+01 2.833551025390625000e+01 5.951429158449172974e-02 6.486791372299194336e-02 3.731466084718704224e-02 6.358506530523300171e-02
9.780000000000000000e+02 3.721728134155273438e+01 2.774122619628906250e+01 5.849331989884376526e-02 7.244367152452468872e-02 3.928109630942344666e-02 6.595323979854583740e-02
9.790000000000000000e+02 3.858317947387695312e+01 2.919954490661621094e+01 5.929482355713844299e-02 5.935141816735267639e-02 3.559387102723121643e-02 5.608666688203811646e-02
9.800000000000000000e+02 3.760905075073242188e+01 2.893656539916992188e+01 5.400269478559494019e-02 6.479221582412719727e-02 3.563847392797470093e-02 5.994353443384170532e-02
9.810000000000000000e+02 3.885178375244140625e+01 2.950650787353515625e+01 5.411294847726821899e-02 5.617539584636688232e-02 3.308650106191635132e-02 5.874350294470787048e-02
9.820000000000000000e+02 3.975685501098632812e+01 3.038978958129882812e+01 6.030735373497009277e-02 5.769206956028938293e-02 3.539982810616493225e-02 5.488139018416404724e-02
9.830000000000000000e+02 4.038804244995117188e+01 3.092907142639160156e+01 6.161802262067794800e-02 5.329773575067520142e-02 3.447472676634788513e-02 5.199635028839111328e-02
9.840000000000000000e+02 4.006236267089843750e+01 3.067389678955078125e+01 5.872937664389610291e-02 5.141995847225189209e-02 3.304480016231536865e-02 5.696639046072959900e-02
9.850000000000000000e+02 4.101954269409179688e+01 3.138199806213378906e+01 6.049077957868576050e-02 5.035851150751113892e-02 3.325478732585906982e-02 4.921936243772506714e-02
9.860000000000000000e+02 4.050943374633789062e+01 3.180698585510253906e+01 5.906282365322113037e-02 5.053261667490005493e-02 3.287863358855247498e-02 5.275147780776023865e-02
9.870000000000000000e+02 4.157561492919921875e+01 3.192773437500000000e+01 6.017805263400077820e-02 4.820040240883827209e-02 3.251353651285171509e-02 4.947655275464057922e-02
9.880000000000000000e+02 4.186380386352539062e+01 3.221130371093750000e+01 5.788030847907066345e-02 4.330231621861457825e-02 3.035478666424751282e-02 5.315812304615974426e-02
9.890000000000000000e+02 4.216553115844726562e+01 3.249348068237304688e+01 6.160855665802955627e-02 4.674968123435974121e-02 3.250747174024581909e-02 4.976596683263778687e-02
9.900000000000000000e+02 4.248526000976562500e+01 3.275701904296875000e+01 5.962719395756721497e-02 4.196895286440849304e-02 3.047884255647659302e-02 5.324625223875045776e-02
9.910000000000000000e+02 4.281554412841796875e+01 3.299799346923828125e+01 6.481193006038665771e-02 4.585515707731246948e-02 3.320012614130973816e-02 4.862087965011596680e-02
9.920000000000000000e+02 4.343599319458007812e+01 3.348808288574218750e+01 6.681760400533676147e-02 4.478413611650466919e-02 3.348052129149436951e-02 4.739997908473014832e-02
9.930000000000000000e+02 4.401384735107421875e+01 3.405955123901367188e+01 6.950809061527252197e-02 4.384893923997879028e-02 3.400710970163345337e-02 4.797597602009773254e-02
9.940000000000000000e+02 4.313701248168945312e+01 3.323317337036132812e+01 6.112825125455856323e-02 3.812304884195327759e-02 2.977539040148258209e-02 5.422479659318923950e-02
9.950000000000000000e+02 4.448239517211914062e+01 3.529172515869140625e+01 7.830668240785598755e-02 3.443209454417228699e-02 3.382163494825363159e-02 5.413796752691268921e-02
9.960000000000000000e+02 4.503713607788085938e+01 3.482310104370117188e+01 7.232578098773956299e-02 3.289698436856269836e-02 3.156683221459388733e-02 5.895768851041793823e-02
9.970000000000000000e+02 4.662642288208007812e+01 3.601889419555664062e+01 9.229598194360733032e-02 5.087862163782119751e-02 4.295238107442855835e-02 6.373813003301620483e-02
9.980000000000000000e+02 4.749555206298828125e+01 3.671013259887695312e+01 1.222230046987533569e-01 4.685364291071891785e-02 5.072299391031265259e-02 8.697308599948883057e-02
9.990000000000000000e+02 4.827044296264648438e+01 3.730645370483398438e+01 1.806342750787734985e-01 9.428689256310462952e-03 5.701888725161552429e-02 7.998418062925338745e-02
1.000000000000000000e+03 5.060591125488281250e+01 3.790575790405273438e+01 2.619100511074066162e-01 3.829863294959068298e-02 9.006261080503463745e-02 1.083163172006607056e-01
1.001000000000000000e+03 5.045906448364257812e+01 3.818364715576171875e+01 2.144636362791061401e-01 2.881448715925216675e-02 7.298343628644943237e-02 8.330922573804855347e-02
1.002000000000000000e+03 5.091635131835937500e+01 3.802429962158203125e+01 2.494516670703887939e-01 5.624076724052429199e-02 9.170772880315780640e-02 1.309358030557632446e-01
1.003000000000000000e+03 5.428254318237304688e+01 3.790445709228515625e+01 -3.222052454948425293e-01 -4.640803635120391846e-01 -2.358856797218322754e-01 3.858090639114379883e-01
1.004000000000000000e+03 5.690506744384765625e+01 3.753259658813476562e+01 -1.462992578744888306e-01 -2.134229838848114014e-01 -1.079166755080223083e-01 5.181806087493896484e-01
1.005000000000000000e+03 5.846176147460937500e+01 3.684441375732421875e+01 -3.791615068912506104e-01 -1.297913193702697754e-01 -1.526858508586883545e-01 6.454795598983764648e-01
1.006000000000000000e+03 6.072063064575195312e+01 3.644915771484375000e+01 -6.284027099609375000e-01 2.618987485766410828e-02 -1.806638538837432861e-01 4.911448359489440918e-01
1.007000000000000000e+03 6.172607421875000000e+01 3.688907623291015625e+01 -5.659807100892066956e-02 3.710749745368957520e-01 9.434307366609573364e-02 3.200854063034057617e-01
1.008000000000000000e+03 6.196911239624023438e+01 3.620461273193359375e+01 -6.323888301849365234e-01 4.290846884250640869e-01 -6.099124252796173096e-02 3.039122223854064941e-01
1.009000000000000000e+03 6.327339935302734375e+01 3.631870651245117188e+01 -2.814471162855625153e-02 6.039691567420959473e-01 1.727473288774490356e-01 -5.523269176483154297e-01
1.010000000000000000e+03 6.392093658447265625e+01 3.618501663208007812e+01 2.502309083938598633e-01 8.089864850044250488e-01 3.177652060985565186e-01 -7.981994152069091797e-01
1.011000000000000000e+03 6.445768737792968750e+01 3.597795104980468750e+01 5.254658460617065430e-01 1.421277284622192383e+00 5.840229392051696777e-01 -1.178345084190368652e+00
1.012000000000000000e+03 6.480722045898437500e+01 3.582939910888671875e+01 7.916828989982604980e-01 1.932243347167968750e+00 8.171778917312622070e-01 -1.765389680862426758e+00
1.013000000000000000e+03 6.517462921142578125e+01 3.568509292602539062e+01 1.217761874198913574e+00 1.838775396347045898e+00 9.169611930847167969e-01 -2.385462045669555664e+00
1.014000000000000000e+03 6.687953186035156250e+01 3.557560348510742188e+01 1.796550750732421875e+00 1.032564640045166016e+01 3.636659383773803711e+00 -6.585512638092041016e+00
1.015000000000000000e+03 6.749047851562500000e+01 3.566391372680664062e+01 3.447129130363464355e-01 1.626306152343750000e+01 4.982332706451416016e+00 -4.703515052795410156e+00
1.016000000000000000e+03 6.912113952636718750e+01 3.443388748168945312e+01 8.514336585998535156e+00 1.694488334655761719e+01 7.637765884399414062e+00 2.137752056121826172e+00
1.017000000000000000e+03 6.921012878417968750e+01 3.400487518310546875e+01 9.494332313537597656e+00 1.620706176757812500e+01 7.710418224334716797e+00 3.124625682830810547e-01
1.018000000000000000e+03 6.915576171875000000e+01 3.356507873535156250e+01 8.896209716796875000e+00 1.657908821105957031e+01 7.642589092254638672e+00 -1.421069264411926270e+00
1.019000000000000000e+03 6.508514404296875000e+01 3.236793899536132812e+01 9.243319630622863770e-01 1.509020209312438965e+00 7.300056815147399902e-01 2.397943496704101562e+00
1.020000000000000000e+03 6.283541870117187500e+01 3.247787475585937500e+01 -1.393345832824707031e+00 2.046988606452941895e-01 -3.565941154956817627e-01 3.900823593139648438e-01
1.021000000000000000e+03 6.223017501831054688e+01 3.252464675903320312e+01 -1.641986727714538574e+00 8.348809927701950073e-02 -4.675495922565460205e-01 1.736763268709182739e-01
1.022000000000000000e+03 6.161671066284179688e+01 3.257719802856445312e+01 -1.764509797096252441e+00 1.277095228433609009e-01 -4.910400807857513428e-01 2.960595488548278809e-02
1.023000000000000000e+03 5.795799636840820312e+01 3.299760437011718750e+01 -1.747886657714843750e+00 1.674278378486633301e-01 -4.741376340389251709e-01 -4.020614922046661377e-01
1.024000000000000000e+03 6.020536041259765625e+01 3.273289108276367188e+01 -1.975347995758056641e+00 1.106670051813125610e-01 -5.594043135643005371e-01 -2.215358465909957886e-01
1.025000000000000000e+03 5.565591812133789062e+01 3.329804229736328125e+01 -1.297663450241088867e+00 1.954167634248733521e-01 -3.306740224361419678e-01 -5.438871383666992188e-01
1.026000000000000000e+03 5.226215744018554688e+01 3.309055709838867188e+01 -6.483869552612304688e-01 -7.579299211502075195e-01 -4.218950867652893066e-01 -7.092871069908142090e-01
1.027000000000000000e+03 2.452023124694824219e+01 -3.101312160491943359e+00 1.863305807113647461e+00 1.303837537765502930e+00 9.501429796218872070e-01 -1.393157005310058594e+00
1.028000000000000000e+03 2.835718345642089844e+01 -7.296325683593750000e+00 7.391097545623779297e-01 5.524048209190368652e-01 3.874543607234954834e-01 -5.706123709678649902e-01
1.029000000000000000e+03 3.003741645812988281e+01 -7.806848526000976562e+00 6.513894200325012207e-01 1.602439768612384796e-02 2.002241462469100952e-01 -3.372960388660430908e-01
1.030000000000000000e+03 2.919280815124511719e+01 -8.375412940979003906e+00 3.791153132915496826e-01 3.632772564888000488e-01 2.227177768945693970e-01 -4.067498147487640381e-01
1.031000000000000000e+03 3.154298019409179688e+01 -1.004471015930175781e+01 3.078676462173461914e-01 -1.638813614845275879e-01 4.319588467478752136e-02 -1.379899233579635620e-01
1.032000000000000000e+03 3.353380584716796875e+01 -1.536408805847167969e+01 -1.276818960905075073e-01 -4.871460497379302979e-01 -1.844483911991119385e-01 2.420177012681961060e-01
1.033000000000000000e+03 3.494092559814453125e+01 -1.773282623291015625e+01 -1.689713895320892334e-01 -5.704804658889770508e-01 -2.218355536460876465e-01 3.113467395305633545e-01
1.034000000000000000e+03 3.632889938354492188e+01 -2.012037467956542969e+01 -1.984599381685256958e-01 -6.200144886970520020e-01 -2.455423325300216675e-01 3.465465605258941650e-01
1.035000000000000000e+03 3.766112899780273438e+01 -2.253138542175292969e+01 -1.853112429380416870e-01 -5.498400926589965820e-01 -2.205453962087631226e-01 3.327344655990600586e-01
1.036000000000000000e+03 3.907392120361328125e+01 -2.488712692260742188e+01 -2.104710936546325684e-01 -4.810644388198852539e-01 -2.074606567621231079e-01 3.200936615467071533e-01
1.037000000000000000e+03 4.051227951049804688e+01 -2.220454025268554688e+01 -9.718374907970428467e-02 2.985113486647605896e-02 -2.019978314638137817e-02 1.447329521179199219e-01
1.038000000000000000e+03 4.229146575927734375e+01 -2.768674468994140625e+01 -1.545441895723342896e-01 1.912380009889602661e-01 1.100814435631036758e-02 1.155308559536933899e-01
1.039000000000000000e+03 4.194110107421875000e+01 -2.959379386901855469e+01 -1.421268433332443237e-01 -8.606614917516708374e-02 -6.845789402723312378e-02 1.499246805906295776e-01
1.040000000000000000e+03 4.329131317138671875e+01 -3.193484115600585938e+01 -3.069444373250007629e-02 3.609630167484283447e-01 9.908057004213333130e-02 -5.614509806036949158e-02
1.041000000000000000e+03 4.387519073486328125e+01 -3.300518417358398438e+01 2.974959276616573334e-02 9.357157945632934570e-01 2.896396219730377197e-01 -1.444732248783111572e-01
1.042000000000000000e+03 4.477948379516601562e+01 -3.612242889404296875e+01 1.064154580235481262e-01 2.333084821701049805e+00 7.318500876426696777e-01 2.333644777536392212e-01
1.043000000000000000e+03 3.819126892089843750e+01 -3.875234603881835938e+01 1.599119424819946289e+00 6.439784169197082520e-01 6.729293465614318848e-01 -8.489883542060852051e-01
1.044000000000000000e+03 3.444652175903320312e+01 -3.471149444580078125e+01 6.691917777061462402e-01 7.077820301055908203e-01 4.130921661853790283e-01 -6.562947034835815430e-01
1.045000000000000000e+03 3.362733459472656250e+01 -3.359827804565429688e+01 6.232563257217407227e-01 7.747166156768798828e-01 4.193918704986572266e-01 -6.579743027687072754e-01
1.046000000000000000e+03 3.056237602233886719e+01 -2.903425788879394531e+01 3.087181150913238525e-01 9.767026305198669434e-01 3.856262266635894775e-01 -5.243531465530395508e-01
1.047000000000000000e+03 3.122092247009277344e+01 -3.026093292236328125e+01 3.857360482215881348e-01 1.030055046081542969e+00 4.247373342514038086e-01 -5.986326336860656738e-01
1.048000000000000000e+03 2.695244026184082031e+01 -2.155297279357910156e+01 1.873806565999984741e-01 7.103151679039001465e-01 2.693087458610534668e-01 -3.802518546581268311e-01
1.049000000000000000e+03 2.514704132080078125e+01 -2.092201232910156250e+01 1.969974339008331299e-01 5.261126160621643066e-01 2.169330120086669922e-01 -3.633597791194915771e-01
1.050000000000000000e+03 2.755348587036132812e+01 -2.278901100158691406e+01 2.049344629049301147e-01 7.608955502510070801e-01 2.897489964962005615e-01 -3.900923132896423340e-01
1.051000000000000000e+03 2.508755683898925781e+01 -1.788752555847167969e+01 1.993377804756164551e-01 5.462321043014526367e-01 2.236709743738174438e-01 -3.206374347209930420e-01
1.052000000000000000e+03 2.296543312072753906e+01 -1.437111759185791016e+01 1.826430261135101318e-01 3.931657969951629639e-01 1.727426350116729736e-01 -3.045803606510162354e-01
1.053000000000000000e+03 2.088972663879394531e+01 -1.075962448120117188e+01 1.499356478452682495e-01 3.931849449872970581e-02 5.677624419331550598e-02 -9.958636015653610229e-02
1.054000000000000000e+03 2.025804710388183594e+01 -9.508382797241210938e+00 2.099767699837684631e-02 -2.651410698890686035e-01 -7.324302196502685547e-02 -7.797332853078842163e-02
1.055000000000000000e+03 1.782439231872558594e+01 -2.791362524032592773e+00 -1.626152634620666504e+00 -1.714178919792175293e+00 -1.002099514007568359e+00 -1.365467548370361328e+00
1.056000000000000000e+03 4.486705398559570312e+01 2.579915809631347656e+01 -1.483070969581604004e+00 -1.579084515571594238e+00 -9.186466336250305176e-01 -1.524308204650878906e+00
1.057000000000000000e+03 4.458705902099609375e+01 2.551366424560546875e+01 -1.568889141082763672e+00 -1.614361405372619629e+00 -9.549751877784729004e-01 -1.573289036750793457e+00
1.058000000000000000e+03 4.430231094360351562e+01 2.523201751708984375e+01 -1.651953339576721191e+00 -1.601405382156372070e+00 -9.760076403617858887e-01 -1.601875305175781250e+00
1.059000000000000000e+03 4.371822738647460938e+01 2.468433380126953125e+01 -1.717360138893127441e+00 -1.484054803848266602e+00 -9.604244828224182129e-01 -1.581600785255432129e+00
1.060000000000000000e+03 3.155839538574218750e+01 1.206232357025146484e+01 -1.587350249290466309e+00 -1.683796763420104980e+00 -9.813441038131713867e-01 -1.590118408203125000e+00
1.061000000000000000e+03 6.865593719482421875e+01 3.517997360229492188e+01 3.512330055236816406e+00 2.008037948608398438e+01 7.077812671661376953e+00 2.031382799148559570e+00
1.062000000000000000e+03 6.893633270263671875e+01 3.484545898437500000e+01 5.962667465209960938e+00 1.847332191467285156e+01 7.330797195434570312e+00 2.743514299392700195e+00
1.063000000000000000e+03 6.876537322998046875e+01 3.276356887817382812e+01 4.106872558593750000e+00 1.918080139160156250e+01 6.986302375793457031e+00 -2.109742403030395508e+00
1.064000000000000000e+03 6.810292816162109375e+01 3.547209167480468750e+01 4.759982228279113770e-01 2.103124237060546875e+01 6.452171802520751953e+00 -9.106066823005676270e-01
1.065000000000000000e+03 6.917939758300781250e+01 3.422248840332031250e+01 9.185194015502929688e+00 1.636621475219726562e+01 7.665422439575195312e+00 1.243624567985534668e+00
1.066000000000000000e+03 6.839503479003906250e+01 3.250572204589843750e+01 1.806687355041503906e+00 2.042133522033691406e+01 6.668406486511230469e+00 -3.808346986770629883e-01
1.067000000000000000e+03 6.847969818115234375e+01 3.530408096313476562e+01 2.139114379882812500e+00 2.063370513916015625e+01 6.831845760345458984e+00 1.212332129478454590e+00
1.068000000000000000e+03 6.900366973876953125e+01 3.315086364746093750e+01 6.944269180297851562e+00 1.792882728576660156e+01 7.461928844451904297e+00 -2.558538198471069336e+00
1.069000000000000000e+03 6.820574188232421875e+01 3.240380859375000000e+01 9.119127988815307617e-01 2.037519073486328125e+01 6.386130809783935547e+00 8.035401105880737305e-01
1.070000000000000000e+03 6.829183959960937500e+01 3.540833282470703125e+01 1.015018820762634277e+00 2.120427703857421875e+01 6.665788650512695312e+00 3.518102457746863365e-03
1.071000000000000000e+03 6.943730163574218750e+01 3.327506256103515625e+01 7.080389022827148438e+00 1.574565124511718750e+01 6.847812175750732422e+00 -1.853610634803771973e+00
1.072000000000000000e+03 6.725450134277343750e+01 3.566963577270507812e+01 6.600308418273925781e-01 1.441072940826416016e+01 4.521227836608886719e+00 -5.585148811340332031e+00
1.073000000000000000e+03 6.500334167480468750e+01 3.574501800537109375e+01 1.065342545509338379e+00 1.952329874038696289e+00 9.053016901016235352e-01 -2.094600677490234375e+00
1.074000000000000000e+03 6.522386932373046875e+01 3.601891326904296875e+01 1.428278207778930664e+00 2.569566726684570312e+00 1.199353456497192383e+00 -2.886469125747680664e+00
1.075000000000000000e+03 6.554967498779296875e+01 3.565569305419921875e+01 1.743316292762756348e+00 2.596255779266357422e+00 1.301871538162231445e+00 -3.052167177200317383e+00
1.076000000000000000e+03 6.705369567871093750e+01 3.559476089477539062e+01 1.368899822235107422e+00 1.202181434631347656e+01 4.017214298248291016e+00 -6.255148410797119141e+00
1.077000000000000000e+03 6.631363677978515625e+01 3.565570068359375000e+01 2.230741500854492188e+00 5.708024024963378906e+00 2.381629705429077148e+00 -5.043581485748291016e+00
1.078000000000000000e+03 6.669647979736328125e+01 3.557867431640625000e+01 2.117040634155273438e+00 9.183740615844726562e+00 3.390234470367431641e+00 -6.395472049713134766e+00
1.079000000000000000e+03 2.910180664062500000e+01 5.513538360595703125e+00 -2.305073261260986328e+00 -1.496073126792907715e+00 -1.140343904495239258e+00 -1.256122827529907227e+00
1.080000000000000000e+03 2.813519859313964844e+01 4.923365116119384766e+00 -2.547162532806396484e+00 -1.445279955863952637e+00 -1.197732686996459961e+00 -1.483208060264587402e+00
1.081000000000000000e+03 2.881752395629882812e+01 4.912435054779052734e+00 -2.281586647033691406e+00 -1.376567125320434570e+00 -1.097446203231811523e+00 -1.193318009376525879e+00
1.082000000000000000e+03 2.835028839111328125e+01 4.706468582153320312e+00 -2.380375385284423828e+00 -1.373136997222900391e+00 -1.126053690910339355e+00 -1.296658992767333984e+00
1.083000000000000000e+03 2.695454597473144531e+01 3.909429073333740234e+00 -2.741731643676757812e+00 -1.015022516250610352e+00 -1.127026200294494629e+00 -1.387025475502014160e+00
1.084000000000000000e+03 2.090278244018554688e+01 4.581289887428283691e-01 -2.145501852035522461e+00 -1.667492628097534180e+00 -1.143898367881774902e+00 -3.383763074874877930e+00
1.085000000000000000e+03 2.171086883544921875e+01 4.598672986030578613e-01 -2.147532701492309570e+00 -3.663934767246246338e-01 -7.541778087615966797e-01 -2.497312784194946289e+00
1.086000000000000000e+03 1.932972526550292969e+01 -5.040117502212524414e-01 -2.575827836990356445e+00 -3.418828010559082031e+00 -1.798396706581115723e+00 -1.900881528854370117e+00
1.087000000000000000e+03 1.976063156127929688e+01 -3.620526194572448730e-01 -2.084351062774658203e+00 -3.770579576492309570e+00 -1.756479144096374512e+00 -2.412138462066650391e+00
1.088000000000000000e+03 1.989525413513183594e+01 -7.590789794921875000e-01 -4.760029315948486328e+00 -5.210360050201416016e+00 -2.991117000579833984e+00 -3.457406997680664062e+00
1.089000000000000000e+03 1.863749122619628906e+01 -1.719742536544799805e+00 -2.358147144317626953e+00 -2.835376262664794922e+00 -1.558057069778442383e+00 -1.920621514320373535e+00
1.090000000000000000e+03 2.744604492187500000e+01 4.458334922790527344e+00 -2.732424736022949219e+00 -1.207711696624755859e+00 -1.182040929794311523e+00 -1.504387855529785156e+00
1.091000000000000000e+03 2.232827949523925781e+01 1.315521478652954102e+00 -2.961263418197631836e+00 -6.163468956947326660e-01 -1.073283076286315918e+00 -2.144826889038085938e+00
1.092000000000000000e+03 2.202996063232421875e+01 4.837690591812133789e-01 -1.981882810592651367e+00 -9.501211345195770264e-02 -6.230684518814086914e-01 -2.306033134460449219e+00
1.093000000000000000e+03 2.342694282531738281e+01 -2.224126815795898438e+00 2.101709127426147461e+00 1.412911176681518555e+00 1.054386138916015625e+00 -1.973938465118408203e+00
1.094000000000000000e+03 2.932479476928710938e+01 5.575997352600097656e+00 -2.270897865295410156e+00 -1.397864699363708496e+00 -1.100628733634948730e+00 -1.222400546073913574e+00
1.095000000000000000e+03 2.890239906311035156e+01 5.253925800323486328e+00 -2.313623666763305664e+00 -1.490219831466674805e+00 -1.141152977943420410e+00 -1.258453607559204102e+00
1.096000000000000000e+03 2.861408233642578125e+01 5.273009300231933594e+00 -2.433075666427612305e+00 -1.594826221466064453e+00 -1.208370566368103027e+00 -1.410876870155334473e+00
1.097000000000000000e+03 2.829591751098632812e+01 5.042489528656005859e+00 -2.493109226226806641e+00 -1.518624186515808105e+00 -1.203520059585571289e+00 -1.452347874641418457e+00
1.098000000000000000e+03 2.726387977600097656e+01 4.349362373352050781e+00 -2.778571367263793945e+00 -1.191822409629821777e+00 -1.191118121147155762e+00 -1.524959444999694824e+00
1.099000000000000000e+03 2.690050315856933594e+01 4.169473171234130859e+00 -2.870540857315063477e+00 -1.121279358863830566e+00 -1.197546005249023438e+00 -1.533375859260559082e+00
1.100000000000000000e+03 2.622280311584472656e+01 3.784783363342285156e+00 -3.066814422607421875e+00 -9.624632000923156738e-01 -1.208783268928527832e+00 -1.516584873199462891e+00
1.101000000000000000e+03 2.590544128417968750e+01 3.525986433029174805e+00 -3.089570760726928711e+00 -8.991776108741760254e-01 -1.196624517440795898e+00 -1.499931812286376953e+00
1.102000000000000000e+03 2.608262443542480469e+01 3.646536588668823242e+00 -3.049152851104736328e+00 -9.073810577392578125e-01 -1.186960220336914062e+00 -1.494931578636169434e+00
1.103000000000000000e+03 2.536952972412109375e+01 3.237353086471557617e+00 -3.190092802047729492e+00 -8.150493502616882324e-01 -1.201542615890502930e+00 -1.519940137863159180e+00
1.104000000000000000e+03 2.400901603698730469e+01 1.989753484725952148e+00 -3.069708585739135742e+00 -5.219169259071350098e-01 -1.077487707138061523e+00 -1.427753448486328125e+00
1.105000000000000000e+03 2.338183593750000000e+01 1.852930784225463867e+00 -3.266691923141479492e+00 -5.957186818122863770e-01 -1.158723115921020508e+00 -1.636955499649047852e+00
1.106000000000000000e+03 2.109505653381347656e+01 5.389383435249328613e-01 -2.262003898620605469e+00 -1.597632646560668945e+00 -1.157890915870666504e+00 -3.299476146697998047e+00
1.107000000000000000e+03 1.807493209838867188e+01 -1.333594560623168945e+00 -2.231004476547241211e+00 -1.483503103256225586e+00 -1.114352345466613770e+00 -1.422220230102539062e+00
1.108000000000000000e+03 1.790346336364746094e+01 -1.443005800247192383e+00 -2.371494531631469727e+00 -1.429504632949829102e+00 -1.140299797058105469e+00 -1.438129186630249023e+00
1.109000000000000000e+03 1.834848403930664062e+01 -2.033461809158325195e+00 -2.384827613830566406e+00 -2.618399143218994141e+00 -1.500968098640441895e+00 -1.830697298049926758e+00
1.110000000000000000e+03 1.781377410888671875e+01 -2.194092512130737305e+00 -2.045545816421508789e+00 -1.837841749191284180e+00 -1.165016293525695801e+00 -1.398163318634033203e+00
1.111000000000000000e+03 2.467010879516601562e+01 2.315269470214843750e+00 -2.956309556961059570e+00 -5.097918510437011719e-01 -1.039830446243286133e+00 -1.242440342903137207e+00
1.112000000000000000e+03 2.796922492980957031e+01 4.805052280426025391e+00 -2.577191591262817383e+00 -1.414451956748962402e+00 -1.197493076324462891e+00 -1.494434475898742676e+00
1.113000000000000000e+03 1.818876457214355469e+01 -3.875296354293823242e+00 -6.618746519088745117e-01 -2.525487661361694336e+00 -9.562087059020996094e-01 -1.080703377723693848e+00
1.114000000000000000e+03 6.712608337402343750e+01 3.235375976562500000e+01 1.362111210823059082e+00 1.374389839172363281e+01 4.531803131103515625e+00 6.772038936614990234e+00
1.115000000000000000e+03 6.633470916748046875e+01 3.233759689331054688e+01 2.422372579574584961e+00 6.064024448394775391e+00 2.545918941497802734e+00 5.658044338226318359e+00
1.116000000000000000e+03 6.704476928710937500e+01 3.216288375854492188e+01 1.125136494636535645e+00 1.250978279113769531e+01 4.090475559234619141e+00 6.444929599761962891e+00
1.117000000000000000e+03 6.443392944335937500e+01 3.236901855468750000e+01 3.334259241819381714e-02 7.210618853569030762e-01 2.263213396072387695e-01 1.439609766006469727e+00
1.118000000000000000e+03 6.612528228759765625e+01 3.237069702148437500e+01 2.425861597061157227e+00 4.534143924713134766e+00 2.088001728057861328e+00 5.015098571777343750e+00
1.119000000000000000e+03 6.530555725097656250e+01 3.234830093383789062e+01 1.317769885063171387e+00 1.807923555374145508e+00 9.377080202102661133e-01 2.837157249450683594e+00
1.120000000000000000e+03 6.685565948486328125e+01 3.207384872436523438e+01 1.350968599319458008e+00 1.076731109619140625e+01 3.635483980178833008e+00 6.253480434417724609e+00
1.121000000000000000e+03 6.592848205566406250e+01 3.210665893554687500e+01 2.012970209121704102e+00 4.282638549804687500e+00 1.888682603836059570e+00 4.546933174133300781e+00
1.122000000000000000e+03 6.475934600830078125e+01 3.218449783325195312e+01 6.364131569862365723e-01 1.198196530342102051e+00 5.503829121589660645e-01 2.040510892868041992e+00
1.123000000000000000e+03 5.315292739868164062e+01 3.876108169555664062e+01 -2.638221681118011475e-01 -3.531687557697296143e-01 -1.850972771644592285e-01 3.255038559436798096e-01
1.124000000000000000e+03 5.627631378173828125e+01 3.689017486572265625e+01 -3.014364838600158691e-01 -1.925020217895507812e-01 -1.481815576553344727e-01 4.837875962257385254e-01
1.125000000000000000e+03 5.423749160766601562e+01 3.842533493041992188e+01 -2.624538242816925049e-01 -5.030550360679626465e-01 -2.296526581048965454e-01 2.563362717628479004e-01
1.126000000000000000e+03 5.347287368774414062e+01 3.852965927124023438e+01 -4.569199979305267334e-01 -6.618090271949768066e-01 -3.356187045574188232e-01 4.809261560440063477e-01
1.127000000000000000e+03 5.413550567626953125e+01 3.927387237548828125e+01 1.341356486082077026e-01 -5.396189689636230469e-01 -1.216450035572052002e-01 2.723551392555236816e-01
1.128000000000000000e+03 5.393225479125976562e+01 3.881149673461914062e+01 -3.445792570710182190e-02 -5.745515227317810059e-01 -1.827028393745422363e-01 2.833890914916992188e-01
1.129000000000000000e+03 5.413312911987304688e+01 3.742031860351562500e+01 -1.372501403093338013e-01 -5.088030695915222168e-01 -1.938159763813018799e-01 3.096974194049835205e-01
1.130000000000000000e+03 3.099318122863769531e+01 1.150516223907470703e+01 -1.715835213661193848e+00 -1.520529747009277344e+00 -9.709094762802124023e-01 -1.570422053337097168e+00
1.131000000000000000e+03 5.168324279785156250e+01 3.192914772033691406e+01 -1.074153780937194824e+00 -9.130056500434875488e-01 -5.961478352546691895e-01 -9.732711315155029297e-01
1.132000000000000000e+03 3.321498107910156250e+01 1.323994445800781250e+01 -1.421824097633361816e+00 -1.576140522956848145e+00 -8.993893861770629883e-01 -1.480002522468566895e+00
1.133000000000000000e+03 3.265584945678710938e+01 1.321826362609863281e+01 -1.463913559913635254e+00 -1.510910153388977051e+00 -8.924471139907836914e-01 -1.491819024085998535e+00
1.134000000000000000e+03 3.240616607666015625e+01 1.236235427856445312e+01 -1.442389607429504395e+00 -1.503527402877807617e+00 -8.837751150131225586e-01 -1.493870019912719727e+00
1.135000000000000000e+03 3.968341064453125000e+01 2.031275939941406250e+01 -1.158166289329528809e+00 -1.263625502586364746e+00 -7.265375256538391113e-01 -1.296847820281982422e+00
1.136000000000000000e+03 3.994659423828125000e+01 2.061673545837402344e+01 -1.193724632263183594e+00 -1.235052585601806641e+00 -7.286331653594970703e-01 -1.299302339553833008e+00
1.137000000000000000e+03 4.047100448608398438e+01 2.174427413940429688e+01 -1.494569063186645508e+00 -1.189511060714721680e+00 -8.052240014076232910e-01 -1.344549775123596191e+00
1.138000000000000000e+03 2.977863693237304688e+01 1.025163841247558594e+01 -1.579633951187133789e+00 -1.312270045280456543e+00 -8.675711750984191895e-01 -1.370203852653503418e+00
1.139000000000000000e+03 3.016327857971191406e+01 1.054933452606201172e+01 -1.550347924232482910e+00 -1.282011151313781738e+00 -8.497077226638793945e-01 -1.431573748588562012e+00
1.140000000000000000e+03 5.372858428955078125e+01 3.212031555175781250e+01 -1.132907032966613770e+00 -3.926147893071174622e-02 -3.516505658626556396e-01 -7.607101202011108398e-01
1.141000000000000000e+03 4.401229476928710938e+01 2.495570755004882812e+01 -1.702139377593994141e+00 -1.547989249229431152e+00 -9.750385880470275879e-01 -1.602460026741027832e+00
1.142000000000000000e+03 4.425504684448242188e+01 2.470381355285644531e+01 -1.579892754554748535e+00 -1.462457180023193359e+00 -9.127049446105957031e-01 -1.470802068710327148e+00
1.143000000000000000e+03 4.048187637329101562e+01 2.120289230346679688e+01 -1.302492260932922363e+00 -1.232148647308349609e+00 -7.603923082351684570e-01 -1.321824669837951660e+00
1.144000000000000000e+03 3.801820373535156250e+01 1.912523078918457031e+01 -1.129666924476623535e+00 -1.680065274238586426e+00 -8.429196476936340332e-01 -1.379747509956359863e+00
1.145000000000000000e+03 3.915082168579101562e+01 1.970859527587890625e+01 -1.133938789367675781e+00 -1.346724271774291992e+00 -7.441989183425903320e-01 -1.307786822319030762e+00
1.146000000000000000e+03 5.141873550415039062e+01 3.164647865295410156e+01 -1.139709472656250000e+00 -9.879737496376037598e-01 -6.383049488067626953e-01 -1.047627687454223633e+00
1.147000000000000000e+03 4.104048156738281250e+01 2.175748634338378906e+01 -1.430922865867614746e+00 -1.286717891693115234e+00 -8.152921795845031738e-01 -1.354892253875732422e+00
1.148000000000000000e+03 4.106592178344726562e+01 2.227261924743652344e+01 -1.633277297019958496e+00 -1.323662161827087402e+00 -8.870818614959716797e-01 -1.456262111663818359e+00
1.149000000000000000e+03 3.294694519042968750e+01 1.294489192962646484e+01 -1.396576881408691406e+00 -1.537854909896850586e+00 -8.803295493125915527e-01 -1.493882417678833008e+00
1.150000000000000000e+03 3.375735855102539062e+01 1.328658485412597656e+01 -1.379706978797912598e+00 -1.555766820907592773e+00 -8.806421160697937012e-01 -1.417265653610229492e+00
1.151000000000000000e+03 2.998223495483398438e+01 8.491140365600585938e+00 -1.214038014411926270e+00 -1.396783471107482910e+00 -7.832464575767517090e-01 -9.774857163429260254e-01
1.152000000000000000e+03 4.342175674438476562e+01 2.441654205322265625e+01 -1.704612374305725098e+00 -1.426290869712829590e+00 -9.392709732055664062e-01 -1.552252054214477539e+00
1.153000000000000000e+03 4.190571594238281250e+01 2.256712722778320312e+01 -1.525542020797729492e+00 -1.325089812278747559e+00 -8.551895618438720703e-01 -1.408284068107604980e+00
1.154000000000000000e+03 4.541327667236328125e+01 2.581488037109375000e+01 -1.442876935005187988e+00 -1.375954389572143555e+00 -8.456493616104125977e-01 -1.423148989677429199e+00
1.155000000000000000e+03 5.327549743652343750e+01 3.344254302978515625e+01 -7.579305768013000488e-01 -2.170821279287338257e-01 -2.925038039684295654e-01 -5.700881481170654297e-01
1.156000000000000000e+03 5.252379226684570312e+01 3.341559982299804688e+01 -5.421589612960815430e-01 -5.917422175407409668e-01 -3.401703536510467529e-01 -5.916838645935058594e-01
1.157000000000000000e+03 4.569347763061523438e+01 2.609423446655273438e+01 -1.410621643066406250e+00 -1.339584708213806152e+00 -8.250619173049926758e-01 -1.407371878623962402e+00
1.158000000000000000e+03 3.481726837158203125e+01 1.500171947479248047e+01 -1.349357247352600098e+00 -1.608172535896301270e+00 -8.872589468955993652e-01 -1.479550123214721680e+00
1.159000000000000000e+03 3.455982971191406250e+01 1.525804710388183594e+01 -1.353593826293945312e+00 -1.651740312576293945e+00 -9.016002416610717773e-01 -1.506143569946289062e+00
1.160000000000000000e+03 3.267865753173828125e+01 1.265150547027587891e+01 -1.418406367301940918e+00 -1.520256876945495605e+00 -8.815989494323730469e-01 -1.489261031150817871e+00
1.161000000000000000e+03 4.596954727172851562e+01 2.581371307373046875e+01 -1.389604330062866211e+00 -1.244167327880859375e+00 -7.901315093040466309e-01 -1.349580049514770508e+00
1.162000000000000000e+03 5.035183334350585938e+01 3.102090263366699219e+01 -1.306285381317138672e+00 -1.250910282135009766e+00 -7.671586871147155762e-01 -1.272064566612243652e+00
1.163000000000000000e+03 5.116949081420898438e+01 3.134028816223144531e+01 -1.193316817283630371e+00 -1.038738965988159180e+00 -6.696167588233947754e-01 -1.089293003082275391e+00
1.164000000000000000e+03 3.775959777832031250e+01 1.881896972656250000e+01 -1.180460214614868164e+00 -1.748203635215759277e+00 -8.785991072654724121e-01 -1.432148814201354980e+00
1.165000000000000000e+03 3.617652893066406250e+01 1.701891517639160156e+01 -1.393909692764282227e+00 -1.691999554634094238e+00 -9.257727861404418945e-01 -1.533727526664733887e+00
1.166000000000000000e+03 3.722216033935546875e+01 1.764704322814941406e+01 -1.306446194648742676e+00 -1.677121043205261230e+00 -8.950701355934143066e-01 -1.445880889892578125e+00
1.167000000000000000e+03 4.736595153808593750e+01 2.774623680114746094e+01 -1.463723063468933105e+00 -1.244977235794067383e+00 -8.126100897789001465e-01 -1.362296581268310547e+00
1.168000000000000000e+03 3.830775833129882812e+01 1.882806968688964844e+01 -1.182089328765869141e+00 -1.535439133644104004e+00 -8.152585625648498535e-01 -1.357981562614440918e+00
1.169000000000000000e+03 4.307339477539062500e+01 2.363120460510253906e+01 -1.542427778244018555e+00 -1.347136616706848145e+00 -8.668693304061889648e-01 -1.449131608009338379e+00
1.170000000000000000e+03 4.223720932006835938e+01 2.335146713256835938e+01 -1.568241000175476074e+00 -1.357827663421630859e+00 -8.778206110000610352e-01 -1.468266606330871582e+00
1.171000000000000000e+03 4.395960998535156250e+01 2.443241500854492188e+01 -1.584952712059020996e+00 -1.436148047447204590e+00 -9.063302278518676758e-01 -1.473847985267639160e+00
1.172000000000000000e+03 5.006492233276367188e+01 3.073720741271972656e+01 -1.344679355621337891e+00 -1.265670895576477051e+00 -7.831050753593444824e-01 -1.299896717071533203e+00
1.173000000000000000e+03 5.090341949462890625e+01 3.102978515625000000e+01 -1.238065242767333984e+00 -1.060312628746032715e+00 -6.895133852958679199e-01 -1.130061268806457520e+00
1.174000000000000000e+03 2.914764022827148438e+01 9.915666580200195312e+00 -1.595983386039733887e+00 -1.502172827720642090e+00 -9.294468760490417480e-01 -1.529741406440734863e+00
1.175000000000000000e+03 5.296907043457031250e+01 3.305905532836914062e+01 -8.385301232337951660e-01 -3.384534418582916260e-01 -3.530950546264648438e-01 -6.708523631095886230e-01
1.176000000000000000e+03 3.590719985961914062e+01 1.672465896606445312e+01 -1.397873163223266602e+00 -1.678411960601806641e+00 -9.228855371475219727e-01 -1.526293873786926270e+00
1.177000000000000000e+03 3.695503997802734375e+01 1.735160827636718750e+01 -1.323316216468811035e+00 -1.672051429748535156e+00 -8.986102938652038574e-01 -1.458166122436523438e+00
1.178000000000000000e+03 4.282709503173828125e+01 2.388535881042480469e+01 -1.636367440223693848e+00 -1.356216192245483398e+00 -8.977751135826110840e-01 -1.494106173515319824e+00
1.179000000000000000e+03 4.277949905395507812e+01 2.336585426330566406e+01 -1.525831460952758789e+00 -1.330784797668457031e+00 -8.569849133491516113e-01 -1.441725730895996094e+00
1.180000000000000000e+03 4.652480316162109375e+01 2.692866325378417969e+01 -1.406200289726257324e+00 -1.265314698219299316e+00 -8.014544844627380371e-01 -1.367704987525939941e+00
1.181000000000000000e+03 4.713795471191406250e+01 2.801802444458007812e+01 -1.553100585937500000e+00 -1.290244221687316895e+00 -8.530034422874450684e-01 -1.419303774833679199e+00
1.182000000000000000e+03 4.021181869506835938e+01 2.091421318054199219e+01 -1.244289636611938477e+00 -1.224776268005371094e+00 -7.407197952270507812e-01 -1.306829929351806641e+00
1.183000000000000000e+03 4.248706436157226562e+01 2.310065078735351562e+01 -1.520159959793090820e+00 -1.322832584381103516e+00 -8.528977632522583008e-01 -1.433657884597778320e+00
1.184000000000000000e+03 4.219601440429687500e+01 2.283469581604003906e+01 -1.521893978118896484e+00 -1.321369290351867676e+00 -8.529790043830871582e-01 -1.423225164413452148e+00
1.185000000000000000e+03 3.212623977661132812e+01 1.207591915130615234e+01 -1.501098155975341797e+00 -1.521968722343444824e+00 -9.069200754165649414e-01 -1.473253250122070312e+00
1.186000000000000000e+03 4.977461624145507812e+01 3.045679092407226562e+01 -1.374173641204833984e+00 -1.284754633903503418e+00 -7.976784706115722656e-01 -1.329487562179565430e+00
1.187000000000000000e+03 5.062045669555664062e+01 3.072829437255859375e+01 -1.278194546699523926e+00 -1.090386033058166504e+00 -7.105742096900939941e-01 -1.167834877967834473e+00
1.188000000000000000e+03 4.075819015502929688e+01 2.148329925537109375e+01 -1.368265032768249512e+00 -1.255482792854309082e+00 -7.871243357658386230e-01 -1.337447881698608398e+00
1.189000000000000000e+03 4.852750015258789062e+01 2.880341911315917969e+01 -1.483158111572265625e+00 -1.255781769752502441e+00 -8.216819763183593750e-01 -1.347048401832580566e+00
1.190000000000000000e+03 4.772688674926757812e+01 2.855020904541015625e+01 -1.586990952491760254e+00 -1.315176010131835938e+00 -8.706500530242919922e-01 -1.441582322120666504e+00
1.191000000000000000e+03 3.858951187133789062e+01 1.912126731872558594e+01 -1.155279636383056641e+00 -1.470621228218078613e+00 -7.877702713012695312e-01 -1.335467815399169922e+00
1.192000000000000000e+03 4.512915039062500000e+01 2.553496742248535156e+01 -1.485518693923950195e+00 -1.414438366889953613e+00 -8.699870705604553223e-01 -1.437380671501159668e+00
1.193000000000000000e+03 4.366382980346679688e+01 2.416371917724609375e+01 -1.578196883201599121e+00 -1.403019666671752930e+00 -8.943649530410766602e-01 -1.468357086181640625e+00
1.194000000000000000e+03 3.402108001708984375e+01 1.412096214294433594e+01 -1.436044335365295410e+00 -1.626122236251831055e+00 -9.186499714851379395e-01 -1.490939974784851074e+00
1.195000000000000000e+03 3.428719711303710938e+01 1.441489315032958984e+01 -1.409855961799621582e+00 -1.622948765754699707e+00 -9.098414182662963867e-01 -1.488825798034667969e+00
1.196000000000000000e+03 3.563731384277343750e+01 1.643100738525390625e+01 -1.395529508590698242e+00 -1.662883400917053223e+00 -9.175238609313964844e-01 -1.523560881614685059e+00
1.197000000000000000e+03 3.668771743774414062e+01 1.705637359619140625e+01 -1.331596255302429199e+00 -1.656133055686950684e+00 -8.963187932968139648e-01 -1.468139648437500000e+00
1.198000000000000000e+03 4.890204620361328125e+01 2.962712478637695312e+01 -1.496830940246582031e+00 -1.360309958457946777e+00 -8.571422696113586426e-01 -1.418757796287536621e+00
1.199000000000000000e+03 4.708229446411132812e+01 2.747698783874511719e+01 -1.444402217864990234e+00 -1.246674060821533203e+00 -8.073228597640991211e-01 -1.362217426300048828e+00
1.200000000000000000e+03 4.765255737304687500e+01 2.801205062866210938e+01 -1.479719161987304688e+00 -1.248186707496643066e+00 -8.183717727661132812e-01 -1.361938714981079102e+00
1.201000000000000000e+03 5.032352828979492188e+01 3.043796348571777344e+01 -1.309737682342529297e+00 -1.119104385375976562e+00 -7.286525964736938477e-01 -1.206888437271118164e+00
1.202000000000000000e+03 3.046548271179199219e+01 1.089034080505371094e+01 -1.606548070907592773e+00 -1.342955708503723145e+00 -8.848511576652526855e-01 -1.441072344779968262e+00
1.203000000000000000e+03 4.680207443237304688e+01 2.720426940917968750e+01 -1.423119783401489258e+00 -1.253073573112487793e+00 -8.028579950332641602e-01 -1.364049315452575684e+00
1.204000000000000000e+03 3.615208816528320312e+01 1.646719741821289062e+01 -1.342110753059387207e+00 -1.627367138862609863e+00 -8.908433914184570312e-01 -1.471132159233093262e+00
1.205000000000000000e+03 3.588394546508789062e+01 1.617335319519042969e+01 -1.345469474792480469e+00 -1.619455695152282715e+00 -8.894775509834289551e-01 -1.467233180999755859e+00
1.206000000000000000e+03 3.508259582519531250e+01 1.529455471038818359e+01 -1.334729313850402832e+00 -1.602999329566955566e+00 -8.813185691833496094e-01 -1.475417137145996094e+00
1.207000000000000000e+03 3.561609649658203125e+01 1.588007640838623047e+01 -1.339526176452636719e+00 -1.609962463378906250e+00 -8.848466277122497559e-01 -1.469152092933654785e+00
1.208000000000000000e+03 3.534890747070312500e+01 1.558724403381347656e+01 -1.339245676994323730e+00 -1.607409954071044922e+00 -8.839966654777526855e-01 -1.467487215995788574e+00
1.209000000000000000e+03 5.002012634277343750e+01 3.015572357177734375e+01 -1.342682838439941406e+00 -1.149089097976684570e+00 -7.475315928459167480e-01 -1.240323424339294434e+00
1.210000000000000000e+03 4.911937713623046875e+01 2.933708000183105469e+01 -1.444061517715454102e+00 -1.229001402854919434e+00 -8.019188642501831055e-01 -1.316484689712524414e+00
1.211000000000000000e+03 4.971738052368164062e+01 2.987936401367187500e+01 -1.378587365150451660e+00 -1.176840782165527344e+00 -7.666284441947937012e-01 -1.270301103591918945e+00
1.212000000000000000e+03 4.678755187988281250e+01 2.665531539916992188e+01 -1.359478354454040527e+00 -1.201516628265380859e+00 -7.682984471321105957e-01 -1.324265837669372559e+00
1.213000000000000000e+03 2.897531509399414062e+01 8.915452957153320312e+00 -2.261055469512939453e+00 -7.420482635498046875e-01 -9.009311199188232422e-01 -1.127803564071655273e+00
1.214000000000000000e+03 1.290550708770751953e+01 1.307873964309692383e+00 1.017643690109252930e+00 -2.572975456714630127e-01 2.281038314104080200e-01 2.958657443523406982e-01
1.215000000000000000e+03 1.379706668853759766e+01 2.965133666992187500e+00 2.240991592407226562e-01 2.530784606933593750e+00 8.264651298522949219e-01 1.474445462226867676e-01
1.216000000000000000e+03 1.315952587127685547e+01 1.766288161277770996e+00 1.642691254615783691e+00 6.843648552894592285e-01 6.981168389320373535e-01 -6.139802932739257812e-01
1.217000000000000000e+03 9.247918128967285156e+00 2.990611076354980469e+00 9.821524471044540405e-02 -2.662369608879089355e-01 -5.040651187300682068e-02 2.503601312637329102e-01
1.218000000000000000e+03 1.397351837158203125e+01 4.258532047271728516e+00 1.842708289623260498e-01 9.782465100288391113e-01 3.487552106380462646e-01 2.572016119956970215e-01
1.219000000000000000e+03 1.493951892852783203e+01 4.660141944885253906e+00 2.641091048717498779e-01 3.554067611694335938e-01 1.858547627925872803e-01 2.981245815753936768e-01
1.220000000000000000e+03 1.423350620269775391e+01 4.600439548492431641e+00 1.825080960988998413e-01 7.586126923561096191e-01 2.823362350463867188e-01 2.869807481765747070e-01
1.221000000000000000e+03 1.550051784515380859e+01 5.305839538574218750e+00 1.835275441408157349e-01 3.198217451572418213e-01 1.510047912597656250e-01 2.407788634300231934e-01
1.222000000000000000e+03 1.555445480346679688e+01 5.983788967132568359e+00 1.954938918352127075e-01 3.183976709842681885e-01 1.541674733161926270e-01 2.217009067535400391e-01
1.223000000000000000e+03 4.872384262084960938e+01 3.732153320312500000e+01 1.964709758758544922e-01 7.389903068542480469e-02 8.111100643873214722e-02 5.593468993902206421e-02
1.224000000000000000e+03 4.781886672973632812e+01 3.708708190917968750e+01 1.740412116050720215e-01 6.418374925851821899e-02 7.146748900413513184e-02 5.682293325662612915e-02
1.225000000000000000e+03 1.465640354156494141e+01 4.367766857147216797e+00 3.353984355926513672e-01 4.937489926815032959e-01 2.487442344427108765e-01 3.927658796310424805e-01
1.226000000000000000e+03 1.617965698242187500e+01 6.436141014099121094e+00 1.899700015783309937e-01 2.883905470371246338e-01 1.435081660747528076e-01 2.149849086999893188e-01
1.227000000000000000e+03 4.987297058105468750e+01 3.776976013183593750e+01 2.204131484031677246e-01 9.219784289598464966e-03 6.888987869024276733e-02 7.444477081298828125e-02
1.228000000000000000e+03 4.973388671875000000e+01 3.838919067382812500e+01 2.065030187368392944e-01 1.849792525172233582e-02 6.750028580427169800e-02 6.256840378046035767e-02
1.229000000000000000e+03 1.446818065643310547e+01 4.937471389770507812e+00 1.468585580587387085e-01 5.908399224281311035e-01 2.213095426559448242e-01 3.048527538776397705e-01
1.230000000000000000e+03 1.940094947814941406e+01 9.967678070068359375e+00 1.313770413398742676e-01 1.598955392837524414e-01 8.738178014755249023e-02 1.496699005365371704e-01
1.231000000000000000e+03 1.784449577331542969e+01 8.504796981811523438e+00 1.527308970689773560e-01 1.964956074953079224e-01 1.047679483890533447e-01 1.705627143383026123e-01
1.232000000000000000e+03 4.629114532470703125e+01 3.576772308349609375e+01 8.425641804933547974e-02 3.528575599193572998e-02 3.586265072226524353e-02 6.324677914381027222e-02
1.233000000000000000e+03 4.697562408447265625e+01 3.618812561035156250e+01 8.982264250516891479e-02 4.676936566829681396e-02 4.097760468721389771e-02 8.013356477022171021e-02
1.234000000000000000e+03 3.207540893554687500e+01 2.266700172424316406e+01 5.697849020361900330e-02 6.967642158269882202e-02 3.799647092819213867e-02 6.727966666221618652e-02
1.235000000000000000e+03 1.473201847076416016e+01 5.759094715118408203e+00 1.466059684753417969e-01 4.379051923751831055e-01 1.753533482551574707e-01 2.461427301168441772e-01
1.236000000000000000e+03 3.615869522094726562e+01 2.651851272583007812e+01 4.798154532909393311e-02 7.080545276403427124e-02 3.563610091805458069e-02 6.092614680528640747e-02
1.237000000000000000e+03 3.169930458068847656e+01 2.137436485290527344e+01 7.122663408517837524e-02 6.355935335159301758e-02 4.043579474091529846e-02 6.713782250881195068e-02
1.238000000000000000e+03 5.027007675170898438e+01 3.784754180908203125e+01 2.344546467065811157e-01 3.416496142745018005e-02 8.058588206768035889e-02 9.075485914945602417e-02
1.239000000000000000e+03 2.001304626464843750e+01 1.049051380157470703e+01 1.287105381488800049e-01 1.486006379127502441e-01 8.319335430860519409e-02 1.415509581565856934e-01
1.240000000000000000e+03 3.606716156005859375e+01 2.710343360900878906e+01 5.226565152406692505e-02 7.046376913785934448e-02 3.681882470846176147e-02 6.220045313239097595e-02
1.241000000000000000e+03 1.699573326110839844e+01 7.176774024963378906e+00 1.651083379983901978e-01 2.123019993305206299e-01 1.132230982184410095e-01 1.968422532081604004e-01
1.242000000000000000e+03 1.749712562561035156e+01 7.241189956665039062e+00 1.613334417343139648e-01 1.893742978572845459e-01 1.052123159170150757e-01 1.819162666797637939e-01
1.243000000000000000e+03 1.674330520629882812e+01 6.921859741210937500e+00 1.778223365545272827e-01 2.319947332143783569e-01 1.229451224207878113e-01 2.030263990163803101e-01
1.244000000000000000e+03 2.538216400146484375e+01 1.521735763549804688e+01 9.754753857851028442e-02 9.931253641843795776e-02 5.905802175402641296e-02 1.000675633549690247e-01
1.245000000000000000e+03 2.410471153259277344e+01 1.545057678222656250e+01 9.355939179658889771e-02 1.146065145730972290e-01 6.244977191090583801e-02 1.060874611139297485e-01
1.246000000000000000e+03 1.739958381652832031e+01 7.784600734710693359e+00 1.550834178924560547e-01 2.035531401634216309e-01 1.075909659266471863e-01 1.846261769533157349e-01
1.247000000000000000e+03 1.910700798034667969e+01 9.673729896545410156e+00 1.348786652088165283e-01 1.679305583238601685e-01 9.084276854991912842e-02 1.535006314516067505e-01
1.248000000000000000e+03 3.380384063720703125e+01 2.428177833557128906e+01 5.334087833762168884e-02 7.426705211400985718e-02 3.828237950801849365e-02 6.364871561527252197e-02
1.249000000000000000e+03 3.562537765502929688e+01 2.590687179565429688e+01 5.194368585944175720e-02 6.905075907707214355e-02 3.629833459854125977e-02 6.193288415670394897e-02
1.250000000000000000e+03 3.516975021362304688e+01 2.618208122253417969e+01 5.202675610780715942e-02 7.405579090118408203e-02 3.782476484775543213e-02 6.106534972786903381e-02
1.251000000000000000e+03 2.086455917358398438e+01 1.071149921417236328e+01 1.322845369577407837e-01 1.544797718524932861e-01 8.602929115295410156e-02 1.422589272260665894e-01
1.252000000000000000e+03 2.032314109802246094e+01 1.074111461639404297e+01 1.279879063367843628e-01 1.468540579080581665e-01 8.245258778333663940e-02 1.383870989084243774e-01
1.253000000000000000e+03 3.205329895019531250e+01 2.325344848632812500e+01 5.565879866480827332e-02 7.260301709175109863e-02 3.847854584455490112e-02 6.667827069759368896e-02
1.254000000000000000e+03 3.303826904296875000e+01 2.287635993957519531e+01 5.473348498344421387e-02 7.534682750701904297e-02 3.902409598231315613e-02 6.467827409505844116e-02
1.255000000000000000e+03 3.802745819091796875e+01 2.862564468383789062e+01 6.181611865758895874e-02 6.342206895351409912e-02 3.757145628333091736e-02 5.949385464191436768e-02
1.256000000000000000e+03 3.711525344848632812e+01 2.830854797363281250e+01 5.526636913418769836e-02 6.925623863935470581e-02 3.735678270459175110e-02 6.118426471948623657e-02
1.257000000000000000e+03 3.431473922729492188e+01 2.485277938842773438e+01 5.474596470594406128e-02 7.441238313913345337e-02 3.874750435352325439e-02 6.273368746042251587e-02
1.258000000000000000e+03 3.462868499755859375e+01 2.465631866455078125e+01 5.199066177010536194e-02 7.684696465730667114e-02 3.865128755569458008e-02 6.424183398485183716e-02
1.259000000000000000e+03 2.062413024902343750e+01 1.099803352355957031e+01 1.281669139862060547e-01 1.497343778610229492e-01 8.337038755416870117e-02 1.346900612115859985e-01
1.260000000000000000e+03 2.119650077819824219e+01 1.152925872802734375e+01 1.240055412054061890e-01 1.463702619075775146e-01 8.111274242401123047e-02 1.326524168252944946e-01
1.261000000000000000e+03 3.140139579772949219e+01 2.158388328552246094e+01 6.493557989597320557e-02 7.090310752391815186e-02 4.075160622596740723e-02 6.927087157964706421e-02
1.262000000000000000e+03 1.798816299438476562e+01 7.864610195159912109e+00 1.571055054664611816e-01 1.967048496007919312e-01 1.061431095004081726e-01 1.785765141248703003e-01
1.263000000000000000e+03 1.758345031738281250e+01 8.153990745544433594e+00 1.554209738969802856e-01 2.032166719436645508e-01 1.075912937521934509e-01 1.750766485929489136e-01
1.264000000000000000e+03 3.576521301269531250e+01 2.681637382507324219e+01 5.288265645503997803e-02 7.161439955234527588e-02 3.734911605715751648e-02 6.091780588030815125e-02
1.265000000000000000e+03 2.226397895812988281e+01 1.212405586242675781e+01 1.190204620361328125e-01 1.348895728588104248e-01 7.617300748825073242e-02 1.270994842052459717e-01
1.266000000000000000e+03 2.174408912658691406e+01 1.207632064819335938e+01 1.189956665039062500e-01 1.382805407047271729e-01 7.718286663293838501e-02 1.298575252294540405e-01
1.267000000000000000e+03 3.736079788208007812e+01 2.862413787841796875e+01 5.789753422141075134e-02 6.878759711980819702e-02 3.800553828477859497e-02 5.815193429589271545e-02
1.268000000000000000e+03 2.390058898925781250e+01 1.444432353973388672e+01 1.101622804999351501e-01 1.188759729266166687e-01 6.871147453784942627e-02 1.123504936695098877e-01
1.269000000000000000e+03 2.420955276489257812e+01 1.415380859375000000e+01 1.238056793808937073e-01 1.117678731679916382e-01 7.067206501960754395e-02 1.168509274721145630e-01
1.270000000000000000e+03 2.361388397216796875e+01 1.413592529296875000e+01 1.143811941146850586e-01 1.232922524213790894e-01 7.130203396081924438e-02 1.155741736292839050e-01
1.271000000000000000e+03 3.177487182617187500e+01 2.215159416198730469e+01 5.693737044930458069e-02 7.000494003295898438e-02 3.808269277215003967e-02 6.821073591709136963e-02
1.272000000000000000e+03 3.162685203552246094e+01 2.183884048461914062e+01 6.068355962634086609e-02 6.962196528911590576e-02 3.909165784716606140e-02 6.745260208845138550e-02
1.273000000000000000e+03 2.254107666015625000e+01 1.293111228942871094e+01 1.181449890136718750e-01 1.344478577375411987e-01 7.577785104513168335e-02 1.250177770853042603e-01
1.274000000000000000e+03 4.334690856933593750e+01 3.501133346557617188e+01 7.539840787649154663e-02 4.421583190560340881e-02 3.588427230715751648e-02 5.036311596632003784e-02
1.275000000000000000e+03 2.227726173400878906e+01 1.264090728759765625e+01 1.180505082011222839e-01 1.352528780698776245e-01 7.599101215600967407e-02 1.262036114931106567e-01
1.276000000000000000e+03 2.201188087463378906e+01 1.235621070861816406e+01 1.173998340964317322e-01 1.354331523180007935e-01 7.584989815950393677e-02 1.285593956708908081e-01
1.277000000000000000e+03 2.455106353759765625e+01 1.496677303314208984e+01 1.027332395315170288e-01 1.085222810506820679e-01 6.337665766477584839e-02 1.078647747635841370e-01
1.278000000000000000e+03 3.268566894531250000e+01 2.317980194091796875e+01 5.626040324568748474e-02 7.221448421478271484e-02 3.854246810078620911e-02 6.349147856235504150e-02
1.279000000000000000e+03 3.297254562377929688e+01 2.345167732238769531e+01 5.478051677346229553e-02 7.357864081859588623e-02 3.850774839520454407e-02 6.364440917968750000e-02
1.280000000000000000e+03 1.824820327758789062e+01 8.175231933593750000e+00 1.640223413705825806e-01 2.006476968526840210e-01 1.094010099768638611e-01 1.775179356336593628e-01
1.281000000000000000e+03 2.280452537536621094e+01 1.270855045318603516e+01 1.211348921060562134e-01 1.389047205448150635e-01 7.801188528537750244e-02 1.285783201456069946e-01
1.282000000000000000e+03 3.910906982421875000e+01 2.985036468505859375e+01 5.884798616170883179e-02 5.901466310024261475e-02 3.535879403352737427e-02 5.463400855660438538e-02
1.283000000000000000e+03 3.830495071411132812e+01 2.891071510314941406e+01 5.662972852587699890e-02 5.894934386014938354e-02 3.467372059822082520e-02 6.050655990839004517e-02
1.284000000000000000e+03 3.024101829528808594e+01 2.061054992675781250e+01 7.393608987331390381e-02 7.809758931398391724e-02 4.561010375618934631e-02 7.595067471265792847e-02
1.285000000000000000e+03 2.421089172363281250e+01 1.475036239624023438e+01 1.051035001873970032e-01 1.135655790567398071e-01 6.560072302818298340e-02 1.102440804243087769e-01
1.286000000000000000e+03 2.676396942138671875e+01 1.667410087585449219e+01 9.982500970363616943e-02 1.056396886706352234e-01 6.163940951228141785e-02 1.018101125955581665e-01
1.287000000000000000e+03 1.849692726135253906e+01 9.088035583496093750e+00 1.489161998033523560e-01 1.860013306140899658e-01 1.004752591252326965e-01 1.589914858341217041e-01
1.288000000000000000e+03 1.676158142089843750e+01 7.391976833343505859e+00 1.582947969436645508e-01 2.350627183914184570e-01 1.180072501301765442e-01 1.942953318357467651e-01
1.289000000000000000e+03 4.921652984619140625e+01 3.812253570556640625e+01 2.066018432378768921e-01 -9.174877777695655823e-03 5.922809243202209473e-02 4.770973697304725647e-02
1.290000000000000000e+03 4.908097839355468750e+01 3.741730499267578125e+01 2.066238671541213989e-01 -2.220912277698516846e-02 5.532442405819892883e-02 7.344406098127365112e-02
1.291000000000000000e+03 4.290578079223632812e+01 3.355074691772460938e+01 6.650973111391067505e-02 4.572921618819236755e-02 3.367168456315994263e-02 4.814478009939193726e-02
1.292000000000000000e+03 2.517393493652343750e+01 1.631612014770507812e+01 9.121531248092651367e-02 1.053969040513038635e-01 5.898366495966911316e-02 1.000791192054748535e-01
1.293000000000000000e+03 3.856841659545898438e+01 3.021948432922363281e+01 5.302039906382560730e-02 5.873836204409599304e-02 3.352762758731842041e-02 5.703601613640785217e-02
1.294000000000000000e+03 4.314589691162109375e+01 3.378047180175781250e+01 6.336348503828048706e-02 3.887220099568367004e-02 3.067070432007312775e-02 5.445843562483787537e-02
1.295000000000000000e+03 4.385359954833984375e+01 3.487281799316406250e+01 7.954664528369903564e-02 4.017268493771553040e-02 3.591579943895339966e-02 4.710957407951354980e-02
1.296000000000000000e+03 4.333927536010742188e+01 3.414655303955078125e+01 7.086303830146789551e-02 4.443239420652389526e-02 3.458863124251365662e-02 4.937646910548210144e-02
1.297000000000000000e+03 4.072100067138671875e+01 3.114200019836425781e+01 5.746567249298095703e-02 4.415564239025115967e-02 3.048639371991157532e-02 5.577566102147102356e-02
1.298000000000000000e+03 4.149369430541992188e+01 3.255275726318359375e+01 6.202102825045585632e-02 4.861253499984741211e-02 3.319006785750389099e-02 4.962151125073432922e-02
1.299000000000000000e+03 2.147265625000000000e+01 1.180073738098144531e+01 1.204719319939613342e-01 1.411019414663314819e-01 7.847215980291366577e-02 1.320350617170333862e-01
1.300000000000000000e+03 2.619597434997558594e+01 1.609426689147949219e+01 9.678042680025100708e-02 1.073004901409149170e-01 6.122427433729171753e-02 1.017254963517189026e-01
1.301000000000000000e+03 3.376029968261718750e+01 2.478342056274414062e+01 5.336817353963851929e-02 7.424341142177581787e-02 3.828347474336624146e-02 6.308916956186294556e-02
1.302000000000000000e+03 2.791947555541992188e+01 1.780172920227050781e+01 9.635916352272033691e-02 9.014856815338134766e-02 5.595232173800468445e-02 9.316758811473846436e-02
1.303000000000000000e+03 2.728061676025390625e+01 1.832886505126953125e+01 8.362896740436553955e-02 9.655900299549102783e-02 5.405639111995697021e-02 8.918783068656921387e-02
1.304000000000000000e+03 4.372078704833984375e+01 3.377027893066406250e+01 6.281293183565139771e-02 3.614841774106025696e-02 2.968840487301349640e-02 5.374776571989059448e-02
1.305000000000000000e+03 2.993970680236816406e+01 2.034548950195312500e+01 7.494207471609115601e-02 7.967473566532135010e-02 4.638504236936569214e-02 7.721977680921554565e-02
1.306000000000000000e+03 3.053428649902343750e+01 2.031281471252441406e+01 7.776553928852081299e-02 7.811006903648376465e-02 4.676268249750137329e-02 7.726193964481353760e-02
1.307000000000000000e+03 2.614792251586914062e+01 1.663921737670898438e+01 9.486713260412216187e-02 1.045852899551391602e-01 5.983572453260421753e-02 9.831389784812927246e-02
1.308000000000000000e+03 3.400687789916992188e+01 2.504961776733398438e+01 5.242539197206497192e-02 7.359113544225692749e-02 3.780495747923851013e-02 6.309548020362854004e-02
1.309000000000000000e+03 3.455292129516601562e+01 2.515472221374511719e+01 5.350122973322868347e-02 7.452337443828582764e-02 3.840738162398338318e-02 6.290818750858306885e-02
1.310000000000000000e+03 2.963406944274902344e+01 2.007560157775878906e+01 7.554918527603149414e-02 8.062539994716644287e-02 4.685237631201744080e-02 7.915324717760086060e-02
1.311000000000000000e+03 4.099254989624023438e+01 3.192723846435546875e+01 5.993976071476936340e-02 5.068096891045570374e-02 3.318621963262557983e-02 5.047731474041938782e-02
1.312000000000000000e+03 3.083858871459960938e+01 2.111897659301757812e+01 7.097291946411132812e-02 7.547445595264434814e-02 4.393421486020088196e-02 7.226724177598953247e-02
1.313000000000000000e+03 3.054069709777832031e+01 2.086944198608398438e+01 7.313314825296401978e-02 7.740835100412368774e-02 4.516245052218437195e-02 7.371334731578826904e-02
1.314000000000000000e+03 4.599997329711914062e+01 3.547005462646484375e+01 8.175636082887649536e-02 4.719146713614463806e-02 3.868434950709342957e-02 5.182960256934165955e-02
1.315000000000000000e+03 4.701163101196289062e+01 3.697620391845703125e+01 1.382080763578414917e-01 3.675669059157371521e-02 5.248942971229553223e-02 6.588104367256164551e-02
1.316000000000000000e+03 2.844768142700195312e+01 1.894866943359375000e+01 8.252425491809844971e-02 8.673987537622451782e-02 5.077923834323883057e-02 8.544211834669113159e-02
1.317000000000000000e+03 4.129780960083007812e+01 3.164924621582031250e+01 5.643900111317634583e-02 4.257845506072044373e-02 2.970523573458194733e-02 5.413196980953216553e-02
1.318000000000000000e+03 2.816593933105468750e+01 1.865262794494628906e+01 8.498851954936981201e-02 8.896006643772125244e-02 5.218457430601119995e-02 8.712714910507202148e-02
1.319000000000000000e+03 2.529243087768554688e+01 1.574981307983398438e+01 9.586120396852493286e-02 1.033357977867126465e-01 5.975909903645515442e-02 1.025347784161567688e-01
1.320000000000000000e+03 2.555726432800292969e+01 1.605155181884765625e+01 9.518610686063766479e-02 1.038194894790649414e-01 5.970168113708496094e-02 1.008826717734336853e-01
1.321000000000000000e+03 2.907548522949218750e+01 1.892485809326171875e+01 8.540360629558563232e-02 8.170845359563827515e-02 5.013361573219299316e-02 8.403353393077850342e-02
1.322000000000000000e+03 2.899993324279785156e+01 2.012970542907714844e+01 7.251362502574920654e-02 8.451301604509353638e-02 4.710799083113670349e-02 7.972989231348037720e-02
1.323000000000000000e+03 4.081433105468750000e+01 3.251251602172851562e+01 6.125232204794883728e-02 5.117223784327507019e-02 3.372736647725105286e-02 5.032293871045112610e-02
1.324000000000000000e+03 4.122485351562500000e+01 3.223312759399414062e+01 5.781152471899986267e-02 4.459240287542343140e-02 3.072117827832698822e-02 5.382670089602470398e-02
1.325000000000000000e+03 3.839009857177734375e+01 2.982650947570800781e+01 5.830668658018112183e-02 6.108368188142776489e-02 3.581710904836654663e-02 5.581633001565933228e-02
1.326000000000000000e+03 4.360813903808593750e+01 3.449078750610351562e+01 6.459825485944747925e-02 3.839846700429916382e-02 3.089901804924011230e-02 5.484943836927413940e-02
1.327000000000000000e+03 2.788445663452148438e+01 1.835905647277832031e+01 8.706822246313095093e-02 9.130364656448364258e-02 5.351155996322631836e-02 8.938654512166976929e-02
1.328000000000000000e+03 4.053881454467773438e+01 3.147564888000488281e+01 5.909519642591476440e-02 5.296115949749946594e-02 3.361690789461135864e-02 5.174809694290161133e-02
1.329000000000000000e+03 4.466032791137695312e+01 3.464738082885742188e+01 7.346926629543304443e-02 4.678041487932205200e-02 3.607490286231040955e-02 5.014231428503990173e-02
1.330000000000000000e+03 4.431171417236328125e+01 3.438145828247070312e+01 6.755069643259048462e-02 3.589113429188728333e-02 3.103254921734333038e-02 5.568772181868553162e-02
1.331000000000000000e+03 2.932608032226562500e+01 1.980157470703125000e+01 7.711224257946014404e-02 8.232285082340240479e-02 4.783052951097488403e-02 8.020075410604476929e-02
1.332000000000000000e+03 5.244181823730468750e+01 3.880325317382812500e+01 1.308614462614059448e-01 3.608817979693412781e-02 5.008488893508911133e-02 1.539608091115951538e-01
1.333000000000000000e+03 5.109889602661132812e+01 3.828346633911132812e+01 2.802589535713195801e-01 5.900929495692253113e-02 1.017804741859436035e-01 1.128798425197601318e-01
1.334000000000000000e+03 5.030401992797851562e+01 3.865908432006835938e+01 2.334735840559005737e-01 -6.601892411708831787e-03 6.806150823831558228e-02 6.079961732029914856e-02
1.335000000000000000e+03 6.031982421875000000e+01 3.769163513183593750e+01 1.951382905244827271e-01 2.222352176904678345e-01 1.252120584249496460e-01 3.691269457340240479e-01
1.336000000000000000e+03 6.356227111816406250e+01 3.765755844116210938e+01 8.299899697303771973e-01 2.204426765441894531e+00 9.103250503540039062e-01 -1.411015510559082031e+00
1.337000000000000000e+03 6.536292266845703125e+01 3.587178802490234375e+01 1.550387620925903320e+00 2.447995185852050781e+00 1.199514865875244141e+00 -2.893148899078369141e+00
1.338000000000000000e+03 6.490188598632812500e+01 3.660262680053710938e+01 1.047111034393310547e+00 3.386782169342041016e+00 1.330167889595031738e+00 -2.477484464645385742e+00
1.339000000000000000e+03 6.094133758544921875e+01 3.264893722534179688e+01 -1.895409941673278809e+00 9.108816087245941162e-02 -5.412965416908264160e-01 -1.059961840510368347e-01
1.340000000000000000e+03 6.150382232666015625e+01 3.205744552612304688e+01 -1.237942099571228027e+00 2.126743048429489136e-01 -3.075803220272064209e-01 7.959353923797607422e-02
1.341000000000000000e+03 6.271689224243164062e+01 3.196137619018554688e+01 -7.253467440605163574e-01 3.751237988471984863e-01 -1.050668805837631226e-01 5.569831728935241699e-01
1.342000000000000000e+03 6.329620361328125000e+01 3.192204666137695312e+01 -3.613031804561614990e-01 5.979131460189819336e-01 7.098299264907836914e-02 9.208246469497680664e-01
1.343000000000000000e+03 6.400981903076171875e+01 3.239001846313476562e+01 -4.647482633590698242e-01 5.059077143669128418e-01 1.234783977270126343e-02 1.044438958168029785e+00
1.344000000000000000e+03 6.383995437622070312e+01 3.187503051757812500e+01 9.592126309871673584e-02 9.205642938613891602e-01 3.049456477165222168e-01 1.362652778625488281e+00
1.345000000000000000e+03 5.349390792846679688e+01 3.392050170898437500e+01 -5.982017517089843750e-01 -1.456162929534912109e-01 -2.231454253196716309e-01 -4.426663517951965332e-01
1.346000000000000000e+03 5.719375610351562500e+01 3.310253906250000000e+01 -1.609876751899719238e+00 1.789588481187820435e-01 -4.292753636837005615e-01 -4.549141824245452881e-01
1.347000000000000000e+03 5.488862991333007812e+01 3.339978027343750000e+01 -1.122268199920654297e+00 1.336182802915573120e-01 -2.965949773788452148e-01 -5.636427998542785645e-01
1.348000000000000000e+03 5.296282577514648438e+01 3.232746887207031250e+01 -1.048233747482299805e+00 -3.037234544754028320e-01 -4.055871367454528809e-01 -7.799332141876220703e-01
1.349000000000000000e+03 5.769830322265625000e+01 3.684497833251953125e+01 -2.867039144039154053e-01 -2.245483249425888062e-01 -1.533756703138351440e-01 5.784592032432556152e-01
1.350000000000000000e+03 5.551096343994140625e+01 3.705361938476562500e+01 -2.367393672466278076e-01 -2.002929598093032837e-01 -1.311096996068954468e-01 4.178250432014465332e-01
1.351000000000000000e+03 5.922955322265625000e+01 3.675591278076171875e+01 -4.985508918762207031e-01 -1.411009579896926880e-01 -1.918955594301223755e-01 6.187447309494018555e-01
1.352000000000000000e+03 9.149165153503417969e+00 2.379606723785400391e+00 -6.069273501634597778e-02 -2.413677871227264404e-01 -9.061815589666366577e-02 3.091739416122436523e-01
1.353000000000000000e+03 7.721099376678466797e+00 2.489784002304077148e+00 -1.141979545354843140e-01 -1.292392313480377197e-01 -7.303115725517272949e-02 2.420483827590942383e-01
1.354000000000000000e+03 6.278679370880126953e+00 2.609857320785522461e+00 -9.489529579877853394e-02 -7.702867686748504639e-02 -5.157718807458877563e-02 1.729431152343750000e-01
1.355000000000000000e+03 6.187541484832763672e+00 1.871417760848999023e+00 -1.583678424358367920e-01 -5.063601583242416382e-02 -6.270115822553634644e-02 1.498157978057861328e-01
1.356000000000000000e+03 3.395299911499023438e+00 3.910887479782104492e+00 -1.350799854844808578e-02 -7.780665159225463867e-02 -2.739439532160758972e-02 9.495650231838226318e-02
1.357000000000000000e+03 7.001407623291015625e+00 2.546088218688964844e+00 -1.072649657726287842e-01 -1.054779365658760071e-01 -6.382286548614501953e-02 2.068450450897216797e-01
1.358000000000000000e+03 5.677032470703125000e+00 3.451307773590087891e+00 -2.827497571706771851e-02 -9.113533794879913330e-02 -3.582309186458587646e-02 1.533680409193038940e-01
1.359000000000000000e+03 1.544786095619201660e+00 7.829951286315917969e+00 9.004127234220504761e-03 -1.603280603885650635e-01 -4.539718106389045715e-02 3.113271296024322510e-02
1.360000000000000000e+03 1.231849789619445801e+00 3.242034673690795898e+00 -6.606058217585086823e-03 -5.512211471796035767e-02 -1.851845160126686096e-02 3.685377165675163269e-02
1.361000000000000000e+03 2.551652908325195312e+00 1.997847080230712891e+00 -3.603659942746162415e-02 -2.446831017732620239e-02 -1.815147325396537781e-02 4.987750202417373657e-02
1.362000000000000000e+03 1.894207239151000977e+00 3.011206865310668945e+00 -1.706836558878421783e-02 -4.578520730137825012e-02 -1.885607279837131500e-02 5.180441588163375854e-02
1.363000000000000000e+03 1.033726596832275391e+01 -3.639413356781005859e+00 -5.094779729843139648e-01 -6.317565590143203735e-02 -1.717960983514785767e-01 -3.485958576202392578e-01
1.364000000000000000e+03 1.178141593933105469e+01 -2.984793186187744141e+00 -6.944504380226135254e-01 -8.675798028707504272e-02 -2.343625277280807495e-01 -3.663786351680755615e-01
1.365000000000000000e+03 9.521669387817382812e+00 -2.794988632202148438e+00 -4.070891737937927246e-01 -1.906806044280529022e-02 -1.278471797704696655e-01 -2.179141342639923096e-01
1.366000000000000000e+03 6.112117385864257812e+01 3.741059875488281250e+01 1.620184928178787231e-01 1.108935698866844177e-01 8.187361806631088257e-02 2.991502285003662109e-01
1.367000000000000000e+03 6.243808364868164062e+01 3.739172744750976562e+01 3.084458410739898682e-01 1.339989423751831055e+00 4.945305883884429932e-01 -2.587119936943054199e-01
1.368000000000000000e+03 1.368438625335693359e+01 1.108016610145568848e+00 2.212139844894409180e+00 1.036082386970520020e+00 9.744666218757629395e-01 -3.914201557636260986e-01
1.369000000000000000e+03 6.014562606811523438e+01 3.218889617919921875e+01 -1.503552317619323730e+00 1.857851296663284302e-01 -3.953301608562469482e-01 -2.358625680208206177e-01
1.370000000000000000e+03 5.795588302612304688e+01 3.240561676025390625e+01 -1.518916249275207520e+00 2.278998643159866333e-01 -3.873049020767211914e-01 -4.976082742214202881e-01
1.371000000000000000e+03 1.208135986328125000e+01 1.468806385993957520e+00 3.143621087074279785e-01 -3.763581812381744385e-01 -1.859882660210132599e-02 4.685583710670471191e-01
1.372000000000000000e+03 1.321146774291992188e+01 4.658907890319824219e+00 1.393883079290390015e-01 8.175105452537536621e-01 2.870696485042572021e-01 -6.106015667319297791e-02
1.373000000000000000e+03 1.269034290313720703e+01 2.655230760574340820e+00 9.018422961235046387e-01 5.569258332252502441e-01 4.376304447650909424e-01 -5.295512676239013672e-01
1.374000000000000000e+03 1.357348060607910156e+01 4.451808452606201172e+00 1.460581719875335693e-01 9.530061483383178711e-01 3.297193050384521484e-01 5.036403238773345947e-02
1.375000000000000000e+03 3.032646751403808594e+01 7.850428581237792969e+00 -9.765524864196777344e-01 -1.538182020187377930e+00 -7.544203996658325195e-01 -1.250490784645080566e+00
1.376000000000000000e+03 3.141587257385253906e+01 7.811810970306396484e+00 -1.193156599998474121e+00 -1.322620630264282227e+00 -7.547331452369689941e-01 -1.226440191268920898e+00
1.377000000000000000e+03 3.046876716613769531e+01 6.833765029907226562e+00 -1.473393559455871582e+00 -1.303379058837890625e+00 -8.330317735671997070e-01 -1.463165044784545898e+00
1.378000000000000000e+03 2.992332267761230469e+01 5.990877628326416016e+00 -2.034683227539062500e+00 -1.208925485610961914e+00 -9.730826616287231445e-01 -1.319485068321228027e+00
1.379000000000000000e+03 3.085618782043457031e+01 7.981711864471435547e+00 -1.108942985534667969e+00 -1.401726961135864258e+00 -7.532009482383728027e-01 -1.180803298950195312e+00
1.380000000000000000e+03 3.113706207275390625e+01 6.743814468383789062e+00 -1.419292688369750977e+00 -1.146982073783874512e+00 -7.698824405670166016e-01 -1.230155825614929199e+00
1.381000000000000000e+03 5.642835617065429688e+01 3.320444488525390625e+01 -1.447769045829772949e+00 1.945450901985168457e-01 -3.759671747684478760e-01 -5.079336166381835938e-01
1.382000000000000000e+03 5.721103668212890625e+01 3.249802398681640625e+01 -1.458017110824584961e+00 2.350068092346191406e-01 -3.669030666351318359e-01 -5.608072876930236816e-01
1.383000000000000000e+03 5.723740386962890625e+01 3.188114166259765625e+01 -1.299310445785522461e+00 2.931122183799743652e-01 -3.018594682216644287e-01 -6.036080121994018555e-01
1.384000000000000000e+03 5.646908187866210938e+01 3.258021163940429688e+01 -1.387967109680175781e+00 2.432602494955062866e-01 -3.434120416641235352e-01 -6.093590855598449707e-01
1.385000000000000000e+03 5.496984863281250000e+01 3.263612365722656250e+01 -1.200446963310241699e+00 1.744254082441329956e-01 -3.078064620494842529e-01 -6.821037530899047852e-01
1.386000000000000000e+03 5.572407913208007812e+01 3.263480758666992188e+01 -1.295029759407043457e+00 2.254771292209625244e-01 -3.208657801151275635e-01 -6.441246271133422852e-01
1.387000000000000000e+03 8.744647979736328125e+00 -2.777199268341064453e+00 -3.242856562137603760e-01 -3.755237534642219543e-02 -1.085514053702354431e-01 -1.856724172830581665e-01
1.388000000000000000e+03 7.955562114715576172e+00 -2.781850814819335938e+00 -2.687727808952331543e-01 -2.643474563956260681e-02 -8.856225758790969849e-02 -1.619043350219726562e-01
1.389000000000000000e+03 6.229578495025634766e+00 -1.941048741340637207e+00 -1.218971833586692810e-01 -2.187423408031463623e-02 -4.313142597675323486e-02 -7.170651853084564209e-02
1.390000000000000000e+03 9.585515975952148438e+00 -3.616321086883544922e+00 -4.241015613079071045e-01 -8.018044382333755493e-02 -1.512846052646636963e-01 -3.010957837104797363e-01
1.391000000000000000e+03 4.593463897705078125e+00 -1.965586304664611816e+00 -6.295204907655715942e-02 -2.174953930079936981e-02 -2.541047520935535431e-02 -4.120260104537010193e-02
1.392000000000000000e+03 6.356397151947021484e+00 -2.829196691513061523e+00 -1.695949584245681763e-01 -3.578878194093704224e-02 -6.161512434482574463e-02 -1.183994635939598083e-01
1.393000000000000000e+03 4.220532894134521484e+00 -4.813510417938232422e+00 -9.390540421009063721e-02 -1.104526594281196594e-01 -6.130741909146308899e-02 -1.350388228893280029e-01
1.394000000000000000e+03 7.159028530120849609e+00 -2.801473855972290039e+00 -2.088767737150192261e-01 -4.219416156411170959e-02 -7.532127946615219116e-02 -1.393783241510391235e-01
1.395000000000000000e+03 1.583556413650512695e+00 -9.297517776489257812e+00 -1.300514768809080124e-02 -2.831122577190399170e-01 -8.883522450923919678e-02 -1.160988658666610718e-01
1.396000000000000000e+03 4.995059370994567871e-01 -6.508569717407226562e+00 -1.314855326199904084e-04 -6.590952724218368530e-02 -1.981230452656745911e-02 -2.349967695772647858e-02
1.397000000000000000e+03 2.567998886108398438e+00 -4.031491279602050781e+00 -4.109997674822807312e-02 -5.466517060995101929e-02 -2.872954308986663818e-02 -4.865393042564392090e-02
1.398000000000000000e+03 5.158142447471618652e-01 -3.627206802368164062e+00 -2.975692041218280792e-03 1.112527493387460709e-02 2.444874960929155350e-03 -5.426407791674137115e-03
1.399000000000000000e+03 1.499781036376953125e+01 -2.443567991256713867e+00 -1.338738679885864258e+00 -3.401713967323303223e-01 -5.036730170249938965e-01 -6.439384818077087402e-01
1.400000000000000000e+03 1.502716445922851562e+01 -3.092218875885009766e+00 -1.269726991653442383e+00 -5.124939680099487305e-01 -5.346662998199462891e-01 -8.198167681694030762e-01
1.401000000000000000e+03 1.429579639434814453e+01 -3.880982160568237305e+00 -1.011796832084655762e+00 -4.536481797695159912e-01 -4.396334886550903320e-01 -8.070091605186462402e-01
1.402000000000000000e+03 1.254778575897216797e+01 -3.054293870925903320e+00 -8.052301406860351562e-01 -9.230551868677139282e-02 -2.692607045173645020e-01 -4.304326474666595459e-01
1.403000000000000000e+03 1.335335636138916016e+01 -3.098704338073730469e+00 -9.774898886680603027e-01 -1.951800286769866943e-01 -3.518009781837463379e-01 -5.539978146553039551e-01
1.404000000000000000e+03 5.489871597290039062e+01 3.784648132324218750e+01 -2.468165308237075806e-01 -3.173515796661376953e-01 -1.692504286766052246e-01 3.948530554771423340e-01
1.405000000000000000e+03 1.968059921264648438e+01 -1.490393400192260742e+00 -2.695782661437988281e+00 -6.096151351928710938e+00 -2.637580156326293945e+00 -3.530122756958007812e+00
1.406000000000000000e+03 1.924617195129394531e+01 -9.878000020980834961e-01 -2.671097755432128906e+00 -3.825009822845458984e+00 -1.948832273483276367e+00 -2.523727416992187500e+00
1.407000000000000000e+03 2.240112495422363281e+01 -1.486168622970581055e+00 3.184528589248657227e+00 1.754029631614685059e+00 1.481567502021789551e+00 -1.893481850624084473e+00
1.408000000000000000e+03 1.807830238342285156e+01 -1.692088484764099121e+00 -2.008903741836547852e+00 -1.762344241142272949e+00 -1.131374359130859375e+00 -1.431422114372253418e+00
1.409000000000000000e+03 4.327082443237304688e+01 -3.925476837158203125e+01 2.282296419143676758e+00 1.263570785522460938e+00 1.063760161399841309e+00 1.022709250450134277e+00
1.410000000000000000e+03 3.647783279418945312e+01 -3.671248245239257812e+01 6.651033759117126465e-01 6.645077466964721680e-01 3.988833427429199219e-01 -7.045382261276245117e-01
1.411000000000000000e+03 4.211911010742187500e+01 -4.157984924316406250e+01 2.044802904129028320e+00 1.236319541931152344e+00 9.843367338180541992e-01 9.723227471113204956e-02
1.412000000000000000e+03 4.263322067260742188e+01 -3.077278709411621094e+01 -9.468261897563934326e-02 9.616009891033172607e-02 4.432440618984401226e-04 5.768557637929916382e-02
1.413000000000000000e+03 4.646297454833984375e+01 -3.453770828247070312e+01 2.109778672456741333e-01 1.979801535606384277e+00 6.572338342666625977e-01 3.998593091964721680e-01
1.414000000000000000e+03 3.060083770751953125e+01 -1.072132778167724609e+01 6.646150350570678711e-02 -7.495124638080596924e-02 -2.546923002228140831e-03 -6.034525111317634583e-02
1.415000000000000000e+03 3.018663787841796875e+01 -6.159383296966552734e+00 8.490374684333801270e-01 -1.692529022693634033e-01 2.039353698492050171e-01 -3.352406919002532959e-01
1.416000000000000000e+03 1.908768272399902344e+01 -5.445355892181396484e+00 6.699273735284805298e-02 -1.922008156776428223e+00 -5.565046072006225586e-01 1.025446224957704544e-02
1.417000000000000000e+03 3.835645675659179688e+01 -2.371349334716796875e+01 -2.004771083593368530e-01 -5.094019770622253418e-01 -2.129637300968170166e-01 3.321981132030487061e-01
1.418000000000000000e+03 3.699916839599609375e+01 -2.132683944702148438e+01 -1.901476234197616577e-01 -6.050233244895935059e-01 -2.385512888431549072e-01 3.437192142009735107e-01
1.419000000000000000e+03 2.738938713073730469e+01 -2.904627799987792969e+01 3.167007863521575928e-01 6.219738721847534180e-01 2.816024124622344971e-01 -4.282334446907043457e-01
1.420000000000000000e+03 2.156917762756347656e+01 -1.197758579254150391e+01 1.083348020911216736e-01 1.799917221069335938e-01 8.649795502424240112e-02 -2.087862491607666016e-01
1.421000000000000000e+03 2.851431274414062500e+01 -3.431469440460205078e+00 8.641414046287536621e-01 -1.876600384712219238e-01 2.029444128274917603e-01 -3.019742369651794434e-01
1.422000000000000000e+03 2.446017837524414062e+01 -1.449271202087402344e+00 1.177099943161010742e+00 4.959331452846527100e-01 5.019099116325378418e-01 -8.270542621612548828e-01
1.423000000000000000e+03 3.226784515380859375e+01 -3.427498626708984375e+01 5.544116497039794922e-01 7.635627985000610352e-01 3.953923285007476807e-01 -5.716254711151123047e-01
1.424000000000000000e+03 1.861484527587890625e+01 -8.636233329772949219e+00 9.143166989088058472e-02 -8.583525419235229492e-01 -2.300762683153152466e-01 -2.804259657859802246e-01
1.425000000000000000e+03 3.546525955200195312e+01 -3.814149093627929688e+01 1.050075531005859375e+00 5.634062886238098145e-01 4.840445518493652344e-01 -6.043888926506042480e-01
1.426000000000000000e+03 3.204918670654296875e+01 -1.304146289825439453e+01 -4.510429874062538147e-02 -3.035853505134582520e-01 -1.046068966388702393e-01 1.194843500852584839e-01
1.427000000000000000e+03 2.998306846618652344e+01 -3.105189514160156250e+01 4.480355381965637207e-01 7.932305932044982910e-01 3.723798394203186035e-01 -5.051142573356628418e-01
1.428000000000000000e+03 2.659233856201171875e+01 -5.199571132659912109e+00 1.147215843200683594e+00 8.639543056488037109e-01 6.033510565757751465e-01 -9.009127020835876465e-01
1.429000000000000000e+03 2.390968704223632812e+01 -1.851480484008789062e+01 1.887224167585372925e-01 4.093557894229888916e-01 1.794234663248062134e-01 -3.383474946022033691e-01
1.430000000000000000e+03 2.441646385192871094e+01 -1.670018959045410156e+01 1.750679165124893188e-01 4.701461493968963623e-01 1.935642212629318237e-01 -3.286332488059997559e-01
1.431000000000000000e+03 2.634113693237304688e+01 -2.339476394653320312e+01 2.197022438049316406e-01 6.292251944541931152e-01 2.546782195568084717e-01 -3.905569314956665039e-01
1.432000000000000000e+03 2.936620903015136719e+01 -2.651072502136230469e+01 2.316691577434539795e-01 8.545950055122375488e-01 3.258792459964752197e-01 -4.517144858837127686e-01
1.433000000000000000e+03 2.168387985229492188e+01 3.838427737355232239e-02 -1.661537528038024902e+00 2.572158277034759521e-01 -4.212965071201324463e-01 -2.688133001327514648e+00
1.434000000000000000e+03 2.926279640197753906e+01 -2.978918838500976562e+01 3.675379455089569092e-01 7.855104804039001465e-01 3.459145426750183105e-01 -4.897298216819763184e-01
1.435000000000000000e+03 2.116701698303222656e+01 -1.380027675628662109e+01 1.985840052366256714e-01 8.702353388071060181e-02 8.568225800991058350e-02 -2.605458498001098633e-01
1.436000000000000000e+03 2.868204498291015625e+01 -2.844953727722167969e+01 3.061287999153137207e-01 7.642081379890441895e-01 3.211010992527008057e-01 -4.699183106422424316e-01
1.437000000000000000e+03 2.639987754821777344e+01 -3.327771425247192383e+00 1.329410552978515625e+00 3.671424686908721924e-01 5.089659094810485840e-01 -7.295840978622436523e-01
1.438000000000000000e+03 2.572814559936523438e+01 -1.909482955932617188e+01 1.741273552179336548e-01 5.956393480300903320e-01 2.309300154447555542e-01 -3.499577343463897705e-01
1.439000000000000000e+03 3.944267654418945312e+01 -2.295281410217285156e+01 -1.377594172954559326e-01 -2.472809851169586182e-01 -1.155121177434921265e-01 2.242164313793182373e-01
1.440000000000000000e+03 3.977936172485351562e+01 -2.607076263427734375e+01 -1.907874494791030884e-01 -4.091918766498565674e-01 -1.799937933683395386e-01 2.908145785331726074e-01
1.441000000000000000e+03 2.875769233703613281e+01 -2.526539802551269531e+01 2.344603091478347778e-01 8.311534523963928223e-01 3.196841180324554443e-01 -4.356774687767028809e-01
1.442000000000000000e+03 2.812323760986328125e+01 -2.712730979919433594e+01 2.585158944129943848e-01 7.451876997947692871e-01 3.011110723018646240e-01 -4.424800872802734375e-01
1.443000000000000000e+03 4.298892211914062500e+01 -2.888842773437500000e+01 -1.550566405057907104e-01 3.687077760696411133e-01 6.409534066915512085e-02 7.817422598600387573e-02
1.444000000000000000e+03 4.363974761962890625e+01 -3.008630371093750000e+01 -1.650761067867279053e-01 5.928816199302673340e-01 1.283416450023651123e-01 3.182484954595565796e-02
1.445000000000000000e+03 2.774750137329101562e+01 -4.663862228393554688e+00 1.046283125877380371e+00 2.071304321289062500e-01 3.760240674018859863e-01 -6.262085437774658203e-01
1.446000000000000000e+03 4.423876953125000000e+01 -3.123982810974121094e+01 -1.466640830039978027e-01 9.531698226928710938e-01 2.419517189264297485e-01 1.168860308825969696e-02
1.447000000000000000e+03 4.478617858886718750e+01 -3.225035858154296875e+01 -8.491432666778564453e-02 1.236902594566345215e+00 3.455964624881744385e-01 1.100332662463188171e-01
1.448000000000000000e+03 4.121427154541015625e+01 -2.842378425598144531e+01 -1.638808399438858032e-01 -2.210021317005157471e-01 -1.154648885130882263e-01 2.118297964334487915e-01
1.449000000000000000e+03 1.975834083557128906e+01 -1.133033275604248047e+01 1.695111840963363647e-01 -2.701290249824523926e-01 -3.018535487353801727e-02 -2.231608182191848755e-01
1.450000000000000000e+03 2.045801162719726562e+01 -1.258351421356201172e+01 2.286777496337890625e-01 -2.258702181279659271e-02 6.182721629738807678e-02 -1.946116536855697632e-01
1.451000000000000000e+03 3.531160354614257812e+01 -1.577207660675048828e+01 -2.547074481844902039e-02 -4.057267904281616211e-01 -1.293592602014541626e-01 1.558640450239181519e-01
1.452000000000000000e+03 2.598097991943359375e+01 -2.544151782989501953e+00 1.210388898849487305e+00 5.119054913520812988e-01 5.166883468627929688e-01 -6.118870377540588379e-01
1.453000000000000000e+03 2.147000694274902344e+01 -1.680469894409179688e+01 2.320654243230819702e-01 1.722048670053482056e-01 1.212810873985290527e-01 -2.791344821453094482e-01
1.454000000000000000e+03 2.257850837707519531e+01 -1.617224502563476562e+01 1.899097114801406860e-01 2.915309369564056396e-01 1.444321870803833008e-01 -2.984142303466796875e-01
1.455000000000000000e+03 3.671537780761718750e+01 -1.816108322143554688e+01 -8.454727381467819214e-02 -4.071713089942932129e-01 -1.475155651569366455e-01 2.061399668455123901e-01
1.456000000000000000e+03 3.457914352416992188e+01 -1.460099697113037109e+01 3.400626778602600098e-02 -3.884452581405639648e-01 -1.063316911458969116e-01 1.218433305621147156e-01
1.457000000000000000e+03 3.538572692871093750e+01 -3.580596160888671875e+01 7.124113440513610840e-01 6.809768080711364746e-01 4.180164337158203125e-01 -6.739521026611328125e-01
1.458000000000000000e+03 3.382172012329101562e+01 -1.344468593597412109e+01 6.577914953231811523e-02 -3.600506782531738281e-01 -8.828146010637283325e-02 6.783849745988845825e-02
1.459000000000000000e+03 1.826952743530273438e+01 -7.229053020477294922e+00 7.746853679418563843e-02 -1.183308482170104980e+00 -3.317520022392272949e-01 -2.808114886283874512e-01
1.460000000000000000e+03 3.780358886718750000e+01 -1.739928817749023438e+01 1.516310963779687881e-02 -2.210508137941360474e-01 -6.176631152629852295e-02 1.192189157009124756e-01
1.461000000000000000e+03 2.991601753234863281e+01 -9.540153503417968750e+00 2.107518017292022705e-01 1.235759556293487549e-01 1.002983227372169495e-01 -1.685758531093597412e-01
1.462000000000000000e+03 3.080313491821289062e+01 -8.919073104858398438e+00 4.035357534885406494e-01 -8.105918020009994507e-02 9.674296528100967407e-02 -2.658042311668395996e-01
1.463000000000000000e+03 2.693672370910644531e+01 -2.462786293029785156e+01 2.363318204879760742e-01 6.712582707405090332e-01 2.722770273685455322e-01 -3.932399749755859375e-01
1.464000000000000000e+03 7.688223266601562500e+01 -3.638137054443359375e+01 1.046249736100435257e-02 6.946834087371826172e+00 2.087188959121704102e+00 5.285216495394706726e-02
1.465000000000000000e+03 7.900614929199218750e+01 -3.487424850463867188e+01 -4.417985212057828903e-03 7.268309593200683594e+00 2.179167509078979492e+00 2.718396671116352081e-02
1.466000000000000000e+03 7.777262115478515625e+01 -2.920796585083007812e+01 1.401692978106439114e-03 7.206741333007812500e+00 2.162442922592163086e+00 6.080444529652595520e-02
1.467000000000000000e+03 7.929222106933593750e+01 -2.786620521545410156e+01 -1.501770573668181896e-03 7.487360954284667969e+00 2.245757818222045898e+00 1.985245384275913239e-02
1.468000000000000000e+03 7.934101867675781250e+01 3.606656646728515625e+01 1.107210814952850342e-01 4.518866062164306641e+00 1.388876080513000488e+00 1.797309964895248413e-01
1.469000000000000000e+03 7.933641052246093750e+01 -2.092172241210937500e+01 1.860826625488698483e-03 7.752259731292724609e+00 2.326236248016357422e+00 1.838423684239387512e-02
1.470000000000000000e+03 7.799733734130859375e+01 -2.509970092773437500e+01 1.859535463154315948e-03 7.368138790130615234e+00 2.210999488830566406e+00 6.687149405479431152e-02
1.471000000000000000e+03 7.795707702636718750e+01 -2.647124481201171875e+01 5.084495060145854950e-04 7.316998004913330078e+00 2.195251941680908203e+00 6.435132026672363281e-02
1.472000000000000000e+03 7.742671203613281250e+01 -3.200626754760742188e+01 1.316175214014947414e-03 7.080422878265380859e+00 2.124521732330322266e+00 6.014936044812202454e-02
1.473000000000000000e+03 7.920195770263671875e+01 -3.064905929565429688e+01 -7.251701317727565765e-04 7.393463611602783203e+00 2.217821598052978516e+00 2.116599865257740021e-02
1.474000000000000000e+03 7.721040344238281250e+01 -3.345386505126953125e+01 1.721630338579416275e-03 7.018490314483642578e+00 2.106063604354858398e+00 6.169414892792701721e-02
1.475000000000000000e+03 7.498571014404296875e+01 -3.827467727661132812e+01 2.339548245072364807e-02 6.645128726959228516e+00 2.000557184219360352e+00 2.595585957169532776e-02
1.476000000000000000e+03 7.610615539550781250e+01 -4.081098937988281250e+01 3.129907324910163879e-02 6.885540008544921875e+00 2.075051546096801758e+00 -3.862362727522850037e-02
1.477000000000000000e+03 7.833417510986328125e+01 1.520739936828613281e+01 -2.359881624579429626e-02 9.325839996337890625e+00 2.790672302246093750e+00 -2.684641629457473755e-02
1.478000000000000000e+03 7.944500732421875000e+01 1.528673744201660156e+01 -1.082817837595939636e-02 9.685733795166015625e+00 2.902471542358398438e+00 -3.520027920603752136e-02
1.479000000000000000e+03 7.832852172851562500e+01 2.072446441650390625e+01 -6.138497218489646912e-02 9.041384696960449219e+00 2.694000005722045898e+00 -2.970626056194305420e-01
1.480000000000000000e+03 7.943774414062500000e+01 2.223626327514648438e+01 -8.890150114893913269e-03 8.967456817626953125e+00 2.687569856643676758e+00 -1.781670600175857544e-01
1.481000000000000000e+03 7.834061431884765625e+01 3.178918075561523438e+01 1.776940673589706421e-01 5.839237213134765625e+00 1.805079340934753418e+00 -5.551285147666931152e-01
1.482000000000000000e+03 7.833555603027343750e+01 2.766967773437500000e+01 -4.924254864454269409e-02 7.264747619628906250e+00 2.164651632308959961e+00 -8.405546545982360840e-01
1.483000000000000000e+03 7.944571685791015625e+01 2.780144691467285156e+01 8.972723037004470825e-03 6.682074069976806641e+00 2.007313966751098633e+00 -3.284270763397216797e-01
1.484000000000000000e+03 7.830446624755859375e+01 2.489605903625488281e+01 -9.118372201919555664e-02 8.190044403076171875e+00 2.429658174514770508e+00 -6.615896821022033691e-01
1.485000000000000000e+03 7.834288787841796875e+01 1.658328056335449219e+01 -3.990390896797180176e-02 9.319296836853027344e+00 2.783818006515502930e+00 -7.482196390628814697e-02
1.486000000000000000e+03 7.832283020019531250e+01 1.383161735534667969e+01 -2.524695731699466705e-02 9.302793502807617188e+00 2.783263921737670898e+00 5.827510729432106018e-03
1.487000000000000000e+03 7.717999267578125000e+01 1.241155910491943359e+01 -4.237267374992370605e-02 8.915441513061523438e+00 2.661920785903930664e+00 7.513750344514846802e-02
1.488000000000000000e+03 7.826183319091796875e+01 9.693798065185546875e+00 -7.704158779233694077e-03 9.121119499206542969e+00 2.734024763107299805e+00 7.140764594078063965e-02
1.489000000000000000e+03 7.942041015625000000e+01 9.730843544006347656e+00 -4.870307631790637970e-03 9.477860450744628906e+00 2.841897249221801758e+00 5.322651937603950500e-03
1.490000000000000000e+03 7.797284698486328125e+01 -1.265040040016174316e-01 1.461007865145802498e-03 8.466276168823242188e+00 2.540321111679077148e+00 1.079643517732620239e-01
1.491000000000000000e+03 7.933046722412109375e+01 1.355119347572326660e+00 -2.687110973056405783e-04 8.900175094604492188e+00 2.669971942901611328e+00 2.435974404215812683e-02
1.492000000000000000e+03 7.822853851318359375e+01 8.308472633361816406e+00 -9.249950759112834930e-03 9.035725593566894531e+00 2.707942724227905273e+00 8.225058019161224365e-02
1.493000000000000000e+03 7.808852386474609375e+01 -1.543310356140136719e+01 -1.066797296516597271e-03 7.737289905548095703e+00 2.320866823196411133e+00 7.083042711019515991e-02
1.494000000000000000e+03 7.936900329589843750e+01 -1.397479724884033203e+01 -9.739754023030400276e-04 8.049234390258789062e+00 2.414478063583374023e+00 1.711929962038993835e-02
1.495000000000000000e+03 7.809691619873046875e+01 -8.536026954650878906e+00 2.361869905143976212e-03 8.042776107788085938e+00 2.413541555404663086e+00 8.248201012611389160e-02
1.496000000000000000e+03 7.936052703857421875e+01 -7.027609348297119141e+00 9.322050609625875950e-04 8.391572952270507812e+00 2.517751693725585938e+00 1.919590868055820465e-02
1.497000000000000000e+03 7.933914184570312500e+01 -1.953413200378417969e+01 -1.394727500155568123e-03 7.808189868927001953e+00 2.342038631439208984e+00 1.867835596203804016e-02
1.498000000000000000e+03 7.800653076171875000e+01 -2.234062194824218750e+01 1.443932880647480488e-03 7.465278148651123047e+00 2.240016698837280273e+00 6.778147071599960327e-02
1.499000000000000000e+03 7.857527160644531250e+01 4.028863906860351562e+01 8.777827769517898560e-02 6.248490810394287109e+00 1.900880694389343262e+00 6.141608953475952148e-01
1.500000000000000000e+03 7.777445983886718750e+01 3.694678878784179688e+01 2.327416986227035522e-01 6.120351314544677734e+00 1.905927896499633789e+00 4.806647002696990967e-01
1.501000000000000000e+03 7.596681976318359375e+01 3.624395751953125000e+01 6.586563587188720703e-01 7.842670917510986328e+00 2.550398349761962891e+00 6.285434961318969727e-01
1.502000000000000000e+03 7.798720550537109375e+01 1.286162495613098145e+00 1.830889377743005753e-03 8.552230834960937500e+00 2.566218376159667969e+00 1.087770015001296997e-01
1.503000000000000000e+03 7.802396392822265625e+01 2.700011730194091797e+00 -1.181505038402974606e-03 8.644459724426269531e+00 2.592983245849609375e+00 1.086009889841079712e-01
1.504000000000000000e+03 7.660393524169921875e+01 -2.061277031898498535e-01 6.810251623392105103e-03 8.117963790893554688e+00 2.437432289123535156e+00 1.818948239088058472e-01
1.505000000000000000e+03 7.803325653076171875e+01 -4.363851547241210938e+00 1.471562776714563370e-03 8.240592956542968750e+00 2.472619533538818359e+00 9.687018394470214844e-02
1.506000000000000000e+03 7.933412170410156250e+01 -2.841374874114990234e+00 1.138763851486146450e-03 8.631972312927246094e+00 2.589933395385742188e+00 2.212089300155639648e-02
1.507000000000000000e+03 7.805989837646484375e+01 -5.762578487396240234e+00 2.728207968175411224e-03 8.172075271606445312e+00 2.452440977096557617e+00 9.097139537334442139e-02
1.508000000000000000e+03 7.811651611328125000e+01 -1.129187107086181641e+01 2.011406701058149338e-03 7.919456481933593750e+00 2.376440286636352539e+00 7.577420771121978760e-02
1.509000000000000000e+03 7.937050628662109375e+01 -9.807177543640136719e+00 9.261653176508843899e-04 8.246870040893554688e+00 2.474338769912719727e+00 1.777843385934829712e-02
1.510000000000000000e+03 7.811804199218750000e+01 -1.266868305206298828e+01 3.365142329130321741e-04 7.858687877655029297e+00 2.357707262039184570e+00 7.291193306446075439e-02
1.511000000000000000e+03 7.802956390380859375e+01 -1.820198249816894531e+01 -2.918395912274718285e-04 7.619201183319091797e+00 2.285672903060913086e+00 7.102911919355392456e-02
1.512000000000000000e+03 7.935357666015625000e+01 -1.675662994384765625e+01 -1.224938663654029369e-03 7.925832748413085938e+00 2.377382278442382812e+00 1.828798092901706696e-02
1.513000000000000000e+03 7.800891113281250000e+01 -1.958159065246582031e+01 2.392533235251903534e-03 7.565277099609375000e+00 2.270300865173339844e+00 6.951027363538742065e-02
1.514000000000000000e+03 8.974803090095520020e-01 3.737984085083007812e+01 1.388924138154834509e-04 -9.697627276182174683e-02 -2.905121445655822754e-02 -1.915285480208694935e-03
1.515000000000000000e+03 7.862096428871154785e-01 3.459484863281250000e+01 2.280725311720743775e-04 -1.034565493464469910e-01 -3.096854314208030701e-02 -1.910538179799914360e-03
1.516000000000000000e+03 7.544481158256530762e-01 3.318591308593750000e+01 -1.606719888513907790e-04 -1.068356558680534363e-01 -3.209889680147171021e-02 -1.753959804773330688e-03
1.517000000000000000e+03 6.487625241279602051e-01 2.754284667968750000e+01 -5.227952497079968452e-04 -1.250889897346496582e-01 -3.768353909254074097e-02 -2.768944250419735909e-03
1.518000000000000000e+03 6.341036558151245117e-01 2.613490295410156250e+01 2.320553467143326998e-04 -1.316322833299636841e-01 -3.942006826400756836e-02 -3.259212244302034378e-03
1.519000000000000000e+03 1.084320306777954102e+00 -3.603734970092773438e+01 1.762422616593539715e-03 -1.715272426605224609e+00 -5.140529870986938477e-01 -1.233627833425998688e-02
1.520000000000000000e+03 2.551872253417968750e+00 -3.285115814208984375e+01 1.108345109969377518e-02 -1.493261456489562988e+00 -4.446534216403961182e-01 -5.484231188893318176e-02
1.521000000000000000e+03 3.255784034729003906e+00 2.706236648559570312e+01 -2.190133556723594666e-03 -9.348267316818237305e-02 -2.870184369385242462e-02 -1.160253677517175674e-02
1.522000000000000000e+03 3.189423561096191406e+00 2.568190765380859375e+01 -1.997271319851279259e-03 -9.779466688632965088e-02 -2.993758209049701691e-02 -1.317286584526300430e-02
1.523000000000000000e+03 2.367064714431762695e+00 3.432516098022460938e+01 -1.871944696176797152e-04 -9.043529629707336426e-02 -2.718674764037132263e-02 -4.135373979806900024e-03
1.524000000000000000e+03 2.265628576278686523e+00 3.291873168945312500e+01 -5.361412186175584793e-04 -9.280621260404586792e-02 -2.800270728766918182e-02 -4.727201070636510849e-03
1.525000000000000000e+03 3.748678684234619141e+00 3.932316970825195312e+01 -2.760726492851972580e-04 -8.251087367534637451e-02 -2.483608387410640717e-02 -1.103683724068105221e-03
1.526000000000000000e+03 2.028084516525268555e+00 -2.869630622863769531e+01 9.800828993320465088e-03 -1.436960816383361816e+00 -4.281480014324188232e-01 -6.679589301347732544e-02
1.527000000000000000e+03 1.959908008575439453e+00 -2.595263671875000000e+01 7.546592503786087036e-03 -1.342916131019592285e+00 -4.006108641624450684e-01 -8.292175084352493286e-02
1.528000000000000000e+03 3.158150911331176758e+00 -3.575229644775390625e+01 1.035336498171091080e-02 -1.471616625785827637e+00 -4.383789896965026855e-01 -4.681317508220672607e-02
1.529000000000000000e+03 1.676922202110290527e+00 1.749653434753417969e+01 -4.808610829059034586e-04 -1.630790680646896362e-01 -4.906797781586647034e-02 -1.273305341601371765e-02
1.530000000000000000e+03 5.424050092697143555e-01 1.486101818084716797e+01 1.010867068544030190e-03 -2.142904400825500488e-01 -6.398387253284454346e-02 -4.137267824262380600e-03
1.531000000000000000e+03 5.136765241622924805e-01 7.848650932312011719e+00 1.550477463752031326e-03 -1.893548220396041870e-01 -5.634130164980888367e-02 1.154151372611522675e-02
1.532000000000000000e+03 5.774840116500854492e-01 2.048938179016113281e+01 4.869540280196815729e-04 -1.678553670644760132e-01 -5.021052062511444092e-02 -4.612999968230724335e-03
1.533000000000000000e+03 5.664582848548889160e-01 1.908039093017578125e+01 -7.060203352011740208e-04 -1.792878359556198120e-01 -5.399815365672111511e-02 -4.631359130144119263e-03
1.534000000000000000e+03 1.851002216339111328e+00 -1.618039512634277344e+01 8.143019862473011017e-03 -7.967649698257446289e-01 -2.365865856409072876e-01 -1.484118700027465820e-01
1.535000000000000000e+03 4.000599861145019531e+00 -4.079893112182617188e+01 7.794292178004980087e-03 -1.528535962104797363e+00 -4.562225043773651123e-01 -4.988079518079757690e-02
1.536000000000000000e+03 3.974630355834960938e+00 -3.898887634277343750e+01 4.905405268073081970e-02 -1.443769693374633789e+00 -4.184146821498870850e-01 -4.026335105299949646e-02
1.537000000000000000e+03 5.066018104553222656e+00 -3.532928848266601562e+01 2.470980212092399597e-02 -1.279089450836181641e+00 -3.763138949871063232e-01 -7.006976753473281860e-02
1.538000000000000000e+03 2.851433515548706055e+00 -3.427869796752929688e+01 5.896051414310932159e-03 -1.490401029586791992e+00 -4.453515112400054932e-01 -5.061888694763183594e-02
1.539000000000000000e+03 2.311619281768798828e+00 -3.145563888549804688e+01 6.776861380785703659e-03 -1.483860850334167480e+00 -4.431251883506774902e-01 -5.505748838186264038e-02
1.540000000000000000e+03 1.977071046829223633e+00 -2.732499122619628906e+01 8.251709863543510437e-03 -1.393754482269287109e+00 -4.156508147716522217e-01 -7.605353742837905884e-02
1.541000000000000000e+03 3.286327123641967773e+00 -2.711167526245117188e+01 1.995298266410827637e-02 -1.270099997520446777e+00 -3.750441074371337891e-01 -1.217367723584175110e-01
1.542000000000000000e+03 1.941264510154724121e+00 -2.178180885314941406e+01 1.039673015475273132e-02 -1.148144841194152832e+00 -3.413244187831878662e-01 -1.156375706195831299e-01
1.543000000000000000e+03 1.954951763153076172e+00 -2.457306671142578125e+01 8.857412263751029968e-03 -1.285005211830139160e+00 -3.828443586826324463e-01 -9.544216096401214600e-02
1.544000000000000000e+03 3.222258806228637695e+00 -2.024299812316894531e+01 2.214013040065765381e-02 -9.874141812324523926e-01 -2.895822227001190186e-01 -1.986121833324432373e-01
1.545000000000000000e+03 6.325886249542236328e-01 -1.910904693603515625e+01 -1.637085573747754097e-03 -1.065551161766052246e+00 -3.201564550399780273e-01 -4.509485885500907898e-02
1.546000000000000000e+03 1.903765916824340820e+00 -1.897983169555664062e+01 1.013487204909324646e-02 -9.849979877471923828e-01 -2.924589216709136963e-01 -1.342472732067108154e-01
1.547000000000000000e+03 2.985126256942749023e+00 -1.329728889465332031e+01 -1.759826904162764549e-03 -5.767966508865356445e-01 -1.735669523477554321e-01 -2.353121638298034668e-01
1.548000000000000000e+03 5.685881972312927246e-01 -1.207972717285156250e+01 3.393079387024044991e-03 -4.772569239139556885e-01 -1.421591490507125854e-01 -4.951521381735801697e-02
1.549000000000000000e+03 1.720353007316589355e+00 -1.201876926422119141e+01 -6.353871896862983704e-03 -4.838251769542694092e-01 -1.470537185668945312e-01 -1.439448297023773193e-01
1.550000000000000000e+03 1.502984285354614258e+00 -6.652254581451416016e+00 -1.604206673800945282e-02 -1.224079355597496033e-01 -4.153500124812126160e-02 -7.294608652591705322e-02
1.551000000000000000e+03 1.459403395652770996e+00 -3.439011573791503906e+00 -1.606937311589717865e-02 -2.275017462670803070e-02 -1.164586469531059265e-02 -1.523318607360124588e-02
1.552000000000000000e+03 5.418708920478820801e-01 -5.086409568786621094e+00 -5.140153691172599792e-03 -1.263323985040187836e-02 -5.332018248736858368e-03 -1.483480446040630341e-02
1.553000000000000000e+03 5.226729512214660645e-01 4.987971305847167969e+00 2.212724939454346895e-04 -1.024545803666114807e-01 -3.066999278962612152e-02 1.935509964823722839e-02
1.554000000000000000e+03 1.560247421264648438e+00 1.057796478271484375e+01 6.841871887445449829e-03 -1.867067515850067139e-01 -5.395946651697158813e-02 6.945605389773845673e-03
1.555000000000000000e+03 5.182973742485046387e-01 1.065323066711425781e+01 8.808086859062314034e-04 -2.261084467172622681e-01 -6.756828725337982178e-02 2.482597017660737038e-03
1.556000000000000000e+03 1.610472798347473145e+00 1.333174133300781250e+01 3.488375106826424599e-03 -1.855702549219131470e-01 -5.462456494569778442e-02 -7.068096194416284561e-03
1.557000000000000000e+03 1.634556889533996582e+00 1.471576118469238281e+01 1.156032551079988480e-03 -1.796419769525527954e-01 -5.354578420519828796e-02 -1.008685026317834854e-02
1.558000000000000000e+03 5.576952695846557617e-01 1.767293930053710938e+01 7.006670930422842503e-04 -1.911841183900833130e-01 -5.714503675699234009e-02 -4.916639532893896103e-03
1.559000000000000000e+03 1.863539814949035645e+00 2.451104164123535156e+01 -5.929584149271249771e-04 -1.217447295784950256e-01 -3.670130670070648193e-02 -9.840637445449829102e-03
1.560000000000000000e+03 6.810605621337890625e+01 3.575887680053710938e+01 -2.378888241946697235e-02 1.922240638732910156e+01 5.759585380554199219e+00 -1.451573491096496582e+00
1.561000000000000000e+03 6.778033447265625000e+01 3.225014114379882812e+01 7.414757460355758667e-02 1.844300651550292969e+01 5.555145740509033203e+00 3.687397718429565430e+00
1.562000000000000000e+03 2.719843482971191406e+01 3.940201997756958008e+00 -2.681423902511596680e+00 -1.061491966247558594e+00 -1.122874736785888672e+00 -1.353410363197326660e+00
1.563000000000000000e+03 2.762440299987792969e+01 4.572434902191162109e+00 -2.671290397644042969e+00 -1.297766566276550293e+00 -1.190717101097106934e+00 -1.511619329452514648e+00
1.564000000000000000e+03 2.304500198364257812e+01 1.763049483299255371e+00 -3.310642242431640625e+00 -5.549312233924865723e-01 -1.159672021865844727e+00 -1.781169533729553223e+00
1.565000000000000000e+03 2.653145980834960938e+01 3.341957807540893555e+00 -2.700440645217895508e+00 -8.370948433876037598e-01 -1.061260581016540527e+00 -1.236960291862487793e+00
1.566000000000000000e+03 2.849516487121582031e+01 4.854018688201904297e+00 -2.386688232421875000e+00 -1.397247791290283203e+00 -1.135180830955505371e+00 -1.305330872535705566e+00
1.567000000000000000e+03 2.452216911315917969e+01 2.641267538070678711e+00 -3.307426691055297852e+00 -7.137942314147949219e-01 -1.206366300582885742e+00 -1.521371841430664062e+00
1.568000000000000000e+03 2.396391296386718750e+01 2.324027061462402344e+00 -3.334183692932128906e+00 -6.325491070747375488e-01 -1.190019845962524414e+00 -1.566414713859558105e+00
1.569000000000000000e+03 2.316909217834472656e+01 1.901077508926391602e+00 -3.281236886978149414e+00 -5.667707324028015137e-01 -1.154402256011962891e+00 -1.733684897422790527e+00
1.570000000000000000e+03 1.704103660583496094e+01 -2.411203145980834961e+00 -1.763952851295471191e+00 -1.030613899230957031e+00 -8.383700251579284668e-01 -1.048715233802795410e+00
1.571000000000000000e+03 1.683497238159179688e+01 -2.119377613067626953e+00 -1.917055487632751465e+00 -9.508500695228576660e-01 -8.603716492652893066e-01 -1.134236097335815430e+00
1.572000000000000000e+03 2.779871749877929688e+01 4.688208103179931641e+00 -2.635147571563720703e+00 -1.323125958442687988e+00 -1.187482118606567383e+00 -1.499242424964904785e+00
1.573000000000000000e+03 2.553697395324707031e+01 3.339874744415283203e+00 -3.177232980728149414e+00 -8.498561382293701172e-01 -1.208126783370971680e+00 -1.493516683578491211e+00
1.574000000000000000e+03 2.433844375610351562e+01 2.528771638870239258e+00 -3.299491643905639648e+00 -6.091825366020202637e-01 -1.172602295875549316e+00 -1.480562806129455566e+00
1.575000000000000000e+03 2.330345535278320312e+01 2.004178524017333984e+00 -3.374605655670166016e+00 -6.780328154563903809e-01 -1.215791583061218262e+00 -1.667757987976074219e+00
1.576000000000000000e+03 2.377582550048828125e+01 2.240110158920288086e+00 -3.448932170867919922e+00 -6.868054270744323730e-01 -1.240721344947814941e+00 -1.639057159423828125e+00
1.577000000000000000e+03 2.376040077209472656e+01 1.931042075157165527e+00 -3.024715900421142578e+00 -5.245626568794250488e-01 -1.064783573150634766e+00 -1.454503417015075684e+00
1.578000000000000000e+03 1.736404037475585938e+01 -2.642681121826171875e+00 -1.726191043853759766e+00 -1.595396518707275391e+00 -9.964762330055236816e-01 -1.358145117759704590e+00
1.579000000000000000e+03 2.801658248901367188e+01 4.424033641815185547e+00 -2.435555696487426758e+00 -1.277756452560424805e+00 -1.113993644714355469e+00 -1.302679181098937988e+00
1.580000000000000000e+03 2.707951354980468750e+01 4.250676155090332031e+00 -2.808547019958496094e+00 -1.127644538879394531e+00 -1.180857539176940918e+00 -1.509880185127258301e+00
1.581000000000000000e+03 6.572707366943359375e+01 3.238446426391601562e+01 1.970937848091125488e+00 2.799415826797485352e+00 1.431106090545654297e+00 3.794533252716064453e+00
1.582000000000000000e+03 6.433484649658203125e+01 3.146990394592285156e+01 7.687107324600219727e-01 1.720233440399169922e+00 7.466832399368286133e-01 2.206529378890991211e+00
1.583000000000000000e+03 6.655267333984375000e+01 3.232816314697265625e+01 2.387718677520751953e+00 7.527424812316894531e+00 2.974543094635009766e+00 6.204525947570800781e+00
1.584000000000000000e+03 6.534479522705078125e+01 3.198107719421386719e+01 1.533909201622009277e+00 2.645089387893676758e+00 1.253699541091918945e+00 3.398452758789062500e+00
1.585000000000000000e+03 6.552400207519531250e+01 3.237508010864257812e+01 1.692480444908142090e+00 2.221253395080566406e+00 1.174120187759399414e+00 3.269113779067993164e+00
1.586000000000000000e+03 6.668392944335937500e+01 3.181515121459960938e+01 1.208477020263671875e+00 9.372677803039550781e+00 3.174346446990966797e+00 5.855537891387939453e+00
1.587000000000000000e+03 6.676283264160156250e+01 3.234602737426757812e+01 2.272789955139160156e+00 9.477006912231445312e+00 3.524939060211181641e+00 6.881755352020263672e+00
1.588000000000000000e+03 6.752255249023437500e+01 3.192288017272949219e+01 3.542307391762733459e-02 1.548983573913574219e+01 4.657577514648437500e+00 4.672499656677246094e+00
1.589000000000000000e+03 6.800535583496093750e+01 3.230076217651367188e+01 2.687424123287200928e-01 1.960150527954101562e+01 5.961074352264404297e+00 2.314625024795532227e+00
1.590000000000000000e+03 6.780582427978515625e+01 3.183451652526855469e+01 -2.537332773208618164e-01 1.663219070434570312e+01 4.913537025451660156e+00 3.391402006149291992e+00
1.591000000000000000e+03 6.837910461425781250e+01 3.575206375122070312e+01 3.019023537635803223e-01 1.926675605773925781e+01 5.870597362518310547e+00 -1.120939105749130249e-01
1.592000000000000000e+03 6.820958709716796875e+01 3.197344589233398438e+01 -1.867675967514514923e-02 1.807862281799316406e+01 5.417984008789062500e+00 1.636229395866394043e+00
1.593000000000000000e+03 6.792324066162109375e+01 3.556299972534179688e+01 7.235445827245712280e-02 1.994514465332031250e+01 6.005249500274658203e+00 -2.313910722732543945e+00
1.594000000000000000e+03 6.345046234130859375e+01 3.931825256347656250e+01 7.399049401283264160e-01 2.976433515548706055e+00 1.114901542663574219e+00 -1.099454879760742188e+00
1.595000000000000000e+03 6.904930114746093750e+01 3.246490859985351562e+01 3.132032155990600586e+00 1.767545509338378906e+01 6.242246150970458984e+00 -1.890016913414001465e+00
1.596000000000000000e+03 6.885826873779296875e+01 3.553893280029296875e+01 2.037610292434692383e+00 1.806071662902832031e+01 6.029498100280761719e+00 1.633815765380859375e+00
1.597000000000000000e+03 6.953088378906250000e+01 3.351919937133789062e+01 7.653319835662841797e+00 1.510962772369384766e+01 6.828884124755859375e+00 -1.213554859161376953e+00
1.598000000000000000e+03 6.955020141601562500e+01 3.435575103759765625e+01 7.614680767059326172e+00 1.510736942291259766e+01 6.816615104675292969e+00 1.381433010101318359e+00
1.599000000000000000e+03 6.754348754882812500e+01 3.227019500732421875e+01 2.852884232997894287e-01 1.695001029968261719e+01 5.170589447021484375e+00 4.993034839630126953e+00
1.600000000000000000e+03 6.572396087646484375e+01 3.562702941894531250e+01 1.994924306869506836e+00 3.147351264953613281e+00 1.542682647705078125e+00 -3.572313308715820312e+00
1.601000000000000000e+03 6.609594726562500000e+01 3.564633178710937500e+01 2.096411466598510742e+00 4.653654098510742188e+00 2.025019645690917969e+00 -4.507476329803466797e+00
1.602000000000000000e+03 2.183674621582031250e+01 9.204603433609008789e-01 -2.822453975677490234e+00 -7.038389444351196289e-01 -1.057887911796569824e+00 -2.459837436676025391e+00
1.603000000000000000e+03 2.144020080566406250e+01 5.158208012580871582e-01 -2.311636924743652344e+00 -5.516584515571594238e-01 -8.589885830879211426e-01 -2.878493785858154297e+00
1.604000000000000000e+03 2.018233489990234375e+01 -6.816734373569488525e-02 -2.065675497055053711e+00 -4.762907028198242188e+00 -2.048574686050415039e+00 -3.539560794830322266e+00
1.605000000000000000e+03 1.878143501281738281e+01 -1.011818528175354004e+00 -2.669574260711669922e+00 -2.343967676162719727e+00 -1.504062652587890625e+00 -2.101965427398681641e+00
1.606000000000000000e+03 6.467422485351562500e+01 3.190562248229980469e+01 9.309023618698120117e-01 1.596323370933532715e+00 7.581676840782165527e-01 2.307967901229858398e+00
1.607000000000000000e+03 1.518861675262451172e+01 5.799335956573486328e+00 1.887454241514205933e-01 3.466319143772125244e-01 1.606131941080093384e-01 2.511809468269348145e-01
1.608000000000000000e+03 3.144399642944335938e+01 2.283601379394531250e+01 5.527555942535400391e-02 7.447899132966995239e-02 3.892636671662330627e-02 6.864275038242340088e-02
1.609000000000000000e+03 3.170769500732421875e+01 2.250601768493652344e+01 5.703994259238243103e-02 7.132936269044876099e-02 3.851079195737838745e-02 6.926085799932479858e-02
1.610000000000000000e+03 1.975737762451171875e+01 1.085758686065673828e+01 1.211325973272323608e-01 1.522116661071777344e-01 8.200328052043914795e-02 1.400896906852722168e-01
1.611000000000000000e+03 4.029030609130859375e+01 2.033411788940429688e+01 -1.167626738548278809e+00 -1.236600279808044434e+00 -7.212681174278259277e-01 -1.307976126670837402e+00
1.612000000000000000e+03 1.652711486816406250e+01 7.185875415802001953e+00 1.565514653921127319e-01 2.462129890918731689e-01 1.208293363451957703e-01 2.004234045743942261e-01
1.613000000000000000e+03 1.721217918395996094e+01 7.461082458496093750e+00 1.624076664447784424e-01 2.084041088819503784e-01 1.112435311079025269e-01 1.861368268728256226e-01
1.614000000000000000e+03 4.053860473632812500e+01 2.064773750305175781e+01 -1.197326421737670898e+00 -1.239121437072753906e+00 -7.309343814849853516e-01 -1.310617327690124512e+00
1.615000000000000000e+03 3.543527603149414062e+01 2.652396774291992188e+01 4.978868737816810608e-02 7.189591974020004272e-02 3.650538250803947449e-02 6.291963905096054077e-02
1.616000000000000000e+03 3.428220748901367188e+01 1.387153911590576172e+01 -1.389816880226135254e+00 -1.556865334510803223e+00 -8.840046525001525879e-01 -1.419062972068786621e+00
1.617000000000000000e+03 3.184137344360351562e+01 1.179133033752441406e+01 -1.526315212249755859e+00 -1.529570937156677246e+00 -9.167658686637878418e-01 -1.471377849578857422e+00
1.618000000000000000e+03 3.270788574218750000e+01 1.207398891448974609e+01 -1.422683835029602051e+00 -1.468554377555847168e+00 -8.673714995384216309e-01 -1.425592899322509766e+00
1.619000000000000000e+03 2.469744300842285156e+01 1.563804149627685547e+01 9.427474439144134521e-02 1.085992231965065002e-01 6.086219102144241333e-02 1.050919070839881897e-01
1.620000000000000000e+03 3.353347015380859375e+01 2.400375938415527344e+01 5.263594910502433777e-02 7.431589812040328979e-02 3.808555379509925842e-02 6.426161527633666992e-02
1.621000000000000000e+03 3.498010635375976562e+01 2.581487464904785156e+01 5.088392272591590881e-02 7.434853911399841309e-02 3.756973892450332642e-02 6.211437284946441650e-02
1.622000000000000000e+03 3.406460952758789062e+01 2.456347084045410156e+01 5.247897654771804810e-02 7.348648458719253540e-02 3.778963908553123474e-02 6.413695961236953735e-02
1.623000000000000000e+03 4.653559494018554688e+01 2.580639457702636719e+01 -1.329391717910766602e+00 -1.139139890670776367e+00 -7.405594587326049805e-01 -1.277111649513244629e+00
1.624000000000000000e+03 4.161597061157226562e+01 2.229826927185058594e+01 -1.515665650367736816e+00 -1.323499321937561035e+00 -8.517494797706604004e-01 -1.390102267265319824e+00
1.625000000000000000e+03 4.651983642578125000e+01 2.637297630310058594e+01 -1.360635042190551758e+00 -1.211373686790466309e+00 -7.716026306152343750e-01 -1.331951022148132324e+00
1.626000000000000000e+03 3.325553131103515625e+01 2.372712135314941406e+01 5.437294021248817444e-02 7.521347701549530029e-02 3.887592628598213196e-02 6.319249421358108521e-02
1.627000000000000000e+03 1.817589378356933594e+01 8.801178932189941406e+00 1.541728377342224121e-01 1.934533566236495972e-01 1.042878627777099609e-01 1.618017405271530151e-01
1.628000000000000000e+03 1.706636238098144531e+01 8.702704429626464844e+00 1.312929689884185791e-01 2.150526344776153564e-01 1.039036810398101807e-01 1.652988493442535400e-01
1.629000000000000000e+03 2.149806594848632812e+01 1.231488704681396484e+01 1.139834225177764893e-01 1.398442834615707397e-01 7.614831626415252686e-02 1.283937543630599976e-01
1.630000000000000000e+03 4.568413543701171875e+01 2.553789138793945312e+01 -1.416445851325988770e+00 -1.267420053482055664e+00 -8.051598072052001953e-01 -1.354913115501403809e+00
1.631000000000000000e+03 3.803041839599609375e+01 1.853430938720703125e+01 -1.218792319297790527e+00 -1.595710158348083496e+00 -8.443507552146911621e-01 -1.381156206130981445e+00
1.632000000000000000e+03 4.302873992919921875e+01 2.311354064941406250e+01 -1.454355001449584961e+00 -1.299285531044006348e+00 -8.260921835899353027e-01 -1.388029336929321289e+00
1.633000000000000000e+03 4.706036758422851562e+01 2.638956642150878906e+01 -1.315939784049987793e+00 -1.124824881553649902e+00 -7.322294116020202637e-01 -1.267475724220275879e+00
1.634000000000000000e+03 3.507264328002929688e+01 1.474556446075439453e+01 -1.325313568115234375e+00 -1.548676729202270508e+00 -8.621971011161804199e-01 -1.437578082084655762e+00
1.635000000000000000e+03 3.455233764648437500e+01 1.470855140686035156e+01 -1.369741320610046387e+00 -1.610873937606811523e+00 -8.941845893859863281e-01 -1.490662932395935059e+00
1.636000000000000000e+03 1.646867370605468750e+01 6.677820205688476562e+00 1.815042048692703247e-01 2.527678608894348145e-01 1.302816122770309448e-01 2.143260389566421509e-01
1.637000000000000000e+03 1.505149364471435547e+01 6.275156974792480469e+00 1.447757333517074585e-01 3.833187818527221680e-01 1.584283560514450073e-01 2.112007290124893188e-01
1.638000000000000000e+03 4.132711029052734375e+01 2.202846717834472656e+01 -1.483733296394348145e+00 -1.312231063842773438e+00 -8.387892842292785645e-01 -1.370961189270019531e+00
1.639000000000000000e+03 4.244872665405273438e+01 2.258773994445800781e+01 -1.449380040168762207e+00 -1.282558083534240723e+00 -8.195814490318298340e-01 -1.367304563522338867e+00
1.640000000000000000e+03 2.091452407836914062e+01 1.126145076751708984e+01 1.258889287710189819e-01 1.482547968626022339e-01 8.224311470985412598e-02 1.342662274837493896e-01
1.641000000000000000e+03 2.009215545654296875e+01 1.106813621520996094e+01 1.223940625786781311e-01 1.507003754377365112e-01 8.192833513021469116e-02 1.354503780603408813e-01
1.642000000000000000e+03 3.128602981567382812e+01 1.124481582641601562e+01 -1.537417769432067871e+00 -1.499043464660644531e+00 -9.109383821487426758e-01 -1.461314082145690918e+00
1.643000000000000000e+03 3.298366165161132812e+01 1.237140655517578125e+01 -1.381948590278625488e+00 -1.479589581489562988e+00 -8.584614396095275879e-01 -1.443445086479187012e+00
1.644000000000000000e+03 4.336828613281250000e+01 2.389693450927734375e+01 -1.562017560005187988e+00 -1.371209263801574707e+00 -8.799680471420288086e-01 -1.459535360336303711e+00
1.645000000000000000e+03 1.659574508666992188e+01 7.663565158843994141e+00 1.435978710651397705e-01 2.423463016748428345e-01 1.157832518219947815e-01 1.875379085540771484e-01
1.646000000000000000e+03 3.634848022460937500e+01 2.739683341979980469e+01 5.588864535093307495e-02 7.265372574329376221e-02 3.856271132826805115e-02 5.973547697067260742e-02
1.647000000000000000e+03 3.574406814575195312e+01 2.738978195190429688e+01 5.379467085003852844e-02 7.147033512592315674e-02 3.757950291037559509e-02 5.939039960503578186e-02
1.648000000000000000e+03 3.775836181640625000e+01 1.823919486999511719e+01 -1.254260063171386719e+00 -1.639564156532287598e+00 -8.681472539901733398e-01 -1.405896306037902832e+00
1.649000000000000000e+03 4.004203414916992188e+01 2.000680351257324219e+01 -1.148181915283203125e+00 -1.242478728294372559e+00 -7.171981930732727051e-01 -1.309126377105712891e+00
1.650000000000000000e+03 4.705342864990234375e+01 2.693526649475097656e+01 -1.367529988288879395e+00 -1.193601250648498535e+00 -7.683393955230712891e-01 -1.316834688186645508e+00
1.651000000000000000e+03 3.533542633056640625e+01 1.503720569610595703e+01 -1.313315868377685547e+00 -1.554854512214660645e+00 -8.604511022567749023e-01 -1.430113196372985840e+00
1.652000000000000000e+03 3.241386795043945312e+01 1.179084396362304688e+01 -1.439307332038879395e+00 -1.455285429954528809e+00 -8.683778643608093262e-01 -1.416096210479736328e+00
1.653000000000000000e+03 2.280480384826660156e+01 1.322627830505371094e+01 1.191568672657012939e-01 1.337822377681732178e-01 7.588173449039459229e-02 1.229072809219360352e-01
1.654000000000000000e+03 2.201863670349121094e+01 1.286497211456298828e+01 1.137020215392112732e-01 1.349346637725830078e-01 7.459100335836410522e-02 1.243465617299079895e-01
1.655000000000000000e+03 4.332109451293945312e+01 2.337782859802246094e+01 -1.460246086120605469e+00 -1.315344929695129395e+00 -8.326773047447204590e-01 -1.392059206962585449e+00
1.656000000000000000e+03 2.644352912902832031e+01 1.692680740356445312e+01 9.487495571374893188e-02 1.038720309734344482e-01 5.962409451603889465e-02 9.726629406213760376e-02
1.657000000000000000e+03 2.550968551635742188e+01 1.661222076416015625e+01 9.129766374826431274e-02 1.043075770139694214e-01 5.868157371878623962e-02 9.775720536708831787e-02
1.658000000000000000e+03 3.454588699340820312e+01 1.416285037994384766e+01 -1.370087265968322754e+00 -1.549079895019531250e+00 -8.757501840591430664e-01 -1.431989431381225586e+00
1.659000000000000000e+03 4.823372650146484375e+01 2.853891563415527344e+01 -1.490333914756774902e+00 -1.257046818733215332e+00 -8.242141604423522949e-01 -1.355780720710754395e+00
1.660000000000000000e+03 4.794187545776367188e+01 2.827564620971679688e+01 -1.488724231719970703e+00 -1.252287745475769043e+00 -8.223035931587219238e-01 -1.360816001892089844e+00
1.661000000000000000e+03 2.964302825927734375e+01 2.066553306579589844e+01 7.054496556520462036e-02 8.122610300779342651e-02 4.553132131695747375e-02 7.646455615758895874e-02
1.662000000000000000e+03 4.484097290039062500e+01 2.525564384460449219e+01 -1.528602123260498047e+00 -1.448960542678833008e+00 -8.932688236236572266e-01 -1.449322819709777832e+00
1.663000000000000000e+03 4.539181518554687500e+01 2.526322937011718750e+01 -1.444884419441223145e+00 -1.298266649246215820e+00 -8.229452967643737793e-01 -1.357275485992431641e+00
1.664000000000000000e+03 5.025756454467773438e+01 2.985006904602050781e+01 -1.312261104583740234e+00 -1.013029575347900391e+00 -6.975871920585632324e-01 -1.155412435531616211e+00
1.665000000000000000e+03 2.932740211486816406e+01 2.039965057373046875e+01 7.161112129688262939e-02 8.309205621480941772e-02 4.641095176339149475e-02 7.770433276891708374e-02
1.666000000000000000e+03 4.941730499267578125e+01 2.960690879821777344e+01 -1.413501381874084473e+00 -1.205748438835144043e+00 -7.857750058174133301e-01 -1.295004606246948242e+00
1.667000000000000000e+03 3.477600860595703125e+01 2.547467231750488281e+01 5.473599210381507874e-02 7.510626316070556641e-02 3.895267471671104431e-02 6.121552735567092896e-02
1.668000000000000000e+03 3.423197937011718750e+01 2.532980537414550781e+01 5.390908569097518921e-02 7.420158386230468750e-02 3.843320161104202271e-02 6.151844561100006104e-02
1.669000000000000000e+03 5.057992553710937500e+01 3.013142585754394531e+01 -1.281079411506652832e+00 -9.687257409095764160e-01 -6.749415397644042969e-01 -1.118861913681030273e+00
1.670000000000000000e+03 2.837488555908203125e+01 1.956099128723144531e+01 7.538311928510665894e-02 8.796603977680206299e-02 4.900474846363067627e-02 8.268845081329345703e-02
1.671000000000000000e+03 4.732210159301757812e+01 2.721045494079589844e+01 -1.377913951873779297e+00 -1.188831329345703125e+00 -7.700235843658447266e-01 -1.310506224632263184e+00
1.672000000000000000e+03 4.844494247436523438e+01 2.825878524780273438e+01 -1.410664558410644531e+00 -1.172374010086059570e+00 -7.749115228652954102e-01 -1.276288270950317383e+00
1.673000000000000000e+03 3.559899139404296875e+01 1.532894802093505859e+01 -1.300561428070068359e+00 -1.557019472122192383e+00 -8.572742342948913574e-01 -1.427487730979919434e+00
1.674000000000000000e+03 4.537804031372070312e+01 3.500613784790039062e+01 7.748356461524963379e-02 5.045578628778457642e-02 3.838180750608444214e-02 5.042502284049987793e-02
1.675000000000000000e+03 3.612921905517578125e+01 1.591379833221435547e+01 -1.296616911888122559e+00 -1.566768288612365723e+00 -8.590155243873596191e-01 -1.418605566024780273e+00
1.676000000000000000e+03 3.642005538940429688e+01 1.676155090332031250e+01 -1.340822815895080566e+00 -1.642159938812255859e+00 -8.948948383331298828e-01 -1.469172358512878418e+00
1.677000000000000000e+03 3.639569473266601562e+01 1.620708656311035156e+01 -1.297565698623657227e+00 -1.574609160423278809e+00 -8.616524934768676758e-01 -1.412945389747619629e+00
1.678000000000000000e+03 3.910369873046875000e+01 3.067403602600097656e+01 5.499545112252235413e-02 5.986577644944190979e-02 3.445836901664733887e-02 5.394833162426948547e-02
1.679000000000000000e+03 4.216167831420898438e+01 2.232350730895996094e+01 -1.440024614334106445e+00 -1.282424688339233398e+00 -8.167347908020019531e-01 -1.350682377815246582e+00
1.680000000000000000e+03 2.782692146301269531e+01 1.893027877807617188e+01 7.946300506591796875e-02 9.197141230106353760e-02 5.143032595515251160e-02 8.609627932310104370e-02
1.681000000000000000e+03 4.361433410644531250e+01 2.364304924011230469e+01 -1.469895839691162109e+00 -1.334761857986450195e+00 -8.413972854614257812e-01 -1.391691803932189941e+00
1.682000000000000000e+03 2.873178291320800781e+01 1.924090194702148438e+01 8.062738180160522461e-02 8.531556278467178345e-02 4.978288337588310242e-02 8.334055542945861816e-02
1.683000000000000000e+03 2.809820938110351562e+01 1.924547195434570312e+01 7.751705497503280640e-02 9.004371613264083862e-02 5.026822909712791443e-02 8.402157574892044067e-02
1.684000000000000000e+03 2.902350997924804688e+01 1.952431106567382812e+01 7.847090810537338257e-02 8.352200686931610107e-02 4.859787225723266602e-02 8.202446997165679932e-02
1.685000000000000000e+03 3.666255569458007812e+01 1.650060844421386719e+01 -1.290849685668945312e+00 -1.580339670181274414e+00 -8.613567948341369629e-01 -1.410595774650573730e+00
1.686000000000000000e+03 1.347025108337402344e+01 3.490924358367919922e+00 3.006723821163177490e-01 1.493538260459899902e+00 5.382632017135620117e-01 -9.953606873750686646e-02
1.687000000000000000e+03 4.015662765502929688e+01 3.184631729125976562e+01 5.653948709368705750e-02 5.360622331500053406e-02 3.304371237754821777e-02 5.163575708866119385e-02
1.688000000000000000e+03 4.020097732543945312e+01 3.138760757446289062e+01 5.769325420260429382e-02 5.049015209078788757e-02 3.245502337813377380e-02 5.517846345901489258e-02
1.689000000000000000e+03 3.137983512878417969e+01 9.716480255126953125e+00 -1.354056596755981445e+00 -1.357870578765869141e+00 -8.135781288146972656e-01 -1.268250942230224609e+00
1.690000000000000000e+03 3.056660079956054688e+01 9.938924789428710938e+00 -1.463006854057312012e+00 -1.353503465652465820e+00 -8.449530601501464844e-01 -1.328245043754577637e+00
1.691000000000000000e+03 3.142669677734375000e+01 2.334849739074707031e+01 5.373511090874671936e-02 7.556580007076263428e-02 3.879027441143989563e-02 6.777016073465347290e-02
1.692000000000000000e+03 3.113008499145507812e+01 2.135556221008300781e+01 6.845854967832565308e-02 7.392573356628417969e-02 4.271528124809265137e-02 7.021637260913848877e-02
1.693000000000000000e+03 3.025379753112792969e+01 2.117712783813476562e+01 6.782390922307968140e-02 7.890632003545761108e-02 4.401906952261924744e-02 7.314178347587585449e-02
1.694000000000000000e+03 2.760185623168945312e+01 1.806927680969238281e+01 8.948098123073577881e-02 9.428837895393371582e-02 5.513080582022666931e-02 9.111943095922470093e-02
1.695000000000000000e+03 4.759593963623046875e+01 2.747897720336914062e+01 -1.390959620475769043e+00 -1.185963988304138184e+00 -7.730770707130432129e-01 -1.304041266441345215e+00
1.696000000000000000e+03 4.815750122070312500e+01 2.799985694885253906e+01 -1.408297061920166016e+00 -1.180089831352233887e+00 -7.765160799026489258e-01 -1.286849260330200195e+00
1.697000000000000000e+03 3.941859817504882812e+01 3.014631652832031250e+01 5.688194185495376587e-02 5.472768470644950867e-02 3.348288685083389282e-02 5.837099254131317139e-02
1.698000000000000000e+03 2.731655883789062500e+01 1.778236198425292969e+01 9.143035113811492920e-02 9.722485393285751343e-02 5.659656226634979248e-02 9.305025637149810791e-02
1.699000000000000000e+03 4.179588317871093750e+01 3.289744949340820312e+01 5.984403565526008606e-02 4.347843304276466370e-02 3.099673986434936523e-02 5.343321338295936584e-02
1.700000000000000000e+03 3.748959350585937500e+01 1.794305801391601562e+01 -1.285725831985473633e+00 -1.669110417366027832e+00 -8.864508271217346191e-01 -1.425475478172302246e+00
1.701000000000000000e+03 3.235113143920898438e+01 2.349387931823730469e+01 5.488884076476097107e-02 7.191266119480133057e-02 3.804045170545578003e-02 6.543045490980148315e-02
1.702000000000000000e+03 2.107805252075195312e+01 -3.729907870292663574e-01 -1.564670920372009277e+00 -7.068687081336975098e-01 -6.814618706703186035e-01 -3.042392492294311523e+00
1.703000000000000000e+03 1.869909858703613281e+01 -8.587910532951354980e-01 -2.409456491470336914e+00 -2.082363605499267578e+00 -1.347545981407165527e+00 -1.846803188323974609e+00
1.704000000000000000e+03 2.260369491577148438e+01 9.315603971481323242e-01 -2.637548685073852539e+00 -1.489306986331939697e-01 -8.359438180923461914e-01 -1.876510739326477051e+00
1.705000000000000000e+03 2.673694801330566406e+01 1.721224975585937500e+01 9.435108304023742676e-02 1.022786200046539307e-01 5.898891016840934753e-02 9.604824334383010864e-02
1.706000000000000000e+03 2.446327400207519531e+01 1.613180160522460938e+01 8.777616918087005615e-02 1.106146425008773804e-01 5.951724201440811157e-02 1.014395356178283691e-01
1.707000000000000000e+03 2.307017898559570312e+01 1.352575778961181641e+01 1.185694783926010132e-01 1.311565637588500977e-01 7.491781562566757202e-02 1.213020160794258118e-01
1.708000000000000000e+03 2.175996589660644531e+01 1.258694267272949219e+01 1.142250001430511475e-01 1.376218050718307495e-01 7.555404305458068848e-02 1.261370331048965454e-01
1.709000000000000000e+03 5.090053939819335938e+01 3.042634582519531250e+01 -1.255903005599975586e+00 -9.264096021652221680e-01 -6.546937823295593262e-01 -1.079578280448913574e+00
1.710000000000000000e+03 4.454927062988281250e+01 2.497827911376953125e+01 -1.560130953788757324e+00 -1.467512607574462891e+00 -9.082930684089660645e-01 -1.461215615272521973e+00
1.711000000000000000e+03 3.787825775146484375e+01 2.922763824462890625e+01 5.779997259378433228e-02 6.442030519247055054e-02 3.666608408093452454e-02 5.700188130140304565e-02
1.712000000000000000e+03 1.748240089416503906e+01 8.889554977416992188e+00 1.367231309413909912e-01 2.068738043308258057e-01 1.030790805816650391e-01 1.601776331663131714e-01
1.713000000000000000e+03 3.375301361083984375e+01 1.382739925384521484e+01 -1.455497145652770996e+00 -1.626511335372924805e+00 -9.246025085449218750e-01 -1.479447722434997559e+00
1.714000000000000000e+03 3.324247360229492188e+01 1.268154525756835938e+01 -1.372472286224365234e+00 -1.509861230850219727e+00 -8.647000789642333984e-01 -1.434604644775390625e+00
1.715000000000000000e+03 3.944182968139648438e+01 3.080992889404296875e+01 5.686652287840843201e-02 5.274699628353118896e-02 3.288405388593673706e-02 5.468370392918586731e-02
1.716000000000000000e+03 4.523410034179687500e+01 3.539634323120117188e+01 8.149848878383636475e-02 3.105397894978523254e-02 3.376574069261550903e-02 5.664319545030593872e-02
1.717000000000000000e+03 4.488834381103515625e+01 3.590523529052734375e+01 9.279150515794754028e-02 3.173105046153068542e-02 3.735676407814025879e-02 5.121593922376632690e-02
1.718000000000000000e+03 3.692951583862304688e+01 1.679390335083007812e+01 -1.287584781646728516e+00 -1.587888121604919434e+00 -8.626418709754943848e-01 -1.401071429252624512e+00
1.719000000000000000e+03 4.624757385253906250e+01 2.609178352355957031e+01 -1.370988011360168457e+00 -1.224718213081359863e+00 -7.787118554115295410e-01 -1.342536330223083496e+00
1.720000000000000000e+03 3.859304809570312500e+01 3.074862098693847656e+01 5.828493088483810425e-02 5.717688798904418945e-02 3.463854640722274780e-02 5.448294430971145630e-02
1.721000000000000000e+03 4.590946960449218750e+01 3.615335464477539062e+01 9.996151179075241089e-02 3.786550089716911316e-02 4.134810343384742737e-02 5.386425554752349854e-02
1.722000000000000000e+03 4.550881958007812500e+01 3.612194824218750000e+01 9.710190445184707642e-02 4.892085120081901550e-02 4.380682855844497681e-02 5.873125419020652771e-02
1.723000000000000000e+03 5.119456481933593750e+01 3.074729156494140625e+01 -1.231015920639038086e+00 -8.860276937484741211e-01 -6.351130604743957520e-01 -1.044756770133972168e+00
1.724000000000000000e+03 2.486458206176757812e+01 1.661440849304199219e+01 8.716347068548202515e-02 1.073627695441246033e-01 5.835787206888198853e-02 9.836240857839584351e-02
1.725000000000000000e+03 2.584960556030273438e+01 1.634787750244140625e+01 9.470319747924804688e-02 1.045421138405799866e-01 5.977359414100646973e-02 9.940874576568603516e-02
1.726000000000000000e+03 4.187748718261718750e+01 2.205678367614746094e+01 -1.417993545532226562e+00 -1.286492109298706055e+00 -8.113456964492797852e-01 -1.333985328674316406e+00
1.727000000000000000e+03 4.079168319702148438e+01 2.094746398925781250e+01 -1.238506197929382324e+00 -1.249264359474182129e+00 -7.463311553001403809e-01 -1.311897635459899902e+00
1.728000000000000000e+03 4.132093429565429688e+01 2.151362037658691406e+01 -1.334616065025329590e+00 -1.279053092002868652e+00 -7.841007709503173828e-01 -1.316044092178344727e+00
1.729000000000000000e+03 5.263511657714843750e+01 3.273414993286132812e+01 -8.982723355293273926e-01 -4.743783473968505859e-01 -4.117951989173889160e-01 -7.575765848159790039e-01
1.730000000000000000e+03 5.230195999145507812e+01 3.245000457763671875e+01 -9.536374211311340332e-01 -6.416053175926208496e-01 -4.785728156566619873e-01 -8.255856037139892578e-01
1.731000000000000000e+03 4.216718292236328125e+01 3.318387603759765625e+01 6.388360261917114258e-02 4.779687151312828064e-02 3.350413963198661804e-02 4.886860027909278870e-02
1.732000000000000000e+03 3.055632781982421875e+01 2.141663742065429688e+01 6.574797630310058594e-02 7.840172946453094482e-02 4.324491322040557861e-02 7.146409898996353149e-02
1.733000000000000000e+03 4.390835952758789062e+01 2.390942955017089844e+01 -1.479314208030700684e+00 -1.353384017944335938e+00 -8.498094677925109863e-01 -1.389403581619262695e+00
1.734000000000000000e+03 4.420348358154296875e+01 2.417727661132812500e+01 -1.486258149147033691e+00 -1.367867708206176758e+00 -8.562377691268920898e-01 -1.382385849952697754e+00
1.735000000000000000e+03 2.755512619018554688e+01 1.862526130676269531e+01 8.177162706851959229e-02 9.432390332221984863e-02 5.282866209745407104e-02 8.748117089271545410e-02
1.736000000000000000e+03 3.686795043945312500e+01 2.800095558166503906e+01 5.794655531644821167e-02 7.248200476169586182e-02 3.912856802344322205e-02 5.930396541953086853e-02
1.737000000000000000e+03 3.857934951782226562e+01 1.851920700073242188e+01 -1.199257731437683105e+00 -1.432430863380432129e+00 -7.895065546035766602e-01 -1.326335430145263672e+00
1.738000000000000000e+03 3.719657135009765625e+01 1.708631324768066406e+01 -1.278475165367126465e+00 -1.588146209716796875e+00 -8.599864244461059570e-01 -1.391724228858947754e+00
1.739000000000000000e+03 4.256683731079101562e+01 3.338227844238281250e+01 6.241064146161079407e-02 4.073030501604080200e-02 3.094228357076644897e-02 5.274674668908119202e-02
1.740000000000000000e+03 1.956452941894531250e+01 1.125051212310791016e+01 1.132691875100135803e-01 1.577240973711013794e-01 8.129798620939254761e-02 1.350174397230148315e-01
1.741000000000000000e+03 4.253919982910156250e+01 3.451546096801757812e+01 6.989413499832153320e-02 4.768420383334159851e-02 3.527350351214408875e-02 4.802007973194122314e-02
1.742000000000000000e+03 3.155867195129394531e+01 1.151280212402343750e+01 -1.558573722839355469e+00 -1.539861083030700684e+00 -9.295304417610168457e-01 -1.450638890266418457e+00
1.743000000000000000e+03 2.333897209167480469e+01 1.382923889160156250e+01 1.177121996879577637e-01 1.278260797262191772e-01 7.366148382425308228e-02 1.183889508247375488e-01
1.744000000000000000e+03 5.198210906982421875e+01 3.218901824951171875e+01 -1.007949113845825195e+00 -7.904529571533203125e-01 -5.395206212997436523e-01 -8.993920683860778809e-01
1.745000000000000000e+03 3.211911773681640625e+01 1.150977706909179688e+01 -1.472222208976745605e+00 -1.468269228935241699e+00 -8.821474313735961914e-01 -1.386669874191284180e+00
1.746000000000000000e+03 6.803522491455078125e+01 3.618982315063476562e+01 -5.836233496665954590e-01 1.718057823181152344e+01 4.979086399078369141e+00 -1.838632702827453613e+00
1.747000000000000000e+03 6.571606445312500000e+01 3.580258560180664062e+01 1.964035511016845703e+00 3.512357234954833984e+00 1.642917871475219727e+00 -3.658882617950439453e+00
1.748000000000000000e+03 3.346634292602539062e+01 2.501626968383789062e+01 5.150276049971580505e-02 7.384621351957321167e-02 3.760469332337379456e-02 6.314400583505630493e-02
1.749000000000000000e+03 4.449993896484375000e+01 2.444666290283203125e+01 -1.487793326377868652e+00 -1.369896888732910156e+00 -8.573070764541625977e-01 -1.373514056205749512e+00
1.750000000000000000e+03 3.322167968750000000e+01 2.426304244995117188e+01 5.297714844346046448e-02 7.494968920946121216e-02 3.837805241346359253e-02 6.334851682186126709e-02
1.751000000000000000e+03 2.123294639587402344e+01 1.204853343963623047e+01 1.157546192407608032e-01 1.439737528562545776e-01 7.791851460933685303e-02 1.290331035852432251e-01
1.752000000000000000e+03 2.096398162841796875e+01 1.178888702392578125e+01 1.169463545083999634e-01 1.458974033594131470e-01 7.885312288999557495e-02 1.301598846912384033e-01
1.753000000000000000e+03 3.715037918090820312e+01 2.927033805847167969e+01 5.515248328447341919e-02 6.818444281816482544e-02 3.700107708573341370e-02 5.565007776021957397e-02
1.754000000000000000e+03 2.227411460876464844e+01 1.315067195892333984e+01 1.140792518854141235e-01 1.339222192764282227e-01 7.440043985843658447e-02 1.214134246110916138e-01
1.755000000000000000e+03 3.301742172241210938e+01 1.176738357543945312e+01 -1.357547998428344727e+00 -1.416174888610839844e+00 -8.321169018745422363e-01 -1.364094018936157227e+00
1.756000000000000000e+03 2.303479385375976562e+01 1.406134128570556641e+01 1.088406145572662354e-01 1.283139884471893311e-01 7.114638388156890869e-02 1.140179485082626343e-01
1.757000000000000000e+03 3.085702896118164062e+01 2.163898849487304688e+01 6.345940381288528442e-02 7.657956331968307495e-02 4.201168939471244812e-02 7.078769803047180176e-02
1.758000000000000000e+03 5.146730804443359375e+01 3.108821105957031250e+01 -1.199115753173828125e+00 -8.298796415328979492e-01 -6.086986064910888672e-01 -1.003993153572082520e+00
1.759000000000000000e+03 2.385102653503417969e+01 1.507114315032958984e+01 9.710145741701126099e-02 1.181694939732551575e-01 6.458128243684768677e-02 1.076503545045852661e-01
1.760000000000000000e+03 2.329354667663574219e+01 1.438506889343261719e+01 1.055251285433769226e-01 1.257006078958511353e-01 6.936772167682647705e-02 1.113820299506187439e-01
1.761000000000000000e+03 3.349901962280273438e+01 1.298811721801757812e+01 -1.358489990234375000e+00 -1.536530137062072754e+00 -8.685060143470764160e-01 -1.431940674781799316e+00
1.762000000000000000e+03 3.673541641235351562e+01 2.855906486511230469e+01 5.593117326498031616e-02 7.036004960536956787e-02 3.788736835122108459e-02 5.664536729454994202e-02
1.763000000000000000e+03 3.661446762084960938e+01 2.769743537902832031e+01 5.470573529601097107e-02 7.150825113058090210e-02 3.786419704556465149e-02 6.158112734556198120e-02
1.764000000000000000e+03 3.143379211425781250e+01 2.219156646728515625e+01 5.895228683948516846e-02 7.356104254722595215e-02 3.975399956107139587e-02 6.979940086603164673e-02
1.765000000000000000e+03 3.134476661682128906e+01 2.197051239013671875e+01 5.957828089594841003e-02 7.335935533046722412e-02 3.988129273056983948e-02 6.981127709150314331e-02
1.766000000000000000e+03 5.189311981201171875e+01 3.166957283020019531e+01 -1.121924281120300293e+00 -7.434433698654174805e-01 -5.596103072166442871e-01 -9.285942912101745605e-01
1.767000000000000000e+03 3.264596939086914062e+01 2.374548149108886719e+01 5.445961281657218933e-02 7.373771071434020996e-02 3.845919668674468994e-02 6.370979547500610352e-02
1.768000000000000000e+03 5.167673492431640625e+01 3.141923332214355469e+01 -1.157732248306274414e+00 -8.035934567451477051e-01 -5.883976817131042480e-01 -9.685767889022827148e-01
1.769000000000000000e+03 5.175411987304687500e+01 3.083414268493652344e+01 -1.196005105972290039e+00 -6.674072742462158203e-01 -5.590236783027648926e-01 -9.381360411643981934e-01
1.770000000000000000e+03 3.104055213928222656e+01 1.019174289703369141e+01 -1.409437537193298340e+00 -1.372486829757690430e+00 -8.345773220062255859e-01 -1.367143988609313965e+00
1.771000000000000000e+03 3.126908302307128906e+01 1.073863792419433594e+01 -1.451748609542846680e+00 -1.424801707267761230e+00 -8.629651069641113281e-01 -1.383499622344970703e+00
1.772000000000000000e+03 3.542880630493164062e+01 2.713586997985839844e+01 5.107924342155456543e-02 7.086674869060516357e-02 3.658379986882209778e-02 6.176602095365524292e-02
1.773000000000000000e+03 1.569887828826904297e+01 6.540406227111816406e+00 1.689297407865524292e-01 3.117699027061462402e-01 1.442098915576934814e-01 2.042537331581115723e-01
1.774000000000000000e+03 1.878693389892578125e+01 1.000281810760498047e+01 1.241652816534042358e-01 1.775029897689819336e-01 9.050048142671585083e-02 1.474664658308029175e-01
1.775000000000000000e+03 1.850122261047363281e+01 9.691859245300292969e+00 1.279309242963790894e-01 1.831686794757843018e-01 9.332988411188125610e-02 1.507941931486129761e-01
1.776000000000000000e+03 3.021029472351074219e+01 5.556808471679687500e+00 -1.882966876029968262e+00 -1.057570815086364746e+00 -8.821613192558288574e-01 -1.078032612800598145e+00
1.777000000000000000e+03 4.608188247680664062e+01 3.664531326293945312e+01 1.138169690966606140e-01 2.415305376052856445e-02 4.139100387692451477e-02 6.165489181876182556e-02
1.778000000000000000e+03 4.834214401245117188e+01 3.815227890014648438e+01 1.695132553577423096e-01 5.040029808878898621e-02 6.597406417131423950e-02 6.021861359477043152e-02
1.779000000000000000e+03 1.466551208496093750e+01 6.240418434143066406e+00 1.308091878890991211e-01 4.102686941623687744e-01 1.623233705759048462e-01 1.950985938310623169e-01
1.780000000000000000e+03 1.626516532897949219e+01 6.968179225921630859e+00 1.620882004499435425e-01 2.735321521759033203e-01 1.306861042976379395e-01 2.007651031017303467e-01
1.781000000000000000e+03 1.598589038848876953e+01 6.750956058502197266e+00 1.629487574100494385e-01 2.891583442687988281e-01 1.356321275234222412e-01 2.044768780469894409e-01
1.782000000000000000e+03 1.382236671447753906e+01 4.796368598937988281e+00 1.039819866418838501e-01 8.021722435951232910e-01 2.718462646007537842e-01 1.592212319374084473e-01
1.783000000000000000e+03 5.498672103881835938e+01 3.852283096313476562e+01 -1.389423012733459473e-01 -3.465676009654998779e-01 -1.456529647111892700e-01 3.118829131126403809e-01
1.784000000000000000e+03 1.273424816131591797e+01 3.187019109725952148e+00 6.072213053703308105e-01 7.833669185638427734e-01 4.171764850616455078e-01 -4.345789849758148193e-01
1.785000000000000000e+03 1.370721054077148438e+01 3.892052888870239258e+00 2.306744754314422607e-01 1.256468057632446289e+00 4.461427628993988037e-01 1.190195232629776001e-01
1.786000000000000000e+03 5.386059570312500000e+01 3.986348342895507812e+01 2.711995542049407959e-01 -5.742973089218139648e-01 -9.092932194471359253e-02 2.378091216087341309e-01
1.787000000000000000e+03 5.357351303100585938e+01 3.908788299560546875e+01 9.712882339954376221e-02 -6.534520387649536133e-01 -1.668969690799713135e-01 2.902455031871795654e-01
1.788000000000000000e+03 1.211125850677490234e+01 2.070920467376708984e+00 7.283513545989990234e-01 -2.265265583992004395e-01 1.505474448204040527e-01 9.898226708173751831e-02
1.789000000000000000e+03 5.631462097167968750e+01 3.751081848144531250e+01 -1.772311776876449585e-01 -2.198181003332138062e-01 -1.191147863864898682e-01 4.494047760963439941e-01
1.790000000000000000e+03 1.331232452392578125e+01 3.060192823410034180e+00 4.970611333847045898e-01 1.618584632873535156e+00 6.346937417984008789e-01 -3.818735480308532715e-01
1.791000000000000000e+03 5.384400177001953125e+01 3.303413772583007812e+01 -1.002195715904235840e+00 -2.336971275508403778e-02 -3.076696097850799561e-01 -6.552413105964660645e-01
1.792000000000000000e+03 5.175982284545898438e+01 3.916478347778320312e+01 1.431247889995574951e-01 4.173861816525459290e-02 5.545901879668235779e-02 1.525864601135253906e-01
1.793000000000000000e+03 5.132072448730468750e+01 3.859754562377929688e+01 2.377775907516479492e-01 3.492863848805427551e-02 8.181186765432357788e-02 1.188478842377662659e-01
1.794000000000000000e+03 6.191012191772460938e+01 3.087142944335937500e+01 -1.762898266315460205e-01 7.435373663902282715e-01 1.701742559671401978e-01 6.101703643798828125e-01
1.795000000000000000e+03 6.260110092163085938e+01 3.142175865173339844e+01 -2.496183216571807861e-01 6.587529182434082031e-01 1.227403879165649414e-01 7.563051581382751465e-01
1.796000000000000000e+03 6.084433746337890625e+01 3.212560653686523438e+01 -1.401172757148742676e+00 2.173886001110076904e-01 -3.551352322101593018e-01 -7.834821194410324097e-02
1.797000000000000000e+03 6.201132965087890625e+01 3.145623397827148438e+01 -5.380043983459472656e-01 4.766088426113128662e-01 -1.841866225004196167e-02 4.341501295566558838e-01
1.798000000000000000e+03 6.140275955200195312e+01 3.151116752624511719e+01 -7.550204396247863770e-01 3.728784322738647461e-01 -1.146425977349281311e-01 1.880285590887069702e-01
1.799000000000000000e+03 6.494080352783203125e+01 3.202929306030273438e+01 1.121270537376403809e+00 1.820370674133300781e+00 8.824923634529113770e-01 2.601113796234130859e+00
1.800000000000000000e+03 4.951011276245117188e+01 3.899027252197265625e+01 2.298739403486251831e-01 -6.192299351096153259e-02 5.038528144359588623e-02 2.999736182391643524e-02
1.801000000000000000e+03 1.027904701232910156e+01 -2.840749502182006836e+00 -4.842327833175659180e-01 -4.410686343908309937e-02 -1.585018932819366455e-01 -2.552282512187957764e-01
1.802000000000000000e+03 4.724562454223632812e+01 3.640567398071289062e+01 1.239346712827682495e-01 6.724274158477783203e-02 5.735322460532188416e-02 6.806489080190658569e-02
1.803000000000000000e+03 5.338961029052734375e+01 3.263583755493164062e+01 -1.030877709388732910e+00 -1.546814739704132080e-01 -3.556677699089050293e-01 -7.293874025344848633e-01
1.804000000000000000e+03 5.711784362792968750e+01 3.864419937133789062e+01 1.454128324985504150e-01 -2.379901558160781860e-01 -2.777319215238094330e-02 4.108773767948150635e-01
1.805000000000000000e+03 5.504469680786132812e+01 3.932916259765625000e+01 1.373137980699539185e-01 -3.641014695167541504e-01 -6.803630292415618896e-02 2.677122652530670166e-01
1.806000000000000000e+03 8.541122436523437500e+00 3.075945377349853516e+00 3.933358564972877502e-02 -2.057598084211349487e-01 -4.992786794900894165e-02 2.353688627481460571e-01
1.807000000000000000e+03 7.114022254943847656e+00 3.240345954895019531e+00 -2.206067554652690887e-02 -1.293153166770935059e-01 -4.541279748082160950e-02 1.984793096780776978e-01
1.808000000000000000e+03 5.828372478485107422e+00 4.206249713897705078e+00 1.783270575106143951e-02 -1.163578554987907410e-01 -2.955754473805427551e-02 1.478906273841857910e-01
1.809000000000000000e+03 3.324677705764770508e+00 2.938075065612792969e+00 -3.490400686860084534e-02 -5.020959675312042236e-02 -2.553408034145832062e-02 8.474017679691314697e-02
1.810000000000000000e+03 4.817733287811279297e+00 2.764112472534179688e+00 -6.295752525329589844e-02 -5.615510791540145874e-02 -3.573378920555114746e-02 1.241368725895881653e-01
1.811000000000000000e+03 6.397554397583007812e+00 3.339084625244140625e+00 -2.833299525082111359e-02 -1.128671243786811829e-01 -4.236003383994102478e-02 1.783193051815032959e-01
1.812000000000000000e+03 9.866197586059570312e+00 2.311051607131958008e+00 6.111793220043182373e-03 -3.268353641033172607e-01 -9.621706604957580566e-02 3.457242548465728760e-01
1.813000000000000000e+03 4.180427551269531250e+00 3.743590116500854492e+00 -1.812016777694225311e-02 -7.702855765819549561e-02 -2.854461781680583954e-02 1.132609471678733826e-01
1.814000000000000000e+03 4.071285247802734375e+00 2.855489730834960938e+00 -4.821973294019699097e-02 -5.492784827947616577e-02 -3.094427473843097687e-02 1.047674939036369324e-01
1.815000000000000000e+03 1.059741020202636719e+01 2.224811315536499023e+00 1.423390060663223267e-01 -3.748679161071777344e-01 -6.975867599248886108e-02 3.272682726383209229e-01
1.816000000000000000e+03 9.952111244201660156e+00 2.887352466583251953e+00 1.955722868442535400e-01 -3.021696805953979492e-01 -3.197921812534332275e-02 2.243497371673583984e-01
1.817000000000000000e+03 1.109061908721923828e+01 -3.687337160110473633e+00 -5.917640924453735352e-01 -1.161820888519287109e-01 -2.123838663101196289e-01 -4.074867665767669678e-01
1.818000000000000000e+03 6.047873687744140625e+01 3.886985397338867188e+01 7.243395447731018066e-01 4.872620403766632080e-01 3.634804785251617432e-01 3.059301972389221191e-01
1.819000000000000000e+03 1.419331645965576172e+01 -3.112636089324951172e+00 -1.089440464973449707e+00 -2.919028699398040771e-01 -4.144029915332794189e-01 -6.416761875152587891e-01
1.820000000000000000e+03 5.869826126098632812e+01 3.231740188598632812e+01 -1.551574707031250000e+00 2.077989131212234497e-01 -4.031327366828918457e-01 -4.232797324657440186e-01
1.821000000000000000e+03 5.942055892944335938e+01 3.163483619689941406e+01 -1.181185245513916016e+00 2.723817229270935059e-01 -2.726410329341888428e-01 -3.279364109039306641e-01
1.822000000000000000e+03 5.869504928588867188e+01 3.169923591613769531e+01 -1.242200732231140137e+00 2.960850000381469727e-01 -2.838347256183624268e-01 -4.374466836452484131e-01
1.823000000000000000e+03 1.134198951721191406e+01 2.135719776153564453e+00 3.495266139507293701e-01 -3.919275104999542236e-01 -1.272027101367712021e-02 2.836355566978454590e-01
1.824000000000000000e+03 1.319236087799072266e+01 5.464696407318115234e+00 9.797880053520202637e-02 6.286665201187133789e-01 2.179935872554779053e-01 -1.832213625311851501e-02
1.825000000000000000e+03 6.010906219482421875e+01 3.161346244812011719e+01 -1.105806469917297363e+00 3.198532164096832275e-01 -2.357859760522842407e-01 -1.890429705381393433e-01
1.826000000000000000e+03 3.103336143493652344e+01 8.548706054687500000e+00 -1.247959733009338379e+00 -1.363072514533996582e+00 -7.833096981048583984e-01 -1.173034906387329102e+00
1.827000000000000000e+03 3.125430870056152344e+01 7.274680137634277344e+00 -1.303166508674621582e+00 -1.232824325561523438e+00 -7.607972621917724609e-01 -1.272062897682189941e+00
1.828000000000000000e+03 3.112128829956054688e+01 6.220740318298339844e+00 -1.526936888694763184e+00 -1.052053332328796387e+00 -7.736970782279968262e-01 -1.167688608169555664e+00
1.829000000000000000e+03 5.725737380981445312e+01 3.126354789733886719e+01 -1.130428433418273926e+00 3.501350581645965576e-01 -2.340880185365676880e-01 -6.020762920379638672e-01
1.830000000000000000e+03 5.652871322631835938e+01 3.195409774780273438e+01 -1.284478187561035156e+00 2.827906608581542969e-01 -3.005062639713287354e-01 -6.591022014617919922e-01
1.831000000000000000e+03 4.526261520385742188e+01 3.576860046386718750e+01 8.777345716953277588e-02 3.481960296630859375e-02 3.677791729569435120e-02 5.975375697016716003e-02
1.832000000000000000e+03 4.550220108032226562e+01 3.554201889038085938e+01 8.222583681344985962e-02 5.013373494148254395e-02 3.970786929130554199e-02 5.544924736022949219e-02
1.833000000000000000e+03 5.796205520629882812e+01 3.179021263122558594e+01 -1.283139824867248535e+00 2.895174920558929443e-01 -2.980867028236389160e-01 -5.342637300491333008e-01
1.834000000000000000e+03 1.580972194671630859e+01 -3.028237342834472656e+00 -1.393742203712463379e+00 -7.177736163139343262e-01 -6.334547400474548340e-01 -9.098389744758605957e-01
1.835000000000000000e+03 8.826590538024902344e+00 -3.619510650634765625e+00 -3.663658201694488525e-01 -5.311958491802215576e-02 -1.258456259965896606e-01 -2.633872032165527344e-01
1.836000000000000000e+03 5.549111366271972656e+00 -2.860005378723144531e+00 -1.265853792428970337e-01 -4.498641565442085266e-02 -5.147153884172439575e-02 -9.693925827741622925e-02
1.837000000000000000e+03 7.284573554992675781e+00 -3.683603525161743164e+00 -2.491104155778884888e-01 -5.982086434960365295e-02 -9.267938137054443359e-02 -2.002179771661758423e-01
1.838000000000000000e+03 4.739919185638427734e+00 -2.893225908279418945e+00 -9.832347929477691650e-02 -3.987545892596244812e-02 -4.145967960357666016e-02 -7.576923817396163940e-02
1.839000000000000000e+03 6.495624065399169922e+00 -3.730664014816284180e+00 -1.945201009511947632e-01 -7.474254816770553589e-02 -8.077879250049591064e-02 -1.728150993585586548e-01
1.840000000000000000e+03 5.695960998535156250e+00 -3.777570724487304688e+00 -1.583215296268463135e-01 -6.767039000988006592e-02 -6.779757887125015259e-02 -1.454865634441375732e-01
1.841000000000000000e+03 2.301936149597167969e+00 -3.149988889694213867e+00 -3.118986636400222778e-02 -3.290361911058425903e-02 -1.922804675996303558e-02 -2.563913352787494659e-02
1.842000000000000000e+03 3.569693088531494141e+00 -7.979711055755615234e+00 -5.374117195606231689e-02 -2.535002231597900391e-01 -9.217241406440734863e-02 -2.117121964693069458e-01
1.843000000000000000e+03 1.578649997711181641e+00 -5.362613201141357422e+00 -1.622286625206470490e-02 -7.470979541540145874e-02 -2.727979980409145355e-02 -4.955965653061866760e-02
1.844000000000000000e+03 5.277345657348632812e+01 3.165893554687500000e+01 -1.144862294197082520e+00 -3.351550698280334473e-01 -4.440052211284637451e-01 -8.255726695060729980e-01
1.845000000000000000e+03 5.517797088623046875e+01 3.194556236267089844e+01 -1.228571414947509766e+00 2.176440954208374023e-01 -3.032781779766082764e-01 -7.327342033386230469e-01
1.846000000000000000e+03 1.065661907196044922e+01 2.777581214904785156e+00 3.266908526420593262e-01 -3.307461142539978027e-01 -1.216579927131533623e-03 1.873826533555984497e-01
1.847000000000000000e+03 1.442310810089111328e+01 -4.723981380462646484e+00 -7.892655730247497559e-01 -5.703912973403930664e-01 -4.078970551490783691e-01 -8.607192635536193848e-01
1.848000000000000000e+03 1.345571613311767578e+01 -3.873741388320922852e+00 -8.669372200965881348e-01 -2.860787212848663330e-01 -3.459047675132751465e-01 -6.642108559608459473e-01
1.849000000000000000e+03 1.185514545440673828e+01 -3.753677368164062500e+00 -6.782314777374267578e-01 -1.181343793869018555e-01 -2.389097511768341064e-01 -4.748083055019378662e-01
1.850000000000000000e+03 1.263908958435058594e+01 -3.823906183242797852e+00 -8.014953732490539551e-01 -2.132238745689392090e-01 -3.044157624244689941e-01 -5.740806460380554199e-01
1.851000000000000000e+03 1.795930099487304688e+01 -5.858969211578369141e+00 -1.511224806308746338e-01 -1.801559686660766602e+00 -5.858046412467956543e-01 -6.504482030868530273e-01
1.852000000000000000e+03 2.177122306823730469e+01 -8.856636285781860352e-01 1.579511404037475586e+00 2.152330636978149414e+00 1.119552612304687500e+00 -1.473834991455078125e+00
1.853000000000000000e+03 2.279183578491210938e+01 -9.479969739913940430e-01 8.675096035003662109e-01 9.305285811424255371e-01 5.394114851951599121e-01 -1.222988486289978027e+00
1.854000000000000000e+03 1.924286651611328125e+01 -2.664342164993286133e+00 -7.383762598037719727e-01 -5.051065444946289062e+00 -1.736832618713378906e+00 -1.712033271789550781e+00
1.855000000000000000e+03 1.870777130126953125e+01 -1.239514589309692383e+00 -2.361632347106933594e+00 -2.598199844360351562e+00 -1.487949728965759277e+00 -2.160253763198852539e+00
1.856000000000000000e+03 3.484852600097656250e+01 -1.265875339508056641e+01 2.250520735979080200e-01 -3.146223723888397217e-01 -2.687108516693115234e-02 -1.285588368773460388e-03
1.857000000000000000e+03 3.982453155517578125e+01 -2.102748489379882812e+01 -8.247382193803787231e-02 -5.143028497695922852e-02 -4.017123207449913025e-02 1.486739665269851685e-01
1.858000000000000000e+03 2.336971473693847656e+01 -2.031029319763183594e+01 2.078572064638137817e-01 3.438510894775390625e-01 1.655124872922897339e-01 -3.485001921653747559e-01
1.859000000000000000e+03 2.923683929443359375e+01 -6.744253635406494141e+00 7.050359845161437988e-01 1.470151394605636597e-01 2.556153237819671631e-01 -4.426442682743072510e-01
1.860000000000000000e+03 2.975812911987304688e+01 -3.872420072555541992e+00 7.787973284721374512e-01 -3.662391901016235352e-01 1.237674355506896973e-01 -2.013075798749923706e-01
1.861000000000000000e+03 2.453747367858886719e+01 -1.970603179931640625e+01 2.075925171375274658e-01 4.830670058727264404e-01 2.071978598833084106e-01 -3.353874981403350830e-01
1.862000000000000000e+03 2.396547508239746094e+01 -2.151842498779296875e+01 2.201281040906906128e-01 4.127387404441833496e-01 1.898600459098815918e-01 -3.471191823482513428e-01
1.863000000000000000e+03 3.305012130737304688e+01 -1.230160236358642578e+01 1.521636247634887695e-01 -3.105402290821075439e-01 -4.751297831535339355e-02 2.394777908921241760e-02
1.864000000000000000e+03 3.564630889892578125e+01 -1.379633331298828125e+01 1.427341252565383911e-01 -3.020200729370117188e-01 -4.778578132390975952e-02 2.991626970469951630e-02
1.865000000000000000e+03 3.272513961791992188e+01 -3.563709259033203125e+01 6.545740962028503418e-01 6.963028907775878906e-01 4.052630960941314697e-01 -5.401315093040466309e-01
1.866000000000000000e+03 2.334869003295898438e+01 -2.336164283752441406e+01 2.343813031911849976e-01 3.372485041618347168e-01 1.714889407157897949e-01 -3.515718579292297363e-01
1.867000000000000000e+03 2.385159683227539062e+01 -2.468988227844238281e+01 2.482668459415435791e-01 3.738178610801696777e-01 1.866254061460494995e-01 -3.728816509246826172e-01
1.868000000000000000e+03 2.212543487548828125e+01 -1.797067832946777344e+01 2.068983614444732666e-01 2.211585044860839844e-01 1.284170597791671753e-01 -3.181946575641632080e-01
1.869000000000000000e+03 4.529566466808319092e-01 3.546341896057128906e+00 -3.716104663908481598e-03 -5.533392727375030518e-02 -1.771501079201698303e-02 1.521211769431829453e-02
1.870000000000000000e+03 2.509644317626953125e+01 -2.230852127075195312e+00 1.252909898757934570e+00 4.723784923553466797e-01 5.175865292549133301e-01 -9.374828338623046875e-01
1.871000000000000000e+03 2.746921920776367188e+01 -3.623351097106933594e+00 1.100659251213073730e+00 2.547872625291347504e-02 3.378413915634155273e-01 -5.747597217559814453e-01
1.872000000000000000e+03 4.121537399291992188e+01 -2.337853050231933594e+01 -1.131636500358581543e-01 1.256268173456192017e-01 3.738948842510581017e-03 1.324167400598526001e-01
1.873000000000000000e+03 3.171898078918457031e+01 -8.241439819335937500e+00 6.020159125328063965e-01 -2.544577419757843018e-01 1.042674481868743896e-01 -2.274767607450485229e-01
1.874000000000000000e+03 2.691809844970703125e+01 -2.769112586975097656e+01 2.872591912746429443e-01 6.131475567817687988e-01 2.701220214366912842e-01 -4.186930656433105469e-01
1.875000000000000000e+03 2.753525924682617188e+01 -2.586179542541503906e+01 2.410533130168914795e-01 7.095722556114196777e-01 2.851876914501190186e-01 -4.145634174346923828e-01
1.876000000000000000e+03 4.410651779174804688e+01 -2.819433021545410156e+01 -1.580976843833923340e-01 7.891082763671875000e-01 1.893031746149063110e-01 5.020927637815475464e-02
1.877000000000000000e+03 3.711832809448242188e+01 -1.617288780212402344e+01 4.734481126070022583e-02 -2.554387450218200684e-01 -6.242818385362625122e-02 9.162510931491851807e-02
1.878000000000000000e+03 4.266339874267578125e+01 -2.574673271179199219e+01 -1.439107954502105713e-01 3.990902304649353027e-01 7.655382901430130005e-02 9.496059268712997437e-02
1.879000000000000000e+03 4.086113357543945312e+01 -2.531152343750000000e+01 -1.624142378568649292e-01 -6.858258694410324097e-02 -6.929904967546463013e-02 1.875648349523544312e-01
1.880000000000000000e+03 4.374060821533203125e+01 -2.499397087097167969e+01 -1.273652911186218262e-01 7.157072424888610840e-01 1.765025854110717773e-01 5.866604670882225037e-02
1.881000000000000000e+03 3.739943313598632812e+01 -1.937113571166992188e+01 -1.071517542004585266e-01 -3.842883408069610596e-01 -1.474320292472839355e-01 2.236354798078536987e-01
1.882000000000000000e+03 1.935820770263671875e+01 -1.322252655029296875e+01 2.387613058090209961e-01 -2.391263395547866821e-01 -1.095071784220635891e-04 -2.877832651138305664e-01
1.883000000000000000e+03 3.033769035339355469e+01 -4.662718296051025391e+00 8.364229798316955566e-01 -3.571421802043914795e-01 1.437842547893524170e-01 -2.067048549652099609e-01
1.884000000000000000e+03 1.472694301605224609e+01 -6.711253643035888672e+00 -3.583537042140960693e-01 -7.522538900375366211e-01 -3.331822752952575684e-01 -8.566363453865051270e-01
1.885000000000000000e+03 3.875318908691406250e+01 -2.177260398864746094e+01 -1.340617388486862183e-01 -3.017653524875640869e-01 -1.307481229305267334e-01 2.414520531892776489e-01
1.886000000000000000e+03 3.807641601562500000e+01 -2.057832908630371094e+01 -1.325274407863616943e-01 -3.416067957878112793e-01 -1.422402709722518921e-01 2.330829501152038574e-01
1.887000000000000000e+03 7.236448669433593750e+01 -3.660170364379882812e+01 5.211719870567321777e-02 6.190546989440917969e+00 1.872799277305603027e+00 1.042333394289016724e-01
1.888000000000000000e+03 7.416456604003906250e+01 -3.154534149169921875e+01 1.916149072349071503e-02 6.550120353698730469e+00 1.970784544944763184e+00 1.409551203250885010e-01
1.889000000000000000e+03 7.701234436035156250e+01 -3.492106246948242188e+01 -7.725878967903554440e-04 6.970196247100830078e+00 2.090826988220214844e+00 5.878764763474464417e-02
1.890000000000000000e+03 7.527381896972656250e+01 -2.104694175720214844e+01 3.266753163188695908e-03 7.022490978240966797e+00 2.107727289199829102e+00 1.570850014686584473e-01
1.891000000000000000e+03 7.788354492187500000e+01 -2.783892059326171875e+01 3.765492932870984077e-03 7.263427734375000000e+00 2.180157899856567383e+00 6.391572952270507812e-02
1.892000000000000000e+03 7.834053039550781250e+01 1.934002494812011719e+01 -6.242056190967559814e-02 9.186733245849609375e+00 2.737293720245361328e+00 -2.067546844482421875e-01
1.893000000000000000e+03 7.506553649902343750e+01 2.028018951416015625e+01 -3.873570859432220459e-01 8.656194686889648438e+00 2.480651378631591797e+00 -3.784587383270263672e-01
1.894000000000000000e+03 7.270018768310546875e+01 4.132847595214843750e+01 -1.681289672851562500e+00 1.118616104125976562e+01 2.851461410522460938e+00 3.562449812889099121e-01
1.895000000000000000e+03 7.618753814697265625e+01 3.716997528076171875e+01 2.231408506631851196e-01 7.800964832305908203e+00 2.407231807708740234e+00 7.300044298171997070e-01
1.896000000000000000e+03 7.811576843261718750e+01 3.570978927612304688e+01 2.173785269260406494e-01 5.719217300415039062e+00 1.780978798866271973e+00 2.441480010747909546e-01
1.897000000000000000e+03 7.719315338134765625e+01 3.293689727783203125e+01 5.035947561264038086e-01 6.663280963897705078e+00 2.150062799453735352e+00 -5.070097446441650391e-01
1.898000000000000000e+03 7.667719268798828125e+01 -2.237440681457519531e+01 -1.472740899771451950e-03 7.232203960418701172e+00 2.169219493865966797e+00 1.117890402674674988e-01
1.899000000000000000e+03 7.631847381591796875e+01 -2.909654808044433594e+01 1.050940714776515961e-02 6.974192142486572266e+00 2.095410585403442383e+00 1.019216477870941162e-01
1.900000000000000000e+03 7.500349426269531250e+01 -3.489882278442382812e+01 2.250562235713005066e-02 6.635671138763427734e+00 1.997452974319458008e+00 8.016775548458099365e-02
1.901000000000000000e+03 7.649773406982421875e+01 -2.776857757568359375e+01 6.223402451723814011e-03 7.039958477020263672e+00 2.113854646682739258e+00 1.016872301697731018e-01
1.902000000000000000e+03 7.541739654541015625e+01 -2.378535842895507812e+01 3.778385231271386147e-03 6.965400695800781250e+00 2.090753793716430664e+00 1.453221589326858521e-01
1.903000000000000000e+03 7.661920928955078125e+01 -2.643779945373535156e+01 6.428332068026065826e-03 7.096192836761474609e+00 2.130786418914794922e+00 1.045053675770759583e-01
1.904000000000000000e+03 7.669825744628906250e+01 -2.374547004699707031e+01 1.764768152497708797e-03 7.189797878265380859e+00 2.157468795776367188e+00 1.118662953376770020e-01
1.905000000000000000e+03 7.537520599365234375e+01 -3.332723999023437500e+01 9.777071885764598846e-03 6.718038558959960938e+00 2.018344640731811523e+00 9.489201754331588745e-02
1.906000000000000000e+03 7.342794799804687500e+01 -2.869326210021972656e+01 2.640073373913764954e-02 6.501826286315917969e+00 1.958468198776245117e+00 1.737848222255706787e-01
1.907000000000000000e+03 7.607769775390625000e+01 -3.044374656677246094e+01 7.445946335792541504e-03 6.899464130401611328e+00 2.072072982788085938e+00 9.863738715648651123e-02
1.908000000000000000e+03 7.642966461181640625e+01 -3.914245605468750000e+01 -9.925143793225288391e-03 6.820735931396484375e+00 2.043243169784545898e+00 3.126557543873786926e-02
1.909000000000000000e+03 7.831404876708984375e+01 2.211392211914062500e+01 -8.772075176239013672e-02 8.830599784851074219e+00 2.622863769531250000e+00 -4.115303754806518555e-01
1.910000000000000000e+03 7.717001342773437500e+01 2.337324714660644531e+01 -2.169072628021240234e-01 8.617310523986816406e+00 2.520121097564697266e+00 -7.223615050315856934e-01
1.911000000000000000e+03 7.716912841796875000e+01 2.476870727539062500e+01 -1.991844773292541504e-01 8.419853210449218750e+00 2.466200590133666992e+00 -8.967979550361633301e-01
1.912000000000000000e+03 7.720468139648437500e+01 1.377428913116455078e+01 -4.859804734587669373e-02 8.966760635375976562e+00 2.675448656082153320e+00 3.864945843815803528e-02
1.913000000000000000e+03 7.830756378173828125e+01 1.245446205139160156e+01 -1.394720561802387238e-02 9.258451461791992188e+00 2.773351192474365234e+00 3.510580584406852722e-02
1.914000000000000000e+03 7.498562622070312500e+01 1.370008754730224609e+01 -1.310006529092788696e-01 8.351913452148437500e+00 2.466273784637451172e+00 1.214338466525077820e-01
1.915000000000000000e+03 7.722480773925781250e+01 1.513546657562255859e+01 -6.924571096897125244e-02 8.999640464782714844e+00 2.679118633270263672e+00 -1.497351843863725662e-02
1.916000000000000000e+03 7.719316101074218750e+01 2.616331100463867188e+01 -1.750501245260238647e-01 8.146518707275390625e+00 2.391440629959106445e+00 -1.066516399383544922e+00
1.917000000000000000e+03 7.831688690185546875e+01 2.628495979309082031e+01 -5.509898066520690918e-02 7.758525848388671875e+00 2.311028003692626953e+00 -7.602077722549438477e-01
1.918000000000000000e+03 7.800226593017578125e+01 -2.095982742309570312e+01 -8.835088228806853294e-04 7.514464855194091797e+00 2.254074335098266602e+00 6.880494952201843262e-02
1.919000000000000000e+03 7.665130615234375000e+01 -2.099711990356445312e+01 3.479953622445464134e-03 7.270583152770996094e+00 2.182219028472900391e+00 1.132743582129478455e-01
1.920000000000000000e+03 7.835376739501953125e+01 3.042197036743164062e+01 8.821067959070205688e-02 6.229270458221435547e+00 1.895244359970092773e+00 -7.578885555267333984e-01
1.921000000000000000e+03 7.725971984863281250e+01 2.890996932983398438e+01 1.548781152814626694e-02 7.479880809783935547e+00 2.248610496520996094e+00 -1.203368425369262695e+00
1.922000000000000000e+03 7.519976806640625000e+01 -2.880474925041198730e-01 1.016648486256599426e-02 7.766025543212890625e+00 2.332857608795166016e+00 2.531463503837585449e-01
1.923000000000000000e+03 7.808126831054687500e+01 -7.152648925781250000e+00 1.633754232898354530e-03 8.107070922851562500e+00 2.432611465454101562e+00 8.658875524997711182e-02
1.924000000000000000e+03 7.569029235839843750e+01 5.571986198425292969e+00 -1.204984914511442184e-02 8.169626235961914062e+00 2.447272777557373047e+00 2.343063354492187500e-01
1.925000000000000000e+03 7.552372741699218750e+01 -7.420652866363525391e+00 1.193422265350818634e-02 7.528806209564208984e+00 2.262222051620483398e+00 2.007206529378890991e-01
1.926000000000000000e+03 7.810906982421875000e+01 -1.404887866973876953e+01 1.267183688469231129e-03 7.798129081726074219e+00 2.339818954467773438e+00 7.148125767707824707e-02
1.927000000000000000e+03 7.439292907714843750e+01 -1.548461437225341797e+01 1.159276627004146576e-02 7.000344753265380859e+00 2.103581190109252930e+00 2.029566019773483276e-01
1.928000000000000000e+03 7.665634155273437500e+01 -1.961946105957031250e+01 3.079238114878535271e-03 7.315589904785156250e+00 2.195600748062133789e+00 1.170479133725166321e-01
1.929000000000000000e+03 7.719403076171875000e+01 2.197874259948730469e+01 -1.833147704601287842e-01 8.775144577026367188e+00 2.577548980712890625e+00 -5.435863137245178223e-01
1.930000000000000000e+03 7.818610382080078125e+01 6.917506694793701172e+00 -3.518180921673774719e-03 8.942118644714355469e+00 2.681580066680908203e+00 9.261336177587509155e-02
1.931000000000000000e+03 7.698704528808593750e+01 6.920055389404296875e+00 -1.248652301728725433e-02 8.601014137268066406e+00 2.576558113098144531e+00 1.597642600536346436e-01
1.932000000000000000e+03 7.798056793212890625e+01 -1.540531635284423828e+00 2.538998145610094070e-03 8.385487556457519531e+00 2.516407966613769531e+00 1.039632558822631836e-01
1.933000000000000000e+03 7.662902832031250000e+01 -1.646099925041198730e+00 4.043714608997106552e-03 8.051718711853027344e+00 2.416728734970092773e+00 1.771206855773925781e-01
1.934000000000000000e+03 7.682280731201171875e+01 -8.659090042114257812e+00 4.903107881546020508e-03 7.763560295104980469e+00 2.330538988113403320e+00 1.399612724781036377e-01
1.935000000000000000e+03 7.682357025146484375e+01 -1.548058891296386719e+01 3.012974746525287628e-03 7.487477779388427734e+00 2.247147321701049805e+00 1.197704523801803589e-01
1.936000000000000000e+03 7.715758514404296875e+01 3.420276641845703125e+01 5.467202663421630859e-01 6.613290786743164062e+00 2.148003339767456055e+00 -1.283189505338668823e-01
1.937000000000000000e+03 7.612172698974609375e+01 3.145538139343261719e+01 6.551288366317749023e-01 7.738739967346191406e+00 2.518160581588745117e+00 -1.100404024124145508e+00
1.938000000000000000e+03 7.722886657714843750e+01 3.161858177185058594e+01 3.650381565093994141e-01 6.825190067291259766e+00 2.157068490982055664e+00 -8.640598654747009277e-01
1.939000000000000000e+03 7.724343872070312500e+01 1.922061729431152344e+01 -1.251839548349380493e-01 8.962516784667968750e+00 2.651199817657470703e+00 -2.592911124229431152e-01
1.940000000000000000e+03 7.724940490722656250e+01 1.785663414001464844e+01 -1.095471158623695374e-01 9.003879547119140625e+00 2.668299674987792969e+00 -1.621237397193908691e-01
1.941000000000000000e+03 7.714756774902343750e+01 1.104593753814697266e+01 -2.808757685124874115e-02 8.852362632751464844e+00 2.647282600402832031e+00 1.075819209218025208e-01
1.942000000000000000e+03 7.705396270751953125e+01 8.302479743957519531e+00 -1.410320214927196503e-02 8.693103790283203125e+00 2.603700399398803711e+00 1.477129310369491577e-01
1.943000000000000000e+03 7.685680389404296875e+01 -1.410992336273193359e+01 1.613133936189115047e-03 7.546573638916015625e+00 2.264456033706665039e+00 1.218412443995475769e-01
1.944000000000000000e+03 7.680153656005859375e+01 -7.284999847412109375e+00 6.733680143952369690e-03 7.817863941192626953e+00 2.347379446029663086e+00 1.464918404817581177e-01
1.945000000000000000e+03 7.704629516601562500e+01 3.538301467895507812e+01 5.163667798042297363e-01 6.725065708160400391e+00 2.172429800033569336e+00 2.416613847017288208e-01
1.946000000000000000e+03 7.662812042236328125e+01 1.234759211540222168e+00 3.848845139145851135e-03 8.198792457580566406e+00 2.460792303085327148e+00 1.869423091411590576e-01
1.947000000000000000e+03 7.690283966064453125e+01 5.523982048034667969e+00 -4.695951007306575775e-03 8.500291824340820312e+00 2.548678636550903320e+00 1.713822335004806519e-01
1.948000000000000000e+03 7.580290985107421875e+01 6.956011772155761719e+00 -1.669091545045375824e-02 8.269781112670898438e+00 2.475927114486694336e+00 2.223884314298629761e-01
1.949000000000000000e+03 7.677172088623046875e+01 -5.900964736938476562e+00 6.285149604082107544e-03 7.874280452728271484e+00 2.364169597625732422e+00 1.542403399944305420e-01
1.950000000000000000e+03 7.667901611328125000e+01 -3.082054853439331055e+00 4.057900514453649521e-03 7.987201690673828125e+00 2.397377967834472656e+00 1.720479726791381836e-01
1.951000000000000000e+03 7.527231597900390625e+01 -1.770956993103027344e+00 7.826738990843296051e-03 7.704107284545898438e+00 2.313580274581909180e+00 2.457220554351806641e-01
1.952000000000000000e+03 7.685575103759765625e+01 -1.139002323150634766e+01 4.186641890555620193e-03 7.655339241027832031e+00 2.297857761383056641e+00 1.293159574270248413e-01
1.953000000000000000e+03 7.686419677734375000e+01 -1.274873447418212891e+01 4.445114638656377792e-03 7.602586269378662109e+00 2.282109498977661133e+00 1.249508112668991089e-01
1.954000000000000000e+03 7.684046173095703125e+01 -1.002742290496826172e+01 5.386149976402521133e-03 7.709140300750732422e+00 2.314357995986938477e+00 1.349836885929107666e-01
1.955000000000000000e+03 7.670150756835937500e+01 -1.823913192749023438e+01 3.606195794418454170e-03 7.369652271270751953e+00 2.211977481842041016e+00 1.184240207076072693e-01
1.956000000000000000e+03 2.780413627624511719e+01 -3.063040542602539062e+01 3.962601125240325928e-01 6.125356554985046387e-01 3.026387393474578857e-01 -4.255988895893096924e-01
1.957000000000000000e+03 2.275668907165527344e+01 -1.913598632812500000e+01 2.175785154104232788e-01 3.117541372776031494e-01 1.587997972965240479e-01 -3.181559741497039795e-01
1.958000000000000000e+03 2.187656784057617188e+01 -1.499469947814941406e+01 2.334193885326385498e-01 2.278376370668411255e-01 1.383771002292633057e-01 -2.463471293449401855e-01
1.959000000000000000e+03 2.078601455688476562e+01 -1.563032245635986328e+01 2.243620455265045166e-01 4.303147643804550171e-02 8.021805435419082642e-02 -2.892315089702606201e-01
1.960000000000000000e+03 3.080400848388671875e+01 -3.222178649902343750e+01 4.881659746170043945e-01 8.170636892318725586e-01 3.915688991546630859e-01 -5.197683572769165039e-01
1.961000000000000000e+03 4.033188819885253906e+00 3.695662689208984375e+01 -2.511415223125368357e-04 -7.522797584533691406e-02 -2.264373376965522766e-02 -3.546813735738396645e-03
1.962000000000000000e+03 1.949749231338500977e+00 2.730921363830566406e+01 -5.178392748348414898e-04 -1.101446375250816345e-01 -3.319874405860900879e-02 -7.942625321447849274e-03
1.963000000000000000e+03 3.599765062332153320e+00 3.120365333557128906e+01 -1.965477596968412399e-03 -8.149775117635726929e-02 -2.503896877169609070e-02 -7.905446924269199371e-03
1.964000000000000000e+03 1.906666398048400879e+00 2.591411590576171875e+01 -1.175359473563730717e-03 -1.156507208943367004e-01 -3.504782170057296753e-02 -8.668961934745311737e-03
1.965000000000000000e+03 5.587244987487792969e+00 3.372541046142578125e+01 -3.394358791410923004e-03 -5.844935774803161621e-02 -1.855311542749404907e-02 -6.799266673624515533e-03
1.966000000000000000e+03 3.774829864501953125e+00 3.261664199829101562e+01 -1.674061641097068787e-03 -7.815482467412948608e-02 -2.394866570830345154e-02 -6.969366688281297684e-03
1.967000000000000000e+03 3.111624479293823242e+00 2.428295326232910156e+01 -2.486460143700242043e-03 -1.030927747488021851e-01 -3.167377039790153503e-02 -1.451260503381490707e-02
1.968000000000000000e+03 3.458027601242065430e+00 2.982002639770507812e+01 -2.344944979995489120e-03 -8.526577055454254150e-02 -2.628321573138237000e-02 -9.389709681272506714e-03
1.969000000000000000e+03 5.827330589294433594e+00 3.888962936401367188e+01 -3.469403367489576340e-03 -5.411992594599723816e-02 -1.727679930627346039e-02 -1.158552127890288830e-03
1.970000000000000000e+03 2.551072597503662109e+00 3.699213027954101562e+01 -4.156565410085022449e-04 -8.601190149784088135e-02 -2.592826820909976959e-02 -4.219628404825925827e-03
1.971000000000000000e+03 3.965546846389770508e+00 3.405053710937500000e+01 -1.456605968996882439e-03 -7.445897161960601807e-02 -2.277467399835586548e-02 -5.912164691835641861e-03
1.972000000000000000e+03 6.354493141174316406e+00 2.917253112792968750e+01 -5.457955412566661835e-03 -5.189172923564910889e-02 -1.720490492880344391e-02 -1.259631104767322540e-02
1.973000000000000000e+03 4.664331912994384766e+00 -3.383115005493164062e+01 2.582735382020473480e-02 -1.297742128372192383e+00 -3.815744519233703613e-01 -8.174186199903488159e-02
1.974000000000000000e+03 3.542320489883422852e+00 -3.731254577636718750e+01 3.228165209293365479e-02 -1.436045646667480469e+00 -4.211292266845703125e-01 -3.536800295114517212e-02
1.975000000000000000e+03 4.101708412170410156e+00 -3.240642547607421875e+01 1.860253699123859406e-02 -1.331389427185058594e+00 -3.938360810279846191e-01 -8.672611415386199951e-02
1.976000000000000000e+03 2.137605190277099609e+00 -3.007533264160156250e+01 8.521204814314842224e-03 -1.468670845031738281e+00 -4.380449056625366211e-01 -5.989887192845344543e-02
1.977000000000000000e+03 3.338531494140625000e+00 -2.842923355102539062e+01 2.103163115680217743e-02 -1.305826783180236816e+00 -3.854385614395141602e-01 -1.119882911443710327e-01
1.978000000000000000e+03 3.279618740081787109e+00 -2.577507591247558594e+01 1.986446976661682129e-02 -1.223014831542968750e+00 -3.609451055526733398e-01 -1.393765062093734741e-01
1.979000000000000000e+03 1.770985364913940430e+00 2.169338226318359375e+01 -2.250690304208546877e-04 -1.367461532354354858e-01 -4.109136760234832764e-02 -1.161540299654006958e-02
1.980000000000000000e+03 2.788507699966430664e+00 -1.058777999877929688e+01 -1.915424875915050507e-02 -3.961816728115081787e-01 -1.246007829904556274e-01 -2.110903710126876831e-01
1.981000000000000000e+03 3.144422531127929688e+00 -1.745571136474609375e+01 1.888368092477321625e-02 -8.390065431594848633e-01 -2.460368573665618896e-01 -2.239453643560409546e-01
1.982000000000000000e+03 1.816834807395935059e+00 -1.478722476959228516e+01 9.336137009086087346e-05 -6.935753822326660156e-01 -2.080446034669876099e-01 -1.498551666736602783e-01
1.983000000000000000e+03 2.836996793746948242e+00 1.869074058532714844e+01 -1.182484906166791916e-03 -1.279218494892120361e-01 -3.873129934072494507e-02 -1.838382333517074585e-02
1.984000000000000000e+03 2.701764106750488281e+00 1.319479846954345703e+01 7.181382272392511368e-03 -1.512511968612670898e-01 -4.322094470262527466e-02 -8.711809292435646057e-03
1.985000000000000000e+03 2.943556070327758789e+00 2.147088432312011719e+01 -2.143336227163672447e-03 -1.149383634328842163e-01 -3.512451052665710449e-02 -1.690888032317161560e-02
1.986000000000000000e+03 3.185641527175903320e+00 -1.884906768798828125e+01 1.786609552800655365e-02 -9.130205512046813965e-01 -2.685463428497314453e-01 -2.081978172063827515e-01
1.987000000000000000e+03 2.900143384933471680e+00 -1.193063545227050781e+01 -5.432917736470699310e-03 -4.898451864719390869e-01 -1.485834270715713501e-01 -2.289635688066482544e-01
1.988000000000000000e+03 1.523541927337646484e+00 -7.962381362915039062e+00 -1.079570688307285309e-02 -1.966533958911895752e-01 -6.223472952842712402e-02 -9.450092166662216187e-02
1.989000000000000000e+03 3.420297145843505859e+00 -4.832018375396728516e+00 -6.933750212192535400e-02 -9.689807146787643433e-02 -4.987066984176635742e-02 -1.045021489262580872e-01
1.990000000000000000e+03 3.996706724166870117e+00 5.721830844879150391e+00 2.906285226345062256e-02 -1.144571229815483093e-01 -2.561828121542930603e-02 9.009601920843124390e-02
1.991000000000000000e+03 2.575963497161865234e+00 9.160747528076171875e+00 1.953812129795551300e-02 -1.513628065586090088e-01 -3.954740613698959351e-02 2.581714093685150146e-02
1.992000000000000000e+03 1.655940532684326172e+00 1.610491752624511719e+01 1.279208576306700706e-03 -1.716717630624771118e-01 -5.111776292324066162e-02 -1.236563455313444138e-02
1.993000000000000000e+03 2.801828861236572266e+00 1.731289291381835938e+01 8.530492195859551430e-04 -1.343059539794921875e-01 -4.003586992621421814e-02 -1.863956265151500702e-02
1.994000000000000000e+03 2.608384609222412109e+00 1.049569988250732422e+01 1.552227418869733810e-02 -1.555690765380859375e-01 -4.201404005289077759e-02 1.143706496804952621e-02
1.995000000000000000e+03 2.557135343551635742e+00 -7.999233722686767578e+00 -3.366762027144432068e-02 -2.295283526182174683e-01 -7.895879447460174561e-02 -1.561528295278549194e-01
1.996000000000000000e+03 1.931297898292541504e+00 -4.409357547760009766e+00 -2.177140861749649048e-02 -5.006488412618637085e-02 -2.155088819563388824e-02 -3.985984623432159424e-02
1.997000000000000000e+03 3.250819921493530273e+00 -2.164046287536621094e+01 1.980913430452346802e-02 -1.051169753074645996e+00 -3.094081878662109375e-01 -1.800048798322677612e-01
1.998000000000000000e+03 5.604804992675781250e+00 -3.680365371704101562e+01 4.652020335197448730e-02 -1.248532772064208984e+00 -3.606037795543670654e-01 -6.134074553847312927e-02
1.999000000000000000e+03 2.663155794143676758e+00 -9.273259162902832031e+00 -2.282884158194065094e-02 -3.122300803661346436e-01 -1.005176752805709839e-01 -1.859677582979202271e-01
2.000000000000000000e+03 3.099708080291748047e+00 -1.606392288208007812e+01 1.175199728459119797e-02 -7.540648579597473145e-01 -2.226938605308532715e-01 -2.301761806011199951e-01
2.001000000000000000e+03 3.048129081726074219e+00 -1.467853164672851562e+01 9.661373682320117950e-03 -6.702548861503601074e-01 -1.981780529022216797e-01 -2.389721572399139404e-01
2.002000000000000000e+03 1.950596809387207031e+00 -2.318159294128417969e+01 7.072293665260076523e-03 -1.218358278274536133e+00 -3.633857667446136475e-01 -1.019549444317817688e-01
2.003000000000000000e+03 6.073348522186279297e+00 -3.305736541748046875e+01 4.481432586908340454e-02 -1.175780534744262695e+00 -3.392898738384246826e-01 -1.170961260795593262e-01
2.004000000000000000e+03 4.620440483093261719e+00 -2.563689994812011719e+01 3.410334885120391846e-02 -1.114110469818115234e+00 -3.240021467208862305e-01 -1.802740097045898438e-01
2.005000000000000000e+03 2.654483079910278320e+00 1.184082984924316406e+01 1.193775329738855362e-02 -1.544561684131622314e-01 -4.275552183389663696e-02 -1.286488492041826248e-03
2.006000000000000000e+03 3.803109884262084961e+00 1.304509258270263672e+01 1.431625708937644958e-02 -1.189658790826797485e-01 -3.139488771557807922e-02 -1.123020146042108536e-02
2.007000000000000000e+03 3.853966951370239258e+00 1.439979839324951172e+01 7.956940680742263794e-03 -1.143523603677749634e-01 -3.191862627863883972e-02 -1.661166176199913025e-02
2.008000000000000000e+03 2.881658315658569336e+00 2.007592773437500000e+01 -8.700152975507080555e-04 -1.214745640754699707e-01 -3.670337423682212830e-02 -1.800813153386116028e-02
2.009000000000000000e+03 3.024338483810424805e+00 2.287455940246582031e+01 -1.526237814687192440e-03 -1.086177900433540344e-01 -3.304320946335792542e-02 -1.576534099876880646e-02
2.010000000000000000e+03 1.576456546783447266e+01 -6.582983970642089844e+00 -3.401767611503601074e-01 -1.030559301376342773e+00 -4.112208485603332520e-01 -8.723304271697998047e-01
2.011000000000000000e+03 3.914793777465820312e+01 -1.983549308776855469e+01 -5.602835863828659058e-02 -1.198320984840393066e-01 -5.275813862681388855e-02 1.476323008537292480e-01
2.012000000000000000e+03 3.075170326232910156e+01 -3.426245498657226562e+01 5.400136113166809082e-01 6.924663782119750977e-01 3.697440028190612793e-01 -4.737022519111633301e-01
2.013000000000000000e+03 5.856386566162109375e+01 3.812587738037109375e+01 2.636157274246215820e-01 -2.749058902263641357e-01 -3.387049771845340729e-03 5.443079471588134766e-01
2.014000000000000000e+03 5.759553527832031250e+01 3.780509567260742188e+01 -2.413491718471050262e-02 -2.648867070674896240e-01 -8.670648187398910522e-02 4.820742011070251465e-01
2.015000000000000000e+03 3.403718948364257812e+01 -1.153853607177734375e+01 2.628401517868041992e-01 -3.099452257156372070e-01 -1.413151994347572327e-02 -5.354041233658790588e-02
2.016000000000000000e+03 6.177868270874023438e+01 3.851102447509765625e+01 6.165836453437805176e-01 1.126707673072814941e+00 5.229874253273010254e-01 2.513308264315128326e-02
2.017000000000000000e+03 1.784136772155761719e+01 -1.059467601776123047e+01 1.977466046810150146e-01 -6.710661053657531738e-01 -1.419958472251892090e-01 -3.949222862720489502e-01
2.018000000000000000e+03 4.475438308715820312e+01 -2.943958473205566406e+01 -1.765190362930297852e-01 1.031211853027343750e+00 2.564078569412231445e-01 6.193729117512702942e-02
2.019000000000000000e+03 2.457612037658691406e+01 1.831414461135864258e+00 -2.584499835968017578e+00 -3.657485246658325195e-01 -8.850745558738708496e-01 -1.053456068038940430e+00
2.020000000000000000e+03 2.886343765258789062e+01 -4.294582843780517578e+00 9.405622482299804688e-01 -1.745403110980987549e-01 2.298065721988677979e-01 -3.491164147853851318e-01
2.021000000000000000e+03 2.959843826293945312e+01 -3.324679565429687500e+01 5.030502080917358398e-01 6.620337367057800293e-01 3.495251536369323730e-01 -4.395333528518676758e-01
2.022000000000000000e+03 1.749225997924804688e+01 -4.790715217590332031e+00 -6.062545180320739746e-01 -1.819846749305725098e+00 -7.278303503990173340e-01 -9.786214828491210938e-01
2.023000000000000000e+03 1.650720024108886719e+01 -5.288156986236572266e+00 -5.610098242759704590e-01 -1.289142847061157227e+00 -5.550458431243896484e-01 -9.965597391128540039e-01
2.024000000000000000e+03 4.527182769775390625e+01 -3.063097190856933594e+01 -1.739443093538284302e-01 1.213345170021057129e+00 3.118202388286590576e-01 1.197708621621131897e-01
2.025000000000000000e+03 1.733445167541503906e+01 -9.079566001892089844e+00 1.584715545177459717e-01 -8.445249199867248535e-01 -2.058160006999969482e-01 -4.385605454444885254e-01
2.026000000000000000e+03 2.944826316833496094e+01 -5.210357189178466797e+00 8.773864507675170898e-01 -1.607280075550079346e-01 2.149975299835205078e-01 -3.475398421287536621e-01
2.027000000000000000e+03 4.817441558837890625e+01 -3.463426971435546875e+01 4.038891792297363281e-01 2.190588474273681641e+00 7.783433198928833008e-01 5.234823822975158691e-01
2.028000000000000000e+03 4.971506500244140625e+01 -2.892336845397949219e+01 -5.773153901100158691e-02 2.286203384399414062e+00 6.685416102409362793e-01 2.564313411712646484e-01
2.029000000000000000e+03 4.750874328613281250e+01 -3.635276794433593750e+01 6.764013171195983887e-01 2.058994293212890625e+00 8.206186294555664062e-01 5.130114555358886719e-01
2.030000000000000000e+03 4.952422142028808594e+00 4.066253662109375000e+01 -3.282481804490089417e-03 -6.523135304450988770e-02 -2.055415138602256775e-02 1.128152245655655861e-03
2.031000000000000000e+03 2.504226112365722656e+01 2.167129993438720703e+00 -2.674284219741821289e+00 -4.818401336669921875e-01 -9.468373060226440430e-01 -1.071670889854431152e+00
2.032000000000000000e+03 2.523888778686523438e+01 2.766114950180053711e+00 -3.000401735305786133e+00 -6.906916499137878418e-01 -1.107328057289123535e+00 -1.314708828926086426e+00
2.033000000000000000e+03 2.445794677734375000e+01 2.184494018554687500e+00 -2.996438026428222656e+00 -5.544409751892089844e-01 -1.065263748168945312e+00 -1.304616332054138184e+00
2.034000000000000000e+03 2.373974037170410156e+01 1.545721292495727539e+00 -2.851179599761962891e+00 -3.953433632850646973e-01 -9.739568829536437988e-01 -1.361330986022949219e+00
2.035000000000000000e+03 2.470329093933105469e+01 2.758405685424804688e+00 -3.268846273422241211e+00 -6.754160523414611816e-01 -1.183278679847717285e+00 -1.473447442054748535e+00
2.036000000000000000e+03 2.566334724426269531e+01 3.127646923065185547e+00 -3.009206056594848633e+00 -7.569233775138854980e-01 -1.129838824272155762e+00 -1.381537675857543945e+00
2.037000000000000000e+03 2.285845565795898438e+01 1.245996236801147461e+00 -2.835993289947509766e+00 -2.874710857868194580e-01 -9.370393157005310059e-01 -1.716103911399841309e+00
2.038000000000000000e+03 2.415305900573730469e+01 2.423090696334838867e+00 -3.333776712417602539e+00 -6.988403797149658203e-01 -1.209785103797912598e+00 -1.567386388778686523e+00
2.039000000000000000e+03 2.603696250915527344e+01 3.251272678375244141e+00 -2.854876518249511719e+00 -7.996998429298400879e-01 -1.096372961997985840e+00 -1.328545689582824707e+00
2.040000000000000000e+03 2.783221054077148438e+01 4.288811206817626953e+00 -2.488333463668823242e+00 -1.185135722160339355e+00 -1.102040767669677734e+00 -1.294325947761535645e+00
2.041000000000000000e+03 2.858914375305175781e+01 4.505578041076660156e+00 -2.242103099822998047e+00 -1.256548762321472168e+00 -1.049595475196838379e+00 -1.127159118652343750e+00
2.042000000000000000e+03 2.818934631347656250e+01 4.563008308410644531e+00 -2.418615579605102539e+00 -1.299528002738952637e+00 -1.115443110466003418e+00 -1.299402952194213867e+00
2.043000000000000000e+03 2.842400169372558594e+01 4.334999084472656250e+00 -2.242281675338745117e+00 -1.228727579116821289e+00 -1.041302800178527832e+00 -1.119363903999328613e+00
2.044000000000000000e+03 2.861709022521972656e+01 5.000636100769042969e+00 -2.360241651535034180e+00 -1.455400347709655762e+00 -1.144692540168762207e+00 -1.291777014732360840e+00
2.045000000000000000e+03 2.876411819458007812e+01 5.110839843750000000e+00 -2.310756921768188477e+00 -1.454451799392700195e+00 -1.129562616348266602e+00 -1.269072413444519043e+00
2.046000000000000000e+03 6.555571746826171875e+01 3.205455780029296875e+01 1.699084639549255371e+00 3.025988578796386719e+00 1.417521953582763672e+00 3.745202064514160156e+00
2.047000000000000000e+03 6.649560546875000000e+01 3.189744758605957031e+01 1.632679462432861328e+00 8.013453483581542969e+00 2.893839836120605469e+00 5.781995296478271484e+00
2.048000000000000000e+03 6.861712646484375000e+01 3.218978500366210938e+01 1.196004390716552734e+00 1.846669006347656250e+01 5.898808479309082031e+00 -3.850486576557159424e-01
2.049000000000000000e+03 6.996315002441406250e+01 3.286261749267578125e+01 4.908799171447753906e+00 1.430687522888183594e+01 5.764702320098876953e+00 -1.917400717735290527e+00
2.050000000000000000e+03 6.929294586181640625e+01 3.281002807617187500e+01 4.976602554321289062e+00 1.667689514160156250e+01 6.496048927307128906e+00 -2.316228866577148438e+00
2.051000000000000000e+03 6.922157287597656250e+01 3.510418319702148438e+01 4.725417613983154297e+00 1.691626358032226562e+01 6.492504119873046875e+00 2.606608152389526367e+00
2.052000000000000000e+03 6.945464324951171875e+01 3.459826660156250000e+01 6.948081970214843750e+00 1.571013069152832031e+01 6.797463893890380859e+00 1.982165575027465820e+00
2.053000000000000000e+03 6.935501098632812500e+01 3.304584121704101562e+01 6.187718868255615234e+00 1.631381416320800781e+01 6.750459671020507812e+00 -2.268762588500976562e+00
2.054000000000000000e+03 6.988166809082031250e+01 3.342598342895507812e+01 6.712032794952392578e+00 1.420283412933349609e+01 6.274459838867187500e+00 -1.182026147842407227e+00
2.055000000000000000e+03 7.003739166259765625e+01 3.371057128906250000e+01 6.775019168853759766e+00 1.367914295196533203e+01 6.136248588562011719e+00 -4.636724293231964111e-01
2.056000000000000000e+03 6.979288482666015625e+01 3.479545593261718750e+01 5.792984962463378906e+00 1.469020748138427734e+01 6.144958019256591797e+00 1.960150122642517090e+00
2.057000000000000000e+03 2.286612510681152344e+01 3.272959887981414795e-01 -1.487412810325622559e+00 3.861863017082214355e-01 -3.303679227828979492e-01 -1.281787037849426270e+00
2.058000000000000000e+03 2.228156471252441406e+01 9.179610610008239746e-01 -2.443872928619384766e+00 -3.136661648750305176e-01 -8.272617459297180176e-01 -2.082659721374511719e+00
2.059000000000000000e+03 2.366904449462890625e+01 -1.403674125671386719e+00 1.618665099143981934e+00 8.990352153778076172e-01 7.553101181983947754e-01 -9.568395614624023438e-01
2.060000000000000000e+03 2.323797988891601562e+01 1.170992776751518250e-01 -1.081154704093933105e+00 3.423014581203460693e-01 -2.216559797525405884e-01 -8.555716276168823242e-01
2.061000000000000000e+03 1.417428874969482422e+01 5.471713542938232422e+00 9.917452186346054077e-02 5.848971605300903320e-01 2.052215039730072021e-01 2.044680863618850708e-01
2.062000000000000000e+03 6.591052246093750000e+01 3.562120819091796875e+01 2.045341968536376953e+00 3.406705141067504883e+00 1.635614156723022461e+00 -3.939015865325927734e+00
2.063000000000000000e+03 6.451317596435546875e+01 3.727316665649414062e+01 9.284104704856872559e-01 3.036059379577636719e+00 1.189340949058532715e+00 -2.048191547393798828e+00
2.064000000000000000e+03 6.596519470214843750e+01 3.580830383300781250e+01 2.105542182922363281e+00 4.452904701232910156e+00 1.967534065246582031e+00 -4.249166965484619141e+00
2.065000000000000000e+03 6.566939544677734375e+01 3.606490325927734375e+01 1.631462693214416504e+00 3.862276077270507812e+00 1.648121595382690430e+00 -3.707053184509277344e+00
2.066000000000000000e+03 6.507981109619140625e+01 3.621211242675781250e+01 1.229964137077331543e+00 3.006310701370239258e+00 1.270882487297058105e+00 -2.810629844665527344e+00
2.067000000000000000e+03 6.642771911621093750e+01 3.595539093017578125e+01 1.592509627342224121e+00 7.788816452026367188e+00 2.814397811889648438e+00 -5.211238384246826172e+00
2.068000000000000000e+03 2.987204933166503906e+01 5.359659194946289062e+00 -2.045992851257324219e+00 -1.144806981086730957e+00 -9.572399258613586426e-01 -1.067376494407653809e+00
2.069000000000000000e+03 1.929348945617675781e+01 -7.527554035186767578e-01 -3.247698068618774414e+00 -3.291955232620239258e+00 -1.961895942687988281e+00 -2.034054517745971680e+00
2.070000000000000000e+03 1.951948165893554688e+01 -4.492670893669128418e-01 -3.022365331649780273e+00 -4.561788558959960938e+00 -2.275246143341064453e+00 -2.016988754272460938e+00
2.071000000000000000e+03 6.430773162841796875e+01 3.188548660278320312e+01 5.178439617156982422e-01 1.141793251037597656e+00 4.978911578655242920e-01 1.830916285514831543e+00
2.072000000000000000e+03 3.140482330322265625e+01 2.389107322692871094e+01 5.170647799968719482e-02 7.645571231842041016e-02 3.844865784049034119e-02 6.641805171966552734e-02
2.073000000000000000e+03 1.939109230041503906e+01 1.064582538604736328e+01 1.198004037141799927e-01 1.613897383213043213e-01 8.435704559087753296e-02 1.423116773366928101e-01
2.074000000000000000e+03 3.293696212768554688e+01 2.400316619873046875e+01 5.299150571227073669e-02 7.390887290239334106e-02 3.807011246681213379e-02 6.392228603363037109e-02
2.075000000000000000e+03 3.114632225036621094e+01 2.264502525329589844e+01 5.569478496909141541e-02 7.560820132493972778e-02 3.939089551568031311e-02 7.011739909648895264e-02
2.076000000000000000e+03 1.819149780273437500e+01 9.411384582519531250e+00 1.343422234058380127e-01 1.916475594043731689e-01 9.779693931341171265e-02 1.509881168603897095e-01
2.077000000000000000e+03 4.064297485351562500e+01 2.007860374450683594e+01 -1.137204885482788086e+00 -1.217696905136108398e+00 -7.064704895019531250e-01 -1.291643023490905762e+00
2.078000000000000000e+03 1.632251167297363281e+01 7.485255718231201172e+00 1.425069421529769897e-01 2.616652250289916992e-01 1.212516501545906067e-01 1.881526261568069458e-01
2.079000000000000000e+03 1.691509246826171875e+01 7.631327152252197266e+00 1.502939164638519287e-01 2.225027978420257568e-01 1.118390113115310669e-01 1.900826245546340942e-01
2.080000000000000000e+03 4.086992263793945312e+01 2.040447235107421875e+01 -1.159107089042663574e+00 -1.225896477699279785e+00 -7.155010700225830078e-01 -1.290443301200866699e+00
2.081000000000000000e+03 4.105224609375000000e+01 2.123499298095703125e+01 -1.284090161323547363e+00 -1.265153527259826660e+00 -7.647731304168701172e-01 -1.314457178115844727e+00
2.082000000000000000e+03 3.506055831909179688e+01 1.366031169891357422e+01 -1.282015085220336914e+00 -1.437898635864257812e+00 -8.159741163253784180e-01 -1.323594212532043457e+00
2.083000000000000000e+03 2.040126037597656250e+01 1.129449558258056641e+01 1.212422475218772888e-01 1.479804664850234985e-01 8.076681941747665405e-02 1.331122666597366333e-01
2.084000000000000000e+03 1.990118598937988281e+01 1.140183544158935547e+01 1.146755516529083252e-01 1.515991836786270142e-01 7.988242059946060181e-02 1.331647336483001709e-01
2.085000000000000000e+03 2.490122604370117188e+01 1.598399257659912109e+01 9.213529527187347412e-02 1.066716238856315613e-01 5.964207649230957031e-02 1.025289222598075867e-01
2.086000000000000000e+03 3.950397872924804688e+01 1.936542320251464844e+01 -1.145161867141723633e+00 -1.288560032844543457e+00 -7.301165461540222168e-01 -1.310986638069152832e+00
2.087000000000000000e+03 2.582320022583007812e+01 1.689949989318847656e+01 9.076720476150512695e-02 1.039158627390861511e-01 5.840492248535156250e-02 9.606535732746124268e-02
2.088000000000000000e+03 4.159674835205078125e+01 2.178694343566894531e+01 -1.380840301513671875e+00 -1.286138892173767090e+00 -8.000937700271606445e-01 -1.322557806968688965e+00
2.089000000000000000e+03 1.701525878906250000e+01 7.954174518585205078e+00 1.495823562145233154e-01 2.181837856769561768e-01 1.103298440575599670e-01 1.806416213512420654e-01
2.090000000000000000e+03 3.349728393554687500e+01 2.452280998229980469e+01 5.203347280621528625e-02 7.402897626161575317e-02 3.781873360276222229e-02 6.404891610145568848e-02
2.091000000000000000e+03 3.602633285522460938e+01 2.766112518310546875e+01 5.298874899744987488e-02 6.987878680229187012e-02 3.686026111245155334e-02 6.055687367916107178e-02
2.092000000000000000e+03 3.480955886840820312e+01 1.445412254333496094e+01 -1.352877974510192871e+00 -1.549713730812072754e+00 -8.707774877548217773e-01 -1.433373332023620605e+00
2.093000000000000000e+03 4.655217361450195312e+01 2.522180557250976562e+01 -1.289340257644653320e+00 -1.062436580657958984e+00 -7.055330872535705566e-01 -1.207128524780273438e+00
2.094000000000000000e+03 3.828776168823242188e+01 1.823845863342285156e+01 -1.221873998641967773e+00 -1.482987165451049805e+00 -8.114583492279052734e-01 -1.338099360466003418e+00
2.095000000000000000e+03 4.625432968139648438e+01 2.552544021606445312e+01 -1.347898721694946289e+00 -1.151005148887634277e+00 -7.496711611747741699e-01 -1.281111001968383789e+00
2.096000000000000000e+03 2.125362968444824219e+01 1.255271434783935547e+01 1.098380163311958313e-01 1.418499201536178589e-01 7.550638169050216675e-02 1.249681338667869568e-01
2.097000000000000000e+03 6.316397857666015625e+01 3.138747787475585938e+01 6.931944936513900757e-02 9.000732898712158203e-01 2.908178269863128662e-01 1.148312449455261230e+00
2.098000000000000000e+03 3.155915451049804688e+01 1.096678543090820312e+01 -1.463665604591369629e+00 -1.472870349884033203e+00 -8.809607625007629395e-01 -1.371592879295349121e+00
2.099000000000000000e+03 3.268581771850585938e+01 1.149660301208496094e+01 -1.395488023757934570e+00 -1.421545982360839844e+00 -8.451101779937744141e-01 -1.345780491828918457e+00
2.100000000000000000e+03 4.680348205566406250e+01 2.609676170349121094e+01 -1.319409608840942383e+00 -1.130906105041503906e+00 -7.350947260856628418e-01 -1.274934172630310059e+00
2.101000000000000000e+03 3.457920837402343750e+01 2.596662330627441406e+01 5.249728634953498840e-02 7.438159734010696411e-02 3.806366398930549622e-02 6.076171621680259705e-02
2.102000000000000000e+03 3.468058776855468750e+01 2.633483505249023438e+01 4.908126965165138245e-02 7.393021881580352783e-02 3.690344840288162231e-02 6.102185696363449097e-02
2.103000000000000000e+03 1.785470581054687500e+01 9.147910118103027344e+00 1.359099447727203369e-01 1.948581337928771973e-01 9.923042356967926025e-02 1.564583778381347656e-01
2.104000000000000000e+03 1.714268684387207031e+01 8.320170402526855469e+00 1.435921192169189453e-01 2.137003690004348755e-01 1.071877479553222656e-01 1.752556711435317993e-01
2.105000000000000000e+03 3.442717742919921875e+01 2.563394737243652344e+01 5.123579129576683044e-02 7.425649464130401611e-02 3.764768689870834351e-02 6.161322444677352905e-02
2.106000000000000000e+03 3.371323013305664062e+01 2.525175666809082031e+01 5.251098424196243286e-02 7.432033121585845947e-02 3.804939612746238708e-02 6.204288825392723083e-02
2.107000000000000000e+03 2.176091003417968750e+01 1.308473491668701172e+01 1.092394366860389709e-01 1.363817006349563599e-01 7.368633896112442017e-02 1.210404410958290100e-01
2.108000000000000000e+03 2.519037246704101562e+01 1.688894081115722656e+01 8.683206140995025635e-02 1.055735945701599121e-01 5.772169679403305054e-02 9.651548415422439575e-02
2.109000000000000000e+03 3.172671318054199219e+01 2.357594108581542969e+01 5.330235138535499573e-02 7.421176880598068237e-02 3.825423493981361389e-02 6.715841591358184814e-02
2.110000000000000000e+03 3.175170135498046875e+01 2.303167152404785156e+01 5.519583821296691895e-02 7.291094213724136353e-02 3.843203559517860413e-02 6.841176748275756836e-02
2.111000000000000000e+03 4.327942657470703125e+01 2.286183738708496094e+01 -1.380967259407043457e+00 -1.259058713912963867e+00 -7.920077443122863770e-01 -1.328717827796936035e+00
2.112000000000000000e+03 4.273781967163085938e+01 2.285046768188476562e+01 -1.451163768768310547e+00 -1.287468671798706055e+00 -8.215897679328918457e-01 -1.380487322807312012e+00
2.113000000000000000e+03 4.735011291503906250e+01 2.613730621337890625e+01 -1.266899943351745605e+00 -1.046177983283996582e+00 -6.939233541488647461e-01 -1.204793095588684082e+00
2.114000000000000000e+03 3.532555389404296875e+01 1.449001502990722656e+01 -1.300301432609558105e+00 -1.495129585266113281e+00 -8.386293053627014160e-01 -1.381586432456970215e+00
2.115000000000000000e+03 3.800733947753906250e+01 1.795379066467285156e+01 -1.243685603141784668e+00 -1.528441786766052246e+00 -8.316382169723510742e-01 -1.348462462425231934e+00
2.116000000000000000e+03 4.509550094604492188e+01 2.498964691162109375e+01 -1.467253208160400391e+00 -1.330467462539672852e+00 -8.393161892890930176e-01 -1.359491586685180664e+00
2.117000000000000000e+03 4.595878219604492188e+01 2.525255584716796875e+01 -1.367390275001525879e+00 -1.173737525939941406e+00 -7.623383402824401855e-01 -1.283165574073791504e+00
2.118000000000000000e+03 3.114576148986816406e+01 2.180377960205078125e+01 6.106943264603614807e-02 7.552193850278854370e-02 4.097741097211837769e-02 6.967016309499740601e-02
2.119000000000000000e+03 4.731070327758789062e+01 2.667664718627929688e+01 -1.314908742904663086e+00 -1.124508738517761230e+00 -7.318252325057983398e-01 -1.261183857917785645e+00
2.120000000000000000e+03 4.787454223632812500e+01 2.774096298217773438e+01 -1.401468634605407715e+00 -1.182674884796142578e+00 -7.752430438995361328e-01 -1.296409487724304199e+00
2.121000000000000000e+03 3.401877975463867188e+01 1.358003139495849609e+01 -1.381653666496276855e+00 -1.558192610740661621e+00 -8.819538950920104980e-01 -1.419410943984985352e+00
2.122000000000000000e+03 3.506485366821289062e+01 1.420030307769775391e+01 -1.312510609626770020e+00 -1.490553498268127441e+00 -8.409192562103271484e-01 -1.381979346275329590e+00
2.123000000000000000e+03 4.357027053833007812e+01 2.312442016601562500e+01 -1.385270833969116211e+00 -1.270957589149475098e+00 -7.968685030937194824e-01 -1.328382968902587891e+00
2.124000000000000000e+03 3.778913497924804688e+01 2.979530715942382812e+01 5.554753914475440979e-02 6.417092680931091309e-02 3.591553866863250732e-02 5.472586303949356079e-02
2.125000000000000000e+03 3.761568832397460938e+01 3.013223838806152344e+01 5.413259938359260559e-02 6.352546811103820801e-02 3.529741987586021423e-02 5.473593994975090027e-02
2.126000000000000000e+03 2.068904304504394531e+01 1.153671360015869141e+01 1.197688058018684387e-01 1.488165706396102905e-01 8.057561516761779785e-02 1.305182576179504395e-01
2.127000000000000000e+03 2.994908332824707031e+01 2.092509841918945312e+01 6.947837024927139282e-02 8.041347563266754150e-02 4.496755450963973999e-02 7.438378781080245972e-02
2.128000000000000000e+03 2.903601646423339844e+01 2.072885894775390625e+01 6.732416898012161255e-02 8.470223098993301392e-02 4.560792073607444763e-02 7.688678056001663208e-02
2.129000000000000000e+03 4.270430755615234375e+01 2.234152793884277344e+01 -1.371163368225097656e+00 -1.246026635169982910e+00 -7.851570248603820801e-01 -1.313653469085693359e+00
2.130000000000000000e+03 4.756356430053710938e+01 2.695413970947265625e+01 -1.321506142616271973e+00 -1.121939778327941895e+00 -7.330337762832641602e-01 -1.255714297294616699e+00
2.131000000000000000e+03 3.558554840087890625e+01 1.477994155883789062e+01 -1.280148863792419434e+00 -1.497951626777648926e+00 -8.334301114082336426e-01 -1.383962750434875488e+00
2.132000000000000000e+03 3.586356735229492188e+01 1.562107086181640625e+01 -1.301292657852172852e+00 -1.563368797302246094e+00 -8.593984246253967285e-01 -1.419585108757019043e+00
2.133000000000000000e+03 2.965305900573730469e+01 2.125542640686035156e+01 6.496108323335647583e-02 8.206531405448913574e-02 4.410792142152786255e-02 7.403595000505447388e-02
2.134000000000000000e+03 2.773319244384765625e+01 1.952248382568359375e+01 7.250245660543441772e-02 9.259452670812606812e-02 4.952909424901008606e-02 8.310028165578842163e-02
2.135000000000000000e+03 2.867491912841796875e+01 1.985521697998046875e+01 7.405655831098556519e-02 8.657181262969970703e-02 4.818851128220558167e-02 8.087186515331268311e-02
2.136000000000000000e+03 2.252751541137695312e+01 1.344481372833251953e+01 1.129267811775207520e-01 1.322131603956222534e-01 7.354198396205902100e-02 1.192423924803733826e-01
2.137000000000000000e+03 2.200568008422851562e+01 1.336438560485839844e+01 1.081758886575698853e-01 1.339609473943710327e-01 7.264104485511779785e-02 1.188372448086738586e-01
2.138000000000000000e+03 1.866714477539062500e+01 1.064149379730224609e+01 1.111133024096488953e-01 1.745864599943161011e-01 8.570992946624755859e-02 1.393166333436965942e-01
2.139000000000000000e+03 2.748069572448730469e+01 1.918976593017578125e+01 7.504501938819885254e-02 9.445177018642425537e-02 5.084903538227081299e-02 8.430817723274230957e-02
2.140000000000000000e+03 2.550633049011230469e+01 1.716685104370117188e+01 8.600042760372161865e-02 1.045985147356987000e-01 5.717968195676803589e-02 9.427127242088317871e-02
2.141000000000000000e+03 2.831290435791015625e+01 2.021726036071777344e+01 6.870936602354049683e-02 8.880794048309326172e-02 4.725519195199012756e-02 7.980091124773025513e-02
2.142000000000000000e+03 2.869147300720214844e+01 2.047008705139160156e+01 6.796931475400924683e-02 8.690917491912841797e-02 4.646354541182518005e-02 7.793454080820083618e-02
2.143000000000000000e+03 4.386211395263671875e+01 2.338820075988769531e+01 -1.390852212905883789e+00 -1.282259583473205566e+00 -8.019335269927978516e-01 -1.324413061141967773e+00
2.144000000000000000e+03 4.994309234619140625e+01 2.957672882080078125e+01 -1.341795921325683594e+00 -1.051174044609069824e+00 -7.178909778594970703e-01 -1.185121059417724609e+00
2.145000000000000000e+03 5.048342514038085938e+01 2.953564071655273438e+01 -1.281387686729431152e+00 -8.874225616455078125e-01 -6.506430506706237793e-01 -1.079814910888671875e+00
2.146000000000000000e+03 4.903256607055664062e+01 2.878058242797851562e+01 -1.400739312171936035e+00 -1.140475273132324219e+00 -7.623643875122070312e-01 -1.246870398521423340e+00
2.147000000000000000e+03 4.984629058837890625e+01 2.900646209716796875e+01 -1.316879153251647949e+00 -9.741054773330688477e-01 -6.872953772544860840e-01 -1.132737040519714355e+00
2.148000000000000000e+03 3.971072387695312500e+01 3.105273056030273438e+01 6.123125925660133362e-02 5.575001239776611328e-02 3.509438037872314453e-02 5.286512523889541626e-02
2.149000000000000000e+03 3.584612655639648438e+01 1.506991577148437500e+01 -1.272740483283996582e+00 -1.504528760910034180e+00 -8.331807255744934082e-01 -1.376880764961242676e+00
2.150000000000000000e+03 2.356270027160644531e+01 1.472067642211914062e+01 1.010581180453300476e-01 1.222682595252990723e-01 6.699791550636291504e-02 1.095620319247245789e-01
2.151000000000000000e+03 4.287109756469726562e+01 3.484243774414062500e+01 7.123257219791412354e-02 3.652915731072425842e-02 3.232851997017860413e-02 5.137754976749420166e-02
2.152000000000000000e+03 4.290808486938476562e+01 3.433133697509765625e+01 6.986115127801895142e-02 4.014322161674499512e-02 3.300131112337112427e-02 5.182396620512008667e-02
2.153000000000000000e+03 3.354280090332031250e+01 1.243956661224365234e+01 -1.322511792182922363e+00 -1.466029524803161621e+00 -8.365623950958251953e-01 -1.380716919898986816e+00
2.154000000000000000e+03 3.428575134277343750e+01 1.333439350128173828e+01 -1.338669657707214355e+00 -1.500863432884216309e+00 -8.518599271774291992e-01 -1.363530993461608887e+00
2.155000000000000000e+03 3.610794448852539062e+01 1.536042404174804688e+01 -1.261584043502807617e+00 -1.507309794425964355e+00 -8.306681513786315918e-01 -1.374250292778015137e+00
2.156000000000000000e+03 3.637149429321289062e+01 1.565172863006591797e+01 -1.260510921478271484e+00 -1.512079358100891113e+00 -8.317770957946777344e-01 -1.365873694419860840e+00
2.157000000000000000e+03 2.019820022583007812e+01 1.159121608734130859e+01 1.147197633981704712e-01 1.509743332862854004e-01 7.970822602510452271e-02 1.302304416894912720e-01
2.158000000000000000e+03 3.744926071166992188e+01 2.958629226684570312e+01 5.190728232264518738e-02 6.455387175083160400e-02 3.493834659457206726e-02 5.792555585503578186e-02
2.159000000000000000e+03 3.663663864135742188e+01 1.594354820251464844e+01 -1.253657341003417969e+00 -1.513764381408691406e+00 -8.302265405654907227e-01 -1.361974239349365234e+00
2.160000000000000000e+03 5.082503509521484375e+01 2.980973243713378906e+01 -1.257205963134765625e+00 -8.289579749107360840e-01 -6.258491873741149902e-01 -1.045571446418762207e+00
2.161000000000000000e+03 3.627971649169921875e+01 2.795306205749511719e+01 5.557166785001754761e-02 7.144383341073989868e-02 3.810464963316917419e-02 5.771670863032341003e-02
2.162000000000000000e+03 3.545851898193359375e+01 2.767997550964355469e+01 5.122924968600273132e-02 7.039186358451843262e-02 3.648633509874343872e-02 5.999756604433059692e-02
2.163000000000000000e+03 4.782556152343750000e+01 2.721785545349121094e+01 -1.329227089881896973e+00 -1.115466952323913574e+00 -7.334082126617431641e-01 -1.245770454406738281e+00
2.164000000000000000e+03 4.837234115600585938e+01 2.772229003906250000e+01 -1.340001940727233887e+00 -1.100292444229125977e+00 -7.320883274078369141e-01 -1.220148444175720215e+00
2.165000000000000000e+03 4.882281494140625000e+01 2.906939315795898438e+01 -1.468088388442993164e+00 -1.247662544250488281e+00 -8.147252798080444336e-01 -1.332921028137207031e+00
2.166000000000000000e+03 1.847686958312988281e+01 -2.762626171112060547e+00 -1.568827509880065918e+00 -3.297137737274169922e+00 -1.459789514541625977e+00 -1.710716366767883301e+00
2.167000000000000000e+03 4.437208557128906250e+01 3.592970657348632812e+01 8.796370774507522583e-02 4.370004683732986450e-02 3.949912637472152710e-02 4.763113334774971008e-02
2.168000000000000000e+03 2.702817726135253906e+01 1.749703598022460938e+01 9.326639026403427124e-02 1.000781506299972534e-01 5.800336226820945740e-02 9.449619054794311523e-02
2.169000000000000000e+03 2.336663818359375000e+01 1.594700694084167480e+00 -2.877017498016357422e+00 -4.166094064712524414e-01 -9.880880713462829590e-01 -1.468248486518859863e+00
2.170000000000000000e+03 2.316745567321777344e+01 1.352068066596984863e+00 -2.715296506881713867e+00 -2.405771911144256592e-01 -8.867620825767517090e-01 -1.445783615112304688e+00
2.171000000000000000e+03 4.933201599121093750e+01 2.904348945617675781e+01 -1.386663198471069336e+00 -1.115922689437866211e+00 -7.507757544517517090e-01 -1.228852748870849609e+00
2.172000000000000000e+03 3.454380416870117188e+01 1.362223339080810547e+01 -1.332340478897094727e+00 -1.495198249816894531e+00 -8.482616543769836426e-01 -1.369702339172363281e+00
2.173000000000000000e+03 3.807733917236328125e+01 3.038427734375000000e+01 5.565306171774864197e-02 6.228477507829666138e-02 3.538135066628456116e-02 5.540340393781661987e-02
2.174000000000000000e+03 4.015290832519531250e+01 3.231535339355468750e+01 6.021716445684432983e-02 5.098015069961547852e-02 3.335919231176376343e-02 5.181023105978965759e-02
2.175000000000000000e+03 3.746422195434570312e+01 1.737691116333007812e+01 -1.271767020225524902e+00 -1.581572532653808594e+00 -8.560018539428710938e-01 -1.376130461692810059e+00
2.176000000000000000e+03 4.873670959472656250e+01 2.851906776428222656e+01 -1.408827304840087891e+00 -1.160592198371887207e+00 -7.708258628845214844e-01 -1.262232661247253418e+00
2.177000000000000000e+03 4.479761123657226562e+01 2.471741294860839844e+01 -1.482948541641235352e+00 -1.356961011886596680e+00 -8.519728779792785645e-01 -1.364433646202087402e+00
2.178000000000000000e+03 4.565417861938476562e+01 2.498364257812500000e+01 -1.385536193847656250e+00 -1.201596498489379883e+00 -7.761397957801818848e-01 -1.282858610153198242e+00
2.179000000000000000e+03 4.415468978881835938e+01 2.365299987792968750e+01 -1.398172497749328613e+00 -1.290851235389709473e+00 -8.067070841789245605e-01 -1.315807580947875977e+00
2.180000000000000000e+03 4.110483932495117188e+01 2.070970344543457031e+01 -1.187489509582519531e+00 -1.237112045288085938e+00 -7.273804545402526855e-01 -1.289130210876464844e+00
2.181000000000000000e+03 3.773383712768554688e+01 1.766616249084472656e+01 -1.258863449096679688e+00 -1.560013294219970703e+00 -8.456630706787109375e-01 -1.363337039947509766e+00
2.182000000000000000e+03 3.919545745849609375e+01 1.907811546325683594e+01 -1.156617999076843262e+00 -1.327480912208557129e+00 -7.452296614646911621e-01 -1.312239050865173340e+00
2.183000000000000000e+03 2.996216583251953125e+01 2.150775718688964844e+01 6.309549510478973389e-02 8.148943632841110229e-02 4.337548092007637024e-02 7.236392050981521606e-02
2.184000000000000000e+03 5.120063781738281250e+01 3.009866142272949219e+01 -1.233895897865295410e+00 -7.514964938163757324e-01 -5.956177115440368652e-01 -9.979271888732910156e-01
2.185000000000000000e+03 4.963519668579101562e+01 2.930853271484375000e+01 -1.366489291191101074e+00 -1.084188342094421387e+00 -7.352033257484436035e-01 -1.209776878356933594e+00
2.186000000000000000e+03 2.612669563293457031e+01 1.718375015258789062e+01 8.994858711957931519e-02 1.033425107598304749e-01 5.798732861876487732e-02 9.448311477899551392e-02
2.187000000000000000e+03 4.242178726196289062e+01 2.208081817626953125e+01 -1.358006715774536133e+00 -1.247246026992797852e+00 -7.815757989883422852e-01 -1.301275610923767090e+00
2.188000000000000000e+03 3.393001937866210938e+01 2.549584960937500000e+01 5.114806070923805237e-02 7.381804287433624268e-02 3.748983144760131836e-02 6.192122399806976318e-02
2.189000000000000000e+03 3.238323211669921875e+01 1.122636127471923828e+01 -1.393353223800659180e+00 -1.417311191558837891e+00 -8.431993722915649414e-01 -1.343468189239501953e+00
2.190000000000000000e+03 3.506716156005859375e+01 2.689137840270996094e+01 5.085976049304008484e-02 7.326591759920120239e-02 3.723770380020141602e-02 6.020069867372512817e-02
2.191000000000000000e+03 3.690281677246093750e+01 1.623510360717773438e+01 -1.252510190010070801e+00 -1.516682505607604980e+00 -8.307578563690185547e-01 -1.352527737617492676e+00
2.192000000000000000e+03 3.694942092895507812e+01 2.889096641540527344e+01 5.192990601062774658e-02 6.806747615337371826e-02 3.599921613931655884e-02 5.850268527865409851e-02
2.193000000000000000e+03 2.278043174743652344e+01 1.374809169769287109e+01 1.118466556072235107e-01 1.307780444622039795e-01 7.278741151094436646e-02 1.163360923528671265e-01
2.194000000000000000e+03 2.151027107238769531e+01 1.281481170654296875e+01 1.089507415890693665e-01 1.383016258478164673e-01 7.417570799589157104e-02 1.236740350723266602e-01
2.195000000000000000e+03 2.671603965759277344e+01 1.775112533569335938e+01 8.739048242568969727e-02 1.007730588316917419e-01 5.644906312227249146e-02 9.178046137094497681e-02
2.196000000000000000e+03 5.152144241333007812e+01 3.045664215087890625e+01 -1.217027664184570312e+00 -7.000998258590698242e-01 -5.751382708549499512e-01 -9.650831818580627441e-01
2.197000000000000000e+03 2.663015365600585938e+01 1.883069801330566406e+01 7.422789186239242554e-02 9.930486977100372314e-02 5.205982923507690430e-02 8.536139875650405884e-02
2.198000000000000000e+03 2.455101203918457031e+01 1.687516212463378906e+01 8.197850733995437622e-02 1.093477159738540649e-01 5.739786848425865173e-02 9.633526206016540527e-02
2.199000000000000000e+03 4.108581542968750000e+01 3.286288833618164062e+01 5.827574804425239563e-02 4.636185988783836365e-02 3.139128163456916809e-02 5.299130082130432129e-02
2.200000000000000000e+03 3.888274383544921875e+01 1.879817581176757812e+01 -1.175156116485595703e+00 -1.377277135848999023e+00 -7.657299637794494629e-01 -1.318671941757202148e+00
2.201000000000000000e+03 2.695639801025390625e+01 1.858184051513671875e+01 7.885958254337310791e-02 9.818933159112930298e-02 5.311467498540878296e-02 8.699900656938552856e-02
2.202000000000000000e+03 4.240973663330078125e+01 3.380892944335937500e+01 6.631500273942947388e-02 4.714844003319740295e-02 3.403903171420097351e-02 5.134139582514762878e-02
2.203000000000000000e+03 3.716952514648437500e+01 1.652544403076171875e+01 -1.245807886123657227e+00 -1.514359712600708008e+00 -8.280503153800964355e-01 -1.345384716987609863e+00
2.204000000000000000e+03 3.743647384643554688e+01 1.681353187561035156e+01 -1.243736863136291504e+00 -1.508778452873229980e+00 -8.257546424865722656e-01 -1.332677483558654785e+00
2.205000000000000000e+03 1.553508949279785156e+01 6.850394725799560547e+00 1.450556665658950806e-01 3.154629170894622803e-01 1.381555795669555664e-01 1.975516378879547119e-01
2.206000000000000000e+03 3.981327819824218750e+01 3.140145492553710938e+01 5.492645874619483948e-02 5.589268729090690613e-02 3.324574232101440430e-02 5.399197712540626526e-02
2.207000000000000000e+03 5.199332046508789062e+01 3.137051391601562500e+01 -1.162056326866149902e+00 -6.414699554443359375e-01 -5.410578846931457520e-01 -9.127672910690307617e-01
2.208000000000000000e+03 3.232804489135742188e+01 2.404682540893554688e+01 5.282944440841674805e-02 7.360322773456573486e-02 3.792980313301086426e-02 6.496331840753555298e-02
2.209000000000000000e+03 3.770396041870117188e+01 1.709823417663574219e+01 -1.236996889114379883e+00 -1.492985129356384277e+00 -8.189945816993713379e-01 -1.322762846946716309e+00
2.210000000000000000e+03 3.378368759155273438e+01 1.275132179260253906e+01 -1.332226514816284180e+00 -1.487198472023010254e+00 -8.458275198936462402e-01 -1.374022841453552246e+00
2.211000000000000000e+03 3.137781524658203125e+01 2.241629981994628906e+01 5.669822543859481812e-02 7.454957067966461182e-02 3.937434032559394836e-02 6.948945671319961548e-02
2.212000000000000000e+03 4.299046325683593750e+01 2.260112190246582031e+01 -1.377847671508789062e+00 -1.250607132911682129e+00 -7.885364294052124023e-01 -1.323168873786926270e+00
2.213000000000000000e+03 4.135006332397460938e+01 2.099807929992675781e+01 -1.224139571189880371e+00 -1.246393203735351562e+00 -7.411598563194274902e-01 -1.284888863563537598e+00
2.214000000000000000e+03 4.160612487792968750e+01 2.127630233764648438e+01 -1.261865377426147461e+00 -1.253039717674255371e+00 -7.544715404510498047e-01 -1.282789349555969238e+00
2.215000000000000000e+03 6.946571350097656250e+01 3.569048690795898438e+01 2.395054340362548828e+00 1.615633773803710938e+01 5.565417289733886719e+00 2.047528028488159180e+00
2.216000000000000000e+03 6.861916351318359375e+01 3.563316345214843750e+01 9.202508926391601562e-01 1.925208091735839844e+01 6.051699638366699219e+00 7.133204340934753418e-01
2.217000000000000000e+03 4.444864273071289062e+01 2.391872978210449219e+01 -1.405222058296203613e+00 -1.291586160659790039e+00 -8.090424537658691406e-01 -1.306013584136962891e+00
2.218000000000000000e+03 4.474504089355468750e+01 2.418473052978515625e+01 -1.410316348075866699e+00 -1.282442450523376465e+00 -8.078276515007019043e-01 -1.295253634452819824e+00
2.219000000000000000e+03 2.343400573730468750e+01 1.534238815307617188e+01 8.989065140485763550e-02 1.215695142745971680e-01 6.343805044889450073e-02 1.047185659408569336e-01
2.220000000000000000e+03 2.319257164001464844e+01 1.496607494354248047e+01 9.427840262651443481e-02 1.245087012648582458e-01 6.563612818717956543e-02 1.064097359776496887e-01
2.221000000000000000e+03 2.295376777648925781e+01 1.461242580413818359e+01 9.812305867671966553e-02 1.270474940538406372e-01 6.755116581916809082e-02 1.085445508360862732e-01
2.222000000000000000e+03 5.220726394653320312e+01 3.186108970642089844e+01 -1.099121809005737305e+00 -6.160274744033813477e-01 -5.145447850227355957e-01 -8.776574730873107910e-01
2.223000000000000000e+03 3.650971603393554688e+01 2.825451850891113281e+01 5.316065996885299683e-02 6.957070529460906982e-02 3.681940957903862000e-02 5.915567651391029358e-02
2.224000000000000000e+03 3.403177261352539062e+01 1.304573249816894531e+01 -1.324170351028442383e+00 -1.497537016868591309e+00 -8.465121984481811523e-01 -1.371146917343139648e+00
2.225000000000000000e+03 2.099265289306640625e+01 1.229891300201416016e+01 1.099910140037536621e-01 1.440121233463287354e-01 7.620093971490859985e-02 1.266292929649353027e-01
2.226000000000000000e+03 2.073006820678710938e+01 1.205363845825195312e+01 1.121786832809448242e-01 1.473065167665481567e-01 7.784555852413177490e-02 1.272629648447036743e-01
2.227000000000000000e+03 3.388868331909179688e+01 2.608308601379394531e+01 5.084531754255294800e-02 7.418980449438095093e-02 3.751053661108016968e-02 6.058422103524208069e-02
2.228000000000000000e+03 3.422769927978515625e+01 2.635198020935058594e+01 5.093507468700408936e-02 7.397117465734481812e-02 3.747187554836273193e-02 6.020310893654823303e-02
2.229000000000000000e+03 3.183565139770507812e+01 1.123121643066406250e+01 -1.457567334175109863e+00 -1.466093778610229492e+00 -8.770983219146728516e-01 -1.388189792633056641e+00
2.230000000000000000e+03 5.205756378173828125e+01 3.103299903869628906e+01 -1.185295701026916504e+00 -5.743726491928100586e-01 -5.279005169868469238e-01 -9.005114436149597168e-01
2.231000000000000000e+03 5.246413803100585938e+01 3.110075759887695312e+01 -1.177803158760070801e+00 -4.087773859500885010e-01 -4.759741723537445068e-01 -8.586249947547912598e-01
2.232000000000000000e+03 3.654261779785156250e+01 2.908636283874511719e+01 5.437006056308746338e-02 6.904893368482589722e-02 3.702569752931594849e-02 5.528715625405311584e-02
2.233000000000000000e+03 3.330798721313476562e+01 1.209154796600341797e+01 -1.347960591316223145e+00 -1.435030579566955566e+00 -8.348973393440246582e-01 -1.365074157714843750e+00
2.234000000000000000e+03 1.846281242370605469e+01 1.027461814880371094e+01 1.139794364571571350e-01 1.802115291357040405e-01 8.825729042291641235e-02 1.442441195249557495e-01
2.235000000000000000e+03 5.256735992431640625e+01 3.207606887817382812e+01 -1.074450135231018066e+00 -4.530715048313140869e-01 -4.582564830780029297e-01 -8.271587491035461426e-01
2.236000000000000000e+03 1.539022159576416016e+01 6.376437187194824219e+00 1.671316772699356079e-01 3.319589793682098389e-01 1.497271955013275146e-01 2.169186025857925415e-01
2.237000000000000000e+03 1.455259418487548828e+01 7.103261470794677734e+00 9.805507957935333252e-02 3.697611689567565918e-01 1.403448730707168579e-01 1.433407366275787354e-01
2.238000000000000000e+03 3.148787307739257812e+01 1.038994407653808594e+01 -1.393841505050659180e+00 -1.428571701049804688e+00 -8.467239737510681152e-01 -1.325334191322326660e+00
2.239000000000000000e+03 1.821466827392578125e+01 9.978408813476562500e+00 1.190317645668983459e-01 1.883010119199752808e-01 9.219983220100402832e-02 1.443841755390167236e-01
2.240000000000000000e+03 1.343677234649658203e+01 4.980535507202148438e+00 1.076146066188812256e-01 7.674306035041809082e-01 2.625135481357574463e-01 2.611475251615047455e-02
2.241000000000000000e+03 1.402238368988037109e+01 5.131567001342773438e+00 1.146728098392486572e-01 6.855369806289672852e-01 2.400629371404647827e-01 1.895711719989776611e-01
2.242000000000000000e+03 1.602987670898437500e+01 7.640452861785888672e+00 1.292753219604492188e-01 2.739224433898925781e-01 1.209593340754508972e-01 1.804260313510894775e-01
2.243000000000000000e+03 1.530120086669921875e+01 7.057315826416015625e+00 1.282708048820495605e-01 3.312740623950958252e-01 1.378634572029113770e-01 1.791658848524093628e-01
2.244000000000000000e+03 1.528206062316894531e+01 6.730578422546386719e+00 1.356869637966156006e-01 3.480949997901916504e-01 1.451345831155776978e-01 1.924053132534027100e-01
2.245000000000000000e+03 6.735565948486328125e+01 3.641364669799804688e+01 -2.273554205894470215e-01 1.292651557922363281e+01 3.809747934341430664e+00 -3.906999111175537109e+00
2.246000000000000000e+03 1.327837657928466797e+01 4.086822986602783203e+00 2.059542685747146606e-01 1.032528758049011230e+00 3.715449273586273193e-01 -1.009378060698509216e-01
2.247000000000000000e+03 3.117677116394042969e+01 5.705692768096923828e+00 -1.616752266883850098e+00 -9.315046668052673340e-01 -7.644770741462707520e-01 -1.021142721176147461e+00
2.248000000000000000e+03 6.764915466308593750e+01 3.599018096923828125e+01 -2.426476031541824341e-01 1.616271781921386719e+01 4.776021003723144531e+00 -3.470651865005493164e+00
2.249000000000000000e+03 6.665748596191406250e+01 3.630277252197265625e+01 1.009092926979064941e+00 9.437037467956542969e+00 3.133839130401611328e+00 -5.367491245269775391e+00
2.250000000000000000e+03 1.136517524719238281e+01 2.697310924530029297e+00 5.496663451194763184e-01 -2.532309591770172119e-01 8.893062174320220947e-02 4.651159793138504028e-02
2.251000000000000000e+03 1.679026031494140625e+01 -2.679072856903076172e+00 -1.722398757934570312e+00 -1.093173027038574219e+00 -8.446715474128723145e-01 -1.196174740791320801e+00
2.252000000000000000e+03 1.708487701416015625e+01 -3.086313962936401367e+00 -1.419788360595703125e+00 -1.329145193099975586e+00 -8.246800303459167480e-01 -1.134978652000427246e+00
2.253000000000000000e+03 3.183509445190429688e+01 1.065121650695800781e+01 -1.383814811706542969e+00 -1.417777538299560547e+00 -8.404777050018310547e-01 -1.332086205482482910e+00
2.254000000000000000e+03 3.160456657409667969e+01 8.331270217895507812e+00 -1.180288434028625488e+00 -1.297276735305786133e+00 -7.432695031166076660e-01 -1.173537492752075195e+00
2.255000000000000000e+03 3.094602012634277344e+01 9.399193763732910156e+00 -1.335458397865295410e+00 -1.344404816627502441e+00 -8.039590120315551758e-01 -1.271078348159790039e+00
2.256000000000000000e+03 6.115169906616210938e+01 3.028756141662597656e+01 -1.254323571920394897e-01 8.579081296920776367e-01 2.197427302598953247e-01 4.724161028861999512e-01
2.257000000000000000e+03 4.647529602050781250e+01 3.697522354125976562e+01 1.412465274333953857e-01 3.576683625578880310e-02 5.310400947928428650e-02 5.696673318743705750e-02
2.258000000000000000e+03 4.484720993041992188e+01 3.790569686889648438e+01 1.100825220346450806e-01 2.718351781368255615e-02 4.117980971932411194e-02 4.129521176218986511e-02
2.259000000000000000e+03 5.584812545776367188e+01 3.837719345092773438e+01 -4.666299000382423401e-02 -2.658072412014007568e-01 -9.374106675386428833e-02 3.842725455760955811e-01
2.260000000000000000e+03 1.040591621398925781e+01 -4.405496597290039062e+00 -4.948427975177764893e-01 -1.491879671812057495e-01 -1.932092308998107910e-01 -4.309605956077575684e-01
2.261000000000000000e+03 1.048178863525390625e+01 -5.137454032897949219e+00 -4.750183522701263428e-01 -1.710638105869293213e-01 -1.938246488571166992e-01 -4.979790449142456055e-01
2.262000000000000000e+03 3.171137237548828125e+01 6.657887458801269531e+00 -1.360159277915954590e+00 -1.056003570556640625e+00 -7.248488664627075195e-01 -1.122255325317382812e+00
2.263000000000000000e+03 2.912070846557617188e+01 5.191890239715576172e+00 -2.264369249343872070e+00 -1.394075155258178711e+00 -1.097533345222473145e+00 -1.169298410415649414e+00
2.264000000000000000e+03 2.872995376586914062e+01 4.692763328552246094e+00 -2.222226142883300781e+00 -1.325914859771728516e+00 -1.064442276954650879e+00 -1.141776680946350098e+00
2.265000000000000000e+03 2.100537300109863281e+01 2.429291605949401855e-02 -2.083255052566528320e+00 -1.230176806449890137e+00 -9.940295815467834473e-01 -3.199503898620605469e+00
2.266000000000000000e+03 2.216588211059570312e+01 -3.907999768853187561e-02 -1.549831271171569824e+00 8.160109519958496094e-01 -2.201461046934127808e-01 -1.766709685325622559e+00
2.267000000000000000e+03 6.076699066162109375e+01 3.157972335815429688e+01 -9.608727097511291504e-01 3.395043611526489258e-01 -1.864105015993118286e-01 -1.257502194494009018e-02
2.268000000000000000e+03 6.070368576049804688e+01 3.103466987609863281e+01 -6.104935407638549805e-01 4.865029454231262207e-01 -3.719718009233474731e-02 8.566728234291076660e-02
2.269000000000000000e+03 5.120725250244140625e+01 3.895290756225585938e+01 2.278329730033874512e-01 -9.927463717758655548e-03 6.537164747714996338e-02 1.040379703044891357e-01
2.270000000000000000e+03 1.115178680419921875e+01 -4.438503742218017578e+00 -5.678637623786926270e-01 -1.424241364002227783e-01 -2.130863666534423828e-01 -4.907326400279998779e-01
2.271000000000000000e+03 8.928749084472656250e+00 -4.450640678405761719e+00 -3.624472022056579590e-01 -1.212883219122886658e-01 -1.451206505298614502e-01 -3.369801342487335205e-01
2.272000000000000000e+03 8.657439231872558594e+00 3.729619979858398438e+00 1.381262242794036865e-01 -2.124160677194595337e-01 -2.228695340454578400e-02 1.777352392673492432e-01
2.273000000000000000e+03 7.829218387603759766e+00 3.154748201370239258e+00 2.842308604158461094e-04 -1.725644767284393311e-01 -5.168407037854194641e-02 2.253913730382919312e-01
2.274000000000000000e+03 5.315246200561523438e+01 4.039524459838867188e+01 2.294375896453857422e-01 -3.663259148597717285e-01 -4.106649756431579590e-02 2.346135973930358887e-01
2.275000000000000000e+03 9.667812347412109375e+00 -4.411286830902099609e+00 -4.382421374320983887e-01 -1.004663631319999695e-01 -1.616125553846359253e-01 -3.795808255672454834e-01
2.276000000000000000e+03 8.061714172363281250e+00 4.478651523590087891e+00 1.424834728240966797e-01 -1.716753393411636353e-01 -8.757561445236206055e-03 1.308748573064804077e-01
2.277000000000000000e+03 7.240673542022705078e+00 3.931639671325683594e+00 5.172619596123695374e-02 -1.546749621629714966e-01 -3.088463097810745239e-02 1.760105937719345093e-01
2.278000000000000000e+03 7.947546958923339844e+00 3.821202516555786133e+00 8.578842878341674805e-02 -1.745476722717285156e-01 -2.662777341902256012e-02 1.770915091037750244e-01
2.279000000000000000e+03 3.659071922302246094e+00 6.644649505615234375e+00 3.295009210705757141e-02 -1.210665181279182434e-01 -2.643493004143238068e-02 7.416654378175735474e-02
2.280000000000000000e+03 4.942163944244384766e+00 3.583951711654663086e+00 -2.428920753300189972e-02 -8.538975566625595093e-02 -3.290368989109992981e-02 1.348638832569122314e-01
2.281000000000000000e+03 2.622966527938842773e+00 5.150467872619628906e+00 6.795937661081552505e-03 -1.029049828648567200e-01 -2.883271314203739166e-02 7.624077051877975464e-02
2.282000000000000000e+03 5.288648605346679688e+00 5.128722190856933594e+00 4.109723865985870361e-02 -1.176995113492012024e-01 -2.298068255186080933e-02 1.179070547223091125e-01
2.283000000000000000e+03 2.593266725540161133e+00 4.001174926757812500e+00 -8.806037716567516327e-03 -7.631932199001312256e-02 -2.553760819137096405e-02 7.541474699974060059e-02
2.284000000000000000e+03 1.579192042350769043e+00 5.045260429382324219e+00 1.416759914718568325e-03 -1.010693162679672241e-01 -2.989576756954193115e-02 4.939760267734527588e-02
2.285000000000000000e+03 5.456242370605468750e+01 3.176600456237792969e+01 -1.199603915214538574e+00 1.540330201387405396e-01 -3.136712610721588135e-01 -7.558942437171936035e-01
2.286000000000000000e+03 1.207066249847412109e+01 3.237879276275634766e+00 6.393493413925170898e-01 2.314656972885131836e-01 2.612445056438446045e-01 -3.101093769073486328e-01
2.287000000000000000e+03 5.322441864013671875e+01 3.186319351196289062e+01 -1.138162970542907715e+00 -1.814376413822174072e-01 -3.958801627159118652e-01 -7.924812436103820801e-01
2.288000000000000000e+03 6.129597473144531250e+01 3.092493057250976562e+01 -4.153373539447784424e-01 5.772512555122375488e-01 4.857417568564414978e-02 3.136097490787506104e-01
2.289000000000000000e+03 5.869360351562500000e+01 3.105401039123535156e+01 -9.620514512062072754e-01 3.932557106018066406e-01 -1.706387251615524292e-01 -3.983687162399291992e-01
2.290000000000000000e+03 5.600223159790039062e+01 3.080363082885742188e+01 -1.090559959411621094e+00 3.401041328907012939e-01 -2.251367568969726562e-01 -6.857776045799255371e-01
2.291000000000000000e+03 5.945944595336914062e+01 3.095650482177734375e+01 -8.156836032867431641e-01 4.250768721103668213e-01 -1.171820163726806641e-01 -2.239255458116531372e-01
2.292000000000000000e+03 4.888183593750000000e+01 3.867654418945312500e+01 1.724893301725387573e-01 5.598580092191696167e-02 6.854254007339477539e-02 1.949493400752544403e-02
2.293000000000000000e+03 5.658166885375976562e+01 3.134052848815917969e+01 -1.168258309364318848e+00 3.315601944923400879e-01 -2.510094344615936279e-01 -6.638649106025695801e-01
2.294000000000000000e+03 5.583869934082031250e+01 3.198741531372070312e+01 -1.256235718727111816e+00 2.627313435077667236e-01 -2.980513274669647217e-01 -7.015432119369506836e-01
2.295000000000000000e+03 5.594092559814453125e+01 3.138224029541015625e+01 -1.186047077178955078e+00 2.992469966411590576e-01 -2.660400271415710449e-01 -7.072250843048095703e-01
2.296000000000000000e+03 5.482435607910156250e+01 3.125026512145996094e+01 -1.185193896293640137e+00 1.995169073343276978e-01 -2.957031130790710449e-01 -7.564134597778320312e-01
2.297000000000000000e+03 5.032709598541259766e+00 -4.769772052764892578e+00 -1.345097124576568604e-01 -1.063469126820564270e-01 -7.225698977708816528e-02 -1.668431460857391357e-01
2.298000000000000000e+03 5.845369815826416016e+00 -4.713884830474853516e+00 -1.678396761417388916e-01 -1.148440763354301453e-01 -8.480512350797653198e-02 -1.995209306478500366e-01
2.299000000000000000e+03 6.647702217102050781e+00 -4.649450302124023438e+00 -2.180260270833969116e-01 -1.025774255394935608e-01 -9.618103504180908203e-02 -2.320517301559448242e-01
2.300000000000000000e+03 8.060414314270019531e+00 -3.644081592559814453e+00 -2.945864200592041016e-01 -7.264272123575210571e-02 -1.101687401533126831e-01 -2.298090308904647827e-01
2.301000000000000000e+03 7.428477764129638672e+00 -4.579276561737060547e+00 -2.576992809772491455e-01 -1.146026700735092163e-01 -1.116905882954597473e-01 -2.663921117782592773e-01
2.302000000000000000e+03 3.310430049896240234e+00 -3.929882526397705078e+00 -5.745386332273483276e-02 -6.643038243055343628e-02 -3.716527298092842102e-02 -6.868809461593627930e-02
2.303000000000000000e+03 3.446185588836669922e+00 -5.789429664611816406e+00 -6.600540131330490112e-02 -1.429871320724487305e-01 -6.269776076078414917e-02 -1.385648548603057861e-01
2.304000000000000000e+03 2.648406982421875000e+00 -4.783956050872802734e+00 -3.860559314489364624e-02 -9.011550992727279663e-02 -3.861633315682411194e-02 -7.692804187536239624e-02
2.305000000000000000e+03 2.540874958038330078e+00 -5.679596424102783203e+00 -4.534664750099182129e-02 -1.151906996965408325e-01 -4.816120490431785583e-02 -9.676107019186019897e-02
2.306000000000000000e+03 1.593073368072509766e+01 -3.694516420364379883e+00 -1.182897567749023438e+00 -9.372719526290893555e-01 -6.360508799552917480e-01 -1.045182466506958008e+00
2.307000000000000000e+03 7.379042148590087891e+00 4.615353107452392578e+00 1.013305857777595520e-01 -1.484992355108261108e-01 -1.415059436112642288e-02 1.336871683597564697e-01
2.308000000000000000e+03 1.073202419281005859e+01 3.324988842010498047e+00 4.187794923782348633e-01 -2.185041159391403198e-01 6.008261069655418396e-02 3.013002872467041016e-02
2.309000000000000000e+03 9.367627143859863281e+00 3.627980947494506836e+00 2.172286659479141235e-01 -2.341501116752624512e-01 -5.076432600617408752e-03 1.469306647777557373e-01
2.310000000000000000e+03 5.081992721557617188e+01 3.831893157958984375e+01 2.468754351139068604e-01 1.603296399116516113e-02 7.887251675128936768e-02 8.285092562437057495e-02
2.311000000000000000e+03 5.079409790039062500e+01 3.879094314575195312e+01 2.386159300804138184e-01 1.714688353240489960e-02 7.672884315252304077e-02 8.232376724481582642e-02
2.312000000000000000e+03 4.744497680664062500e+01 3.854080581665039062e+01 1.475881636142730713e-01 9.891646914184093475e-03 4.724394530057907104e-02 2.639805711805820465e-02
2.313000000000000000e+03 1.191271400451660156e+01 -4.508821487426757812e+00 -6.491093635559082031e-01 -2.292623221874237061e-01 -2.635115087032318115e-01 -5.734730958938598633e-01
2.314000000000000000e+03 1.270566844940185547e+01 -4.604908466339111328e+00 -6.902726888656616211e-01 -2.729634344577789307e-01 -2.889708280563354492e-01 -6.594990491867065430e-01
2.315000000000000000e+03 5.027814865112304688e+01 3.937760543823242188e+01 1.936393082141876221e-01 -6.958161480724811554e-03 5.600434541702270508e-02 8.048322796821594238e-02
2.316000000000000000e+03 5.009479522705078125e+01 4.021222686767578125e+01 2.123104780912399292e-01 -1.015574112534523010e-01 3.322592005133628845e-02 3.352189436554908752e-02
2.317000000000000000e+03 5.973822784423828125e+01 4.052828598022460938e+01 9.461440443992614746e-01 2.134442478418350220e-01 3.478764891624450684e-01 2.027871012687683105e-01
2.318000000000000000e+03 5.618315124511718750e+01 3.918373489379882812e+01 1.339073777198791504e-01 -3.232505023479461670e-01 -5.680293589830398560e-02 3.262444734573364258e-01
2.319000000000000000e+03 4.716707992553710938e+01 3.758837127685546875e+01 1.505604237318038940e-01 4.319637268781661987e-02 5.812704190611839294e-02 4.601304978132247925e-02
2.320000000000000000e+03 1.617779541015625000e+01 -4.440297603607177734e+00 -9.296821355819702148e-01 -1.113166928291320801e+00 -6.128547191619873047e-01 -1.043074607849121094e+00
2.321000000000000000e+03 1.513374900817871094e+01 -3.827960014343261719e+00 -1.081689119338989258e+00 -6.389688253402709961e-01 -5.161973834037780762e-01 -8.875448703765869141e-01
2.322000000000000000e+03 1.696291542053222656e+01 -4.069334983825683594e+00 -9.539518356323242188e-01 -1.576212167739868164e+00 -7.590492367744445801e-01 -1.191826224327087402e+00
2.323000000000000000e+03 2.673691177368164062e+01 -2.609524011611938477e+00 9.195488095283508301e-01 -9.461143612861633301e-02 2.474812269210815430e-01 -4.483802318572998047e-01
2.324000000000000000e+03 2.615337944030761719e+01 -1.764775037765502930e+00 6.996678113937377930e-01 2.655875310301780701e-02 2.178679704666137695e-01 -4.489235281944274902e-01
2.325000000000000000e+03 1.970863914489746094e+01 -1.628973770141601562e+01 2.542168796062469482e-01 -5.342362448573112488e-02 6.023797392845153809e-02 -2.897236049175262451e-01
2.326000000000000000e+03 2.038113212585449219e+01 -1.744567680358886719e+01 2.346072345972061157e-01 1.040558796375989914e-02 7.350384443998336792e-02 -3.173190355300903320e-01
2.327000000000000000e+03 2.161866569519042969e+01 -1.976605987548828125e+01 2.230297476053237915e-01 1.624083966016769409e-01 1.156314387917518616e-01 -3.350955545902252197e-01
2.328000000000000000e+03 3.674347686767578125e+01 -1.293228149414062500e+01 2.732004821300506592e-01 -2.144877165555953979e-01 1.761383377015590668e-02 -1.837942562997341156e-02
2.329000000000000000e+03 3.499607849121093750e+01 -1.074413299560546875e+01 4.020959734916687012e-01 -3.033046424388885498e-01 2.963740006089210510e-02 -7.992246001958847046e-02
2.330000000000000000e+03 3.640438461303710938e+01 -1.496577167510986328e+01 1.099670976400375366e-01 -2.844864130020141602e-01 -5.235579237341880798e-02 6.651592999696731567e-02
2.331000000000000000e+03 3.754258728027343750e+01 -1.412152767181396484e+01 1.955057680606842041e-01 -1.585921943187713623e-01 1.107407175004482269e-02 3.978857304900884628e-03
2.332000000000000000e+03 3.417041015625000000e+01 -9.679378509521484375e+00 4.439818263053894043e-01 -3.250031769275665283e-01 3.569358959794044495e-02 -1.206391379237174988e-01
2.333000000000000000e+03 2.753719711303710938e+01 -1.956166744232177734e+00 5.826541185379028320e-01 -3.214766085147857666e-01 7.835325598716735840e-02 -2.766753137111663818e-01
2.334000000000000000e+03 3.339669036865234375e+01 -8.616965293884277344e+00 5.688557624816894531e-01 -3.491963148117065430e-01 6.589782983064651489e-02 -1.539133936166763306e-01
2.335000000000000000e+03 3.247364807128906250e+01 -9.336512565612792969e+00 4.293934702873229980e-01 -2.719882130622863770e-01 4.722158238291740417e-02 -1.766609996557235718e-01
2.336000000000000000e+03 2.222033500671386719e+01 -2.091487121582031250e+01 2.281704843044281006e-01 2.464067786931991577e-01 1.423731744289398193e-01 -3.335590362548828125e-01
2.337000000000000000e+03 4.088353729248046875e+01 -2.029998970031738281e+01 -2.724346518516540527e-02 1.826960742473602295e-01 4.663578420877456665e-02 8.789405971765518188e-02
2.338000000000000000e+03 2.280896186828613281e+01 -2.209481811523437500e+01 2.237391769886016846e-01 2.800959050655364990e-01 1.511505246162414551e-01 -3.569598793983459473e-01
2.339000000000000000e+03 4.526091003417968750e+01 -2.751079559326171875e+01 -1.740849018096923828e-01 1.159277439117431641e+00 2.955577671527862549e-01 6.000092625617980957e-02
2.340000000000000000e+03 4.450295639038085938e+01 -2.622517776489257812e+01 -1.472958773374557495e-01 9.198824763298034668e-01 2.317759841680526733e-01 6.064463779330253601e-02
2.341000000000000000e+03 4.227025604248046875e+01 -2.263164329528808594e+01 -7.996328920125961304e-02 4.030346274375915527e-01 9.692139923572540283e-02 7.841246575117111206e-02
2.342000000000000000e+03 2.219343185424804688e+01 -2.386250877380371094e+01 2.406435608863830566e-01 2.164262235164642334e-01 1.371209323406219482e-01 -3.592940270900726318e-01
2.343000000000000000e+03 2.454449081420898438e+01 -2.276863861083984375e+01 2.207743376493453979e-01 4.541914165019989014e-01 2.024897336959838867e-01 -3.719505965709686279e-01
2.344000000000000000e+03 4.299391937255859375e+01 -2.380141639709472656e+01 -1.041314676403999329e-01 5.440849661827087402e-01 1.319860517978668213e-01 7.266567647457122803e-02
2.345000000000000000e+03 4.193410873413085938e+01 -2.455673599243164062e+01 -1.299898028373718262e-01 2.525745332241058350e-01 3.677541762590408325e-02 1.108047440648078918e-01
2.346000000000000000e+03 3.890548706054687500e+01 -1.665678215026855469e+01 8.167875558137893677e-02 -3.608692809939384460e-02 1.367754768580198288e-02 5.218248441815376282e-02
2.347000000000000000e+03 2.570596504211425781e+01 -2.526234436035156250e+01 2.471719831228256226e-01 5.456895232200622559e-01 2.378584444522857666e-01 -3.892519474029541016e-01
2.348000000000000000e+03 2.752144432067871094e+01 -2.720883846282958984e+00 9.276717305183410645e-01 -1.123464778065681458e-01 2.445975691080093384e-01 -3.321154415607452393e-01
2.349000000000000000e+03 7.609085845947265625e+01 1.372928905487060547e+01 -9.204643219709396362e-02 8.649520874023437500e+00 2.567242383956909180e+00 7.254377752542495728e-02
2.350000000000000000e+03 7.606933593750000000e+01 3.521987152099609375e+01 8.004137277603149414e-01 7.653770923614501953e+00 2.536255359649658203e+00 2.736740112304687500e-01
2.351000000000000000e+03 7.670243072509765625e+01 2.677236795425415039e+00 -5.231373361311852932e-04 8.294634819030761719e+00 2.488233566284179688e+00 1.841716021299362183e-01
2.352000000000000000e+03 7.523597717285156250e+01 1.210630655288696289e+00 8.358232676982879639e-03 7.840295314788818359e+00 2.354596138000488281e+00 2.535789310932159424e-01
2.353000000000000000e+03 7.372252655029296875e+01 -3.929547071456909180e-01 1.579364575445652008e-02 7.373588085174560547e+00 2.216814517974853516e+00 3.173616528511047363e-01
2.354000000000000000e+03 7.424953460693359375e+01 -7.553836345672607422e+00 1.994707249104976654e-02 7.237148284912109375e+00 2.177128553390502930e+00 2.470186650753021240e-01
2.355000000000000000e+03 7.562197875976562500e+01 -1.416021156311035156e+01 6.517729256302118301e-03 7.297639369964599609e+00 2.191246986389160156e+00 1.660450398921966553e-01
2.356000000000000000e+03 7.680305480957031250e+01 4.109713554382324219e+00 -5.516246892511844635e-03 8.394779205322265625e+00 2.516778945922851562e+00 1.769413203001022339e-01
2.357000000000000000e+03 7.554679870605468750e+01 4.158100128173828125e+00 -2.541388152167201042e-03 8.057463645935058594e+00 2.416476726531982422e+00 2.456974834203720093e-01
2.358000000000000000e+03 7.536600494384765625e+01 -3.229219675064086914e+00 1.275056321173906326e-02 7.661784172058105469e+00 2.302360534667968750e+00 2.313004583120346069e-01
2.359000000000000000e+03 7.673022460937500000e+01 -4.501244068145751953e+00 6.937817670404911041e-03 7.929135322570800781e+00 2.380821943283081055e+00 1.620176136493682861e-01
2.360000000000000000e+03 7.544203186035156250e+01 -4.653753757476806641e+00 1.311422139406204224e-02 7.621380329132080078e+00 2.290348291397094727e+00 2.191117852926254272e-01
2.361000000000000000e+03 7.710636138916015625e+01 9.676736831665039062e+00 -2.450366318225860596e-02 8.777119636535644531e+00 2.625784635543823242e+00 1.288630664348602295e-01
2.362000000000000000e+03 7.588957977294921875e+01 8.322543144226074219e+00 -2.903134375810623169e-02 8.361538887023925781e+00 2.499752283096313477e+00 2.050024271011352539e-01
2.363000000000000000e+03 7.726616668701171875e+01 3.026572418212890625e+01 2.354076653718948364e-01 7.132082462310791016e+00 2.210247039794921875e+00 -1.098336935043334961e+00
2.364000000000000000e+03 7.516181945800781250e+01 2.874073791503906250e+01 -1.491704396903514862e-02 8.778203010559082031e+00 2.628985881805419922e+00 -1.569736480712890625e+00
2.365000000000000000e+03 7.612980651855468750e+01 2.744630050659179688e+01 -1.797552853822708130e-01 8.367360115051269531e+00 2.456281661987304688e+00 -1.378341436386108398e+00
2.366000000000000000e+03 7.605608367919921875e+01 1.238284683227539062e+01 -6.755895167589187622e-02 8.591823577880859375e+00 2.557279586791992188e+00 1.219577342271804810e-01
2.367000000000000000e+03 7.548332977294921875e+01 -1.686063766479492188e+01 7.738414220511913300e-03 7.175967216491699219e+00 2.155111789703369141e+00 1.628536283969879150e-01
2.368000000000000000e+03 7.556616973876953125e+01 -1.014554595947265625e+01 8.499355986714363098e-03 7.433369636535644531e+00 2.232560634613037109e+00 1.839888691902160645e-01
2.369000000000000000e+03 7.558915710449218750e+01 -1.149603271484375000e+01 9.292741306126117706e-03 7.389512062072753906e+00 2.219641447067260742e+00 1.793822497129440308e-01
2.370000000000000000e+03 7.554531097412109375e+01 -8.785354614257812500e+00 1.185190957039594650e-02 7.478653430938720703e+00 2.247151613235473633e+00 1.920892745256423950e-01
2.371000000000000000e+03 7.601288604736328125e+01 1.103403854370117188e+01 -5.475674942135810852e-02 8.522006988525390625e+00 2.540175199508666992e+00 1.558884382247924805e-01
2.372000000000000000e+03 7.607968902587890625e+01 3.280817031860351562e+01 8.648625612258911133e-01 7.585762500762939453e+00 2.535187482833862305e+00 -6.998792886734008789e-01
2.373000000000000000e+03 7.613239288330078125e+01 2.044590377807617188e+01 -2.673129439353942871e-01 8.768532752990722656e+00 2.550365924835205078e+00 -4.068082869052886963e-01
2.374000000000000000e+03 7.724169158935546875e+01 1.649598503112792969e+01 -7.962425798177719116e-02 9.015478134155273438e+00 2.680756092071533203e+00 -7.579151540994644165e-02
2.375000000000000000e+03 7.612225341796875000e+01 1.507412624359130859e+01 -1.122456938028335571e-01 8.702486038208007812e+00 2.577072143554687500e+00 1.650602743029594421e-02
2.376000000000000000e+03 7.558246612548828125e+01 -1.550068187713623047e+01 3.334892215207219124e-03 7.242423057556152344e+00 2.173727273941040039e+00 1.648251563310623169e-01
2.377000000000000000e+03 7.535913848876953125e+01 -1.824130821228027344e+01 5.325276404619216919e-03 7.111112594604492188e+00 2.134931325912475586e+00 1.585845649242401123e-01
2.378000000000000000e+03 7.676570129394531250e+01 -1.685868263244628906e+01 2.945877786260098219e-04 7.426915168762207031e+00 2.228163003921508789e+00 1.184945628046989441e-01
2.379000000000000000e+03 7.514500427246093750e+01 -2.765660476684570312e+01 1.435150951147079468e-02 6.815642356872558594e+00 2.048998117446899414e+00 1.372601985931396484e-01
2.380000000000000000e+03 7.408395385742187500e+01 -2.255738639831542969e+01 4.801682662218809128e-03 6.758828163146972656e+00 2.029088973999023438e+00 1.788685172796249390e-01
2.381000000000000000e+03 7.615897369384765625e+01 1.909407806396484375e+01 -2.267749607563018799e-01 8.774907112121582031e+00 2.564439773559570312e+00 -2.747122645378112793e-01
2.382000000000000000e+03 7.616348266601562500e+01 1.775370788574218750e+01 -1.773902475833892822e-01 8.768147468566894531e+00 2.577227115631103516e+00 -1.519132256507873535e-01
2.383000000000000000e+03 7.417508697509765625e+01 -2.510176086425781250e+01 9.755040518939495087e-03 6.720954418182373047e+00 2.019212961196899414e+00 1.727423965930938721e-01
2.384000000000000000e+03 7.668410491943359375e+01 -2.509935951232910156e+01 3.813697025179862976e-03 7.144955158233642578e+00 2.144630670547485352e+00 1.067080646753311157e-01
2.385000000000000000e+03 7.535865783691406250e+01 -2.243266677856445312e+01 1.481793704442679882e-03 6.989362716674804688e+00 2.097253322601318359e+00 1.529957056045532227e-01
2.386000000000000000e+03 7.607935333251953125e+01 2.605308914184570312e+01 -3.086118102073669434e-01 8.565968513488769531e+00 2.477206945419311523e+00 -1.208821296691894531e+00
2.387000000000000000e+03 7.608507537841796875e+01 2.182122230529785156e+01 -3.348217010498046875e-01 8.753468513488769531e+00 2.525593996047973633e+00 -5.874845981597900391e-01
2.388000000000000000e+03 7.458856201171875000e+01 -3.020370292663574219e+01 1.826533675193786621e-02 6.667618751525878906e+00 2.005765199661254883e+00 1.393703222274780273e-01
2.389000000000000000e+03 7.290887451171875000e+01 -3.466582107543945312e+01 4.165311902761459351e-02 6.283121585845947266e+00 1.897432446479797363e+00 1.229010745882987976e-01
2.390000000000000000e+03 7.602832031250000000e+01 2.463855171203613281e+01 -3.782455623149871826e-01 8.658963203430175781e+00 2.484215259552001953e+00 -1.003115653991699219e+00
2.391000000000000000e+03 7.575801086425781250e+01 -3.184744453430175781e+01 1.143000088632106781e-02 6.813046932220458984e+00 2.047343015670776367e+00 9.968828409910202026e-02
2.392000000000000000e+03 7.488954925537109375e+01 -2.892448425292968750e+01 1.463786978274583817e-02 6.747731685638427734e+00 2.028710842132568359e+00 1.352745443582534790e-01
2.393000000000000000e+03 2.511672592163085938e+01 -2.402803039550781250e+01 2.361966371536254883e-01 5.075840353965759277e-01 2.231342047452926636e-01 -3.677983582019805908e-01
2.394000000000000000e+03 3.847669601440429688e+01 -1.862431335449218750e+01 -3.418245539069175720e-02 -1.708832234144210815e-01 -6.151970475912094116e-02 1.324344426393508911e-01
2.395000000000000000e+03 2.632124137878417969e+01 -2.646575927734375000e+01 2.605713903903961182e-01 5.909448266029357910e-01 2.554548680782318115e-01 -3.995832502841949463e-01
2.396000000000000000e+03 7.539376068115234375e+01 3.903260040283203125e+01 -3.289555907249450684e-01 8.577001571655273438e+00 2.474413871765136719e+00 7.311284542083740234e-01
2.397000000000000000e+03 7.502140045166015625e+01 3.630124664306640625e+01 8.576350808143615723e-01 8.683589935302734375e+00 2.862367630004882812e+00 8.307805061340332031e-01
2.398000000000000000e+03 4.356539726257324219e+00 -1.594924163818359375e+01 2.535764127969741821e-02 -7.240346670150756836e-01 -2.096031159162521362e-01 -3.068702518939971924e-01
2.399000000000000000e+03 4.216619968414306641e+00 2.262847900390625000e+01 -3.624832490459084511e-03 -8.762666583061218262e-02 -2.737544849514961243e-02 -1.906258054077625275e-02
2.400000000000000000e+03 4.096414089202880859e+00 2.123670768737792969e+01 -2.483695512637495995e-03 -9.263626486063003540e-02 -2.853598818182945251e-02 -2.047807537019252777e-02
2.401000000000000000e+03 4.418597698211669922e+00 -1.733294486999511719e+01 3.044526092708110809e-02 -7.887877225875854492e-01 -2.275027334690093994e-01 -2.895163893699645996e-01
2.402000000000000000e+03 4.573132514953613281e+00 -2.150812339782714844e+01 3.919277712702751160e-02 -9.701932072639465332e-01 -2.793001234531402588e-01 -2.437287867069244385e-01
2.403000000000000000e+03 3.964365243911743164e+00 1.849273872375488281e+01 -4.427791282068938017e-04 -1.016177758574485779e-01 -3.061816655099391937e-02 -2.221748046576976776e-02
2.404000000000000000e+03 4.015670776367187500e+00 1.986015129089355469e+01 -2.470698673278093338e-03 -9.722346812486648560e-02 -2.990824915468692780e-02 -2.145499736070632935e-02
2.405000000000000000e+03 2.771101474761962891e+00 1.593641376495361328e+01 1.591487787663936615e-03 -1.405962407588958740e-01 -4.170142486691474915e-02 -1.700846105813980103e-02
2.406000000000000000e+03 2.739867448806762695e+00 1.456122779846191406e+01 4.891976248472929001e-03 -1.462178826332092285e-01 -4.239777475595474243e-02 -1.460918970406055450e-02
2.407000000000000000e+03 4.967065334320068359e+00 1.423698425292968750e+01 1.347450446337461472e-02 -8.286209404468536377e-02 -2.081627584993839264e-02 -1.960828341543674469e-02
2.408000000000000000e+03 4.597071170806884766e+00 -2.818727493286132812e+01 3.698355704545974731e-02 -1.190462470054626465e+00 -3.460436761379241943e-01 -1.498382985591888428e-01
2.409000000000000000e+03 3.269717216491699219e+00 -2.303491020202636719e+01 2.297056280076503754e-02 -1.116490721702575684e+00 -3.280560374259948730e-01 -1.692283600568771362e-01
2.410000000000000000e+03 4.606210708618164062e+00 -2.289988708496093750e+01 3.755718842148780823e-02 -1.017646670341491699e+00 -2.940268516540527344e-01 -2.201387733221054077e-01
2.411000000000000000e+03 4.493475437164306641e+00 2.544686508178710938e+01 -4.154857248067855835e-03 -7.925412803888320923e-02 -2.502269484102725983e-02 -1.594760082662105560e-02
2.412000000000000000e+03 3.339190721511840820e+00 2.844077682495117188e+01 -1.798267709091305733e-03 -8.965414762496948242e-02 -2.743572555482387543e-02 -1.053114421665668488e-02
2.413000000000000000e+03 4.857354164123535156e+00 2.951129722595214844e+01 -3.895835950970649719e-03 -6.963906437158584595e-02 -2.206046879291534424e-02 -1.099503040313720703e-02
2.414000000000000000e+03 5.701889038085937500e+00 -1.721416664123535156e+01 4.828879609704017639e-02 -7.529513835906982422e-01 -2.113987803459167480e-01 -3.538359999656677246e-01
2.415000000000000000e+03 4.477094650268554688e+00 -1.872045516967773438e+01 3.602498024702072144e-02 -8.563645482063293457e-01 -2.461018711328506470e-01 -2.789275646209716797e-01
2.416000000000000000e+03 5.999022483825683594e+00 -2.417140769958496094e+01 5.818097665905952454e-02 -9.665724635124206543e-01 -2.725174427032470703e-01 -2.461244463920593262e-01
2.417000000000000000e+03 4.625106811523437500e+00 -2.427988624572753906e+01 3.980200365185737610e-02 -1.069922208786010742e+00 -3.090360760688781738e-01 -2.067174315452575684e-01
2.418000000000000000e+03 3.278815984725952148e+00 -2.441551589965820312e+01 1.899638958275318146e-02 -1.171096324920654297e+00 -3.456299602985382080e-01 -1.485262513160705566e-01
2.419000000000000000e+03 3.939688682556152344e+00 -1.047538852691650391e+01 -2.843600511550903320e-02 -4.098133742809295654e-01 -1.314748227596282959e-01 -2.838165163993835449e-01
2.420000000000000000e+03 3.733430624008178711e+00 -9.194852828979492188e+00 -4.826287552714347839e-02 -3.223886191844940186e-01 -1.111954525113105774e-01 -2.507843375205993652e-01
2.421000000000000000e+03 4.212458610534667969e+00 -1.318607044219970703e+01 1.716440194286406040e-03 -5.714154839515686035e-01 -1.709097027778625488e-01 -3.164782226085662842e-01
2.422000000000000000e+03 5.373795509338378906e+00 2.235776519775390625e+01 -4.380906466394662857e-03 -6.683022528886795044e-02 -2.136333845555782318e-02 -2.069772593677043915e-02
2.423000000000000000e+03 4.562989711761474609e+00 2.681765747070312500e+01 -3.312793327495455742e-03 -7.597833126783370972e-02 -2.378733828663825989e-02 -1.460754964500665665e-02
2.424000000000000000e+03 4.363028049468994141e+00 2.403962516784667969e+01 -3.275851253420114517e-03 -8.265735208988189697e-02 -2.577996067702770233e-02 -1.750863529741764069e-02
2.425000000000000000e+03 4.809252262115478516e+00 1.155502700805664062e+01 3.113393485546112061e-02 -9.532757103443145752e-02 -1.925809122622013092e-02 -4.111644811928272247e-03
2.426000000000000000e+03 3.489888429641723633e+00 -2.974738502502441406e+01 2.235197834670543671e-02 -1.329430937767028809e+00 -3.921236693859100342e-01 -1.008294001221656799e-01
2.427000000000000000e+03 4.752203941345214844e+00 -2.939607048034667969e+01 3.769676759839057922e-02 -1.209264397621154785e+00 -3.514702916145324707e-01 -1.395210474729537964e-01
2.428000000000000000e+03 4.097248077392578125e+00 3.549538803100585938e+01 -9.075975976884365082e-04 -7.290702313184738159e-02 -2.214438654482364655e-02 -4.194595851004123688e-03
2.429000000000000000e+03 3.730866909027099609e+00 1.171201038360595703e+01 2.014073170721530914e-02 -1.242794468998908997e-01 -3.124161623418331146e-02 -9.962096810340881348e-04
2.430000000000000000e+03 4.109263420104980469e+00 -1.181157302856445312e+01 -1.715392246842384338e-02 -4.835938811302185059e-01 -1.502243429422378540e-01 -3.026327788829803467e-01
2.431000000000000000e+03 4.311140060424804688e+00 -5.789285659790039062e+00 -1.025438159704208374e-01 -1.472382843494415283e-01 -7.493463158607482910e-02 -1.779111921787261963e-01
2.432000000000000000e+03 8.023591995239257812e+00 -3.231874084472656250e+01 8.529618382453918457e-02 -9.606050848960876465e-01 -2.625926733016967773e-01 -1.704067736864089966e-01
2.433000000000000000e+03 5.119052886962890625e+00 -3.061799240112304688e+01 3.837884962558746338e-02 -1.204331755638122559e+00 -3.497858643531799316e-01 -1.313383430242538452e-01
2.434000000000000000e+03 5.458104610443115234e+00 -3.188604354858398438e+01 4.027337953448295593e-02 -1.207918524742126465e+00 -3.502935469150543213e-01 -1.229486986994743347e-01
2.435000000000000000e+03 3.749396324157714844e+00 -3.106327438354492188e+01 2.048900350928306580e-02 -1.343551278114318848e+00 -3.969186842441558838e-01 -9.318037331104278564e-02
2.436000000000000000e+03 5.253987312316894531e+00 3.226642990112304688e+01 -3.344088327139616013e-03 -6.169690564274787903e-02 -1.951229758560657501e-02 -8.786386810243129730e-03
2.437000000000000000e+03 2.572938680648803711e+00 7.831056118011474609e+00 2.092226035892963409e-02 -1.426727473735809326e-01 -3.652514517307281494e-02 4.475164785981178284e-02
2.438000000000000000e+03 3.600713014602661133e+00 9.113816261291503906e+00 3.370096534490585327e-02 -1.313572973012924194e-01 -2.929689735174179077e-02 3.090783953666687012e-02
2.439000000000000000e+03 2.506874799728393555e+00 -6.785852432250976562e+00 -3.398661687970161438e-02 -1.670834869146347046e-01 -6.032102927565574646e-02 -1.235468983650207520e-01
2.440000000000000000e+03 4.596217346191406250e+01 -2.888240623474121094e+01 -1.419540047645568848e-01 1.418357968330383301e+00 3.829211890697479248e-01 9.925632923841476440e-02
2.441000000000000000e+03 2.611662292480468750e+01 -2.937092208862304688e+01 3.317449092864990234e-01 5.119491219520568848e-01 2.531082034111022949e-01 -4.028816223144531250e-01
2.442000000000000000e+03 2.864457321166992188e+01 -3.200082397460937500e+01 4.295408725738525391e-01 6.343284249305725098e-01 3.191607892513275146e-01 -4.253458082675933838e-01
2.443000000000000000e+03 1.827720069885253906e+01 -1.392258739471435547e+01 2.631404101848602295e-01 -3.019848763942718506e-01 -1.165334507822990417e-02 -3.193816244602203369e-01
2.444000000000000000e+03 1.861515235900878906e+01 -1.195652103424072266e+01 2.504341304302215576e-01 -3.737366795539855957e-01 -3.699076548218727112e-02 -2.754924297332763672e-01
2.445000000000000000e+03 3.266326141357421875e+01 -7.542959690093994141e+00 6.199436187744140625e-01 -3.602363765239715576e-01 7.791216671466827393e-02 -1.772484034299850464e-01
2.446000000000000000e+03 2.579454994201660156e+01 -8.901453614234924316e-01 2.000353038311004639e-01 -7.296641170978546143e-02 3.812066465616226196e-02 -3.858720958232879639e-01
2.447000000000000000e+03 2.296678733825683594e+01 9.319416284561157227e-01 -2.298101425170898438e+00 1.300883740186691284e-01 -6.504039168357849121e-01 -1.383939266204833984e+00
2.448000000000000000e+03 1.555422496795654297e+01 -1.051070594787597656e+01 1.665035486221313477e-01 -7.505524754524230957e-01 -1.752146929502487183e-01 -5.794767141342163086e-01
2.449000000000000000e+03 1.710627365112304688e+01 -7.590531349182128906e+00 -2.652795054018497467e-02 -1.199918985366821289e+00 -3.679341077804565430e-01 -6.571647524833679199e-01
2.450000000000000000e+03 1.599373722076416016e+01 -9.166450500488281250e+00 4.212458059191703796e-02 -8.723696470260620117e-01 -2.490735203027725220e-01 -6.531594991683959961e-01
2.451000000000000000e+03 3.096116638183593750e+01 -7.167540550231933594e+00 6.732242107391357422e-01 -2.123689055442810059e-01 1.382565945386886597e-01 -2.794471085071563721e-01
2.452000000000000000e+03 3.195521354675292969e+01 -6.448266983032226562e+00 7.485148310661315918e-01 -3.841843903064727783e-01 1.092991232872009277e-01 -1.899882405996322632e-01
2.453000000000000000e+03 5.498185729980468750e+01 4.025547409057617188e+01 4.666438400745391846e-01 -4.059076607227325439e-01 1.822085864841938019e-02 2.341340035200119019e-01
2.454000000000000000e+03 3.586811447143554688e+01 -1.182381057739257812e+01 3.128865063190460205e-01 -2.603084444999694824e-01 1.577341556549072266e-02 -4.888696968555450439e-02
2.455000000000000000e+03 3.207122039794921875e+01 -4.103571319580078125e+01 1.001991152763366699e+00 4.353982508182525635e-01 4.312168061733245850e-01 -1.347373723983764648e-01
2.456000000000000000e+03 3.053970146179199219e+01 -3.601937103271484375e+01 5.636589527130126953e-01 6.156290173530578613e-01 3.537863790988922119e-01 -4.239752888679504395e-01
2.457000000000000000e+03 3.116088867187500000e+01 -3.834061050415039062e+01 7.905665040016174316e-01 5.078265070915222168e-01 3.895179033279418945e-01 -3.702955543994903564e-01
2.458000000000000000e+03 5.003698348999023438e+01 -3.522485733032226562e+01 5.110527276992797852e-01 2.343648672103881836e+00 8.564103841781616211e-01 4.299978613853454590e-01
2.459000000000000000e+03 4.734819412231445312e+01 -4.109442901611328125e+01 1.369117498397827148e+00 1.990408778190612793e+00 1.007857918739318848e+00 1.646475046873092651e-01
2.460000000000000000e+03 5.045904159545898438e+01 -3.927621459960937500e+01 9.700884819030761719e-01 2.309202194213867188e+00 9.837871789932250977e-01 2.531245648860931396e-01
2.461000000000000000e+03 2.511328315734863281e+01 -2.715828704833984375e+01 2.808781862258911133e-01 4.630555510520935059e-01 2.231801152229309082e-01 -3.877237439155578613e-01
2.462000000000000000e+03 2.008077239990234375e+01 -1.444022083282470703e+01 2.534162700176239014e-01 -4.202444851398468018e-02 6.341754645109176636e-02 -2.495471537113189697e-01
2.463000000000000000e+03 5.296279907226562500e+01 -3.318215560913085938e+01 2.840860784053802490e-01 2.885411739349365234e+00 9.508493542671203613e-01 3.954392373561859131e-01
2.464000000000000000e+03 4.841874694824218750e+01 -3.240513992309570312e+01 7.399663329124450684e-02 2.132002592086791992e+00 6.617997884750366211e-01 3.497993350028991699e-01
2.465000000000000000e+03 4.726186752319335938e+01 -2.827326583862304688e+01 -1.520967632532119751e-01 1.710190653800964355e+00 4.674281477928161621e-01 1.395899504423141479e-01
2.466000000000000000e+03 4.643323516845703125e+01 -3.039312744140625000e+01 -1.391234993934631348e-01 1.616390705108642578e+00 4.431801736354827881e-01 1.359248757362365723e-01
2.467000000000000000e+03 2.782772064208984375e+01 3.870412111282348633e+00 -2.340956687927246094e+00 -1.060068726539611816e+00 -1.020307660102844238e+00 -1.116052389144897461e+00
2.468000000000000000e+03 2.629247665405273438e+01 3.262622117996215820e+00 -2.793870925903320312e+00 -8.372836112976074219e-01 -1.089346289634704590e+00 -1.273887753486633301e+00
2.469000000000000000e+03 2.824430847167968750e+01 4.172253131866455078e+00 -2.285984516143798828e+00 -1.158398866653442383e+00 -1.033315062522888184e+00 -1.116511821746826172e+00
2.470000000000000000e+03 2.520518493652343750e+01 3.126523971557617188e+00 -3.219602346420288086e+00 -8.027125597000122070e-01 -1.206694483757019043e+00 -1.487848401069641113e+00
2.471000000000000000e+03 2.423812294006347656e+01 1.339032769203186035e+00 -2.189840078353881836e+00 -2.177569419145584106e-01 -7.222790718078613281e-01 -9.524288773536682129e-01
2.472000000000000000e+03 2.500995254516601562e+01 -1.223940253257751465e-01 -4.366099238395690918e-01 2.378533780574798584e-01 -5.962696671485900879e-02 -2.586581408977508545e-01
2.473000000000000000e+03 2.526162910461425781e+01 2.314286947250366211e+00 -2.697669029235839844e+00 -5.764153003692626953e-01 -9.822252988815307617e-01 -1.113868474960327148e+00
2.474000000000000000e+03 2.578958892822265625e+01 2.752021789550781250e+00 -2.769403934478759766e+00 -6.739771366119384766e-01 -1.033014297485351562e+00 -1.161259055137634277e+00
2.475000000000000000e+03 2.487584877014160156e+01 2.453930139541625977e+00 -2.980858087539672852e+00 -6.178637146949768066e-01 -1.079616546630859375e+00 -1.290693998336791992e+00
2.476000000000000000e+03 2.606162834167480469e+01 2.692975044250488281e+00 -2.561390876770019531e+00 -6.522029638290405273e-01 -9.640781283378601074e-01 -1.030134558677673340e+00
2.477000000000000000e+03 2.763540649414062500e+01 4.156362533569335938e+00 -2.523211717605590820e+00 -1.162869811058044434e+00 -1.105824470520019531e+00 -1.307117104530334473e+00
2.478000000000000000e+03 2.696333122253417969e+01 3.563367128372192383e+00 -2.619337558746337891e+00 -9.475598335266113281e-01 -1.070069193840026855e+00 -1.232936620712280273e+00
2.479000000000000000e+03 2.901465797424316406e+01 4.531014442443847656e+00 -2.114198446273803711e+00 -1.192381024360656738e+00 -9.919738173484802246e-01 -9.903782606124877930e-01
2.480000000000000000e+03 6.568307495117187500e+01 3.186444664001464844e+01 1.732226371765136719e+00 3.829956054687500000e+00 1.668654799461364746e+00 4.231989860534667969e+00
2.481000000000000000e+03 6.620314788818359375e+01 3.178787803649902344e+01 1.665463447570800781e+00 6.393445491790771484e+00 2.417672634124755859e+00 5.179855346679687500e+00
2.482000000000000000e+03 6.467800140380859375e+01 3.153761482238769531e+01 9.449005126953125000e-01 1.990801453590393066e+00 8.807106018066406250e-01 2.599159002304077148e+00
2.483000000000000000e+03 6.689781951904296875e+01 3.179087257385253906e+01 8.301301598548889160e-01 1.101481723785400391e+01 3.553484201431274414e+00 5.763657569885253906e+00
2.484000000000000000e+03 6.716546630859375000e+01 3.170538520812988281e+01 3.975954055786132812e-01 1.267752456665039062e+01 3.922536134719848633e+00 5.365926265716552734e+00
2.485000000000000000e+03 6.368339538574218750e+01 3.133212089538574219e+01 4.208312630653381348e-01 1.292287588119506836e+00 5.139356255531311035e-01 1.625027298927307129e+00
2.486000000000000000e+03 7.513188934326171875e+01 3.112798309326171875e+01 8.126909732818603516e-01 8.466486930847167969e+00 2.783753395080566406e+00 -1.355117797851562500e+00
2.487000000000000000e+03 6.967173004150390625e+01 3.296533203125000000e+01 5.536720275878906250e+00 1.516200351715087891e+01 6.209617137908935547e+00 -2.059600830078125000e+00
2.488000000000000000e+03 6.964382171630859375e+01 3.502609634399414062e+01 4.903856754302978516e+00 1.562152767181396484e+01 6.157615184783935547e+00 2.288212060928344727e+00
2.489000000000000000e+03 6.963345336914062500e+01 3.408672332763671875e+01 7.825434207916259766e+00 1.460260391235351562e+01 6.728411674499511719e+00 4.933415651321411133e-01
2.490000000000000000e+03 6.965980529785156250e+01 3.256329345703125000e+01 4.106053352355957031e+00 1.529511356353759766e+01 5.820350170135498047e+00 -2.138596057891845703e+00
2.491000000000000000e+03 2.267418861389160156e+01 6.144605875015258789e-01 -2.097646713256835938e+00 5.481207966804504395e-01 -4.648577570915222168e-01 -1.489180803298950195e+00
2.492000000000000000e+03 2.298435020446777344e+01 6.092500686645507812e-01 -1.968968152999877930e+00 4.259540885686874390e-02 -5.779117941856384277e-01 -1.301991105079650879e+00
2.493000000000000000e+03 2.935625648498535156e+01 4.806962966918945312e+00 -2.109274864196777344e+00 -1.206924080848693848e+00 -9.948596954345703125e-01 -9.918852448463439941e-01
2.494000000000000000e+03 2.876690864562988281e+01 2.104646110534667969e+01 6.339935958385467529e-02 8.691374212503433228e-02 4.509392753243446350e-02 7.552620023488998413e-02
2.495000000000000000e+03 2.439208030700683594e+01 -6.721410155296325684e-01 3.372415900230407715e-01 4.713742733001708984e-01 2.425847500562667847e-01 -4.316770136356353760e-01
2.496000000000000000e+03 1.917998123168945312e+01 1.111795139312744141e+01 1.100661978125572205e-01 1.625431627035140991e-01 8.178281038999557495e-02 1.365315318107604980e-01
2.497000000000000000e+03 1.870416831970214844e+01 1.158633804321289062e+01 9.616410732269287109e-02 1.679390221834182739e-01 7.923094183206558228e-02 1.274688839912414551e-01
2.498000000000000000e+03 4.018703842163085938e+01 1.933264732360839844e+01 -1.121418237686157227e+00 -1.208736658096313477e+00 -6.990464925765991211e-01 -1.283272743225097656e+00
2.499000000000000000e+03 3.914995193481445312e+01 1.846184921264648438e+01 -1.172876000404357910e+00 -1.306269764900207520e+00 -7.437437176704406738e-01 -1.288342714309692383e+00
2.500000000000000000e+03 1.606748199462890625e+01 7.278775691986083984e+00 1.406406909227371216e-01 2.790013253688812256e-01 1.258926093578338623e-01 1.921991258859634399e-01
2.501000000000000000e+03 2.934959602355957031e+01 2.099560165405273438e+01 6.623174995183944702e-02 8.365083485841751099e-02 4.496477544307708740e-02 7.502066344022750854e-02
2.502000000000000000e+03 3.480209732055664062e+01 2.728711891174316406e+01 4.982153326272964478e-02 7.194396853446960449e-02 3.652965277433395386e-02 6.003079935908317566e-02
2.503000000000000000e+03 3.462401962280273438e+01 2.673731040954589844e+01 5.065188184380531311e-02 7.279302924871444702e-02 3.703347221016883850e-02 6.085365265607833862e-02
2.504000000000000000e+03 3.211200332641601562e+01 1.094056129455566406e+01 -1.403921484947204590e+00 -1.424264192581176758e+00 -8.484556674957275391e-01 -1.321192264556884766e+00
2.505000000000000000e+03 3.853099060058593750e+01 1.793358802795410156e+01 -1.208962202072143555e+00 -1.398160338401794434e+00 -7.821367979049682617e-01 -1.296390771865844727e+00
2.506000000000000000e+03 3.986972427368164062e+01 1.898734474182128906e+01 -1.132457852363586426e+00 -1.224223732948303223e+00 -7.070044875144958496e-01 -1.280864715576171875e+00
2.507000000000000000e+03 2.402081298828125000e+01 1.606077384948730469e+01 8.542905747890472412e-02 1.143997088074684143e-01 5.994863063097000122e-02 1.015603691339492798e-01
2.508000000000000000e+03 1.720078659057617188e+01 9.307231903076171875e+00 1.182130873203277588e-01 2.076857984066009521e-01 9.776967018842697144e-02 1.503452360630035400e-01
2.509000000000000000e+03 3.290972900390625000e+01 2.505586624145507812e+01 5.067626014351844788e-02 7.412061840295791626e-02 3.743906319141387939e-02 6.299073994159698486e-02
2.510000000000000000e+03 3.262611770629882812e+01 2.429060363769531250e+01 5.259535461664199829e-02 7.470500469207763672e-02 3.819010779261589050e-02 6.361082196235656738e-02
2.511000000000000000e+03 3.291772842407226562e+01 2.453612327575683594e+01 5.174576491117477417e-02 7.408688217401504517e-02 3.774979338049888611e-02 6.377810239791870117e-02
2.512000000000000000e+03 4.743775558471679688e+01 2.557305145263671875e+01 -1.211334824562072754e+00 -9.543454647064208984e-01 -6.497040987014770508e-01 -1.131992340087890625e+00
2.513000000000000000e+03 4.710728073120117188e+01 2.582580757141113281e+01 -1.268277764320373535e+00 -1.040897011756896973e+00 -6.927524805068969727e-01 -1.204074740409851074e+00
2.514000000000000000e+03 4.187167739868164062e+01 2.154900932312011719e+01 -1.301162838935852051e+00 -1.254261374473571777e+00 -7.666273117065429688e-01 -1.283817291259765625e+00
2.515000000000000000e+03 2.101468276977539062e+01 1.278981018066406250e+01 1.041794493794441223e-01 1.420739889144897461e-01 7.387603074312210083e-02 1.221803054213523865e-01
2.516000000000000000e+03 2.046778678894042969e+01 1.181570625305175781e+01 1.132142171263694763e-01 1.478267759084701538e-01 7.831230014562606812e-02 1.287294775247573853e-01
2.517000000000000000e+03 1.944941902160644531e+01 1.166510963439941406e+01 1.048914492130279541e-01 1.578486263751983643e-01 7.882202416658401489e-02 1.300512254238128662e-01
2.518000000000000000e+03 3.824769210815429688e+01 1.765944671630859375e+01 -1.221665740013122559e+00 -1.436560392379760742e+00 -7.974678277969360352e-01 -1.303885459899902344e+00
2.519000000000000000e+03 3.973887634277343750e+01 1.833531761169433594e+01 -1.133962750434875488e+00 -1.209122180938720703e+00 -7.029255032539367676e-01 -1.248871803283691406e+00
2.520000000000000000e+03 4.623420715332031250e+01 2.495474815368652344e+01 -1.303848505020141602e+00 -1.082997918128967285e+00 -7.160539031028747559e-01 -1.209071636199951172e+00
2.521000000000000000e+03 2.075383567810058594e+01 1.255433750152587891e+01 1.053307726979255676e-01 1.454606354236602783e-01 7.523742318153381348e-02 1.231285631656646729e-01
2.522000000000000000e+03 4.353175354003906250e+01 2.261001968383789062e+01 -1.310499668121337891e+00 -1.212684750556945801e+00 -7.569553256034851074e-01 -1.268191695213317871e+00
2.523000000000000000e+03 3.595136260986328125e+01 2.819151878356933594e+01 5.179465934634208679e-02 6.936776638031005859e-02 3.634872660040855408e-02 5.868067219853401184e-02
2.524000000000000000e+03 3.514870452880859375e+01 2.747195434570312500e+01 5.143241211771965027e-02 7.206472754478454590e-02 3.704914450645446777e-02 5.882434174418449402e-02
2.525000000000000000e+03 1.758164405822753906e+01 9.509716033935546875e+00 1.219604536890983582e-01 2.024126201868057251e-01 9.731192141771316528e-02 1.484999507665634155e-01
2.526000000000000000e+03 1.672361755371093750e+01 8.472522735595703125e+00 1.279099583625793457e-01 2.339373081922531128e-01 1.085541769862174988e-01 1.673046499490737915e-01
2.527000000000000000e+03 4.786600112915039062e+01 2.621983337402343750e+01 -1.221338987350463867e+00 -9.743559956550598145e-01 -6.587085127830505371e-01 -1.143079161643981934e+00
2.528000000000000000e+03 2.368228340148925781e+01 1.574657249450683594e+01 8.677420765161514282e-02 1.182887107133865356e-01 6.151887774467468262e-02 1.026899889111518860e-01
2.529000000000000000e+03 3.557575607299804688e+01 1.423555469512939453e+01 -1.260772824287414551e+00 -1.439153552055358887e+00 -8.099778890609741211e-01 -1.332041501998901367e+00
2.530000000000000000e+03 3.480377960205078125e+01 1.391101264953613281e+01 -1.332190752029418945e+00 -1.493390560150146484e+00 -8.476743698120117188e-01 -1.371721744537353516e+00
2.531000000000000000e+03 3.367136383056640625e+01 1.190316200256347656e+01 -1.292259097099304199e+00 -1.396048069000244141e+00 -8.064921498298645020e-01 -1.308538436889648438e+00
2.532000000000000000e+03 4.382094573974609375e+01 2.287003326416015625e+01 -1.314692735671997070e+00 -1.217767715454101562e+00 -7.597380876541137695e-01 -1.265701889991760254e+00
2.533000000000000000e+03 2.224584388732910156e+01 1.365529823303222656e+01 1.073509529232978821e-01 1.326811164617538452e-01 7.200962305068969727e-02 1.158027648925781250e-01
2.534000000000000000e+03 2.150610351562500000e+01 1.329841518402099609e+01 1.035248190164566040e-01 1.369280517101287842e-01 7.213585823774337769e-02 1.183690652251243591e-01
2.535000000000000000e+03 2.443835449218750000e+01 1.651877021789550781e+01 8.467966318130493164e-02 1.096280962228775024e-01 5.829232558608055115e-02 9.886175394058227539e-02
2.536000000000000000e+03 2.487277412414550781e+01 1.716512870788574219e+01 8.123940229415893555e-02 1.075476631522178650e-01 5.663611739873886108e-02 9.433104842901229858e-02
2.537000000000000000e+03 4.296238327026367188e+01 2.209623908996582031e+01 -1.297160029411315918e+00 -1.207535028457641602e+00 -7.514085173606872559e-01 -1.261923551559448242e+00
2.538000000000000000e+03 3.781317901611328125e+01 3.146195030212402344e+01 5.309739708900451660e-02 5.998572334647178650e-02 3.392493724822998047e-02 5.239501968026161194e-02
2.539000000000000000e+03 3.882999801635742188e+01 1.820108413696289062e+01 -1.191167712211608887e+00 -1.351909160614013672e+00 -7.629230618476867676e-01 -1.293337583541870117e+00
2.540000000000000000e+03 4.757777023315429688e+01 2.643485641479492188e+01 -1.270602703094482422e+00 -1.049681663513183594e+00 -6.960853338241577148e-01 -1.202305316925048828e+00
2.541000000000000000e+03 4.809596252441406250e+01 2.747061729431152344e+01 -1.335712075233459473e+00 -1.110378980636596680e+00 -7.338272929191589355e-01 -1.232836961746215820e+00
2.542000000000000000e+03 3.026700973510742188e+01 2.174986457824707031e+01 6.156109645962715149e-02 7.987648993730545044e-02 4.243127629160881042e-02 7.162688672542572021e-02
2.543000000000000000e+03 2.904447555541992188e+01 2.133255958557128906e+01 6.184008345007896423e-02 8.520947396755218506e-02 4.411486908793449402e-02 7.455906271934509277e-02
2.544000000000000000e+03 3.583267211914062500e+01 1.452260875701904297e+01 -1.252163767814636230e+00 -1.444225907325744629e+00 -8.089169263839721680e-01 -1.329393506050109863e+00
2.545000000000000000e+03 1.578166198730468750e+01 7.083031177520751953e+00 1.446711868047714233e-01 3.019823431968688965e-01 1.339960545301437378e-01 1.920747011899948120e-01
2.546000000000000000e+03 3.292048645019531250e+01 1.118391227722167969e+01 -1.336257338523864746e+00 -1.376987218856811523e+00 -8.139733672142028809e-01 -1.304707050323486328e+00
2.547000000000000000e+03 3.366141510009765625e+01 2.566726684570312500e+01 5.110765621066093445e-02 7.458291947841644287e-02 3.770717233419418335e-02 6.137054041028022766e-02
2.548000000000000000e+03 3.716733932495117188e+01 3.007475662231445312e+01 5.128290131688117981e-02 6.603328138589859009e-02 3.519485518336296082e-02 5.423213914036750793e-02
2.549000000000000000e+03 4.923856735229492188e+01 2.848949813842773438e+01 -1.339091300964355469e+00 -1.041060686111450195e+00 -7.140455842018127441e-01 -1.171632051467895508e+00
2.550000000000000000e+03 2.798626899719238281e+01 1.989322471618652344e+01 7.031673192977905273e-02 9.096906334161758423e-02 4.838573932647705078e-02 8.084353059530258179e-02
2.551000000000000000e+03 4.198616409301757812e+01 3.555517196655273438e+01 7.689440995454788208e-02 3.635075688362121582e-02 3.397354856133460999e-02 4.679864272475242615e-02
2.552000000000000000e+03 2.735458755493164062e+01 1.975091171264648438e+01 6.913460791110992432e-02 9.460281580686569214e-02 4.912122711539268494e-02 8.140487968921661377e-02
2.553000000000000000e+03 4.214406967163085938e+01 2.181711578369140625e+01 -1.334044098854064941e+00 -1.250293850898742676e+00 -7.753013372421264648e-01 -1.290739297866821289e+00
2.554000000000000000e+03 2.722173690795898438e+01 1.887973976135253906e+01 7.677525281906127930e-02 9.624088555574417114e-02 5.190484225749969482e-02 8.598454296588897705e-02
2.555000000000000000e+03 4.534814453125000000e+01 2.471672058105468750e+01 -1.402392148971557617e+00 -1.233175396919250488e+00 -7.906702756881713867e-01 -1.283088326454162598e+00
2.556000000000000000e+03 4.591077804565429688e+01 2.469556045532226562e+01 -1.324124932289123535e+00 -1.114714622497558594e+00 -7.316518425941467285e-01 -1.211671829223632812e+00
2.557000000000000000e+03 3.480528640747070312e+01 1.337301063537597656e+01 -1.293348312377929688e+00 -1.441012263298034668e+00 -8.203081488609313965e-01 -1.315890789031982422e+00
2.558000000000000000e+03 3.202707290649414062e+01 2.380821990966796875e+01 5.349250882863998413e-02 7.441496849060058594e-02 3.837224096059799194e-02 6.556627899408340454e-02
2.559000000000000000e+03 5.069607925415039062e+01 2.920629310607910156e+01 -1.243884801864624023e+00 -7.680897116661071777e-01 -6.035923361778259277e-01 -1.015076875686645508e+00
2.560000000000000000e+03 3.634837722778320312e+01 1.509778594970703125e+01 -1.231806039810180664e+00 -1.450802803039550781e+00 -8.047826290130615234e-01 -1.322548031806945801e+00
2.561000000000000000e+03 5.103986358642578125e+01 2.946200370788574219e+01 -1.229788303375244141e+00 -7.137001156806945801e-01 -5.830465555191040039e-01 -9.817364811897277832e-01
2.562000000000000000e+03 3.966531372070312500e+01 3.225254821777343750e+01 5.860710144042968750e-02 5.608149990439414978e-02 3.440658003091812134e-02 5.017445608973503113e-02
2.563000000000000000e+03 4.780475234985351562e+01 2.671376228332519531e+01 -1.268975973129272461e+00 -1.047951936721801758e+00 -6.950783729553222656e-01 -1.198013186454772949e+00
2.564000000000000000e+03 4.953952789306640625e+01 2.874726486206054688e+01 -1.330358743667602539e+00 -1.008821845054626465e+00 -7.017541527748107910e-01 -1.153501868247985840e+00
2.565000000000000000e+03 3.660964202880859375e+01 1.538702106475830078e+01 -1.221899390220642090e+00 -1.451653003692626953e+00 -8.020656704902648926e-01 -1.318731904029846191e+00
2.566000000000000000e+03 3.201766204833984375e+01 2.435393714904785156e+01 5.141591280698776245e-02 7.549041509628295898e-02 3.807189688086509705e-02 6.453111767768859863e-02
2.567000000000000000e+03 3.687366104125976562e+01 1.567654514312744141e+01 -1.220220685005187988e+00 -1.452528595924377441e+00 -8.018248081207275391e-01 -1.309244394302368164e+00
2.568000000000000000e+03 4.268484878540039062e+01 2.183981132507324219e+01 -1.282670021057128906e+00 -1.208943009376525879e+00 -7.474839091300964355e-01 -1.255633592605590820e+00
2.569000000000000000e+03 3.797351455688476562e+01 1.738032150268554688e+01 -1.232087612152099609e+00 -1.470610618591308594e+00 -8.108094930648803711e-01 -1.310768485069274902e+00
2.570000000000000000e+03 4.411142349243164062e+01 2.313155746459960938e+01 -1.320021629333496094e+00 -1.222004890441894531e+00 -7.626079320907592773e-01 -1.258413553237915039e+00
2.571000000000000000e+03 3.713962936401367188e+01 1.596483039855957031e+01 -1.213355183601379395e+00 -1.449121594429016113e+00 -7.987430691719055176e-01 -1.302819728851318359e+00
2.572000000000000000e+03 5.015993499755859375e+01 2.926861381530761719e+01 -1.300104141235351562e+00 -9.321600794792175293e-01 -6.696792840957641602e-01 -1.110151052474975586e+00
2.573000000000000000e+03 2.248296546936035156e+01 1.395917129516601562e+01 1.047914847731590271e-01 1.308636665344238281e-01 7.069654762744903564e-02 1.133545339107513428e-01
2.574000000000000000e+03 2.102967834472656250e+01 1.325736141204833984e+01 9.908546507358551025e-02 1.401567757129669189e-01 7.177267223596572876e-02 1.172572225332260132e-01
2.575000000000000000e+03 4.865460205078125000e+01 2.797614097595214844e+01 -1.342707872390747070e+00 -1.086142182350158691e+00 -7.286550402641296387e-01 -1.205429911613464355e+00
2.576000000000000000e+03 4.195981979370117188e+01 3.365856170654296875e+01 6.612216681241989136e-02 4.114502668380737305e-02 3.218015655875205994e-02 5.046757310628890991e-02
2.577000000000000000e+03 4.067084884643554688e+01 3.318233871459960938e+01 6.258515268564224243e-02 5.210921913385391235e-02 3.440831229090690613e-02 4.732144996523857117e-02
2.578000000000000000e+03 3.134179878234863281e+01 9.009635925292968750e+00 -1.291531801223754883e+00 -1.316037416458129883e+00 -7.822707891464233398e-01 -1.212699770927429199e+00
2.579000000000000000e+03 4.886240768432617188e+01 2.769173622131347656e+01 -1.281909942626953125e+00 -9.969713091850280762e-01 -6.836643815040588379e-01 -1.141103982925415039e+00
2.580000000000000000e+03 2.668425369262695312e+01 1.829088020324707031e+01 8.058736473321914673e-02 9.989548474550247192e-02 5.414485558867454529e-02 8.838627487421035767e-02
2.581000000000000000e+03 2.700122451782226562e+01 1.803816032409667969e+01 8.569739758968353271e-02 9.887570887804031372e-02 5.537193268537521362e-02 9.033346921205520630e-02
2.582000000000000000e+03 1.791758537292480469e+01 9.732180595397949219e+00 1.200787425041198730e-01 1.923996806144714355e-01 9.374352544546127319e-02 1.475037187337875366e-01
2.583000000000000000e+03 4.102519226074218750e+01 3.353135299682617188e+01 6.301258504390716553e-02 4.333316162228584290e-02 3.190372511744499207e-02 5.217375233769416809e-02
2.584000000000000000e+03 5.142599868774414062e+01 2.970454978942871094e+01 -1.209012508392333984e+00 -6.167877316474914551e-01 -5.477401018142700195e-01 -9.393301010131835938e-01
2.585000000000000000e+03 2.611373901367187500e+01 1.772411155700683594e+01 8.384722471237182617e-02 1.026756539940834045e-01 5.595686286687850952e-02 9.091056883335113525e-02
2.586000000000000000e+03 2.455747985839843750e+01 1.744960403442382812e+01 7.618625462055206299e-02 1.085743680596351624e-01 5.542818829417228699e-02 9.188225865364074707e-02
2.587000000000000000e+03 4.504475021362304688e+01 2.445057868957519531e+01 -1.409685730934143066e+00 -1.261661648750305176e+00 -8.014042377471923828e-01 -1.287716031074523926e+00
2.588000000000000000e+03 3.949457931518554688e+01 1.872008323669433594e+01 -1.151356935501098633e+00 -1.261093735694885254e+00 -7.237352132797241211e-01 -1.286047577857971191e+00
2.589000000000000000e+03 3.384672164916992188e+01 1.223804473876953125e+01 -1.301633358001708984e+00 -1.418822884559631348e+00 -8.161368370056152344e-01 -1.325610518455505371e+00
2.590000000000000000e+03 2.966988372802734375e+01 2.184855651855468750e+01 5.927620083093643188e-02 8.269907534122467041e-02 4.259258136153221130e-02 7.209173589944839478e-02
2.591000000000000000e+03 3.430556488037109375e+01 1.280703544616699219e+01 -1.294742584228515625e+00 -1.442240476608276367e+00 -8.210949301719665527e-01 -1.319277644157409668e+00
2.592000000000000000e+03 4.138098144531250000e+01 3.321484756469726562e+01 6.502828747034072876e-02 4.773979261517524719e-02 3.383042290806770325e-02 4.910296946763992310e-02
2.593000000000000000e+03 4.684423065185546875e+01 2.551280593872070312e+01 -1.279145836830139160e+00 -1.047560930252075195e+00 -6.980120539665222168e-01 -1.206354618072509766e+00
2.594000000000000000e+03 1.976350593566894531e+01 1.173191738128662109e+01 1.075753420591354370e-01 1.552258282899856567e-01 7.884035259485244751e-02 1.291927248239517212e-01
2.595000000000000000e+03 3.740674591064453125e+01 1.625057411193847656e+01 -1.212082505226135254e+00 -1.443973779678344727e+00 -7.968168854713439941e-01 -1.291678786277770996e+00
2.596000000000000000e+03 4.141927719116210938e+01 2.048825454711914062e+01 -1.147110581398010254e+00 -1.206152915954589844e+00 -7.059790492057800293e-01 -1.257209420204162598e+00
2.597000000000000000e+03 2.642430305480957031e+01 1.746697425842285156e+01 8.888944983482360840e-02 1.023328974843025208e-01 5.736670270562171936e-02 9.299194812774658203e-02
2.598000000000000000e+03 3.635878753662109375e+01 2.879687118530273438e+01 5.110209435224533081e-02 6.889725476503372192e-02 3.599980473518371582e-02 5.739007890224456787e-02
2.599000000000000000e+03 4.197993469238281250e+01 3.445038604736328125e+01 7.101385295391082764e-02 4.543715342879295349e-02 3.493530303239822388e-02 4.793323576450347900e-02
2.600000000000000000e+03 2.271829795837402344e+01 1.427769374847412109e+01 1.021510958671569824e-01 1.292746812105178833e-01 6.942773610353469849e-02 1.106031835079193115e-01
2.601000000000000000e+03 5.187688064575195312e+01 2.980032730102539062e+01 -1.190024375915527344e+00 -4.814994335174560547e-01 -5.014571547508239746e-01 -8.862050175666809082e-01
2.602000000000000000e+03 5.206830596923828125e+01 3.068466567993164062e+01 -1.200220823287963867e+00 -5.160046219825744629e-01 -5.148676633834838867e-01 -8.947730064392089844e-01
2.603000000000000000e+03 3.876117324829101562e+01 1.762168502807617188e+01 -1.185226321220397949e+00 -1.324729323387145996e+00 -7.529866695404052734e-01 -1.259005427360534668e+00
2.604000000000000000e+03 3.767425155639648438e+01 1.653283309936523438e+01 -1.206771016120910645e+00 -1.431403756141662598e+00 -7.914524078369140625e-01 -1.283898830413818359e+00
2.605000000000000000e+03 4.440262222290039062e+01 2.339404106140136719e+01 -1.326670289039611816e+00 -1.221624016761779785e+00 -7.644882798194885254e-01 -1.249195575714111328e+00
2.606000000000000000e+03 2.581438636779785156e+01 1.744496917724609375e+01 8.508427441120147705e-02 1.036564111709594727e-01 5.662220716476440430e-02 9.238602221012115479e-02
2.607000000000000000e+03 3.662840270996093750e+01 2.948906707763671875e+01 4.969069361686706543e-02 6.737546622753143311e-02 3.511985018849372864e-02 5.515983328223228455e-02
2.608000000000000000e+03 3.420481109619140625e+01 2.604885482788085938e+01 4.965353012084960938e-02 7.400077581405639648e-02 3.709629178047180176e-02 6.082190945744514465e-02
2.609000000000000000e+03 3.319921493530273438e+01 2.477876853942871094e+01 5.215042829513549805e-02 7.480385154485702515e-02 3.808628395199775696e-02 6.293726712465286255e-02
2.610000000000000000e+03 3.262276077270507812e+01 2.482305908203125000e+01 5.100487545132637024e-02 7.522578537464141846e-02 3.786919638514518738e-02 6.298670172691345215e-02
2.611000000000000000e+03 3.416708755493164062e+01 2.667305183410644531e+01 4.848561435937881470e-02 7.429769635200500488e-02 3.683499246835708618e-02 5.984093621373176575e-02
2.612000000000000000e+03 4.189383697509765625e+01 2.104456520080566406e+01 -1.203667521476745605e+00 -1.217544078826904297e+00 -7.263634800910949707e-01 -1.248893737792968750e+00
2.613000000000000000e+03 2.048960304260253906e+01 1.232700347900390625e+01 1.053765043616294861e-01 1.472729444503784180e-01 7.579483836889266968e-02 1.247538849711418152e-01
2.614000000000000000e+03 2.173766517639160156e+01 1.356990718841552734e+01 1.030267849564552307e-01 1.352914571762084961e-01 7.149547338485717773e-02 1.157281771302223206e-01
2.615000000000000000e+03 3.057250213623046875e+01 2.196450614929199219e+01 5.977050960063934326e-02 7.921098917722702026e-02 4.169444739818572998e-02 7.069832086563110352e-02
2.616000000000000000e+03 3.082166099548339844e+01 2.217368507385253906e+01 5.841956660151481628e-02 7.764885574579238892e-02 4.082052409648895264e-02 7.081222534179687500e-02
2.617000000000000000e+03 5.248648452758789062e+01 3.067052459716796875e+01 -1.195255994796752930e+00 -3.669366836547851562e-01 -4.686577916145324707e-01 -8.523936867713928223e-01
2.618000000000000000e+03 3.262522506713867188e+01 1.095815181732177734e+01 -1.356767654418945312e+00 -1.391354799270629883e+00 -8.244367241859436035e-01 -1.292926073074340820e+00
2.619000000000000000e+03 3.232440948486328125e+01 2.458713531494140625e+01 5.105002596974372864e-02 7.444906979799270630e-02 3.764972835779190063e-02 6.422767043113708496e-02
2.620000000000000000e+03 2.300133514404296875e+01 1.556548595428466797e+01 8.464392274618148804e-02 1.237819939851760864e-01 6.252777576446533203e-02 1.019625365734100342e-01
2.621000000000000000e+03 2.259910583496093750e+01 1.481303977966308594e+01 9.236610680818557739e-02 1.283229440450668335e-01 6.620671600103378296e-02 1.058117523789405823e-01
2.622000000000000000e+03 4.469470596313476562e+01 2.365692710876464844e+01 -1.334062814712524414e+00 -1.214875698089599609e+00 -7.646815180778503418e-01 -1.238079667091369629e+00
2.623000000000000000e+03 4.498901748657226562e+01 2.391883850097656250e+01 -1.339814901351928711e+00 -1.199587583541870117e+00 -7.618207335472106934e-01 -1.228493213653564453e+00
2.624000000000000000e+03 3.531798934936523438e+01 1.394807624816894531e+01 -1.278195023536682129e+00 -1.438765287399291992e+00 -8.150880932807922363e-01 -1.325429916381835938e+00
2.625000000000000000e+03 5.340735244750976562e+01 3.134817504882812500e+01 -1.179548025131225586e+00 -1.022134795784950256e-01 -3.845284581184387207e-01 -7.952123880386352539e-01
2.626000000000000000e+03 5.291097259521484375e+01 3.119869232177734375e+01 -1.180762648582458496e+00 -2.492058873176574707e-01 -4.289905428886413574e-01 -8.228762149810791016e-01
2.627000000000000000e+03 6.848565673828125000e+01 3.619774246215820312e+01 -2.733893692493438721e-01 1.762067031860351562e+01 5.204184532165527344e+00 -5.756890177726745605e-01
2.628000000000000000e+03 3.180773925781250000e+01 9.997019767761230469e+00 -1.319601178169250488e+00 -1.368414878845214844e+00 -8.064048290252685547e-01 -1.280985236167907715e+00
2.629000000000000000e+03 3.406643295288085938e+01 1.252791595458984375e+01 -1.285557866096496582e+00 -1.434371590614318848e+00 -8.159788250923156738e-01 -1.325728893280029297e+00
2.630000000000000000e+03 3.613413238525390625e+01 2.851168823242187500e+01 5.406886711716651917e-02 7.076156884431838989e-02 3.744913265109062195e-02 5.596993491053581238e-02
2.631000000000000000e+03 1.874894714355468750e+01 1.109851074218750000e+01 1.044219285249710083e-01 1.707842051982879639e-01 8.256184309720993042e-02 1.353317946195602417e-01
2.632000000000000000e+03 2.000860404968261719e+01 1.187161254882812500e+01 1.083766520023345947e-01 1.504668444395065308e-01 7.765305042266845703e-02 1.279808431863784790e-01
2.633000000000000000e+03 1.385377979278564453e+01 5.936254024505615234e+00 7.904038578271865845e-02 5.423147082328796387e-01 1.864065229892730713e-01 1.274155527353286743e-01
2.634000000000000000e+03 3.344705200195312500e+01 2.586229324340820312e+01 4.998259618878364563e-02 7.372355461120605469e-02 3.711184486746788025e-02 6.047420203685760498e-02
2.635000000000000000e+03 3.410227966308593750e+01 2.576039123535156250e+01 5.232250317931175232e-02 7.422442734241485596e-02 3.796407952904701233e-02 6.098997965455055237e-02
2.636000000000000000e+03 5.194218444824218750e+01 3.027097320556640625e+01 -1.200727820396423340e+00 -5.135543942451477051e-01 -5.142846703529357910e-01 -8.967387080192565918e-01
2.637000000000000000e+03 5.297825241088867188e+01 3.068777847290039062e+01 -1.181384205818176270e+00 -1.864329874515533447e-01 -4.103451371192932129e-01 -8.131470084190368652e-01
2.638000000000000000e+03 3.572947311401367188e+01 2.791406440734863281e+01 5.352596193552017212e-02 7.106527686119079590e-02 3.737736865878105164e-02 5.742920190095901489e-02
2.639000000000000000e+03 3.218540191650390625e+01 1.032208919525146484e+01 -1.332557320594787598e+00 -1.373399734497070312e+00 -8.117871284484863281e-01 -1.264869928359985352e+00
2.640000000000000000e+03 3.615706634521484375e+01 2.910718345642089844e+01 5.111400038003921509e-02 6.831182539463043213e-02 3.582774475216865540e-02 5.503172054886817932e-02
2.641000000000000000e+03 3.066299629211425781e+01 5.682403564453125000e+00 -1.803364872932434082e+00 -9.992145299911499023e-01 -8.407738208770751953e-01 -1.056429386138916016e+00
2.642000000000000000e+03 1.825267601013183594e+01 1.080203914642333984e+01 1.022612601518630981e-01 1.801953315734863281e-01 8.473698049783706665e-02 1.356152892112731934e-01
2.643000000000000000e+03 1.496873855590820312e+01 6.699662685394287109e+00 1.292010396718978882e-01 3.630995452404022217e-01 1.476901769638061523e-01 1.852087527513504028e-01
2.644000000000000000e+03 1.767996597290039062e+01 1.006171417236328125e+01 1.100985854864120483e-01 1.969570964574813843e-01 9.211670607328414917e-02 1.409553885459899902e-01
2.645000000000000000e+03 1.424291038513183594e+01 6.259237766265869141e+00 9.526918828487396240e-02 4.610224068164825439e-01 1.668874770402908325e-01 1.651425063610076904e-01
2.646000000000000000e+03 6.305920410156250000e+01 3.085768318176269531e+01 3.351735174655914307e-01 1.264532446861267090e+00 4.799118041992187500e-01 1.367019653320312500e+00
2.647000000000000000e+03 1.550496101379394531e+01 7.345281124114990234e+00 1.200576871633529663e-01 3.087705671787261963e-01 1.286484748125076294e-01 1.768985688686370850e-01
2.648000000000000000e+03 1.495278072357177734e+01 7.116303920745849609e+00 1.090771183371543884e-01 3.501141369342803955e-01 1.377573758363723755e-01 1.655560880899429321e-01
2.649000000000000000e+03 2.213644027709960938e+01 -5.564658045768737793e-01 3.298013210296630859e-01 1.781302332878112793e+00 6.333310604095458984e-01 -1.059532761573791504e+00
2.650000000000000000e+03 1.294877910614013672e+01 3.676931619644165039e+00 3.896056115627288818e-01 9.497335553169250488e-01 4.018017351627349854e-01 -3.187776505947113037e-01
2.651000000000000000e+03 1.290370464324951172e+01 4.337214946746826172e+00 2.282239049673080444e-01 8.241828680038452148e-01 3.157220482826232910e-01 -2.069389671087265015e-01
2.652000000000000000e+03 2.939508056640625000e+01 5.180471420288085938e+00 -2.131302356719970703e+00 -1.286995887756347656e+00 -1.025489449501037598e+00 -1.077968955039978027e+00
2.653000000000000000e+03 2.907730484008789062e+01 4.859546184539794922e+00 -2.145621538162231445e+00 -1.289917945861816406e+00 -1.030661940574645996e+00 -1.076093196868896484e+00
2.654000000000000000e+03 1.123084163665771484e+01 4.130537033081054688e+00 4.162049591541290283e-01 6.244897469878196716e-02 1.435961723327636719e-01 -1.789640933275222778e-01
2.655000000000000000e+03 5.396888732910156250e+01 3.153470611572265625e+01 -1.182844758033752441e+00 4.326693713665008545e-02 -3.418733477592468262e-01 -7.724435329437255859e-01
2.656000000000000000e+03 3.242309188842773438e+01 1.067338371276855469e+01 -1.328182578086853027e+00 -1.382438182830810547e+00 -8.131862282752990723e-01 -1.285275101661682129e+00
2.657000000000000000e+03 6.883426666259765625e+01 3.592809295654296875e+01 7.443583607673645020e-01 1.757819366455078125e+01 5.496765613555908203e+00 7.832394242286682129e-01
2.658000000000000000e+03 1.138672065734863281e+01 3.234149694442749023e+00 5.529527068138122559e-01 -1.078099906444549561e-01 1.335428208112716675e-01 -1.044463589787483215e-01
2.659000000000000000e+03 6.183829116821289062e+01 3.023438644409179688e+01 8.426770567893981934e-02 1.074204921722412109e+00 3.475417792797088623e-01 8.005888462066650391e-01
2.660000000000000000e+03 6.789554595947265625e+01 3.688007354736328125e+01 -1.010816454887390137e+00 1.430582904815673828e+01 3.988503694534301758e+00 -2.233160734176635742e+00
2.661000000000000000e+03 6.718791198730468750e+01 3.755689239501953125e+01 -7.584111690521240234e-01 1.114514541625976562e+01 3.116020202636718750e+00 -3.003369331359863281e+00
2.662000000000000000e+03 3.218460464477539062e+01 6.112625598907470703e+00 -1.336337685585021973e+00 -9.194746613502502441e-01 -6.767437458038330078e-01 -9.509764313697814941e-01
2.663000000000000000e+03 6.483316898345947266e+00 -8.501231193542480469e+00 -1.209182888269424438e-01 -3.295389115810394287e-01 -1.351371556520462036e-01 -3.943131566047668457e-01
2.664000000000000000e+03 8.564580917358398438e+00 -6.275568962097167969e+00 -3.024394214153289795e-01 -2.033228874206542969e-01 -1.517287045717239380e-01 -4.324860572814941406e-01
2.665000000000000000e+03 1.459957027435302734e+01 6.680522441864013672e+00 1.064838841557502747e-01 3.971175551414489746e-01 1.510804295539855957e-01 1.669456958770751953e-01
2.666000000000000000e+03 6.246644210815429688e+01 3.031257057189941406e+01 2.898923158645629883e-01 1.324694156646728516e+00 4.843759238719940186e-01 1.174211978912353516e+00
2.667000000000000000e+03 6.250628280639648438e+01 3.086643028259277344e+01 6.160604208707809448e-02 9.702332615852355957e-01 3.095517754554748535e-01 9.602453112602233887e-01
2.668000000000000000e+03 3.180792617797851562e+01 7.149449348449707031e+00 -1.283732533454895020e+00 -1.137403726577758789e+00 -7.263408899307250977e-01 -1.143405318260192871e+00
2.669000000000000000e+03 3.167698478698730469e+01 6.172034263610839844e+00 -1.428488731384277344e+00 -9.706905484199523926e-01 -7.197538018226623535e-01 -1.037568807601928711e+00
2.670000000000000000e+03 2.683974075317382812e+01 -1.899918198585510254e+00 7.856333255767822266e-01 -6.407617777585983276e-02 2.164671570062637329e-01 -2.755255699157714844e-01
2.671000000000000000e+03 4.357534408569335938e+00 4.586088657379150391e+00 1.065235864371061325e-02 -1.000160798430442810e-01 -2.680911496281623840e-02 1.146055459976196289e-01
2.672000000000000000e+03 4.556097793579101562e+01 3.716787719726562500e+01 1.156101673841476440e-01 4.029790312051773071e-02 4.677242040634155273e-02 4.282703995704650879e-02
2.673000000000000000e+03 4.218892288208007812e+01 3.481556701660156250e+01 6.974606961011886597e-02 3.986016288399696350e-02 3.288187086582183838e-02 5.074591189622879028e-02
2.674000000000000000e+03 6.537061214447021484e+00 4.062948226928710938e+00 3.023591451346874237e-02 -1.265662461519241333e-01 -2.889909967780113220e-02 1.590660810470581055e-01
2.675000000000000000e+03 5.421422004699707031e+00 5.910993099212646484e+00 6.470520794391632080e-02 -1.201485991477966309e-01 -1.663301698863506317e-02 9.484004229307174683e-02
2.676000000000000000e+03 6.601203155517578125e+01 3.940840911865234375e+01 -4.583844542503356934e-01 7.468813896179199219e+00 2.103128910064697266e+00 -2.036349534988403320e+00
2.677000000000000000e+03 6.628102111816406250e+01 3.660924530029296875e+01 1.002778530120849609e+00 7.386106014251708984e+00 2.516665458679199219e+00 -4.388789176940917969e+00
2.678000000000000000e+03 4.690426826477050781e+00 5.978317737579345703e+00 4.686088114976882935e-02 -1.183419823646545410e-01 -2.144432999193668365e-02 9.234546869993209839e-02
2.679000000000000000e+03 5.107592582702636719e+00 4.369339942932128906e+00 1.254019420593976974e-02 -1.015762910246849060e-01 -2.671082876622676849e-02 1.296866536140441895e-01
2.680000000000000000e+03 2.493563079833984375e+01 -1.018412709236145020e+00 4.431075751781463623e-01 1.775862723588943481e-01 1.862081587314605713e-01 -5.632954239845275879e-01
2.681000000000000000e+03 2.549326705932617188e+01 -1.485296726226806641e+00 6.932161450386047363e-01 9.818285703659057617e-02 2.374197095632553101e-01 -4.855089187622070312e-01
2.682000000000000000e+03 6.013554763793945312e+01 3.100583648681640625e+01 -7.315076589584350586e-01 4.557409584522247314e-01 -8.273000270128250122e-02 -9.046538174152374268e-02
2.683000000000000000e+03 6.695570945739746094e+00 4.791270256042480469e+00 7.642329484224319458e-02 -1.408574134111404419e-01 -1.933023706078529358e-02 1.361130177974700928e-01
2.684000000000000000e+03 1.006703186035156250e+01 3.485108137130737305e+00 3.008741438388824463e-01 -2.588922679424285889e-01 1.259455829858779907e-02 1.175214648246765137e-01
2.685000000000000000e+03 2.936536216735839844e+01 -3.121319293975830078e+00 7.460706830024719238e-01 -4.058462977409362793e-01 1.020673140883445740e-01 -1.619819104671478271e-01
2.686000000000000000e+03 3.941742706298828125e+01 3.141364479064941406e+01 5.607864633202552795e-02 5.344770848751068115e-02 3.285790607333183289e-02 5.326927453279495239e-02
2.687000000000000000e+03 1.193096160888671875e+01 -5.236515522003173828e+00 -5.637011528015136719e-01 -2.607667446136474609e-01 -2.473403662443161011e-01 -6.294043064117431641e-01
2.688000000000000000e+03 1.251263904571533203e+01 4.004076004028320312e+00 3.856217861175537109e-01 6.074589490890502930e-01 2.979242205619812012e-01 -3.057298362255096436e-01
2.689000000000000000e+03 8.185038566589355469e+00 -4.510465145111083984e+00 -3.196323513984680176e-01 -9.560200572013854980e-02 -1.245703026652336121e-01 -2.993597388267517090e-01
2.690000000000000000e+03 9.065107345581054688e+00 -5.271763801574707031e+00 -3.700473606586456299e-01 -1.464526653289794922e-01 -1.549500077962875366e-01 -4.061484634876251221e-01
2.691000000000000000e+03 5.865655899047851562e+01 3.041052436828613281e+01 -7.396607995033264160e-01 4.977221786975860596e-01 -7.258158177137374878e-02 -3.246370553970336914e-01
2.692000000000000000e+03 5.796214294433593750e+01 3.116384315490722656e+01 -1.065205335617065430e+00 3.669176399707794189e-01 -2.094863057136535645e-01 -5.125283002853393555e-01
2.693000000000000000e+03 3.856755828857421875e+01 3.143907165527343750e+01 5.178512260317802429e-02 5.915285646915435791e-02 3.328139334917068481e-02 5.316420271992683411e-02
2.694000000000000000e+03 5.941942596435546875e+01 3.025685882568359375e+01 -5.514518022537231445e-01 5.877911448478698730e-01 1.090180408209562302e-02 -1.225832849740982056e-01
2.695000000000000000e+03 5.660923767089843750e+01 3.074281501770019531e+01 -1.042824268341064453e+00 3.811681270599365234e-01 -1.984968632459640503e-01 -6.349529623985290527e-01
2.696000000000000000e+03 5.725675964355468750e+01 3.065420150756835938e+01 -9.708504080772399902e-01 4.149154424667358398e-01 -1.667804867029190063e-01 -5.629800558090209961e-01
2.697000000000000000e+03 5.793972015380859375e+01 3.054229354858398438e+01 -8.725358843803405762e-01 4.548965096473693848e-01 -1.252918243408203125e-01 -4.627355933189392090e-01
2.698000000000000000e+03 2.500152015686035156e+01 1.481755971908569336e+00 -2.237957715988159180e+00 -2.820887565612792969e-01 -7.560139894485473633e-01 -8.516840934753417969e-01
2.699000000000000000e+03 7.558187007904052734e+00 5.279388904571533203e+00 1.379430890083312988e-01 -1.459751129150390625e-01 -2.409609500318765640e-03 9.736914932727813721e-02
2.700000000000000000e+03 3.478401184082031250e+00 -6.839271068572998047e+00 -6.695132702589035034e-02 -1.872746199369430542e-01 -7.626777887344360352e-02 -1.736609190702438354e-01
2.701000000000000000e+03 5.158296108245849609e+00 -5.740923404693603516e+00 -1.312137097120285034e-01 -1.599432379007339478e-01 -8.734708279371261597e-02 -2.164611816406250000e-01
2.702000000000000000e+03 5.995177268981933594e+00 -5.671012878417968750e+00 -1.775033771991729736e-01 -1.519225239753723145e-01 -9.882777184247970581e-02 -2.551227211952209473e-01
2.703000000000000000e+03 6.146824836730957031e+00 -6.639993667602539062e+00 -1.608454436063766479e-01 -2.164791524410247803e-01 -1.131973788142204285e-01 -3.081837296485900879e-01
2.704000000000000000e+03 5.534770584106445312e+01 3.136769294738769531e+01 -1.187282443046569824e+00 2.567019164562225342e-01 -2.791741788387298584e-01 -7.350828051567077637e-01
2.705000000000000000e+03 7.601579666137695312e+00 -5.492370605468750000e+00 -2.679362297058105469e-01 -1.475750952959060669e-01 -1.246533989906311035e-01 -3.303374350070953369e-01
2.706000000000000000e+03 8.345831871032714844e+00 -5.382959365844726562e+00 -3.030356764793395996e-01 -1.689005494117736816e-01 -1.415808647871017456e-01 -3.694317042827606201e-01
2.707000000000000000e+03 1.197931289672851562e+01 3.779417037963867188e+00 4.782245159149169922e-01 3.019278645515441895e-01 2.340457141399383545e-01 -2.843667864799499512e-01
2.708000000000000000e+03 1.106886863708496094e+01 4.559570789337158203e+00 3.510240316390991211e-01 6.141594052314758301e-02 1.237319856882095337e-01 -1.483905762434005737e-01
2.709000000000000000e+03 5.808448028564453125e+01 3.941370391845703125e+01 4.316968917846679688e-01 -3.411271572113037109e-01 2.717092074453830719e-02 3.386542797088623047e-01
2.710000000000000000e+03 5.444299316406250000e+01 4.127082824707031250e+01 4.727359712123870850e-01 -4.782366454601287842e-01 -1.650199992582201958e-03 1.141456365585327148e-01
2.711000000000000000e+03 5.217641830444335938e+01 4.181061172485351562e+01 2.859613299369812012e-01 -2.989601790904998779e-01 -3.899656003341078758e-03 9.258808195590972900e-02
2.712000000000000000e+03 5.544771957397460938e+01 3.083316230773925781e+01 -1.122584223747253418e+00 2.888696789741516113e-01 -2.501143515110015869e-01 -7.186535596847534180e-01
2.713000000000000000e+03 1.754207611083984375e+01 -3.481780529022216797e+00 -1.360708475112915039e+00 -1.861169457435607910e+00 -9.665634036064147949e-01 -1.426012516021728516e+00
2.714000000000000000e+03 8.765468597412109375e+00 4.394767761230468750e+00 1.985685974359512329e-01 -1.826425641775131226e-01 4.777811001986265182e-03 1.039506494998931885e-01
2.715000000000000000e+03 5.168122863769531250e+01 3.974730682373046875e+01 1.383033543825149536e-01 -5.424504354596138000e-02 2.521749399602413177e-02 1.649412065744400024e-01
2.716000000000000000e+03 3.180700111389160156e+01 8.828166961669921875e+00 -1.240807414054870605e+00 -1.306272983551025391e+00 -7.641241550445556641e-01 -1.180857658386230469e+00
2.717000000000000000e+03 3.173098754882812500e+01 9.288428306579589844e+00 -1.260550141334533691e+00 -1.322201132774353027e+00 -7.748253941535949707e-01 -1.221943259239196777e+00
2.718000000000000000e+03 3.195723152160644531e+01 7.648806095123291016e+00 -1.232417702674865723e+00 -1.172728776931762695e+00 -7.215439677238464355e-01 -1.160415053367614746e+00
2.719000000000000000e+03 1.454003238677978516e+01 -5.666834354400634766e+00 -6.093586087226867676e-01 -7.188732624053955078e-01 -3.984695672988891602e-01 -8.963956832885742188e-01
2.720000000000000000e+03 1.354810619354248047e+01 -4.697291851043701172e+00 -7.891692519187927246e-01 -4.304207861423492432e-01 -3.658770024776458740e-01 -7.734763026237487793e-01
2.721000000000000000e+03 4.351725387573242188e+01 3.822812652587890625e+01 1.029159650206565857e-01 2.608064934611320496e-02 3.869898244738578796e-02 3.046393953263759613e-02
2.722000000000000000e+03 4.802897644042968750e+01 3.979848480224609375e+01 1.360205411911010742e-01 5.714508518576622009e-02 5.794968828558921814e-02 1.935213804244995117e-02
2.723000000000000000e+03 4.335805892944335938e+01 3.580078125000000000e+01 8.371941745281219482e-02 3.520254045724868774e-02 3.567658737301826477e-02 4.817026108503341675e-02
2.724000000000000000e+03 4.401005554199218750e+01 3.550876617431640625e+01 7.840237021446228027e-02 3.654316812753677368e-02 3.448366001248359680e-02 5.604704841971397400e-02
2.725000000000000000e+03 1.595614147186279297e+01 -7.778108119964599609e+00 -7.983416318893432617e-02 -9.270179867744445801e-01 -3.020556271076202393e-01 -7.359416484832763672e-01
2.726000000000000000e+03 4.904145050048828125e+01 3.942005538940429688e+01 1.556522399187088013e-01 -1.495972741395235062e-03 4.624688252806663513e-02 -2.842303365468978882e-02
2.727000000000000000e+03 3.877604293823242188e+01 -1.323806095123291016e+01 2.988603413105010986e-01 -1.754233241081237793e-02 8.439540863037109375e-02 -2.256782166659832001e-02
2.728000000000000000e+03 3.430883789062500000e+01 -7.906857490539550781e+00 5.785549283027648926e-01 -3.804067075252532959e-01 5.944447219371795654e-02 -1.147787570953369141e-01
2.729000000000000000e+03 3.506249237060546875e+01 -8.915075302124023438e+00 5.440443158149719238e-01 -3.389279246330261230e-01 6.153491139411926270e-02 -1.029930710792541504e-01
2.730000000000000000e+03 2.107641601562500000e+01 -2.155343055725097656e+01 2.331712543964385986e-01 1.071794629096984863e-01 1.021052151918411255e-01 -3.464364111423492432e-01
2.731000000000000000e+03 2.101349258422851562e+01 -1.860420417785644531e+01 2.329133749008178711e-01 1.257919669151306152e-01 1.076116040349006653e-01 -3.080131411552429199e-01
2.732000000000000000e+03 1.530795288085937500e+01 -4.643475532531738281e+00 -8.678247332572937012e-01 -8.213610649108886719e-01 -5.067557692527770996e-01 -9.865876436233520508e-01
2.733000000000000000e+03 4.628966522216796875e+01 3.761140060424804688e+01 1.262727826833724976e-01 1.852374523878097534e-02 4.343895986676216125e-02 4.105449095368385315e-02
2.734000000000000000e+03 2.627253055572509766e+00 6.476519107818603516e+00 1.751689612865447998e-02 -1.239546239376068115e-01 -3.193131834268569946e-02 6.236030161380767822e-02
2.735000000000000000e+03 2.170482254028320312e+01 -2.264673614501953125e+01 2.320770770311355591e-01 1.849641054868698120e-01 1.251123547554016113e-01 -3.417095541954040527e-01
2.736000000000000000e+03 7.515216064453125000e+01 3.518791961669921875e+01 1.234062910079956055e+00 8.324504852294921875e+00 2.867570161819458008e+00 4.254452884197235107e-01
2.737000000000000000e+03 7.353257751464843750e+01 3.746141433715820312e+01 4.047583341598510742e-01 1.017450904846191406e+01 3.173779964447021484e+00 1.274235725402832031e+00
2.738000000000000000e+03 4.560404968261718750e+01 -2.546417617797851562e+01 -1.309806704521179199e-01 1.211918830871582031e+00 3.242814540863037109e-01 5.959222093224525452e-02
2.739000000000000000e+03 5.719194030761718750e+01 4.165066528320312500e+01 8.256306052207946777e-01 -2.715430855751037598e-01 1.662262529134750366e-01 4.636082053184509277e-02
2.740000000000000000e+03 2.249501228332519531e+01 -2.531645774841308594e+01 2.560304403305053711e-01 2.450086325407028198e-01 1.503117233514785767e-01 -3.487563133239746094e-01
2.741000000000000000e+03 4.156831359863281250e+01 -2.146808052062988281e+01 -5.828087404370307922e-02 2.829120159149169922e-01 6.738933920860290527e-02 8.655630797147750854e-02
2.742000000000000000e+03 4.021328353881835938e+01 -1.911392211914062500e+01 -2.041680505499243736e-03 9.928440302610397339e-02 2.917281724512577057e-02 8.159546554088592529e-02
2.743000000000000000e+03 4.470188522338867188e+01 -1.927441787719726562e+01 5.710979923605918884e-02 9.698676466941833496e-01 3.080932497978210449e-01 2.613982744514942169e-02
2.744000000000000000e+03 3.304676437377929688e+01 -5.831297397613525391e+00 6.791611909866333008e-01 -4.634896218776702881e-01 6.470146775245666504e-02 -9.418650716543197632e-02
2.745000000000000000e+03 4.403820419311523438e+01 -2.303763771057128906e+01 -7.592222094535827637e-02 8.112047910690307617e-01 2.205847650766372681e-01 4.693284258246421814e-02
2.746000000000000000e+03 3.824607849121093750e+01 -1.538667106628417969e+01 1.530376076698303223e-01 -1.006633713841438293e-01 1.571227051317691803e-02 3.437754884362220764e-02
2.747000000000000000e+03 4.331464767456054688e+01 -2.188541221618652344e+01 -5.084738880395889282e-02 6.559827923774719238e-01 1.815406233072280884e-01 4.994183033704757690e-02
2.748000000000000000e+03 4.001642608642578125e+01 -1.596819877624511719e+01 1.581309288740158081e-01 1.301999390125274658e-01 8.649925887584686279e-02 1.410035509616136551e-02
2.749000000000000000e+03 7.531919097900390625e+01 -2.638059997558593750e+01 1.193394884467124939e-02 6.878486633300781250e+00 2.067126274108886719e+00 1.401207894086837769e-01
2.750000000000000000e+03 7.385329437255859375e+01 -2.748879623413085938e+01 2.124907635152339935e-02 6.606827259063720703e+00 1.988422870635986328e+00 1.730448007583618164e-01
2.751000000000000000e+03 7.619418334960937500e+01 2.879485321044921875e+01 2.377896755933761597e-02 8.145891189575195312e+00 2.450901031494140625e+00 -1.403641700744628906e+00
2.752000000000000000e+03 7.504485321044921875e+01 2.738001823425292969e+01 -2.956362068653106689e-01 8.929883956909179688e+00 2.590274095535278320e+00 -1.447647571563720703e+00
2.753000000000000000e+03 7.401930236816406250e+01 2.593576240539550781e+01 -6.466926932334899902e-01 9.234453201293945312e+00 2.576328039169311523e+00 -1.155200123786926270e+00
2.754000000000000000e+03 7.501007843017578125e+01 2.597082519531250000e+01 -4.967505633831024170e-01 8.935017585754394531e+00 2.531480073928833008e+00 -1.240655899047851562e+00
2.755000000000000000e+03 7.401699066162109375e+01 2.009575653076171875e+01 -4.945442080497741699e-01 8.537425994873046875e+00 2.412864446640014648e+00 -2.784778475761413574e-01
2.756000000000000000e+03 7.526497650146484375e+01 -1.964349555969238281e+01 7.274789270013570786e-03 7.061312675476074219e+00 2.120576381683349609e+00 1.576758176088333130e-01
2.757000000000000000e+03 7.384301757812500000e+01 -2.115115356445312500e+01 1.035294216126203537e-02 6.743731021881103516e+00 2.026225090026855469e+00 1.935023218393325806e-01
2.758000000000000000e+03 7.529409027099609375e+01 2.997529029846191406e+01 3.498029410839080811e-01 8.533777236938476562e+00 2.665074110031127930e+00 -1.515371322631835938e+00
2.759000000000000000e+03 7.622742462158203125e+01 3.011362075805664062e+01 2.874273359775543213e-01 7.899833202362060547e+00 2.456178188323974609e+00 -1.369653820991516113e+00
2.760000000000000000e+03 7.493728637695312500e+01 1.237007427215576172e+01 -1.046302095055580139e-01 8.277056694030761719e+00 2.451727867126464844e+00 1.683010309934616089e-01
2.761000000000000000e+03 7.426855468750000000e+01 -8.910749435424804688e+00 1.758206821978092194e-02 7.196166515350341797e+00 2.164124488830566406e+00 2.388686984777450562e-01
2.762000000000000000e+03 7.561252593994140625e+01 -1.283218860626220703e+01 8.422142826020717621e-03 7.342957973480224609e+00 2.205414056777954102e+00 1.725366413593292236e-01
2.763000000000000000e+03 7.441348266601562500e+01 -1.421608352661132812e+01 6.950450595468282700e-03 7.052726745605468750e+00 2.117903232574462891e+00 2.091739326715469360e-01
2.764000000000000000e+03 7.393020629882812500e+01 -1.947453498840332031e+00 1.882339268922805786e-02 7.362387180328369141e+00 2.214363098144531250e+00 2.979785203933715820e-01
2.765000000000000000e+03 7.450511932373046875e+01 5.665034294128417969e+00 -1.558390911668539047e-02 7.850113391876220703e+00 2.350358963012695312e+00 2.917312383651733398e-01
2.766000000000000000e+03 7.549291992187500000e+01 -6.047636508941650391e+00 1.264749374240636826e-02 7.575918674468994141e+00 2.276569843292236328e+00 2.087233215570449829e-01
2.767000000000000000e+03 7.463648223876953125e+01 7.024873256683349609e+00 -2.780005894601345062e-02 7.949002265930175781e+00 2.376360654830932617e+00 2.764043211936950684e-01
2.768000000000000000e+03 7.408551788330078125e+01 -3.407487154006958008e+00 2.207948081195354462e-02 7.348418712615966797e+00 2.211149454116821289e+00 2.804402112960815430e-01
2.769000000000000000e+03 7.418144226074218750e+01 -4.820209026336669922e+00 1.935594342648983002e-02 7.319709300994873047e+00 2.201719522476196289e+00 2.676954865455627441e-01
2.770000000000000000e+03 7.538126373291015625e+01 2.703151464462280273e+00 -2.346608787775039673e-03 7.937356948852539062e+00 2.380503177642822266e+00 2.504308819770812988e-01
2.771000000000000000e+03 7.428807830810546875e+01 -1.027024745941162109e+01 1.615704223513603210e-02 7.150550365447998047e+00 2.150012254714965820e+00 2.307133972644805908e-01
2.772000000000000000e+03 7.431081390380859375e+01 -1.161931419372558594e+01 1.340505294501781464e-02 7.112576007843017578e+00 2.137794256210327148e+00 2.205046713352203369e-01
2.773000000000000000e+03 7.423282623291015625e+01 -1.679538345336914062e+01 1.327838934957981110e-02 6.939424514770507812e+00 2.085810899734497070e+00 1.960771083831787109e-01
2.774000000000000000e+03 7.401309967041015625e+01 -1.816675376892089844e+01 8.454821072518825531e-03 6.861305236816406250e+00 2.060927867889404297e+00 2.015250325202941895e-01
2.775000000000000000e+03 7.508928680419921875e+01 1.896255874633789062e+01 -3.187781274318695068e-01 8.605079650878906250e+00 2.485890388488769531e+00 -2.296476811170578003e-01
2.776000000000000000e+03 7.614922332763671875e+01 1.641552162170410156e+01 -1.474678963422775269e-01 8.740643501281738281e+00 2.577952861785888672e+00 -6.328166276216506958e-02
2.777000000000000000e+03 7.418725585937500000e+01 -2.386036109924316406e+01 6.948746275156736374e-03 6.751409530639648438e+00 2.027507543563842773e+00 1.765833050012588501e-01
2.778000000000000000e+03 7.407324981689453125e+01 -2.629925155639648438e+01 1.933816261589527130e-02 6.679531574249267578e+00 2.009660959243774414e+00 1.737510710954666138e-01
2.779000000000000000e+03 7.540739440917968750e+01 -2.509705352783203125e+01 8.567963726818561554e-03 6.931225299835205078e+00 2.081938028335571289e+00 1.446414589881896973e-01
2.780000000000000000e+03 7.595807647705078125e+01 9.680928230285644531e+00 -3.701972588896751404e-02 8.445705413818359375e+00 2.522605657577514648e+00 1.854564100503921509e-01
2.781000000000000000e+03 7.432436370849609375e+01 3.514024734497070312e+01 1.547355413436889648e+00 8.914740562438964844e+00 3.138628959655761719e+00 4.948093295097351074e-01
2.782000000000000000e+03 7.378065490722656250e+01 1.243007183074951172e+00 1.158771757036447525e-02 7.449345588684082031e+00 2.238280057907104492e+00 3.216761350631713867e-01
2.783000000000000000e+03 7.432810211181640625e+01 4.271478176116943359e+00 -6.177372299134731293e-03 7.739032268524169922e+00 2.319856405258178711e+00 3.028537631034851074e-01
2.784000000000000000e+03 7.408980560302734375e+01 2.816626310348510742e+00 1.936447806656360626e-03 7.606987953186035156e+00 2.282677412033081055e+00 3.158396780490875244e-01
2.785000000000000000e+03 7.422744750976562500e+01 -6.197830200195312500e+00 2.030520699918270111e-02 7.280760288238525391e+00 2.190319538116455078e+00 2.582271099090576172e-01
2.786000000000000000e+03 7.473682403564453125e+01 8.367849349975585938e+00 -3.919579088687896729e-02 8.038594245910644531e+00 2.399819612503051758e+00 2.609805464744567871e-01
2.787000000000000000e+03 7.603111267089843750e+01 2.322267532348632812e+01 -3.584122955799102783e-01 8.721987724304199219e+00 2.509072542190551758e+00 -7.874892950057983398e-01
2.788000000000000000e+03 7.435019683837890625e+01 -1.294150257110595703e+01 1.567554660141468048e-02 7.086833477020263672e+00 2.130752801895141602e+00 2.136862576007843018e-01
2.789000000000000000e+03 4.480100250244140625e+01 -2.422453117370605469e+01 -1.068170443177223206e-01 9.983202219009399414e-01 2.674509584903717041e-01 5.397406220436096191e-02
2.790000000000000000e+03 7.488349151611328125e+01 1.103933334350585938e+01 -7.693271338939666748e-02 8.203573226928710938e+00 2.437992095947265625e+00 2.090173661708831787e-01
2.791000000000000000e+03 7.481760406494140625e+01 9.705253601074218750e+00 -5.893545597791671753e-02 8.123045921325683594e+00 2.419233083724975586e+00 2.370042651891708374e-01
2.792000000000000000e+03 7.379164886474609375e+01 -1.964323997497558594e+01 1.103670522570610046e-02 6.774229049682617188e+00 2.035579681396484375e+00 2.028078734874725342e-01
2.793000000000000000e+03 7.612967681884765625e+01 3.407885360717773438e+01 9.534518718719482422e-01 7.489794731140136719e+00 2.532974004745483398e+00 -1.438653171062469482e-01
2.794000000000000000e+03 7.502938842773437500e+01 1.502621936798095703e+01 -1.699221879243850708e-01 8.418695449829101562e+00 2.474632024765014648e+00 5.497239530086517334e-02
2.795000000000000000e+03 7.508715820312500000e+01 1.765373229980468750e+01 -2.635653913021087646e-01 8.544496536254882812e+00 2.484279394149780273e+00 -1.199076697230339050e-01
2.796000000000000000e+03 7.506507110595703125e+01 1.634375953674316406e+01 -2.093093246221542358e-01 8.487215042114257812e+00 2.483371734619140625e+00 -1.863451860845088959e-02
2.797000000000000000e+03 7.184858703613281250e+01 -3.235318756103515625e+01 4.851013049483299255e-02 6.163716793060302734e+00 1.863668084144592285e+00 1.736743599176406860e-01
2.798000000000000000e+03 7.500280761718750000e+01 2.162465095520019531e+01 -4.573347568511962891e-01 8.719149589538574219e+00 2.478544473648071289e+00 -5.288190245628356934e-01
2.799000000000000000e+03 5.026880264282226562e+00 3.086778640747070312e+01 -3.401795402169227600e-03 -6.661394983530044556e-02 -2.100472338497638702e-02 -1.020433846861124039e-02
2.800000000000000000e+03 6.286300182342529297e+00 -2.998677253723144531e+01 5.919503793120384216e-02 -1.103324294090270996e+00 -3.132387697696685791e-01 -1.732069551944732666e-01
2.801000000000000000e+03 7.487327575683593750e+01 2.451816177368164062e+01 -5.610638260841369629e-01 8.897102355957031250e+00 2.500811576843261719e+00 -9.638873338699340820e-01
2.802000000000000000e+03 7.486993408203125000e+01 2.303607559204101562e+01 -5.442219376564025879e-01 8.808993339538574219e+00 2.479431390762329102e+00 -7.424529790878295898e-01
2.803000000000000000e+03 4.669144630432128906e+00 2.816787719726562500e+01 -3.602076321840286255e-03 -7.202662527561187744e-02 -2.268861234188079834e-02 -1.290457323193550110e-02
2.804000000000000000e+03 4.593883514404296875e+00 -2.694558143615722656e+01 3.482523560523986816e-02 -1.152722597122192383e+00 -3.353691995143890381e-01 -1.697600036859512329e-01
2.805000000000000000e+03 5.098817348480224609e+00 -1.027655315399169922e+01 -5.394324660301208496e-02 -4.029597342014312744e-01 -1.370708942413330078e-01 -3.505629301071166992e-01
2.806000000000000000e+03 5.601902008056640625e+00 2.376404571533203125e+01 -5.277302581816911697e-03 -6.218518689274787903e-02 -2.023874782025814056e-02 -1.924561522901058197e-02
2.807000000000000000e+03 5.958358764648437500e+00 -2.277520370483398438e+01 5.908457562327384949e-02 -9.334578514099121094e-01 -2.623119652271270752e-01 -2.722699046134948730e-01
2.808000000000000000e+03 7.356903839111328125e+01 -3.300112533569335938e+01 3.729806095361709595e-02 6.421474933624267578e+00 1.937631964683532715e+00 1.308701187372207642e-01
2.809000000000000000e+03 5.618135452270507812e+00 -1.584050559997558594e+01 3.860606253147125244e-02 -6.920138597488403320e-01 -1.960223466157913208e-01 -3.636547625064849854e-01
2.810000000000000000e+03 5.779435157775878906e+00 -1.859586143493652344e+01 5.462500080466270447e-02 -7.993887066841125488e-01 -2.234291136264801025e-01 -3.295128047466278076e-01
2.811000000000000000e+03 4.529700279235839844e+00 -2.011202621459960938e+01 3.661439940333366394e-02 -9.114344716072082520e-01 -2.624460160732269287e-01 -2.567932009696960449e-01
2.812000000000000000e+03 5.044901371002197266e+00 1.695770454406738281e+01 2.394140232354402542e-03 -7.752718031406402588e-02 -2.253991179168224335e-02 -2.371714450418949127e-02
2.813000000000000000e+03 5.075047492980957031e+00 1.830925750732421875e+01 -1.310142688453197479e-03 -7.525451481342315674e-02 -2.296939864754676819e-02 -2.376841753721237183e-02
2.814000000000000000e+03 3.926141023635864258e+00 1.713021469116210938e+01 4.851126577705144882e-04 -1.055807918310165405e-01 -3.152870386838912964e-02 -2.168060094118118286e-02
2.815000000000000000e+03 6.009689331054687500e+00 -2.556381416320800781e+01 5.928799510002136230e-02 -1.008649110794067383e+00 -2.848083376884460449e-01 -2.305073887109756470e-01
2.816000000000000000e+03 5.008981227874755859e+00 1.560196208953857422e+01 5.567786749452352524e-03 -7.940601557493209839e-02 -2.215146832168102264e-02 -2.188933268189430237e-02
2.817000000000000000e+03 3.891187667846679688e+00 1.576632976531982422e+01 4.509310703724622726e-03 -1.097896397113800049e-01 -3.158409893512725830e-02 -2.081935480237007141e-02
2.818000000000000000e+03 5.795770645141601562e+00 -2.805291366577148438e+01 5.842494964599609375e-02 -1.081325650215148926e+00 -3.068702220916748047e-01 -1.875140070915222168e-01
2.819000000000000000e+03 5.875886917114257812e+00 2.524243927001953125e+01 -5.546606145799160004e-03 -5.755381658673286438e-02 -1.893012784421443939e-02 -1.732398010790348053e-02
2.820000000000000000e+03 5.362771034240722656e+00 -1.165462398529052734e+01 -2.367023937404155731e-02 -4.893758594989776611e-01 -1.539138257503509521e-01 -3.805135786533355713e-01
2.821000000000000000e+03 6.473630428314208984e+00 3.056481933593750000e+01 -5.093148443847894669e-03 -4.929807782173156738e-02 -1.631736755371093750e-02 -1.125796791166067123e-02
2.822000000000000000e+03 6.633778095245361328e+00 3.184471893310546875e+01 -4.972997587174177170e-03 -4.853007569909095764e-02 -1.605092175304889679e-02 -9.179201908409595490e-03
2.823000000000000000e+03 5.215240478515625000e+00 2.099585342407226562e+01 -4.192721098661422729e-03 -7.051222771406173706e-02 -2.241148427128791809e-02 -2.210601978003978729e-02
2.824000000000000000e+03 1.136555290222167969e+01 -3.215856170654296875e+01 1.358374208211898804e-01 -6.937405467033386230e-01 -1.673709303140640259e-01 -1.974079161882400513e-01
2.825000000000000000e+03 7.519293308258056641e+00 -3.392670822143554688e+01 7.043036073446273804e-02 -1.061830163002014160e+00 -2.974199354648590088e-01 -1.259657293558120728e-01
2.826000000000000000e+03 5.906940937042236328e+00 -2.138225364685058594e+01 5.901428684592247009e-02 -8.898745775222778320e-01 -2.492580860853195190e-01 -2.874629497528076172e-01
2.827000000000000000e+03 5.848156452178955078e+00 -1.998734664916992188e+01 5.796020478010177612e-02 -8.513659238815307617e-01 -2.380217164754867554e-01 -3.148549497127532959e-01
2.828000000000000000e+03 3.941098022460937500e+01 -1.465255069732666016e+01 2.079041749238967896e-01 6.809981167316436768e-02 8.280119299888610840e-02 -1.342488685622811317e-03
2.829000000000000000e+03 5.888720512390136719e+00 -2.901895332336425781e+01 4.851521179080009460e-02 -1.102553606033325195e+00 -3.162115216255187988e-01 -1.722749024629592896e-01
2.830000000000000000e+03 5.936003684997558594e+00 2.787367057800292969e+01 -5.128321237862110138e-03 -5.657469481229782104e-02 -1.851090416312217712e-02 -1.351467892527580261e-02
2.831000000000000000e+03 3.654203414916992188e+00 1.039941120147705078e+01 2.855041623115539551e-02 -1.287090480327606201e-01 -3.004758805036544800e-02 1.136671006679534912e-02
2.832000000000000000e+03 4.689430713653564453e+00 1.027603149414062500e+01 4.130402952432632446e-02 -1.044660136103630066e-01 -1.894859410822391510e-02 1.066470053046941757e-02
2.833000000000000000e+03 5.531322479248046875e+00 -1.446588230133056641e+01 2.362630516290664673e-02 -6.354388594627380371e-01 -1.835437715053558350e-01 -3.806928694248199463e-01
2.834000000000000000e+03 4.288840770721435547e+00 -1.456944942474365234e+01 1.360932737588882446e-02 -6.462789773941040039e-01 -1.898009032011032104e-01 -3.107033073902130127e-01
2.835000000000000000e+03 4.617103576660156250e+00 9.047565460205078125e+00 5.191600322723388672e-02 -1.129478514194488525e-01 -1.830955408513545990e-02 2.761012688279151917e-02
2.836000000000000000e+03 4.396557807922363281e+00 -6.813148975372314453e+00 -9.132795780897140503e-02 -2.055694162845611572e-01 -8.906921744346618652e-02 -2.197670340538024902e-01
2.837000000000000000e+03 4.525060176849365234e+00 -7.892330169677734375e+00 -8.749211579561233521e-02 -2.574116885662078857e-01 -1.034711375832557678e-01 -2.610478401184082031e-01
2.838000000000000000e+03 5.428242683410644531e+00 -7.749072074890136719e+00 -1.100248098373413086e-01 -2.694129645824432373e-01 -1.138313263654708862e-01 -3.074849545955657959e-01
2.839000000000000000e+03 5.875199794769287109e+00 3.530200195312500000e+01 -2.742269774898886681e-03 -5.542901903390884399e-02 -1.745138689875602722e-02 -5.592515692114830017e-03
2.840000000000000000e+03 3.788686752319335938e+01 -1.196347427368164062e+01 3.428200781345367432e-01 -1.052874028682708740e-01 7.125980406999588013e-02 -4.204597324132919312e-02
2.841000000000000000e+03 3.683666610717773438e+01 -1.092198944091796875e+01 4.205934107303619385e-01 -2.120147347450256348e-01 6.257360428571701050e-02 -5.798629298806190491e-02
2.842000000000000000e+03 4.607770156860351562e+01 4.003820800781250000e+01 1.228160187602043152e-01 1.863813772797584534e-02 4.243624582886695862e-02 1.325243618339300156e-02
2.843000000000000000e+03 3.114330482482910156e+01 -5.480319023132324219e+00 7.600097060203552246e-01 -3.872800469398498535e-01 1.118189021944999695e-01 -1.902647763490676880e-01
2.844000000000000000e+03 6.689575958251953125e+01 4.142835998535156250e+01 -1.378002524375915527e+00 9.306948661804199219e+00 2.378683805465698242e+00 -5.851076841354370117e-01
2.845000000000000000e+03 6.566294097900390625e+01 3.683690261840820312e+01 1.121325016021728516e+00 5.423777580261230469e+00 1.963530778884887695e+00 -3.829954862594604492e+00
2.846000000000000000e+03 1.900619506835937500e+01 -1.511587142944335938e+01 2.571772038936614990e-01 -2.081434428691864014e-01 1.471013296395540237e-02 -3.164887130260467529e-01
2.847000000000000000e+03 1.692572212219238281e+01 -1.658647537231445312e+01 2.648245692253112793e-01 -3.636127412319183350e-01 -2.963644638657569885e-02 -3.816871643066406250e-01
2.848000000000000000e+03 2.608117103576660156e+01 -3.097124099731445312e+01 3.688776493072509766e-01 4.692308008670806885e-01 2.514325380325317383e-01 -3.712367713451385498e-01
2.849000000000000000e+03 2.580124092102050781e+01 -2.821854591369628906e+01 2.918393313884735107e-01 5.118949413299560547e-01 2.411202788352966309e-01 -3.936054110527038574e-01
2.850000000000000000e+03 1.564472389221191406e+01 -1.248581218719482422e+01 2.142782956361770630e-01 -6.230605840682983398e-01 -1.226346790790557861e-01 -5.122417211532592773e-01
2.851000000000000000e+03 1.751004409790039062e+01 -1.270508956909179688e+01 2.617658376693725586e-01 -5.119413733482360840e-01 -7.505265623331069946e-02 -3.833021223545074463e-01
2.852000000000000000e+03 1.439433002471923828e+01 -9.940481185913085938e+00 -6.180531345307826996e-03 -7.201495766639709473e-01 -2.178990244865417480e-01 -7.005446553230285645e-01
2.853000000000000000e+03 1.472837257385253906e+01 -1.158458423614501953e+01 1.335998028516769409e-01 -6.457811594009399414e-01 -1.536543965339660645e-01 -5.791323184967041016e-01
2.854000000000000000e+03 1.664988899230957031e+01 -1.145743083953857422e+01 1.997745931148529053e-01 -6.221986413002014160e-01 -1.267272084951400757e-01 -4.675504267215728760e-01
2.855000000000000000e+03 3.048303222656250000e+01 -3.407831192016601562e+00 6.851736903190612793e-01 -4.713266789913177490e-01 6.415410339832305908e-02 -9.309211373329162598e-02
2.856000000000000000e+03 2.496506500244140625e+01 -2.905281448364257812e+01 3.232010602951049805e-01 4.094224870204925537e-01 2.197870612144470215e-01 -3.771882951259613037e-01
2.857000000000000000e+03 6.561287689208984375e+01 3.160087394714355469e+01 1.578368306159973145e+00 4.279701232910156250e+00 1.757420897483825684e+00 4.141674041748046875e+00
2.858000000000000000e+03 2.730459785461425781e+01 3.585284709930419922e+00 -2.423221588134765625e+00 -9.480521678924560547e-01 -1.011382102966308594e+00 -1.128414392471313477e+00
2.859000000000000000e+03 2.759114646911621094e+01 3.704042911529541016e+00 -2.373403787612915039e+00 -1.039731860160827637e+00 -1.023940682411193848e+00 -1.128258466720581055e+00
2.860000000000000000e+03 2.637069320678710938e+01 2.950165510177612305e+00 -2.560543775558471680e+00 -6.990936398506164551e-01 -9.778912067413330078e-01 -1.074513435363769531e+00
2.861000000000000000e+03 2.685006141662597656e+01 2.661690950393676758e+00 -2.227101802825927734e+00 -6.982902884483337402e-01 -8.776176571846008301e-01 -8.733134865760803223e-01
2.862000000000000000e+03 2.541788673400878906e+01 2.051553726196289062e+00 -2.411358356475830078e+00 -4.396230876445770264e-01 -8.552944064140319824e-01 -9.172107577323913574e-01
2.863000000000000000e+03 2.481730270385742188e+01 2.013361930847167969e+00 -2.672060251235961914e+00 -4.969341456890106201e-01 -9.506983160972595215e-01 -1.110103964805603027e+00
2.864000000000000000e+03 6.663658905029296875e+01 3.204534530639648438e+01 1.723068594932556152e+00 8.665893554687500000e+00 3.116688489913940430e+00 6.120797634124755859e+00
2.865000000000000000e+03 6.638453674316406250e+01 3.168066596984863281e+01 1.432337641716003418e+00 7.660470008850097656e+00 2.727842330932617188e+00 5.413748264312744141e+00
2.866000000000000000e+03 6.535810089111328125e+01 3.164841461181640625e+01 1.499133586883544922e+00 3.450393199920654297e+00 1.484858036041259766e+00 3.689746379852294922e+00
2.867000000000000000e+03 6.774691009521484375e+01 3.145328712463378906e+01 -4.726718664169311523e-01 1.488315296173095703e+01 4.323144435882568359e+00 3.446928501129150391e+00
2.868000000000000000e+03 6.840387725830078125e+01 3.208759307861328125e+01 5.424038171768188477e-01 1.859922981262207031e+01 5.742489814758300781e+00 5.376142859458923340e-01
2.869000000000000000e+03 6.704277038574218750e+01 3.078177642822265625e+01 -2.037448436021804810e-01 1.077054500579833984e+01 3.170040130615234375e+00 4.271677494049072266e+00
2.870000000000000000e+03 6.901980590820312500e+01 3.207420349121093750e+01 1.634676575660705566e+00 1.726382064819335938e+01 5.669549465179443359e+00 -1.233891844749450684e+00
2.871000000000000000e+03 7.439328765869140625e+01 3.070296096801757812e+01 8.253494501113891602e-01 9.116703987121582031e+00 2.982615947723388672e+00 -1.561692357063293457e+00
2.872000000000000000e+03 6.886631774902343750e+01 3.191465187072753906e+01 9.098680615425109863e-01 1.724173545837402344e+01 5.445480823516845703e+00 -6.087791919708251953e-01
2.873000000000000000e+03 7.390013122558593750e+01 3.132491302490234375e+01 1.171729326248168945e+00 9.376553535461425781e+00 3.164484739303588867e+00 -1.513666272163391113e+00
2.874000000000000000e+03 7.003466033935546875e+01 3.426372909545898438e+01 6.686260223388671875e+00 1.368796062469482422e+01 6.112266063690185547e+00 7.614020109176635742e-01
2.875000000000000000e+03 7.003978729248046875e+01 3.306315612792968750e+01 5.513071060180664062e+00 1.400262451171875000e+01 5.854708671569824219e+00 -1.683567523956298828e+00
2.876000000000000000e+03 7.039796447753906250e+01 3.351692199707031250e+01 5.762980461120605469e+00 1.297677421569824219e+01 5.621926307678222656e+00 -7.295994162559509277e-01
2.877000000000000000e+03 2.339484024047851562e+01 9.376263022422790527e-01 -2.260879039764404297e+00 -1.278091967105865479e-01 -7.166064977645874023e-01 -1.202858209609985352e+00
2.878000000000000000e+03 6.355419158935546875e+01 3.082031822204589844e+01 5.623248219490051270e-01 1.648223400115966797e+00 6.631644368171691895e-01 1.773715853691101074e+00
2.879000000000000000e+03 1.902803421020507812e+01 1.204203701019287109e+01 9.323450922966003418e-02 1.610249876976013184e-01 7.627785205841064453e-02 1.225971207022666931e-01
2.880000000000000000e+03 1.832175636291503906e+01 1.119054889678955078e+01 9.685920923948287964e-02 1.768923550844192505e-01 8.212547004222869873e-02 1.300493478775024414e-01
2.881000000000000000e+03 1.814828491210937500e+01 1.047310543060302734e+01 1.072249412536621094e-01 1.845749914646148682e-01 8.753997832536697388e-02 1.372729539871215820e-01
2.882000000000000000e+03 4.082062911987304688e+01 1.950043869018554688e+01 -1.097575783729553223e+00 -1.172569394111633301e+00 -6.810435652732849121e-01 -1.256095290184020996e+00
2.883000000000000000e+03 4.065241241455078125e+01 1.908768272399902344e+01 -1.091535210609436035e+00 -1.155230879783630371e+00 -6.740298271179199219e-01 -1.242979049682617188e+00
2.884000000000000000e+03 1.597998237609863281e+01 8.551597595214843750e+00 1.073061227798461914e-01 2.595373392105102539e-01 1.100530326366424561e-01 1.558150500059127808e-01
2.885000000000000000e+03 4.120319366455078125e+01 2.018717575073242188e+01 -1.123491525650024414e+00 -1.197333455085754395e+00 -6.962475180625915527e-01 -1.261406660079956055e+00
2.886000000000000000e+03 1.908810615539550781e+01 1.160515403747558594e+01 1.007579714059829712e-01 1.634423881769180298e-01 7.926011085510253906e-02 1.289837062358856201e-01
2.887000000000000000e+03 3.905919647216796875e+01 1.787508583068847656e+01 -1.171955585479736328e+00 -1.287885308265686035e+00 -7.379522323608398438e-01 -1.255327343940734863e+00
2.888000000000000000e+03 1.657147407531738281e+01 8.064984321594238281e+00 1.324166357517242432e-01 2.401203662157058716e-01 1.117611005902290344e-01 1.778766512870788574e-01
2.889000000000000000e+03 1.382521247863769531e+01 6.271882057189941406e+00 8.467689156532287598e-02 4.854894280433654785e-01 1.710498929023742676e-01 1.078977882862091064e-01
2.890000000000000000e+03 3.318443679809570312e+01 2.527518463134765625e+01 5.101394280791282654e-02 7.485258579254150391e-02 3.775995969772338867e-02 6.209883838891983032e-02
2.891000000000000000e+03 4.214947509765625000e+01 2.131521224975585938e+01 -1.233745813369750977e+00 -1.215489029884338379e+00 -7.347704768180847168e-01 -1.247828245162963867e+00
2.892000000000000000e+03 4.165008544921875000e+01 2.077005004882812500e+01 -1.172430753707885742e+00 -1.214430928230285645e+00 -7.160584926605224609e-01 -1.252943754196166992e+00
2.893000000000000000e+03 2.378344917297363281e+01 1.693507194519042969e+01 7.566322386264801025e-02 1.139294728636741638e-01 5.687781050801277161e-02 9.472260624170303345e-02
2.894000000000000000e+03 2.388432121276855469e+01 1.648734283447265625e+01 8.077017217874526978e-02 1.150777637958526611e-01 5.875438079237937927e-02 9.840208292007446289e-02
2.895000000000000000e+03 3.563567733764648438e+01 2.837235069274902344e+01 5.291719362139701843e-02 7.060305774211883545e-02 3.705607354640960693e-02 5.606633052229881287e-02
2.896000000000000000e+03 3.490665435791015625e+01 2.782026290893554688e+01 4.957540705800056458e-02 7.128477841615676880e-02 3.625805675983428955e-02 5.844723433256149292e-02
2.897000000000000000e+03 4.029346466064453125e+01 1.806509017944335938e+01 -1.079120397567749023e+00 -1.117715477943420410e+00 -6.590507626533508301e-01 -1.190406680107116699e+00
2.898000000000000000e+03 1.608994865417480469e+01 8.093988418579101562e+00 1.192888692021369934e-01 2.605597078800201416e-01 1.139545738697052002e-01 1.669609248638153076e-01
2.899000000000000000e+03 1.565388488769531250e+01 7.667758941650390625e+00 1.194105073809623718e-01 2.906137406826019287e-01 1.230072751641273499e-01 1.691062301397323608e-01
2.900000000000000000e+03 3.375403594970703125e+01 1.117151165008544922e+01 -1.245877265930175781e+00 -1.314728736877441406e+00 -7.681818008422851562e-01 -1.218895554542541504e+00
2.901000000000000000e+03 4.686618041992187500e+01 2.488483238220214844e+01 -1.219211935997009277e+00 -9.579879641532897949e-01 -6.531599760055541992e-01 -1.122747063636779785e+00
2.902000000000000000e+03 3.531655502319335938e+01 1.341195487976074219e+01 -1.245887041091918945e+00 -1.386198997497558594e+00 -7.896258234977722168e-01 -1.271319508552551270e+00
2.903000000000000000e+03 1.735256576538085938e+01 9.878060340881347656e+00 1.077646687626838684e-01 2.011137902736663818e-01 9.266353398561477661e-02 1.410792469978332520e-01
2.904000000000000000e+03 1.634614562988281250e+01 8.839309692382812500e+00 1.099213138222694397e-01 2.367942333221435547e-01 1.040146648883819580e-01 1.544543355703353882e-01
2.905000000000000000e+03 3.384713363647460938e+01 2.632647705078125000e+01 4.879332333803176880e-02 7.427456229925155640e-02 3.692036494612693787e-02 6.048987805843353271e-02
2.906000000000000000e+03 2.126587295532226562e+01 1.303867530822753906e+01 1.044049113988876343e-01 1.399630755186080933e-01 7.331039756536483765e-02 1.200773119926452637e-01
2.907000000000000000e+03 3.321407699584960938e+01 2.573959159851074219e+01 4.899490997195243835e-02 7.495595514774322510e-02 3.718525916337966919e-02 6.152811273932456970e-02
2.908000000000000000e+03 2.125594902038574219e+01 1.350449085235595703e+01 9.873852133750915527e-02 1.384785622358322144e-01 7.116512209177017212e-02 1.152884885668754578e-01
2.909000000000000000e+03 3.113731002807617188e+01 2.312607002258300781e+01 5.389877408742904663e-02 7.615809142589569092e-02 3.901705890893936157e-02 6.938098371028900146e-02
2.910000000000000000e+03 2.934400558471679688e+01 2.160338783264160156e+01 6.025934219360351562e-02 8.464452624320983887e-02 4.347116127610206604e-02 7.290030270814895630e-02
2.911000000000000000e+03 3.291822814941406250e+01 2.558775711059570312e+01 4.961426928639411926e-02 7.410129159688949585e-02 3.711466863751411438e-02 6.185834109783172607e-02
2.912000000000000000e+03 4.766512298583984375e+01 2.590779685974121094e+01 -1.215483188629150391e+00 -9.636127948760986328e-01 -6.537287831306457520e-01 -1.136516690254211426e+00
2.913000000000000000e+03 4.805099868774414062e+01 2.696160316467285156e+01 -1.274487733840942383e+00 -1.041806936264038086e+00 -6.948883533477783203e-01 -1.188626170158386230e+00
2.914000000000000000e+03 4.324512863159179688e+01 2.235229873657226562e+01 -1.305222630500793457e+00 -1.208316683769226074e+00 -7.540618181228637695e-01 -1.267108082771301270e+00
2.915000000000000000e+03 4.378544998168945312e+01 2.235726165771484375e+01 -1.243429780006408691e+00 -1.159960508346557617e+00 -7.210170626640319824e-01 -1.210214853286743164e+00
2.916000000000000000e+03 4.241369628906250000e+01 2.158030319213867188e+01 -1.261932253837585449e+00 -1.212851881980895996e+00 -7.424352169036865234e-01 -1.249660253524780273e+00
2.917000000000000000e+03 3.582336044311523438e+01 1.398193550109863281e+01 -1.228170990943908691e+00 -1.387466192245483398e+00 -7.846911549568176270e-01 -1.277848601341247559e+00
2.918000000000000000e+03 3.218560409545898438e+01 9.566164970397949219e+00 -1.270854234695434570e+00 -1.315303444862365723e+00 -7.758473157882690430e-01 -1.207486867904663086e+00
2.919000000000000000e+03 4.559458541870117188e+01 2.443780517578125000e+01 -1.336571216583251953e+00 -1.146723985671997070e+00 -7.449885606765747070e-01 -1.215845346450805664e+00
2.920000000000000000e+03 4.649546051025390625e+01 2.463945007324218750e+01 -1.244387269020080566e+00 -9.968529343605041504e-01 -6.723720431327819824e-01 -1.137251853942871094e+00
2.921000000000000000e+03 3.607735061645507812e+01 1.426395034790039062e+01 -1.213945746421813965e+00 -1.387897133827209473e+00 -7.805528640747070312e-01 -1.281593561172485352e+00
2.922000000000000000e+03 3.608980178833007812e+01 1.480970668792724609e+01 -1.236694574356079102e+00 -1.446859955787658691e+00 -8.050663471221923828e-01 -1.329971313476562500e+00
2.923000000000000000e+03 4.407286453247070312e+01 2.261393547058105469e+01 -1.248564481735229492e+00 -1.159528970718383789e+00 -7.224280238151550293e-01 -1.204374909400939941e+00
2.924000000000000000e+03 3.455302047729492188e+01 1.308831310272216797e+01 -1.286651015281677246e+00 -1.441123247146606445e+00 -8.183322548866271973e-01 -1.319136142730712891e+00
2.925000000000000000e+03 3.506743621826171875e+01 1.312396717071533203e+01 -1.243511438369750977e+00 -1.386220812797546387e+00 -7.889196872711181641e-01 -1.270533323287963867e+00
2.926000000000000000e+03 2.843506431579589844e+01 2.081818580627441406e+01 6.433670222759246826e-02 8.809182792901992798e-02 4.572856053709983826e-02 7.705275714397430420e-02
2.927000000000000000e+03 2.023452568054199219e+01 1.209681415557861328e+01 1.076030284166336060e-01 1.504169702529907227e-01 7.740599662065505981e-02 1.262995004653930664e-01
2.928000000000000000e+03 4.804053115844726562e+01 2.650211524963378906e+01 -1.231222033500671387e+00 -9.811232686042785645e-01 -6.637036204338073730e-01 -1.147094964981079102e+00
2.929000000000000000e+03 4.831573867797851562e+01 2.719485473632812500e+01 -1.278868079185485840e+00 -1.031249046325683594e+00 -6.930351257324218750e-01 -1.172248244285583496e+00
2.930000000000000000e+03 2.804330635070800781e+01 2.063603401184082031e+01 6.357312947511672974e-02 9.047933667898178101e-02 4.621573910117149353e-02 7.757190614938735962e-02
2.931000000000000000e+03 4.322183990478515625e+01 2.185118103027343750e+01 -1.228379487991333008e+00 -1.163045167922973633e+00 -7.174273729324340820e-01 -1.212243676185607910e+00
2.932000000000000000e+03 2.196169853210449219e+01 1.385494804382324219e+01 1.009728312492370605e-01 1.332290768623352051e-01 7.026056945323944092e-02 1.133478879928588867e-01
2.933000000000000000e+03 2.754871368408203125e+01 2.013331794738769531e+01 6.559718400239944458e-02 9.321300685405731201e-02 4.764305800199508667e-02 7.983602583408355713e-02
2.934000000000000000e+03 2.714453125000000000e+01 2.024879074096679688e+01 6.348090618848800659e-02 9.517037868499755859e-02 4.759538546204566956e-02 7.869578152894973755e-02
2.935000000000000000e+03 2.712877655029296875e+01 1.942823600769042969e+01 7.054091244935989380e-02 9.613811969757080078e-02 5.000371113419532776e-02 8.305599540472030640e-02
2.936000000000000000e+03 2.698942184448242188e+01 1.994098472595214844e+01 6.473031640052795410e-02 9.626759588718414307e-02 4.829937592148780823e-02 8.014761656522750854e-02
2.937000000000000000e+03 2.280242156982421875e+01 1.517456340789794922e+01 8.819323778152465820e-02 1.262324899435043335e-01 6.432771682739257812e-02 1.038806661963462830e-01
2.938000000000000000e+03 3.848122787475585938e+01 1.735743713378906250e+01 -1.195053815841674805e+00 -1.361272335052490234e+00 -7.668978571891784668e-01 -1.260746240615844727e+00
2.939000000000000000e+03 3.936948013305664062e+01 3.187875556945800781e+01 5.424965918064117432e-02 5.474695935845375061e-02 3.269898518919944763e-02 5.379011482000350952e-02
2.940000000000000000e+03 1.675734519958496094e+01 9.125008583068847656e+00 1.139013469219207764e-01 2.238171994686126709e-01 1.013155654072761536e-01 1.499531418085098267e-01
2.941000000000000000e+03 1.796411514282226562e+01 1.023988914489746094e+01 1.086057871580123901e-01 1.890932917594909668e-01 8.930972963571548462e-02 1.409132480621337891e-01
2.942000000000000000e+03 3.571530151367187500e+01 2.869313812255859375e+01 4.980460926890373230e-02 6.903528422117233276e-02 3.565196692943572998e-02 5.620089918375015259e-02
2.943000000000000000e+03 3.521273422241210938e+01 2.798151588439941406e+01 5.130116641521453857e-02 7.115981727838516235e-02 3.673829510807991028e-02 5.709980055689811707e-02
2.944000000000000000e+03 1.941238975524902344e+01 1.209703254699707031e+01 9.790388494729995728e-02 1.575045138597488403e-01 7.662251591682434082e-02 1.239786446094512939e-01
2.945000000000000000e+03 2.688512802124023438e+01 1.912529373168945312e+01 7.264608889818191528e-02 9.774480760097503662e-02 5.111727118492126465e-02 8.401037007570266724e-02
2.946000000000000000e+03 2.609128952026367188e+01 1.826113700866699219e+01 7.761725783348083496e-02 1.021576896309852600e-01 5.393248051404953003e-02 8.771275728940963745e-02
2.947000000000000000e+03 4.974150466918945312e+01 2.844785690307617188e+01 -1.277270317077636719e+00 -9.089770913124084473e-01 -6.558742523193359375e-01 -1.084954142570495605e+00
2.948000000000000000e+03 4.436211395263671875e+01 2.287227058410644531e+01 -1.254023194313049316e+00 -1.156967759132385254e+00 -7.232972979545593262e-01 -1.196641802787780762e+00
2.949000000000000000e+03 3.633050537109375000e+01 1.454742050170898438e+01 -1.207825303077697754e+00 -1.390542030334472656e+00 -7.795102000236511230e-01 -1.276902198791503906e+00
2.950000000000000000e+03 5.005057144165039062e+01 2.869820594787597656e+01 -1.267157435417175293e+00 -8.678243756294250488e-01 -6.404945254325866699e-01 -1.064299702644348145e+00
2.951000000000000000e+03 4.894331359863281250e+01 2.823215675354003906e+01 -1.342726826667785645e+00 -1.065422177314758301e+00 -7.224447131156921387e-01 -1.189601898193359375e+00
2.952000000000000000e+03 5.036830902099609375e+01 2.895061492919921875e+01 -1.254874467849731445e+00 -8.225495815277099609e-01 -6.232271790504455566e-01 -1.041397929191589355e+00
2.953000000000000000e+03 5.123601531982421875e+01 2.909253311157226562e+01 -1.190741181373596191e+00 -5.916674733161926270e-01 -5.347225666046142578e-01 -9.197136759757995605e-01
2.954000000000000000e+03 3.658474731445312500e+01 1.483319473266601562e+01 -1.195333838462829590e+00 -1.391539692878723145e+00 -7.760620713233947754e-01 -1.276032686233520508e+00
2.955000000000000000e+03 3.684291076660156250e+01 1.512040615081787109e+01 -1.192233920097351074e+00 -1.391728520393371582e+00 -7.751887440681457520e-01 -1.268190979957580566e+00
2.956000000000000000e+03 3.710570526123046875e+01 1.540682029724121094e+01 -1.183646202087402344e+00 -1.388830900192260742e+00 -7.717431187629699707e-01 -1.262746691703796387e+00
2.957000000000000000e+03 6.473437500000000000e+01 3.118741798400878906e+01 1.117297887802124023e+00 2.724958896636962891e+00 1.152677059173583984e+00 2.941756725311279297e+00
2.958000000000000000e+03 4.145890808105468750e+01 3.365312194824218750e+01 6.013813987374305725e-02 5.065225809812545776e-02 3.323711827397346497e-02 5.062368139624595642e-02
2.959000000000000000e+03 4.068045043945312500e+01 3.390775299072265625e+01 6.373240798711776733e-02 5.197842046618461609e-02 3.471324592828750610e-02 4.447258636355400085e-02
2.960000000000000000e+03 4.853260803222656250e+01 2.689630126953125000e+01 -1.222857952117919922e+00 -9.459068775177001953e-01 -6.506294608116149902e-01 -1.109228610992431641e+00
2.961000000000000000e+03 2.390441131591796875e+01 1.751290130615234375e+01 7.010861486196517944e-02 1.122324541211128235e-01 5.470231920480728149e-02 9.020138531923294067e-02
2.962000000000000000e+03 3.310948181152343750e+01 1.085623550415039062e+01 -1.290798902511596680e+00 -1.341150164604187012e+00 -7.895846962928771973e-01 -1.242814302444458008e+00
2.963000000000000000e+03 3.326016616821289062e+01 1.141010951995849609e+01 -1.317096710205078125e+00 -1.376559853553771973e+00 -8.080969452857971191e-01 -1.292184591293334961e+00
2.964000000000000000e+03 3.794174957275390625e+01 1.681086158752441406e+01 -1.205903649330139160e+00 -1.414652228355407715e+00 -7.861667871475219727e-01 -1.273043036460876465e+00
2.965000000000000000e+03 4.528803634643554688e+01 2.417905616760253906e+01 -1.341589927673339844e+00 -1.176533102989196777e+00 -7.554369568824768066e-01 -1.220474839210510254e+00
2.966000000000000000e+03 4.943999862670898438e+01 2.819736289978027344e+01 -1.282273769378662109e+00 -9.431314468383789062e-01 -6.676215529441833496e-01 -1.106292009353637695e+00
2.967000000000000000e+03 4.465204620361328125e+01 2.313181877136230469e+01 -1.260596513748168945e+00 -1.150460124015808105e+00 -7.233169674873352051e-01 -1.186440229415893555e+00
2.968000000000000000e+03 2.640356826782226562e+01 1.800539207458496094e+01 8.236635476350784302e-02 1.014755070209503174e-01 5.515255779027938843e-02 8.944630622863769531e-02
2.969000000000000000e+03 2.636607933044433594e+01 1.854240417480468750e+01 7.603712379932403564e-02 1.008618026971817017e-01 5.306967720389366150e-02 8.633091300725936890e-02
2.970000000000000000e+03 3.820997619628906250e+01 1.708597564697265625e+01 -1.200175881385803223e+00 -1.389533996582031250e+00 -7.769129276275634766e-01 -1.266813397407531738e+00
2.971000000000000000e+03 4.014210510253906250e+01 1.853640174865722656e+01 -1.107180595397949219e+00 -1.169117212295532227e+00 -6.828893423080444336e-01 -1.239673614501953125e+00
2.972000000000000000e+03 4.858664703369140625e+01 2.744017791748046875e+01 -1.279963374137878418e+00 -1.016829729080200195e+00 -6.890379190444946289e-01 -1.156516313552856445e+00
2.973000000000000000e+03 3.377114868164062500e+01 2.659943580627441406e+01 4.934037104249000549e-02 7.379791140556335449e-02 3.694148361682891846e-02 5.970176309347152710e-02
2.974000000000000000e+03 3.348819351196289062e+01 2.623958206176757812e+01 4.924762621521949768e-02 7.391328364610671997e-02 3.694827482104301453e-02 6.025088205933570862e-02
2.975000000000000000e+03 4.880304336547851562e+01 2.715516471862792969e+01 -1.223962306976318359e+00 -9.298431873321533203e-01 -6.461416482925415039e-01 -1.094293832778930664e+00
2.976000000000000000e+03 3.441799926757812500e+01 2.713953399658203125e+01 4.884064570069313049e-02 7.342218607664108276e-02 3.667885065078735352e-02 5.884240940213203430e-02
2.977000000000000000e+03 4.294883728027343750e+01 2.160012245178222656e+01 -1.215914845466613770e+00 -1.167116761207580566e+00 -7.149094939231872559e-01 -1.210612058639526367e+00
2.978000000000000000e+03 2.217960548400878906e+01 1.415577888488769531e+01 9.906310588121414185e-02 1.318382471799850464e-01 6.927040964365005493e-02 1.105183735489845276e-01
2.979000000000000000e+03 2.167723655700683594e+01 1.404149436950683594e+01 9.577827900648117065e-02 1.344931721687316895e-01 6.908144056797027588e-02 1.106267496943473816e-01
2.980000000000000000e+03 2.550622177124023438e+01 1.771090507507324219e+01 8.019123226404190063e-02 1.045039668679237366e-01 5.540855973958969116e-02 9.061112254858016968e-02
2.981000000000000000e+03 3.737184524536132812e+01 1.568993949890136719e+01 -1.181845426559448242e+00 -1.384215831756591797e+00 -7.698183655738830566e-01 -1.252665281295776367e+00
2.982000000000000000e+03 2.052647781372070312e+01 1.281965351104736328e+01 9.878090023994445801e-02 1.454883813858032227e-01 7.328078150749206543e-02 1.201485246419906616e-01
2.983000000000000000e+03 1.975987625122070312e+01 1.206815242767333984e+01 1.019357964396476746e-01 1.541990488767623901e-01 7.684045284986495972e-02 1.252278238534927368e-01
2.984000000000000000e+03 2.239193153381347656e+01 1.447450256347656250e+01 9.567016363143920898e-02 1.300757676362991333e-01 6.772377341985702515e-02 1.082043275237083435e-01
2.985000000000000000e+03 3.077347755432128906e+01 2.341233634948730469e+01 5.155796930193901062e-02 7.905418425798416138e-02 3.918364644050598145e-02 6.806020438671112061e-02
2.986000000000000000e+03 3.110016822814941406e+01 2.365367698669433594e+01 5.154737830162048340e-02 7.684812694787979126e-02 3.851865231990814209e-02 6.784162670373916626e-02
2.987000000000000000e+03 4.126856994628906250e+01 3.493162918090820312e+01 6.970763206481933594e-02 5.024839192628860474e-02 3.598680719733238220e-02 4.570486024022102356e-02
2.988000000000000000e+03 2.654496002197265625e+01 1.936982536315917969e+01 6.823875755071640015e-02 9.888269752264022827e-02 5.013643577694892883e-02 8.243908733129501343e-02
2.989000000000000000e+03 2.979968833923339844e+01 2.287531089782714844e+01 5.235504731535911560e-02 8.308719843626022339e-02 4.063267260789871216e-02 6.928654015064239502e-02
2.990000000000000000e+03 2.996695709228515625e+01 2.212606048583984375e+01 5.738966539502143860e-02 8.217732608318328857e-02 4.187009856104850769e-02 7.098454982042312622e-02
2.991000000000000000e+03 5.351787948608398438e+01 3.079125404357910156e+01 -1.176414370536804199e+00 -4.584457352757453918e-02 -3.666777014732360840e-01 -7.865377068519592285e-01
2.992000000000000000e+03 3.992329025268554688e+01 1.793906593322753906e+01 -1.104546546936035156e+00 -1.159302949905395508e+00 -6.791548132896423340e-01 -1.206814050674438477e+00
2.993000000000000000e+03 3.764020538330078125e+01 1.596872425079345703e+01 -1.175732731819152832e+00 -1.373538255691528320e+00 -7.647812962532043457e-01 -1.245479464530944824e+00
2.994000000000000000e+03 3.790958023071289062e+01 1.624315834045410156e+01 -1.174239993095397949e+00 -1.360124826431274414e+00 -7.603094577789306641e-01 -1.235129594802856445e+00
2.995000000000000000e+03 4.173097229003906250e+01 2.027898979187011719e+01 -1.107441782951354980e+00 -1.168673872947692871e+00 -6.828346848487854004e-01 -1.223186612129211426e+00
2.996000000000000000e+03 4.218340682983398438e+01 2.081731414794921875e+01 -1.150481343269348145e+00 -1.173275589942932129e+00 -6.971270442008972168e-01 -1.212924599647521973e+00
2.997000000000000000e+03 2.121040725708007812e+01 1.395022010803222656e+01 9.226691722869873047e-02 1.373630762100219727e-01 6.888899952173233032e-02 1.103855967521667480e-01
2.998000000000000000e+03 4.350128936767578125e+01 2.210309028625488281e+01 -1.237361669540405273e+00 -1.161120653152465820e+00 -7.195447087287902832e-01 -1.212248682975769043e+00
2.999000000000000000e+03 3.919919967651367188e+01 1.699224090576171875e+01 -1.122377634048461914e+00 -1.201840281486511230e+00 -6.972653865814208984e-01 -1.180962562561035156e+00
3.000000000000000000e+03 3.606903457641601562e+01 1.372689628601074219e+01 -1.187319755554199219e+00 -1.332483649253845215e+00 -7.559410333633422852e-01 -1.231984019279479980e+00
3.001000000000000000e+03 4.671108627319335938e+01 2.430421257019042969e+01 -1.187338232994079590e+00 -9.230205416679382324e-01 -6.331076025962829590e-01 -1.074457645416259766e+00
3.002000000000000000e+03 3.038791656494140625e+01 5.154592037200927734e+00 -1.858879804611206055e+00 -9.778015613555908203e-01 -8.510044217109680176e-01 -9.281071424484252930e-01
3.003000000000000000e+03 3.169445991516113281e+01 5.681233882904052734e+00 -1.465268135070800781e+00 -8.970534205436706543e-01 -7.086964845657348633e-01 -9.338642358779907227e-01
3.004000000000000000e+03 3.402038574218750000e+01 1.182081222534179688e+01 -1.256799340248107910e+00 -1.349448084831237793e+00 -7.818742394447326660e-01 -1.257747411727905273e+00
3.005000000000000000e+03 3.413082885742187500e+01 1.206480312347412109e+01 -1.253990650177001953e+00 -1.371704101562500000e+00 -7.877084016799926758e-01 -1.274995326995849609e+00
3.006000000000000000e+03 3.658642959594726562e+01 3.001977539062500000e+01 5.177292600274085999e-02 6.666868180036544800e-02 3.553248196840286255e-02 5.416394397616386414e-02
3.007000000000000000e+03 1.530263423919677734e+01 7.628879547119140625e+00 1.066483706235885620e-01 3.164145350456237793e-01 1.269188672304153442e-01 1.617590934038162231e-01
3.008000000000000000e+03 2.519415855407714844e+01 1.743927955627441406e+01 8.091982454061508179e-02 1.056841388344764709e-01 5.598118901252746582e-02 9.233721345663070679e-02
3.009000000000000000e+03 2.319958877563476562e+01 1.599778270721435547e+01 8.066859096288681030e-02 1.209032461047172546e-01 6.047154963016510010e-02 9.957358986139297485e-02
3.010000000000000000e+03 3.456311035156250000e+01 2.766694641113281250e+01 4.908366501331329346e-02 7.248727232217788696e-02 3.647128120064735413e-02 5.769828334450721741e-02
3.011000000000000000e+03 3.533003616333007812e+01 2.840942382812500000e+01 4.984272271394729614e-02 7.018495351076126099e-02 3.600830212235450745e-02 5.611827224493026733e-02
3.012000000000000000e+03 4.494184112548828125e+01 2.339165878295898438e+01 -1.268010139465332031e+00 -1.138503670692443848e+00 -7.219541668891906738e-01 -1.176605343818664551e+00
3.013000000000000000e+03 4.523216629028320312e+01 2.364967536926269531e+01 -1.274264216423034668e+00 -1.120800256729125977e+00 -7.185193300247192383e-01 -1.167136788368225098e+00
3.014000000000000000e+03 3.233780670166015625e+01 2.511872482299804688e+01 4.955437779426574707e-02 7.477987557649612427e-02 3.730027377605438232e-02 6.323226541280746460e-02
3.015000000000000000e+03 3.203412246704101562e+01 2.489091300964355469e+01 4.957035928964614868e-02 7.606944441795349121e-02 3.769194334745407104e-02 6.333690881729125977e-02
3.016000000000000000e+03 5.277533721923828125e+01 2.964173889160156250e+01 -1.135284423828125000e+00 -1.788631230592727661e-01 -3.942442834377288818e-01 -7.964712381362915039e-01
3.017000000000000000e+03 5.291077041625976562e+01 3.015300178527832031e+01 -1.163579583168029785e+00 -1.768184006214141846e-01 -4.021193981170654297e-01 -8.014907836914062500e-01
3.018000000000000000e+03 3.612246322631835938e+01 2.950835990905761719e+01 5.065509304404258728e-02 6.954323500394821167e-02 3.605949878692626953e-02 5.457093566656112671e-02
3.019000000000000000e+03 2.254981040954589844e+01 1.572699642181396484e+01 7.945345342159271240e-02 1.254665553569793701e-01 6.147599965333938599e-02 9.903632849454879761e-02
3.020000000000000000e+03 2.239985084533691406e+01 1.534157848358154297e+01 8.332898467779159546e-02 1.275935024023056030e-01 6.327674537897109985e-02 1.013899073004722595e-01
3.021000000000000000e+03 2.024547958374023438e+01 1.261783218383789062e+01 9.970480948686599731e-02 1.489126086235046387e-01 7.458522915840148926e-02 1.209694147109985352e-01
3.022000000000000000e+03 1.995566749572753906e+01 1.237597465515136719e+01 9.920051693916320801e-02 1.511712372303009033e-01 7.511152327060699463e-02 1.226837858557701111e-01
3.023000000000000000e+03 4.615104293823242188e+01 2.439986610412597656e+01 -1.263371229171752930e+00 -1.034547090530395508e+00 -6.893755197525024414e-01 -1.147408127784729004e+00
3.024000000000000000e+03 3.364079284667968750e+01 2.601964950561523438e+01 5.014287680387496948e-02 7.427997142076492310e-02 3.732685372233390808e-02 6.112004071474075317e-02
3.025000000000000000e+03 3.402092742919921875e+01 2.702082824707031250e+01 4.896740615367889404e-02 7.303676009178161621e-02 3.660124912858009338e-02 5.952430889010429382e-02
3.026000000000000000e+03 3.434353256225585938e+01 1.229662418365478516e+01 -1.261073470115661621e+00 -1.381526231765747070e+00 -7.927799224853515625e-01 -1.273669362068176270e+00
3.027000000000000000e+03 5.414830398559570312e+01 3.038669586181640625e+01 -1.136502861976623535e+00 1.139240935444831848e-01 -3.067736327648162842e-01 -7.538155913352966309e-01
3.028000000000000000e+03 3.277431488037109375e+01 1.064842510223388672e+01 -1.304636359214782715e+00 -1.342896819114685059e+00 -7.942599654197692871e-01 -1.255949854850769043e+00
3.029000000000000000e+03 6.408441925048828125e+01 3.120588874816894531e+01 7.467358112335205078e-01 1.730043292045593262e+00 7.430337071418762207e-01 2.084578037261962891e+00
3.030000000000000000e+03 3.235883331298828125e+01 8.673141479492187500e+00 -1.194429397583007812e+00 -1.235473394393920898e+00 -7.289708256721496582e-01 -1.145654678344726562e+00
3.031000000000000000e+03 3.572717285156250000e+01 2.908223152160644531e+01 5.109003931283950806e-02 7.017430663108825684e-02 3.637930378317832947e-02 5.453251674771308899e-02
3.032000000000000000e+03 3.364512634277343750e+01 1.152371215820312500e+01 -1.283486843109130859e+00 -1.350328922271728516e+00 -7.901447415351867676e-01 -1.278264880180358887e+00
3.033000000000000000e+03 1.698232460021972656e+01 9.712520599365234375e+00 1.062409728765487671e-01 2.128473073244094849e-01 9.572648257017135620e-02 1.415702402591705322e-01
3.034000000000000000e+03 1.374683761596679688e+01 5.620142936706542969e+00 8.769182115793228149e-02 6.103248596191406250e-01 2.094050049781799316e-01 1.089651063084602356e-01
3.035000000000000000e+03 1.360497570037841797e+01 5.301003456115722656e+00 8.189540356397628784e-02 6.766510009765625000e-01 2.275639176368713379e-01 8.777316659688949585e-02
3.036000000000000000e+03 1.782529449462890625e+01 1.053985023498535156e+01 1.006159856915473938e-01 1.902987658977508545e-01 8.727442473173141479e-02 1.349506676197052002e-01
3.037000000000000000e+03 1.748785400390625000e+01 1.042589759826660156e+01 9.755187481641769409e-02 1.947088539600372314e-01 8.767821639776229858e-02 1.331049501895904541e-01
3.038000000000000000e+03 1.492558383941650391e+01 7.538803100585937500e+00 9.925889968872070312e-02 3.302249908447265625e-01 1.288451701402664185e-01 1.489330828189849854e-01
3.039000000000000000e+03 2.387402725219726562e+01 1.041549921035766602e+00 -2.071596384048461914e+00 -4.095510020852088928e-02 -6.337654590606689453e-01 -9.920938014984130859e-01
3.040000000000000000e+03 1.418484306335449219e+01 6.677793025970458984e+00 9.432981908321380615e-02 4.198352396488189697e-01 1.542495191097259521e-01 1.349321603775024414e-01
3.041000000000000000e+03 6.928689575195312500e+01 3.628153610229492188e+01 4.932271242141723633e-01 1.605352020263671875e+01 4.964024066925048828e+00 1.358921051025390625e+00
3.042000000000000000e+03 1.290958595275878906e+01 4.868742465972900391e+00 1.600370854139328003e-01 7.078762054443359375e-01 2.603739798069000244e-01 -1.334012895822525024e-01
3.043000000000000000e+03 2.258976936340332031e+01 6.404674798250198364e-02 -1.080749750137329102e+00 9.368343949317932129e-01 -4.317460954189300537e-02 -1.275430083274841309e+00
3.044000000000000000e+03 2.306350708007812500e+01 -3.582598865032196045e-01 -2.258768379688262939e-01 7.354658246040344238e-01 1.528767049312591553e-01 -9.408858418464660645e-01
3.045000000000000000e+03 1.306708908081054688e+01 5.145254611968994141e+00 1.120724529027938843e-01 6.621161699295043945e-01 2.322565913200378418e-01 -5.478807166218757629e-02
3.046000000000000000e+03 2.754208755493164062e+01 -1.300373196601867676e+00 3.813713192939758301e-01 -2.974802553653717041e-01 2.516731806099414825e-02 -1.055747494101524353e-01
3.047000000000000000e+03 2.520275497436523438e+01 1.892117619514465332e+00 -2.403169393539428711e+00 -4.768179059028625488e-01 -8.639962077140808105e-01 -9.528715610504150391e-01
3.048000000000000000e+03 3.800378417968750000e+01 3.081365776062011719e+01 5.334936082363128662e-02 6.277997791767120361e-02 3.483880311250686646e-02 5.297786369919776917e-02
3.049000000000000000e+03 3.601670837402343750e+01 2.995678138732910156e+01 4.869944602251052856e-02 6.867148727178573608e-02 3.521127998828887939e-02 5.261475965380668640e-02
3.050000000000000000e+03 6.196179199218750000e+01 2.962119293212890625e+01 2.688602507114410400e-01 1.461738467216491699e+00 5.191795825958251953e-01 1.045525312423706055e+00
3.051000000000000000e+03 3.912438583374023438e+01 3.115534019470214844e+01 5.848913267254829407e-02 5.872904136776924133e-02 3.516545146703720093e-02 5.229877308011054993e-02
3.052000000000000000e+03 1.425382518768310547e+01 5.848660945892333984e+00 1.100392714142799377e-01 5.179054737091064453e-01 1.883834302425384521e-01 1.860695034265518188e-01
3.053000000000000000e+03 6.048878860473632812e+01 3.054198455810546875e+01 -4.341323673725128174e-01 6.198072433471679688e-01 5.570245906710624695e-02 1.244651451706886292e-01
3.054000000000000000e+03 6.088283920288085938e+01 2.964761352539062500e+01 -7.941383868455886841e-03 1.059265375137329102e+00 3.153972029685974121e-01 5.312175154685974121e-01
3.055000000000000000e+03 2.604260253906250000e+01 -3.622403740882873535e-01 -1.706098616123199463e-01 -1.759251654148101807e-01 -1.039605066180229187e-01 -2.564741969108581543e-01
3.056000000000000000e+03 3.047324752807617188e+01 2.376642799377441406e+01 5.009940639138221741e-02 7.969615608453750610e-02 3.893866762518882751e-02 6.761224567890167236e-02
3.057000000000000000e+03 3.088222694396972656e+01 2.290131950378417969e+01 5.416768044233322144e-02 7.801032066345214844e-02 3.965340182185173035e-02 6.935843825340270996e-02
3.058000000000000000e+03 3.962959671020507812e+01 3.424027633666992188e+01 6.512241065502166748e-02 4.930352419614791870e-02 3.432777896523475647e-02 4.349467903375625610e-02
3.059000000000000000e+03 5.541120529174804688e+00 6.797134876251220703e+00 7.799257338047027588e-02 -1.188494637608528137e-01 -1.225706655532121658e-02 7.185264676809310913e-02
3.060000000000000000e+03 4.032095336914062500e+01 3.278456497192382812e+01 5.558891966938972473e-02 5.037456378340721130e-02 3.178904578089714050e-02 5.282570794224739075e-02
3.061000000000000000e+03 5.407571029663085938e+01 3.093855476379394531e+01 -1.175601959228515625e+00 8.702243119478225708e-02 -3.265738487243652344e-01 -7.715197801589965820e-01
3.062000000000000000e+03 5.991331100463867188e+00 4.962820529937744141e+00 5.817903578281402588e-02 -1.229541376233100891e-01 -1.943253166973590851e-02 1.244793161749839783e-01
3.063000000000000000e+03 6.148412704467773438e+00 5.732702732086181641e+00 8.170279860496520996e-02 -1.266393214464187622e-01 -1.348095759749412537e-02 1.006949841976165771e-01
3.064000000000000000e+03 6.349430847167968750e+01 3.034205055236816406e+01 6.099460124969482422e-01 1.997856378555297852e+00 7.823407053947448730e-01 1.906968355178833008e+00
3.065000000000000000e+03 6.300831222534179688e+01 3.034800720214843750e+01 4.501142501831054688e-01 1.604052066802978516e+00 6.162499189376831055e-01 1.523537158966064453e+00
3.066000000000000000e+03 3.171679496765136719e+01 2.467013549804687500e+01 4.958628863096237183e-02 7.578190416097640991e-02 3.761045634746551514e-02 6.468200683593750000e-02
3.067000000000000000e+03 3.139023971557617188e+01 2.444858360290527344e+01 4.952863976359367371e-02 7.719837129116058350e-02 3.801810368895530701e-02 6.508672237396240234e-02
3.068000000000000000e+03 9.502047538757324219e+00 4.297577381134033203e+00 2.583512663841247559e-01 -1.801294535398483276e-01 2.346654608845710754e-02 6.604767590761184692e-02
3.069000000000000000e+03 6.895404338836669922e+00 5.538748741149902344e+00 1.116904839873313904e-01 -1.302951723337173462e-01 -5.581406876444816589e-03 9.451986849308013916e-02
3.070000000000000000e+03 3.222690582275390625e+01 6.566719532012939453e+00 -1.295998930931091309e+00 -9.872032999992370605e-01 -6.849606633186340332e-01 -1.008293628692626953e+00
3.071000000000000000e+03 1.024910354614257812e+01 4.101328372955322266e+00 3.471260964870452881e-01 -1.467660218477249146e-01 6.010802090167999268e-02 -1.512451283633708954e-02
3.072000000000000000e+03 8.832056999206542969e+00 5.096740245819091797e+00 2.093019634485244751e-01 -1.410337090492248535e-01 2.048048004508018494e-02 5.169325694441795349e-02
3.073000000000000000e+03 6.605024719238281250e+01 3.611249160766601562e+01 1.645026445388793945e+00 5.439904689788818359e+00 2.125479221343994141e+00 -4.327159881591796875e+00
3.074000000000000000e+03 6.146279907226562500e+01 2.923370742797851562e+01 1.962984204292297363e-01 1.424220919609069824e+00 4.861557781696319580e-01 8.781046867370605469e-01
3.075000000000000000e+03 7.007735729217529297e+00 6.287772655487060547e+00 1.250912100076675415e-01 -1.204600781202316284e-01 1.389340497553348541e-03 6.754866242408752441e-02
3.076000000000000000e+03 4.438541412353515625e+01 3.677975845336914062e+01 1.000814139842987061e-01 2.914574369788169861e-02 3.876814618706703186e-02 4.439532756805419922e-02
3.077000000000000000e+03 5.278818130493164062e+00 -6.736952781677246094e+00 -1.313498616218566895e-01 -2.030365020036697388e-01 -1.003159061074256897e-01 -2.634048461914062500e-01
3.078000000000000000e+03 2.634510612487792969e+01 -1.125974297523498535e+00 3.569548428058624268e-01 -1.103071495890617371e-01 7.399430871009826660e-02 -2.779620289802551270e-01
3.079000000000000000e+03 3.711964035034179688e+01 3.066331863403320312e+01 5.227583274245262146e-02 6.454021483659744263e-02 3.504481539130210876e-02 5.261275172233581543e-02
3.080000000000000000e+03 5.722970962524414062e+01 3.005603599548339844e+01 -8.278957605361938477e-01 4.856307208538055420e-01 -1.026795059442520142e-01 -5.035533308982849121e-01
3.081000000000000000e+03 8.885731697082519531e+00 -7.225574970245361328e+00 -2.447906583547592163e-01 -2.994834482669830322e-01 -1.632822304964065552e-01 -4.969114363193511963e-01
3.082000000000000000e+03 5.857033157348632812e+01 2.977939605712890625e+01 -5.530163645744323730e-01 6.229611635208129883e-01 2.098343893885612488e-02 -2.344007492065429688e-01
3.083000000000000000e+03 5.660639572143554688e+01 3.016078758239746094e+01 -9.193563461303710938e-01 4.344207942485809326e-01 -1.454806625843048096e-01 -5.848092436790466309e-01
3.084000000000000000e+03 6.816282749176025391e+00 -5.587816715240478516e+00 -2.140756696462631226e-01 -1.630296409130096436e-01 -1.131315976381301880e-01 -2.947707772254943848e-01
3.085000000000000000e+03 3.214674758911132812e+01 8.149928092956542969e+00 -1.194919109344482422e+00 -1.232382416725158691e+00 -7.281904220581054688e-01 -1.152468919754028320e+00
3.086000000000000000e+03 3.297169876098632812e+01 1.028153228759765625e+01 -1.261298418045043945e+00 -1.311875104904174805e+00 -7.719520330429077148e-01 -1.205257296562194824e+00
3.087000000000000000e+03 1.138706398010253906e+01 3.709377765655517578e+00 5.063532590866088867e-01 1.198651734739542007e-02 1.555019319057464600e-01 -1.833210587501525879e-01
3.088000000000000000e+03 1.223825454711914062e+01 4.419021129608154297e+00 3.168595433235168457e-01 4.347935616970062256e-01 2.254959344863891602e-01 -2.437929511070251465e-01
3.089000000000000000e+03 5.925978469848632812e+01 2.959397697448730469e+01 -3.647311627864837646e-01 7.504682540893554688e-01 1.157211214303970337e-01 -2.626800537109375000e-02
3.090000000000000000e+03 2.834008598327636719e+01 -2.629262447357177734e+00 7.621628642082214355e-01 -3.242574036121368408e-01 1.313716322183609009e-01 -2.465299814939498901e-01
3.091000000000000000e+03 6.017620086669921875e+01 2.999056243896484375e+01 -2.984721362590789795e-01 7.447495460510253906e-01 1.338832229375839233e-01 1.513004004955291748e-01
3.092000000000000000e+03 7.002799987792968750e+00 -6.542437553405761719e+00 -2.099335640668869019e-01 -2.067765295505523682e-01 -1.250130236148834229e-01 -3.534744977951049805e-01
3.093000000000000000e+03 7.818825244903564453e+00 -6.433183670043945312e+00 -2.460780590772628784e-01 -2.228685468435287476e-01 -1.406839787960052490e-01 -3.992187380790710449e-01
3.094000000000000000e+03 5.602087402343750000e+01 3.024191665649414062e+01 -9.916375279426574707e-01 3.839411437511444092e-01 -1.823089122772216797e-01 -6.441771984100341797e-01
3.095000000000000000e+03 4.342625808715820312e+01 3.687176895141601562e+01 9.093762934207916260e-02 3.922578319907188416e-02 3.904902562499046326e-02 4.361118003726005554e-02
3.096000000000000000e+03 8.147195816040039062e+00 5.101876735687255859e+00 1.698204129934310913e-01 -1.482118666172027588e-01 6.482560653239488602e-03 8.423683047294616699e-02
3.097000000000000000e+03 2.369234848022460938e+01 1.318969130516052246e-01 -9.273575544357299805e-01 3.368771374225616455e-01 -1.771441251039505005e-01 -7.400404214859008789e-01
3.098000000000000000e+03 2.373807334899902344e+01 -5.597424507141113281e-01 -1.761031299829483032e-01 3.843584656715393066e-01 6.247659772634506226e-02 -7.640236020088195801e-01
3.099000000000000000e+03 1.160105705261230469e+01 4.731782436370849609e+00 3.057986199855804443e-01 2.461422681808471680e-01 1.655822694301605225e-01 -1.979459822177886963e-01
3.100000000000000000e+03 1.200522327423095703e+01 6.052710056304931641e+00 1.483895182609558105e-01 3.380995392799377441e-01 1.459467262029647827e-01 -1.089791581034660339e-01
3.101000000000000000e+03 1.189667224884033203e+01 -5.938674926757812500e+00 -5.092111825942993164e-01 -3.602351546287536621e-01 -2.608338892459869385e-01 -6.780307888984680176e-01
3.102000000000000000e+03 5.498026275634765625e+01 3.083563995361328125e+01 -1.132701039314270020e+00 2.502156198024749756e-01 -2.647456228733062744e-01 -7.397482991218566895e-01
3.103000000000000000e+03 5.545642471313476562e+01 3.029420661926269531e+01 -1.043342947959899902e+00 3.212455809116363525e-01 -2.166292220354080200e-01 -6.880930066108703613e-01
3.104000000000000000e+03 6.983978271484375000e+01 3.557104110717773438e+01 2.995876073837280273e+00 1.509534263610839844e+01 5.427365303039550781e+00 2.142572879791259766e+00
3.105000000000000000e+03 7.120084381103515625e+01 3.596350097656250000e+01 2.275200843811035156e+00 1.256604862213134766e+01 4.452374935150146484e+00 1.820486903190612793e+00
3.106000000000000000e+03 3.008398437500000000e+01 -2.755794048309326172e+00 5.704314708709716797e-01 -4.823182523250579834e-01 2.643396891653537750e-02 -7.516939193010330200e-02
3.107000000000000000e+03 4.259581375122070312e+01 3.582508850097656250e+01 7.949929684400558472e-02 4.325243830680847168e-02 3.682551905512809753e-02 4.675567895174026489e-02
3.108000000000000000e+03 1.337746238708496094e+01 -6.319636821746826172e+00 -5.076016187667846680e-01 -5.552692413330078125e-01 -3.188612461090087891e-01 -8.119978904724121094e-01
3.109000000000000000e+03 1.270739269256591797e+01 -5.370132446289062500e+00 -6.220668554306030273e-01 -3.866972923278808594e-01 -3.026292622089385986e-01 -7.211328744888305664e-01
3.110000000000000000e+03 3.102953338623046875e+01 -4.058819293975830078e+00 6.980428099632263184e-01 -4.816004931926727295e-01 6.493268907070159912e-02 -1.089184656739234924e-01
3.111000000000000000e+03 4.690043258666992188e+01 4.168437194824218750e+01 1.127198413014411926e-01 4.358678311109542847e-02 4.689198732376098633e-02 -8.953386917710304260e-03
3.112000000000000000e+03 5.173576736450195312e+01 4.059632110595703125e+01 2.008477896451950073e-01 -1.383361369371414185e-01 1.875349506735801697e-02 2.025512307882308960e-01
3.113000000000000000e+03 4.340931320190429688e+01 3.983218002319335938e+01 9.934715181589126587e-02 4.213584959506988525e-02 4.244489967823028564e-02 1.605782285332679749e-02
3.114000000000000000e+03 5.663484954833984375e+01 4.021651458740234375e+01 5.148445963859558105e-01 -3.076546192169189453e-01 6.215699389576911926e-02 2.421807795763015747e-01
3.115000000000000000e+03 9.773135185241699219e+00 -5.182561397552490234e+00 -4.064475297927856445e-01 -1.873213350772857666e-01 -1.781306564807891846e-01 -4.488230347633361816e-01
3.116000000000000000e+03 3.586929798126220703e+00 7.863564014434814453e+00 3.615643084049224854e-02 -1.286057382822036743e-01 -2.773478999733924866e-02 4.927657172083854675e-02
3.117000000000000000e+03 3.590091705322265625e+01 -9.916569709777832031e+00 4.496790468692779541e-01 -2.803233563899993896e-01 5.080671235918998718e-02 -8.378064632415771484e-02
3.118000000000000000e+03 3.591076278686523438e+01 -8.144341468811035156e+00 5.468870997428894043e-01 -3.244873285293579102e-01 6.671991944313049316e-02 -7.130456715822219849e-02
3.119000000000000000e+03 7.519920349121093750e+01 3.409692764282226562e+01 1.281424760818481445e+00 8.177223205566406250e+00 2.837594270706176758e+00 -1.182845979928970337e-01
3.120000000000000000e+03 1.119871425628662109e+01 -5.155072212219238281e+00 -5.292808413505554199e-01 -2.445245236158370972e-01 -2.321415990591049194e-01 -5.637351274490356445e-01
3.121000000000000000e+03 4.015847778320312500e+01 -1.264245796203613281e+01 3.314212858676910400e-01 1.541134417057037354e-01 1.456604152917861938e-01 -1.834465377032756805e-02
3.122000000000000000e+03 3.878268051147460938e+01 -1.074211025238037109e+01 4.302350878715515137e-01 -2.986014261841773987e-02 1.201124787330627441e-01 -3.424412012100219727e-02
3.123000000000000000e+03 3.670825576782226562e+01 -7.373727798461914062e+00 5.732753872871398926e-01 -2.919923663139343262e-01 8.438491076231002808e-02 -3.925412520766258240e-02
3.124000000000000000e+03 3.363323593139648438e+01 -6.882805347442626953e+00 6.716307997703552246e-01 -4.253141880035400391e-01 7.389497756958007812e-02 -1.251262873411178589e-01
3.125000000000000000e+03 2.115064620971679688e+01 -2.417205619812011719e+01 2.470227628946304321e-01 1.353779584169387817e-01 1.147202104330062866e-01 -3.441493213176727295e-01
3.126000000000000000e+03 4.939215469360351562e+01 4.114246749877929688e+01 1.446215659379959106e-01 -3.100711479783058167e-02 3.408433496952056885e-02 -4.328096285462379456e-02
3.127000000000000000e+03 4.760323715209960938e+01 -2.590394783020019531e+01 -1.156771406531333923e-01 1.709342241287231445e+00 4.780995249748229980e-01 1.110601276159286499e-01
3.128000000000000000e+03 4.584248352050781250e+01 -2.341817283630371094e+01 -7.593581080436706543e-02 1.244319438934326172e+00 3.505150675773620605e-01 5.264217779040336609e-02
3.129000000000000000e+03 1.794684982299804688e+01 -1.583967781066894531e+01 2.617109715938568115e-01 -2.624995112419128418e-01 -2.365640975767746568e-04 -3.419153094291687012e-01
3.130000000000000000e+03 1.479950332641601562e+01 -8.909085273742675781e+00 -3.707554563879966736e-02 -7.489963173866271973e-01 -2.358215600252151489e-01 -7.155545949935913086e-01
3.131000000000000000e+03 2.302418518066406250e+01 -2.681793785095214844e+01 2.770518660545349121e-01 2.687555849552154541e-01 1.637422293424606323e-01 -3.620879948139190674e-01
3.132000000000000000e+03 7.009027099609375000e+01 3.678219604492187500e+01 2.824864685535430908e-01 1.442212390899658203e+01 4.411383152008056641e+00 1.425504922866821289e+00
3.133000000000000000e+03 7.403607177734375000e+01 3.618489456176757812e+01 1.253282546997070312e+00 9.353663444519042969e+00 3.182083606719970703e+00 1.031343460083007812e+00
3.134000000000000000e+03 4.507065200805664062e+01 -2.225529289245605469e+01 -5.077774822711944580e-02 1.055689811706542969e+00 3.014736175537109375e-01 4.207076132297515869e-02
3.135000000000000000e+03 7.163437652587890625e+01 -2.626042175292968750e+01 3.092313557863235474e-02 6.246783256530761719e+00 1.883311986923217773e+00 2.234101593494415283e-01
3.136000000000000000e+03 7.040277862548828125e+01 -3.131015586853027344e+01 5.777814984321594238e-02 5.932457447052001953e+00 1.797070622444152832e+00 2.142741680145263672e-01
3.137000000000000000e+03 7.312065887451171875e+01 2.693102836608886719e+01 -7.102826237678527832e-01 9.776798248291015625e+00 2.719954729080200195e+00 -1.194471836090087891e+00
3.138000000000000000e+03 7.366036224365234375e+01 2.821179389953613281e+01 -3.069387972354888916e-01 9.671506881713867188e+00 2.809370517730712891e+00 -1.530357837677001953e+00
3.139000000000000000e+03 7.273274230957031250e+01 -3.107706642150878906e+01 3.619549795985221863e-02 6.326571464538574219e+00 1.908830165863037109e+00 1.668379157781600952e-01
3.140000000000000000e+03 4.193291473388671875e+01 -1.959228134155273438e+01 1.235315669327974319e-02 4.067033231258392334e-01 1.257169395685195923e-01 4.828703776001930237e-02
3.141000000000000000e+03 7.777132511138916016e+00 2.848185920715332031e+01 -7.159417029470205307e-03 -3.278816118836402893e-02 -1.198427379131317139e-02 -1.275399792939424515e-02
3.142000000000000000e+03 1.005511760711669922e+01 3.124851036071777344e+01 -8.251615799963474274e-03 -1.119402889162302017e-02 -5.833693314343690872e-03 -6.918782368302345276e-03
3.143000000000000000e+03 7.289828491210937500e+01 -2.280689620971679688e+01 9.900781325995922089e-03 6.549808979034423828e+00 1.967912912368774414e+00 2.118234932422637939e-01
3.144000000000000000e+03 7.403324127197265625e+01 1.883075904846191406e+01 -4.135223925113677979e-01 8.423004150390625000e+00 2.402844667434692383e+00 -1.587201654911041260e-01
3.145000000000000000e+03 7.382556915283203125e+01 1.237532424926757812e+01 -1.358883231878280640e-01 7.973721981048583984e+00 2.351350069046020508e+00 2.245716154575347900e-01
3.146000000000000000e+03 7.388569641113281250e+01 1.368763351440429688e+01 -1.769883036613464355e-01 8.056574821472167969e+00 2.363875865936279297e+00 1.736186593770980835e-01
3.147000000000000000e+03 7.303005218505859375e+01 -1.660883522033691406e+01 1.475069113075733185e-02 6.720084667205810547e+00 2.020450592041015625e+00 2.346044778823852539e-01
3.148000000000000000e+03 7.452692413330078125e+01 2.993761253356933594e+01 4.040165543556213379e-01 9.060281753540039062e+00 2.839289665222167969e+00 -1.623953223228454590e+00
3.149000000000000000e+03 6.987631988525390625e+01 3.266734695434570312e+01 4.473115921020507812e+00 1.463302326202392578e+01 5.731841564178466797e+00 -2.082081556320190430e+00
3.150000000000000000e+03 7.300004577636718750e+01 -9.032873153686523438e+00 2.447567693889141083e-02 6.906663894653320312e+00 2.079341888427734375e+00 2.801373600959777832e-01
3.151000000000000000e+03 7.301948547363281250e+01 -1.039635467529296875e+01 2.491185627877712250e-02 6.872672557830810547e+00 2.069275140762329102e+00 2.697989940643310547e-01
3.152000000000000000e+03 7.226162719726562500e+01 -8.218523859977722168e-01 2.407175116240978241e-02 7.003568172454833984e+00 2.108291864395141602e+00 3.659665584564208984e-01
3.153000000000000000e+03 7.262868499755859375e+01 -2.249378442764282227e+00 2.992250584065914154e-02 7.052713394165039062e+00 2.124790906906127930e+00 3.431355953216552734e-01
3.154000000000000000e+03 7.127733612060546875e+01 2.261396646499633789e+00 1.358632463961839676e-02 6.831972122192382812e+00 2.053667545318603516e+00 4.186891913414001465e-01
3.155000000000000000e+03 7.334539031982421875e+01 5.798609733581542969e+00 -2.203734032809734344e-02 7.540382385253906250e+00 2.255503416061401367e+00 3.390351235866546631e-01
3.156000000000000000e+03 7.348339843750000000e+01 7.119417190551757812e+00 -3.499086201190948486e-02 7.632763385772705078e+00 2.279331684112548828e+00 3.291245996952056885e-01
3.157000000000000000e+03 7.285465240478515625e+01 -3.626944065093994141e+00 2.997460961341857910e-02 7.048874378204345703e+00 2.123654603958129883e+00 3.253823816776275635e-01
3.158000000000000000e+03 7.286970520019531250e+01 3.074729442596435547e+00 4.839241504669189453e-03 7.310831069946289062e+00 2.194701194763183594e+00 3.593631088733673096e-01
3.159000000000000000e+03 7.359177398681640625e+01 8.432968139648437500e+00 -5.447447672486305237e-02 7.721169471740722656e+00 2.300008535385131836e+00 3.116518855094909668e-01
3.160000000000000000e+03 7.505422210693359375e+01 3.295882034301757812e+01 1.351437926292419434e+00 8.299357414245605469e+00 2.895238637924194336e+00 -7.019673585891723633e-01
3.161000000000000000e+03 7.368283081054687500e+01 9.747682571411132812e+00 -7.652354985475540161e-02 7.806563377380371094e+00 2.319011926651000977e+00 2.913427650928497314e-01
3.162000000000000000e+03 7.272973632812500000e+01 -2.726871490478515625e+01 2.560142427682876587e-02 6.446397304534912109e+00 1.941599607467651367e+00 1.937744766473770142e-01
3.163000000000000000e+03 6.476060867309570312e+00 2.204877471923828125e+01 -5.913877394050359726e-03 -4.680678620934486389e-02 -1.581619866192340851e-02 -2.096617408096790314e-02
3.164000000000000000e+03 6.787386417388916016e+00 2.339171791076660156e+01 -6.238428875803947449e-03 -4.288435727357864380e-02 -1.473683584481477737e-02 -1.904189959168434143e-02
3.165000000000000000e+03 1.488687229156494141e+01 -7.804089069366455078e+00 -1.790108233690261841e-01 -8.438192605972290039e-01 -3.068490326404571533e-01 -8.041107654571533203e-01
3.166000000000000000e+03 1.385899257659912109e+01 -8.662484169006347656e+00 -1.338002383708953857e-01 -7.248860597610473633e-01 -2.576058804988861084e-01 -7.731939554214477539e-01
3.167000000000000000e+03 8.720071792602539062e+00 3.236128616333007812e+01 -6.781893782317638397e-03 -2.635072357952594757e-02 -9.939785115420818329e-03 -8.486063219606876373e-03
3.168000000000000000e+03 7.394076538085937500e+01 1.499254131317138672e+01 -2.206145077943801880e-01 8.147372245788574219e+00 2.378027200698852539e+00 1.165097951889038086e-01
3.169000000000000000e+03 6.685741901397705078e+00 -1.301806354522705078e+01 6.052303593605756760e-03 -5.656521320343017578e-01 -1.678799390792846680e-01 -4.446583688259124756e-01
3.170000000000000000e+03 6.063483238220214844e+00 -9.812766075134277344e+00 -6.989417225122451782e-02 -3.961817324161529541e-01 -1.398227661848068237e-01 -3.968416154384613037e-01
3.171000000000000000e+03 8.441126823425292969e+00 -1.836484909057617188e+01 1.041505858302116394e-01 -7.090738415718078613e-01 -1.814769804477691650e-01 -4.072273969650268555e-01
3.172000000000000000e+03 7.394454193115234375e+01 2.135820960998535156e+01 -5.748049616813659668e-01 8.650246620178222656e+00 2.422632455825805664e+00 -4.309112131595611572e-01
3.173000000000000000e+03 7.097298145294189453e+00 -1.847775077819824219e+01 7.525700330734252930e-02 -7.567696571350097656e-01 -2.044537961483001709e-01 -3.810550570487976074e-01
3.174000000000000000e+03 6.911752223968505859e+00 -2.838679885864257812e+01 7.101298123598098755e-02 -9.906443357467651367e-01 -2.758893966674804688e-01 -2.063005566596984863e-01
3.175000000000000000e+03 7.427576541900634766e+00 -2.553903007507324219e+01 8.180420100688934326e-02 -8.982853889465332031e-01 -2.449443638324737549e-01 -2.587746679782867432e-01
3.176000000000000000e+03 5.652719974517822266e+00 -8.774534225463867188e+00 -1.016535535454750061e-01 -3.206911683082580566e-01 -1.267034113407135010e-01 -3.486827313899993896e-01
3.177000000000000000e+03 4.742551803588867188e+00 -9.035284042358398438e+00 -6.775791943073272705e-02 -3.298845589160919189e-01 -1.192927435040473938e-01 -3.051941096782684326e-01
3.178000000000000000e+03 7.321506500244140625e+01 2.356584739685058594e+01 -7.940035462379455566e-01 8.964834213256835938e+00 2.451249361038208008e+00 -6.140706539154052734e-01
3.179000000000000000e+03 6.119765281677246094e+00 1.544674587249755859e+01 8.643006905913352966e-03 -5.047000572085380554e-02 -1.254809927195310593e-02 -2.278993465006351471e-02
3.180000000000000000e+03 6.154896736145019531e+00 1.680615043640136719e+01 2.636815886944532394e-03 -4.912900179624557495e-02 -1.394765637814998627e-02 -2.367624826729297638e-02
3.181000000000000000e+03 6.060425281524658203e+00 1.408597660064697266e+01 1.617633365094661713e-02 -5.175909772515296936e-02 -1.067482866346836090e-02 -1.992766931653022766e-02
3.182000000000000000e+03 4.912913799285888672e+00 1.287878227233886719e+01 2.067208662629127502e-02 -8.837289363145828247e-02 -2.031024172902107239e-02 -1.231993082910776138e-02
3.183000000000000000e+03 5.123084545135498047e+00 1.965400695800781250e+01 -2.374264877289533615e-03 -7.332283258438110352e-02 -2.270912937819957733e-02 -2.329224348068237305e-02
3.184000000000000000e+03 4.061145782470703125e+01 -1.406461524963378906e+01 2.629337906837463379e-01 2.211316227912902832e-01 1.452196240425109863e-01 -1.624688319861888885e-02
3.185000000000000000e+03 4.063210678100585938e+01 -1.721857833862304688e+01 9.424158185720443726e-02 2.159679532051086426e-01 9.306286275386810303e-02 3.028011880815029144e-02
3.186000000000000000e+03 9.610904693603515625e+00 -3.247053527832031250e+01 9.703710675239562988e-02 -8.346729278564453125e-01 -2.212907373905181885e-01 -1.742448210716247559e-01
3.187000000000000000e+03 6.289841175079345703e+00 2.075339889526367188e+01 -4.241644870489835739e-03 -4.938624799251556396e-02 -1.608836837112903595e-02 -2.206689491868019104e-02
3.188000000000000000e+03 7.230148315429687500e+00 1.529261302947998047e+01 1.007015164941549301e-02 -1.963598281145095825e-02 -2.869749441742897034e-03 -2.187179960310459137e-02
3.189000000000000000e+03 6.197772026062011719e+00 1.947234535217285156e+01 -3.860610770061612129e-03 -4.982948303222656250e-02 -1.610702835023403168e-02 -2.314523234963417053e-02
3.190000000000000000e+03 6.959474086761474609e+00 2.717933845520019531e+01 -6.807154510170221329e-03 -4.384217411279678345e-02 -1.519479788839817047e-02 -1.501652505248785019e-02
3.191000000000000000e+03 5.879969120025634766e+00 2.664779281616210938e+01 -5.312910769134759903e-03 -5.668023973703384399e-02 -1.859794557094573975e-02 -1.575092412531375885e-02
3.192000000000000000e+03 6.626441955566406250e+00 9.874672889709472656e+00 6.721352040767669678e-02 -6.003880500793457031e-02 2.152414293959736824e-03 4.072466690558940172e-04
3.193000000000000000e+03 6.037799358367919922e+00 1.269660663604736328e+01 2.888577990233898163e-02 -5.583754554390907288e-02 -8.085530251264572144e-03 -1.610163412988185883e-02
3.194000000000000000e+03 5.602455615997314453e+00 8.955986022949218750e+00 6.674575805664062500e-02 -9.439053386449813843e-02 -8.293432183563709259e-03 2.284130081534385681e-02
3.195000000000000000e+03 7.554534912109375000e+00 7.122594356536865234e+00 1.286361515522003174e-01 -8.088711649179458618e-02 1.432470977306365967e-02 2.180789038538932800e-02
3.196000000000000000e+03 9.729135513305664062e+00 3.400281143188476562e+01 -7.894306443631649017e-03 -1.714748330414295197e-02 -7.512536831200122833e-03 -5.955084227025508881e-03
3.197000000000000000e+03 7.824429512023925781e+00 3.484463119506835938e+01 -5.247306078672409058e-03 -3.663595393300056458e-02 -1.256497856229543686e-02 -5.998997483402490616e-03
3.198000000000000000e+03 5.446858882904052734e+00 -1.307886791229248047e+01 2.911531599238514900e-03 -5.609141588211059570e-01 -1.674007922410964966e-01 -3.803485631942749023e-01
3.199000000000000000e+03 6.875106811523437500e+00 -1.050965118408203125e+01 -6.944127380847930908e-02 -4.428710639476776123e-01 -1.536937057971954346e-01 -4.542647004127502441e-01
3.200000000000000000e+03 4.261516571044921875e+01 -2.074194145202636719e+01 -1.669807173311710358e-02 5.232084393501281738e-01 1.519531011581420898e-01 4.839403554797172546e-02
3.201000000000000000e+03 4.231440734863281250e+01 -1.776341819763183594e+01 9.478440880775451660e-02 5.016890168190002441e-01 1.789420247077941895e-01 1.947392150759696960e-02
3.202000000000000000e+03 1.887681198120117188e+01 -1.978412055969238281e+01 2.467058897018432617e-01 -9.241788089275360107e-02 4.628640413284301758e-02 -3.333230614662170410e-01
3.203000000000000000e+03 6.283669662475585938e+01 4.137022399902343750e+01 8.348981738090515137e-01 2.632894039154052734e+00 1.040337681770324707e+00 -2.645704746246337891e-01
3.204000000000000000e+03 4.642902374267578125e+01 -2.678533744812011719e+01 -1.517891585826873779e-01 1.460245251655578613e+00 3.925368189811706543e-01 9.977879375219345093e-02
3.205000000000000000e+03 1.758876419067382812e+01 -1.778217887878417969e+01 2.590629458427429199e-01 -2.419621646404266357e-01 5.130232311785221100e-03 -3.555347323417663574e-01
3.206000000000000000e+03 3.767174530029296875e+01 -9.925274848937988281e+00 4.531429409980773926e-01 -1.637618988752365112e-01 8.681431412696838379e-02 -5.541996285319328308e-02
3.207000000000000000e+03 4.435679244995117188e+01 -2.112846565246582031e+01 -1.662993989884853363e-02 8.939526677131652832e-01 2.631967961788177490e-01 3.353692963719367981e-02
3.208000000000000000e+03 4.365806198120117188e+01 -2.001562118530273438e+01 1.345356926321983337e-02 7.492023110389709473e-01 2.287967652082443237e-01 3.223449364304542542e-02
3.209000000000000000e+03 2.431035232543945312e+01 -3.046298789978027344e+01 3.313952386379241943e-01 3.343365788459777832e-01 1.997195482254028320e-01 -3.512198626995086670e-01
3.210000000000000000e+03 4.285859680175781250e+01 4.159575271606445312e+01 9.744469821453094482e-02 3.327546641230583191e-02 3.921604901552200317e-02 1.442598272114992142e-02
3.211000000000000000e+03 2.350422477722167969e+01 -3.234823989868164062e+01 3.633129596710205078e-01 2.277915030717849731e-01 1.773313432931900024e-01 -2.954672276973724365e-01
3.212000000000000000e+03 1.720784187316894531e+01 -1.469371128082275391e+01 2.664023041725158691e-01 -4.199686050415039062e-01 -4.606989771127700806e-02 -3.846192955970764160e-01
3.213000000000000000e+03 1.644868659973144531e+01 -1.356267452239990234e+01 2.466715425252914429e-01 -5.000130534172058105e-01 -7.600244134664535522e-02 -4.361306726932525635e-01
3.214000000000000000e+03 7.254524993896484375e+01 -2.159537315368652344e+01 1.134985033422708511e-02 6.510467529296875000e+00 1.956545233726501465e+00 2.227417379617691040e-01
3.215000000000000000e+03 7.330750274658203125e+01 -1.542241573333740234e+01 2.112571708858013153e-02 6.802337169647216797e+00 2.047038793563842773e+00 2.266824990510940552e-01
3.216000000000000000e+03 7.297433471679687500e+01 -7.677238464355468750e+00 2.934967540204524994e-02 6.949507236480712891e+00 2.093657016754150391e+00 2.912051677703857422e-01
3.217000000000000000e+03 8.611384391784667969e+00 -2.966266441345214844e+01 8.801922202110290527e-02 -8.782261013984680176e-01 -2.370620667934417725e-01 -2.192614376544952393e-01
3.218000000000000000e+03 7.407236099243164062e+00 -2.939962959289550781e+01 7.280720770359039307e-02 -9.551650285720825195e-01 -2.647073566913604736e-01 -1.960544288158416748e-01
3.219000000000000000e+03 2.825542259216308594e+01 3.761806964874267578e+00 -2.161595821380615234e+00 -1.023538351058959961e+00 -9.555402398109436035e-01 -9.567599296569824219e-01
3.220000000000000000e+03 2.702015876770019531e+01 -7.066195607185363770e-01 6.442732363939285278e-02 -2.900764942169189453e-01 -6.769474595785140991e-02 -1.492054015398025513e-01
3.221000000000000000e+03 2.748880386352539062e+01 2.792853355407714844e+00 -2.022625207901000977e+00 -7.742640972137451172e-01 -8.390668034553527832e-01 -7.799776196479797363e-01
3.222000000000000000e+03 2.772666549682617188e+01 3.193128108978271484e+00 -2.115834474563598633e+00 -8.788163065910339355e-01 -8.983951807022094727e-01 -8.943895697593688965e-01
3.223000000000000000e+03 2.569200706481933594e+01 2.525175809860229492e+00 -2.609606742858886719e+00 -6.320262551307678223e-01 -9.724898934364318848e-01 -1.078546762466430664e+00
3.224000000000000000e+03 6.632432556152343750e+01 3.132652854919433594e+01 1.018849134445190430e+00 7.576419353485107422e+00 2.578580617904663086e+00 4.994172573089599609e+00
3.225000000000000000e+03 2.564430999755859375e+01 2.171364068984985352e+00 -2.446954250335693359e+00 -5.204781889915466309e-01 -8.902297019958496094e-01 -9.269017577171325684e-01
3.226000000000000000e+03 2.458571052551269531e+01 1.176041603088378906e+00 -2.040843009948730469e+00 -2.088517099618911743e-01 -6.749084591865539551e-01 -8.479074239730834961e-01
3.227000000000000000e+03 6.805323028564453125e+01 3.130500984191894531e+01 -6.287590265274047852e-01 1.523626327514648438e+01 4.382251262664794922e+00 2.505117654800415039e+00
3.228000000000000000e+03 7.044437408447265625e+01 3.513656234741210938e+01 4.310202598571777344e+00 1.335755825042724609e+01 5.300328254699707031e+00 1.859269857406616211e+00
3.229000000000000000e+03 3.078272056579589844e+01 5.198709011077880859e+00 -1.697717428207397461e+00 -9.232764840126037598e-01 -7.862981557846069336e-01 -9.028403759002685547e-01
3.230000000000000000e+03 6.399179077148437500e+01 3.075898170471191406e+01 7.496083378791809082e-01 2.122804880142211914e+00 8.617240190505981445e-01 2.229563713073730469e+00
3.231000000000000000e+03 7.455918121337890625e+01 3.199959754943847656e+01 1.250222563743591309e+00 8.748239517211914062e+00 2.999538660049438477e+00 -1.172097086906433105e+00
3.232000000000000000e+03 6.924168395996093750e+01 3.216971969604492188e+01 2.271791458129882812e+00 1.654416847229003906e+01 5.644788265228271484e+00 -1.636633276939392090e+00
3.233000000000000000e+03 1.822320175170898438e+01 1.198806381225585938e+01 8.295715600252151489e-02 1.706810444593429565e-01 7.609146088361740112e-02 1.187512576580047607e-01
3.234000000000000000e+03 7.031179809570312500e+01 3.460005569458007812e+01 5.515197277069091797e+00 1.325522899627685547e+01 5.631127834320068359e+00 1.393358349800109863e+00
3.235000000000000000e+03 1.862311744689941406e+01 1.204403400421142578e+01 8.714029937982559204e-02 1.670482605695724487e-01 7.625656574964523315e-02 1.201285272836685181e-01
3.236000000000000000e+03 1.898300933837890625e+01 1.241339874267578125e+01 8.829867094755172729e-02 1.611315160989761353e-01 7.482905685901641846e-02 1.187640950083732605e-01
3.237000000000000000e+03 7.419767761230468750e+01 3.332231140136718750e+01 1.841088533401489258e+00 8.923689842224121094e+00 3.229433536529541016e+00 -5.829938650131225586e-01
3.238000000000000000e+03 7.022962188720703125e+01 3.287476348876953125e+01 4.781517982482910156e+00 1.365088653564453125e+01 5.529721260070800781e+00 -1.788836598396301270e+00
3.239000000000000000e+03 3.958152770996093750e+01 1.776086235046386719e+01 -1.128094077110290527e+00 -1.195706486701965332e+00 -6.971401572227478027e-01 -1.213435769081115723e+00
3.240000000000000000e+03 4.123287963867187500e+01 1.933850860595703125e+01 -1.068454742431640625e+00 -1.124587178230285645e+00 -6.579126119613647461e-01 -1.214236378669738770e+00
3.241000000000000000e+03 4.153321838378906250e+01 1.999566459655761719e+01 -1.090223312377929688e+00 -1.157109141349792480e+00 -6.741997003555297852e-01 -1.223132133483886719e+00
3.242000000000000000e+03 7.073027801513671875e+01 3.327505111694335938e+01 4.933186054229736328e+00 1.243418979644775391e+01 5.210212707519531250e+00 -1.031997084617614746e+00
3.243000000000000000e+03 7.020081329345703125e+01 3.326905441284179688e+01 5.760236263275146484e+00 1.349998283386230469e+01 5.778065681457519531e+00 -1.294357061386108398e+00
3.244000000000000000e+03 7.323201751708984375e+01 3.578361511230468750e+01 1.719326496124267578e+00 9.842930793762207031e+00 3.468677282333374023e+00 9.685971140861511230e-01
3.245000000000000000e+03 4.195220565795898438e+01 2.054545211791992188e+01 -1.129493236541748047e+00 -1.172696828842163086e+00 -6.906570196151733398e-01 -1.217390894889831543e+00
3.246000000000000000e+03 7.029035186767578125e+01 3.402817916870117188e+01 6.335103034973144531e+00 1.321843814849853516e+01 5.866062164306640625e+00 3.096531331539154053e-01
3.247000000000000000e+03 1.556944465637207031e+01 8.484073638916015625e+00 9.793879836797714233e-02 2.737174332141876221e-01 1.114968657493591309e-01 1.455525904893875122e-01
3.248000000000000000e+03 1.563777256011962891e+01 8.069373130798339844e+00 1.049852892756462097e-01 2.866345047950744629e-01 1.174859404563903809e-01 1.599773913621902466e-01
3.249000000000000000e+03 3.285420989990234375e+01 2.623044776916503906e+01 4.745512455701828003e-02 7.388830929994583130e-02 3.640303015708923340e-02 6.081390380859375000e-02
3.250000000000000000e+03 3.898133850097656250e+01 1.730550003051757812e+01 -1.155823111534118652e+00 -1.262937664985656738e+00 -7.256281971931457520e-01 -1.219269156455993652e+00
3.251000000000000000e+03 3.457949829101562500e+01 1.256044578552246094e+01 -1.247338891029357910e+00 -1.381011724472045898e+00 -7.885051965713500977e-01 -1.271554589271545410e+00
3.252000000000000000e+03 4.718827819824218750e+01 2.520539283752441406e+01 -1.208124160766601562e+00 -9.457395672798156738e-01 -6.461591124534606934e-01 -1.120396971702575684e+00
3.253000000000000000e+03 2.475040245056152344e+01 1.561203002929687500e+00 -2.303628683090209961e+00 -3.451808393001556396e-01 -7.946428060531616211e-01 -9.316127896308898926e-01
3.254000000000000000e+03 4.779304885864257812e+01 2.536132431030273438e+01 -1.156193017959594727e+00 -8.687255978584289551e-01 -6.074755787849426270e-01 -1.063088536262512207e+00
3.255000000000000000e+03 2.330277824401855469e+01 1.647301483154296875e+01 7.630018144845962524e-02 1.184663027524948120e-01 5.842994526028633118e-02 9.669186174869537354e-02
3.256000000000000000e+03 4.242816925048828125e+01 2.108677291870117188e+01 -1.176157712936401367e+00 -1.173702359199523926e+00 -7.049580216407775879e-01 -1.209633231163024902e+00
3.257000000000000000e+03 2.331087112426757812e+01 1.694379425048828125e+01 7.182470709085464478e-02 1.171663179993629456e-01 5.669730529189109802e-02 9.302204847335815430e-02
3.258000000000000000e+03 3.527773284912109375e+01 2.874917411804199219e+01 5.037281289696693420e-02 7.071640342473983765e-02 3.632676601409912109e-02 5.501737445592880249e-02
3.259000000000000000e+03 3.470200729370117188e+01 2.818998146057128906e+01 4.916949197649955750e-02 7.147954404354095459e-02 3.619470819830894470e-02 5.641900002956390381e-02
3.260000000000000000e+03 1.864054679870605469e+01 1.244052410125732422e+01 8.335107564926147461e-02 1.636358201503753662e-01 7.409606873989105225e-02 1.151493862271308899e-01
3.261000000000000000e+03 4.801144409179687500e+01 2.570760345458984375e+01 -1.165482044219970703e+00 -8.771572709083557129e-01 -6.127918362617492676e-01 -1.071957588195800781e+00
3.262000000000000000e+03 3.871165084838867188e+01 1.704902648925781250e+01 -1.162690162658691406e+00 -1.290780544281005859e+00 -7.360412478446960449e-01 -1.220826745033264160e+00
3.263000000000000000e+03 4.006880187988281250e+01 1.755632400512695312e+01 -1.079528808593750000e+00 -1.113293290138244629e+00 -6.578466296195983887e-01 -1.164555191993713379e+00
3.264000000000000000e+03 4.710057067871093750e+01 2.448237609863281250e+01 -1.156466007232666016e+00 -8.716820478439331055e-01 -6.084444522857666016e-01 -1.048577189445495605e+00
3.265000000000000000e+03 2.033870887756347656e+01 1.311368465423583984e+01 9.377883374691009521e-02 1.462425142526626587e-01 7.200640439987182617e-02 1.158067956566810608e-01
3.266000000000000000e+03 2.419973182678222656e+01 1.716110420227050781e+01 7.667613029479980469e-02 1.115757673978805542e-01 5.647556856274604797e-02 9.402415156364440918e-02
3.267000000000000000e+03 4.403971481323242188e+01 2.210258102416992188e+01 -1.180707097053527832e+00 -1.102792978286743164e+00 -6.850500106811523438e-01 -1.153620958328247070e+00
3.268000000000000000e+03 3.258495712280273438e+01 9.953249931335449219e+00 -1.257368803024291992e+00 -1.314273357391357422e+00 -7.714926600456237793e-01 -1.215504884719848633e+00
3.269000000000000000e+03 3.357658004760742188e+01 1.076559257507324219e+01 -1.241780400276184082e+00 -1.294405698776245117e+00 -7.608558535575866699e-01 -1.198136091232299805e+00
3.270000000000000000e+03 2.853289222717285156e+01 2.131566429138183594e+01 6.051894277334213257e-02 8.784110099077224731e-02 4.450801387429237366e-02 7.507587224245071411e-02
3.271000000000000000e+03 3.632112503051757812e+01 1.400068759918212891e+01 -1.182501554489135742e+00 -1.332716941833496094e+00 -7.545655369758605957e-01 -1.227991223335266113e+00
3.272000000000000000e+03 3.556891250610351562e+01 1.369840049743652344e+01 -1.233268141746520996e+00 -1.385169744491577148e+00 -7.855313420295715332e-01 -1.277628779411315918e+00
3.273000000000000000e+03 4.825875473022460938e+01 2.669922828674316406e+01 -1.223977088928222656e+00 -9.591721892356872559e-01 -6.549447774887084961e-01 -1.132363438606262207e+00
3.274000000000000000e+03 2.824785995483398438e+01 2.115567779541015625e+01 6.025671586394309998e-02 8.920562267303466797e-02 4.483870416879653931e-02 7.526685297489166260e-02
3.275000000000000000e+03 3.482188415527343750e+01 1.283869171142578125e+01 -1.252692699432373047e+00 -1.385476589202880859e+00 -7.914507985115051270e-01 -1.266284465789794922e+00
3.276000000000000000e+03 3.557286071777343750e+01 1.316793918609619141e+01 -1.199698686599731445e+00 -1.333599925041198730e+00 -7.599896192550659180e-01 -1.224452018737792969e+00
3.277000000000000000e+03 2.147202110290527344e+01 1.376542758941650391e+01 9.701228141784667969e-02 1.360564827919006348e-01 6.992062926292419434e-02 1.131979897618293762e-01
3.278000000000000000e+03 1.715580177307128906e+01 1.024579334259033203e+01 9.688110649585723877e-02 2.047034651041030884e-01 9.047537297010421753e-02 1.335906386375427246e-01
3.279000000000000000e+03 1.592246723175048828e+01 9.206556320190429688e+00 9.241338819265365601e-02 2.462211549282073975e-01 1.015903651714324951e-01 1.347660720348358154e-01
3.280000000000000000e+03 3.401252746582031250e+01 1.153397083282470703e+01 -1.247105240821838379e+00 -1.340164542198181152e+00 -7.761809229850769043e-01 -1.239493727684020996e+00
3.281000000000000000e+03 4.348123931884765625e+01 2.160496902465820312e+01 -1.165965676307678223e+00 -1.113892912864685059e+00 -6.839575767517089844e-01 -1.163342833518981934e+00
3.282000000000000000e+03 4.112861251831054688e+01 1.896578025817871094e+01 -1.050699114799499512e+00 -1.101108789443969727e+00 -6.455423831939697266e-01 -1.196299552917480469e+00
3.283000000000000000e+03 4.839405441284179688e+01 2.551519966125488281e+01 -1.108633995056152344e+00 -7.682521343231201172e-01 -5.630658268928527832e-01 -9.976533055305480957e-01
3.284000000000000000e+03 3.339955902099609375e+01 2.650219345092773438e+01 4.773702844977378845e-02 7.417667657136917114e-02 3.657411038875579834e-02 6.004579365253448486e-02
3.285000000000000000e+03 2.790516662597656250e+01 2.105813789367675781e+01 5.981439352035522461e-02 9.092000126838684082e-02 4.522031918168067932e-02 7.561579346656799316e-02
3.286000000000000000e+03 3.364443969726562500e+01 2.690432739257812500e+01 4.741126671433448792e-02 7.451596856117248535e-02 3.657817095518112183e-02 5.876736342906951904e-02
3.287000000000000000e+03 2.749581527709960938e+01 2.104404258728027344e+01 5.719658359885215759e-02 9.270592033863067627e-02 4.497075080871582031e-02 7.540152966976165771e-02
3.288000000000000000e+03 4.432537841796875000e+01 2.235504531860351562e+01 -1.186028003692626953e+00 -1.097423195838928223e+00 -6.850353479385375977e-01 -1.146551132202148438e+00
3.289000000000000000e+03 2.715054512023925781e+01 2.061823844909667969e+01 5.947007983922958374e-02 9.519244730472564697e-02 4.639875888824462891e-02 7.743623107671737671e-02
3.290000000000000000e+03 2.758722877502441406e+01 2.058452224731445312e+01 6.278365850448608398e-02 9.256830066442489624e-02 4.660558700561523438e-02 7.767366617918014526e-02
3.291000000000000000e+03 2.684106063842773438e+01 2.055443382263183594e+01 5.960223451256752014e-02 9.641340374946594238e-02 4.680469259619712830e-02 7.778584957122802734e-02
3.292000000000000000e+03 2.889846038818359375e+01 -1.734603524208068848e+00 4.130277037620544434e-01 -4.882273375988006592e-01 -2.255988679826259613e-02 -8.981875330209732056e-02
3.293000000000000000e+03 5.110243988037109375e+01 2.849331283569335938e+01 -1.151142120361328125e+00 -5.447623133659362793e-01 -5.087713599205017090e-01 -8.910242915153503418e-01
3.294000000000000000e+03 5.056933212280273438e+01 2.861741065979003906e+01 -1.208540558815002441e+00 -7.141839861869812012e-01 -5.768173933029174805e-01 -9.771218895912170410e-01
3.295000000000000000e+03 2.550016403198242188e+01 1.824841117858886719e+01 7.436814159154891968e-02 1.042017862200737000e-01 5.357097834348678589e-02 8.726578950881958008e-02
3.296000000000000000e+03 4.268400192260742188e+01 2.134687614440917969e+01 -1.197611212730407715e+00 -1.170966982841491699e+00 -7.105734348297119141e-01 -1.209675192832946777e+00
3.297000000000000000e+03 4.819015884399414062e+01 2.605043792724609375e+01 -1.174093008041381836e+00 -8.849657177925109863e-01 -6.177176237106323242e-01 -1.078452825546264648e+00
3.298000000000000000e+03 3.657021331787109375e+01 1.428202533721923828e+01 -1.170267462730407715e+00 -1.333452701568603516e+00 -7.511160373687744141e-01 -1.230210065841674805e+00
3.299000000000000000e+03 3.011487197875976562e+01 2.315228271484375000e+01 5.192737281322479248e-02 8.133725821971893311e-02 3.997938707470893860e-02 6.928808987140655518e-02
3.300000000000000000e+03 3.233414840698242188e+01 2.564742088317871094e+01 4.804879426956176758e-02 7.485834509134292603e-02 3.687214106321334839e-02 6.226012483239173889e-02
3.301000000000000000e+03 4.583001327514648438e+01 2.415495681762695312e+01 -1.273527383804321289e+00 -1.068603038787841797e+00 -7.026391625404357910e-01 -1.153931498527526855e+00
3.302000000000000000e+03 4.636514282226562500e+01 2.409953308105468750e+01 -1.204433441162109375e+00 -9.622661471366882324e-01 -6.500098705291748047e-01 -1.089135050773620605e+00
3.303000000000000000e+03 3.533195877075195312e+01 1.287741851806640625e+01 -1.210559606552124023e+00 -1.331297516822814941e+00 -7.625571489334106445e-01 -1.220280528068542480e+00
3.304000000000000000e+03 2.520478248596191406e+01 1.798157882690429688e+01 7.524874061346054077e-02 1.054015383124351501e-01 5.419508367776870728e-02 8.862946927547454834e-02
3.305000000000000000e+03 2.432356071472167969e+01 1.829918861389160156e+01 6.644173711538314819e-02 1.089936643838882446e-01 5.263062193989753723e-02 8.579262346029281616e-02
3.306000000000000000e+03 2.911122894287109375e+01 2.196703338623046875e+01 5.734774842858314514e-02 8.532924205064773560e-02 4.280309751629829407e-02 7.227309793233871460e-02
3.307000000000000000e+03 3.681782150268554688e+01 1.456823348999023438e+01 -1.166607260704040527e+00 -1.332479953765869141e+00 -7.497261762619018555e-01 -1.225690841674804688e+00
3.308000000000000000e+03 3.707070922851562500e+01 1.485431194305419922e+01 -1.156762480735778809e+00 -1.331371903419494629e+00 -7.464402914047241211e-01 -1.222813725471496582e+00
3.309000000000000000e+03 2.187308502197265625e+01 1.433520507812500000e+01 9.303490072488784790e-02 1.326908022165298462e-01 6.771770864725112915e-02 1.083079949021339417e-01
3.310000000000000000e+03 2.077164840698242188e+01 1.389182281494140625e+01 8.842960745096206665e-02 1.402721852064132690e-01 6.861054152250289917e-02 1.095040887594223022e-01
3.311000000000000000e+03 4.914635848999023438e+01 2.794466590881347656e+01 -1.283167362213134766e+00 -9.749761223793029785e-01 -6.774430274963378906e-01 -1.124007344245910645e+00
3.312000000000000000e+03 5.090143966674804688e+01 2.885698318481445312e+01 -1.196739792823791504e+00 -6.557305455207824707e-01 -5.557411313056945801e-01 -9.522148966789245605e-01
3.313000000000000000e+03 5.256880187988281250e+01 2.870154571533203125e+01 -1.069802045822143555e+00 -1.660897880792617798e-01 -3.707675635814666748e-01 -7.495653629302978516e-01
3.314000000000000000e+03 3.733160400390625000e+01 1.513598155975341797e+01 -1.154331684112548828e+00 -1.328092694282531738e+00 -7.447273135185241699e-01 -1.214780569076538086e+00
3.315000000000000000e+03 3.844607925415039062e+01 1.678296470642089844e+01 -1.168921351432800293e+00 -1.317973494529724121e+00 -7.460684180259704590e-01 -1.222738862037658691e+00
3.316000000000000000e+03 4.061003875732421875e+01 1.860859870910644531e+01 -1.075813055038452148e+00 -1.126720905303955078e+00 -6.607601642608642578e-01 -1.214295983314514160e+00
3.317000000000000000e+03 4.321168899536132812e+01 2.135995674133300781e+01 -1.154919981956481934e+00 -1.119639992713928223e+00 -6.823679804801940918e-01 -1.166036963462829590e+00
3.318000000000000000e+03 4.461380004882812500e+01 2.260951423645019531e+01 -1.191331386566162109e+00 -1.089470863342285156e+00 -6.842406988143920898e-01 -1.137203574180603027e+00
3.319000000000000000e+03 2.223497581481933594e+01 1.498319053649902344e+01 8.680643886327743530e-02 1.294756531715393066e-01 6.488462537527084351e-02 1.035677418112754822e-01
3.320000000000000000e+03 3.759805679321289062e+01 1.541052913665771484e+01 -1.146762609481811523e+00 -1.319276690483093262e+00 -7.398117780685424805e-01 -1.208489775657653809e+00
3.321000000000000000e+03 4.993700027465820312e+01 2.814264869689941406e+01 -1.225042104721069336e+00 -8.125936388969421387e-01 -6.112907528877258301e-01 -1.024646759033203125e+00
3.322000000000000000e+03 5.226087951660156250e+01 2.928039932250976562e+01 -1.140365004539489746e+00 -3.121870458126068115e-01 -4.357655942440032959e-01 -8.163006901741027832e-01
3.323000000000000000e+03 2.489069557189941406e+01 1.771739959716796875e+01 7.598070055246353149e-02 1.070597693324089050e-01 5.491214245557785034e-02 9.031201899051666260e-02
3.324000000000000000e+03 2.580544662475585938e+01 1.798442649841308594e+01 7.901558279991149902e-02 1.033466458320617676e-01 5.470866709947586060e-02 8.894114941358566284e-02
3.325000000000000000e+03 5.267556762695312500e+01 2.915856933593750000e+01 -1.105561971664428711e+00 -1.707581430673599243e-01 -3.828960359096527100e-01 -7.731925249099731445e-01
3.326000000000000000e+03 5.233977508544921875e+01 2.974125289916992188e+01 -1.159479022026062012e+00 -3.150832653045654297e-01 -4.423686861991882324e-01 -8.287217020988464355e-01
3.327000000000000000e+03 4.902941894531250000e+01 2.687326049804687500e+01 -1.180742621421813965e+00 -8.510112762451171875e-01 -6.095261573791503906e-01 -1.038296818733215332e+00
3.328000000000000000e+03 4.906939315795898438e+01 2.740903091430664062e+01 -1.226511955261230469e+00 -9.136089682579040527e-01 -6.420362591743469238e-01 -1.082206487655639648e+00
3.329000000000000000e+03 4.934484100341796875e+01 2.765994834899902344e+01 -1.230445623397827148e+00 -8.818918466567993164e-01 -6.337012648582458496e-01 -1.066718101501464844e+00
3.330000000000000000e+03 2.620858573913574219e+01 1.961582565307617188e+01 6.419809907674789429e-02 1.000436171889305115e-01 4.927251487970352173e-02 8.047021180391311646e-02
3.331000000000000000e+03 3.817861557006835938e+01 1.651383590698242188e+01 -1.169494271278381348e+00 -1.339888811111450195e+00 -7.528149485588073730e-01 -1.229550957679748535e+00
3.332000000000000000e+03 5.176927185058593750e+01 2.899979591369628906e+01 -1.146957397460937500e+00 -4.075402021408081055e-01 -4.663492739200592041e-01 -8.486650586128234863e-01
3.333000000000000000e+03 1.933564376831054688e+01 1.252058982849121094e+01 9.018041938543319702e-02 1.560847163200378418e-01 7.387953996658325195e-02 1.188639774918556213e-01
3.334000000000000000e+03 4.552627944946289062e+01 2.390443611145019531e+01 -1.276879549026489258e+00 -1.097360372543334961e+00 -7.122719883918762207e-01 -1.159932494163513184e+00
3.335000000000000000e+03 4.041149139404296875e+01 1.763423347473144531e+01 -1.053699612617492676e+00 -1.070625543594360352e+00 -6.372975707054138184e-01 -1.147809267044067383e+00
3.336000000000000000e+03 2.630177688598632812e+01 1.907896232604980469e+01 7.001578062772750854e-02 1.003916114568710327e-01 5.112221464514732361e-02 8.339962363243103027e-02
3.337000000000000000e+03 2.604710769653320312e+01 1.879463958740234375e+01 7.158988714218139648e-02 1.016907244920730591e-01 5.198418349027633667e-02 8.475401252508163452e-02
3.338000000000000000e+03 2.939363098144531250e+01 2.215317726135253906e+01 5.631048977375030518e-02 8.472856879234313965e-02 4.231172055006027222e-02 7.140213251113891602e-02
3.339000000000000000e+03 5.497089767456054688e+01 3.039794540405273438e+01 -1.094133496284484863e+00 2.596405148506164551e-01 -2.503478825092315674e-01 -7.160466909408569336e-01
3.340000000000000000e+03 2.205927085876464844e+01 1.464862060546875000e+01 9.044825285673141479e-02 1.311926245689392090e-01 6.649226695299148560e-02 1.057721599936485291e-01
3.341000000000000000e+03 2.156650924682617188e+01 1.449482536315917969e+01 8.823386579751968384e-02 1.338281333446502686e-01 6.661859899759292603e-02 1.059215664863586426e-01
3.342000000000000000e+03 3.606552505493164062e+01 1.320699882507324219e+01 -1.155721426010131836e+00 -1.282755494117736816e+00 -7.315430641174316406e-01 -1.182037353515625000e+00
3.343000000000000000e+03 4.375794601440429688e+01 2.185253715515136719e+01 -1.174312591552734375e+00 -1.107601404190063477e+00 -6.845741868019104004e-01 -1.159725069999694824e+00
3.344000000000000000e+03 3.786849212646484375e+01 1.567882156372070312e+01 -1.144452452659606934e+00 -1.307730913162231445e+00 -7.356550097465515137e-01 -1.198425054550170898e+00
3.345000000000000000e+03 2.577989959716796875e+01 1.851914596557617188e+01 7.302880287170410156e-02 1.029741242527961731e-01 5.280087888240814209e-02 8.579316735267639160e-02
3.346000000000000000e+03 3.331522369384765625e+01 1.054304504394531250e+01 -1.240907669067382812e+00 -1.296800494194030762e+00 -7.613124251365661621e-01 -1.206354737281799316e+00
3.347000000000000000e+03 3.342143249511718750e+01 1.105282211303710938e+01 -1.267185091972351074e+00 -1.322490096092224121e+00 -7.769025564193725586e-01 -1.243381023406982422e+00
3.348000000000000000e+03 3.305482482910156250e+01 2.656320571899414062e+01 4.732779413461685181e-02 7.583881914615631104e-02 3.694998100399971008e-02 5.895129218697547913e-02
3.349000000000000000e+03 3.975340270996093750e+01 1.741437721252441406e+01 -1.100498080253601074e+00 -1.149552106857299805e+00 -6.750150322914123535e-01 -1.173832654953002930e+00
3.350000000000000000e+03 3.206151962280273438e+01 2.541399765014648438e+01 4.807310178875923157e-02 7.632603496313095093e-02 3.731974214315414429e-02 6.200865283608436584e-02
3.351000000000000000e+03 3.107345771789550781e+01 2.421480751037597656e+01 4.964977130293846130e-02 7.738331705331802368e-02 3.810992464423179626e-02 6.646131724119186401e-02
3.352000000000000000e+03 3.320640563964843750e+01 2.801924514770507812e+01 4.604627192020416260e-02 7.399465143680572510e-02 3.601227700710296631e-02 5.549274757504463196e-02
3.353000000000000000e+03 3.345238876342773438e+01 2.723690032958984375e+01 4.731554910540580750e-02 7.319172471761703491e-02 3.615218028426170349e-02 5.861800909042358398e-02
3.354000000000000000e+03 3.814143371582031250e+01 1.594297599792480469e+01 -1.138446688652038574e+00 -1.289886593818664551e+00 -7.284999489784240723e-01 -1.191682100296020508e+00
3.355000000000000000e+03 3.841516113281250000e+01 1.620559501647949219e+01 -1.135539293289184570e+00 -1.270414233207702637e+00 -7.217860817909240723e-01 -1.183217883110046387e+00
3.356000000000000000e+03 4.216525268554687500e+01 1.977793121337890625e+01 -1.039944648742675781e+00 -1.079807639122009277e+00 -6.359256505966186523e-01 -1.153177261352539062e+00
3.357000000000000000e+03 4.247270965576171875e+01 2.059932327270507812e+01 -1.103542566299438477e+00 -1.127928376197814941e+00 -6.694412827491760254e-01 -1.173863530158996582e+00
3.358000000000000000e+03 2.002546882629394531e+01 1.296377468109130859e+01 9.196388721466064453e-02 1.482569873332977295e-01 7.206626236438751221e-02 1.165603175759315491e-01
3.359000000000000000e+03 3.079860496520996094e+01 2.396150016784667969e+01 4.975802451372146606e-02 7.876697927713394165e-02 3.855749964714050293e-02 6.677971035242080688e-02
3.360000000000000000e+03 4.490311050415039062e+01 2.286590194702148438e+01 -1.197751641273498535e+00 -1.078197717666625977e+00 -6.827847957611083984e-01 -1.127702236175537109e+00
3.361000000000000000e+03 3.451292419433593750e+01 2.859228897094726562e+01 4.729992896318435669e-02 7.137515395879745483e-02 3.560252487659454346e-02 5.545656010508537292e-02
3.362000000000000000e+03 3.524342727661132812e+01 2.915356826782226562e+01 4.787831380963325500e-02 6.912088394165039062e-02 3.509975969791412354e-02 5.496316030621528625e-02
3.363000000000000000e+03 2.111788368225097656e+01 1.436772251129150391e+01 8.580894768238067627e-02 1.364846825599670410e-01 6.668809056282043457e-02 1.059608235955238342e-01
3.364000000000000000e+03 1.336701297760009766e+01 5.788578510284423828e+00 7.925545424222946167e-02 5.587885379791259766e-01 1.914131939411163330e-01 3.782732784748077393e-02
3.365000000000000000e+03 5.456512451171875000e+01 3.091361045837402344e+01 -1.158799171447753906e+00 1.686134636402130127e-01 -2.970556914806365967e-01 -7.568751573562622070e-01
3.366000000000000000e+03 2.267289733886718750e+01 1.613778114318847656e+01 7.513940334320068359e-02 1.234341934323310852e-01 5.957207828760147095e-02 9.660160541534423828e-02
3.367000000000000000e+03 2.210331916809082031e+01 1.583890724182128906e+01 7.467161118984222412e-02 1.272026002407073975e-01 6.056226417422294617e-02 9.665660560131072998e-02
3.368000000000000000e+03 3.485130310058593750e+01 1.230420684814453125e+01 -1.210900306701660156e+00 -1.327560067176818848e+00 -7.615380883216857910e-01 -1.216404438018798828e+00
3.369000000000000000e+03 5.333093643188476562e+01 2.998842239379882812e+01 -1.139627099037170410e+00 -5.416475236415863037e-02 -3.581375479698181152e-01 -7.717329263687133789e-01
3.370000000000000000e+03 3.432650756835937500e+01 1.182723712921142578e+01 -1.220215797424316406e+00 -1.328033804893493652e+00 -7.644748687744140625e-01 -1.223670125007629395e+00
3.371000000000000000e+03 3.460160064697265625e+01 1.201753044128417969e+01 -1.206919550895690918e+00 -1.318364381790161133e+00 -7.575851678848266602e-01 -1.217277050018310547e+00
3.372000000000000000e+03 2.199575614929199219e+01 1.546759796142578125e+01 7.869278639554977417e-02 1.289400756359100342e-01 6.228985637426376343e-02 9.902377426624298096e-02
3.373000000000000000e+03 4.519118499755859375e+01 2.312303161621093750e+01 -1.204790830612182617e+00 -1.062934398651123047e+00 -6.803175806999206543e-01 -1.117971181869506836e+00
3.374000000000000000e+03 4.547688293457031250e+01 2.337810516357421875e+01 -1.211601376533508301e+00 -1.044231653213500977e+00 -6.767498850822448730e-01 -1.109815001487731934e+00
3.375000000000000000e+03 3.487098693847656250e+01 2.871652793884277344e+01 4.783269390463829041e-02 7.087750732898712158e-02 3.561305999755859375e-02 5.498458072543144226e-02
3.376000000000000000e+03 1.654582786560058594e+01 9.591703414916992188e+00 9.884779900312423706e-02 2.219132930040359497e-01 9.622833132743835449e-02 1.386157721281051636e-01
3.377000000000000000e+03 3.009415817260742188e+01 5.074070930480957031e+00 -1.892696022987365723e+00 -1.006804943084716797e+00 -8.698502779006958008e-01 -9.225893020629882812e-01
3.378000000000000000e+03 2.968207168579101562e+01 5.090109348297119141e+00 -2.073050022125244141e+00 -1.170711278915405273e+00 -9.731283783912658691e-01 -1.009986996650695801e+00
3.379000000000000000e+03 1.793987274169921875e+01 1.129833316802978516e+01 8.887756615877151489e-02 1.814616322517395020e-01 8.110176026821136475e-02 1.256555318832397461e-01
3.380000000000000000e+03 1.726800727844238281e+01 1.076788902282714844e+01 8.967451006174087524e-02 1.968262046575546265e-01 8.595021814107894897e-02 1.264214664697647095e-01
3.381000000000000000e+03 1.681449890136718750e+01 1.010181140899658203e+01 9.235239773988723755e-02 2.112361788749694824e-01 9.107657521963119507e-02 1.321451216936111450e-01
3.382000000000000000e+03 1.523482704162597656e+01 8.021540641784667969e+00 9.676754474639892578e-02 3.016273975372314453e-01 1.195184811949729919e-01 1.471318453550338745e-01
3.383000000000000000e+03 1.451117134094238281e+01 7.509569168090820312e+00 8.367484807968139648e-02 3.537114858627319336e-01 1.312159001827239990e-01 1.301269978284835815e-01
3.384000000000000000e+03 1.413168239593505859e+01 7.096629619598388672e+00 7.829520106315612793e-02 3.944726288318634033e-01 1.418303549289703369e-01 1.179921552538871765e-01
3.385000000000000000e+03 1.353400707244873047e+01 6.108924865722656250e+00 7.565592974424362183e-02 5.268115401268005371e-01 1.807402521371841431e-01 6.392259895801544189e-02
3.386000000000000000e+03 6.439972686767578125e+01 3.072498703002929688e+01 9.024640321731567383e-01 2.733366012573242188e+00 1.090749025344848633e+00 2.678679943084716797e+00
3.387000000000000000e+03 1.446158599853515625e+01 7.894453048706054688e+00 7.924288511276245117e-02 3.295125365257263184e-01 1.226266250014305115e-01 1.144857779145240784e-01
3.388000000000000000e+03 3.265557098388671875e+01 6.058559417724609375e+00 -1.249660611152648926e+00 -8.686045408248901367e-01 -6.354795694351196289e-01 -8.618705868721008301e-01
3.389000000000000000e+03 3.056299018859863281e+01 2.311844825744628906e+01 5.168826878070831299e-02 7.961229979991912842e-02 3.939016908407211304e-02 6.958381086587905884e-02
3.390000000000000000e+03 3.232559585571289062e+01 7.021270751953125000e+00 -1.256742358207702637e+00 -1.036408305168151855e+00 -6.879452466964721680e-01 -1.060410618782043457e+00
3.391000000000000000e+03 1.261470222473144531e+01 4.629518985748291016e+00 2.317012995481491089e-01 6.190090179443359375e-01 2.552130818367004395e-01 -2.120408415794372559e-01
3.392000000000000000e+03 1.281880378723144531e+01 5.662827014923095703e+00 1.107310354709625244e-01 5.254377126693725586e-01 1.908506304025650024e-01 -6.960906833410263062e-02
3.393000000000000000e+03 3.044951057434082031e+01 4.757626533508300781e+00 -1.726906895637512207e+00 -9.232248067855834961e-01 -7.950394749641418457e-01 -8.008956909179687500e-01
3.394000000000000000e+03 3.124541854858398438e+01 5.201818943023681641e+00 -1.597745180130004883e+00 -8.753521442413330078e-01 -7.419291734695434570e-01 -8.448767066001892090e-01
3.395000000000000000e+03 3.219359588623046875e+01 5.651882171630859375e+00 -1.349691390991210938e+00 -8.466938138008117676e-01 -6.589155793190002441e-01 -8.499481678009033203e-01
3.396000000000000000e+03 6.252212524414062500e+01 2.978525924682617188e+01 3.968124091625213623e-01 1.664505958557128906e+00 6.183955073356628418e-01 1.358717083930969238e+00
3.397000000000000000e+03 3.143516731262207031e+01 2.500488471984863281e+01 4.758996143937110901e-02 7.736514508724212646e-02 3.748653084039688110e-02 6.359057128429412842e-02
3.398000000000000000e+03 3.069212341308593750e+01 2.456029129028320312e+01 4.691800475120544434e-02 7.965546846389770508e-02 3.797204047441482544e-02 6.490248441696166992e-02
3.399000000000000000e+03 3.267151641845703125e+01 7.946454048156738281e+00 -1.182944893836975098e+00 -1.123580694198608398e+00 -6.919577121734619141e-01 -1.082270979881286621e+00
3.400000000000000000e+03 4.095007324218750000e+01 3.440787887573242188e+01 6.508057564496994019e-02 4.406661167740821838e-02 3.274415805935859680e-02 5.158877000212669373e-02
3.401000000000000000e+03 2.337185478210449219e+01 5.012695789337158203e-01 -1.520355343818664551e+00 9.081637859344482422e-02 -4.288617074489593506e-01 -1.153223991394042969e+00
3.402000000000000000e+03 2.456082153320312500e+01 -7.602211833000183105e-02 -6.935551166534423828e-01 2.039115875959396362e-01 -1.468930542469024658e-01 -4.998438656330108643e-01
3.403000000000000000e+03 3.555746459960937500e+01 2.981508827209472656e+01 4.807887598872184753e-02 6.827741861343383789e-02 3.490689024329185486e-02 5.345482379198074341e-02
3.404000000000000000e+03 3.766122436523437500e+01 3.055659294128417969e+01 5.187490209937095642e-02 6.022359430789947510e-02 3.362954780459403992e-02 5.518799647688865662e-02
3.405000000000000000e+03 6.265241622924804688e+01 2.929278182983398438e+01 4.408341944217681885e-01 2.101199865341186523e+00 7.626101970672607422e-01 1.554638862609863281e+00
3.406000000000000000e+03 2.529797744750976562e+01 -5.432474017143249512e-01 1.378686875104904175e-01 -3.097132779657840729e-02 3.206920623779296875e-02 -3.624504208564758301e-01
3.407000000000000000e+03 2.582121467590332031e+01 7.901233434677124023e-01 -1.253836035728454590e+00 -2.401019036769866943e-01 -4.481813907623291016e-01 -4.156435728073120117e-01
3.408000000000000000e+03 3.247583007812500000e+01 7.480849266052246094e+00 -1.206748127937316895e+00 -1.104384660720825195e+00 -6.933398246765136719e-01 -1.074166417121887207e+00
3.409000000000000000e+03 5.598645210266113281e+00 7.835857391357421875e+00 8.057138323783874512e-02 -1.079854071140289307e-01 -8.224207907915115356e-03 4.340262711048126221e-02
3.410000000000000000e+03 2.754103660583496094e+01 -7.288405895233154297e-01 -3.888149559497833252e-02 -4.041698276996612549e-01 -1.329153925180435181e-01 -1.652279943227767944e-01
3.411000000000000000e+03 2.693639183044433594e+01 -1.260593652725219727e+00 2.867619395256042480e-01 -2.446740865707397461e-01 1.262635644525289536e-02 -2.405561059713363647e-01
3.412000000000000000e+03 5.310699462890625000e+01 2.901599693298339844e+01 -1.058543562889099121e+00 -3.994033858180046082e-02 -3.295451700687408447e-01 -7.278167009353637695e-01
3.413000000000000000e+03 4.616839408874511719e+00 6.829656600952148438e+00 5.659874528646469116e-02 -1.203724145889282227e-01 -1.913210190832614899e-02 7.216450572013854980e-02
3.414000000000000000e+03 6.346910095214843750e+01 2.989282608032226562e+01 6.115213036537170410e-01 2.344872713088989258e+00 8.869181871414184570e-01 2.010325908660888672e+00
3.415000000000000000e+03 6.301671218872070312e+01 2.986187171936035156e+01 5.138810873031616211e-01 1.964559912681579590e+00 7.435322999954223633e-01 1.659583568572998047e+00
3.416000000000000000e+03 3.109380340576171875e+01 -2.931705474853515625e+00 5.310968160629272461e-01 -5.451646447181701660e-01 -4.220334347337484360e-03 -2.435797825455665588e-02
3.417000000000000000e+03 6.321955204010009766e+00 6.518473148345947266e+00 9.944435209035873413e-02 -1.156863942742347717e-01 -4.872613586485385895e-03 6.932523101568222046e-02
3.418000000000000000e+03 6.191470718383789062e+01 2.877218437194824219e+01 3.406611680984497070e-01 1.922244906425476074e+00 6.788718104362487793e-01 1.231956720352172852e+00
3.419000000000000000e+03 2.534827423095703125e+01 1.028960421681404114e-01 -6.294859051704406738e-01 -8.770196884870529175e-02 -2.151563763618469238e-01 -3.099358677864074707e-01
3.420000000000000000e+03 3.637479019165039062e+01 3.129014968872070312e+01 5.078011751174926758e-02 6.579130887985229492e-02 3.497142717242240906e-02 4.923420026898384094e-02
3.421000000000000000e+03 3.640043640136718750e+01 3.064376831054687500e+01 4.775932431221008301e-02 6.718407571315765381e-02 3.448301926255226135e-02 5.169983208179473877e-02
3.422000000000000000e+03 9.551765441894531250e+00 4.986879825592041016e+00 2.643898725509643555e-01 -1.130708158016204834e-01 4.539571329951286316e-02 -3.911272622644901276e-03
3.423000000000000000e+03 8.007217407226562500e+00 5.688754558563232422e+00 1.617731750011444092e-01 -1.255929321050643921e-01 1.085407193750143051e-02 6.083877384662628174e-02
3.424000000000000000e+03 4.189416503906250000e+01 3.409567260742187500e+01 6.417303532361984253e-02 4.773547500371932983e-02 3.357255458831787109e-02 5.003046616911888123e-02
3.425000000000000000e+03 4.247970962524414062e+01 3.523262786865234375e+01 7.817333191633224487e-02 4.338284954428672791e-02 3.646685183048248291e-02 4.955390095710754395e-02
3.426000000000000000e+03 4.029025650024414062e+01 3.357628250122070312e+01 6.061537936329841614e-02 4.666770622134208679e-02 3.218492493033409119e-02 5.286299437284469604e-02
3.427000000000000000e+03 3.933822250366210938e+01 3.368619537353515625e+01 5.510342493653297424e-02 5.255294963717460632e-02 3.229691460728645325e-02 5.087534338235855103e-02
3.428000000000000000e+03 7.748710155487060547e+00 6.368087768554687500e+00 1.531799435615539551e-01 -1.088897585868835449e-01 1.328705530613660812e-02 4.049150645732879639e-02
3.429000000000000000e+03 2.415400695800781250e+01 4.191804230213165283e-01 -1.251345038414001465e+00 7.373879104852676392e-02 -3.532818853855133057e-01 -7.602852582931518555e-01
3.430000000000000000e+03 6.304982185363769531e+00 -7.596912860870361328e+00 -1.514300853013992310e-01 -2.606817483901977539e-01 -1.236335486173629761e-01 -3.531400263309478760e-01
3.431000000000000000e+03 7.037746429443359375e+01 3.586379241943359375e+01 2.332416772842407227e+00 1.386545658111572266e+01 4.859362125396728516e+00 2.048667430877685547e+00
3.432000000000000000e+03 4.041168975830078125e+01 3.474013137817382812e+01 6.803882867097854614e-02 4.913573339581489563e-02 3.515236824750900269e-02 4.049327969551086426e-02
3.433000000000000000e+03 5.717604827880859375e+01 2.946981620788574219e+01 -7.081663012504577637e-01 5.621462464332580566e-01 -4.380603134632110596e-02 -4.319366514682769775e-01
3.434000000000000000e+03 5.657270812988281250e+01 2.959422111511230469e+01 -8.135935068130493164e-01 4.874485135078430176e-01 -9.784349054098129272e-02 -5.238925218582153320e-01
3.435000000000000000e+03 3.879664993286132812e+01 3.214853286743164062e+01 5.780762061476707458e-02 5.830729752779006958e-02 3.483447432518005371e-02 4.955066367983818054e-02
3.436000000000000000e+03 5.781089782714843750e+01 2.932699394226074219e+01 -5.725591182708740234e-01 6.430018544197082520e-01 2.113281190395355225e-02 -3.057606816291809082e-01
3.437000000000000000e+03 5.788859176635742188e+01 2.992991447448730469e+01 -7.102005481719970703e-01 5.469058156013488770e-01 -4.898841679096221924e-02 -3.914651572704315186e-01
3.438000000000000000e+03 7.186206817626953125e+00 -7.490912437438964844e+00 -1.778875589370727539e-01 -2.799014449119567871e-01 -1.373367011547088623e-01 -4.043661355972290039e-01
3.439000000000000000e+03 7.305372238159179688e+00 -8.366464614868164062e+00 -1.618528068065643311e-01 -3.102967143058776855e-01 -1.416448503732681274e-01 -4.350088238716125488e-01
3.440000000000000000e+03 9.255714416503906250e+00 -6.086133480072021484e+00 -3.272098004817962646e-01 -2.347879558801651001e-01 -1.685993224382400513e-01 -4.693963825702667236e-01
3.441000000000000000e+03 5.993035507202148438e+01 2.934701347351074219e+01 -1.690932363271713257e-01 9.357559680938720703e-01 2.299988120794296265e-01 2.288086861371994019e-01
3.442000000000000000e+03 6.110945129394531250e+01 2.868688964843750000e+01 1.737550795078277588e-01 1.544703006744384766e+00 5.155373811721801758e-01 8.289141058921813965e-01
3.443000000000000000e+03 3.981451416015625000e+01 3.319622802734375000e+01 6.064920872449874878e-02 5.487911030650138855e-02 3.465849533677101135e-02 4.661456495523452759e-02
3.444000000000000000e+03 5.909238433837890625e+01 2.895550537109375000e+01 -2.610726058483123779e-01 9.045639634132385254e-01 1.930474042892456055e-01 6.227357685565948486e-02
3.445000000000000000e+03 6.939138793945312500e+01 3.780913543701171875e+01 -1.377333164215087891e+00 1.426160430908203125e+01 3.865281343460083008e+00 1.491584330797195435e-01
3.446000000000000000e+03 5.970474243164062500e+01 2.872045135498046875e+01 -1.027321964502334595e-01 1.100440859794616699e+00 2.993125915527343750e-01 2.895614206790924072e-01
3.447000000000000000e+03 1.318195152282714844e+01 6.312194824218750000e+00 7.534520328044891357e-02 4.757371544837951660e-01 1.653247028589248657e-01 2.519599162042140961e-02
3.448000000000000000e+03 9.046339988708496094e+00 -1.170697212219238281e+01 -1.191775407642126083e-02 -5.265110731124877930e-01 -1.615286469459533691e-01 -5.481574535369873047e-01
3.449000000000000000e+03 1.061681652069091797e+01 5.373614311218261719e+00 2.671876847743988037e-01 6.140384450554847717e-02 9.857746213674545288e-02 -1.119091585278511047e-01
3.450000000000000000e+03 9.791347503662109375e+00 5.512756347656250000e+00 2.385985851287841797e-01 -4.511074721813201904e-02 5.804635211825370789e-02 -3.966081142425537109e-02
3.451000000000000000e+03 4.189881896972656250e+01 3.777832031250000000e+01 8.549723774194717407e-02 4.506481066346168518e-02 3.916861489415168762e-02 3.151726722717285156e-02
3.452000000000000000e+03 4.145938491821289062e+01 3.613759231567382812e+01 7.608044147491455078e-02 4.799461364746093750e-02 3.722251579165458679e-02 3.966741263866424561e-02
3.453000000000000000e+03 7.354161262512207031e+00 -9.098270416259765625e+00 -1.389383822679519653e-01 -3.659745454788208008e-01 -1.514738798141479492e-01 -4.708618521690368652e-01
3.454000000000000000e+03 7.506346225738525391e+00 2.170686340332031250e+01 -6.215960718691349030e-03 -2.725412137806415558e-02 -1.004102453589439392e-02 -1.937057636678218842e-02
3.455000000000000000e+03 4.154892349243164062e+01 -1.237196826934814453e+01 3.486237823963165283e-01 3.515384793281555176e-01 2.100486755371093750e-01 -7.636194117367267609e-03
3.456000000000000000e+03 7.291387176513671875e+01 2.106406402587890625e+01 -6.903403997421264648e-01 8.545258522033691406e+00 2.356475353240966797e+00 -2.506431341171264648e-01
3.457000000000000000e+03 7.195116424560546875e+01 1.860923576354980469e+01 -5.581421852111816406e-01 7.999958992004394531e+00 2.232545137405395508e+00 8.638961613178253174e-02
3.458000000000000000e+03 7.317348480224609375e+00 2.052804374694824219e+01 -5.326268728822469711e-03 -2.854826487600803375e-02 -1.016236003488302231e-02 -2.119062654674053192e-02
3.459000000000000000e+03 7.887585639953613281e+00 2.290280914306640625e+01 -7.656159345060586929e-03 -2.432623691856861115e-02 -9.594718925654888153e-03 -1.729280687868595123e-02
3.460000000000000000e+03 2.977742385864257812e+01 -2.118362188339233398e+00 4.708901047706604004e-01 -5.277876257896423340e-01 -1.706926338374614716e-02 -4.017618671059608459e-02
3.461000000000000000e+03 2.909678840637207031e+01 -2.407783031463623047e+00 5.790880322456359863e-01 -3.891157209873199463e-01 5.699169263243675232e-02 -1.125859320163726807e-01
3.462000000000000000e+03 1.247210979461669922e+01 -6.834666728973388672e+00 -4.075433611869812012e-01 -4.860904812812805176e-01 -2.680901587009429932e-01 -7.478551864624023438e-01
3.463000000000000000e+03 1.056921386718750000e+01 -5.824518680572509766e+00 -4.264962971210479736e-01 -2.654801607131958008e-01 -2.075929343700408936e-01 -5.559130907058715820e-01
3.464000000000000000e+03 1.122228050231933594e+01 -5.831987857818603516e+00 -4.658967256546020508e-01 -2.648508250713348389e-01 -2.192242592573165894e-01 -6.052947640419006348e-01
3.465000000000000000e+03 3.814494705200195312e+01 -7.307489871978759766e+00 5.394642949104309082e-01 -1.618833094835281372e-01 1.132742986083030701e-01 -9.468139149248600006e-03
3.466000000000000000e+03 2.822939872741699219e+01 -1.897968292236328125e+00 5.203243494033813477e-01 -3.142226934432983398e-01 6.183049455285072327e-02 -1.233292222023010254e-01
3.467000000000000000e+03 7.438507080078125000e+01 3.420090866088867188e+01 1.769037485122680664e+00 8.771700859069824219e+00 3.162221670150756836e+00 -1.960068009793758392e-02
3.468000000000000000e+03 7.102003479003906250e+01 3.450732040405273438e+01 4.712165355682373047e+00 1.211063289642333984e+01 5.046839237213134766e+00 8.897771835327148438e-01
3.469000000000000000e+03 3.278428268432617188e+01 -4.793315410614013672e+00 6.680155396461486816e-01 -5.102441310882568359e-01 4.733142256736755371e-02 -7.390367984771728516e-02
3.470000000000000000e+03 3.211746597290039062e+01 -3.873660802841186523e+00 5.959509611129760742e-01 -5.412949919700622559e-01 1.639677956700325012e-02 -3.155961632728576660e-02
3.471000000000000000e+03 7.104879856109619141e+00 1.396616458892822266e+01 1.955543644726276398e-02 -2.366585098206996918e-02 -1.233124407008290291e-03 -2.137178182601928711e-02
3.472000000000000000e+03 1.613467407226562500e+01 -1.553169250488281250e+01 2.488356977701187134e-01 -4.356046617031097412e-01 -5.603068694472312927e-02 -4.211976528167724609e-01
3.473000000000000000e+03 1.864793968200683594e+01 -1.699353408813476562e+01 2.605116367340087891e-01 -1.901761740446090698e-01 2.110063470900058746e-02 -3.349289894104003906e-01
3.474000000000000000e+03 8.187252998352050781e+00 1.802389335632324219e+01 -1.435700221918523312e-03 -4.461458884179592133e-03 -1.769147696904838085e-03 -2.018138766288757324e-02
3.475000000000000000e+03 7.306070709228515625e+01 3.916654205322265625e+01 -8.421906232833862305e-01 1.076286602020263672e+01 2.976202487945556641e+00 9.772348999977111816e-01
3.476000000000000000e+03 8.809339523315429688e+00 2.986152076721191406e+01 -7.610294036567211151e-03 -2.349114231765270233e-02 -9.330430999398231506e-03 -1.023843325674533844e-02
3.477000000000000000e+03 1.537153244018554688e+01 -1.444516658782958984e+01 2.341175824403762817e-01 -5.441670417785644531e-01 -9.301483631134033203e-02 -4.725972414016723633e-01
3.478000000000000000e+03 4.593900203704833984e+00 7.884739398956298828e+00 5.440959334373474121e-02 -1.184436157345771790e-01 -1.921020634472370148e-02 5.253032222390174866e-02
3.479000000000000000e+03 7.047659301757812500e+01 3.305080032348632812e+01 4.884157180786132812e+00 1.300578498840332031e+01 5.366982460021972656e+00 -1.409678459167480469e+00
3.480000000000000000e+03 2.046865272521972656e+01 -2.042255973815917969e+01 2.392956167459487915e-01 7.864705473184585571e-02 9.538280218839645386e-02 -3.285584151744842529e-01
3.481000000000000000e+03 2.073531723022460938e+01 -2.321730995178222656e+01 2.413166910409927368e-01 7.261666655540466309e-02 9.418000280857086182e-02 -3.543772995471954346e-01
3.482000000000000000e+03 2.393906784057617188e+01 -2.809963798522949219e+01 2.909516990184783936e-01 3.455186486244201660e-01 1.909411102533340454e-01 -3.662537336349487305e-01
3.483000000000000000e+03 2.121177482604980469e+01 -2.544119834899902344e+01 2.564097940921783447e-01 1.319761127233505249e-01 1.165157780051231384e-01 -3.601900637149810791e-01
3.484000000000000000e+03 1.923233413696289062e+01 -2.112010192871093750e+01 2.432195395231246948e-01 -7.496175169944763184e-02 5.047733709216117859e-02 -3.493627011775970459e-01
3.485000000000000000e+03 4.010793304443359375e+01 -1.114185428619384766e+01 3.973488211631774902e-01 1.222973391413688660e-01 1.558938473463058472e-01 -2.687638811767101288e-02
3.486000000000000000e+03 3.933583831787109375e+01 -9.450864791870117188e+00 4.651451408863067627e-01 1.439167931675910950e-02 1.438610404729843140e-01 -2.039858698844909668e-02
3.487000000000000000e+03 4.182530975341796875e+01 -1.362654304504394531e+01 2.850942909717559814e-01 4.089734256267547607e-01 2.082203179597854614e-01 -3.866408253088593483e-03
3.488000000000000000e+03 4.148271942138671875e+01 -1.109653091430664062e+01 3.920223712921142578e-01 3.319831788539886475e-01 2.172016650438308716e-01 3.235577372834086418e-03
3.489000000000000000e+03 3.672842025756835938e+01 -9.053244590759277344e+00 5.235868692398071289e-01 -2.521156072616577148e-01 8.144138753414154053e-02 -6.357773393392562866e-02
3.490000000000000000e+03 3.747323989868164062e+01 -8.170048713684082031e+00 5.230699777603149414e-01 -2.143188714981079102e-01 9.262533485889434814e-02 -3.649710491299629211e-02
3.491000000000000000e+03 4.684984970092773438e+01 -2.256509590148925781e+01 -5.365056172013282776e-02 1.480295062065124512e+00 4.279933273792266846e-01 6.394392997026443481e-02
3.492000000000000000e+03 4.609870910644531250e+01 -2.145342636108398438e+01 -1.561435498297214508e-02 1.273184776306152344e+00 3.772711157798767090e-01 4.743268340826034546e-02
3.493000000000000000e+03 7.401761627197265625e+01 2.719028472900390625e+01 -4.812829494476318359e-01 9.395400047302246094e+00 2.674235105514526367e+00 -1.401463031768798828e+00
3.494000000000000000e+03 7.229148101806640625e+01 -1.935184669494628906e+01 1.721021905541419983e-02 6.508540630340576172e+00 1.957725286483764648e+00 2.368980497121810913e-01
3.495000000000000000e+03 7.176759338378906250e+01 -2.513582611083984375e+01 1.783450692892074585e-02 6.295265197753906250e+00 1.893929839134216309e+00 2.194724380970001221e-01
3.496000000000000000e+03 6.775684833526611328e+00 -1.436973476409912109e+01 3.609579801559448242e-02 -6.165957450866699219e-01 -1.741499900817871094e-01 -4.306846857070922852e-01
3.497000000000000000e+03 7.426447296142578125e+01 2.899399375915527344e+01 2.982180751860141754e-02 9.330373764038085938e+00 2.808058738708496094e+00 -1.633448958396911621e+00
3.498000000000000000e+03 4.541665649414062500e+01 -2.034824180603027344e+01 8.120233193039894104e-03 1.117783188819885254e+00 3.377710282802581787e-01 3.267612308263778687e-02
3.499000000000000000e+03 7.062264251708984375e+01 -4.189218521118164062e+00 5.024409294128417969e-02 6.495897769927978516e+00 1.963842630386352539e+00 3.859069347381591797e-01
3.500000000000000000e+03 1.394852447509765625e+01 -7.789089679718017578e+00 -2.317190319299697876e-01 -6.542261838912963867e-01 -2.657835781574249268e-01 -7.898027896881103516e-01
3.501000000000000000e+03 7.287536621093750000e+01 2.496072006225585938e+01 -9.152080416679382324e-01 9.326434135437011719e+00 2.523367643356323242e+00 -7.442481517791748047e-01
3.502000000000000000e+03 7.315357971191406250e+01 4.455569267272949219e+00 -1.078316662460565567e-02 7.433224678039550781e+00 2.226732492446899414e+00 3.538396060466766357e-01
3.503000000000000000e+03 7.153652191162109375e+01 3.855178058147430420e-01 2.622895315289497375e-02 6.868097782135009766e+00 2.068298101425170898e+00 3.958355784416198730e-01
3.504000000000000000e+03 8.439289093017578125e+00 2.409919929504394531e+01 -7.825500331819057465e-03 -1.692665368318557739e-02 -7.425646297633647919e-03 -1.541842054575681686e-02
3.505000000000000000e+03 3.745096206665039062e+01 -6.616848468780517578e+00 5.378487706184387207e-01 -2.471839934587478638e-01 8.719942718744277954e-02 1.682785456068813801e-03
3.506000000000000000e+03 3.459287261962890625e+01 -6.266737461090087891e+00 6.201163530349731445e-01 -4.388405680656433105e-01 5.438273772597312927e-02 -5.419795960187911987e-02
3.507000000000000000e+03 7.101116943359375000e+01 -2.386954879760742188e+01 2.580822445452213287e-02 6.147975444793701172e+00 1.852135062217712402e+00 2.431231588125228882e-01
3.508000000000000000e+03 7.286847686767578125e+01 -2.622963714599609375e+01 2.014165185391902924e-02 6.477512836456298828e+00 1.949296355247497559e+00 1.905742585659027100e-01
3.509000000000000000e+03 1.392214393615722656e+01 -1.247367572784423828e+01 1.627264171838760376e-01 -6.358673572540283203e-01 -1.419422775506973267e-01 -5.748506784439086914e-01
3.510000000000000000e+03 7.255292510986328125e+01 9.807395935058593750e+00 -9.698004275560379028e-02 7.491685867309570312e+00 2.218411684036254883e+00 3.412864506244659424e-01
3.511000000000000000e+03 4.127053070068359375e+01 -1.842270851135253906e+01 5.935727059841156006e-02 3.008405566215515137e-01 1.080593466758728027e-01 4.060627147555351257e-02
3.512000000000000000e+03 7.190772247314453125e+01 -1.624444007873535156e+01 2.354075573384761810e-02 6.487224578857421875e+00 1.953229665756225586e+00 2.658542692661285400e-01
3.513000000000000000e+03 7.023010253906250000e+01 2.795541763305664062e+00 1.634105667471885681e-02 6.591054916381835938e+00 1.982218861579895020e+00 4.509242773056030273e-01
3.514000000000000000e+03 7.044908905029296875e+01 -1.192846870422363281e+01 4.426054656505584717e-02 6.277054309844970703e+00 1.896394491195678711e+00 3.172781467437744141e-01
3.515000000000000000e+03 6.649662017822265625e+00 -1.166174221038818359e+01 -2.581522986292839050e-02 -4.909198880195617676e-01 -1.550205349922180176e-01 -4.396706819534301758e-01
3.516000000000000000e+03 7.182543945312500000e+01 -5.122887134552001953e+00 3.884843736886978149e-02 6.757949352264404297e+00 2.039039373397827148e+00 3.503029048442840576e-01
3.517000000000000000e+03 7.295631408691406250e+01 1.748209762573242188e+01 -4.108605682849884033e-01 8.094234466552734375e+00 2.305012226104736328e+00 4.252152144908905029e-02
3.518000000000000000e+03 7.398692321777343750e+01 1.628374481201171875e+01 -2.776291668415069580e-01 8.232389450073242188e+00 2.386428117752075195e+00 3.845329955220222473e-02
3.519000000000000000e+03 7.169452667236328125e+01 -3.882780075073242188e+00 3.769218549132347107e-02 6.773380279541015625e+00 2.043321609497070312e+00 3.630733191967010498e-01
3.520000000000000000e+03 7.285263824462890625e+01 1.497567272186279297e+01 -2.718142569065093994e-01 7.865960597991943359e+00 2.278244018554687500e+00 1.842279136180877686e-01
3.521000000000000000e+03 7.374710845947265625e+01 2.261893653869628906e+01 -6.871751546859741211e-01 8.816838264465332031e+00 2.438899040222167969e+00 -5.714361071586608887e-01
3.522000000000000000e+03 9.178123474121093750e+00 2.527620124816894531e+01 -9.041647426784038544e-03 -9.669963270425796509e-03 -5.613483488559722900e-03 -1.302995532751083374e-02
3.523000000000000000e+03 8.000137329101562500e+00 2.618404960632324219e+01 -7.316127885133028030e-03 -2.818438410758972168e-02 -1.065015327185392380e-02 -1.438611745834350586e-02
3.524000000000000000e+03 7.303524780273437500e+01 -1.313179111480712891e+01 1.908568292856216431e-02 6.799303054809570312e+00 2.045516490936279297e+00 2.518297433853149414e-01
3.525000000000000000e+03 7.239316558837890625e+01 -1.503932571411132812e+01 2.340594865381717682e-02 6.621541976928710938e+00 1.993484377861022949e+00 2.626906931400299072e-01
3.526000000000000000e+03 7.243968486785888672e+00 1.933054924011230469e+01 -3.729017218574881554e-03 -2.861614525318145752e-02 -9.703548625111579895e-03 -2.174809016287326813e-02
3.527000000000000000e+03 1.374065589904785156e+01 -1.086602878570556641e+01 9.393040835857391357e-02 -6.845462918281555176e-01 -1.771847754716873169e-01 -6.482911705970764160e-01
3.528000000000000000e+03 1.386668777465820312e+01 -6.897842884063720703e+00 -3.684737682342529297e-01 -6.653704643249511719e-01 -3.101532459259033203e-01 -8.196525573730468750e-01
3.529000000000000000e+03 8.247627258300781250e+00 7.227634429931640625e+00 1.472644507884979248e-01 -5.702009424567222595e-02 2.707330510020256042e-02 -1.708569121547043324e-03
3.530000000000000000e+03 8.152455329895019531e+00 7.856362342834472656e+00 1.219532042741775513e-01 -4.134326428174972534e-02 2.418298274278640747e-02 -4.860458895564079285e-03
3.531000000000000000e+03 7.249930381774902344e+00 -2.126826667785644531e+01 8.317342400550842285e-02 -8.254996538162231445e-01 -2.226978689432144165e-01 -3.336491286754608154e-01
3.532000000000000000e+03 7.175342559814453125e+01 -1.185298156738281250e+01 3.172865509986877441e-02 6.572835445404052734e+00 1.981369137763977051e+00 2.876380383968353271e-01
3.533000000000000000e+03 6.885362625122070312e+00 1.090006828308105469e+01 5.447241663932800293e-02 -3.809826821088790894e-02 4.912245552986860275e-03 -1.269637327641248703e-02
3.534000000000000000e+03 7.222369384765625000e+01 -2.820172691345214844e+01 3.545192629098892212e-02 6.318563938140869141e+00 1.906204700469970703e+00 1.930519491434097290e-01
3.535000000000000000e+03 6.850053405761718750e+01 -2.817937850952148438e+01 5.189634114503860474e-02 5.652380943298339844e+00 1.711283087730407715e+00 2.557159960269927979e-01
3.536000000000000000e+03 7.082056427001953125e+01 -1.882123947143554688e+01 1.864978484809398651e-02 6.218125343322753906e+00 1.871032476425170898e+00 2.746424078941345215e-01
3.537000000000000000e+03 7.297586822509765625e+01 -6.336977005004882812e+00 2.709610573947429657e-02 6.989033699035644531e+00 2.104839086532592773e+00 2.983100712299346924e-01
3.538000000000000000e+03 7.233343505859375000e+01 7.231770515441894531e+00 -4.292986541986465454e-02 7.319248676300048828e+00 2.182895660400390625e+00 3.764353096485137939e-01
3.539000000000000000e+03 7.168420410156250000e+01 -2.733172035217285156e+01 3.630718961358070374e-02 6.222260475158691406e+00 1.877570271492004395e+00 2.066370248794555664e-01
3.540000000000000000e+03 7.297201538085937500e+01 -2.512223243713378906e+01 1.881105080246925354e-02 6.510751247406005859e+00 1.958868622779846191e+00 1.981747746467590332e-01
3.541000000000000000e+03 6.967060089111328125e+01 4.536357522010803223e-01 4.523984342813491821e-02 6.377465724945068359e+00 1.926811575889587402e+00 4.533069729804992676e-01
3.542000000000000000e+03 4.297195434570312500e+01 -1.889952850341796875e+01 6.103194504976272583e-02 6.170365214347839355e-01 2.034205496311187744e-01 2.502972446382045746e-02
3.543000000000000000e+03 7.172854614257812500e+01 -6.417553424835205078e+00 3.684895113110542297e-02 6.688332080841064453e+00 2.017554283142089844e+00 3.385517001152038574e-01
3.544000000000000000e+03 1.030944061279296875e+01 -2.381556701660156250e+01 1.296434402465820312e-01 -7.000372409820556641e-01 -1.711181402206420898e-01 -3.372293412685394287e-01
3.545000000000000000e+03 8.826981544494628906e+00 -2.543697929382324219e+01 1.009722799062728882e-01 -8.098672628402709961e-01 -2.126684933900833130e-01 -2.865752875804901123e-01
3.546000000000000000e+03 3.410877990722656250e+01 -5.327172279357910156e+00 6.277263164520263672e-01 -4.811415970325469971e-01 4.397542029619216919e-02 -3.992113471031188965e-02
3.547000000000000000e+03 7.171352386474609375e+01 -1.320009326934814453e+01 2.309396117925643921e-02 6.532382488250732422e+00 1.966642975807189941e+00 2.814332246780395508e-01
3.548000000000000000e+03 6.887619781494140625e+01 -3.280389404296875000e+01 8.955800533294677734e-02 5.660634994506835938e+00 1.725057840347290039e+00 2.045799791812896729e-01
3.549000000000000000e+03 7.018074035644531250e+01 -2.119563674926757812e+01 3.077693283557891846e-02 6.079774856567382812e+00 1.833165526390075684e+00 2.680986225605010986e-01
3.550000000000000000e+03 7.169019317626953125e+01 -2.062520599365234375e+01 1.960731670260429382e-02 6.374991893768310547e+00 1.918379664421081543e+00 2.486910521984100342e-01
3.551000000000000000e+03 2.279352188110351562e+01 -2.940063476562500000e+01 3.083501458168029785e-01 2.170334160327911377e-01 1.576150655746459961e-01 -3.397829532623291016e-01
3.552000000000000000e+03 2.579418373107910156e+01 -3.303475570678710938e+01 4.205306470394134521e-01 4.041365683078765869e-01 2.474001646041870117e-01 -3.424332737922668457e-01
3.553000000000000000e+03 8.982986450195312500e+00 2.745467758178710938e+01 -8.452259935438632965e-03 -1.680942624807357788e-02 -7.578505668789148331e-03 -1.144580822438001633e-02
3.554000000000000000e+03 7.054079437255859375e+01 -2.501939964294433594e+01 2.267483435571193695e-02 6.040423393249511719e+00 1.818929553031921387e+00 2.436058521270751953e-01
3.555000000000000000e+03 8.899468421936035156e+00 -3.683788299560546875e+01 8.334979414939880371e-02 -9.523398280143737793e-01 -2.606970071792602539e-01 -9.532874822616577148e-02
3.556000000000000000e+03 9.526279449462890625e+00 -3.448676300048828125e+01 1.136922016739845276e-01 -8.514604568481445312e-01 -2.213304638862609863e-01 -1.505384594202041626e-01
3.557000000000000000e+03 9.373826980590820312e+00 -3.083064079284667969e+01 1.077367886900901794e-01 -8.282292485237121582e-01 -2.161477357149124146e-01 -2.004279345273971558e-01
3.558000000000000000e+03 8.226314544677734375e+00 -3.091509056091308594e+01 7.729241251945495605e-02 -9.432060718536376953e-01 -2.597740888595581055e-01 -1.812362372875213623e-01
3.559000000000000000e+03 7.099049377441406250e+01 -2.902473449707031250e+01 3.332555666565895081e-02 6.091699600219726562e+00 1.837507486343383789e+00 2.169333249330520630e-01
3.560000000000000000e+03 4.169818878173828125e+01 -1.658933067321777344e+01 1.492659598588943481e-01 3.946440815925598145e-01 1.631730049848556519e-01 7.811150979250669479e-03
3.561000000000000000e+03 1.037315082550048828e+01 -2.654021263122558594e+01 1.274595558643341064e-01 -7.209803462028503418e-01 -1.780562400817871094e-01 -2.854488492012023926e-01
3.562000000000000000e+03 6.559437561035156250e+01 3.076622009277343750e+01 9.714760184288024902e-01 5.415061473846435547e+00 1.915961146354675293e+00 4.059210777282714844e+00
3.563000000000000000e+03 2.739902114868164062e+01 3.188013315200805664e+00 -2.280485868453979492e+00 -9.030099511146545410e-01 -9.550487399101257324e-01 -9.811589121818542480e-01
3.564000000000000000e+03 2.715051460266113281e+01 2.752892017364501953e+00 -2.177515506744384766e+00 -7.823525071144104004e-01 -8.879603743553161621e-01 -8.408799171447753906e-01
3.565000000000000000e+03 6.599404144287109375e+01 3.144403457641601562e+01 1.394808173179626465e+00 5.974096298217773438e+00 2.210671424865722656e+00 4.737038612365722656e+00
3.566000000000000000e+03 2.604840278625488281e+01 1.970073938369750977e+00 -2.149565458297729492e+00 -5.179428458213806152e-01 -8.002525568008422852e-01 -7.626214027404785156e-01
3.567000000000000000e+03 2.635291481018066406e+01 2.116350650787353516e+00 -2.096117258071899414e+00 -5.296603441238403320e-01 -7.877332568168640137e-01 -7.358278036117553711e-01
3.568000000000000000e+03 6.719840240478515625e+01 3.108267784118652344e+01 -1.892236769199371338e-01 1.174188423156738281e+01 3.465798139572143555e+00 4.395557403564453125e+00
3.569000000000000000e+03 2.799385070800781250e+01 3.229874372482299805e+00 -2.022794723510742188e+00 -9.406241178512573242e-01 -8.890256285667419434e-01 -8.424365520477294922e-01
3.570000000000000000e+03 1.800386047363281250e+01 1.170272636413574219e+01 8.462011069059371948e-02 1.763955503702163696e-01 7.830470055341720581e-02 1.191276907920837402e-01
3.571000000000000000e+03 7.201716613769531250e+01 3.570952987670898438e+01 2.333833694458007812e+00 1.145874881744384766e+01 4.137774944305419922e+00 1.401145696640014648e+00
3.572000000000000000e+03 6.846203613281250000e+01 3.182026481628417969e+01 1.099447309970855713e-01 1.747568511962890625e+01 5.275688648223876953e+00 7.158462405204772949e-01
3.573000000000000000e+03 4.174111938476562500e+01 1.953894805908203125e+01 -1.050131916999816895e+00 -1.100541591644287109e+00 -6.452020406723022461e-01 -1.181518554687500000e+00
3.574000000000000000e+03 6.864494323730468750e+01 3.144319534301757812e+01 -1.549693793058395386e-01 1.607770347595214844e+01 4.776820182800292969e+00 6.258701086044311523e-01
3.575000000000000000e+03 6.875328826904296875e+01 3.168004035949707031e+01 3.037534058094024658e-01 1.670413208007812500e+01 5.102365493774414062e+00 3.286793082952499390e-02
3.576000000000000000e+03 7.008652496337890625e+01 3.163827133178710938e+01 1.673482418060302734e+00 1.411356067657470703e+01 4.736113071441650391e+00 -1.738769531250000000e+00
3.577000000000000000e+03 4.196289825439453125e+01 1.879061317443847656e+01 -9.809080958366394043e-01 -1.006729722023010254e+00 -5.962913632392883301e-01 -1.107632279396057129e+00
3.578000000000000000e+03 4.184664916992187500e+01 1.983316802978515625e+01 -1.063919544219970703e+00 -1.116315007209777832e+00 -6.540703773498535156e-01 -1.188624978065490723e+00
3.579000000000000000e+03 1.525990772247314453e+01 9.107313156127929688e+00 8.075683563947677612e-02 2.639807462692260742e-01 1.034212708473205566e-01 1.206898838281631470e-01
3.580000000000000000e+03 1.969223403930664062e+01 1.271687984466552734e+01 9.237144142389297485e-02 1.531188935041427612e-01 7.364710420370101929e-02 1.180713474750518799e-01
3.581000000000000000e+03 1.884804725646972656e+01 1.270823574066162109e+01 8.078794926404953003e-02 1.595534086227416992e-01 7.210240513086318970e-02 1.133811846375465393e-01
3.582000000000000000e+03 6.913208007812500000e+01 3.183134841918945312e+01 1.117187023162841797e+00 1.627618408203125000e+01 5.218011379241943359e+00 -1.014795064926147461e+00
3.583000000000000000e+03 4.202902603149414062e+01 2.006223297119140625e+01 -1.069957017898559570e+00 -1.117868423461914062e+00 -6.563476324081420898e-01 -1.181934595108032227e+00
3.584000000000000000e+03 3.384857559204101562e+01 1.086933612823486328e+01 -1.220161199569702148e+00 -1.276889324188232422e+00 -7.491151690483093262e-01 -1.193313717842102051e+00
3.585000000000000000e+03 3.380682373046875000e+01 1.058300399780273438e+01 -1.198507785797119141e+00 -1.263915061950683594e+00 -7.387268543243408203e-01 -1.164885282516479492e+00
3.586000000000000000e+03 4.758345413208007812e+01 2.498167037963867188e+01 -1.149378180503845215e+00 -8.505374193191528320e-01 -5.999746918678283691e-01 -1.045894742012023926e+00
3.587000000000000000e+03 3.946228027343750000e+01 1.722571754455566406e+01 -1.113893628120422363e+00 -1.174767851829528809e+00 -6.865984201431274414e-01 -1.178780317306518555e+00
3.588000000000000000e+03 3.244699859619140625e+01 2.643638229370117188e+01 4.645400121808052063e-02 7.622090727090835571e-02 3.680247068405151367e-02 5.900556594133377075e-02
3.589000000000000000e+03 6.966424560546875000e+01 3.098409843444824219e+01 2.039721459150314331e-01 1.432276439666748047e+01 4.358020782470703125e+00 -8.859800696372985840e-01
3.590000000000000000e+03 7.032635498046875000e+01 3.212952041625976562e+01 2.899444341659545898e+00 1.370069980621337891e+01 4.980043411254882812e+00 -1.993571758270263672e+00
3.591000000000000000e+03 1.548228168487548828e+01 9.445496559143066406e+00 7.658728212118148804e-02 2.469990253448486328e-01 9.707589447498321533e-02 1.205180361866950989e-01
3.592000000000000000e+03 3.419067001342773438e+01 2.752811241149902344e+01 4.852165281772613525e-02 7.235728204250335693e-02 3.626368194818496704e-02 5.848128348588943481e-02
3.593000000000000000e+03 2.351556587219238281e+01 1.728150177001953125e+01 7.004602998495101929e-02 1.148525178432464600e-01 5.546956509351730347e-02 9.113258868455886841e-02
3.594000000000000000e+03 2.058864402770996094e+01 1.325176811218261719e+01 9.493097662925720215e-02 1.430113464593887329e-01 7.138270139694213867e-02 1.157448962330818176e-01
3.595000000000000000e+03 2.274679565429687500e+01 1.657362937927246094e+01 7.162150740623474121e-02 1.219187602400779724e-01 5.806208029389381409e-02 9.409726411104202271e-02
3.596000000000000000e+03 2.167537117004394531e+01 1.590942192077636719e+01 7.106745988130569458e-02 1.288584470748901367e-01 5.997776985168457031e-02 9.462026506662368774e-02
3.597000000000000000e+03 2.100978088378906250e+01 1.370273208618164062e+01 9.285555779933929443e-02 1.391370445489883423e-01 6.959778070449829102e-02 1.124806702136993408e-01
3.598000000000000000e+03 2.056173324584960938e+01 1.366547679901123047e+01 8.816257864236831665e-02 1.424411684274673462e-01 6.918112188577651978e-02 1.110554188489913940e-01
3.599000000000000000e+03 3.374639129638671875e+01 2.941746711730957031e+01 4.140192642807960510e-02 7.220108807086944580e-02 3.408090397715568542e-02 5.289975926280021667e-02
3.600000000000000000e+03 3.502088546752929688e+01 2.831932449340820312e+01 4.961446300148963928e-02 7.104221731424331665e-02 3.619700297713279724e-02 5.690686777234077454e-02
3.601000000000000000e+03 4.156110763549804688e+01 1.887097930908203125e+01 -1.016979217529296875e+00 -1.053978562355041504e+00 -6.212873458862304688e-01 -1.152466773986816406e+00
3.602000000000000000e+03 3.656785202026367188e+01 1.372585105895996094e+01 -1.144659280776977539e+00 -1.276133537292480469e+00 -7.262378334999084473e-01 -1.181797742843627930e+00
3.603000000000000000e+03 3.581817626953125000e+01 1.345140266418457031e+01 -1.198451995849609375e+00 -1.336176156997680664e+00 -7.603884339332580566e-01 -1.227248311042785645e+00
3.604000000000000000e+03 6.394892120361328125e+01 3.030212402343750000e+01 7.417814135551452637e-01 2.515969991683959961e+00 9.773253798484802246e-01 2.311354637145996094e+00
3.605000000000000000e+03 2.784234809875488281e+01 2.142679405212402344e+01 5.568817630410194397e-02 9.089757502079010010e-02 4.397572576999664307e-02 7.399154454469680786e-02
3.606000000000000000e+03 4.226015472412109375e+01 2.030653381347656250e+01 -1.080998182296752930e+00 -1.122010231018066406e+00 -6.609025597572326660e-01 -1.175251126289367676e+00
3.607000000000000000e+03 4.401394653320312500e+01 2.160006141662597656e+01 -1.115692853927612305e+00 -1.050173640251159668e+00 -6.497599482536315918e-01 -1.107717752456665039e+00
3.608000000000000000e+03 4.295227813720703125e+01 2.111591148376464844e+01 -1.142100214958190918e+00 -1.125221252441406250e+00 -6.801964640617370605e-01 -1.168773531913757324e+00
3.609000000000000000e+03 2.952994918823242188e+01 -1.499270558357238770e+00 2.662074267864227295e-01 -4.944502711296081543e-01 -6.847285479307174683e-02 -1.485598273575305939e-02
3.610000000000000000e+03 3.681359100341796875e+01 1.401491737365722656e+01 -1.139631986618041992e+00 -1.273082375526428223e+00 -7.238143086433410645e-01 -1.178039193153381348e+00
3.611000000000000000e+03 4.814319229125976562e+01 2.517023086547851562e+01 -1.104298114776611328e+00 -7.699458003044128418e-01 -5.622732043266296387e-01 -9.946093559265136719e-01
3.612000000000000000e+03 4.605324554443359375e+01 2.387121009826660156e+01 -1.213640809059143066e+00 -9.959326982498168945e-01 -6.628720760345458984e-01 -1.096676349639892578e+00
3.613000000000000000e+03 4.686960220336914062e+01 2.396557235717773438e+01 -1.128602862358093262e+00 -8.538546562194824219e-01 -5.947372317314147949e-01 -1.015257954597473145e+00
3.614000000000000000e+03 2.460114669799804688e+01 1.800471878051757812e+01 7.095962762832641602e-02 1.078117564320564270e-01 5.363141372799873352e-02 8.797258883714675903e-02
3.615000000000000000e+03 2.812288475036621094e+01 2.147165298461914062e+01 5.714680999517440796e-02 8.992724865674972534e-02 4.412221908569335938e-02 7.408932596445083618e-02
3.616000000000000000e+03 2.849084281921386719e+01 3.919659137725830078e+00 -2.111723661422729492e+00 -1.102537035942077637e+00 -9.642781615257263184e-01 -9.525903463363647461e-01
3.617000000000000000e+03 4.429331970214843750e+01 2.184479904174804688e+01 -1.121940374374389648e+00 -1.042106747627258301e+00 -6.492141485214233398e-01 -1.100091695785522461e+00
3.618000000000000000e+03 3.509455108642578125e+01 1.258536243438720703e+01 -1.205010652542114258e+00 -1.331070542335510254e+00 -7.608243823051452637e-01 -1.221175789833068848e+00
3.619000000000000000e+03 3.583119583129882812e+01 1.293035125732421875e+01 -1.171524405479431152e+00 -1.285860896110534668e+00 -7.372155785560607910e-01 -1.177245378494262695e+00
3.620000000000000000e+03 2.139537429809570312e+01 1.421284103393554688e+01 9.005153924226760864e-02 1.353762894868850708e-01 6.762834638357162476e-02 1.083061173558235168e-01
3.621000000000000000e+03 2.746961402893066406e+01 2.147995948791503906e+01 5.523829162120819092e-02 9.260601550340652466e-02 4.435329139232635498e-02 7.366038113832473755e-02
3.622000000000000000e+03 5.165581893920898438e+01 2.830619430541992188e+01 -1.093926072120666504e+00 -3.658233582973480225e-01 -4.379248321056365967e-01 -8.146653771400451660e-01
3.623000000000000000e+03 5.024788665771484375e+01 2.837914276123046875e+01 -1.219679594039916992e+00 -7.672276496887207031e-01 -5.960721969604492188e-01 -1.001825332641601562e+00
3.624000000000000000e+03 1.914845466613769531e+01 1.289924907684326172e+01 8.341984450817108154e-02 1.563888341188430786e-01 7.194259762763977051e-02 1.127113178372383118e-01
3.625000000000000000e+03 4.963563919067382812e+01 2.790471267700195312e+01 -1.229775667190551758e+00 -8.509101867675781250e-01 -6.242057681083679199e-01 -1.044042110443115234e+00
3.626000000000000000e+03 7.044830322265625000e+01 3.158653068542480469e+01 1.811787128448486328e+00 1.342785930633544922e+01 4.571893692016601562e+00 -1.842274665832519531e+00
3.627000000000000000e+03 2.701844024658203125e+01 2.105834388732910156e+01 5.605627968907356262e-02 9.482841193675994873e-02 4.526540637016296387e-02 7.482591271400451660e-02
3.628000000000000000e+03 2.678264427185058594e+01 2.007314872741699219e+01 6.212694570422172546e-02 9.724276512861251831e-02 4.781091213226318359e-02 7.912008464336395264e-02
3.629000000000000000e+03 2.643823623657226562e+01 1.990794944763183594e+01 6.247911229729652405e-02 9.850223362445831299e-02 4.829440265893936157e-02 7.938328385353088379e-02
3.630000000000000000e+03 2.491057014465332031e+01 1.825811195373535156e+01 7.065345346927642822e-02 1.064901500940322876e-01 5.314308032393455505e-02 8.674438297748565674e-02
3.631000000000000000e+03 7.100280761718750000e+01 3.354396438598632812e+01 4.833266258239746094e+00 1.198410320281982422e+01 5.045210838317871094e+00 -5.508354902267456055e-01
3.632000000000000000e+03 4.270459365844726562e+01 2.086616325378417969e+01 -1.124076962471008301e+00 -1.128939986228942871e+00 -6.759051084518432617e-01 -1.172051548957824707e+00
3.633000000000000000e+03 4.347277832031250000e+01 2.111547470092773438e+01 -1.100069046020507812e+00 -1.067721009254455566e+00 -6.503370404243469238e-01 -1.121220111846923828e+00
3.634000000000000000e+03 3.894908523559570312e+01 1.673331832885742188e+01 -1.129559516906738281e+00 -1.227252364158630371e+00 -7.070435881614685059e-01 -1.178383231163024902e+00
3.635000000000000000e+03 1.606356620788574219e+01 9.646842956542968750e+00 8.626530319452285767e-02 2.326024472713470459e-01 9.566032141447067261e-02 1.299313455820083618e-01
3.636000000000000000e+03 1.749185371398925781e+01 1.104625797271728516e+01 8.713205903768539429e-02 1.891460865736007690e-01 8.288343995809555054e-02 1.253875643014907837e-01
3.637000000000000000e+03 3.704939270019531250e+01 1.430897808074951172e+01 -1.129609465599060059e+00 -1.275064587593078613e+00 -7.214022278785705566e-01 -1.180107593536376953e+00
3.638000000000000000e+03 4.457735443115234375e+01 2.209192085266113281e+01 -1.126917958259582520e+00 -1.032252669334411621e+00 -6.477512121200561523e-01 -1.090430140495300293e+00
3.639000000000000000e+03 3.445434570312500000e+01 9.930647850036621094e+00 -1.112225294113159180e+00 -1.132769703865051270e+00 -6.734985113143920898e-01 -1.051725983619689941e+00
3.640000000000000000e+03 3.729196166992187500e+01 1.459395122528076172e+01 -1.128636598587036133e+00 -1.274673581123352051e+00 -7.209930419921875000e-01 -1.176447749137878418e+00
3.641000000000000000e+03 1.408987140655517578e+01 7.502491474151611328e+00 7.695005834102630615e-02 3.611058294773101807e-01 1.314167678356170654e-01 9.984133392572402954e-02
3.642000000000000000e+03 3.754949951171875000e+01 1.486602210998535156e+01 -1.120219826698303223e+00 -1.268231391906738281e+00 -7.165353894233703613e-01 -1.172259092330932617e+00
3.643000000000000000e+03 5.435385131835937500e+01 2.993341445922851562e+01 -1.079489350318908691e+00 1.717757284641265869e-01 -2.723141014575958252e-01 -7.182679772377014160e-01
3.644000000000000000e+03 5.319110107421875000e+01 2.950867271423339844e+01 -1.103512525558471680e+00 -6.456682831048965454e-02 -3.504237830638885498e-01 -7.530865669250488281e-01
3.645000000000000000e+03 5.043654251098632812e+01 2.804545593261718750e+01 -1.170183658599853516e+00 -6.675749421119689941e-01 -5.513275861740112305e-01 -9.451069235801696777e-01
3.646000000000000000e+03 5.146783828735351562e+01 2.871860694885253906e+01 -1.143795490264892578e+00 -4.594478905200958252e-01 -4.809730052947998047e-01 -8.640826344490051270e-01
3.647000000000000000e+03 3.781624603271484375e+01 1.512589073181152344e+01 -1.117213606834411621e+00 -1.258972764015197754e+00 -7.128558754920959473e-01 -1.163096666336059570e+00
3.648000000000000000e+03 3.282120132446289062e+01 2.683975601196289062e+01 4.657615348696708679e-02 7.397110760211944580e-02 3.616417571902275085e-02 5.870604515075683594e-02
3.649000000000000000e+03 4.164112854003906250e+01 1.921595191955566406e+01 -1.030700802803039551e+00 -1.078692317008972168e+00 -6.328179240226745605e-01 -1.168147921562194824e+00
3.650000000000000000e+03 2.172367858886718750e+01 1.479738140106201172e+01 8.514196425676345825e-02 1.322359442710876465e-01 6.521336734294891357e-02 1.037090122699737549e-01
3.651000000000000000e+03 2.126360702514648438e+01 1.463117218017578125e+01 8.299366384744644165e-02 1.349221915006637573e-01 6.537475436925888062e-02 1.038290411233901978e-01
3.652000000000000000e+03 3.330777740478515625e+01 2.677363395690917969e+01 4.768455773591995239e-02 7.353176176548004150e-02 3.636489808559417725e-02 5.951537936925888062e-02
3.653000000000000000e+03 4.576182937622070312e+01 2.362856864929199219e+01 -1.215392708778381348e+00 -1.021864891052246094e+00 -6.711772680282592773e-01 -1.102714180946350098e+00
3.654000000000000000e+03 4.752968597412109375e+01 2.454802322387695312e+01 -1.114786148071289062e+00 -8.042911887168884277e-01 -5.757231712341308594e-01 -1.005793213844299316e+00
3.655000000000000000e+03 7.232781982421875000e+01 3.454176712036132812e+01 3.179922819137573242e+00 1.065642642974853516e+01 4.150904655456542969e+00 4.870560467243194580e-01
3.656000000000000000e+03 7.063671875000000000e+01 3.380155944824218750e+01 5.508539676666259766e+00 1.249760055541992188e+01 5.401842117309570312e+00 -2.343523800373077393e-01
3.657000000000000000e+03 3.030446052551269531e+01 2.233561515808105469e+01 5.684478208422660828e-02 8.041168004274368286e-02 4.117693752050399780e-02 7.066313922405242920e-02
3.658000000000000000e+03 3.682355880737304688e+01 1.342244720458984375e+01 -1.104791998863220215e+00 -1.211826086044311523e+00 -6.949854493141174316e-01 -1.123795509338378906e+00
3.659000000000000000e+03 4.876643371582031250e+01 2.662939453125000000e+01 -1.174509406089782715e+00 -8.593101501464843750e-01 -6.101458668708801270e-01 -1.053692340850830078e+00
3.660000000000000000e+03 3.808927154541015625e+01 1.537938213348388672e+01 -1.109517812728881836e+00 -1.242805719375610352e+00 -7.056970596313476562e-01 -1.156388640403747559e+00
3.661000000000000000e+03 3.868674087524414062e+01 1.646944808959960938e+01 -1.130246520042419434e+00 -1.247166395187377930e+00 -7.132238745689392090e-01 -1.180574417114257812e+00
3.662000000000000000e+03 4.069344329833984375e+01 1.811989402770996094e+01 -1.052500128746032715e+00 -1.077053308486938477e+00 -6.388660669326782227e-01 -1.167524576187133789e+00
3.663000000000000000e+03 4.486555099487304688e+01 2.234258079528808594e+01 -1.131568789482116699e+00 -1.020621180534362793e+00 -6.456570029258728027e-01 -1.080816030502319336e+00
3.664000000000000000e+03 5.012374877929687500e+01 2.782670211791992188e+01 -1.176032900810241699e+00 -7.207102775573730469e-01 -5.690229535102844238e-01 -9.686615467071533203e-01
3.665000000000000000e+03 3.201197052001953125e+01 2.592800521850585938e+01 4.667246341705322266e-02 7.673108577728271484e-02 3.702106699347496033e-02 6.047284230589866638e-02
3.666000000000000000e+03 4.927583312988281250e+01 2.657607269287109375e+01 -1.123089790344238281e+00 -7.400320172309875488e-01 -5.589365363121032715e-01 -9.714677929878234863e-01
3.667000000000000000e+03 4.321662902832031250e+01 2.088204383850097656e+01 -1.090135216712951660e+00 -1.074988842010498047e+00 -6.495372056961059570e-01 -1.126739025115966797e+00
3.668000000000000000e+03 4.856865310668945312e+01 2.591893386840820312e+01 -1.127591729164123535e+00 -7.910321354866027832e-01 -5.755871534347534180e-01 -1.011189699172973633e+00
3.669000000000000000e+03 4.982275772094726562e+01 2.760980796813964844e+01 -1.179209709167480469e+00 -7.650970220565795898e-01 -5.832920074462890625e-01 -9.899218678474426270e-01
3.670000000000000000e+03 7.365251159667968750e+01 3.500069427490234375e+01 1.962020516395568848e+00 9.423760414123535156e+00 3.415734291076660156e+00 5.631936192512512207e-01
3.671000000000000000e+03 7.061458587646484375e+01 3.437277221679687500e+01 5.290925979614257812e+00 1.268521499633789062e+01 5.392842292785644531e+00 8.481255769729614258e-01
3.672000000000000000e+03 2.186704444885253906e+01 1.512060260772705078e+01 8.217737823724746704e-02 1.306779384613037109e-01 6.385659426450729370e-02 1.013300940394401550e-01
3.673000000000000000e+03 3.265427398681640625e+01 9.166606903076171875e+00 -1.205607056617736816e+00 -1.252963423728942871e+00 -7.375711202621459961e-01 -1.149993777275085449e+00
3.674000000000000000e+03 1.979620552062988281e+01 1.334230899810791016e+01 8.543351292610168457e-02 1.492489725351333618e-01 7.040474563837051392e-02 1.115155741572380066e-01
3.675000000000000000e+03 2.462092590332031250e+01 1.854159355163574219e+01 6.582711637020111084e-02 1.071112751960754395e-01 5.188151821494102478e-02 8.448748290538787842e-02
3.676000000000000000e+03 4.018103408813476562e+01 1.720563125610351562e+01 -1.060472965240478516e+00 -1.075717568397521973e+00 -6.408571600914001465e-01 -1.130101203918457031e+00
3.677000000000000000e+03 2.597378730773925781e+01 1.932689285278320312e+01 6.577487289905548096e-02 1.012633964419364929e-01 5.011148005723953247e-02 8.186576515436172485e-02
3.678000000000000000e+03 2.572822952270507812e+01 1.904870414733886719e+01 6.726702302694320679e-02 1.025817692279815674e-01 5.095463618636131287e-02 8.282329142093658447e-02
3.679000000000000000e+03 3.529022216796875000e+01 2.955247879028320312e+01 4.892925173044204712e-02 7.138924300670623779e-02 3.609554842114448547e-02 5.251215025782585144e-02
3.680000000000000000e+03 4.212211227416992188e+01 1.944424247741699219e+01 -1.013638019561767578e+00 -1.053393483161926270e+00 -6.201094388961791992e-01 -1.136404991149902344e+00
3.681000000000000000e+03 2.070136833190917969e+01 1.428962993621826172e+01 8.242870867252349854e-02 1.389309912919998169e-01 6.640791147947311401e-02 1.049990653991699219e-01
3.682000000000000000e+03 3.836684799194335938e+01 1.563105297088623047e+01 -1.106077909469604492e+00 -1.224311470985412598e+00 -6.991168260574340820e-01 -1.146551489830017090e+00
3.683000000000000000e+03 3.864825820922851562e+01 1.588426399230957031e+01 -1.099343419075012207e+00 -1.201935410499572754e+00 -6.903836727142333984e-01 -1.140317797660827637e+00
3.684000000000000000e+03 4.258620071411132812e+01 2.012072944641113281e+01 -1.045281767845153809e+00 -1.072413563728332520e+00 -6.353086233139038086e-01 -1.134630799293518066e+00
3.685000000000000000e+03 2.875316238403320312e+01 2.281589889526367188e+01 4.898927360773086548e-02 8.705618977546691895e-02 4.081363976001739502e-02 6.995170563459396362e-02
3.686000000000000000e+03 3.990678405761718750e+01 1.707671928405761719e+01 -1.073081731796264648e+00 -1.104703545570373535e+00 -6.533355712890625000e-01 -1.139514923095703125e+00
3.687000000000000000e+03 3.922011947631835938e+01 1.641126060485839844e+01 -1.087138414382934570e+00 -1.154128432273864746e+00 -6.723800897598266602e-01 -1.132124423980712891e+00
3.688000000000000000e+03 4.697262191772460938e+01 2.365149307250976562e+01 -1.085173606872558594e+00 -7.944138646125793457e-01 -5.638762712478637695e-01 -9.684188365936279297e-01
3.689000000000000000e+03 2.222347068786621094e+01 1.664336776733398438e+01 6.683603674173355103e-02 1.233059465885162354e-01 5.704259499907493591e-02 9.139235317707061768e-02
3.690000000000000000e+03 1.696030998229980469e+01 1.059279441833496094e+01 8.581656962633132935e-02 2.022107541561126709e-01 8.640819787979125977e-02 1.251051276922225952e-01
3.691000000000000000e+03 1.565698242187500000e+01 8.853121757507324219e+00 8.987222611904144287e-02 2.603102624416351318e-01 1.050547435879707336e-01 1.384335458278656006e-01
3.692000000000000000e+03 5.404584884643554688e+01 2.968610191345214844e+01 -1.068223118782043457e+00 1.283164471387863159e-01 -2.819720208644866943e-01 -7.226620316505432129e-01
3.693000000000000000e+03 5.369886016845703125e+01 2.983477973937988281e+01 -1.101988911628723145e+00 5.770003423094749451e-02 -3.132866621017456055e-01 -7.458459734916687012e-01
3.694000000000000000e+03 4.515567016601562500e+01 2.259630393981933594e+01 -1.136871337890625000e+00 -1.004962444305419922e+00 -6.425501108169555664e-01 -1.070922732353210449e+00
3.695000000000000000e+03 4.544441223144531250e+01 2.285133171081542969e+01 -1.143755197525024414e+00 -9.872646331787109375e-01 -6.393059492111206055e-01 -1.061488032341003418e+00
3.696000000000000000e+03 3.311226272583007812e+01 2.706117439270019531e+01 4.617640376091003418e-02 7.522152364253997803e-02 3.641937673091888428e-02 5.817145481705665588e-02
3.697000000000000000e+03 3.322200775146484375e+01 2.760873031616210938e+01 4.425299167633056641e-02 7.494811713695526123e-02 3.576033189892768860e-02 5.679107084870338440e-02
3.698000000000000000e+03 2.150020027160644531e+01 1.522527694702148438e+01 7.787031680345535278e-02 1.318034231662750244e-01 6.290212273597717285e-02 9.941636025905609131e-02
3.699000000000000000e+03 3.361232757568359375e+01 1.028238487243652344e+01 -1.206361770629882812e+00 -1.250104904174804688e+00 -7.369400262832641602e-01 -1.155912160873413086e+00
3.700000000000000000e+03 4.655270767211914062e+01 2.380499649047851562e+01 -1.149119257926940918e+00 -8.969676494598388672e-01 -6.138260960578918457e-01 -1.035171270370483398e+00
3.701000000000000000e+03 2.218134307861328125e+01 1.623129844665527344e+01 7.113709300756454468e-02 1.255514323711395264e-01 5.900655686855316162e-02 9.428699314594268799e-02
3.702000000000000000e+03 1.515008926391601562e+01 8.441682815551757812e+00 8.658602833747863770e-02 2.903592288494110107e-01 1.130835786461830139e-01 1.334217190742492676e-01
3.703000000000000000e+03 1.485153770446777344e+01 7.945827007293701172e+00 8.679602295160293579e-02 3.184177577495574951e-01 1.215641349554061890e-01 1.341977119445800781e-01
3.704000000000000000e+03 3.489122009277343750e+01 1.177320671081542969e+01 -1.179732441902160645e+00 -1.272116661071777344e+00 -7.355546951293945312e-01 -1.169804334640502930e+00
3.705000000000000000e+03 3.512657165527343750e+01 1.204809761047363281e+01 -1.164513111114501953e+00 -1.273998498916625977e+00 -7.315534949302673340e-01 -1.171755790710449219e+00
3.706000000000000000e+03 3.318946456909179688e+01 8.858936309814453125e+00 -1.155157566070556641e+00 -1.163918256759643555e+00 -6.957227587699890137e-01 -1.082817792892456055e+00
3.707000000000000000e+03 3.415845108032226562e+01 1.048716545104980469e+01 -1.168213367462158203e+00 -1.213501334190368652e+00 -7.145144343376159668e-01 -1.127585768699645996e+00
3.708000000000000000e+03 1.373116588592529297e+01 6.672864913940429688e+00 7.145650684833526611e-02 4.463505446910858154e-01 1.553421169519424438e-01 9.274332970380783081e-02
3.709000000000000000e+03 3.471755981445312500e+01 2.921810531616210938e+01 4.831794276833534241e-02 7.041602581739425659e-02 3.562019020318984985e-02 5.300986394286155701e-02
3.710000000000000000e+03 5.553153610229492188e+01 2.928040122985839844e+01 -8.931585550308227539e-01 3.967380523681640625e-01 -1.489261537790298462e-01 -5.886294245719909668e-01
3.711000000000000000e+03 1.646392250061035156e+01 1.001056766510009766e+01 8.853418380022048950e-02 2.194106429815292358e-01 9.238344430923461914e-02 1.285153627395629883e-01
3.712000000000000000e+03 9.411531448364257812e+00 6.039641857147216797e+00 2.052390873432159424e-01 -4.053278267383575439e-02 4.941188916563987732e-02 -2.972042746841907501e-02
3.713000000000000000e+03 1.720067596435546875e+01 1.123404788970947266e+01 7.980182021856307983e-02 1.921408325433731079e-01 8.158279955387115479e-02 1.179113164544105530e-01
3.714000000000000000e+03 1.702756500244140625e+01 1.104853630065917969e+01 7.869605720043182373e-02 1.951595395803451538e-01 8.215668052434921265e-02 1.186996847391128540e-01
3.715000000000000000e+03 3.174259948730468750e+01 5.182387351989746094e+00 -1.449207782745361328e+00 -8.163492679595947266e-01 -6.796671152114868164e-01 -7.957686185836791992e-01
3.716000000000000000e+03 6.480530548095703125e+01 3.077081871032714844e+01 1.011820554733276367e+00 3.357046842575073242e+00 1.310660243034362793e+00 3.118122577667236328e+00
3.717000000000000000e+03 3.151996994018554688e+01 2.551575469970703125e+01 4.681677371263504028e-02 7.682753354310989380e-02 3.709329292178153992e-02 6.234007701277732849e-02
3.718000000000000000e+03 3.043284034729003906e+01 2.420342636108398438e+01 4.694425687193870544e-02 8.004169166088104248e-02 3.809578344225883484e-02 6.656061857938766479e-02
3.719000000000000000e+03 1.440675354003906250e+01 8.247860908508300781e+00 7.125017791986465454e-02 3.149709701538085938e-01 1.158663406968116760e-01 1.058512330055236816e-01
3.720000000000000000e+03 2.935555648803710938e+01 4.426751136779785156e+00 -1.959458470344543457e+00 -1.107906579971313477e+00 -9.202095270156860352e-01 -8.760908842086791992e-01
3.721000000000000000e+03 3.290829467773437500e+01 8.411685943603515625e+00 -1.160264492034912109e+00 -1.162489891052246094e+00 -6.968263387680053711e-01 -1.087014913558959961e+00
3.722000000000000000e+03 3.477873611450195312e+01 2.982373619079589844e+01 4.489295184612274170e-02 6.895042955875396729e-02 3.415301442146301270e-02 5.294575169682502747e-02
3.723000000000000000e+03 3.466341781616210938e+01 1.088464260101318359e+01 -1.150567173957824707e+00 -1.206885099411010742e+00 -7.072356939315795898e-01 -1.117386221885681152e+00
3.724000000000000000e+03 3.308727264404296875e+01 6.032152652740478516e+00 -1.178159117698669434e+00 -8.379576802253723145e-01 -6.048350334167480469e-01 -8.083743453025817871e-01
3.725000000000000000e+03 3.269565582275390625e+01 6.470701217651367188e+00 -1.238847374916076660e+00 -9.214974641799926758e-01 -6.481034755706787109e-01 -9.345476031303405762e-01
3.726000000000000000e+03 1.272031211853027344e+01 5.123336791992187500e+00 1.601915210485458374e-01 5.853476524353027344e-01 2.236617505550384521e-01 -1.408616006374359131e-01
3.727000000000000000e+03 6.439397430419921875e+01 3.024569320678710938e+01 8.215813040733337402e-01 3.225445508956909180e+00 1.214108109474182129e+00 2.788440227508544922e+00
3.728000000000000000e+03 3.280507278442382812e+01 6.878985404968261719e+00 -1.202780127525329590e+00 -9.823455810546875000e-01 -6.555377244949340820e-01 -9.654817581176757812e-01
3.729000000000000000e+03 2.997414207458496094e+01 2.366162109375000000e+01 4.788623377680778503e-02 8.215699344873428345e-02 3.901296854019165039e-02 6.783553957939147949e-02
3.730000000000000000e+03 2.651286125183105469e+01 -5.851016044616699219e-01 -1.070200949907302856e-01 -2.606485486030578613e-01 -1.103005856275558472e-01 -2.439828515052795410e-01
3.731000000000000000e+03 5.457303619384765625e+01 3.046587562561035156e+01 -1.131144046783447266e+00 1.839192211627960205e-01 -2.841674387454986572e-01 -7.398820519447326660e-01
3.732000000000000000e+03 5.358667373657226562e+01 2.938982391357421875e+01 -1.064740419387817383e+00 5.663699656724929810e-02 -3.024310469627380371e-01 -7.193369269371032715e-01
3.733000000000000000e+03 6.562897682189941406e+00 7.851167678833007812e+00 9.849782288074493408e-02 -9.051500260829925537e-02 2.394846407696604729e-03 3.068109415471553802e-02
3.734000000000000000e+03 1.325377750396728516e+01 6.711225986480712891e+00 7.563155889511108398e-02 4.359561502933502197e-01 1.534763127565383911e-01 3.146934509277343750e-02
3.735000000000000000e+03 3.107964515686035156e+01 2.480249977111816406e+01 4.757774621248245239e-02 7.753764092922210693e-02 3.753461688756942749e-02 6.454889476299285889e-02
3.736000000000000000e+03 3.082166671752929688e+01 2.522377967834472656e+01 4.522904381155967712e-02 7.877362519502639771e-02 3.720080107450485229e-02 6.319309026002883911e-02
3.737000000000000000e+03 2.567148590087890625e+01 2.492382973432540894e-01 -7.315526604652404785e-01 -1.420834213495254517e-01 -2.620908319950103760e-01 -3.238285481929779053e-01
3.738000000000000000e+03 1.177133178710937500e+01 4.263206005096435547e+00 3.737834095954895020e-01 2.716731727123260498e-01 1.936369687318801880e-01 -2.280930280685424805e-01
3.739000000000000000e+03 1.241158771514892578e+01 4.926179885864257812e+00 2.235843986272811890e-01 4.948545992374420166e-01 2.155317068099975586e-01 -1.872204542160034180e-01
3.740000000000000000e+03 7.173705291748046875e+01 3.491953277587890625e+01 3.398909807205200195e+00 1.140955829620361328e+01 4.442540168762207031e+00 9.998461604118347168e-01
3.741000000000000000e+03 6.804333686828613281e+00 6.997815608978271484e+00 1.173669472336769104e-01 -1.063243150711059570e-01 3.312791464850306511e-03 4.459333047270774841e-02
3.742000000000000000e+03 3.708350753784179688e+01 3.127226257324218750e+01 5.040734633803367615e-02 6.436842679977416992e-02 3.443273156881332397e-02 5.162213742733001709e-02
3.743000000000000000e+03 6.348286819458007812e+01 2.947453689575195312e+01 6.209909319877624512e-01 2.699706554412841797e+00 9.962092638015747070e-01 2.113169193267822266e+00
3.744000000000000000e+03 6.055360412597656250e+01 2.904073524475097656e+01 2.226474322378635406e-02 1.210120677947998047e+00 3.697156012058258057e-01 5.289182066917419434e-01
3.745000000000000000e+03 6.082416915893554688e+01 2.813908767700195312e+01 1.578502953052520752e-01 1.668023705482482910e+00 5.477622151374816895e-01 8.102017045021057129e-01
3.746000000000000000e+03 3.675663375854492188e+01 3.183104705810546875e+01 4.789809510111808777e-02 6.328780949115753174e-02 3.335577249526977539e-02 5.100252106785774231e-02
3.747000000000000000e+03 7.393472290039062500e+01 3.019966697692871094e+01 5.819921493530273438e-01 9.532540321350097656e+00 3.034359693527221680e+00 -1.643013715744018555e+00
3.748000000000000000e+03 3.578456497192382812e+01 3.047279357910156250e+01 4.828375950455665588e-02 6.592053174972534180e-02 3.426128625869750977e-02 5.181919410824775696e-02
3.749000000000000000e+03 7.379231262207031250e+01 3.254869461059570312e+01 1.896337270736694336e+00 9.252535820007324219e+00 3.344661951065063477e+00 -1.003374457359313965e+00
3.750000000000000000e+03 3.039955520629882812e+01 -1.795268535614013672e+00 3.178513050079345703e-01 -5.479273796081542969e-01 -6.902283430099487305e-02 6.693424191325902939e-03
3.751000000000000000e+03 3.260668182373046875e+01 2.590418624877929688e+01 4.808132722973823547e-02 7.587099075317382812e-02 3.718569502234458923e-02 6.063508614897727966e-02
3.752000000000000000e+03 8.722291946411132812e+00 5.823869705200195312e+00 2.012965530157089233e-01 -9.960483759641647339e-02 3.050751611590385437e-02 1.256184931844472885e-02
3.753000000000000000e+03 3.296475601196289062e+01 7.296319007873535156e+00 -1.180197238922119141e+00 -1.006547451019287109e+00 -6.560233831405639648e-01 -9.939411282539367676e-01
3.754000000000000000e+03 3.316976165771484375e+01 7.724612712860107422e+00 -1.144771695137023926e+00 -1.053115725517272949e+00 -6.593662500381469727e-01 -1.006905555725097656e+00
3.755000000000000000e+03 2.501129913330078125e+01 7.924246191978454590e-01 -1.552445888519287109e+00 -1.930019259452819824e-01 -5.236343145370483398e-01 -6.548661589622497559e-01
3.756000000000000000e+03 3.876785659790039062e+01 3.325910568237304688e+01 5.780433863401412964e-02 5.749113112688064575e-02 3.458863869309425354e-02 4.568972438573837280e-02
3.757000000000000000e+03 4.019517135620117188e+01 3.410129165649414062e+01 5.846004188060760498e-02 5.199692025780677795e-02 3.313708677887916565e-02 4.957807436585426331e-02
3.758000000000000000e+03 3.164583778381347656e+01 -2.482665300369262695e+00 4.331198334693908691e-01 -5.716283917427062988e-01 -4.155257716774940491e-02 2.507188729941844940e-02
3.759000000000000000e+03 3.155944633483886719e+01 -3.462651968002319336e+00 6.131526827812194824e-01 -5.261790156364440918e-01 2.609208971261978149e-02 -4.094896838068962097e-02
3.760000000000000000e+03 6.028294372558593750e+01 2.845070838928222656e+01 3.534840419888496399e-02 1.353033781051635742e+00 4.165146350860595703e-01 5.368396639823913574e-01
3.761000000000000000e+03 3.928651046752929688e+01 3.270565795898437500e+01 5.341465771198272705e-02 5.401950702071189880e-02 3.223025053739547729e-02 5.289148166775703430e-02
3.762000000000000000e+03 8.086083412170410156e+00 -7.441439151763916016e+00 -2.221814393997192383e-01 -2.746716737747192383e-01 -1.490559428930282593e-01 -4.551400840282440186e-01
3.763000000000000000e+03 5.710292053222656250e+01 2.889984130859375000e+01 -6.029249429702758789e-01 6.393873095512390137e-01 1.093872357159852982e-02 -3.531184196472167969e-01
3.764000000000000000e+03 5.601431274414062500e+01 2.970446586608886719e+01 -8.966949582099914551e-01 4.319672584533691406e-01 -1.394183039665222168e-01 -5.924363732337951660e-01
3.765000000000000000e+03 5.649173736572265625e+01 2.902732276916503906e+01 -7.194167971611022949e-01 5.455935001373291016e-01 -5.214700475335121155e-02 -4.573590159416198730e-01
3.766000000000000000e+03 2.814366531372070312e+01 -1.250718712806701660e+00 2.429374009370803833e-01 -4.610431790351867676e-01 -6.543173640966415405e-02 -1.443858742713928223e-01
3.767000000000000000e+03 9.248884201049804688e+00 7.250263690948486328e+00 1.519255936145782471e-01 2.385028405115008354e-03 4.629318788647651672e-02 -3.365444764494895935e-02
3.768000000000000000e+03 7.234255313873291016e+00 -9.731407165527343750e+00 -8.672095090150833130e-02 -4.027943909168243408e-01 -1.468546092510223389e-01 -4.614607095718383789e-01
3.769000000000000000e+03 9.540918350219726562e+00 -6.867417335510253906e+00 -3.188622891902923584e-01 -2.771723568439483643e-01 -1.788103878498077393e-01 -5.379942059516906738e-01
3.770000000000000000e+03 5.845589447021484375e+01 2.915688133239746094e+01 -4.191194772720336914e-01 7.556699514389038086e-01 1.009651422500610352e-01 -1.406114101409912109e-01
3.771000000000000000e+03 1.212484836578369141e+01 -1.106508541107177734e+01 2.824933826923370361e-02 -6.092136502265930176e-01 -1.742893010377883911e-01 -6.450072526931762695e-01
3.772000000000000000e+03 1.014056110382080078e+01 -6.617130279541015625e+00 -3.483707606792449951e-01 -2.972791492938995361e-01 -1.936949789524078369e-01 -5.663418173789978027e-01
3.773000000000000000e+03 3.523566055297851562e+01 3.022282409667968750e+01 4.572867602109909058e-02 7.087481021881103516e-02 3.498104587197303772e-02 5.017555877566337585e-02
3.774000000000000000e+03 1.119957256317138672e+01 -6.459279537200927734e+00 -4.141595363616943359e-01 -3.527850210666656494e-01 -2.300833612680435181e-01 -6.403439640998840332e-01
3.775000000000000000e+03 1.109937381744384766e+01 5.630299568176269531e+00 2.245260924100875854e-01 1.641776561737060547e-01 1.166111230850219727e-01 -1.248572394251823425e-01
3.776000000000000000e+03 8.494183540344238281e+00 6.554404735565185547e+00 1.660873889923095703e-01 -6.615837663412094116e-02 2.997870184481143951e-02 2.070074435323476791e-03
3.777000000000000000e+03 7.090675354003906250e+01 3.865622329711914062e+01 -1.169470787048339844e+00 1.263067913055419922e+01 3.438362360000610352e+00 7.981683015823364258e-01
3.778000000000000000e+03 3.129952049255371094e+01 -1.978639364242553711e+00 3.317013680934906006e-01 -5.841960310935974121e-01 -7.574841380119323730e-02 3.464202210307121277e-02
3.779000000000000000e+03 3.071597671508789062e+01 -2.367651700973510742e+00 4.645138084888458252e-01 -5.515352487564086914e-01 -2.610643580555915833e-02 -2.160218777135014534e-03
3.780000000000000000e+03 1.068141651153564453e+01 -6.446430683135986328e+00 -3.992933332920074463e-01 -2.776115834712982178e-01 -2.030714750289916992e-01 -5.883597135543823242e-01
3.781000000000000000e+03 7.103009033203125000e+01 3.297365951538085938e+01 4.143788814544677734e+00 1.208259963989257812e+01 4.867916584014892578e+00 -1.227153062820434570e+00
3.782000000000000000e+03 7.371926879882812500e+01 3.433185958862304688e+01 2.111058712005615234e+00 9.265939712524414062e+00 3.413099527359008789e+00 4.020566865801811218e-02
3.783000000000000000e+03 6.808778381347656250e+01 3.880777740478515625e+01 -1.557919979095458984e+00 1.182250022888183594e+01 3.079374074935913086e+00 -1.231435537338256836e+00
3.784000000000000000e+03 6.868028259277343750e+01 3.688191223144531250e+01 -9.965696930885314941e-01 1.535361480712890625e+01 4.307113647460937500e+00 -4.382449090480804443e-01
3.785000000000000000e+03 4.081088256835937500e+01 3.542130661010742188e+01 7.034584134817123413e-02 4.081901162862777710e-02 3.334945812821388245e-02 4.768405854701995850e-02
3.786000000000000000e+03 7.060093688964843750e+01 1.237336635589599609e+00 2.698094397783279419e-02 6.645274162292480469e+00 2.001676559448242188e+00 4.355109632015228271e-01
3.787000000000000000e+03 7.172025299072265625e+01 3.442880630493164062e+00 4.954233765602111816e-03 7.000241756439208984e+00 2.101558685302734375e+00 4.032943546772003174e-01
3.788000000000000000e+03 7.356855773925781250e+01 2.952472114562988281e+01 2.291864454746246338e-01 9.861040115356445312e+00 3.027068138122558594e+00 -1.695623636245727539e+00
3.789000000000000000e+03 3.180290031433105469e+01 -4.648463726043701172e+00 7.313916683197021484e-01 -4.754341244697570801e-01 7.678727060556411743e-02 -9.782339632511138916e-02
3.790000000000000000e+03 3.276732254028320312e+01 -3.916549682617187500e+00 5.929207801818847656e-01 -5.319674611091613770e-01 1.828598417341709137e-02 3.191185882315039635e-03
3.791000000000000000e+03 7.289594268798828125e+01 2.778579711914062500e+01 -5.954993963241577148e-01 1.005621623992919922e+01 2.838215112686157227e+00 -1.317084431648254395e+00
3.792000000000000000e+03 7.274967193603515625e+01 2.210385894775390625e+01 -7.893105149269104004e-01 8.704955101013183594e+00 2.374693393707275391e+00 -3.295350968837738037e-01
3.793000000000000000e+03 7.196559143066406250e+01 1.975622558593750000e+01 -6.544318795204162598e-01 8.173807144165039062e+00 2.255812644958496094e+00 1.737795397639274597e-02
3.794000000000000000e+03 8.151679992675781250e+00 -1.561492633819580078e+01 7.778362184762954712e-02 -6.472472548484802246e-01 -1.708390861749649048e-01 -4.578352868556976318e-01
3.795000000000000000e+03 1.299155139923095703e+01 -1.176941871643066406e+01 6.665758043527603149e-02 -6.225730180740356445e-01 -1.667746156454086304e-01 -6.247793436050415039e-01
3.796000000000000000e+03 1.097055530548095703e+01 -6.981342792510986328e+00 -3.274216055870056152e-01 -3.629679381847381592e-01 -2.071168571710586548e-01 -6.322733163833618164e-01
3.797000000000000000e+03 1.179399108886718750e+01 -6.648669242858886719e+00 -3.932305872440338135e-01 -3.808803856372833252e-01 -2.322332859039306641e-01 -6.871648430824279785e-01
3.798000000000000000e+03 7.084613037109375000e+01 -5.200700759887695312e+00 4.869223386049270630e-02 6.541663646697998047e+00 1.977106690406799316e+00 3.665059804916381836e-01
3.799000000000000000e+03 7.071482086181640625e+01 3.278169631958007812e+01 4.125824928283691406e+00 1.269557285308837891e+01 5.046419143676757812e+00 -1.608489036560058594e+00
3.800000000000000000e+03 7.312091827392578125e+01 3.304420089721679688e+01 2.433129549026489258e+00 9.748734474182128906e+00 3.654559135437011719e+00 -8.267247080802917480e-01
3.801000000000000000e+03 1.419057559967041016e+01 -1.620034790039062500e+01 2.106026560068130493e-01 -5.277897715568542480e-01 -9.515613317489624023e-02 -4.734952151775360107e-01
3.802000000000000000e+03 3.501992797851562500e+01 -4.780602931976318359e+00 5.555466413497924805e-01 -4.561758339405059814e-01 2.981124073266983032e-02 8.318491280078887939e-03
3.803000000000000000e+03 1.376042461395263672e+01 -1.405675506591796875e+01 1.852525770664215088e-01 -5.926001667976379395e-01 -1.222042664885520935e-01 -5.290420055389404297e-01
3.804000000000000000e+03 1.343686771392822266e+01 -9.392304420471191406e+00 -4.626058414578437805e-02 -6.695578694343566895e-01 -2.147455364465713501e-01 -7.139624357223510742e-01
3.805000000000000000e+03 6.738452434539794922e+00 -9.277057647705078125e+00 -1.176466345787048340e-01 -3.613032698631286621e-01 -1.436849683523178101e-01 -4.329334199428558350e-01
3.806000000000000000e+03 7.176101684570312500e+01 -9.159515380859375000e+00 3.651729226112365723e-02 6.625322818756103516e+00 1.998551964759826660e+00 3.127496540546417236e-01
3.807000000000000000e+03 7.026872253417968750e+01 -3.151973247528076172e+00 5.151550844311714172e-02 6.423234462738037109e+00 1.942425012588500977e+00 4.031243920326232910e-01
3.808000000000000000e+03 7.167324066162109375e+01 -7.780172824859619141e+00 3.887763991951942444e-02 6.643816947937011719e+00 2.004808425903320312e+00 3.281643688678741455e-01
3.809000000000000000e+03 7.058958435058593750e+01 -1.060685157775878906e+01 4.351002722978591919e-02 6.337749958038330078e+00 1.914377927780151367e+00 3.282467722892761230e-01
3.810000000000000000e+03 7.219864654541015625e+01 5.959901332855224609e+00 -2.541597932577133179e-02 7.228555679321289062e+00 2.160941839218139648e+00 3.867665827274322510e-01
3.811000000000000000e+03 7.061590576171875000e+01 3.821888923645019531e+00 -3.697942709550261497e-03 6.699919700622558594e+00 2.008866548538208008e+00 4.452773630619049072e-01
3.812000000000000000e+03 7.006829071044921875e+01 -2.340978622436523438e+01 2.937948703765869141e-02 5.998798370361328125e+00 1.808453321456909180e+00 2.561694383621215820e-01
3.813000000000000000e+03 7.024053955078125000e+01 -2.634387588500976562e+01 3.438730537891387939e-02 5.994555950164794922e+00 1.808683037757873535e+00 2.370597273111343384e-01
3.814000000000000000e+03 1.213821506500244141e+01 -8.567645072937011719e+00 -2.087138295173645020e-01 -5.534453988075256348e-01 -2.286477535963058472e-01 -7.300222516059875488e-01
3.815000000000000000e+03 9.947629928588867188e+00 -7.519836425781250000e+00 -2.632467150688171387e-01 -3.411866426467895508e-01 -1.813300102949142456e-01 -5.682194828987121582e-01
3.816000000000000000e+03 7.027794647216796875e+01 -1.695429039001464844e+01 2.711595594882965088e-02 6.165536880493164062e+00 1.857795834541320801e+00 2.878942787647247314e-01
3.817000000000000000e+03 7.260059833526611328e+00 1.669148826599121094e+01 3.774820826947689056e-03 -2.125124260783195496e-02 -5.242926534265279770e-03 -2.248885296285152435e-02
3.818000000000000000e+03 7.254085540771484375e+01 2.847834014892578125e+01 -4.248643815517425537e-01 1.039497470855712891e+01 2.991033077239990234e+00 -1.404394149780273438e+00
3.819000000000000000e+03 7.178039550781250000e+01 2.671294784545898438e+01 -1.023225188255310059e+00 1.011094188690185547e+01 2.726315021514892578e+00 -7.294826507568359375e-01
3.820000000000000000e+03 7.474773406982421875e+00 1.162920570373535156e+01 4.408603906631469727e-02 -1.916151307523250580e-02 7.477357517927885056e-03 -1.603554934263229370e-02
3.821000000000000000e+03 8.114686965942382812e+00 1.380064868927001953e+01 2.118883281946182251e-02 5.943118128925561905e-03 8.139585144817829132e-03 -2.007308043539524078e-02
3.822000000000000000e+03 7.298562622070312500e+01 1.870726966857910156e+01 -4.934810698032379150e-01 8.230463981628417969e+00 2.321094751358032227e+00 -4.286746680736541748e-02
3.823000000000000000e+03 7.290977478027343750e+01 1.624016761779785156e+01 -3.350274562835693359e-01 7.980997562408447266e+00 2.293791055679321289e+00 1.231753379106521606e-01
3.824000000000000000e+03 7.279111480712890625e+01 1.369245147705078125e+01 -2.154327929019927979e-01 7.768463134765625000e+00 2.265909194946289062e+00 2.408902049064636230e-01
3.825000000000000000e+03 3.892406082153320312e+01 -7.904440879821777344e+00 5.013387799263000488e-01 -6.549844890832901001e-02 1.307521015405654907e-01 -1.959395827725529671e-03
3.826000000000000000e+03 7.244854736328125000e+01 8.514280319213867188e+00 -6.727027148008346558e-02 7.405133724212646484e+00 2.201359033584594727e+00 3.642731010913848877e-01
3.827000000000000000e+03 3.835068130493164062e+01 -8.885492324829101562e+00 5.096467733383178711e-01 -1.092925816774368286e-01 1.201062574982643127e-01 -3.242728486657142639e-02
3.828000000000000000e+03 7.247320556640625000e+01 3.670816040039062500e+01 9.780550003051757812e-01 1.106245994567871094e+01 3.612154483795166016e+00 1.408707737922668457e+00
3.829000000000000000e+03 1.831463432312011719e+01 -1.879932785034179688e+01 2.516933083534240723e-01 -1.883788704872131348e-01 1.899433508515357971e-02 -3.501310944557189941e-01
3.830000000000000000e+03 1.784099578857421875e+01 -1.987888908386230469e+01 2.472717911005020142e-01 -2.066399306058883667e-01 1.218955870717763901e-02 -3.601935803890228271e-01
3.831000000000000000e+03 7.189569091796875000e+01 1.742603302001953125e+01 -4.661005437374114990e-01 7.848215103149414062e+00 2.214634418487548828e+00 1.599653661251068115e-01
3.832000000000000000e+03 1.040468406677246094e+01 2.255932235717773438e+01 -8.241333067417144775e-03 1.832879520952701569e-02 3.026238642632961273e-03 -9.364129044115543365e-03
3.833000000000000000e+03 1.110571575164794922e+01 2.539869499206542969e+01 -9.646426886320114136e-03 1.507186517119407654e-02 1.627631601877510548e-03 -6.626651156693696976e-03
3.834000000000000000e+03 7.272306823730468750e+01 1.239902114868164062e+01 -1.692930608987808228e-01 7.669766902923583984e+00 2.250142097473144531e+00 2.816405892372131348e-01
3.835000000000000000e+03 7.163404083251953125e+01 1.244008731842041016e+01 -1.940076798200607300e-01 7.369846820831298828e+00 2.152751684188842773e+00 3.471690416336059570e-01
3.836000000000000000e+03 6.954998016357421875e+01 4.205699920654296875e+00 7.001166231930255890e-04 6.416435241699218750e+00 1.925140500068664551e+00 4.823363125324249268e-01
3.837000000000000000e+03 1.529948806762695312e+01 -1.647844696044921875e+01 2.450191229581832886e-01 -4.666276276111602783e-01 -6.648255139589309692e-02 -4.330195784568786621e-01
3.838000000000000000e+03 7.095708465576171875e+01 -1.511027574539184570e+00 3.565652668476104736e-02 6.629743576049804688e+00 1.999620079994201660e+00 4.037493169307708740e-01
3.839000000000000000e+03 1.128024291992187500e+01 3.000792312622070312e+01 -9.127268567681312561e-03 2.875413978472352028e-03 -1.875556306913495064e-03 -5.412600934505462646e-03
3.840000000000000000e+03 7.893943786621093750e+00 -1.175950336456298828e+01 -2.702982537448406219e-02 -5.194604992866516113e-01 -1.639470905065536499e-01 -5.102866888046264648e-01
3.841000000000000000e+03 6.969204711914062500e+01 4.042078018188476562e+01 -2.049334764480590820e+00 1.213950347900390625e+01 3.027050733566284180e+00 -8.164031803607940674e-02
3.842000000000000000e+03 6.884359359741210938e+00 -1.573167896270751953e+01 5.524956807494163513e-02 -6.750765442848205566e-01 -1.859481036663055420e-01 -4.224135875701904297e-01
3.843000000000000000e+03 9.032968521118164062e+00 1.703317260742187500e+01 2.841097535565495491e-03 2.001943811774253845e-02 6.858160253614187241e-03 -1.630929298698902130e-02
3.844000000000000000e+03 4.072820663452148438e+01 -8.627166748046875000e+00 4.647940993309020996e-01 1.696399748325347900e-01 1.903302222490310669e-01 1.641081459820270538e-02
3.845000000000000000e+03 8.302358627319335938e+00 -1.697969245910644531e+01 9.344568103551864624e-02 -6.883904933929443359e-01 -1.784834414720535278e-01 -4.424113631248474121e-01
3.846000000000000000e+03 8.698832511901855469e+00 -2.254721641540527344e+01 1.092827394604682922e-01 -7.801008224487304688e-01 -2.012454271316528320e-01 -3.372409641742706299e-01
3.847000000000000000e+03 8.537905693054199219e+00 -1.976998901367187500e+01 1.026157438755035400e-01 -7.355900406837463379e-01 -1.898922920227050781e-01 -3.904612660408020020e-01
3.848000000000000000e+03 1.437182521820068359e+01 9.001917839050292969e+00 6.178615987300872803e-02 2.775169014930725098e-01 1.017909198999404907e-01 9.016112238168716431e-02
3.849000000000000000e+03 1.659267044067382812e+01 -2.125032615661621094e+01 2.317719161510467529e-01 -2.873545587062835693e-01 -1.667478866875171661e-02 -3.690572082996368408e-01
3.850000000000000000e+03 1.990957069396972656e+01 -2.234051322937011719e+01 2.381690591573715210e-01 1.412670779973268509e-02 7.568872720003128052e-02 -3.430191576480865479e-01
3.851000000000000000e+03 7.057615661621093750e+01 -2.238516044616699219e+01 2.682240121066570282e-02 6.103171348571777344e+00 1.838998198509216309e+00 2.516402900218963623e-01
3.852000000000000000e+03 1.463677883148193359e+01 9.696244239807128906e+00 5.990763381123542786e-02 2.494489848613739014e-01 9.280698746442794800e-02 8.727356791496276855e-02
3.853000000000000000e+03 7.109858989715576172e+00 1.269213485717773438e+01 3.186295926570892334e-02 -2.477343566715717316e-02 2.126856939867138863e-03 -1.840937696397304535e-02
3.854000000000000000e+03 8.889171600341796875e+00 2.232164382934570312e+01 -7.726726587861776352e-03 -5.290801636874675751e-03 -3.905258374288678169e-03 -1.559785008430480957e-02
3.855000000000000000e+03 1.469816684722900391e+01 -1.336045169830322266e+01 1.960344165563583374e-01 -5.786048769950866699e-01 -1.147711351513862610e-01 -5.236483216285705566e-01
3.856000000000000000e+03 4.282192230224609375e+01 -1.212947368621826172e+01 3.464230298995971680e-01 5.548714995384216309e-01 2.703883647918701172e-01 1.703160628676414490e-02
3.857000000000000000e+03 4.874700927734375000e+01 -2.480910682678222656e+01 -8.079500496387481689e-02 1.938443064689636230e+00 5.572944283485412598e-01 1.227532923221588135e-01
3.858000000000000000e+03 4.223905181884765625e+01 -1.484245586395263672e+01 2.328791320323944092e-01 4.820236861705780029e-01 2.144708484411239624e-01 -4.667046945542097092e-03
3.859000000000000000e+03 4.275134277343750000e+01 -1.096677398681640625e+01 3.871507048606872559e-01 5.134036540985107422e-01 2.701663076877593994e-01 2.203186787664890289e-02
3.860000000000000000e+03 8.791069030761718750e+00 -2.394778060913085938e+01 1.043548807501792908e-01 -7.910374999046325684e-01 -2.060047835111618042e-01 -3.042688369750976562e-01
3.861000000000000000e+03 8.304969787597656250e+00 1.493098068237304688e+01 1.307091768831014633e-02 9.711924940347671509e-03 6.834852974861860275e-03 -2.094705402851104736e-02
3.862000000000000000e+03 3.348215484619140625e+01 -3.683864831924438477e+00 5.468952059745788574e-01 -5.359612703323364258e-01 3.280184231698513031e-03 -1.282897661440074444e-03
3.863000000000000000e+03 7.242972564697265625e+01 2.407354354858398438e+01 -9.634622335433959961e-01 9.129685401916503906e+00 2.449867010116577148e+00 -5.168123841285705566e-01
3.864000000000000000e+03 9.127209663391113281e+00 2.075654220581054688e+01 -6.684813648462295532e-03 5.646413192152976990e-03 -3.115202125627547503e-04 -1.526902336627244949e-02
3.865000000000000000e+03 8.306344985961914062e+00 1.924558448791503906e+01 -4.151463042944669724e-03 -5.328211933374404907e-03 -2.843902446329593658e-03 -1.876504719257354736e-02
3.866000000000000000e+03 7.174351501464843750e+01 2.263632011413574219e+01 -9.280529022216796875e-01 8.716746330261230469e+00 2.336607933044433594e+00 -1.581104546785354614e-01
3.867000000000000000e+03 7.100059509277343750e+01 -2.154680252075195312e+01 1.786023750901222229e-02 6.201360702514648438e+00 1.865766286849975586e+00 2.621558010578155518e-01
3.868000000000000000e+03 8.199004173278808594e+00 1.193418693542480469e+01 4.123568534851074219e-02 9.153589606285095215e-03 1.511678285896778107e-02 -2.069710195064544678e-02
3.869000000000000000e+03 2.155130577087402344e+01 -2.795125198364257812e+01 2.739551067352294922e-01 1.361226886510848999e-01 1.230233386158943176e-01 -3.387766778469085693e-01
3.870000000000000000e+03 7.148935699462890625e+01 -2.225827598571777344e+01 1.539446599781513214e-02 6.268803119659423828e+00 1.885259270668029785e+00 2.504185438156127930e-01
3.871000000000000000e+03 1.022765064239501953e+01 2.437446784973144531e+01 -8.856790140271186829e-03 8.070127107203006744e-03 -2.359990903642028570e-04 -9.956227615475654602e-03
3.872000000000000000e+03 6.929016876220703125e+01 -2.992214965820312500e+01 5.256561189889907837e-02 5.766761779785156250e+00 1.745798230171203613e+00 2.370498478412628174e-01
3.873000000000000000e+03 2.053627395629882812e+01 -2.658484268188476562e+01 2.650669217109680176e-01 4.554120823740959167e-02 9.318244457244873047e-02 -3.350895941257476807e-01
3.874000000000000000e+03 7.030367279052734375e+01 -1.421200561523437500e+01 3.245730325579643250e-02 6.210335254669189453e+00 1.872837781906127930e+00 2.973820865154266357e-01
3.875000000000000000e+03 4.871626663208007812e+01 -2.255745124816894531e+01 -4.066013544797897339e-02 1.870546102523803711e+00 5.489658117294311523e-01 9.664891660213470459e-02
3.876000000000000000e+03 7.105391693115234375e+01 6.123654365539550781e+00 -2.633173763751983643e-02 6.921542167663574219e+00 2.068563222885131836e+00 4.305504262447357178e-01
3.877000000000000000e+03 6.954162597656250000e+01 -1.810367012023925781e+01 2.601057477295398712e-02 5.989027023315429688e+00 1.804511308670043945e+00 2.938806116580963135e-01
3.878000000000000000e+03 2.156825447082519531e+01 -3.101079177856445312e+01 2.974751293659210205e-01 1.023912802338600159e-01 1.199599280953407288e-01 -2.999291419982910156e-01
3.879000000000000000e+03 7.058616638183593750e+01 -9.319075584411621094e+00 4.895532503724098206e-02 6.375780582427978516e+00 1.927420854568481445e+00 3.424441516399383545e-01
3.880000000000000000e+03 7.154134368896484375e+01 1.116322326660156250e+01 -1.497425138950347900e-01 7.270296573638916016e+00 2.136166334152221680e+00 3.714340925216674805e-01
3.881000000000000000e+03 7.143005371093750000e+01 9.886010169982910156e+00 -1.124946326017379761e-01 7.176267623901367188e+00 2.119131803512573242e+00 3.951291739940643311e-01
3.882000000000000000e+03 9.707084655761718750e+00 -2.867152976989746094e+01 1.077051684260368347e-01 -7.993254661560058594e-01 -2.074860930442810059e-01 -2.352740913629531860e-01
3.883000000000000000e+03 6.575247955322265625e+01 3.783377456665039062e+01 4.099458754062652588e-01 6.314425468444824219e+00 2.017311334609985352e+00 -3.128238201141357422e+00
3.884000000000000000e+03 7.034345245361328125e+01 -2.773357391357421875e+01 4.250263050198554993e-02 6.012894630432128906e+00 1.816619157791137695e+00 2.387786060571670532e-01
3.885000000000000000e+03 2.294140243530273438e+01 -3.458124923706054688e+01 3.807677626609802246e-01 1.653014421463012695e-01 1.638207584619522095e-01 -2.462958544492721558e-01
3.886000000000000000e+03 8.597010612487792969e+00 -2.117197608947753906e+01 1.131855770945549011e-01 -7.523750662803649902e-01 -1.917568445205688477e-01 -3.588027954101562500e-01
3.887000000000000000e+03 7.320492267608642578e+00 -2.266196632385253906e+01 8.297486603260040283e-02 -8.489333987236022949e-01 -2.297875583171844482e-01 -3.017492592334747314e-01
3.888000000000000000e+03 2.710117530822753906e+01 2.433435440063476562e+00 -1.963235259056091309e+00 -7.126836776733398438e-01 -8.027756810188293457e-01 -7.404631376266479492e-01
3.889000000000000000e+03 6.643655395507812500e+01 3.107561492919921875e+01 7.173970341682434082e-01 8.318623542785644531e+00 2.710806369781494141e+00 4.885002136230468750e+00
3.890000000000000000e+03 6.612245941162109375e+01 3.046477317810058594e+01 5.010909438133239746e-01 7.191009044647216797e+00 2.307630062103271484e+00 4.237224102020263672e+00
3.891000000000000000e+03 2.822635841369628906e+01 3.353695631027221680e+00 -2.015252113342285156e+00 -9.215434789657592773e-01 -8.810386657714843750e-01 -8.118856549263000488e-01
3.892000000000000000e+03 2.557115936279296875e+01 1.837302923202514648e+00 -2.214999675750732422e+00 -4.611725509166717529e-01 -8.028516769409179688e-01 -8.079345822334289551e-01
3.893000000000000000e+03 6.740075683593750000e+01 3.134014129638671875e+01 -2.140498012304306030e-01 1.331420326232910156e+01 3.930046081542968750e+00 4.380390167236328125e+00
3.894000000000000000e+03 2.867601394653320312e+01 4.113793373107910156e+00 -2.111239910125732422e+00 -1.113570928573608398e+00 -9.674432277679443359e-01 -9.664017558097839355e-01
3.895000000000000000e+03 2.809793472290039062e+01 2.304394245147705078e+00 -1.640063762664794922e+00 -7.607190012931823730e-01 -7.202348113059997559e-01 -5.303928852081298828e-01
3.896000000000000000e+03 3.012585067749023438e+01 -1.221963286399841309e+00 1.773529201745986938e-01 -5.935443639755249023e-01 -1.248574256896972656e-01 1.807251758873462677e-02
3.897000000000000000e+03 1.770044708251953125e+01 1.288240909576416016e+01 6.502047926187515259e-02 1.668690145015716553e-01 6.956684589385986328e-02 1.019283160567283630e-01
3.898000000000000000e+03 2.885452461242675781e+01 4.298899650573730469e+00 -2.092980623245239258e+00 -1.166175127029418945e+00 -9.777467250823974609e-01 -9.768287539482116699e-01
3.899000000000000000e+03 6.838851165771484375e+01 3.154962158203125000e+01 -2.404418289661407471e-01 1.648804092407226562e+01 4.874279499053955078e+00 1.178388714790344238e+00
3.900000000000000000e+03 4.111402511596679688e+01 1.811767196655273438e+01 -1.016939759254455566e+00 -1.035020351409912109e+00 -6.155880689620971680e-01 -1.134099721908569336e+00
3.901000000000000000e+03 4.204444885253906250e+01 1.911692237854003906e+01 -9.994604587554931641e-01 -1.030697464942932129e+00 -6.090473532676696777e-01 -1.123571634292602539e+00
3.902000000000000000e+03 6.810201263427734375e+01 3.169496726989746094e+01 -3.153922557830810547e-01 1.686647033691406250e+01 4.965323448181152344e+00 2.245515108108520508e+00
3.903000000000000000e+03 4.108814239501953125e+01 1.855521583557128906e+01 -1.036499857902526855e+00 -1.071962833404541016e+00 -6.325387954711914062e-01 -1.170659184455871582e+00
3.904000000000000000e+03 4.308303451538085938e+01 1.956201362609863281e+01 -9.633627533912658691e-01 -9.649586081504821777e-01 -5.784963965415954590e-01 -1.050378084182739258e+00
3.905000000000000000e+03 1.512313556671142578e+01 9.661244392395019531e+00 6.855250895023345947e-02 2.494888901710510254e-01 9.541241824626922607e-02 1.052179187536239624e-01
3.906000000000000000e+03 4.795043945312500000e+01 2.485986328125000000e+01 -1.094644308090209961e+00 -7.652591466903686523e-01 -5.579710006713867188e-01 -9.809141159057617188e-01
3.907000000000000000e+03 2.793975067138671875e+01 2.174711036682128906e+01 5.450228974223136902e-02 9.036383032798767090e-02 4.345983639359474182e-02 7.248784601688385010e-02
3.908000000000000000e+03 2.870891571044921875e+01 2.194832038879394531e+01 5.510228872299194336e-02 8.740163594484329224e-02 4.275117814540863037e-02 7.257134467363357544e-02
3.909000000000000000e+03 1.947001075744628906e+01 1.310719203948974609e+01 8.346728235483169556e-02 1.521175056695938110e-01 7.067543268203735352e-02 1.123282611370086670e-01
3.910000000000000000e+03 1.860944366455078125e+01 1.300171852111816406e+01 7.623703032732009888e-02 1.596043407917022705e-01 7.075241208076477051e-02 1.078239083290100098e-01
3.911000000000000000e+03 4.373962402343750000e+01 2.135612869262695312e+01 -1.108323693275451660e+00 -1.058053016662597656e+00 -6.499130129814147949e-01 -1.115089297294616699e+00
3.912000000000000000e+03 7.258247375488281250e+01 2.948068046569824219e+01 8.619340509176254272e-02 1.056196594238281250e+01 3.194447755813598633e+00 -1.626877307891845703e+00
3.913000000000000000e+03 6.999235534667968750e+01 3.200489425659179688e+01 2.480816364288330078e+00 1.444405746459960938e+01 5.077462196350097656e+00 -1.943844676017761230e+00
3.914000000000000000e+03 4.047994995117187500e+01 1.722029685974121094e+01 -1.028209805488586426e+00 -1.030784010887145996e+00 -6.176981329917907715e-01 -1.105154156684875488e+00
3.915000000000000000e+03 7.109051513671875000e+01 3.510795593261718750e+01 3.766731739044189453e+00 1.235063934326171875e+01 4.835211277008056641e+00 1.484954476356506348e+00
3.916000000000000000e+03 6.862447357177734375e+01 3.119198989868164062e+01 -4.158020913600921631e-01 1.546732521057128906e+01 4.515456676483154297e+00 8.584380149841308594e-01
3.917000000000000000e+03 2.278141784667968750e+01 1.704387474060058594e+01 6.700710207223892212e-02 1.193144544959068298e-01 5.589646473526954651e-02 9.085953235626220703e-02
3.918000000000000000e+03 6.806848144531250000e+01 3.088658905029296875e+01 -8.090427517890930176e-01 1.416183757781982422e+01 4.005838394165039062e+00 2.411593675613403320e+00
3.919000000000000000e+03 4.627121353149414062e+01 2.359125328063964844e+01 -1.156898856163024902e+00 -9.256763458251953125e-01 -6.247725486755371094e-01 -1.042630553245544434e+00
3.920000000000000000e+03 4.729492950439453125e+01 2.366518020629882812e+01 -1.057577013969421387e+00 -7.397996783256530762e-01 -5.392130017280578613e-01 -9.353938102722167969e-01
3.921000000000000000e+03 2.375606727600097656e+01 1.837491607666015625e+01 6.204521656036376953e-02 1.112196743488311768e-01 5.197946727275848389e-02 8.418646454811096191e-02
3.922000000000000000e+03 2.035632896423339844e+01 1.341156005859375000e+01 9.007163345813751221e-02 1.452090293169021606e-01 7.058420032262802124e-02 1.134245395660400391e-01
3.923000000000000000e+03 1.985372734069824219e+01 1.394327354431152344e+01 7.828893512487411499e-02 1.459887623786926270e-01 6.728330999612808228e-02 1.051799356937408447e-01
3.924000000000000000e+03 3.706705474853515625e+01 1.376041316986083984e+01 -1.099567890167236328e+00 -1.217479348182678223e+00 -6.951141953468322754e-01 -1.131528496742248535e+00
3.925000000000000000e+03 3.631284713745117188e+01 1.346479511260986328e+01 -1.151839375495910645e+00 -1.278919696807861328e+00 -7.292277216911315918e-01 -1.181706547737121582e+00
3.926000000000000000e+03 2.033312225341796875e+01 1.388097667694091797e+01 8.446045964956283569e-02 1.428288817405700684e-01 6.818680465221405029e-02 1.079958826303482056e-01
3.927000000000000000e+03 2.095505142211914062e+01 1.412393379211425781e+01 8.674729615449905396e-02 1.380182355642318726e-01 6.742966175079345703e-02 1.077575758099555969e-01
3.928000000000000000e+03 3.560023498535156250e+01 1.264233589172363281e+01 -1.163782119750976562e+00 -1.280033588409423828e+00 -7.331447005271911621e-01 -1.176422357559204102e+00
3.929000000000000000e+03 4.426760864257812500e+01 2.134576225280761719e+01 -1.061503291130065918e+00 -9.894971847534179688e-01 -6.153001189231872559e-01 -1.057901859283447266e+00
3.930000000000000000e+03 2.104156494140625000e+01 1.500905513763427734e+01 7.684262096881866455e-02 1.344496458768844604e-01 6.338767707347869873e-02 9.982015937566757202e-02
3.931000000000000000e+03 3.156943130493164062e+01 2.647492408752441406e+01 4.481315612792968750e-02 7.699838280677795410e-02 3.654346242547035217e-02 5.955922603607177734e-02
3.932000000000000000e+03 4.999406051635742188e+01 2.730248641967773438e+01 -1.134336709976196289e+00 -6.807653307914733887e-01 -5.445306301116943359e-01 -9.408397674560546875e-01
3.933000000000000000e+03 4.830926513671875000e+01 2.639377593994140625e+01 -1.188557386398315430e+00 -9.068948030471801758e-01 -6.286356449127197266e-01 -1.093071699142456055e+00
3.934000000000000000e+03 2.322598075866699219e+01 1.764259147644042969e+01 6.445187330245971680e-02 1.151044666767120361e-01 5.386690050363540649e-02 8.789592981338500977e-02
3.935000000000000000e+03 7.120397949218750000e+01 3.225097274780273438e+01 2.899321317672729492e+00 1.210202217102050781e+01 4.500403404235839844e+00 -1.734874963760375977e+00
3.936000000000000000e+03 7.040315246582031250e+01 3.260810089111328125e+01 4.088477134704589844e+00 1.340139961242675781e+01 5.246963024139404297e+00 -1.869987130165100098e+00
3.937000000000000000e+03 3.538107681274414062e+01 1.232271385192871094e+01 -1.167768836021423340e+00 -1.273265123367309570e+00 -7.323101758956909180e-01 -1.167724013328552246e+00
3.938000000000000000e+03 4.454484176635742188e+01 2.158205032348632812e+01 -1.066188335418701172e+00 -9.785974621772766113e-01 -6.134357452392578125e-01 -1.047237753868103027e+00
3.939000000000000000e+03 2.547012710571289062e+01 1.877988624572753906e+01 6.863870471715927124e-02 1.038022935390472412e-01 5.173230171203613281e-02 8.418508619070053101e-02
3.940000000000000000e+03 1.561111354827880859e+01 9.830280303955078125e+00 7.554917782545089722e-02 2.391638457775115967e-01 9.441390633583068848e-02 1.148395240306854248e-01
3.941000000000000000e+03 3.964060592651367188e+01 1.693159294128417969e+01 -1.081325173377990723e+00 -1.133025765419006348e+00 -6.643053293228149414e-01 -1.143979191780090332e+00
3.942000000000000000e+03 3.358626556396484375e+01 2.776904487609863281e+01 4.651836678385734558e-02 7.242091745138168335e-02 3.568178415298461914e-02 5.705308914184570312e-02
3.943000000000000000e+03 4.928014373779296875e+01 2.713461685180664062e+01 -1.178174376487731934e+00 -8.186594247817993164e-01 -5.990501642227172852e-01 -1.029294371604919434e+00
3.944000000000000000e+03 4.275406646728515625e+01 2.040924644470214844e+01 -1.064650893211364746e+00 -1.082338452339172363e+00 -6.440967917442321777e-01 -1.139221668243408203e+00
3.945000000000000000e+03 4.373373794555664062e+01 2.086231231689453125e+01 -1.046553730964660645e+00 -1.008268356323242188e+00 -6.164466142654418945e-01 -1.074104785919189453e+00
3.946000000000000000e+03 2.516741180419921875e+01 4.414693415164947510e-01 -1.084456324577331543e+00 4.220976494252681732e-03 -3.240706324577331543e-01 -4.346921145915985107e-01
3.947000000000000000e+03 2.534801864624023438e+01 9.094766378402709961e-01 -1.458656907081604004e+00 -1.520284861326217651e-01 -4.832056164741516113e-01 -5.352852344512939453e-01
3.948000000000000000e+03 2.576506233215332031e+01 1.700381517410278320e+00 -2.100819587707519531e+00 -4.021341800689697266e-01 -7.508861422538757324e-01 -7.237515449523925781e-01
3.949000000000000000e+03 3.338567352294921875e+01 2.847765350341796875e+01 4.328959435224533081e-02 7.275033742189407349e-02 3.481198102235794067e-02 5.536025762557983398e-02
3.950000000000000000e+03 3.426027297973632812e+01 2.905699157714843750e+01 4.615532979369163513e-02 7.261740416288375854e-02 3.563182055950164795e-02 5.288427695631980896e-02
3.951000000000000000e+03 5.176184082031250000e+01 2.789119720458984375e+01 -1.049297451972961426e+00 -2.930269241333007812e-01 -4.026972949504852295e-01 -7.692990899085998535e-01
3.952000000000000000e+03 5.076128768920898438e+01 2.826841735839843750e+01 -1.164562702178955078e+00 -6.125072240829467773e-01 -5.331209897994995117e-01 -9.186106920242309570e-01
3.953000000000000000e+03 2.676579856872558594e+01 2.019023323059082031e+01 6.166810542345046997e-02 9.665063023567199707e-02 4.749562218785285950e-02 7.862942665815353394e-02
3.954000000000000000e+03 2.629187011718750000e+01 2.053825759887695312e+01 5.634058266878128052e-02 9.824723750352859497e-02 4.637634754180908203e-02 7.642086595296859741e-02
3.955000000000000000e+03 2.813137245178222656e+01 2.954819202423095703e+00 -1.880735993385314941e+00 -8.417650461196899414e-01 -8.167502880096435547e-01 -7.184886336326599121e-01
3.956000000000000000e+03 2.400083923339843750e+01 1.806638526916503906e+01 6.604130566120147705e-02 1.104649230837821960e-01 5.295186862349510193e-02 8.649753034114837646e-02
3.957000000000000000e+03 2.519843292236328125e+01 1.851641654968261719e+01 6.965773552656173706e-02 1.050169989466667175e-01 5.240242183208465576e-02 8.528573811054229736e-02
3.958000000000000000e+03 2.562689781188964844e+01 -1.472536623477935791e-01 -4.777400195598602295e-01 -1.376753300428390503e-01 -1.846246123313903809e-01 -3.116903305053710938e-01
3.959000000000000000e+03 4.297301101684570312e+01 2.065252685546875000e+01 -1.080510139465332031e+00 -1.079806327819824219e+00 -6.480949521064758301e-01 -1.133334994316101074e+00
3.960000000000000000e+03 3.728139495849609375e+01 1.407005596160888672e+01 -1.102325558662414551e+00 -1.221555829048156738e+00 -6.971644163131713867e-01 -1.134961843490600586e+00
3.961000000000000000e+03 4.953721618652343750e+01 2.738339424133300781e+01 -1.180809259414672852e+00 -7.937302589416503906e-01 -5.923618674278259277e-01 -1.007869958877563477e+00
3.962000000000000000e+03 2.601759910583496094e+01 4.285289645195007324e-01 -9.077288508415222168e-01 -2.813220322132110596e-01 -3.567152619361877441e-01 -3.377287685871124268e-01
3.963000000000000000e+03 2.138684654235839844e+01 1.491853427886962891e+01 8.081535995006561279e-02 1.332894116640090942e-01 6.423143297433853149e-02 1.014206260442733765e-01
3.964000000000000000e+03 4.600207901000976562e+01 2.335332298278808594e+01 -1.155398249626159668e+00 -9.481498599052429199e-01 -6.310644149780273438e-01 -1.047749757766723633e+00
3.965000000000000000e+03 4.672367477416992188e+01 2.354035758972167969e+01 -1.099972963333129883e+00 -8.383406400680541992e-01 -5.814940929412841797e-01 -9.876571893692016602e-01
3.966000000000000000e+03 3.750330352783203125e+01 1.434733104705810547e+01 -1.094679594039916992e+00 -1.219934701919555664e+00 -6.943842768669128418e-01 -1.136176228523254395e+00
3.967000000000000000e+03 5.094094085693359375e+01 2.790470695495605469e+01 -1.114304661750793457e+00 -5.141670703887939453e-01 -4.885415136814117432e-01 -8.666960000991821289e-01
3.968000000000000000e+03 5.301487350463867188e+01 2.850555801391601562e+01 -1.014118909835815430e+00 -2.366687357425689697e-02 -3.113357424736022949e-01 -6.954427361488342285e-01
3.969000000000000000e+03 2.160067367553710938e+01 1.555587863922119141e+01 7.435512542724609375e-02 1.304029822349548340e-01 6.142743304371833801e-02 9.700139611959457397e-02
3.970000000000000000e+03 3.775582122802734375e+01 1.459664535522460938e+01 -1.092795610427856445e+00 -1.214843988418579102e+00 -6.922918558120727539e-01 -1.128980040550231934e+00
3.971000000000000000e+03 3.943865966796875000e+01 1.670357704162597656e+01 -1.085647225379943848e+00 -1.141492009162902832e+00 -6.681417822837829590e-01 -1.137400984764099121e+00
3.972000000000000000e+03 4.152939224243164062e+01 1.809640884399414062e+01 -9.831649065017700195e-01 -9.843646883964538574e-01 -5.902588963508605957e-01 -1.095651984214782715e+00
3.973000000000000000e+03 3.802336883544921875e+01 1.483310794830322266e+01 -1.083381533622741699e+00 -1.199293851852416992e+00 -6.848026514053344727e-01 -1.123351216316223145e+00
3.974000000000000000e+03 2.608711814880371094e+01 2.016736412048339844e+01 5.851998925209045410e-02 1.000331491231918335e-01 4.756594076752662659e-02 7.778239250183105469e-02
3.975000000000000000e+03 2.564672470092773438e+01 1.957351303100585938e+01 6.175781041383743286e-02 1.022185310721397400e-01 4.919290170073509216e-02 7.997982203960418701e-02
3.976000000000000000e+03 4.347803878784179688e+01 2.063057518005371094e+01 -1.043058037757873535e+00 -1.019232034683227539e+00 -6.186870336532592773e-01 -1.082154631614685059e+00
3.977000000000000000e+03 4.511536407470703125e+01 2.207175254821777344e+01 -1.075470447540283203e+00 -9.490533471107482910e-01 -6.073571443557739258e-01 -1.026904225349426270e+00
3.978000000000000000e+03 4.894804000854492188e+01 2.634516906738281250e+01 -1.124793529510498047e+00 -7.743957042694091797e-01 -5.697567462921142578e-01 -9.975637197494506836e-01
3.979000000000000000e+03 1.404240608215332031e+01 8.237441062927246094e+00 6.761614233255386353e-02 3.165381550788879395e-01 1.152462884783744812e-01 8.384694904088973999e-02
3.980000000000000000e+03 3.858134078979492188e+01 1.530677223205566406e+01 -1.070269346237182617e+00 -1.160702586174011230e+00 -6.692915558815002441e-01 -1.104569196701049805e+00
3.981000000000000000e+03 1.955218315124511719e+01 1.370689868927001953e+01 7.699055969715118408e-02 1.480165123939514160e-01 6.750211864709854126e-02 1.057329773902893066e-01
3.982000000000000000e+03 2.460528945922851562e+01 6.731133460998535156e-01 -1.405967116355895996e+00 -7.880400866270065308e-02 -4.454313516616821289e-01 -6.573840975761413574e-01
3.983000000000000000e+03 5.061450576782226562e+01 2.769566154479980469e+01 -1.119627952575683594e+00 -5.753899216651916504e-01 -5.085053443908691406e-01 -8.899140954017639160e-01
3.984000000000000000e+03 5.439062500000000000e+01 2.898355865478515625e+01 -9.529162645339965820e-01 2.512796521186828613e-01 -2.104909718036651611e-01 -6.406018733978271484e-01
3.985000000000000000e+03 5.475303649902343750e+01 3.009618186950683594e+01 -1.070452928543090820e+00 2.375636100769042969e-01 -2.498667985200881958e-01 -7.093592286109924316e-01
3.986000000000000000e+03 4.952806472778320312e+01 2.630257797241210938e+01 -1.072149991989135742e+00 -6.447131633758544922e-01 -5.150589346885681152e-01 -9.175781011581420898e-01
3.987000000000000000e+03 4.971471023559570312e+01 2.712482833862304688e+01 -1.139474749565124512e+00 -7.232062816619873047e-01 -5.588042736053466797e-01 -9.610962867736816406e-01
3.988000000000000000e+03 3.893313980102539062e+01 1.614220237731933594e+01 -1.093819856643676758e+00 -1.178196430206298828e+00 -6.816048622131347656e-01 -1.133753418922424316e+00
3.989000000000000000e+03 2.084221076965332031e+01 1.451366615295410156e+01 8.055732399225234985e-02 1.373900175094604492e-01 6.538420170545578003e-02 1.034686639904975891e-01
3.990000000000000000e+03 2.097081565856933594e+01 1.473774909973144531e+01 7.924763858318328857e-02 1.353076100349426270e-01 6.436657160520553589e-02 1.015366688370704651e-01
3.991000000000000000e+03 2.898106384277343750e+01 4.020264625549316406e+00 -1.969906091690063477e+00 -1.060760498046875000e+00 -9.092000126838684082e-01 -8.377027511596679688e-01
3.992000000000000000e+03 2.489956855773925781e+01 1.879046058654785156e+01 6.527183204889297485e-02 1.059195995330810547e-01 5.135742947459220886e-02 8.350140601396560669e-02
3.993000000000000000e+03 3.333731842041015625e+01 9.950467109680175781e+00 -1.200118303298950195e+00 -1.249478697776794434e+00 -7.348790764808654785e-01 -1.151285290718078613e+00
3.994000000000000000e+03 3.349322509765625000e+01 9.281060218811035156e+00 -1.155359148979187012e+00 -1.176481962203979492e+00 -6.995523571968078613e-01 -1.086096882820129395e+00
3.995000000000000000e+03 4.245634078979492188e+01 1.900621223449707031e+01 -9.605854153633117676e-01 -9.708530902862548828e-01 -5.794315338134765625e-01 -1.072252750396728516e+00
3.996000000000000000e+03 4.117411422729492188e+01 1.767201042175292969e+01 -9.942231774330139160e-01 -9.876793622970581055e-01 -5.945707559585571289e-01 -1.091733932495117188e+00
3.997000000000000000e+03 4.572766876220703125e+01 2.310485458374023438e+01 -1.149902820587158203e+00 -9.678668379783630371e-01 -6.353308558464050293e-01 -1.053329825401306152e+00
3.998000000000000000e+03 1.664051437377929688e+01 1.045918369293212891e+01 8.365313708782196045e-02 2.092666178941726685e-01 8.787592500448226929e-02 1.222119852900505066e-01
3.999000000000000000e+03 1.491426849365234375e+01 9.408673286437988281e+00 6.519183516502380371e-02 2.573531270027160645e-01 9.676348417997360229e-02 1.028368249535560608e-01
4.000000000000000000e+03 2.934478569030761719e+01 2.310524559020996094e+01 4.886188730597496033e-02 8.473741263151168823e-02 4.007979109883308411e-02 6.942263990640640259e-02
4.001000000000000000e+03 2.919964599609375000e+01 2.267687797546386719e+01 5.262391641736030579e-02 8.541057258844375610e-02 4.141034558415412903e-02 7.002745568752288818e-02
4.002000000000000000e+03 4.322282791137695312e+01 2.042671203613281250e+01 -1.037797093391418457e+00 -1.027436256408691406e+00 -6.195699572563171387e-01 -1.093377590179443359e+00
4.003000000000000000e+03 3.609980392456054688e+01 1.269274139404296875e+01 -1.132385611534118652e+00 -1.235543131828308105e+00 -7.103786468505859375e-01 -1.136863350868225098e+00
4.004000000000000000e+03 7.192847442626953125e+01 3.095042610168457031e+01 1.085126996040344238e+00 1.126963901519775391e+01 3.706429958343505859e+00 -1.787502408027648926e+00
4.005000000000000000e+03 2.881577110290527344e+01 2.365495109558105469e+01 4.466897249221801758e-02 8.600054681301116943e-02 3.920085355639457703e-02 6.714785099029541016e-02
4.006000000000000000e+03 3.886957550048828125e+01 1.554798984527587891e+01 -1.064853191375732422e+00 -1.138551115989685059e+00 -6.610212922096252441e-01 -1.095846772193908691e+00
4.007000000000000000e+03 3.244375991821289062e+01 2.771932220458984375e+01 4.401529952883720398e-02 7.535634189844131470e-02 3.581149131059646606e-02 5.553830415010452271e-02
4.008000000000000000e+03 3.038517379760742188e+01 2.502538871765136719e+01 4.518644139170646667e-02 7.999736815690994263e-02 3.755514323711395264e-02 6.372660398483276367e-02
4.009000000000000000e+03 5.354682922363281250e+01 2.890370559692382812e+01 -1.022282481193542480e+00 6.771086901426315308e-02 -2.863714993000030518e-01 -6.892278194427490234e-01
4.010000000000000000e+03 4.253189086914062500e+01 1.937234878540039062e+01 -9.832067489624023438e-01 -1.000881075859069824e+00 -5.952263474464416504e-01 -1.091688275337219238e+00
4.011000000000000000e+03 4.233582305908203125e+01 1.869441986083984375e+01 -9.513164162635803223e-01 -9.520791769027709961e-01 -5.710186958312988281e-01 -1.063027381896972656e+00
4.012000000000000000e+03 4.035117340087890625e+01 1.691641807556152344e+01 -1.021842718124389648e+00 -1.026316404342651367e+00 -6.144477128982543945e-01 -1.086892247200012207e+00
4.013000000000000000e+03 6.482167053222656250e+01 3.027116584777832031e+01 8.517853617668151855e-01 3.967526197433471680e+00 1.445793390274047852e+00 3.186004877090454102e+00
4.014000000000000000e+03 3.916720962524414062e+01 1.579306316375732422e+01 -1.056815385818481445e+00 -1.114055037498474121e+00 -6.512610912322998047e-01 -1.090468525886535645e+00
4.015000000000000000e+03 1.833870697021484375e+01 1.159573936462402344e+01 9.171186387538909912e-02 1.733011752367019653e-01 7.950390875339508057e-02 1.256180107593536377e-01
4.016000000000000000e+03 3.301255035400390625e+01 9.582936286926269531e+00 -1.208783507347106934e+00 -1.246933937072753906e+00 -7.367152571678161621e-01 -1.149354100227355957e+00
4.017000000000000000e+03 4.540736007690429688e+01 2.232389450073242188e+01 -1.079305171966552734e+00 -9.312977790832519531e-01 -6.031808853149414062e-01 -1.015082001686096191e+00
4.018000000000000000e+03 1.923988342285156250e+01 1.347535514831542969e+01 7.745407521724700928e-02 1.521934866905212402e-01 6.889426708221435547e-02 1.066341325640678406e-01
4.019000000000000000e+03 1.364406967163085938e+01 7.919489860534667969e+00 6.637043505907058716e-02 3.348273634910583496e-01 1.203593388199806213e-01 6.335255503654479980e-02
4.020000000000000000e+03 2.122348213195800781e+01 1.561289405822753906e+01 7.054933160543441772e-02 1.317680180072784424e-01 6.069520115852355957e-02 9.512839466333389282e-02
4.021000000000000000e+03 4.694694519042968750e+01 2.336663627624511719e+01 -1.056654095649719238e+00 -7.672643065452575684e-01 -5.471755266189575195e-01 -9.424676895141601562e-01
4.022000000000000000e+03 4.625999069213867188e+01 2.308053588867187500e+01 -1.095246911048889160e+00 -8.703598976135253906e-01 -5.896820425987243652e-01 -9.912593960762023926e-01
4.023000000000000000e+03 3.525144195556640625e+01 1.171681022644042969e+01 -1.141448020935058594e+00 -1.227089166641235352e+00 -7.105611562728881836e-01 -1.127758860588073730e+00
4.024000000000000000e+03 3.570874023437500000e+01 1.214274787902832031e+01 -1.123903751373291016e+00 -1.220323681831359863e+00 -7.032682299613952637e-01 -1.121980667114257812e+00
4.025000000000000000e+03 3.654686737060546875e+01 1.317809677124023438e+01 -1.110760927200317383e+00 -1.215920567512512207e+00 -6.980044245719909668e-01 -1.133658051490783691e+00
4.026000000000000000e+03 2.172155761718750000e+01 1.667969322204589844e+01 6.314791738986968994e-02 1.256002932786941528e-01 5.662446469068527222e-02 8.908455818891525269e-02
4.027000000000000000e+03 2.171635437011718750e+01 1.628446960449218750e+01 6.684162467718124390e-02 1.268631070852279663e-01 5.811141803860664368e-02 9.183295071125030518e-02
4.028000000000000000e+03 3.259082794189453125e+01 2.710129165649414062e+01 4.518570750951766968e-02 7.571096718311309814e-02 3.626900166273117065e-02 5.756698921322822571e-02
4.029000000000000000e+03 3.249582290649414062e+01 2.677571487426757812e+01 4.469968751072883606e-02 7.499137520790100098e-02 3.590732067823410034e-02 5.995996296405792236e-02
4.030000000000000000e+03 4.570065689086914062e+01 2.257701873779296875e+01 -1.082673907279968262e+00 -9.112619757652282715e-01 -5.981807708740234375e-01 -1.005644917488098145e+00
4.031000000000000000e+03 4.650403594970703125e+01 2.332432174682617188e+01 -1.099961757659912109e+00 -8.553345799446105957e-01 -5.865889191627502441e-01 -9.886996746063232422e-01
4.032000000000000000e+03 3.325104522705078125e+01 6.707209587097167969e+00 -1.165063500404357910e+00 -9.020410776138305664e-01 -6.201313734054565430e-01 -8.905551433563232422e-01
4.033000000000000000e+03 7.126551055908203125e+01 3.259751510620117188e+01 3.401037931442260742e+00 1.188545703887939453e+01 4.585948467254638672e+00 -1.488940715789794922e+00
4.034000000000000000e+03 3.400015640258789062e+01 1.008551216125488281e+01 -1.155014157295227051e+00 -1.199311614036560059e+00 -7.062977552413940430e-01 -1.103324770927429199e+00
4.035000000000000000e+03 2.426694297790527344e+01 1.775484466552734375e+01 7.122860848903656006e-02 1.102037504315376282e-01 5.442970991134643555e-02 8.948176354169845581e-02
4.036000000000000000e+03 1.614883995056152344e+01 1.071598529815673828e+01 7.101722061634063721e-02 2.118570804595947266e-01 8.486229181289672852e-02 1.105528101325035095e-01
4.037000000000000000e+03 1.609801101684570312e+01 1.009835052490234375e+01 8.166729658842086792e-02 2.208178043365478516e-01 9.074553102254867554e-02 1.190209016203880310e-01
4.038000000000000000e+03 1.138986396789550781e+01 5.192810058593750000e+00 2.628519833087921143e-01 2.008057385683059692e-01 1.390973180532455444e-01 -1.571286320686340332e-01
4.039000000000000000e+03 1.216116142272949219e+01 5.162863731384277344e+00 2.131661772727966309e-01 3.999339938163757324e-01 1.839300543069839478e-01 -1.713296175003051758e-01
4.040000000000000000e+03 1.251000595092773438e+01 5.410424232482910156e+00 1.545698195695877075e-01 4.917694032192230225e-01 1.939017623662948608e-01 -1.276091635227203369e-01
4.041000000000000000e+03 9.169363021850585938e+00 6.678606510162353516e+00 1.787623018026351929e-01 -2.906068041920661926e-02 4.491048306226730347e-02 -2.819357812404632568e-02
4.042000000000000000e+03 3.119603538513183594e+01 2.539179420471191406e+01 4.643128812313079834e-02 7.754817605018615723e-02 3.719383850693702698e-02 6.259009987115859985e-02
4.043000000000000000e+03 7.089197540283203125e+01 3.411550521850585938e+01 5.170579910278320312e+00 1.213899421691894531e+01 5.192872047424316406e+00 3.198902010917663574e-01
4.044000000000000000e+03 1.302089214324951172e+01 5.969226360321044922e+00 8.755768090486526489e-02 5.261133313179016113e-01 1.841012984514236450e-01 -1.952311396598815918e-02
4.045000000000000000e+03 2.629044914245605469e+01 8.358496427536010742e-02 -6.214408278465270996e-01 -2.767129838466644287e-01 -2.694461643695831299e-01 -2.391242533922195435e-01
4.046000000000000000e+03 1.729291725158691406e+01 1.178876399993896484e+01 7.281790673732757568e-02 1.829391568899154663e-01 7.672712206840515137e-02 1.114433780312538147e-01
4.047000000000000000e+03 1.675719070434570312e+01 1.092938137054443359e+01 7.993887364864349365e-02 2.019356638193130493e-01 8.456236124038696289e-02 1.177832856774330139e-01
4.048000000000000000e+03 2.482566642761230469e+01 2.574757039546966553e-01 -1.068035006523132324e+00 -2.130422554910182953e-02 -3.268017768859863281e-01 -5.766233801841735840e-01
4.049000000000000000e+03 7.288540649414062500e+01 3.409093475341796875e+01 2.786654710769653320e+00 9.947713851928710938e+00 3.820310592651367188e+00 -3.964356705546379089e-02
4.050000000000000000e+03 1.524851036071777344e+01 9.956121444702148438e+00 6.813001632690429688e-02 2.362779080867767334e-01 9.132237732410430908e-02 1.059944555163383484e-01
4.051000000000000000e+03 1.495009517669677734e+01 8.848407745361328125e+00 7.513128966093063354e-02 2.768387496471405029e-01 1.055910140275955200e-01 1.171463802456855774e-01
4.052000000000000000e+03 1.404890346527099609e+01 8.548069953918457031e+00 6.104202196002006531e-02 3.018023669719696045e-01 1.088533177971839905e-01 8.233992755413055420e-02
4.053000000000000000e+03 3.083703041076660156e+01 4.728638648986816406e+00 -1.665699481964111328e+00 -8.695337772369384766e-01 -7.605699896812438965e-01 -7.541637420654296875e-01
4.054000000000000000e+03 3.224403762817382812e+01 5.172770023345947266e+00 -1.332004547119140625e+00 -7.958861589431762695e-01 -6.383672356605529785e-01 -7.451728582382202148e-01
4.055000000000000000e+03 6.430663299560546875e+01 2.976464843750000000e+01 7.075004577636718750e-01 3.551382541656494141e+00 1.277664899826049805e+00 2.735283613204956055e+00
4.056000000000000000e+03 2.885417366027832031e+01 2.319088554382324219e+01 4.820359870791435242e-02 8.609500527381896973e-02 4.028958082199096680e-02 6.808205693960189819e-02
4.057000000000000000e+03 2.938197708129882812e+01 2.364165115356445312e+01 4.785187542438507080e-02 8.401069045066833496e-02 3.955877199769020081e-02 6.730679422616958618e-02
4.058000000000000000e+03 1.368842124938964844e+01 7.107594966888427734e+00 7.443272322416305542e-02 3.965040743350982666e-01 1.412810385227203369e-01 7.484281808137893677e-02
4.059000000000000000e+03 6.005202102661132812e+01 2.787060165405273438e+01 3.544304519891738892e-02 1.482564806938171387e+00 4.554023742675781250e-01 5.522800087928771973e-01
4.060000000000000000e+03 6.259500122070312500e+01 2.760493659973144531e+01 3.053525984287261963e-01 2.969914197921752930e+00 9.825800657272338867e-01 1.661396503448486328e+00
4.061000000000000000e+03 6.308302307128906250e+01 2.937728309631347656e+01 5.230748057365417480e-01 2.375942468643188477e+00 8.697052001953125000e-01 1.819259405136108398e+00
4.062000000000000000e+03 3.129215812683105469e+01 4.706854820251464844e+00 -1.514754176139831543e+00 -8.134366869926452637e-01 -6.984572410583496094e-01 -7.104135751724243164e-01
4.063000000000000000e+03 3.902431869506835938e+01 3.426221847534179688e+01 5.713364854454994202e-02 5.682080239057540894e-02 3.418633341789245605e-02 4.382690042257308960e-02
4.064000000000000000e+03 3.814618301391601562e+01 3.273769760131835938e+01 5.169443413615226746e-02 5.713506042957305908e-02 3.264885023236274719e-02 5.070185661315917969e-02
4.065000000000000000e+03 7.269126129150390625e+01 3.518442535400390625e+01 2.386071443557739258e+00 1.036583614349365234e+01 3.825572252273559570e+00 7.811179757118225098e-01
4.066000000000000000e+03 2.806340789794921875e+01 -6.749126911163330078e-01 8.258362300693988800e-03 -4.121705889701843262e-01 -1.211736649274826050e-01 -3.490889072418212891e-02
4.067000000000000000e+03 3.205581283569335938e+01 2.648384094238281250e+01 4.415024816989898682e-02 7.583248615264892578e-02 3.599482029676437378e-02 6.013588607311248779e-02
4.068000000000000000e+03 3.044938468933105469e+01 2.555543136596679688e+01 4.209527745842933655e-02 7.984428107738494873e-02 3.658186644315719604e-02 6.260327994823455811e-02
4.069000000000000000e+03 6.260667800903320312e+01 2.884333038330078125e+01 4.440342485904693604e-01 2.353954792022705078e+00 8.393967151641845703e-01 1.612112998962402344e+00
4.070000000000000000e+03 5.457703399658203125e+01 2.953565216064453125e+01 -1.010504245758056641e+00 2.485787570476531982e-01 -2.285776585340499878e-01 -6.770557165145874023e-01
4.071000000000000000e+03 2.876274108886718750e+01 2.337739229202270508e+00 -1.476703524589538574e+00 -7.688942551612854004e-01 -6.736793518066406250e-01 -4.331976175308227539e-01
4.072000000000000000e+03 3.363030242919921875e+01 7.491713047027587891e+00 -1.109919309616088867e+00 -9.613232016563415527e-01 -6.213727593421936035e-01 -9.270812273025512695e-01
4.073000000000000000e+03 3.377240753173828125e+01 9.686636924743652344e+00 -1.155988693237304688e+00 -1.182404518127441406e+00 -7.015179395675659180e-01 -1.093058466911315918e+00
4.074000000000000000e+03 2.990611076354980469e+01 2.426443862915039062e+01 4.654425382614135742e-02 8.182863891124725342e-02 3.851186856627464294e-02 6.582865118980407715e-02
4.075000000000000000e+03 5.568899536132812500e+01 2.887225723266601562e+01 -7.887773513793945312e-01 4.661777913570404053e-01 -9.677987545728683472e-02 -5.202159881591796875e-01
4.076000000000000000e+03 3.383708190917968750e+01 2.835301399230957031e+01 4.713086411356925964e-02 7.271070033311843872e-02 3.595246747136116028e-02 5.534986779093742371e-02
4.077000000000000000e+03 3.396377944946289062e+01 2.871682739257812500e+01 4.402776435017585754e-02 7.210125029087066650e-02 3.483870252966880798e-02 5.526872724294662476e-02
4.078000000000000000e+03 3.744834136962890625e+01 3.224448013305664062e+01 5.262155830860137939e-02 6.258335709571838379e-02 3.456147387623786926e-02 4.749058559536933899e-02
4.079000000000000000e+03 3.684873580932617188e+01 3.300041198730468750e+01 4.852300882339477539e-02 6.042856350541114807e-02 3.268546983599662781e-02 4.782939329743385315e-02
4.080000000000000000e+03 3.974826049804687500e+01 3.500930786132812500e+01 5.871347710490226746e-02 5.271193012595176697e-02 3.342762216925621033e-02 4.635949805378913879e-02
4.081000000000000000e+03 3.757747650146484375e+01 3.354370498657226562e+01 5.386518314480781555e-02 6.059453263878822327e-02 3.433791548013687134e-02 4.384091123938560486e-02
4.082000000000000000e+03 2.873690223693847656e+01 -1.116508364677429199e+00 1.630319207906723022e-01 -4.372649490833282471e-01 -8.226990699768066406e-02 -2.860177680850028992e-02
4.083000000000000000e+03 6.282120132446289062e+01 2.811096954345703125e+01 3.671214282512664795e-01 2.921355724334716797e+00 9.865431785583496094e-01 1.755763411521911621e+00
4.084000000000000000e+03 7.020991516113281250e+01 2.965266799926757812e+01 -6.256114840507507324e-01 1.247429943084716797e+01 3.554606437683105469e+00 -6.386415362358093262e-01
4.085000000000000000e+03 3.556398010253906250e+01 3.160943031311035156e+01 4.362456500530242920e-02 6.706677377223968506e-02 3.320740163326263428e-02 4.923494532704353333e-02
4.086000000000000000e+03 5.771464157104492188e+01 2.874256896972656250e+01 -4.735794663429260254e-01 7.420487999916076660e-01 8.054080605506896973e-02 -2.206000089645385742e-01
4.087000000000000000e+03 5.892520523071289062e+01 2.832950782775878906e+01 -1.932897567749023438e-01 1.054188132286071777e+00 2.582695186138153076e-01 1.375523358583450317e-01
4.088000000000000000e+03 1.030947494506835938e+01 5.831143856048583984e+00 2.253467887639999390e-01 4.187314584851264954e-02 8.016598224639892578e-02 -8.656099438667297363e-02
4.089000000000000000e+03 1.183835792541503906e+01 5.452876091003417969e+00 2.085356116294860840e-01 3.242698311805725098e-01 1.598416268825531006e-01 -1.554674953222274780e-01
4.090000000000000000e+03 7.309660339355468750e+01 2.891855239868164062e+01 -1.063969582319259644e-01 1.013179111480712891e+01 3.007618188858032227e+00 -1.592451095581054688e+00
4.091000000000000000e+03 1.206186389923095703e+01 4.821130275726318359e+00 2.695798873901367188e-01 3.808692097663879395e-01 1.951347291469573975e-01 -1.993295252323150635e-01
4.092000000000000000e+03 3.341880416870117188e+01 8.154563903808593750e+00 -1.127789735794067383e+00 -1.062212944030761719e+00 -6.570008397102355957e-01 -1.008980274200439453e+00
4.093000000000000000e+03 6.057073211669921875e+01 2.760361862182617188e+01 1.343702524900436401e-01 1.790768027305603027e+00 5.775414705276489258e-01 7.999972701072692871e-01
4.094000000000000000e+03 9.460069656372070312e+00 -8.044245719909667969e+00 -2.505166530609130859e-01 -3.516274690628051758e-01 -1.806432306766510010e-01 -5.692754983901977539e-01
4.095000000000000000e+03 7.128949737548828125e+01 3.712414550781250000e+01 3.906320333480834961e-01 1.254155445098876953e+01 3.879656076431274414e+00 1.522485494613647461e+00
4.096000000000000000e+03 3.341909790039062500e+01 7.091929435729980469e+00 -1.126923918724060059e+00 -9.469060301780700684e-01 -6.221489906311035156e-01 -9.107928872108459473e-01
4.097000000000000000e+03 7.206907653808593750e+01 2.521549606323242188e+01 -1.044859886169433594e+00 9.500249862670898438e+00 2.536617040634155273e+00 -5.720475912094116211e-01
4.098000000000000000e+03 5.932863235473632812e+01 2.743816566467285156e+01 -4.117228463292121887e-02 1.410076737403869629e+00 4.106713235378265381e-01 4.097141027450561523e-01
4.099000000000000000e+03 7.502727031707763672e+00 9.645220756530761719e+00 8.161635696887969971e-02 -3.100583888590335846e-02 1.518315542489290237e-02 -1.093203853815793991e-02
4.100000000000000000e+03 7.339514923095703125e+01 3.069295883178710938e+01 8.986420035362243652e-01 9.902439117431640625e+00 3.240324497222900391e+00 -1.704584360122680664e+00
4.101000000000000000e+03 8.717641830444335938e+00 7.583187103271484375e+00 1.399140954017639160e-01 -1.677238568663597107e-02 3.694251179695129395e-02 -2.233256027102470398e-02
4.102000000000000000e+03 3.203893280029296875e+01 -2.955691099166870117e+00 4.690349698066711426e-01 -5.739757418632507324e-01 -3.148223459720611572e-02 1.931056380271911621e-02
4.103000000000000000e+03 7.254605102539062500e+01 3.353408813476562500e+01 3.107679128646850586e+00 1.029131698608398438e+01 4.019698619842529297e+00 -4.787609279155731201e-01
4.104000000000000000e+03 6.914116668701171875e+01 3.224015712738037109e+00 1.377530209720134735e-02 6.287863731384277344e+00 1.890491724014282227e+00 4.830941259860992432e-01
4.105000000000000000e+03 6.924016571044921875e+01 -1.151000499725341797e+00 5.204243585467338562e-02 6.214877605438232422e+00 1.880075931549072266e+00 4.467640519142150879e-01
4.106000000000000000e+03 1.080785274505615234e+01 6.075016975402832031e+00 2.050137221813201904e-01 1.247420758008956909e-01 9.892673790454864502e-02 -1.054611355066299438e-01
4.107000000000000000e+03 9.603275299072265625e+00 7.777344226837158203e+00 1.348622590303421021e-01 4.386732727289199829e-02 5.361887812614440918e-02 -4.499723762273788452e-02
4.108000000000000000e+03 5.950293350219726562e+01 2.809669685363769531e+01 -6.691648811101913452e-02 1.248712301254272461e+00 3.545387685298919678e-01 3.460289537906646729e-01
4.109000000000000000e+03 3.249759292602539062e+01 -3.361960649490356445e+00 5.573080778121948242e-01 -5.681045055389404297e-01 -3.238939912989735603e-03 -5.821372382342815399e-03
4.110000000000000000e+03 3.548651504516601562e+01 -5.664827823638916016e+00 5.906692147254943848e-01 -4.115017056465148926e-01 5.375025048851966858e-02 -1.710132136940956116e-02
4.111000000000000000e+03 1.310907363891601562e+01 -7.762217044830322266e+00 -2.754889130592346191e-01 -6.029745340347290039e-01 -2.635390162467956543e-01 -7.727854251861572266e-01
4.112000000000000000e+03 7.136819458007812500e+01 3.320772933959960938e+01 4.109751701354980469e+00 1.159636974334716797e+01 4.711836338043212891e+00 -9.258211851119995117e-01
4.113000000000000000e+03 8.764877319335937500e+00 1.582686996459960938e+01 6.335026584565639496e-03 1.709113456308841705e-02 7.027848623692989349e-03 -1.748226024210453033e-02
4.114000000000000000e+03 6.924035644531250000e+01 -3.672551393508911133e+00 6.179785355925559998e-02 6.160470008850097656e+00 1.866680383682250977e+00 4.224759936332702637e-01
4.115000000000000000e+03 1.303529167175292969e+01 -8.639127731323242188e+00 -1.745963543653488159e-01 -5.733952522277832031e-01 -2.243974953889846802e-01 -7.263476848602294922e-01
4.116000000000000000e+03 7.192520904541015625e+01 2.083694648742675781e+01 -7.586621642112731934e-01 8.350799560546875000e+00 2.277641296386718750e+00 -4.632133617997169495e-02
4.117000000000000000e+03 7.943332195281982422e+00 -9.856761932373046875e+00 -1.024559363722801208e-01 -4.266912341117858887e-01 -1.587441563606262207e-01 -5.055881142616271973e-01
4.118000000000000000e+03 7.232438659667968750e+01 2.601241874694824219e+01 -9.810225963592529297e-01 9.734096527099609375e+00 2.625921964645385742e+00 -7.661619782447814941e-01
4.119000000000000000e+03 6.952010345458984375e+01 -1.061993312835693359e+01 6.104429438710212708e-02 6.119490146636962891e+00 1.854160308837890625e+00 3.480169475078582764e-01
4.120000000000000000e+03 7.044941711425781250e+01 -1.314653491973876953e+01 2.682339958846569061e-02 6.242809772491455078e+00 1.880889892578125000e+00 3.086293339729309082e-01
4.121000000000000000e+03 3.211890029907226562e+01 4.114816665649414062e+01 3.554926067590713501e-02 6.195716559886932373e-02 2.925192750990390778e-02 7.274392526596784592e-03
4.122000000000000000e+03 6.543814659118652344e+00 8.864272117614746094e+00 8.378287404775619507e-02 -7.418228685855865479e-02 2.880177227780222893e-03 1.118940114974975586e-02
4.123000000000000000e+03 7.428383827209472656e+00 7.908384799957275391e+00 1.181858181953430176e-01 -6.540388613939285278e-02 1.583458110690116882e-02 7.123400457203388214e-03
4.124000000000000000e+03 3.876955795288085938e+01 -6.492357730865478516e+00 5.041946768760681152e-01 -1.096680015325546265e-01 1.183580011129379272e-01 2.924636565148830414e-02
4.125000000000000000e+03 3.815040969848632812e+01 -5.883775711059570312e+00 5.224753618240356445e-01 -1.856556683778762817e-01 1.010459139943122864e-01 2.430254779756069183e-02
4.126000000000000000e+03 7.473905086517333984e+00 8.779849052429199219e+00 9.444949775934219360e-02 -4.607181251049041748e-02 1.451330631971359253e-02 -5.433104233816266060e-04
4.127000000000000000e+03 7.325317382812500000e+01 3.188098907470703125e+01 1.678787469863891602e+00 9.857138633728027344e+00 3.460777759552001953e+00 -1.440477371215820312e+00
4.128000000000000000e+03 3.943949127197265625e+01 -7.018033981323242188e+00 5.104379057884216309e-01 -2.292730659246444702e-02 1.462531834840774536e-01 2.294766344130039215e-02
4.129000000000000000e+03 6.905416870117187500e+01 -2.026448631286621094e+01 3.169253095984458923e-02 5.874786376953125000e+00 1.771943688392639160e+00 2.914765179157257080e-01
4.130000000000000000e+03 7.668143749237060547e+00 1.036456012725830078e+01 6.528791040182113647e-02 -1.656498201191425323e-02 1.461687963455915451e-02 -1.475142501294612885e-02
4.131000000000000000e+03 8.015910148620605469e+00 -1.427596664428710938e+01 4.861509799957275391e-02 -6.165885925292968750e-01 -1.703920364379882812e-01 -4.845492839813232422e-01
4.132000000000000000e+03 9.227903366088867188e+00 -1.416080093383789062e+01 7.319086045026779175e-02 -6.020035743713378906e-01 -1.586438119411468506e-01 -5.135197043418884277e-01
4.133000000000000000e+03 1.320733833312988281e+01 -1.321282482147216797e+01 1.445375084877014160e-01 -6.042801141738891602e-01 -1.379227787256240845e-01 -5.729097723960876465e-01
4.134000000000000000e+03 7.098310089111328125e+01 2.069800567626953125e+01 -7.947453856468200684e-01 8.132457733154296875e+00 2.201313734054565430e+00 1.482535898685455322e-01
4.135000000000000000e+03 7.035369110107421875e+01 -4.672267735004425049e-01 3.740442916750907898e-02 6.513626575469970703e+00 1.965309262275695801e+00 4.261346161365509033e-01
4.136000000000000000e+03 7.182901763916015625e+01 1.621778488159179688e+01 -3.845194280147552490e-01 7.704115390777587891e+00 2.195878744125366211e+00 2.148024439811706543e-01
4.137000000000000000e+03 7.176889038085937500e+01 1.497770118713378906e+01 -3.131022155284881592e-01 7.587852478027343750e+00 2.182425022125244141e+00 2.689459621906280518e-01
4.138000000000000000e+03 7.920167922973632812e+00 -1.298163223266601562e+01 1.846644096076488495e-02 -5.597485899925231934e-01 -1.623846441507339478e-01 -4.920520186424255371e-01
4.139000000000000000e+03 7.183155822753906250e+01 2.181163597106933594e+01 -8.552316427230834961e-01 8.541607856750488281e+00 2.305912971496582031e+00 -9.940820187330245972e-02
4.140000000000000000e+03 1.245121192932128906e+01 -1.269842815399169922e+01 1.186954379081726074e-01 -6.091708540916442871e-01 -1.471426337957382202e-01 -5.900117158889770508e-01
4.141000000000000000e+03 7.089788818359375000e+01 4.934297084808349609e+00 -1.405411865562200546e-02 6.822117805480957031e+00 2.042419195175170898e+00 4.352979063987731934e-01
4.142000000000000000e+03 6.985480499267578125e+01 5.131520748138427734e+00 -1.512662135064601898e-02 6.550412178039550781e+00 1.960585713386535645e+00 4.812375605106353760e-01
4.143000000000000000e+03 6.979296112060546875e+01 1.891853809356689453e+00 1.816482283174991608e-02 6.452030181884765625e+00 1.941058516502380371e+00 4.637373685836791992e-01
4.144000000000000000e+03 6.911356353759765625e+01 1.303871989250183105e+00 4.020611569285392761e-02 6.251295566558837891e+00 1.887450575828552246e+00 4.665869474411010742e-01
4.145000000000000000e+03 6.980805969238281250e+01 -2.133800268173217773e+00 5.180392041802406311e-02 6.335585117340087891e+00 1.916216731071472168e+00 4.214832186698913574e-01
4.146000000000000000e+03 4.159476089477539062e+01 -9.860051155090332031e+00 4.260411858558654785e-01 3.097000718116760254e-01 2.207223773002624512e-01 8.158192969858646393e-03
4.147000000000000000e+03 3.896746063232421875e+01 3.624070358276367188e+01 5.867996066808700562e-02 5.475710704922676086e-02 3.403111919760704041e-02 3.730650246143341064e-02
4.148000000000000000e+03 4.072443771362304688e+01 3.689259719848632812e+01 7.686851918697357178e-02 3.810569643974304199e-02 3.449226543307304382e-02 4.131021723151206970e-02
4.149000000000000000e+03 6.980462646484375000e+01 -2.199783897399902344e+01 3.064966015517711639e-02 5.985853672027587891e+00 1.804951071739196777e+00 2.621131241321563721e-01
4.150000000000000000e+03 4.301245117187500000e+01 -1.326685905456542969e+01 3.009509444236755371e-01 5.966889262199401855e-01 2.692919671535491943e-01 4.011611454188823700e-03
4.151000000000000000e+03 7.140496063232421875e+01 -1.452974510192871094e+01 2.176477573812007904e-02 6.432060718536376953e+00 1.936147689819335938e+00 2.824721336364746094e-01
4.152000000000000000e+03 8.425449371337890625e+00 2.135184097290039062e+01 -7.057555019855499268e-03 -1.146649010479450226e-02 -5.557213444262742996e-03 -1.713914237916469574e-02
4.153000000000000000e+03 7.041353607177734375e+01 -8.042815208435058594e+00 4.570673778653144836e-02 6.361843585968017578e+00 1.922265052795410156e+00 3.556433320045471191e-01
4.154000000000000000e+03 4.016737365722656250e+01 -7.418066978454589844e+00 4.822870492935180664e-01 7.211665809154510498e-02 1.663211137056350708e-01 3.080829977989196777e-02
4.155000000000000000e+03 3.978408813476562500e+01 -8.356045722961425781e+00 4.981527030467987061e-01 4.426253587007522583e-02 1.627245694398880005e-01 8.853976614773273468e-03
4.156000000000000000e+03 7.038133239746093750e+01 -2.012004470825195312e+01 2.231638506054878235e-02 6.128835201263427734e+00 1.845345377922058105e+00 2.785282433032989502e-01
4.157000000000000000e+03 8.969508171081542969e+00 -1.054941749572753906e+01 -7.392729818820953369e-02 -4.869176447391510010e-01 -1.682534813880920410e-01 -5.637091994285583496e-01
4.158000000000000000e+03 7.008027648925781250e+01 1.961778259277343750e+01 -7.144767045974731445e-01 7.696523189544677734e+00 2.094613790512084961e+00 3.442395031452178955e-01
4.159000000000000000e+03 7.083908843994140625e+01 1.741054344177246094e+01 -5.074099302291870117e-01 7.566457271575927734e+00 2.117714166641235352e+00 2.786605954170227051e-01
4.160000000000000000e+03 9.490598678588867188e+00 2.334422874450683594e+01 -8.809646591544151306e-03 7.234711665660142899e-04 -2.425852464511990547e-03 -1.313373818993568420e-02
4.161000000000000000e+03 7.032658386230468750e+01 9.990389823913574219e+00 -1.242538243532180786e-01 6.863524913787841797e+00 2.021781444549560547e+00 4.447974264621734619e-01
4.162000000000000000e+03 3.375768661499023438e+01 -4.441845417022705078e+00 5.898145437240600586e-01 -5.044734477996826172e-01 2.560233324766159058e-02 -6.603053770959377289e-03
4.163000000000000000e+03 1.255520248413085938e+01 -1.778788566589355469e+01 1.898864507675170898e-01 -5.818358063697814941e-01 -1.175848022103309631e-01 -4.628321230411529541e-01
4.164000000000000000e+03 9.814543724060058594e+00 -1.824684524536132812e+01 1.337999552488327026e-01 -6.710720062255859375e-01 -1.611816138029098511e-01 -4.428615272045135498e-01
4.165000000000000000e+03 9.613036155700683594e+00 -1.682932281494140625e+01 1.222904771566390991e-01 -6.477378010749816895e-01 -1.576341986656188965e-01 -4.630896449089050293e-01
4.166000000000000000e+03 7.099635314941406250e+01 1.966104888916015625e+01 -6.958155632019042969e-01 7.938298225402832031e+00 2.172744750976562500e+00 1.844088286161422729e-01
4.167000000000000000e+03 7.094909667968750000e+01 1.855931854248046875e+01 -6.009842157363891602e-01 7.748715400695800781e+00 2.144319534301757812e+00 2.328824251890182495e-01
4.168000000000000000e+03 1.647494888305664062e+01 -1.838517951965332031e+01 2.535691559314727783e-01 -3.442016243934631348e-01 -2.718974277377128601e-02 -3.823482096195220947e-01
4.169000000000000000e+03 9.083933830261230469e+00 1.795178794860839844e+01 -1.463721855543553829e-03 1.658175885677337646e-02 4.535411484539508820e-03 -1.588634960353374481e-02
4.170000000000000000e+03 8.254700660705566406e+00 1.680623626708984375e+01 3.417910309508442879e-03 2.999165561050176620e-03 1.925122807733714581e-03 -1.997751928865909576e-02
4.171000000000000000e+03 6.927316284179687500e+01 -1.633644485473632812e+01 4.386029392480850220e-02 5.979658603668212891e+00 1.807055711746215820e+00 3.065285086631774902e-01
4.172000000000000000e+03 8.312602996826171875e+00 2.037779426574707031e+01 -5.526230204850435257e-03 -9.076090529561042786e-03 -4.380695987492799759e-03 -1.817821525037288666e-02
4.173000000000000000e+03 4.716825103759765625e+01 -2.068995094299316406e+01 9.100060909986495972e-03 1.510390996932983398e+00 4.558473229408264160e-01 5.695105716586112976e-02
4.174000000000000000e+03 4.432288360595703125e+01 -1.650604629516601562e+01 1.598739176988601685e-01 8.670706152915954590e-01 3.080833554267883301e-01 1.586060039699077606e-02
4.175000000000000000e+03 7.085216522216796875e+01 -1.577137660980224609e+01 3.756864368915557861e-02 6.297583580017089844e+00 1.900545716285705566e+00 2.776924073696136475e-01
4.176000000000000000e+03 6.856314849853515625e+01 -2.627719688415527344e+01 4.322767630219459534e-02 5.673096179962158203e+00 1.714897155761718750e+00 2.678578794002532959e-01
4.177000000000000000e+03 7.067956542968750000e+01 -6.174824237823486328e+00 4.603902995586395264e-02 6.461863040924072266e+00 1.952370643615722656e+00 3.657340407371520996e-01
4.178000000000000000e+03 7.046336364746093750e+01 1.124538993835449219e+01 -1.650548577308654785e-01 6.968635082244873047e+00 2.041074037551879883e+00 4.314235448837280273e-01
4.179000000000000000e+03 1.009478664398193359e+01 -1.040620803833007812e+01 -6.630368530750274658e-02 -4.996614754199981689e-01 -1.697895526885986328e-01 -5.972123742103576660e-01
4.180000000000000000e+03 9.111115455627441406e+00 -1.290602779388427734e+01 2.739813365042209625e-02 -5.794094204902648926e-01 -1.656033992767333984e-01 -5.438739657402038574e-01
4.181000000000000000e+03 1.114865779876708984e+01 2.756548118591308594e+01 -9.495295584201812744e-03 8.103537373244762421e-03 -4.175275389570742846e-04 -6.251571699976921082e-03
4.182000000000000000e+03 9.285739898681640625e+00 1.443161964416503906e+01 1.572773419320583344e-02 4.065264761447906494e-02 1.691411435604095459e-02 -1.588834822177886963e-02
4.183000000000000000e+03 9.578202247619628906e+00 1.523364162445068359e+01 1.078078150749206543e-02 4.289618507027626038e-02 1.610308885574340820e-02 -1.463270280510187149e-02
4.184000000000000000e+03 4.776521301269531250e+01 -2.169427871704101562e+01 -1.868433877825737000e-02 1.657576918601989746e+00 4.916677772998809814e-01 6.419076770544052124e-02
4.185000000000000000e+03 4.949888229370117188e+01 -2.130741691589355469e+01 3.749521682038903236e-03 2.026224374771118164e+00 6.089921593666076660e-01 1.098264232277870178e-01
4.186000000000000000e+03 1.004671955108642578e+01 2.871594810485839844e+01 -8.651516400277614594e-03 -6.626954767853021622e-03 -4.583541303873062134e-03 -8.657621219754219055e-03
4.187000000000000000e+03 1.008998775482177734e+01 2.642533302307128906e+01 -9.105700999498367310e-03 -7.016625604592263699e-04 -2.942209132015705109e-03 -9.762255474925041199e-03
4.188000000000000000e+03 4.274837493896484375e+01 -1.601051712036132812e+01 1.768120974302291870e-01 5.790260434150695801e-01 2.267514467239379883e-01 5.813876166939735413e-03
4.189000000000000000e+03 7.130290985107421875e+01 8.610488891601562500e+00 -8.077098429203033447e-02 7.086271762847900391e+00 2.101650238037109375e+00 4.102233946323394775e-01
4.190000000000000000e+03 5.204385375976562500e+01 -2.310074806213378906e+01 -1.012084633111953735e-02 2.602555036544799805e+00 7.777302861213684082e-01 1.961498558521270752e-01
4.191000000000000000e+03 4.774937438964843750e+01 -2.366529464721679688e+01 -6.906294077634811401e-02 1.693461894989013672e+00 4.873196780681610107e-01 7.919190078973770142e-02
4.192000000000000000e+03 6.930680084228515625e+01 -2.466682815551757812e+01 2.894660830497741699e-02 5.835315227508544922e+00 1.759278535842895508e+00 2.668244540691375732e-01
4.193000000000000000e+03 1.671449661254882812e+01 -2.982535362243652344e+01 2.291916459798812866e-01 -2.656369209289550781e-01 -1.093357615172863007e-02 -2.755569815635681152e-01
4.194000000000000000e+03 1.794618797302246094e+01 -3.297210311889648438e+01 2.483185529708862305e-01 -2.351095080375671387e-01 3.962714690715074539e-03 -2.222798019647598267e-01
4.195000000000000000e+03 6.961608123779296875e+01 -3.603998565673828125e+01 1.004384756088256836e-01 5.724910736083984375e+00 1.747604846954345703e+00 1.376124322414398193e-01
4.196000000000000000e+03 6.697882080078125000e+01 3.104145812988281250e+01 4.153810814023017883e-02 1.084870719909667969e+01 3.267073631286621094e+00 4.642045974731445312e+00
4.197000000000000000e+03 2.738597869873046875e+01 2.242017030715942383e+00 -1.854110598564147949e+00 -6.560586094856262207e-01 -7.530507445335388184e-01 -6.080378293991088867e-01
4.198000000000000000e+03 2.689807128906250000e+01 2.121416091918945312e+00 -1.915561437606811523e+00 -6.170181035995483398e-01 -7.597738504409790039e-01 -6.453755497932434082e-01
4.199000000000000000e+03 6.558370208740234375e+01 3.033385086059570312e+01 7.046951651573181152e-01 5.712610244750976562e+00 1.925191521644592285e+00 3.881796360015869141e+00
4.200000000000000000e+03 2.841525077819824219e+01 3.068135261535644531e+00 -1.837248921394348145e+00 -9.091836214065551758e-01 -8.239297866821289062e-01 -7.064396142959594727e-01
4.201000000000000000e+03 2.539991378784179688e+01 1.665227413177490234e+00 -2.226854801177978516e+00 -3.094613254070281982e-01 -7.608948349952697754e-01 -7.638994455337524414e-01
4.202000000000000000e+03 6.520722198486328125e+01 3.079931068420410156e+01 1.049553632736206055e+00 4.197668552398681641e+00 1.574166655540466309e+00 3.586551189422607422e+00
4.203000000000000000e+03 2.796024894714355469e+01 2.570294141769409180e+00 -1.772820234298706055e+00 -7.626051902770996094e-01 -7.606276273727416992e-01 -6.192094087600708008e-01
4.204000000000000000e+03 6.762324523925781250e+01 3.119367408752441406e+01 -5.152456760406494141e-01 1.378826618194580078e+01 3.981906175613403320e+00 3.603953361511230469e+00
4.205000000000000000e+03 4.191571044921875000e+01 1.844854164123535156e+01 -9.677716493606567383e-01 -9.740574359893798828e-01 -5.825487375259399414e-01 -1.085203528404235840e+00
4.206000000000000000e+03 4.226441955566406250e+01 1.841022872924804688e+01 -9.425747990608215332e-01 -9.320062398910522461e-01 -5.623742938041687012e-01 -1.050729155540466309e+00
4.207000000000000000e+03 4.078083419799804688e+01 1.766117477416992188e+01 -1.023827075958251953e+00 -1.033308029174804688e+00 -6.171405315399169922e-01 -1.122344493865966797e+00
4.208000000000000000e+03 1.711491584777832031e+01 1.314251232147216797e+01 5.538493022322654724e-02 1.676844656467437744e-01 6.692082434892654419e-02 9.255165606737136841e-02
4.209000000000000000e+03 1.831204223632812500e+01 1.270554733276367188e+01 7.557623833417892456e-02 1.638154238462448120e-01 7.181750237941741943e-02 1.105733439326286316e-01
4.210000000000000000e+03 2.858975601196289062e+01 -5.552061200141906738e-01 -8.915298432111740112e-02 -5.401635169982910156e-01 -1.887949407100677490e-01 -8.036333322525024414e-02
4.211000000000000000e+03 1.346589851379394531e+01 9.160913467407226562e+00 5.534842237830162048e-02 2.664226591587066650e-01 9.653132408857345581e-02 4.915025830268859863e-02
4.212000000000000000e+03 2.800157165527343750e+01 2.296103477478027344e+01 4.688655212521553040e-02 8.918764442205429077e-02 4.082226008176803589e-02 6.859706342220306396e-02
4.213000000000000000e+03 2.756634902954101562e+01 2.190916252136230469e+01 5.087504163384437561e-02 9.191880375146865845e-02 4.283815249800682068e-02 7.198252528905868530e-02
4.214000000000000000e+03 4.374159622192382812e+01 2.034096527099609375e+01 -9.883346557617187500e-01 -9.545436501502990723e-01 -5.828634500503540039e-01 -1.034020185470581055e+00
4.215000000000000000e+03 4.005207061767578125e+01 1.674241065979003906e+01 -1.036544799804687500e+00 -1.050172924995422363e+00 -6.260153055191040039e-01 -1.095265150070190430e+00
4.216000000000000000e+03 4.192623519897460938e+01 1.807719421386718750e+01 -9.506447911262512207e-01 -9.380946755409240723e-01 -5.666218400001525879e-01 -1.057453274726867676e+00
4.217000000000000000e+03 2.495341110229492188e+01 1.153440356254577637e+00 -1.704200983047485352e+00 -1.988954842090606689e-01 -5.709289312362670898e-01 -6.687614917755126953e-01
4.218000000000000000e+03 7.297982788085937500e+01 3.005191802978515625e+01 4.981827735900878906e-01 1.032193279266357422e+01 3.246034622192382812e+00 -1.731500983238220215e+00
4.219000000000000000e+03 6.975024414062500000e+01 3.165665817260742188e+01 1.446556806564331055e+00 1.481516551971435547e+01 4.878516674041748047e+00 -1.545078158378601074e+00
4.220000000000000000e+03 4.762375640869140625e+01 2.410100555419921875e+01 -1.064579010009765625e+00 -7.308821678161621094e-01 -5.386383533477783203e-01 -9.446946978569030762e-01
4.221000000000000000e+03 2.405134010314941406e+01 1.859483718872070312e+01 6.159728392958641052e-02 1.092428117990493774e-01 5.125202983617782593e-02 8.311440050601959229e-02
4.222000000000000000e+03 4.084501647949218750e+01 1.719067192077636719e+01 -9.983013868331909180e-01 -9.860357642173767090e-01 -5.953011512756347656e-01 -1.076051115989685059e+00
4.223000000000000000e+03 4.198005676269531250e+01 1.768230056762695312e+01 -9.255684614181518555e-01 -8.963456153869628906e-01 -5.465742349624633789e-01 -1.021111607551574707e+00
4.224000000000000000e+03 2.586906051635742188e+01 1.986208534240722656e+01 6.015177071094512939e-02 1.009538471698760986e-01 4.833168536424636841e-02 7.909962534904479980e-02
4.225000000000000000e+03 4.254358673095703125e+01 1.975855064392089844e+01 -1.014477729797363281e+00 -1.040263295173645020e+00 -6.164222955703735352e-01 -1.115322351455688477e+00
4.226000000000000000e+03 1.433159542083740234e+01 8.557133674621582031e+00 6.768213212490081787e-02 2.979516088962554932e-01 1.096901223063468933e-01 9.564962983131408691e-02
4.227000000000000000e+03 2.272944641113281250e+01 1.753274154663085938e+01 6.248932704329490662e-02 1.180995702743530273e-01 5.417666956782341003e-02 8.688975125551223755e-02
4.228000000000000000e+03 1.278898334503173828e+01 6.782983303070068359e+00 7.861689478158950806e-02 3.957689702510833740e-01 1.423157602548599243e-01 -1.204788219183683395e-02
4.229000000000000000e+03 4.479343795776367188e+01 2.130893516540527344e+01 -1.014769196510314941e+00 -9.150048494338989258e-01 -5.789322257041931152e-01 -9.980254769325256348e-01
4.230000000000000000e+03 4.399636077880859375e+01 2.110562896728515625e+01 -1.054378628730773926e+00 -9.994357228279113770e-01 -6.161442995071411133e-01 -1.066481232643127441e+00
4.231000000000000000e+03 2.698340797424316406e+01 2.155249977111816406e+01 5.130367353558540344e-02 9.424093365669250488e-02 4.366338253021240234e-02 7.281103730201721191e-02
4.232000000000000000e+03 4.451460266113281250e+01 2.108901786804199219e+01 -1.009007096290588379e+00 -9.278064966201782227e-01 -5.810440778732299805e-01 -1.009644865989685059e+00
4.233000000000000000e+03 6.835874938964843750e+01 3.122355651855468750e+01 -6.111711263656616211e-01 1.550425338745117188e+01 4.467924594879150391e+00 1.545845389366149902e+00
4.234000000000000000e+03 5.029820632934570312e+01 2.749399948120117188e+01 -1.126985430717468262e+00 -6.268534064292907715e-01 -5.261516571044921875e-01 -9.147416353225708008e-01
4.235000000000000000e+03 4.951012039184570312e+01 2.688811111450195312e+01 -1.129111647605895996e+00 -7.252247929573059082e-01 -5.563009381294250488e-01 -9.691759347915649414e-01
4.236000000000000000e+03 5.400645065307617188e+01 2.886494827270507812e+01 -9.780765175819396973e-01 1.743466407060623169e-01 -2.411189675331115723e-01 -6.535006761550903320e-01
4.237000000000000000e+03 2.751807212829589844e+01 -2.249813079833984375e-01 -2.390980720520019531e-01 -3.987285196781158447e-01 -1.913479864597320557e-01 -8.271750062704086304e-02
4.238000000000000000e+03 4.482738113403320312e+01 2.182341575622558594e+01 -1.070649862289428711e+00 -9.665808081626892090e-01 -6.111692190170288086e-01 -1.037750840187072754e+00
4.239000000000000000e+03 2.066835594177246094e+01 1.507013797760009766e+01 7.197920233011245728e-02 1.358853727579116821e-01 6.235937401652336121e-02 9.744136035442352295e-02
4.240000000000000000e+03 1.892342567443847656e+01 1.324680042266845703e+01 7.551971822977066040e-02 1.549449563026428223e-01 6.913940608501434326e-02 1.074314862489700317e-01
4.241000000000000000e+03 2.222940063476562500e+01 1.707660102844238281e+01 6.284967809915542603e-02 1.220982819795608521e-01 5.548438802361488342e-02 8.820117264986038208e-02
4.242000000000000000e+03 2.127400970458984375e+01 1.594268417358398438e+01 6.749095022678375244e-02 1.298688054084777832e-01 5.920792371034622192e-02 9.244380891323089600e-02
4.243000000000000000e+03 6.494158172607421875e+01 2.983025360107421875e+01 6.569409966468811035e-01 4.552832126617431641e+00 1.562932014465332031e+00 3.229883670806884766e+00
4.244000000000000000e+03 2.657569313049316406e+01 2.090625572204589844e+01 5.462748184800148010e-02 9.679315984249114990e-02 4.542619362473487854e-02 7.480332255363464355e-02
4.245000000000000000e+03 3.734524154663085938e+01 1.355081558227539062e+01 -1.070949554443359375e+00 -1.163970589637756348e+00 -6.704760789871215820e-01 -1.087521195411682129e+00
4.246000000000000000e+03 5.128166580200195312e+01 2.811441040039062500e+01 -1.111871719360351562e+00 -4.527355134487152100e-01 -4.693821668624877930e-01 -8.409346938133239746e-01
4.247000000000000000e+03 5.209072875976562500e+01 2.791171264648437500e+01 -1.017520427703857422e+00 -2.015719711780548096e-01 -3.657277226448059082e-01 -7.363317608833312988e-01
4.248000000000000000e+03 5.350585937500000000e+01 2.836690521240234375e+01 -9.599602222442626953e-01 9.670896083116531372e-02 -2.589753866195678711e-01 -6.503718495368957520e-01
4.249000000000000000e+03 3.973335647583007812e+01 1.661846733093261719e+01 -1.060600638389587402e+00 -1.091844320297241211e+00 -6.457334756851196289e-01 -1.108931779861450195e+00
4.250000000000000000e+03 6.966366577148437500e+01 3.141941642761230469e+01 8.865711688995361328e-01 1.476875591278076172e+01 4.696598052978515625e+00 -1.264304041862487793e+00
4.251000000000000000e+03 4.288124465942382812e+01 2.003752517700195312e+01 -1.019933938980102539e+00 -1.025342583656311035e+00 -6.135829091072082520e-01 -1.100163459777832031e+00
4.252000000000000000e+03 4.399884033203125000e+01 2.060724258422851562e+01 -9.992159008979797363e-01 -9.460998177528381348e-01 -5.835947394371032715e-01 -1.025691390037536621e+00
4.253000000000000000e+03 2.516259574890136719e+01 1.904423904418945312e+01 6.419011950492858887e-02 1.045903638005256653e-01 5.063414573669433594e-02 8.215469866991043091e-02
4.254000000000000000e+03 2.541131210327148438e+01 1.930317115783691406e+01 6.313176453113555908e-02 1.033405587077140808e-01 4.994169622659683228e-02 8.127077668905258179e-02
4.255000000000000000e+03 3.752321243286132812e+01 1.387381458282470703e+01 -1.067259550094604492e+00 -1.170637965202331543e+00 -6.713692545890808105e-01 -1.096459031105041504e+00
4.256000000000000000e+03 5.111199188232421875e+01 2.752593421936035156e+01 -1.060004472732543945e+00 -4.234874546527862549e-01 -4.450475871562957764e-01 -8.137705326080322266e-01
4.257000000000000000e+03 4.536122894287109375e+01 2.179936218261718750e+01 -1.021697640419006348e+00 -8.779847025871276855e-01 -5.699046850204467773e-01 -9.744429588317871094e-01
4.258000000000000000e+03 3.222294616699218750e+01 2.728433609008789062e+01 4.229900613427162170e-02 7.540138065814971924e-02 3.531011566519737244e-02 5.837073922157287598e-02
4.259000000000000000e+03 3.794298553466796875e+01 1.431776332855224609e+01 -1.061741113662719727e+00 -1.161074042320251465e+00 -6.668445467948913574e-01 -1.093281030654907227e+00
4.260000000000000000e+03 3.434561920166015625e+01 1.148381805419921875e+01 -1.212029099464416504e+00 -1.290224552154541016e+00 -7.506760954856872559e-01 -1.196020364761352539e+00
4.261000000000000000e+03 6.870519256591796875e+01 3.087585639953613281e+01 -6.547489762306213379e-01 1.477320289611816406e+01 4.235536098480224609e+00 8.900234699249267578e-01
4.262000000000000000e+03 6.924619293212890625e+01 3.154744911193847656e+01 7.185641527175903320e-01 1.567525482177734375e+01 4.918145656585693359e+00 -8.535690903663635254e-01
4.263000000000000000e+03 6.779471588134765625e+01 3.052311706542968750e+01 -8.713685274124145508e-01 1.273167514801025391e+01 3.558092117309570312e+00 2.906183481216430664e+00
4.264000000000000000e+03 7.221940612792968750e+01 2.751753044128417969e+01 -8.114517331123352051e-01 1.027580356597900391e+01 2.839305639266967773e+00 -1.063060522079467773e+00
4.265000000000000000e+03 3.849601364135742188e+01 1.474618530273437500e+01 -1.043817877769470215e+00 -1.121397495269775391e+00 -6.495646238327026367e-01 -1.070897698402404785e+00
4.266000000000000000e+03 3.829943084716796875e+01 1.506879329681396484e+01 -1.079153895378112793e+00 -1.181136965751647949e+00 -6.780872344970703125e-01 -1.112236380577087402e+00
4.267000000000000000e+03 2.055647087097167969e+01 1.407720470428466797e+01 8.318416029214859009e-02 1.408333927392959595e-01 6.720526516437530518e-02 1.069246679544448853e-01
4.268000000000000000e+03 4.909365081787109375e+01 2.545335769653320312e+01 -1.035190343856811523e+00 -6.286618709564208984e-01 -4.991556704044342041e-01 -8.969203829765319824e-01
4.269000000000000000e+03 1.564432811737060547e+01 1.029033660888671875e+01 6.799292564392089844e-02 2.266039848327636719e-01 8.837907761335372925e-02 1.081673279404640198e-01
4.270000000000000000e+03 1.439496994018554688e+01 1.093808078765869141e+01 4.340725764632225037e-02 2.118621319532394409e-01 7.658081501722335815e-02 6.601769477128982544e-02
4.271000000000000000e+03 6.915702819824218750e+01 3.063470649719238281e+01 -5.366536974906921387e-01 1.423533535003662109e+01 4.109604835510253906e+00 9.736185520887374878e-02
4.272000000000000000e+03 6.883598327636718750e+01 3.125782966613769531e+01 -1.984637528657913208e-01 1.563777542114257812e+01 4.631793498992919922e+00 2.970329225063323975e-01
4.273000000000000000e+03 3.285042572021484375e+01 2.740954017639160156e+01 4.480338841676712036e-02 7.403406500816345215e-02 3.565123677253723145e-02 5.796997994184494019e-02
4.274000000000000000e+03 3.878178405761718750e+01 1.497043800354003906e+01 -1.037672281265258789e+00 -1.100613474845886230e+00 -6.414856910705566406e-01 -1.060649752616882324e+00
4.275000000000000000e+03 4.299726486206054688e+01 2.024666213989257812e+01 -1.030639767646789551e+00 -1.032093524932861328e+00 -6.188199520111083984e-01 -1.103356242179870605e+00
4.276000000000000000e+03 2.526057052612304688e+01 1.441583991050720215e+00 -1.908486008644104004e+00 -3.541999757289886475e-01 -6.788057684898376465e-01 -7.085441946983337402e-01
4.277000000000000000e+03 5.078137588500976562e+01 2.732935523986816406e+01 -1.068107247352600098e+00 -4.828896224498748779e-01 -4.652990698814392090e-01 -8.366693854331970215e-01
4.278000000000000000e+03 4.598889160156250000e+01 2.282978248596191406e+01 -1.089642882347106934e+00 -8.902602791786193848e-01 -5.939709544181823730e-01 -9.976093769073486328e-01
4.279000000000000000e+03 4.805962753295898438e+01 2.414223861694335938e+01 -1.021208643913269043e+00 -6.581946611404418945e-01 -5.038209557533264160e-01 -8.949350118637084961e-01
4.280000000000000000e+03 3.638855361938476562e+01 1.243820571899414062e+01 -1.089558839797973633e+00 -1.171478748321533203e+00 -6.783112883567810059e-01 -1.082733273506164551e+00
4.281000000000000000e+03 3.630686950683593750e+01 1.297108078002929688e+01 -1.132358789443969727e+00 -1.233115315437316895e+00 -7.096422314643859863e-01 -1.138873815536499023e+00
4.282000000000000000e+03 3.947998428344726562e+01 1.604231834411621094e+01 -1.047818660736083984e+00 -1.086740136146545410e+00 -6.403676867485046387e-01 -1.083705067634582520e+00
4.283000000000000000e+03 4.157905197143554688e+01 1.767554664611816406e+01 -9.590966701507568359e-01 -9.410371780395507812e-01 -5.700401663780212402e-01 -1.055757522583007812e+00
4.284000000000000000e+03 2.460188674926757812e+01 1.907296562194824219e+01 6.062296032905578613e-02 1.064469888806343079e-01 5.012098699808120728e-02 8.120705932378768921e-02
4.285000000000000000e+03 3.907305145263671875e+01 1.519812870025634766e+01 -1.027673959732055664e+00 -1.077669262886047363e+00 -6.316029429435729980e-01 -1.053117990493774414e+00
4.286000000000000000e+03 2.170793151855468750e+01 1.709651565551757812e+01 5.858125165104866028e-02 1.236787885427474976e-01 5.467801168560981750e-02 8.628194034099578857e-02
4.287000000000000000e+03 5.425276565551757812e+01 2.937884521484375000e+01 -1.019843101501464844e+00 1.919153481721878052e-01 -2.483783066272735596e-01 -6.877576708793640137e-01
4.288000000000000000e+03 4.565355682373046875e+01 2.205109977722167969e+01 -1.026035070419311523e+00 -8.583940863609313965e-01 -5.653287768363952637e-01 -9.627100825309753418e-01
4.289000000000000000e+03 4.938141250610351562e+01 2.597043991088867188e+01 -1.056544542312622070e+00 -6.407022476196289062e-01 -5.091740489006042480e-01 -9.028912782669067383e-01
4.290000000000000000e+03 2.551796913146972656e+01 2.009839248657226562e+01 5.643961206078529358e-02 1.017685309052467346e-01 4.746244102716445923e-02 7.709469646215438843e-02
4.291000000000000000e+03 5.128443145751953125e+01 2.713543891906738281e+01 -1.005562901496887207e+00 -3.289884924888610840e-01 -4.003654122352600098e-01 -7.582656741142272949e-01
4.292000000000000000e+03 2.887057495117187500e+01 3.418686628341674805e+00 -1.800602197647094727e+00 -9.547232389450073242e-01 -8.265976309776306152e-01 -6.996526718139648438e-01
4.293000000000000000e+03 2.868287467956542969e+01 3.651541709899902344e+00 -1.979839920997619629e+00 -9.928330183029174805e-01 -8.918018937110900879e-01 -8.154046535491943359e-01
4.294000000000000000e+03 2.674603652954101562e+01 2.038114166259765625e+01 6.026625633239746094e-02 9.708356112241744995e-02 4.720494523644447327e-02 7.773447036743164062e-02
4.295000000000000000e+03 4.980155944824218750e+01 2.683513832092285156e+01 -1.101785302162170410e+00 -6.573452353477478027e-01 -5.277391672134399414e-01 -9.232797026634216309e-01
4.296000000000000000e+03 6.389805221557617188e+01 2.986498260498046875e+01 7.089775800704956055e-01 2.812577486038208008e+00 1.056466579437255859e+00 2.371204137802124023e+00
4.297000000000000000e+03 6.384209823608398438e+01 2.948488044738769531e+01 6.513378024101257324e-01 3.060126304626464844e+00 1.113439202308654785e+00 2.382460594177246094e+00
4.298000000000000000e+03 1.869053268432617188e+01 1.359622764587402344e+01 6.984122097492218018e-02 1.551383733749389648e-01 6.749387830495834351e-02 1.017222329974174500e-01
4.299000000000000000e+03 2.654523658752441406e+01 3.949119150638580322e-01 -8.014420270919799805e-01 -3.371163904666900635e-01 -3.415675163269042969e-01 -3.015612065792083740e-01
4.300000000000000000e+03 2.604963493347167969e+01 1.610545635223388672e+00 -1.789155125617980957e+00 -4.458309710025787354e-01 -6.704958081245422363e-01 -6.081181764602661133e-01
4.301000000000000000e+03 4.295267486572265625e+01 1.927107048034667969e+01 -9.470049142837524414e-01 -9.474134445190429688e-01 -5.683255195617675781e-01 -1.043152570724487305e+00
4.302000000000000000e+03 4.094233703613281250e+01 1.670035552978515625e+01 -9.628331065177917480e-01 -9.371892809867858887e-01 -5.700067281723022461e-01 -1.026302695274353027e+00
4.303000000000000000e+03 2.087633323669433594e+01 1.564989089965820312e+01 6.753608584403991699e-02 1.319440603256225586e-01 5.984404683113098145e-02 9.299299120903015137e-02
4.304000000000000000e+03 2.532117652893066406e+01 1.981610679626464844e+01 5.791384726762771606e-02 1.027992814779281616e-01 4.821393638849258423e-02 7.849720865488052368e-02
4.305000000000000000e+03 4.343471145629882812e+01 2.014673042297363281e+01 -9.865441918373107910e-01 -9.705882072448730469e-01 -5.871397256851196289e-01 -1.047921776771545410e+00
4.306000000000000000e+03 3.937373733520507812e+01 1.542567825317382812e+01 -1.018478393554687500e+00 -1.053266882896423340e+00 -6.215235590934753418e-01 -1.043671965599060059e+00
4.307000000000000000e+03 3.968599319458007812e+01 1.564014816284179688e+01 -1.005089044570922852e+00 -1.021437525749206543e+00 -6.079579591751098633e-01 -1.035080790519714355e+00
4.308000000000000000e+03 3.586792755126953125e+01 1.243399429321289062e+01 -1.138124108314514160e+00 -1.236245751380920410e+00 -7.123109698295593262e-01 -1.137075662612915039e+00
4.309000000000000000e+03 4.768473434448242188e+01 2.366078758239746094e+01 -1.016490817070007324e+00 -6.751692891120910645e-01 -5.074980258941650391e-01 -8.940091729164123535e-01
4.310000000000000000e+03 4.056027984619140625e+01 1.656543350219726562e+01 -9.896389245986938477e-01 -9.725242853164672852e-01 -5.886489748954772949e-01 -1.045897245407104492e+00
4.311000000000000000e+03 3.983444976806640625e+01 1.623333168029785156e+01 -1.029339909553527832e+00 -1.049100160598754883e+00 -6.235320568084716797e-01 -1.073046088218688965e+00
4.312000000000000000e+03 2.829917144775390625e+01 2.359651756286621094e+01 4.418934509158134460e-02 8.781795948743820190e-02 3.960219025611877441e-02 6.667527556419372559e-02
4.313000000000000000e+03 1.933397674560546875e+01 1.406916713714599609e+01 7.131408154964447021e-02 1.481859385967254639e-01 6.585000455379486084e-02 1.008165180683135986e-01
4.314000000000000000e+03 1.901283264160156250e+01 1.383550071716308594e+01 6.961355358362197876e-02 1.505269557237625122e-01 6.604215502738952637e-02 1.012136861681938171e-01
4.315000000000000000e+03 2.043097877502441406e+01 1.431371974945068359e+01 7.985167205333709717e-02 1.404671072959899902e-01 6.609563529491424561e-02 1.038253754377365112e-01
4.316000000000000000e+03 3.426371002197265625e+01 9.465834617614746094e+00 -1.104789614677429199e+00 -1.115848302841186523e+00 -6.661913990974426270e-01 -1.030340552330017090e+00
4.317000000000000000e+03 5.213682174682617188e+01 2.882782936096191406e+01 -1.112412333488464355e+00 -2.957960963249206543e-01 -4.224625229835510254e-01 -8.008616566658020020e-01
4.318000000000000000e+03 5.206442642211914062e+01 2.836643791198730469e+01 -1.071453452110290527e+00 -2.602857649326324463e-01 -3.995217680931091309e-01 -7.784833312034606934e-01
4.319000000000000000e+03 3.209650039672851562e+01 2.687052917480468750e+01 4.504053667187690735e-02 7.626365125179290771e-02 3.639125451445579529e-02 5.818475410342216492e-02
4.320000000000000000e+03 3.267619323730468750e+01 2.820331954956054688e+01 4.165829718112945557e-02 7.413125038146972656e-02 3.473686426877975464e-02 5.570019781589508057e-02
4.321000000000000000e+03 4.595354461669921875e+01 2.230095100402832031e+01 -1.026940107345581055e+00 -8.351899385452270508e-01 -5.586389899253845215e-01 -9.501553177833557129e-01
4.322000000000000000e+03 7.058184051513671875e+01 3.184736824035644531e+01 2.312946081161499023e+00 1.322375679016113281e+01 4.661010742187500000e+00 -1.933537602424621582e+00
4.323000000000000000e+03 2.089685821533203125e+01 1.594743728637695312e+01 6.495627760887145996e-02 1.314854919910430908e-01 5.893253162503242493e-02 9.157115966081619263e-02
4.324000000000000000e+03 1.691533088684082031e+01 1.135190391540527344e+01 7.358483970165252686e-02 1.923119723796844482e-01 7.976904511451721191e-02 1.125268936157226562e-01
4.325000000000000000e+03 4.726869964599609375e+01 2.327178573608398438e+01 -1.014177560806274414e+00 -7.002811431884765625e-01 -5.143375992774963379e-01 -8.987376093864440918e-01
4.326000000000000000e+03 2.122650146484375000e+01 1.667452430725097656e+01 5.879203602671623230e-02 1.271901726722717285e-01 5.579466372728347778e-02 8.696001023054122925e-02
4.327000000000000000e+03 2.128418731689453125e+01 1.629327774047851562e+01 6.430962681770324707e-02 1.289966255426406860e-01 5.799187347292900085e-02 9.046686440706253052e-02
4.328000000000000000e+03 3.160551261901855469e+01 2.603040313720703125e+01 4.406991228461265564e-02 7.708286494016647339e-02 3.634583204984664917e-02 6.065958738327026367e-02
4.329000000000000000e+03 8.203171730041503906e+00 9.811208724975585938e+00 8.130802959203720093e-02 -8.205105550587177277e-04 2.414625510573387146e-02 -2.027172781527042389e-02
4.330000000000000000e+03 8.722677230834960938e+00 1.033585739135742188e+01 6.948424130678176880e-02 2.344050072133541107e-02 2.787742391228675842e-02 -2.408853173255920410e-02
4.331000000000000000e+03 1.384295463562011719e+01 8.985857963562011719e+00 5.463280156254768372e-02 2.786692678928375244e-01 9.999062120914459229e-02 6.734815239906311035e-02
4.332000000000000000e+03 1.405883216857910156e+01 7.885164737701416016e+00 6.767895072698593140e-02 3.394205868244171143e-01 1.221298575401306152e-01 9.346995502710342407e-02
4.333000000000000000e+03 1.323128795623779297e+01 7.144175052642822266e+00 6.560213863849639893e-02 3.886264562606811523e-01 1.362685859203338623e-01 3.938600793480873108e-02
4.334000000000000000e+03 3.400708007812500000e+01 9.017474174499511719e+00 -1.104722857475280762e+00 -1.097907423973083496e+00 -6.607890725135803223e-01 -1.019054532051086426e+00
4.335000000000000000e+03 3.420227050781250000e+01 8.303257942199707031e+00 -1.065618038177490234e+00 -9.980055689811706543e-01 -6.190871000289916992e-01 -9.365329146385192871e-01
4.336000000000000000e+03 1.764615821838378906e+01 1.180953884124755859e+01 7.779004424810409546e-02 1.803623288869857788e-01 7.744571566581726074e-02 1.157837584614753723e-01
4.337000000000000000e+03 2.937932014465332031e+01 4.001011371612548828e+00 -1.883391261100769043e+00 -1.014806985855102539e+00 -8.694595098495483398e-01 -7.595909833908081055e-01
4.338000000000000000e+03 2.612838363647460938e+01 1.051390528678894043e+00 -1.379390120506286621e+00 -3.654927015304565430e-01 -5.234647989273071289e-01 -4.511026144027709961e-01
4.339000000000000000e+03 3.317633438110351562e+01 5.640789508819580078e+00 -1.162379622459411621e+00 -7.764043807983398438e-01 -5.816352367401123047e-01 -7.258304357528686523e-01
4.340000000000000000e+03 3.440071487426757812e+01 7.004359245300292969e+00 -1.018907904624938965e+00 -8.391109704971313477e-01 -5.574056506156921387e-01 -7.848905920982360840e-01
4.341000000000000000e+03 1.239080524444580078e+01 6.138813972473144531e+00 1.226036921143531799e-01 4.013875424861907959e-01 1.571973711252212524e-01 -8.297435194253921509e-02
4.342000000000000000e+03 1.521206855773925781e+01 1.030365276336669922e+01 6.225582212209701538e-02 2.274604439735412598e-01 8.691488206386566162e-02 9.735307842493057251e-02
4.343000000000000000e+03 1.629909896850585938e+01 1.035133552551269531e+01 7.897355407476425171e-02 2.135854810476303101e-01 8.776771277189254761e-02 1.196031570434570312e-01
4.344000000000000000e+03 3.233362960815429688e+01 4.656497955322265625e+00 -1.255585670471191406e+00 -7.297700643539428711e-01 -5.956067442893981934e-01 -6.099905967712402344e-01
4.345000000000000000e+03 5.760660171508789062e+01 2.818647384643554688e+01 -4.080034792423248291e-01 8.333402276039123535e-01 1.276010125875473022e-01 -1.478376388549804688e-01
4.346000000000000000e+03 3.035381889343261719e+01 3.720748901367187500e+00 -1.543209552764892578e+00 -8.267065882682800293e-01 -7.109748125076293945e-01 -5.437344312667846680e-01
4.347000000000000000e+03 3.272644424438476562e+01 5.202305793762207031e+00 -1.228477239608764648e+00 -7.624216675758361816e-01 -5.972696542739868164e-01 -6.986992359161376953e-01
4.348000000000000000e+03 1.568477821350097656e+01 1.079635810852050781e+01 6.485242396593093872e-02 2.143731266260147095e-01 8.376765996217727661e-02 1.010305061936378479e-01
4.349000000000000000e+03 7.092736816406250000e+01 3.249077224731445312e+01 3.609582424163818359e+00 1.251958656311035156e+01 4.838750839233398438e+00 -1.736020326614379883e+00
4.350000000000000000e+03 3.098715400695800781e+01 2.663852500915527344e+01 4.059483483433723450e-02 7.776904851198196411e-02 3.550916537642478943e-02 5.941444262862205505e-02
4.351000000000000000e+03 1.320739078521728516e+01 7.570466518402099609e+00 6.805555522441864014e-02 3.506275117397308350e-01 1.256049275398254395e-01 3.337739035487174988e-02
4.352000000000000000e+03 1.365652084350585938e+01 7.523609638214111328e+00 6.479509174823760986e-02 3.647383153438568115e-01 1.288600265979766846e-01 7.195795327425003052e-02
4.353000000000000000e+03 2.988658142089843750e+01 4.272382259368896484e+00 -1.841607570648193359e+00 -9.661794304847717285e-01 -8.423361182212829590e-01 -7.333364486694335938e-01
4.354000000000000000e+03 3.081719207763671875e+01 3.794804096221923828e+00 -1.478653311729431152e+00 -8.033368587493896484e-01 -6.845970153808593750e-01 -5.317531824111938477e-01
4.355000000000000000e+03 2.666506004333496094e+01 -1.420238912105560303e-01 -3.179383575916290283e-01 -2.980514764785766602e-01 -1.847969442605972290e-01 -1.946891695261001587e-01
4.356000000000000000e+03 3.018131828308105469e+01 2.639518928527832031e+01 3.828235343098640442e-02 7.977925986051559448e-02 3.541848435997962952e-02 5.963946506381034851e-02
4.357000000000000000e+03 2.982128906250000000e+01 2.489521980285644531e+01 4.259638115763664246e-02 8.188245445489883423e-02 3.734365105628967285e-02 6.381895393133163452e-02
4.358000000000000000e+03 2.931308555603027344e+01 3.587224006652832031e+00 -1.737724661827087402e+00 -9.408391118049621582e-01 -8.035691380500793457e-01 -6.606591939926147461e-01
4.359000000000000000e+03 3.081516075134277344e+01 4.260253429412841797e+00 -1.546581268310546875e+00 -8.303343653678894043e-01 -7.130746841430664062e-01 -6.295689344406127930e-01
4.360000000000000000e+03 7.170995330810546875e+01 3.353799057006835938e+01 3.976144313812255859e+00 1.116535949707031250e+01 4.542451381683349609e+00 -5.094199180603027344e-01
4.361000000000000000e+03 5.510831451416015625e+01 2.920696830749511719e+01 -9.153316617012023926e-01 3.380821347236633301e-01 -1.731748580932617188e-01 -6.176472902297973633e-01
4.362000000000000000e+03 5.596498489379882812e+01 2.919609832763671875e+01 -8.181176185607910156e-01 4.710696041584014893e-01 -1.041144058108329773e-01 -5.328212976455688477e-01
4.363000000000000000e+03 3.370705413818359375e+01 8.583945274353027344e+00 -1.108259320259094238e+00 -1.089086651802062988e+00 -6.592038273811340332e-01 -1.015724420547485352e+00
4.364000000000000000e+03 3.455748748779296875e+01 8.746486663818359375e+00 -1.045276165008544922e+00 -1.014535546302795410e+00 -6.179435253143310547e-01 -9.415780901908874512e-01
4.365000000000000000e+03 3.177178764343261719e+01 2.743679046630859375e+01 4.288906976580619812e-02 7.611983269453048706e-02 3.570267185568809509e-02 5.594024062156677246e-02
4.366000000000000000e+03 2.844590187072753906e+01 -3.864521533250808716e-02 -3.278422951698303223e-01 -4.915742576122283936e-01 -2.458249628543853760e-01 -3.502806276082992554e-02
4.367000000000000000e+03 2.816130447387695312e+01 8.893483877182006836e-01 -8.596225380897521973e-01 -5.383167266845703125e-01 -4.193817675113677979e-01 -1.528899520635604858e-01
4.368000000000000000e+03 7.128036499023437500e+01 3.388142395019531250e+01 4.604306697845458984e+00 1.166911602020263672e+01 4.882026672363281250e+00 -1.067026183009147644e-01
4.369000000000000000e+03 7.202559661865234375e+01 3.398016357421875000e+01 3.652559757232666016e+00 1.082873916625976562e+01 4.344389438629150391e+00 -2.734305337071418762e-02
4.370000000000000000e+03 6.325764465332031250e+01 2.897876358032226562e+01 5.019943118095397949e-01 2.787367820739746094e+00 9.868085980415344238e-01 1.987808704376220703e+00
4.371000000000000000e+03 6.210041427612304688e+01 2.793935394287109375e+01 3.176297843456268311e-01 2.469797134399414062e+00 8.362280726432800293e-01 1.428194522857666016e+00
4.372000000000000000e+03 6.355396270751953125e+01 2.911564826965332031e+01 5.354289412498474121e-01 3.022047281265258789e+00 1.067242860794067383e+00 2.174790382385253906e+00
4.373000000000000000e+03 3.038981056213378906e+01 4.365137100219726562e+00 -1.709889650344848633e+00 -8.818665742874145508e-01 -7.775268554687500000e-01 -6.936165094375610352e-01
4.374000000000000000e+03 2.930912590026855469e+01 2.422789573669433594e+01 4.332502558827400208e-02 8.386810868978500366e-02 3.815793991088867188e-02 6.567303091287612915e-02
4.375000000000000000e+03 3.395693588256835938e+01 3.012978744506835938e+01 4.552034288644790649e-02 7.131475210189819336e-02 3.505052626132965088e-02 4.996660351753234863e-02
4.376000000000000000e+03 3.367498779296875000e+01 6.479601860046386719e+00 -1.093452095985412598e+00 -8.472257852554321289e-01 -5.822033286094665527e-01 -7.973957657814025879e-01
4.377000000000000000e+03 3.075378990173339844e+01 2.608305740356445312e+01 4.302177950739860535e-02 7.892278581857681274e-02 3.658336773514747620e-02 6.014761701226234436e-02
4.378000000000000000e+03 2.994611167907714844e+01 2.583403015136718750e+01 4.126308858394622803e-02 8.091849088668823242e-02 3.665447235107421875e-02 6.052168086171150208e-02
4.379000000000000000e+03 3.389146804809570312e+01 7.892077445983886719e+00 -1.083495736122131348e+00 -9.946972727775573730e-01 -6.234579086303710938e-01 -9.384701848030090332e-01
4.380000000000000000e+03 2.962129592895507812e+01 3.402280569076538086e+00 -1.658124566078186035e+00 -8.647310733795166016e-01 -7.568566799163818359e-01 -5.658761262893676758e-01
4.381000000000000000e+03 1.796737480163574219e+01 1.242330837249755859e+01 7.515206187963485718e-02 1.709967851638793945e-01 7.384465634822845459e-02 1.102675646543502808e-01
4.382000000000000000e+03 6.133559799194335938e+01 2.779243469238281250e+01 2.379659861326217651e-01 2.059435129165649414e+00 6.892203092575073242e-01 1.086411237716674805e+00
4.383000000000000000e+03 7.237398529052734375e+01 2.679166984558105469e+01 -8.923351168632507324e-01 9.977312088012695312e+00 2.725492954254150391e+00 -9.458230733871459961e-01
4.384000000000000000e+03 7.130467987060546875e+01 2.651064491271972656e+01 -1.136035680770874023e+00 1.006927776336669922e+01 2.679972648620605469e+00 -4.525756537914276123e-01
4.385000000000000000e+03 3.098220443725585938e+01 -1.459894657135009766e+00 2.235348373651504517e-01 -5.988733172416687012e-01 -1.126015409827232361e-01 4.142796620726585388e-02
4.386000000000000000e+03 1.237162876129150391e+01 6.446842193603515625e+00 1.095145791769027710e-01 3.742703795433044434e-01 1.451354920864105225e-01 -6.762261688709259033e-02
4.387000000000000000e+03 7.264537811279296875e+01 3.248252487182617188e+01 2.453349828720092773e+00 1.029734325408935547e+01 3.825207948684692383e+00 -1.258243203163146973e+00
4.388000000000000000e+03 2.931621170043945312e+01 -9.131417274475097656e-01 7.711772620677947998e-02 -5.710576772689819336e-01 -1.481819897890090942e-01 -2.233771234750747681e-02
4.389000000000000000e+03 3.474574661254882812e+01 1.136514759063720703e+01 -1.161964774131774902e+00 -1.251857876777648926e+00 -7.241467833518981934e-01 -1.150830626487731934e+00
4.390000000000000000e+03 3.421480560302734375e+01 1.090063285827636719e+01 -1.186068773269653320e+00 -1.254069685935974121e+00 -7.320415377616882324e-01 -1.153444886207580566e+00
4.391000000000000000e+03 5.647293853759765625e+01 2.792883491516113281e+01 -5.508930087089538574e-01 6.987988948822021484e-01 4.437176510691642761e-02 -2.945037484169006348e-01
4.392000000000000000e+03 3.383327484130859375e+01 6.881379604339599609e+00 -1.082920670509338379e+00 -8.689569234848022461e-01 -5.855632424354553223e-01 -8.344248533248901367e-01
4.393000000000000000e+03 3.514446258544921875e+01 1.081903457641601562e+01 -1.097607374191284180e+00 -1.157432794570922852e+00 -6.765120625495910645e-01 -1.060156464576721191e+00
4.394000000000000000e+03 7.135822296142578125e+01 2.549066925048828125e+01 -1.144464015960693359e+00 9.646552085876464844e+00 2.550626277923583984e+00 -3.362261056900024414e-01
4.395000000000000000e+03 3.464288330078125000e+01 3.188139152526855469e+01 4.589623585343360901e-02 6.765604764223098755e-02 3.406568616628646851e-02 4.671436175704002380e-02
4.396000000000000000e+03 3.238341522216796875e+01 2.900115585327148438e+01 3.941122815012931824e-02 7.460159063339233398e-02 3.420384600758552551e-02 5.332284048199653625e-02
4.397000000000000000e+03 3.549348449707031250e+01 3.311939239501953125e+01 4.470426216721534729e-02 6.441035866737365723e-02 3.273438662290573120e-02 4.610155522823333740e-02
4.398000000000000000e+03 3.191675758361816406e+01 2.793613433837890625e+01 3.979767486453056335e-02 7.525499910116195679e-02 3.451580181717872620e-02 5.600341781973838806e-02
4.399000000000000000e+03 7.151982116699218750e+01 3.432192993164062500e+01 4.207303524017333984e+00 1.145896911621093750e+01 4.699881553649902344e+00 5.043050050735473633e-01
4.400000000000000000e+03 3.495908737182617188e+01 9.813047409057617188e+00 -1.060091853141784668e+00 -1.079677820205688477e+00 -6.419308781623840332e-01 -9.921206235885620117e-01
4.401000000000000000e+03 6.944529724121093750e+01 3.125669479370117188e+01 3.908623456954956055e-01 1.487978744506835938e+01 4.581194877624511719e+00 -8.062193393707275391e-01
4.402000000000000000e+03 9.522442817687988281e+00 1.156108665466308594e+01 4.324373230338096619e-02 5.978651717305183411e-02 3.090907447040081024e-02 -2.077463082969188690e-02
4.403000000000000000e+03 5.471786499023437500e+01 2.872140121459960938e+01 -8.839848041534423828e-01 3.184680342674255371e-01 -1.696550250053405762e-01 -5.849720239639282227e-01
4.404000000000000000e+03 5.521064758300781250e+01 2.873270034790039062e+01 -8.309197425842285156e-01 4.087050557136535645e-01 -1.266644150018692017e-01 -5.467153787612915039e-01
4.405000000000000000e+03 1.403332138061523438e+01 9.314799308776855469e+00 5.717385187745094299e-02 2.665987312793731689e-01 9.713177382946014404e-02 7.072897255420684814e-02
4.406000000000000000e+03 1.001850700378417969e+01 6.368161201477050781e+00 1.978185474872589111e-01 3.657558560371398926e-02 7.031823694705963135e-02 -6.905157119035720825e-02
4.407000000000000000e+03 5.818004989624023438e+01 2.797253990173339844e+01 -2.823450267314910889e-01 9.849478602409362793e-01 2.107808589935302734e-01 1.285426970571279526e-02
4.408000000000000000e+03 5.875083160400390625e+01 2.771778488159179688e+01 -1.652462631464004517e-01 1.177459359169006348e+00 3.036639392375946045e-01 1.956666260957717896e-01
4.409000000000000000e+03 8.115081787109375000e+00 1.090738391876220703e+01 6.012687832117080688e-02 1.870370120741426945e-03 1.859917491674423218e-02 -1.979158446192741394e-02
4.410000000000000000e+03 6.078296279907226562e+01 2.676189422607421875e+01 1.416174769401550293e-01 2.175630331039428711e+00 6.951743960380554199e-01 9.630298018455505371e-01
4.411000000000000000e+03 7.219261932373046875e+01 2.902885818481445312e+01 -2.512351572513580322e-01 1.075566387176513672e+01 3.151328563690185547e+00 -1.448535561561584473e+00
4.412000000000000000e+03 4.004925537109375000e+01 3.590334320068359375e+01 7.217469811439514160e-02 4.715752601623535156e-02 3.579966723918914795e-02 3.410752862691879272e-02
4.413000000000000000e+03 3.186741447448730469e+01 -1.600428104400634766e+00 2.343408763408660889e-01 -5.958365201950073242e-01 -1.084486842155456543e-01 5.571287497878074646e-02
4.414000000000000000e+03 8.578124046325683594e+00 1.135802459716796875e+01 4.837896674871444702e-02 2.057287469506263733e-02 2.068555168807506561e-02 -2.029515616595745087e-02
4.415000000000000000e+03 9.714342117309570312e+00 6.903929710388183594e+00 1.711718440055847168e-01 3.199397772550582886e-02 6.094974651932716370e-02 -5.578256398439407349e-02
4.416000000000000000e+03 6.033832550048828125e+01 2.710717391967773438e+01 1.201200932264328003e-01 1.866976618766784668e+00 5.961290001869201660e-01 7.831658720970153809e-01
4.417000000000000000e+03 7.215853118896484375e+01 3.307287597656250000e+01 3.224562883377075195e+00 1.071858024597167969e+01 4.182942867279052734e+00 -9.212206006050109863e-01
4.418000000000000000e+03 5.645113754272460938e+01 2.845983695983886719e+01 -6.362353563308715820e-01 6.127527952194213867e-01 -7.044774014502763748e-03 -3.826925456523895264e-01
4.419000000000000000e+03 5.688401031494140625e+01 2.733102226257324219e+01 -4.132429957389831543e-01 8.465303182601928711e-01 1.299862116575241089e-01 -1.448186188936233521e-01
4.420000000000000000e+03 6.986969757080078125e+01 3.119109725952148438e+01 6.873651146888732910e-01 1.422332382202148438e+01 4.473206520080566406e+00 -1.242391347885131836e+00
4.421000000000000000e+03 1.014350509643554688e+01 7.372265815734863281e+00 1.466310769319534302e-01 7.905232906341552734e-02 6.770502030849456787e-02 -6.112956628203392029e-02
4.422000000000000000e+03 3.218539047241210938e+01 -2.082521438598632812e+00 3.262904882431030273e-01 -5.939818620681762695e-01 -8.030740916728973389e-02 5.442110449075698853e-02
4.423000000000000000e+03 3.122719192504882812e+01 -6.360874772071838379e-01 -2.006507106125354767e-02 -6.235787868499755859e-01 -1.930931657552719116e-01 4.276342317461967468e-02
4.424000000000000000e+03 7.093911743164062500e+01 2.168074798583984375e+01 -8.969806432723999023e-01 8.326626777648925781e+00 2.228893756866455078e+00 1.156692057847976685e-01
4.425000000000000000e+03 7.193789672851562500e+01 2.333932876586914062e+01 -9.439058899879455566e-01 8.899649620056152344e+00 2.386723041534423828e+00 -2.839781641960144043e-01
4.426000000000000000e+03 1.085422039031982422e+01 -8.989604949951171875e+00 -1.883801966905593872e-01 -4.685618877410888672e-01 -1.970826238393783569e-01 -6.576551198959350586e-01
4.427000000000000000e+03 1.156085491180419922e+01 -7.384443283081054688e+00 -3.340258598327636719e-01 -4.368348121643066406e-01 -2.312581986188888550e-01 -6.912665963172912598e-01
4.428000000000000000e+03 1.020534038543701172e+01 -8.513182640075683594e+00 -1.829455643892288208e-01 -4.204339981079101562e-01 -1.810138672590255737e-01 -5.945674777030944824e-01
4.429000000000000000e+03 6.797849273681640625e+01 3.359067678451538086e+00 1.992329396307468414e-02 6.001023769378662109e+00 1.806284189224243164e+00 5.195372104644775391e-01
4.430000000000000000e+03 6.810070800781250000e+01 9.602127671241760254e-01 5.157068371772766113e-02 5.975671768188476562e+00 1.808172702789306641e+00 4.903703033924102783e-01
4.431000000000000000e+03 8.329634666442871094e+00 8.552481651306152344e+00 1.101017966866493225e-01 -1.569957286119461060e-02 2.832066640257835388e-02 -1.821943745017051697e-02
4.432000000000000000e+03 1.052536869049072266e+01 2.091896057128906250e+01 -6.620458327233791351e-03 2.803599275648593903e-02 6.424660328775644302e-03 -8.457101881504058838e-03
4.433000000000000000e+03 6.835425567626953125e+01 -1.138994121551513672e+01 6.674580276012420654e-02 5.833056926727294922e+00 1.769940733909606934e+00 3.629336953163146973e-01
4.434000000000000000e+03 6.852648925781250000e+01 -1.295258903503417969e+01 4.973436519503593445e-02 5.848267555236816406e+00 1.769400477409362793e+00 3.441113829612731934e-01
4.435000000000000000e+03 8.856762886047363281e+00 1.189351272583007812e+01 4.283631592988967896e-02 3.410410508513450623e-02 2.308212593197822571e-02 -2.262363955378532410e-02
4.436000000000000000e+03 3.440980911254882812e+01 -2.381716966629028320e+00 3.457771837711334229e-01 -5.119615793228149414e-01 -4.985531792044639587e-02 6.908787041902542114e-02
4.437000000000000000e+03 7.015882110595703125e+01 8.725765228271484375e+00 -9.062841534614562988e-02 6.758412837982177734e+00 2.000335216522216797e+00 4.598412513732910156e-01
4.438000000000000000e+03 6.852625274658203125e+01 -1.714118957519531250e+01 3.316800668835639954e-02 5.789067268371582031e+00 1.746670603752136230e+00 3.169522285461425781e-01
4.439000000000000000e+03 6.643779754638671875e+01 -1.737505149841308594e+01 5.076615139842033386e-02 5.360829830169677734e+00 1.623478889465332031e+00 3.278872966766357422e-01
4.440000000000000000e+03 6.877483367919921875e+01 -2.737186431884765625e+00 6.226604059338569641e-02 6.066451072692871094e+00 1.838615179061889648e+00 4.411638081073760986e-01
4.441000000000000000e+03 7.245801544189453125e+01 2.289661026000976562e+01 -8.640980124473571777e-01 8.826084136962890625e+00 2.388596057891845703e+00 -3.544647097587585449e-01
4.442000000000000000e+03 3.800951385498046875e+01 3.489539337158203125e+01 5.581137537956237793e-02 5.814117565751075745e-02 3.418576344847679138e-02 3.937010839581489563e-02
4.443000000000000000e+03 3.699440765380859375e+01 3.445643615722656250e+01 5.092795938253402710e-02 5.737427622079849243e-02 3.249067068099975586e-02 4.321190342307090759e-02
4.444000000000000000e+03 3.995906829833984375e+01 -6.231145381927490234e+00 4.757224321365356445e-01 2.845080010592937469e-02 1.512519717216491699e-01 5.490078404545783997e-02
4.445000000000000000e+03 3.758613204956054688e+01 -5.218078136444091797e+00 5.028089880943298340e-01 -2.571983635425567627e-01 7.368317246437072754e-02 4.067371040582656860e-02
4.446000000000000000e+03 7.935057640075683594e+00 -1.068769931793212891e+01 -5.509895831346511841e-02 -4.653281569480895996e-01 -1.561281383037567139e-01 -4.986858665943145752e-01
4.447000000000000000e+03 1.025127506256103516e+01 -1.278992748260498047e+01 5.646780878305435181e-02 -5.776401162147521973e-01 -1.563516855239868164e-01 -5.624864101409912109e-01
4.448000000000000000e+03 6.830141448974609375e+01 1.947055435180664062e+01 -6.810469031333923340e-01 7.050992488861083984e+00 1.910983681678771973e+00 6.432860493659973145e-01
4.449000000000000000e+03 3.683990478515625000e+01 -5.868920803070068359e+00 5.560293793678283691e-01 -3.114226758480072021e-01 7.338201999664306641e-02 3.162676235660910606e-03
4.450000000000000000e+03 7.056635284423828125e+01 1.249532127380371094e+01 -2.157781422138214111e-01 7.068187236785888672e+00 2.055722713470458984e+00 4.070749580860137939e-01
4.451000000000000000e+03 4.404409790039062500e+01 -1.191238307952880859e+01 3.383916318416595459e-01 7.447108030319213867e-01 3.249307274818420410e-01 2.762633003294467926e-02
4.452000000000000000e+03 6.965290069580078125e+01 -4.606426239013671875e+00 6.151243671774864197e-02 6.233231067657470703e+00 1.888423085212707520e+00 4.041696488857269287e-01
4.453000000000000000e+03 9.333086967468261719e+00 1.637117576599121094e+01 4.856331739574670792e-03 3.005675785243511200e-02 1.047392655164003372e-02 -1.526889577507972717e-02
4.454000000000000000e+03 7.166558074951171875e+01 2.441560745239257812e+01 -1.078331351280212402e+00 9.251889228820800781e+00 2.452067375183105469e+00 -3.176478147506713867e-01
4.455000000000000000e+03 7.046951293945312500e+01 2.398149299621582031e+01 -1.127678751945495605e+00 8.897227287292480469e+00 2.330864667892456055e+00 1.474433243274688721e-01
4.456000000000000000e+03 6.951919555664062500e+01 -9.494937896728515625e+00 5.613835155963897705e-02 6.130168914794921875e+00 1.855892181396484375e+00 3.630408346652984619e-01
4.457000000000000000e+03 6.924601745605468750e+01 -1.179652023315429688e+01 5.151792615652084351e-02 6.018708705902099609e+00 1.821068048477172852e+00 3.400971889495849609e-01
4.458000000000000000e+03 6.942510986328125000e+01 -1.366748428344726562e+01 3.893047943711280823e-02 6.019848346710205078e+00 1.817633628845214844e+00 3.205058872699737549e-01
4.459000000000000000e+03 7.170775604248046875e+01 1.371392822265625000e+01 -2.511199712753295898e-01 7.471016883850097656e+00 2.165969133377075195e+00 3.107749223709106445e-01
4.460000000000000000e+03 4.175618362426757812e+01 -8.721472740173339844e+00 4.548487961292266846e-01 3.208116292953491211e-01 2.326981276273727417e-01 3.802313655614852905e-02
4.461000000000000000e+03 4.097793960571289062e+01 -7.638081550598144531e+00 4.797974228858947754e-01 1.910294592380523682e-01 2.012480646371841431e-01 4.626993834972381592e-02
4.462000000000000000e+03 6.818774414062500000e+01 -2.397311782836914062e+01 3.915659710764884949e-02 5.676867961883544922e+00 1.714807271957397461e+00 2.887759506702423096e-01
4.463000000000000000e+03 1.174482154846191406e+01 -1.500894832611083984e+01 1.390226185321807861e-01 -6.100969314575195312e-01 -1.413222849369049072e-01 -5.287743806838989258e-01
4.464000000000000000e+03 1.114811992645263672e+01 2.348013687133789062e+01 -8.996040560305118561e-03 2.372152730822563171e-02 4.417646210640668869e-03 -6.281718611717224121e-03
4.465000000000000000e+03 4.051223373413085938e+01 -6.642843246459960938e+00 4.845093786716461182e-01 1.041216105222702026e-01 1.765892952680587769e-01 4.896141961216926575e-02
4.466000000000000000e+03 1.261262226104736328e+01 -6.095382213592529297e+00 -4.866083264350891113e-01 -4.087694883346557617e-01 -2.686133384704589844e-01 -7.365407347679138184e-01
4.467000000000000000e+03 7.117444610595703125e+01 7.351316452026367188e+00 -5.058706551790237427e-02 7.001533985137939453e+00 2.085283994674682617e+00 4.258159697055816650e-01
4.468000000000000000e+03 9.403041839599609375e+00 -1.547111797332763672e+01 9.702499955892562866e-02 -6.394092440605163574e-01 -1.627152711153030396e-01 -4.971875250339508057e-01
4.469000000000000000e+03 9.942569732666015625e+00 -1.971959114074707031e+01 1.346099376678466797e-01 -6.806810498237609863e-01 -1.638213396072387695e-01 -4.010701775550842285e-01
4.470000000000000000e+03 1.086347675323486328e+01 1.626844215393066406e+01 3.601810662075877190e-03 6.341361999511718750e-02 2.010462805628776550e-02 -4.203939810395240784e-03
4.471000000000000000e+03 9.667813301086425781e+00 1.695148658752441406e+01 2.201980911195278168e-03 3.448708727955818176e-02 1.100672129541635513e-02 -1.190330646932125092e-02
4.472000000000000000e+03 7.001510620117187500e+01 1.858223724365234375e+01 -6.274342536926269531e-01 7.502024650573730469e+00 2.062376976013183594e+00 3.713337779045104980e-01
4.473000000000000000e+03 1.126327323913574219e+01 -8.185307502746582031e+00 -2.120243012905120850e-01 -4.498683214187622070e-01 -1.985677927732467651e-01 -6.514889597892761230e-01
4.474000000000000000e+03 1.123790454864501953e+01 -1.053488731384277344e+01 -7.090245932340621948e-02 -5.549527406692504883e-01 -1.877565532922744751e-01 -6.593561768531799316e-01
4.475000000000000000e+03 1.670078086853027344e+01 -1.976190948486328125e+01 2.478629201650619507e-01 -2.858146131038665771e-01 -1.138550415635108948e-02 -3.688518404960632324e-01
4.476000000000000000e+03 1.278630161285400391e+01 2.341004562377929688e+01 -7.941996678709983826e-03 4.420253634452819824e-02 1.087816152721643448e-02 1.985718961805105209e-03
4.477000000000000000e+03 1.213023948669433594e+01 2.640754890441894531e+01 -9.315756149590015411e-03 2.354220114648342133e-02 4.267933312803506851e-03 -2.695019356906414032e-03
4.478000000000000000e+03 3.958906555175781250e+01 3.763171005249023438e+01 7.569932192564010620e-02 4.472023621201515198e-02 3.612586855888366699e-02 2.524103596806526184e-02
4.479000000000000000e+03 3.666120147705078125e+01 4.124669647216796875e+01 5.882836133241653442e-02 5.333698168396949768e-02 3.364960476756095886e-02 4.224862437695264816e-03
4.480000000000000000e+03 1.012705421447753906e+01 -2.237555503845214844e+01 1.442082524299621582e-01 -6.878767609596252441e-01 -1.631005406379699707e-01 -3.514800369739532471e-01
4.481000000000000000e+03 1.258090114593505859e+01 -2.245523643493652344e+01 1.784290522336959839e-01 -5.555571913719177246e-01 -1.131384447216987610e-01 -3.736243247985839844e-01
4.482000000000000000e+03 4.333623504638671875e+01 -1.712757682800292969e+01 1.372280418872833252e-01 6.882121562957763672e-01 2.476320564746856689e-01 1.037868112325668335e-02
4.483000000000000000e+03 4.377147293090820312e+01 -1.547466278076171875e+01 2.065528333187103271e-01 7.558908462524414062e-01 2.887330949306488037e-01 8.920115418732166290e-03
4.484000000000000000e+03 6.911737060546875000e+01 -2.284910392761230469e+01 2.951387129724025726e-02 5.850178241729736328e+00 1.763907551765441895e+00 2.812913656234741211e-01
4.485000000000000000e+03 6.596420288085937500e+01 -2.390645790100097656e+01 5.036580935120582581e-02 5.222891330718994141e+00 1.581977128982543945e+00 2.985353171825408936e-01
4.486000000000000000e+03 5.072182464599609375e+01 -2.215184211730957031e+01 -1.878875307738780975e-02 2.305769443511962891e+00 6.860941648483276367e-01 1.484943479299545288e-01
4.487000000000000000e+03 4.981608963012695312e+01 -2.602462959289550781e+01 -7.410846650600433350e-02 2.228762149810791016e+00 6.463961005210876465e-01 1.718417555093765259e-01
4.488000000000000000e+03 5.097998809814453125e+01 -2.459723472595214844e+01 -4.049760848283767700e-02 2.441353321075439453e+00 7.202566862106323242e-01 1.895637959241867065e-01
4.489000000000000000e+03 6.895818328857421875e+01 2.185459136962890625e+00 2.337998710572719574e-02 6.214277744293212891e+00 1.871297240257263184e+00 4.813007116317749023e-01
4.490000000000000000e+03 6.797175598144531250e+01 2.150490045547485352e+00 3.446349501609802246e-02 5.965924263000488281e+00 1.800116419792175293e+00 5.059776902198791504e-01
4.491000000000000000e+03 1.090358734130859375e+01 -1.661896324157714844e+01 1.443200111389160156e-01 -6.282600760459899902e-01 -1.451820135116577148e-01 -4.875743091106414795e-01
4.492000000000000000e+03 6.669571685791015625e+01 3.063983345031738281e+01 8.449015021324157715e-02 9.362048149108886719e+00 2.833961486816406250e+00 4.403445243835449219e+00
4.493000000000000000e+03 6.641568756103515625e+01 3.018762397766113281e+01 5.656927824020385742e-02 8.280930519104003906e+00 2.501250028610229492e+00 4.042599678039550781e+00
4.494000000000000000e+03 6.725621795654296875e+01 3.080883407592773438e+01 -3.734628260135650635e-01 1.152707958221435547e+01 3.346085071563720703e+00 4.029981613159179688e+00
4.495000000000000000e+03 4.264635467529296875e+01 1.811580848693847656e+01 -8.923270702362060547e-01 -8.590071201324462891e-01 -5.254002809524536133e-01 -9.866599440574645996e-01
4.496000000000000000e+03 2.680127716064453125e+01 1.818812936544418335e-01 -6.572729945182800293e-01 -3.645543456077575684e-01 -3.065482079982757568e-01 -1.868031769990921021e-01
4.497000000000000000e+03 4.124956512451171875e+01 1.721702957153320312e+01 -9.621203541755676270e-01 -9.389963150024414062e-01 -5.703350305557250977e-01 -1.044716119766235352e+00
4.498000000000000000e+03 2.896354293823242188e+01 3.691994428634643555e+00 -1.906122446060180664e+00 -1.006694078445434570e+00 -8.738449811935424805e-01 -7.739367485046386719e-01
4.499000000000000000e+03 4.843187332153320312e+01 2.433889770507812500e+01 -9.992604255676269531e-01 -6.112515926361083984e-01 -4.831536114215850830e-01 -8.721575140953063965e-01
4.500000000000000000e+03 1.755691528320312500e+01 1.225571823120117188e+01 7.167994976043701172e-02 1.748869419097900391e-01 7.397007197141647339e-02 1.092517077922821045e-01
4.501000000000000000e+03 1.803726196289062500e+01 1.310189247131347656e+01 6.734551489353179932e-02 1.645144224166870117e-01 6.955798715353012085e-02 1.022268384695053101e-01
4.502000000000000000e+03 1.018747043609619141e+01 1.405792522430419922e+01 1.861244812607765198e-02 6.768650561571121216e-02 2.588968537747859955e-02 -1.083139423280954361e-02
4.503000000000000000e+03 6.428644561767578125e+01 2.869342231750488281e+01 3.831288814544677734e-01 4.172924995422363281e+00 1.366816163063049316e+00 2.560582160949707031e+00
4.504000000000000000e+03 6.413819885253906250e+01 2.935283851623535156e+01 5.680224895477294922e-01 3.603569507598876953e+00 1.251477599143981934e+00 2.565798044204711914e+00
4.505000000000000000e+03 4.473933029174804688e+01 2.081615257263183594e+01 -9.627823829650878906e-01 -8.624136447906494141e-01 -5.475587844848632812e-01 -9.625502228736877441e-01
4.506000000000000000e+03 4.287958526611328125e+01 1.891369819641113281e+01 -9.286379218101501465e-01 -9.152802228927612305e-01 -5.531754493713378906e-01 -1.025037050247192383e+00
4.507000000000000000e+03 4.844091415405273438e+01 2.493002319335937500e+01 -1.049676775932312012e+00 -6.789332628250122070e-01 -5.185829997062683105e-01 -9.296390414237976074e-01
4.508000000000000000e+03 5.403863906860351562e+01 2.834169197082519531e+01 -9.061892032623291016e-01 2.187393605709075928e-01 -2.062349468469619751e-01 -6.050437688827514648e-01
4.509000000000000000e+03 6.465541839599609375e+01 2.953672409057617188e+01 5.996780991554260254e-01 4.238080978393554688e+00 1.451327681541442871e+00 2.973677873611450195e+00
4.510000000000000000e+03 6.623406982421875000e+01 2.993610382080078125e+01 7.931222766637802124e-02 7.800613403320312500e+00 2.363977670669555664e+00 3.873121261596679688e+00
4.511000000000000000e+03 4.678529357910156250e+01 2.308657455444335938e+01 -1.044071674346923828e+00 -7.742429971694946289e-01 -5.454944372177124023e-01 -9.341787695884704590e-01
4.512000000000000000e+03 4.814468765258789062e+01 2.366188049316406250e+01 -9.689790606498718262e-01 -5.855383276939392090e-01 -4.663552045822143555e-01 -8.378746509552001953e-01
4.513000000000000000e+03 2.647002029418945312e+01 2.177006721496582031e+01 4.837966710329055786e-02 9.598262608051300049e-02 4.330869019031524658e-02 7.091794908046722412e-02
4.514000000000000000e+03 2.529417800903320312e+01 2.062319564819335938e+01 5.067310109734535217e-02 1.016713157296180725e-01 4.570332542061805725e-02 7.394304126501083374e-02
4.515000000000000000e+03 4.872883224487304688e+01 2.522815322875976562e+01 -1.048335671424865723e+00 -6.621589064598083496e-01 -5.131483674049377441e-01 -9.207879900932312012e-01
4.516000000000000000e+03 2.665807533264160156e+01 8.508249521255493164e-01 -1.198613286018371582e+00 -4.405319988727569580e-01 -4.917435944080352783e-01 -3.480580747127532959e-01
4.517000000000000000e+03 2.634287452697753906e+01 7.141107320785522461e-01 -1.079837560653686523e+00 -3.335537612438201904e-01 -4.240173697471618652e-01 -3.452490866184234619e-01
4.518000000000000000e+03 3.607126235961914062e+01 1.217480754852294922e+01 -1.093928813934326172e+00 -1.179483771324157715e+00 -6.820237636566162109e-01 -1.087796449661254883e+00
4.519000000000000000e+03 3.711746597290039062e+01 1.317787647247314453e+01 -1.064981341361999512e+00 -1.155131101608276367e+00 -6.660337448120117188e-01 -1.077648520469665527e+00
4.520000000000000000e+03 4.503892135620117188e+01 2.100589370727539062e+01 -9.594451189041137695e-01 -8.423738479614257812e-01 -5.405457019805908203e-01 -9.448411464691162109e-01
4.521000000000000000e+03 4.424853897094726562e+01 2.086104965209960938e+01 -1.004146337509155273e+00 -9.397630691528320312e-01 -5.831727981567382812e-01 -1.018462538719177246e+00
4.522000000000000000e+03 5.013101959228515625e+01 2.697490882873535156e+01 -1.087703824043273926e+00 -5.928120613098144531e-01 -5.041547417640686035e-01 -8.897638916969299316e-01
4.523000000000000000e+03 2.638724708557128906e+01 1.415082693099975586e+00 -1.618720293045043945e+00 -4.444075226783752441e-01 -6.189383268356323242e-01 -5.070370435714721680e-01
4.524000000000000000e+03 4.507511901855468750e+01 2.154845428466796875e+01 -1.017633318901062012e+00 -8.955335617065429688e-01 -5.739500522613525391e-01 -9.862929582595825195e-01
4.525000000000000000e+03 4.020462036132812500e+01 1.638021278381347656e+01 -1.007641911506652832e+00 -1.006426930427551270e+00 -6.042206883430480957e-01 -1.055123925209045410e+00
4.526000000000000000e+03 4.175728607177734375e+01 1.680287933349609375e+01 -8.976845145225524902e-01 -8.427956104278564453e-01 -5.221440196037292480e-01 -9.658364057540893555e-01
4.527000000000000000e+03 2.091221237182617188e+01 1.625721359252929688e+01 6.154328957200050354e-02 1.298034936189651489e-01 5.740403383970260620e-02 8.872155100107192993e-02
4.528000000000000000e+03 5.144288253784179688e+01 2.772254180908203125e+01 -1.053748250007629395e+00 -3.585181534290313721e-01 -4.236799478530883789e-01 -7.902643680572509766e-01
4.529000000000000000e+03 2.509709739685058594e+01 1.956130027770996094e+01 5.903957784175872803e-02 1.041334196925163269e-01 4.895189777016639709e-02 7.918006181716918945e-02
4.530000000000000000e+03 4.988053512573242188e+01 2.649800300598144531e+01 -1.066272020339965820e+00 -5.944064259529113770e-01 -4.982035160064697266e-01 -8.829957842826843262e-01
4.531000000000000000e+03 4.316757202148437500e+01 1.980550193786621094e+01 -9.741657972335815430e-01 -9.774021506309509277e-01 -5.854703783988952637e-01 -1.056240320205688477e+00
4.532000000000000000e+03 4.406595611572265625e+01 2.008194160461425781e+01 -9.399296641349792480e-01 -8.864974379539489746e-01 -5.479281544685363770e-01 -9.832025766372680664e-01
4.533000000000000000e+03 2.219444274902343750e+01 1.753281784057617188e+01 5.806874856352806091e-02 1.201434656977653503e-01 5.346366390585899353e-02 8.523634076118469238e-02
4.534000000000000000e+03 2.055062294006347656e+01 1.559367847442626953e+01 6.540565937757492065e-02 1.347094923257827759e-01 6.003454700112342834e-02 9.251011162996292114e-02
4.535000000000000000e+03 1.759087944030761719e+01 1.390061283111572266e+01 5.375548824667930603e-02 1.589692533016204834e-01 6.381741911172866821e-02 8.867128938436508179e-02
4.536000000000000000e+03 4.350679779052734375e+01 1.980901336669921875e+01 -9.545888900756835938e-01 -9.318596124649047852e-01 -5.659345388412475586e-01 -1.023319125175476074e+00
4.537000000000000000e+03 3.759183502197265625e+01 1.335328865051269531e+01 -1.039255499839782715e+00 -1.114144802093505859e+00 -6.460200548171997070e-01 -1.050537705421447754e+00
4.538000000000000000e+03 4.532280349731445312e+01 2.127147483825683594e+01 -9.646273255348205566e-01 -8.246243000030517578e-01 -5.367754697799682617e-01 -9.357811808586120605e-01
4.539000000000000000e+03 7.012953948974609375e+01 3.128010940551757812e+01 1.021873474121093750e+00 1.384421157836914062e+01 4.459825515747070312e+00 -1.510611057281494141e+00
4.540000000000000000e+03 6.922393798828125000e+01 3.110676956176757812e+01 -1.627911929972469807e-03 1.494927787780761719e+01 4.484294891357421875e+00 -3.964966237545013428e-01
4.541000000000000000e+03 2.167937088012695312e+01 1.754350662231445312e+01 5.476337298750877380e-02 1.221563145518302917e-01 5.307590588927268982e-02 8.264454454183578491e-02
4.542000000000000000e+03 5.045429992675781250e+01 2.714413070678710938e+01 -1.076644659042358398e+00 -5.411524176597595215e-01 -4.853391349315643311e-01 -8.616077899932861328e-01
4.543000000000000000e+03 5.195246887207031250e+01 2.756825447082519531e+01 -9.938058257102966309e-01 -2.043815404176712036e-01 -3.594562113285064697e-01 -7.202781438827514648e-01
4.544000000000000000e+03 4.654767227172851562e+01 2.281092453002929688e+01 -1.034461140632629395e+00 -7.890012860298156738e-01 -5.470387339591979980e-01 -9.334287047386169434e-01
4.545000000000000000e+03 3.809364318847656250e+01 1.402042293548583984e+01 -1.035037517547607422e+00 -1.106077790260314941e+00 -6.423345804214477539e-01 -1.050757050514221191e+00
4.546000000000000000e+03 3.821496200561523438e+01 1.452748870849609375e+01 -1.055391192436218262e+00 -1.140499353408813477e+00 -6.587671637535095215e-01 -1.079928994178771973e+00
4.547000000000000000e+03 3.566978073120117188e+01 1.173932456970214844e+01 -1.110918760299682617e+00 -1.187217235565185547e+00 -6.894407868385314941e-01 -1.095249295234680176e+00
4.548000000000000000e+03 3.696587371826171875e+01 1.270926570892333984e+01 -1.056959867477416992e+00 -1.125517845153808594e+00 -6.547433137893676758e-01 -1.052939653396606445e+00
4.549000000000000000e+03 3.838378906250000000e+01 1.421022796630859375e+01 -1.020886659622192383e+00 -1.086156487464904785e+00 -6.321129798889160156e-01 -1.040460467338562012e+00
4.550000000000000000e+03 4.165689849853515625e+01 1.724239540100097656e+01 -9.295937418937683105e-01 -8.938622474670410156e-01 -5.470367670059204102e-01 -1.012772560119628906e+00
4.551000000000000000e+03 2.404251480102539062e+01 1.911849021911621094e+01 5.661808326840400696e-02 1.083023622632026672e-01 4.947613179683685303e-02 7.976402342319488525e-02
4.552000000000000000e+03 3.896797561645507812e+01 1.462305641174316406e+01 -1.001667141914367676e+00 -1.041477084159851074e+00 -6.129432320594787598e-01 -1.018203020095825195e+00
4.553000000000000000e+03 5.246230697631835938e+01 2.789599418640136719e+01 -9.867215156555175781e-01 -1.130864173173904419e-01 -3.299423754215240479e-01 -6.971837878227233887e-01
4.554000000000000000e+03 2.587318801879882812e+01 2.074875831604003906e+01 5.307961255311965942e-02 9.962365776300430298e-02 4.581097885966300964e-02 7.456844300031661987e-02
4.555000000000000000e+03 2.569996833801269531e+01 2.040434074401855469e+01 5.492400005459785461e-02 1.003964170813560486e-01 4.659612476825714111e-02 7.618544995784759521e-02
4.556000000000000000e+03 4.560245513916015625e+01 2.153111267089843750e+01 -9.726484417915344238e-01 -8.086268901824951172e-01 -5.343826413154602051e-01 -9.250937104225158691e-01
4.557000000000000000e+03 3.069054412841796875e+01 -9.283388853073120117e-01 5.265213176608085632e-02 -5.813782811164855957e-01 -1.586178541183471680e-01 4.072770476341247559e-02
4.558000000000000000e+03 3.926000976562500000e+01 1.483954906463623047e+01 -9.930510520935058594e-01 -1.019919037818908691e+00 -6.038910150527954102e-01 -1.008179187774658203e+00
4.559000000000000000e+03 6.592970275878906250e+01 3.019241142272949219e+01 4.610050916671752930e-01 6.721201419830322266e+00 2.154661893844604492e+00 3.999874353408813477e+00
4.560000000000000000e+03 2.010338211059570312e+01 1.595938682556152344e+01 5.744300782680511475e-02 1.341257691383361816e-01 5.747063085436820984e-02 8.713991194963455200e-02
4.561000000000000000e+03 2.034941864013671875e+01 1.464141941070556641e+01 7.441074401140213013e-02 1.391801238059997559e-01 6.407725811004638672e-02 1.004440858960151672e-01
4.562000000000000000e+03 2.977888298034667969e+01 3.131236314773559570e+00 -1.478254556655883789e+00 -8.510742187500000000e-01 -6.987986564636230469e-01 -4.718994498252868652e-01
4.563000000000000000e+03 2.980452919006347656e+01 3.963644027709960938e+00 -1.715184211730957031e+00 -9.393248558044433594e-01 -7.963527441024780273e-01 -6.699303984642028809e-01
4.564000000000000000e+03 7.203628540039062500e+01 2.990983581542968750e+01 2.721613347530364990e-01 1.110264587402343750e+01 3.412442207336425781e+00 -1.623360514640808105e+00
4.565000000000000000e+03 5.261916351318359375e+01 2.742844772338867188e+01 -9.355472922325134277e-01 -3.679724782705307007e-02 -2.917033731937408447e-01 -6.485488414764404297e-01
4.566000000000000000e+03 1.461709690093994141e+01 8.680934906005859375e+00 7.194014638662338257e-02 2.935322523117065430e-01 1.096417158842086792e-01 1.061759889125823975e-01
4.567000000000000000e+03 2.587054824829101562e+01 1.299488902091979980e+00 -1.693733215332031250e+00 -3.339536190032958984e-01 -6.083060503005981445e-01 -5.587869286537170410e-01
4.568000000000000000e+03 2.563175010681152344e+01 1.070093870162963867e+00 -1.524711489677429199e+00 -3.369136154651641846e-01 -5.584875345230102539e-01 -5.436304211616516113e-01
4.569000000000000000e+03 4.899621582031250000e+01 2.591949462890625000e+01 -1.088602900505065918e+00 -7.069384455680847168e-01 -5.386624336242675781e-01 -9.523333311080932617e-01
4.570000000000000000e+03 4.946602249145507812e+01 2.559054756164550781e+01 -1.013835430145263672e+00 -5.693044662475585938e-01 -4.749419689178466797e-01 -8.575313687324523926e-01
4.571000000000000000e+03 3.118205451965332031e+01 2.710958290100097656e+01 4.213852062821388245e-02 7.720804959535598755e-02 3.580397367477416992e-02 5.693415179848670959e-02
4.572000000000000000e+03 4.328238677978515625e+01 1.885520362854003906e+01 -8.927255868911743164e-01 -8.573639988899230957e-01 -5.250268578529357910e-01 -9.758086800575256348e-01
4.573000000000000000e+03 3.955813980102539062e+01 1.505745220184326172e+01 -9.818634986877441406e-01 -9.934674501419067383e-01 -5.925992727279663086e-01 -1.000373601913452148e+00
4.574000000000000000e+03 5.001029586791992188e+01 2.614574241638183594e+01 -1.007389068603515625e+00 -5.085151195526123047e-01 -4.547712504863739014e-01 -8.330208659172058105e-01
4.575000000000000000e+03 5.024604034423828125e+01 2.662725639343261719e+01 -1.040532469749450684e+00 -5.216930508613586426e-01 -4.686676561832427979e-01 -8.437368273735046387e-01
4.576000000000000000e+03 2.617552566528320312e+01 2.137234115600585938e+01 4.973554983735084534e-02 9.731842577457427979e-02 4.411619156599044800e-02 7.258281111717224121e-02
4.577000000000000000e+03 4.134890747070312500e+01 1.675609588623046875e+01 -9.311972856521606445e-01 -8.888233304023742676e-01 -5.460062026977539062e-01 -9.979846477508544922e-01
4.578000000000000000e+03 6.847393035888671875e+01 3.041599845886230469e+01 -9.850771427154541016e-01 1.361706161499023438e+01 3.789595365524291992e+00 1.569676041603088379e+00
4.579000000000000000e+03 7.136557006835937500e+01 2.787409210205078125e+01 -9.394472837448120117e-01 1.074100112915039062e+01 2.940466165542602539e+00 -7.864807248115539551e-01
4.580000000000000000e+03 4.588936614990234375e+01 2.178127288818359375e+01 -9.759076833724975586e-01 -7.879931330680847168e-01 -5.291702151298522949e-01 -9.137191772460937500e-01
4.581000000000000000e+03 4.625778579711914062e+01 2.255200576782226562e+01 -1.026440024375915527e+00 -8.091170191764831543e-01 -5.506671071052551270e-01 -9.399423599243164062e-01
4.582000000000000000e+03 2.654307937622070312e+01 2.286665725708007812e+01 4.167994856834411621e-02 9.324415773153305054e-02 4.047723114490509033e-02 6.683821231126785278e-02
4.583000000000000000e+03 4.477293395996093750e+01 2.051172065734863281e+01 -9.294455647468566895e-01 -8.287842273712158203e-01 -5.274689197540283203e-01 -9.361702203750610352e-01
4.584000000000000000e+03 2.485712814331054688e+01 1.931691169738769531e+01 6.000124290585517883e-02 1.053131446242332458e-01 4.959431663155555725e-02 8.042818307876586914e-02
4.585000000000000000e+03 3.676408004760742188e+01 1.221695804595947266e+01 -1.042024850845336914e+00 -1.104686975479125977e+00 -6.440135240554809570e-01 -1.029847502708435059e+00
4.586000000000000000e+03 3.659078216552734375e+01 1.282504558563232422e+01 -1.091658473014831543e+00 -1.181245803833007812e+00 -6.818712949752807617e-01 -1.096223950386047363e+00
4.587000000000000000e+03 1.999424934387207031e+01 1.449651718139648438e+01 7.307937741279602051e-02 1.423473358154296875e-01 6.462801247835159302e-02 1.002043113112449646e-01
4.588000000000000000e+03 1.655422401428222656e+01 1.131639194488525391e+01 6.765316426753997803e-02 1.967307329177856445e-01 7.931517064571380615e-02 1.076975241303443909e-01
4.589000000000000000e+03 1.515126991271972656e+01 1.102427673339843750e+01 5.194116011261940002e-02 2.123168557882308960e-01 7.927740365266799927e-02 8.604615926742553711e-02
4.590000000000000000e+03 4.001615142822265625e+01 1.582281017303466797e+01 -9.927753210067749023e-01 -9.898103475570678711e-01 -5.947756767272949219e-01 -1.024391770362854004e+00
4.591000000000000000e+03 2.478724479675292969e+01 1.983747291564941406e+01 5.515200272202491760e-02 1.045922636985778809e-01 4.792327806353569031e-02 7.750550657510757446e-02
4.592000000000000000e+03 4.334764099121093750e+01 1.916728019714355469e+01 -9.115632772445678711e-01 -8.788083791732788086e-01 -5.371115207672119141e-01 -9.908202290534973145e-01
4.593000000000000000e+03 1.836443901062011719e+01 1.334907054901123047e+01 6.817904859781265259e-02 1.582787036895751953e-01 6.793732196092605591e-02 1.028046756982803345e-01
4.594000000000000000e+03 4.108603286743164062e+01 1.622666931152343750e+01 -9.256835579872131348e-01 -8.767781257629394531e-01 -5.407385230064392090e-01 -9.735831022262573242e-01
4.595000000000000000e+03 2.515082740783691406e+01 2.031046295166015625e+01 5.239454284310340881e-02 1.022637858986854553e-01 4.639749601483345032e-02 7.565267384052276611e-02
4.596000000000000000e+03 2.501043128967285156e+01 2.005063629150390625e+01 5.442289635539054871e-02 1.036426424980163574e-01 4.741966351866722107e-02 7.646924257278442383e-02
4.597000000000000000e+03 3.986518859863281250e+01 1.525913715362548828e+01 -9.705750942230224609e-01 -9.658045172691345215e-01 -5.809139013290405273e-01 -9.908401966094970703e-01
4.598000000000000000e+03 6.829481506347656250e+01 2.973148727416992188e+01 -1.141984820365905762e+00 1.225776672363281250e+01 3.334734678268432617e+00 1.844850897789001465e+00
4.599000000000000000e+03 6.898387145996093750e+01 3.096831321716308594e+01 -3.552472889423370361e-01 1.494674205780029297e+01 4.377448558807373047e+00 1.608805209398269653e-01
4.600000000000000000e+03 2.872867202758789062e+01 2.419340324401855469e+01 4.308311641216278076e-02 8.587218821048736572e-02 3.868659213185310364e-02 6.516034901142120361e-02
4.601000000000000000e+03 2.764002799987792969e+01 2.403295707702636719e+01 3.995626792311668396e-02 8.859840035438537598e-02 3.856640309095382690e-02 6.385166198015213013e-02
4.602000000000000000e+03 2.052513504028320312e+01 1.594462013244628906e+01 6.129681318998336792e-02 1.325355917215347290e-01 5.814971774816513062e-02 8.920823037624359131e-02
4.603000000000000000e+03 2.077358055114746094e+01 1.537869834899902344e+01 6.920303404331207275e-02 1.342341750860214233e-01 6.103115901350975037e-02 9.524429589509963989e-02
4.604000000000000000e+03 6.993657684326171875e+01 3.070826721191406250e+01 1.014048755168914795e-01 1.368265533447265625e+01 4.135218143463134766e+00 -9.533033370971679688e-01
4.605000000000000000e+03 5.246134567260742188e+01 2.829592514038085938e+01 -1.039610266685485840e+00 -1.610573530197143555e-01 -3.602002859115600586e-01 -7.345758080482482910e-01
4.606000000000000000e+03 3.320691680908203125e+01 2.925936508178710938e+01 4.222122579813003540e-02 7.150388509035110474e-02 3.411753103137016296e-02 5.285103246569633484e-02
4.607000000000000000e+03 4.766597747802734375e+01 2.320587921142578125e+01 -9.694453477859497070e-01 -6.265017390251159668e-01 -4.787841439247131348e-01 -8.479860424995422363e-01
4.608000000000000000e+03 4.686859893798828125e+01 2.252802276611328125e+01 -9.697017669677734375e-01 -6.910317540168762207e-01 -4.982200562953948975e-01 -8.685638904571533203e-01
4.609000000000000000e+03 3.612542343139648438e+01 1.177432250976562500e+01 -1.067456841468811035e+00 -1.139508605003356934e+00 -6.620896458625793457e-01 -1.049225807189941406e+00
4.610000000000000000e+03 2.119072151184082031e+01 1.709472084045410156e+01 5.543994531035423279e-02 1.256166696548461914e-01 5.431698635220527649e-02 8.376861363649368286e-02
4.611000000000000000e+03 4.619115829467773438e+01 2.202403068542480469e+01 -9.779789447784423828e-01 -7.630507349967956543e-01 -5.223088860511779785e-01 -8.999817371368408203e-01
4.612000000000000000e+03 3.431905364990234375e+01 7.611105442047119141e+00 -1.042887210845947266e+00 -9.142526984214782715e-01 -5.871419906616210938e-01 -8.618619441986083984e-01
4.613000000000000000e+03 3.325296401977539062e+01 4.886338233947753906e+00 -1.087792515754699707e+00 -6.998684406280517578e-01 -5.362982749938964844e-01 -5.849550962448120117e-01
4.614000000000000000e+03 3.454973602294921875e+01 6.307825565338134766e+00 -9.633103013038635254e-01 -7.540790438652038574e-01 -5.152168273925781250e-01 -6.726961135864257812e-01
4.615000000000000000e+03 1.365857219696044922e+01 8.295705795288085938e+00 5.874282866716384888e-02 3.137508034706115723e-01 1.117480918765068054e-01 6.476666778326034546e-02
4.616000000000000000e+03 2.805208969116210938e+01 2.467215919494628906e+01 3.859794139862060547e-02 8.668542653322219849e-02 3.758501261472702026e-02 6.265223771333694458e-02
4.617000000000000000e+03 1.055748462677001953e+01 6.558808326721191406e+00 1.763683855533599854e-01 1.054518297314643860e-01 8.454606682062149048e-02 -8.447841554880142212e-02
4.618000000000000000e+03 2.546143722534179688e+01 1.294437527656555176e+00 -1.833764910697937012e+00 -2.506447434425354004e-01 -6.253228783607482910e-01 -6.479654908180236816e-01
4.619000000000000000e+03 2.709394454956054688e+01 1.254887729883193970e-01 -4.871576726436614990e-01 -3.835025429725646973e-01 -2.611980736255645752e-01 -1.420562416315078735e-01
4.620000000000000000e+03 2.797175598144531250e+01 -1.503598093986511230e-01 -3.412502110004425049e-01 -4.990244805812835693e-01 -2.520824074745178223e-01 -1.389386206865310669e-01
4.621000000000000000e+03 1.581918430328369141e+01 1.129367065429687500e+01 5.780661851167678833e-02 2.023058384656906128e-01 7.803373783826828003e-02 9.553537517786026001e-02
4.622000000000000000e+03 1.253353881835937500e+01 5.887594223022460938e+00 1.242522969841957092e-01 4.490519464015960693e-01 1.719912737607955933e-01 -8.701694011688232422e-02
4.623000000000000000e+03 3.179306030273437500e+01 4.679279804229736328e+00 -1.399536728858947754e+00 -7.776124477386474609e-01 -6.531447768211364746e-01 -6.589381098747253418e-01
4.624000000000000000e+03 3.503394699096679688e+01 7.626966953277587891e+00 -9.658979773521423340e-01 -8.518551588058471680e-01 -5.453259348869323730e-01 -7.868717908859252930e-01
4.625000000000000000e+03 1.532024192810058594e+01 1.148507404327392578e+01 5.187794193625450134e-02 2.004320025444030762e-01 7.569298148155212402e-02 8.303342014551162720e-02
4.626000000000000000e+03 9.826137542724609375e+00 1.231246662139892578e+01 3.456066176295280457e-02 7.001672685146331787e-02 3.137321770191192627e-02 -1.836817525327205658e-02
4.627000000000000000e+03 1.320478439331054688e+01 7.988657474517822266e+00 5.980652198195457458e-02 3.227748274803161621e-01 1.147743985056877136e-01 3.863620385527610779e-02
4.628000000000000000e+03 2.780286979675292969e+01 2.349449539184570312e+01 4.174095019698143005e-02 8.931533992290496826e-02 3.931688889861106873e-02 6.619974970817565918e-02
4.629000000000000000e+03 2.818203926086425781e+01 2.411923789978027344e+01 4.042501002550125122e-02 8.719146251678466797e-02 3.828494250774383545e-02 6.476221233606338501e-02
4.630000000000000000e+03 3.259791183471679688e+01 2.961356925964355469e+01 4.175062105059623718e-02 7.331463694572448730e-02 3.451957926154136658e-02 5.001763626933097839e-02
4.631000000000000000e+03 2.892329788208007812e+01 1.103525161743164062e-01 -3.986692428588867188e-01 -5.918866991996765137e-01 -2.971667945384979248e-01 -7.131736725568771362e-02
4.632000000000000000e+03 2.987928199768066406e+01 -6.585293412208557129e-01 -4.917636886239051819e-02 -5.551762580871582031e-01 -1.813057810068130493e-01 1.720185577869415283e-02
4.633000000000000000e+03 2.677626609802246094e+01 5.876116752624511719e-01 -8.886223435401916504e-01 -4.245511889457702637e-01 -3.939520716667175293e-01 -2.405587136745452881e-01
4.634000000000000000e+03 3.165181922912597656e+01 2.696210098266601562e+01 4.093940556049346924e-02 7.685025036334991455e-02 3.533689677715301514e-02 5.881736055016517639e-02
4.635000000000000000e+03 3.132590866088867188e+01 2.809833145141601562e+01 4.005564749240875244e-02 7.637510448694229126e-02 3.492922708392143250e-02 5.357412993907928467e-02
4.636000000000000000e+03 3.520479202270507812e+01 1.128563022613525391e+01 -1.117258906364440918e+00 -1.188886523246765137e+00 -6.918436288833618164e-01 -1.096950650215148926e+00
4.637000000000000000e+03 3.566545104980468750e+01 1.126927089691162109e+01 -1.074380993843078613e+00 -1.140378832817077637e+00 -6.644279360771179199e-01 -1.049181818962097168e+00
4.638000000000000000e+03 7.151863098144531250e+01 3.191096878051757812e+01 2.408035516738891602e+00 1.177254676818847656e+01 4.254174709320068359e+00 -1.794851303100585938e+00
4.639000000000000000e+03 2.959778976440429688e+01 2.542753601074218750e+01 4.091257601976394653e-02 8.198381960391998291e-02 3.686891868710517883e-02 6.255792826414108276e-02
4.640000000000000000e+03 2.014484596252441406e+01 1.415916824340820312e+01 7.818065583705902100e-02 1.422235071659088135e-01 6.612125039100646973e-02 1.041765660047531128e-01
4.641000000000000000e+03 1.985047912597656250e+01 1.487713527679443359e+01 6.671235710382461548e-02 1.400290727615356445e-01 6.202242895960807800e-02 9.546007215976715088e-02
4.642000000000000000e+03 2.960037422180175781e+01 2.662069702148437500e+01 3.812322765588760376e-02 8.095738291740417480e-02 3.572418540716171265e-02 5.796780809760093689e-02
4.643000000000000000e+03 6.235971832275390625e+01 2.840797042846679688e+01 3.799441754817962646e-01 2.419192552566528320e+00 8.397409915924072266e-01 1.512059450149536133e+00
4.644000000000000000e+03 3.404454421997070312e+01 7.253419876098632812e+00 -1.057869076728820801e+00 -9.100829958915710449e-01 -5.903856158256530762e-01 -8.571855425834655762e-01
4.645000000000000000e+03 3.458884048461914062e+01 1.040319347381591797e+01 -1.123823761940002441e+00 -1.171025753021240234e+00 -6.884548664093017578e-01 -1.076074242591857910e+00
4.646000000000000000e+03 3.503963088989257812e+01 8.369142532348632812e+00 -9.942245483398437500e-01 -9.263937473297119141e-01 -5.761854648590087891e-01 -8.597632050514221191e-01
4.647000000000000000e+03 5.987459564208984375e+01 2.728141784667968750e+01 3.578818216919898987e-02 1.632664203643798828e+00 5.005357265472412109e-01 5.867172479629516602e-01
4.648000000000000000e+03 3.290001296997070312e+01 2.873044967651367188e+01 4.345061630010604858e-02 7.408266514539718628e-02 3.525998443365097046e-02 5.259470269083976746e-02
4.649000000000000000e+03 2.921147918701171875e+01 2.480395317077636719e+01 4.211617633700370789e-02 8.372987806797027588e-02 3.775381669402122498e-02 6.358586996793746948e-02
4.650000000000000000e+03 2.993659210205078125e+01 3.592602729797363281e+00 -1.648180127143859863e+00 -8.827546238899230957e-01 -7.592803835868835449e-01 -5.729999542236328125e-01
4.651000000000000000e+03 1.155890655517578125e+01 5.875666141510009766e+00 1.896846592426300049e-01 2.493036985397338867e-01 1.316965073347091675e-01 -1.282321512699127197e-01
4.652000000000000000e+03 1.222154998779296875e+01 5.700242042541503906e+00 1.584015190601348877e-01 3.964736461639404297e-01 1.664625406265258789e-01 -1.197625026106834412e-01
4.653000000000000000e+03 7.112574005126953125e+01 2.704091453552246094e+01 -1.135951757431030273e+00 1.039148616790771484e+01 2.776660203933715820e+00 -4.600746631622314453e-01
4.654000000000000000e+03 7.163129425048828125e+01 2.729447937011718750e+01 -9.794405102729797363e-01 1.036212062835693359e+01 2.814804077148437500e+00 -7.742328047752380371e-01
4.655000000000000000e+03 7.170783233642578125e+01 3.274124526977539062e+01 3.324605226516723633e+00 1.127288055419921875e+01 4.379245758056640625e+00 -1.274126291275024414e+00
4.656000000000000000e+03 8.746398925781250000e+00 9.214265823364257812e+00 9.393677115440368652e-02 1.223494671285152435e-02 3.185151517391204834e-02 -2.517931163311004639e-02
4.657000000000000000e+03 3.367151260375976562e+01 5.755449295043945312e+00 -1.077847242355346680e+00 -7.754774093627929688e-01 -5.559973716735839844e-01 -7.001244425773620605e-01
4.658000000000000000e+03 5.748441314697265625e+01 2.766450691223144531e+01 -3.626492023468017578e-01 9.102902412414550781e-01 1.642923057079315186e-01 -8.762052655220031738e-02
4.659000000000000000e+03 3.180950927734375000e+01 4.191547870635986328e+00 -1.310583353042602539e+00 -7.341329455375671387e-01 -6.134148836135864258e-01 -5.473761558532714844e-01
4.660000000000000000e+03 3.130439758300781250e+01 4.230582237243652344e+00 -1.449284434318542480e+00 -7.811383008956909180e-01 -6.691268086433410645e-01 -5.899458527565002441e-01
4.661000000000000000e+03 4.236737060546875000e+01 1.770603179931640625e+01 -8.934093713760375977e-01 -8.529461622238159180e-01 -5.239066481590270996e-01 -9.837905764579772949e-01
4.662000000000000000e+03 3.111700057983398438e+01 2.991836547851562500e+01 3.351840004324913025e-02 7.465045154094696045e-02 3.245065361261367798e-02 4.878089204430580139e-02
4.663000000000000000e+03 7.070097351074218750e+01 2.573885536193847656e+01 -1.231340408325195312e+00 9.749209403991699219e+00 2.555360794067382812e+00 -1.019914224743843079e-01
4.664000000000000000e+03 5.589405441284179688e+01 2.842367172241210938e+01 -7.095389366149902344e-01 5.376366376876831055e-01 -5.157068371772766113e-02 -4.454391300678253174e-01
4.665000000000000000e+03 1.464282989501953125e+01 9.199847221374511719e+00 6.721203774213790894e-02 2.693710923194885254e-01 1.009749397635459900e-01 9.595569223165512085e-02
4.666000000000000000e+03 1.483357048034667969e+01 9.875153541564941406e+00 6.041619926691055298e-02 2.412142753601074219e-01 9.048914164304733276e-02 9.283956885337829590e-02
4.667000000000000000e+03 1.272695350646972656e+01 7.631763935089111328e+00 6.757830828428268433e-02 3.243894279003143311e-01 1.175903230905532837e-01 3.968965727835893631e-03
4.668000000000000000e+03 2.710144233703613281e+01 2.200631332397460938e+01 4.936545342206954956e-02 9.334167093038558960e-02 4.281213879585266113e-02 7.077604532241821289e-02
4.669000000000000000e+03 2.762872886657714844e+01 2.237402725219726562e+01 4.940889775753021240e-02 9.116705507040023804e-02 4.217278584837913513e-02 7.028667628765106201e-02
4.670000000000000000e+03 6.001281356811523438e+01 2.674302482604980469e+01 6.402113288640975952e-02 1.842364430427551270e+00 5.719156861305236816e-01 7.054061293601989746e-01
4.671000000000000000e+03 5.502991104125976562e+01 2.804345893859863281e+01 -7.642935514450073242e-01 4.354901611804962158e-01 -9.864101558923721313e-02 -4.878445267677307129e-01
4.672000000000000000e+03 1.746496391296386719e+01 1.331304264068603516e+01 5.829207971692085266e-02 1.654961407184600830e-01 6.713646650314331055e-02 9.388023614883422852e-02
4.673000000000000000e+03 6.943347930908203125e+01 3.079781723022460938e+01 -1.564000844955444336e-01 1.428155231475830078e+01 4.237545490264892578e+00 -4.401348233222961426e-01
4.674000000000000000e+03 2.813953590393066406e+01 2.241475105285644531e+01 4.963584989309310913e-02 8.936061710119247437e-02 4.169894009828567505e-02 7.029723376035690308e-02
4.675000000000000000e+03 2.705236816406250000e+01 2.394068336486816406e+01 3.667125105857849121e-02 9.083567559719085693e-02 3.825207799673080444e-02 6.351016461849212646e-02
4.676000000000000000e+03 3.297418212890625000e+01 3.302021408081054688e+01 3.909332305192947388e-02 6.959675252437591553e-02 3.260702267289161682e-02 3.983876109123229980e-02
4.677000000000000000e+03 2.915615081787109375e+01 3.209111928939819336e+00 -1.690348863601684570e+00 -8.677614927291870117e-01 -7.674331068992614746e-01 -5.793410539627075195e-01
4.678000000000000000e+03 2.911672401428222656e+01 -3.748491108417510986e-01 -1.665964871644973755e-01 -5.174466371536254883e-01 -2.052129358053207397e-01 -7.426335010677576065e-03
4.679000000000000000e+03 6.106674194335937500e+01 2.727125930786132812e+01 2.010593563318252563e-01 2.129259824752807617e+00 6.990957260131835938e-01 1.028900861740112305e+00
4.680000000000000000e+03 1.055840110778808594e+01 1.559397506713867188e+01 8.077131584286689758e-03 6.256340444087982178e-02 2.119216136634349823e-02 -6.205375306308269501e-03
4.681000000000000000e+03 9.929594993591308594e+00 1.592895412445068359e+01 4.523305688053369522e-03 4.559770971536636353e-02 1.503630448132753372e-02 -1.077752839773893356e-02
4.682000000000000000e+03 3.248495864868164062e+01 -2.541982650756835938e+00 4.113109409809112549e-01 -5.806728601455688477e-01 -5.080858245491981506e-02 4.019988328218460083e-02
4.683000000000000000e+03 3.154004859924316406e+01 -1.121019482612609863e+00 1.140869706869125366e-01 -6.013107895851135254e-01 -1.461671441793441772e-01 5.949607118964195251e-02
4.684000000000000000e+03 1.195959472656250000e+01 6.419806957244873047e+00 1.358963102102279663e-01 3.126773834228515625e-01 1.345721036195755005e-01 -9.343589842319488525e-02
4.685000000000000000e+03 7.279462432861328125e+01 3.119410514831542969e+01 1.378593087196350098e+00 1.040588283538818359e+01 3.535342693328857422e+00 -1.716167449951171875e+00
4.686000000000000000e+03 7.239736938476562500e+01 3.052013969421386719e+01 7.579888105392456055e-01 1.085588264465332031e+01 3.484161376953125000e+00 -1.764914751052856445e+00
4.687000000000000000e+03 7.193328094482421875e+01 2.818266105651855469e+01 -7.138456702232360840e-01 1.066688632965087891e+01 2.985912322998046875e+00 -1.121013045310974121e+00
4.688000000000000000e+03 3.457010269165039062e+01 3.275177764892578125e+01 4.290685802698135376e-02 6.794567406177520752e-02 3.325575962662696838e-02 4.212887585163116455e-02
4.689000000000000000e+03 3.521921539306640625e+01 3.081166648864746094e+01 4.845950752496719360e-02 6.870441138744354248e-02 3.514917567372322083e-02 4.971139505505561829e-02
4.690000000000000000e+03 5.458691787719726562e+01 2.826010704040527344e+01 -8.376824855804443359e-01 3.394074440002441406e-01 -1.494825035333633423e-01 -5.511812567710876465e-01
4.691000000000000000e+03 5.539056015014648438e+01 2.827532958984375000e+01 -7.534294128417968750e-01 4.727260470390319824e-01 -8.421099931001663208e-02 -4.812831878662109375e-01
4.692000000000000000e+03 7.089066314697265625e+01 2.750821495056152344e+01 -1.130287289619445801e+00 1.065773582458496094e+01 2.858234405517578125e+00 -4.219021499156951904e-01
4.693000000000000000e+03 6.331137084960937500e+01 2.786233901977539062e+01 3.142110407352447510e-01 3.510303258895874023e+00 1.147354245185852051e+00 2.006592035293579102e+00
4.694000000000000000e+03 6.183446502685546875e+01 2.743643760681152344e+01 2.683825492858886719e-01 2.497542381286621094e+00 8.297774791717529297e-01 1.335100531578063965e+00
4.695000000000000000e+03 9.017919540405273438e+00 8.166434288024902344e+00 1.228308007121086121e-01 1.297824177891016006e-02 4.074271395802497864e-02 -3.091709315776824951e-02
4.696000000000000000e+03 3.585530471801757812e+01 -4.262040138244628906e+00 5.070057511329650879e-01 -4.156658053398132324e-01 2.740199305117130280e-02 3.336128965020179749e-02
4.697000000000000000e+03 3.460528945922851562e+01 -3.891776561737060547e+00 5.117229819297790527e-01 -4.961356520652770996e-01 4.676192998886108398e-03 2.974725328385829926e-02
4.698000000000000000e+03 1.005340957641601562e+01 -9.299469947814941406e+00 -1.554773300886154175e-01 -4.672079682350158691e-01 -1.868055909872055054e-01 -6.276577711105346680e-01
4.699000000000000000e+03 1.317062377929687500e+01 -6.980164527893066406e+00 -3.441923260688781738e-01 -5.351063609123229980e-01 -2.637895941734313965e-01 -7.750257253646850586e-01
4.700000000000000000e+03 3.833124160766601562e+01 3.398558807373046875e+01 5.495751276612281799e-02 5.439027398824691772e-02 3.280433639883995056e-02 4.711955785751342773e-02
4.701000000000000000e+03 6.781911468505859375e+01 -3.347076892852783203e+00 7.363493740558624268e-02 5.823127269744873047e+00 1.769028663635253906e+00 4.553088545799255371e-01
4.702000000000000000e+03 6.828982543945312500e+01 -4.228840827941894531e+00 7.313950359821319580e-02 5.917080402374267578e+00 1.797065973281860352e+00 4.376091659069061279e-01
4.703000000000000000e+03 9.077248573303222656e+00 -8.872202873229980469e+00 -1.535782516002655029e-01 -3.913654386997222900e-01 -1.634830981492996216e-01 -5.446031689643859863e-01
4.704000000000000000e+03 1.037459945678710938e+01 1.485876560211181641e+01 1.180817931890487671e-02 6.540179997682571411e-02 2.316299267113208771e-02 -7.316903211176395416e-03
4.705000000000000000e+03 7.036546325683593750e+01 2.510196304321289062e+01 -1.219478964805603027e+00 9.347780227661132812e+00 2.438490390777587891e+00 1.421147733926773071e-01
4.706000000000000000e+03 7.118574523925781250e+01 2.358428573608398438e+01 -1.055824398994445801e+00 8.898686408996582031e+00 2.352858543395996094e+00 -8.222392946481704712e-02
4.707000000000000000e+03 7.007439422607421875e+01 2.060626029968261719e+01 -8.106707334518432617e-01 7.871912002563476562e+00 2.118372440338134766e+00 3.273621797561645508e-01
4.708000000000000000e+03 3.619600677490234375e+01 3.378687667846679688e+01 5.001434683799743652e-02 6.288450956344604492e-02 3.386965766549110413e-02 3.995352983474731445e-02
4.709000000000000000e+03 3.611378097534179688e+01 3.238644790649414062e+01 4.923561587929725647e-02 6.495650857686996460e-02 3.425763547420501709e-02 4.456651955842971802e-02
4.710000000000000000e+03 6.919237518310546875e+01 1.958179092407226562e+01 -7.111682891845703125e-01 7.399833202362060547e+00 2.006599426269531250e+00 4.875069856643676758e-01
4.711000000000000000e+03 1.069272804260253906e+01 1.941445159912109375e+01 -4.359126556664705276e-03 3.960159793496131897e-02 1.057274173945188522e-02 -7.290789857506752014e-03
4.712000000000000000e+03 9.328717231750488281e+00 1.901116180419921875e+01 -3.963894676417112350e-03 1.581422239542007446e-02 3.555098315700888634e-03 -1.509181316941976547e-02
4.713000000000000000e+03 6.926762390136718750e+01 -6.027965068817138672e+00 5.716992542147636414e-02 6.124650478363037109e+00 1.854546070098876953e+00 4.015583395957946777e-01
4.714000000000000000e+03 3.410555267333984375e+01 -3.221995830535888672e+00 4.449817240238189697e-01 -5.234690308570861816e-01 -2.354619465768337250e-02 4.459651187062263489e-02
4.715000000000000000e+03 1.014065551757812500e+01 -2.529598236083984375e+01 1.287258267402648926e-01 -7.267153263092041016e-01 -1.793968528509140015e-01 -2.999076247215270996e-01
4.716000000000000000e+03 1.789477920532226562e+01 -2.142510795593261719e+01 2.430183142423629761e-01 -1.752902120351791382e-01 2.031842991709709167e-02 -3.450593054294586182e-01
4.717000000000000000e+03 4.416246414184570312e+01 -1.296910762786865234e+01 3.114908337593078613e-01 7.849020361900329590e-01 3.289178609848022461e-01 3.246631473302841187e-02
4.718000000000000000e+03 6.942147827148437500e+01 1.134825038909912109e+01 -1.782603114843368530e-01 6.670285224914550781e+00 1.947607517242431641e+00 4.817665219306945801e-01
4.719000000000000000e+03 6.989068603515625000e+01 6.240088939666748047e+00 -3.039419837296009064e-02 6.607524394989013672e+00 1.973139047622680664e+00 4.731759428977966309e-01
4.720000000000000000e+03 3.630976486206054688e+01 -5.083215713500976562e+00 5.314272642135620117e-01 -3.710754215717315674e-01 4.810555279254913330e-02 2.327163703739643097e-02
4.721000000000000000e+03 3.524933624267578125e+01 3.410783386230468750e+01 4.364707693457603455e-02 6.502825766801834106e-02 3.260260075330734253e-02 3.863371536135673523e-02
4.722000000000000000e+03 9.376977920532226562e+00 8.722956657409667969e+00 1.066917777061462402e-01 4.251730442047119141e-02 4.476272314786911011e-02 -3.509430214762687683e-02
4.723000000000000000e+03 9.953768730163574219e+00 8.294280052185058594e+00 1.138406470417976379e-01 7.689792662858963013e-02 5.722156912088394165e-02 -4.624908789992332458e-02
4.724000000000000000e+03 7.068828582763671875e+01 1.499310302734375000e+01 -3.469754755496978760e-01 7.282816886901855469e+00 2.080752372741699219e+00 3.589741289615631104e-01
4.725000000000000000e+03 7.073916625976562500e+01 1.622238159179687500e+01 -4.203154444694519043e-01 7.421809196472167969e+00 2.100448131561279297e+00 3.245844841003417969e-01
4.726000000000000000e+03 1.171394634246826172e+01 -9.552328109741210938e+00 -8.872144669294357300e-02 -5.506742596626281738e-01 -1.918187141418457031e-01 -6.667613983154296875e-01
4.727000000000000000e+03 6.961644744873046875e+01 1.500226593017578125e+01 -3.580800890922546387e-01 6.964534759521484375e+00 1.981936335563659668e+00 4.493535459041595459e-01
4.728000000000000000e+03 1.038777065277099609e+01 -1.400356197357177734e+01 8.496399223804473877e-02 -6.112744212150573730e-01 -1.578931212425231934e-01 -5.489187240600585938e-01
4.729000000000000000e+03 4.188332366943359375e+01 -7.679434299468994141e+00 4.524899125099182129e-01 3.205270171165466309e-01 2.319050729274749756e-01 5.112933740019798279e-02
4.730000000000000000e+03 6.757098388671875000e+01 -8.908424973487854004e-01 6.762183457612991333e-02 5.809466838836669922e+00 1.763126611709594727e+00 4.846271276473999023e-01
4.731000000000000000e+03 6.857234954833984375e+01 -1.562063843011856079e-01 5.530702695250511169e-02 6.061928749084472656e+00 1.835170745849609375e+00 4.718780517578125000e-01
4.732000000000000000e+03 1.125583648681640625e+01 -1.154441165924072266e+01 3.049284964799880981e-02 -5.750540494918823242e-01 -1.633683592081069946e-01 -6.093918681144714355e-01
4.733000000000000000e+03 6.952793884277343750e+01 1.255833816528320312e+01 -2.273489534854888916e-01 6.770892620086669922e+00 1.963063120841979980e+00 4.730159640312194824e-01
4.734000000000000000e+03 4.269773101806640625e+01 -5.494904994964599609e+00 4.240261316299438477e-01 4.012903273105621338e-01 2.475949376821517944e-01 1.139278486371040344e-01
4.735000000000000000e+03 4.113190078735351562e+01 -6.793808460235595703e+00 4.653681516647338867e-01 1.938311159610748291e-01 1.977597922086715698e-01 5.790460109710693359e-02
4.736000000000000000e+03 9.821640014648437500e+00 1.041646099090576172e+01 6.243973970413208008e-02 7.443591207265853882e-02 4.106269776821136475e-02 -2.566842176020145416e-02
4.737000000000000000e+03 9.093045234680175781e+00 1.351640510559082031e+01 2.463731169700622559e-02 3.850375860929489136e-02 1.894232071936130524e-02 -1.880084536969661713e-02
4.738000000000000000e+03 6.823146057128906250e+01 2.040952682495117188e+01 -7.545303702354431152e-01 7.180855751037597656e+00 1.927897572517395020e+00 6.860350370407104492e-01
4.739000000000000000e+03 9.754030227661132812e+00 2.164026641845703125e+01 -7.702700328081846237e-03 1.207257062196731567e-02 1.310961088165640831e-03 -1.238188985735177994e-02
4.740000000000000000e+03 1.195155811309814453e+01 2.260716247558593750e+01 -7.541703060269355774e-03 3.926918655633926392e-02 9.518245235085487366e-03 -1.634328276850283146e-03
4.741000000000000000e+03 6.821068572998046875e+01 -1.600066375732421875e+01 4.624861478805541992e-02 5.742601871490478516e+00 1.736655235290527344e+00 3.191772103309631348e-01
4.742000000000000000e+03 6.839559936523437500e+01 -2.201146507263183594e+01 3.615279123187065125e-02 5.737684249877929688e+00 1.732151150703430176e+00 2.986218333244323730e-01
4.743000000000000000e+03 6.849478149414062500e+01 -1.905932044982910156e+01 2.330294996500015259e-02 5.792322158813476562e+00 1.744687557220458984e+00 3.027735650539398193e-01
4.744000000000000000e+03 9.916934967041015625e+00 -2.111191177368164062e+01 1.290947049856185913e-01 -6.966951489448547363e-01 -1.702801287174224854e-01 -3.855243027210235596e-01
4.745000000000000000e+03 1.390839195251464844e+01 -1.756421089172363281e+01 2.218039035797119141e-01 -5.033711194992065430e-01 -8.447016030550003052e-02 -4.444111883640289307e-01
4.746000000000000000e+03 9.846776962280273438e+00 2.002608489990234375e+01 -5.825033877044916153e-03 1.983404345810413361e-02 4.202703014016151428e-03 -1.190678775310516357e-02
4.747000000000000000e+03 1.120497322082519531e+01 2.177372741699218750e+01 -7.477468810975551605e-03 3.290072456002235413e-02 7.626976817846298218e-03 -5.180431529879570007e-03
4.748000000000000000e+03 1.200398635864257812e+01 2.438815116882324219e+01 -8.723342791199684143e-03 3.082997724413871765e-02 6.631989963352680206e-03 -2.474823268130421638e-03
4.749000000000000000e+03 1.061084270477294922e+01 -1.527713012695312500e+01 1.299597322940826416e-01 -6.125233173370361328e-01 -1.447690725326538086e-01 -5.106433629989624023e-01
4.750000000000000000e+03 1.507885074615478516e+01 -1.754190826416015625e+01 2.398634701967239380e-01 -4.581211507320404053e-01 -6.547730416059494019e-02 -4.251856803894042969e-01
4.751000000000000000e+03 4.497465133666992188e+01 -1.749925422668457031e+01 1.274673789739608765e-01 1.004284620285034180e+00 3.395256102085113525e-01 2.380593121051788330e-02
4.752000000000000000e+03 4.333002090454101562e+01 -1.438708400726318359e+01 2.508978843688964844e-01 6.656721830368041992e-01 2.749710083007812500e-01 8.550146594643592834e-03
4.753000000000000000e+03 3.660557937622070312e+01 3.557700347900390625e+01 4.839059337973594666e-02 6.173454597592353821e-02 3.303754329681396484e-02 3.445894643664360046e-02
4.754000000000000000e+03 1.022028732299804688e+01 1.857004165649414062e+01 -2.773088868707418442e-03 3.630528599023818970e-02 1.005965843796730042e-02 -8.901996538043022156e-03
4.755000000000000000e+03 6.823126983642578125e+01 -1.812682747840881348e+00 6.670097261667251587e-02 5.959985733032226562e+00 1.808006048202514648e+00 4.603447616100311279e-01
4.756000000000000000e+03 1.269347763061523438e+01 3.136344337463378906e+01 -8.575130254030227661e-03 1.304726395756006241e-02 1.341640250757336617e-03 -1.361470902338624001e-03
4.757000000000000000e+03 1.135789299011230469e+01 3.279299545288085938e+01 -8.088197559118270874e-03 -1.767100766301155090e-03 -2.956589683890342712e-03 -4.687647335231304169e-03
4.758000000000000000e+03 7.005294799804687500e+01 -5.492039203643798828e+00 5.366569012403488159e-02 6.302431106567382812e+00 1.906829118728637695e+00 3.904179036617279053e-01
4.759000000000000000e+03 6.890364074707031250e+01 -7.462809562683105469e+00 6.356230378150939941e-02 6.013870239257812500e+00 1.823229670524597168e+00 3.857773542404174805e-01
4.760000000000000000e+03 6.540216827392578125e+01 -2.229543113708496094e+01 5.052909255027770996e-02 5.124218940734863281e+00 1.552424430847167969e+00 3.197394907474517822e-01
4.761000000000000000e+03 6.383631515502929688e+01 -2.269747352600097656e+01 5.094297602772712708e-02 4.827232837677001953e+00 1.463452696800231934e+00 3.198902606964111328e-01
4.762000000000000000e+03 5.095693969726562500e+01 -2.723945808410644531e+01 -4.614846408367156982e-02 2.501734256744384766e+00 7.366757392883300781e-01 2.397681027650833130e-01
4.763000000000000000e+03 4.858101272583007812e+01 -2.731636238098144531e+01 -1.257497817277908325e-01 1.966381907463073730e+00 5.521896481513977051e-01 1.688466221094131470e-01
4.764000000000000000e+03 6.926463317871093750e+01 1.012976741790771484e+01 -1.317064166069030762e-01 6.566802501678466797e+00 1.930528759956359863e+00 4.971074461936950684e-01
4.765000000000000000e+03 5.346656417846679688e+01 -1.978577995300292969e+01 6.077433750033378601e-02 2.815404891967773438e+00 8.628537654876708984e-01 2.071755826473236084e-01
4.766000000000000000e+03 6.875421142578125000e+01 -5.122359752655029297e+00 6.531362980604171753e-02 6.014453887939453125e+00 1.823930263519287109e+00 4.212905466556549072e-01
4.767000000000000000e+03 4.980795288085937500e+01 -2.353545188903808594e+01 -4.408401250839233398e-02 2.151700258255004883e+00 6.322848796844482422e-01 1.305708587169647217e-01
4.768000000000000000e+03 6.752641296386718750e+01 -1.416523075103759766e+01 5.630166828632354736e-02 5.605183124542236328e+00 1.698445558547973633e+00 3.466806709766387939e-01
4.769000000000000000e+03 1.118399047851562500e+01 -1.808978080749511719e+01 1.649720370769500732e-01 -6.137644648551940918e-01 -1.346377283334732056e-01 -4.495967924594879150e-01
4.770000000000000000e+03 1.278878879547119141e+01 -1.460250377655029297e+01 1.703838855028152466e-01 -5.847412943840026855e-01 -1.243072301149368286e-01 -5.328577756881713867e-01
4.771000000000000000e+03 1.237301635742187500e+01 2.870569419860839844e+01 -9.055606089532375336e-03 1.785453595221042633e-02 2.639679005369544029e-03 -2.176036126911640167e-03
4.772000000000000000e+03 6.931418609619140625e+01 -2.133837699890136719e+01 4.224063456058502197e-02 5.916162967681884766e+00 1.787521123886108398e+00 2.831733226776123047e-01
4.773000000000000000e+03 6.786271667480468750e+01 -2.094233512878417969e+01 3.962991014122962952e-02 5.631280899047851562e+00 1.701273202896118164e+00 3.034409284591674805e-01
4.774000000000000000e+03 2.664491462707519531e+01 1.789045929908752441e+00 -1.766727924346923828e+00 -5.582483410835266113e-01 -6.974928379058837891e-01 -6.085945963859558105e-01
4.775000000000000000e+03 6.553446197509765625e+01 2.996250534057617188e+01 5.069352984428405762e-01 5.844151020050048828e+00 1.905325770378112793e+00 3.648026227951049805e+00
4.776000000000000000e+03 6.752940368652343750e+01 3.054381561279296875e+01 -6.973403692245483398e-01 1.208889770507812500e+01 3.417467117309570312e+00 3.440366744995117188e+00
4.777000000000000000e+03 2.917414283752441406e+01 2.494744300842285156e+00 -1.423038125038146973e+00 -7.457695603370666504e-01 -6.506423354148864746e-01 -4.019727408885955811e-01
4.778000000000000000e+03 2.762734603881835938e+01 1.999971270561218262e+00 -1.556974768638610840e+00 -6.925415396690368652e-01 -6.748549342155456543e-01 -5.005494356155395508e-01
4.779000000000000000e+03 2.697980117797851562e+01 3.819104135036468506e-01 -7.690853476524353027e-01 -3.992288112640380859e-01 -3.504942357540130615e-01 -2.780880331993103027e-01
4.780000000000000000e+03 4.878696060180664062e+01 2.407085609436035156e+01 -9.429719448089599609e-01 -5.067659020423889160e-01 -4.349213540554046631e-01 -7.993628382682800293e-01
4.781000000000000000e+03 4.868664932250976562e+01 2.465103149414062500e+01 -1.000016450881958008e+00 -5.997318029403686523e-01 -4.799244701862335205e-01 -8.671918511390686035e-01
4.782000000000000000e+03 2.831199073791503906e+01 4.574436247348785400e-01 -6.481612324714660645e-01 -5.723155140876770020e-01 -3.661430180072784424e-01 -1.582487225532531738e-01
4.783000000000000000e+03 6.752964782714843750e+01 3.027488708496093750e+01 -7.911776304244995117e-01 1.169167232513427734e+01 3.270148277282714844e+00 3.231786489486694336e+00
4.784000000000000000e+03 3.771413040161132812e+01 1.309359836578369141e+01 -1.013718724250793457e+00 -1.063559651374816895e+00 -6.231834888458251953e-01 -1.012108445167541504e+00
4.785000000000000000e+03 6.443556213378906250e+01 2.912869262695312500e+01 4.867235720157623291e-01 4.137597560882568359e+00 1.387296319007873535e+00 2.724578142166137695e+00
4.786000000000000000e+03 4.072028350830078125e+01 1.612035942077636719e+01 -9.465873241424560547e-01 -9.163986444473266602e-01 -5.588958263397216797e-01 -9.929407835006713867e-01
4.787000000000000000e+03 5.306127548217773438e+01 2.763920974731445312e+01 -9.160111546516418457e-01 5.610189586877822876e-02 -2.579727768898010254e-01 -6.241295933723449707e-01
4.788000000000000000e+03 5.162615966796875000e+01 2.733937454223632812e+01 -9.968829154968261719e-01 -2.586286664009094238e-01 -3.766534626483917236e-01 -7.366124391555786133e-01
4.789000000000000000e+03 4.256159210205078125e+01 1.846515464782714844e+01 -9.220997095108032227e-01 -9.071463346481323242e-01 -5.487738251686096191e-01 -1.023717641830444336e+00
4.790000000000000000e+03 4.461240768432617188e+01 2.019945907592773438e+01 -9.100114107131958008e-01 -8.160029649734497070e-01 -5.178043246269226074e-01 -9.297759532928466797e-01
4.791000000000000000e+03 4.933679962158203125e+01 2.436196899414062500e+01 -9.216951727867126465e-01 -4.355178773403167725e-01 -4.071639180183410645e-01 -7.672917246818542480e-01
4.792000000000000000e+03 4.896296310424804688e+01 2.486012649536132812e+01 -9.833552241325378418e-01 -5.615738034248352051e-01 -4.634787142276763916e-01 -8.492192029953002930e-01
4.793000000000000000e+03 2.545090103149414062e+01 2.149820709228515625e+01 4.548577219247817993e-02 9.914012998342514038e-02 4.338777065277099609e-02 7.051482051610946655e-02
4.794000000000000000e+03 4.532477951049804688e+01 2.072255134582519531e+01 -9.102596640586853027e-01 -7.679092884063720703e-01 -5.034506916999816895e-01 -8.945887088775634766e-01
4.795000000000000000e+03 1.813400459289550781e+01 1.371883106231689453e+01 6.172306463122367859e-02 1.580673754215240479e-01 6.593713164329528809e-02 9.586863964796066284e-02
4.796000000000000000e+03 4.449011611938476562e+01 2.063864326477050781e+01 -9.682657718658447266e-01 -8.860725164413452148e-01 -5.563014745712280273e-01 -9.791036248207092285e-01
4.797000000000000000e+03 4.713996505737304688e+01 2.286999511718750000e+01 -9.813783168792724609e-01 -6.788409948348999023e-01 -4.980657994747161865e-01 -8.720094561576843262e-01
4.798000000000000000e+03 4.811460494995117188e+01 2.315789413452148438e+01 -9.214788675308227539e-01 -5.271231532096862793e-01 -4.345805943012237549e-01 -7.917082905769348145e-01
4.799000000000000000e+03 2.860489273071289062e+01 2.745505571365356445e+00 -1.648808240890502930e+00 -8.112319707870483398e-01 -7.380120754241943359e-01 -5.522671341896057129e-01
4.800000000000000000e+03 2.938504600524902344e+01 3.343562781810760498e-01 -4.752289950847625732e-01 -5.744076371192932129e-01 -3.148909807205200195e-01 -4.325884580612182617e-02
4.801000000000000000e+03 4.969281387329101562e+01 2.603017616271972656e+01 -1.020832061767578125e+00 -5.598223805427551270e-01 -4.741963446140289307e-01 -8.619783520698547363e-01
4.802000000000000000e+03 3.789094543457031250e+01 1.354837512969970703e+01 -1.028544902801513672e+00 -1.091323494911193848e+00 -6.359605193138122559e-01 -1.036691784858703613e+00
4.803000000000000000e+03 4.558060455322265625e+01 2.101106071472167969e+01 -9.195405840873718262e-01 -7.558231949806213379e-01 -5.026091337203979492e-01 -8.877698183059692383e-01
4.804000000000000000e+03 1.432124423980712891e+01 9.559450149536132812e+00 5.461428686976432800e-02 2.560836672782897949e-01 9.320938587188720703e-02 7.903555780649185181e-02
4.805000000000000000e+03 3.738628005981445312e+01 1.266544723510742188e+01 -1.017498135566711426e+00 -1.072737336158752441e+00 -6.270706653594970703e-01 -1.007588148117065430e+00
4.806000000000000000e+03 2.081388664245605469e+01 1.655281066894531250e+01 5.750843510031700134e-02 1.294014453887939453e-01 5.607296526432037354e-02 8.611238002777099609e-02
4.807000000000000000e+03 4.036456680297851562e+01 1.597955417633056641e+01 -9.732150435447692871e-01 -9.562328457832336426e-01 -5.788343548774719238e-01 -1.012051463127136230e+00
4.808000000000000000e+03 4.121738433837890625e+01 1.577644062042236328e+01 -8.876135349273681641e-01 -8.235346078872680664e-01 -5.133444666862487793e-01 -9.249700903892517090e-01
4.809000000000000000e+03 1.791743469238281250e+01 1.408845043182373047e+01 5.507531017065048218e-02 1.540167331695556641e-01 6.272761523723602295e-02 8.999172598123550415e-02
4.810000000000000000e+03 2.025818634033203125e+01 1.503563499450683594e+01 6.920388340950012207e-02 1.383277177810668945e-01 6.225948035717010498e-02 9.615636616945266724e-02
4.811000000000000000e+03 2.162909698486328125e+01 1.802249145507812500e+01 4.965329915285110474e-02 1.196855977177619934e-01 5.080166831612586975e-02 7.925871014595031738e-02
4.812000000000000000e+03 5.093911743164062500e+01 2.694565010070800781e+01 -1.015252232551574707e+00 -3.948135673999786377e-01 -4.230197370052337646e-01 -7.847393751144409180e-01
4.813000000000000000e+03 5.220544433593750000e+01 2.719957160949707031e+01 -9.451861977577209473e-01 -1.043816730380058289e-01 -3.148703575134277344e-01 -6.687328815460205078e-01
4.814000000000000000e+03 5.059308242797851562e+01 2.677534484863281250e+01 -1.026867389678955078e+00 -4.601919651031494141e-01 -4.461177885532379150e-01 -8.123233914375305176e-01
4.815000000000000000e+03 2.550715637207031250e+01 2.091949081420898438e+01 4.967984929680824280e-02 1.002073436975479126e-01 4.496615752577781677e-02 7.319558411836624146e-02
4.816000000000000000e+03 4.343743133544921875e+01 1.947654342651367188e+01 -9.286323189735412598e-01 -8.997133970260620117e-01 -5.485036969184875488e-01 -1.003061413764953613e+00
4.817000000000000000e+03 4.443606567382812500e+01 1.989549064636230469e+01 -8.943066596984863281e-01 -8.078417181968688965e-01 -5.106445550918579102e-01 -9.266327619552612305e-01
4.818000000000000000e+03 2.213407135009765625e+01 1.801079177856445312e+01 5.393068119883537292e-02 1.187270879745483398e-01 5.179733037948608398e-02 8.118893951177597046e-02
4.819000000000000000e+03 3.821846008300781250e+01 1.370779514312744141e+01 -1.008258342742919922e+00 -1.060227632522583008e+00 -6.205458045005798340e-01 -1.015175938606262207e+00
4.820000000000000000e+03 4.584120941162109375e+01 2.127357101440429688e+01 -9.255989193916320801e-01 -7.398529648780822754e-01 -4.996355772018432617e-01 -8.795893192291259766e-01
4.821000000000000000e+03 5.182879257202148438e+01 2.694473075866699219e+01 -9.463540911674499512e-01 -1.700286567211151123e-01 -3.349148333072662354e-01 -6.861331462860107422e-01
4.822000000000000000e+03 3.884050369262695312e+01 1.406861686706542969e+01 -9.753761291503906250e-01 -1.008777379989624023e+00 -5.952460765838623047e-01 -9.873822331428527832e-01
4.823000000000000000e+03 3.867615890502929688e+01 1.441287899017333984e+01 -1.013774871826171875e+00 -1.063946485519409180e+00 -6.233164072036743164e-01 -1.028019428253173828e+00
4.824000000000000000e+03 2.321475601196289062e+01 1.943163490295410156e+01 4.929476976394653320e-02 1.099337041378021240e-01 4.776854068040847778e-02 7.555979490280151367e-02
4.825000000000000000e+03 3.914509963989257812e+01 1.426202201843261719e+01 -9.689095020294189453e-01 -9.849699735641479492e-01 -5.861638188362121582e-01 -9.750213027000427246e-01
4.826000000000000000e+03 1.405711174011230469e+01 1.124036693572998047e+01 4.106602445244789124e-02 2.042212337255477905e-01 7.358618080615997314e-02 5.529765784740447998e-02
4.827000000000000000e+03 4.758299636840820312e+01 2.273727416992187500e+01 -9.279443621635437012e-01 -5.842192769050598145e-01 -4.536490738391876221e-01 -8.113533258438110352e-01
4.828000000000000000e+03 4.085964202880859375e+01 1.568839454650878906e+01 -9.157561659812927246e-01 -8.628559112548828125e-01 -5.335836410522460938e-01 -9.472704529762268066e-01
4.829000000000000000e+03 2.059590148925781250e+01 1.628527259826660156e+01 5.828120186924934387e-02 1.311918348073959351e-01 5.684190988540649414e-02 8.722924441099166870e-02
4.830000000000000000e+03 3.715239715576171875e+01 1.194923496246337891e+01 -9.946582913398742676e-01 -1.031275033950805664e+00 -6.077799797058105469e-01 -9.709872603416442871e-01
4.831000000000000000e+03 7.010218811035156250e+01 3.097742652893066406e+01 5.084409117698669434e-01 1.362617301940917969e+01 4.240384101867675781e+00 -1.255435228347778320e+00
4.832000000000000000e+03 3.943894195556640625e+01 1.447531318664550781e+01 -9.585232138633728027e-01 -9.615225195884704590e-01 -5.760137438774108887e-01 -9.657739996910095215e-01
4.833000000000000000e+03 4.611392211914062500e+01 2.151524162292480469e+01 -9.316989779472351074e-01 -7.211498618125915527e-01 -4.958546459674835205e-01 -8.674384951591491699e-01
4.834000000000000000e+03 4.390103149414062500e+01 1.974189567565917969e+01 -9.221771359443664551e-01 -8.716886639595031738e-01 -5.381597280502319336e-01 -9.758120179176330566e-01
4.835000000000000000e+03 4.428883361816406250e+01 2.037753486633300781e+01 -9.548855423927307129e-01 -8.887662887573242188e-01 -5.530955195426940918e-01 -9.818337559700012207e-01
4.836000000000000000e+03 2.301126480102539062e+01 1.870668411254882812e+01 5.402029305696487427e-02 1.127003654837608337e-01 5.001619830727577209e-02 7.960281521081924438e-02
4.837000000000000000e+03 5.008605957031250000e+01 2.577197456359863281e+01 -9.684787988662719727e-01 -4.379120767116546631e-01 -4.219172596931457520e-01 -7.907143235206604004e-01
4.838000000000000000e+03 6.521274566650390625e+01 3.034255790710449219e+01 8.394309878349304199e-01 4.734758853912353516e+00 1.672256946563720703e+00 3.566020011901855469e+00
4.839000000000000000e+03 1.928372573852539062e+01 1.503554821014404297e+01 5.887655168771743774e-02 1.420551240444183350e-01 6.027950346469879150e-02 9.082028269767761230e-02
4.840000000000000000e+03 1.912519836425781250e+01 1.443363475799560547e+01 6.412929296493530273e-02 1.462015211582183838e-01 6.309924274682998657e-02 9.556064009666442871e-02
4.841000000000000000e+03 1.737015914916992188e+01 1.535978507995605469e+01 3.824821487069129944e-02 1.434404104948043823e-01 5.450658872723579407e-02 7.185842841863632202e-02
4.842000000000000000e+03 5.109068298339843750e+01 2.654165649414062500e+01 -9.633453488349914551e-01 -3.077321350574493408e-01 -3.813232481479644775e-01 -7.331478595733642578e-01
4.843000000000000000e+03 5.035881423950195312e+01 2.624686241149902344e+01 -9.964297413825988770e-01 -4.511284530162811279e-01 -4.342674612998962402e-01 -7.957499623298645020e-01
4.844000000000000000e+03 5.072187805175781250e+01 2.637802124023437500e+01 -9.765862822532653809e-01 -3.795201182365417480e-01 -4.068319201469421387e-01 -7.646756768226623535e-01
4.845000000000000000e+03 4.018352890014648438e+01 1.543043613433837891e+01 -9.528476595878601074e-01 -9.367232322692871094e-01 -5.668712854385375977e-01 -9.797077178955078125e-01
4.846000000000000000e+03 2.295841789245605469e+01 1.841293334960937500e+01 5.561870709061622620e-02 1.136078387498855591e-01 5.076796188950538635e-02 8.155447244644165039e-02
4.847000000000000000e+03 2.455199813842773438e+01 1.960684585571289062e+01 5.562525987625122070e-02 1.056171432137489319e-01 4.837271943688392639e-02 7.798208296298980713e-02
4.848000000000000000e+03 2.579652976989746094e+01 2.113267898559570312e+01 4.952168837189674377e-02 9.926043450832366943e-02 4.463463649153709412e-02 7.282999902963638306e-02
4.849000000000000000e+03 1.978375053405761719e+01 1.660972785949707031e+01 4.853071644902229309e-02 1.309910565614700317e-01 5.385653302073478699e-02 7.979535311460494995e-02
4.850000000000000000e+03 2.014094543457031250e+01 1.547913932800292969e+01 6.250014901161193848e-02 1.357056200504302979e-01 5.946173146367073059e-02 9.135003387928009033e-02
4.851000000000000000e+03 4.365037155151367188e+01 1.878229713439941406e+01 -8.627207279205322266e-01 -7.998497486114501953e-01 -4.987711310386657715e-01 -9.331967234611511230e-01
4.852000000000000000e+03 4.371778106689453125e+01 1.908047294616699219e+01 -8.780615329742431641e-01 -8.221522569656372070e-01 -5.100641250610351562e-01 -9.477614164352416992e-01
4.853000000000000000e+03 5.601082992553710938e+01 2.792038154602050781e+01 -6.126177310943603516e-01 6.183168292045593262e-01 1.709723379462957382e-03 -3.608011901378631592e-01
4.854000000000000000e+03 5.353649902343750000e+01 2.777938079833984375e+01 -8.876562714576721191e-01 1.510234922170639038e-01 -2.209898382425308228e-01 -5.937501192092895508e-01
4.855000000000000000e+03 4.147161483764648438e+01 1.629901123046875000e+01 -8.967715501785278320e-01 -8.352952599525451660e-01 -5.196200609207153320e-01 -9.474041461944580078e-01
4.856000000000000000e+03 4.511555862426757812e+01 2.038814926147460938e+01 -8.957281708717346191e-01 -7.624365687370300293e-01 -4.974494278430938721e-01 -8.904888033866882324e-01
4.857000000000000000e+03 1.846326637268066406e+01 1.395472335815429688e+01 6.241194531321525574e-02 1.528277099132537842e-01 6.457189470529556274e-02 9.629493951797485352e-02
4.858000000000000000e+03 3.040724754333496094e+01 2.700915908813476562e+01 3.920518979430198669e-02 7.923859357833862305e-02 3.553313389420509338e-02 5.666698515415191650e-02
4.859000000000000000e+03 3.211449813842773438e+01 2.846552848815917969e+01 4.167524352669715881e-02 7.534217834472656250e-02 3.510522469878196716e-02 5.336477234959602356e-02
4.860000000000000000e+03 4.651567459106445312e+01 2.226697921752929688e+01 -9.735022783279418945e-01 -7.286634445190429688e-01 -5.106497406959533691e-01 -8.850641846656799316e-01
4.861000000000000000e+03 3.654776000976562500e+01 1.177891159057617188e+01 -1.036452889442443848e+00 -1.092640757560729980e+00 -6.387280821800231934e-01 -1.015635251998901367e+00
4.862000000000000000e+03 7.047257232666015625e+01 3.122455024719238281e+01 1.146095633506774902e+00 1.333461952209472656e+01 4.344214439392089844e+00 -1.693095207214355469e+00
4.863000000000000000e+03 3.973009490966796875e+01 1.470109558105468750e+01 -9.482161998748779297e-01 -9.380635619163513184e-01 -5.658839344978332520e-01 -9.567318558692932129e-01
4.864000000000000000e+03 4.864423751831054688e+01 2.359530830383300781e+01 -9.160946607589721680e-01 -4.811013042926788330e-01 -4.191587865352630615e-01 -7.747941613197326660e-01
4.865000000000000000e+03 5.280922317504882812e+01 2.808774757385253906e+01 -9.835147261619567871e-01 -3.396463766694068909e-02 -3.052438199520111084e-01 -6.815928220748901367e-01
4.866000000000000000e+03 3.742480850219726562e+01 1.306202697753906250e+01 -1.039595127105712891e+00 -1.109527468681335449e+00 -6.447367668151855469e-01 -1.042151093482971191e+00
4.867000000000000000e+03 2.479142189025878906e+01 2.033794021606445312e+01 5.111098662018775940e-02 1.036441996693611145e-01 4.642655700445175171e-02 7.469113916158676147e-02
4.868000000000000000e+03 2.964066886901855469e+01 -1.287513673305511475e-01 -2.437530010938644409e-01 -6.186322569847106934e-01 -2.587155699729919434e-01 -1.052642427384853363e-02
4.869000000000000000e+03 2.947834205627441406e+01 3.078822851181030273e+00 -1.555494427680969238e+00 -8.241162300109863281e-01 -7.138831615447998047e-01 -4.963017404079437256e-01
4.870000000000000000e+03 4.640483856201171875e+01 2.174417304992675781e+01 -9.306303262710571289e-01 -6.949409246444702148e-01 -4.876713752746582031e-01 -8.544251322746276855e-01
4.871000000000000000e+03 2.023841094970703125e+01 1.641927146911621094e+01 5.406796932220458984e-02 1.312578320503234863e-01 5.559773743152618408e-02 8.410848677158355713e-02
4.872000000000000000e+03 3.751636123657226562e+01 1.225300884246826172e+01 -9.847249388694763184e-01 -1.020098447799682617e+00 -6.014470458030700684e-01 -9.646815657615661621e-01
4.873000000000000000e+03 2.118301010131835938e+01 1.754152679443359375e+01 5.032772198319435120e-02 1.230257079005241394e-01 5.200602859258651733e-02 8.044371008872985840e-02
4.874000000000000000e+03 2.071786499023437500e+01 1.715274620056152344e+01 5.090625211596488953e-02 1.264974325895309448e-01 5.322110652923583984e-02 8.130882680416107178e-02
4.875000000000000000e+03 1.234663963317871094e+01 6.802194118499755859e+00 1.015124842524528503e-01 3.433463871479034424e-01 1.334576606750488281e-01 -5.451495945453643799e-02
4.876000000000000000e+03 1.193363285064697266e+01 6.761529922485351562e+00 1.178719475865364075e-01 2.946663796901702881e-01 1.237614974379539490e-01 -7.207643240690231323e-02
4.877000000000000000e+03 1.487020015716552734e+01 1.170664882659912109e+01 4.215937852859497070e-02 1.972541809082031250e-01 7.182406634092330933e-02 7.191097736358642578e-02
4.878000000000000000e+03 1.371662330627441406e+01 8.651791572570800781e+00 6.062621623277664185e-02 2.948831021785736084e-01 1.066527962684631348e-01 6.252703815698623657e-02
4.879000000000000000e+03 3.482041931152343750e+01 9.264659881591796875e+00 -1.047151088714599609e+00 -1.033280491828918457e+00 -6.241294741630554199e-01 -9.583110213279724121e-01
4.880000000000000000e+03 3.686333465576171875e+01 1.159086704254150391e+01 -9.993523359298706055e-01 -1.032597661018371582e+00 -6.095849871635437012e-01 -9.690370559692382812e-01
4.881000000000000000e+03 4.230018615722656250e+01 1.807721519470214844e+01 -9.210063219070434570e-01 -8.994591832160949707e-01 -5.461396574974060059e-01 -1.022904634475708008e+00
4.882000000000000000e+03 4.326244354248046875e+01 1.853698158264160156e+01 -8.761457204818725586e-01 -8.297083973884582520e-01 -5.117562413215637207e-01 -9.568167328834533691e-01
4.883000000000000000e+03 6.936856079101562500e+01 3.028106307983398438e+01 -6.506328582763671875e-01 1.355963611602783203e+01 3.872701168060302734e+00 3.324068617075681686e-03
4.884000000000000000e+03 6.900964355468750000e+01 3.011516189575195312e+01 -9.543262124061584473e-01 1.338803577423095703e+01 3.730113029479980469e+00 6.463603973388671875e-01
4.885000000000000000e+03 2.784658432006835938e+01 3.475153744220733643e-01 -5.831275582313537598e-01 -4.767795205116271973e-01 -3.179721236228942871e-01 -1.074007004499435425e-01
4.886000000000000000e+03 3.558650588989257812e+01 1.028097438812255859e+01 -1.035635828971862793e+00 -1.060762524604797363e+00 -6.289195418357849121e-01 -9.754235148429870605e-01
4.887000000000000000e+03 2.859784507751464844e+01 2.479039192199707031e+01 3.872900456190109253e-02 8.541963994503021240e-02 3.724459558725357056e-02 6.319960206747055054e-02
4.888000000000000000e+03 2.755331230163574219e+01 2.457453727722167969e+01 3.613756224513053894e-02 8.825963735580444336e-02 3.731916099786758423e-02 6.272795051336288452e-02
4.889000000000000000e+03 3.283741760253906250e+01 4.741177082061767578e+00 -1.162070989608764648e+00 -7.209694981575012207e-01 -5.649121403694152832e-01 -5.874814987182617188e-01
4.890000000000000000e+03 4.289196777343750000e+01 1.854129791259765625e+01 -9.026327133178710938e-01 -8.747994303703308105e-01 -5.332296490669250488e-01 -9.977312088012695312e-01
4.891000000000000000e+03 1.276241207122802734e+01 7.193116664886474609e+00 7.698633521795272827e-02 3.587929904460906982e-01 1.307337880134582520e-01 -7.856396026909351349e-03
4.892000000000000000e+03 1.332640647888183594e+01 8.788460731506347656e+00 5.416084453463554382e-02 2.799211740493774414e-01 1.002246066927909851e-01 4.492574557662010193e-02
4.893000000000000000e+03 1.323989677429199219e+01 8.396472930908203125e+00 6.109024211764335632e-02 2.987577021121978760e-01 1.079543828964233398e-01 3.779636323451995850e-02
4.894000000000000000e+03 5.801096725463867188e+01 2.743672943115234375e+01 -2.600956559181213379e-01 1.077325940132141113e+00 2.451690882444381714e-01 6.345766037702560425e-02
4.895000000000000000e+03 1.679802894592285156e+01 1.195222854614257812e+01 6.478422135114669800e-02 1.854269802570343018e-01 7.506335526704788208e-02 1.033585593104362488e-01
4.896000000000000000e+03 1.591928768157958984e+01 1.177711391448974609e+01 5.612970516085624695e-02 1.932542622089385986e-01 7.481519132852554321e-02 9.126224368810653687e-02
4.897000000000000000e+03 2.350725364685058594e+01 1.867104339599609375e+01 5.734452232718467712e-02 1.112346500158309937e-01 5.057375133037567139e-02 8.141372352838516235e-02
4.898000000000000000e+03 6.391250610351562500e+01 2.875749397277832031e+01 4.423035979270935059e-01 3.664945840835571289e+00 1.232174754142761230e+00 2.379882574081420898e+00
4.899000000000000000e+03 1.463126564025878906e+01 1.033693027496337891e+01 5.273826047778129578e-02 2.324883192777633667e-01 8.556797355413436890e-02 8.211421221494674683e-02
4.900000000000000000e+03 3.319550323486328125e+01 5.240598201751708984e+00 -1.131889939308166504e+00 -7.436595559120178223e-01 -5.626648664474487305e-01 -6.617209911346435547e-01
4.901000000000000000e+03 2.972167015075683594e+01 2.730217742919921875e+01 3.393362462520599365e-02 8.025955408811569214e-02 3.425795212388038635e-02 5.587652325630187988e-02
4.902000000000000000e+03 1.697184562683105469e+01 1.254118442535400391e+01 6.028796732425689697e-02 1.765041500329971313e-01 7.103763520717620850e-02 9.850101172924041748e-02
4.903000000000000000e+03 1.468370246887207031e+01 1.129903697967529297e+01 4.601280763745307922e-02 2.055024504661560059e-01 7.545457780361175537e-02 6.991834193468093872e-02
4.904000000000000000e+03 3.618429565429687500e+01 1.078993797302246094e+01 -1.008415818214416504e+00 -1.035732269287109375e+00 -6.132444143295288086e-01 -9.593470692634582520e-01
4.905000000000000000e+03 2.743473243713378906e+01 2.306753396987915039e-01 -6.170137524604797363e-01 -4.741208851337432861e-01 -3.273403644561767578e-01 -2.027863711118698120e-01
4.906000000000000000e+03 3.078384780883789062e+01 2.746502113342285156e+01 3.901265189051628113e-02 7.741723954677581787e-02 3.492896631360054016e-02 5.678166821599006653e-02
4.907000000000000000e+03 2.769054603576660156e+01 2.507756042480468750e+01 3.587821498513221741e-02 8.715764433145523071e-02 3.691075742244720459e-02 6.032652780413627625e-02
4.908000000000000000e+03 1.496930027008056641e+01 1.011801242828369141e+01 5.934468284249305725e-02 2.385649532079696655e-01 8.937288820743560791e-02 9.167888760566711426e-02
4.909000000000000000e+03 1.431861400604248047e+01 1.153637027740478516e+01 3.839746117591857910e-02 1.982251107692718506e-01 7.098677009344100952e-02 6.039370968937873840e-02
4.910000000000000000e+03 3.130417442321777344e+01 3.775870561599731445e+00 -1.337049722671508789e+00 -7.433869242668151855e-01 -6.241309642791748047e-01 -4.877577424049377441e-01
4.911000000000000000e+03 1.103697109222412109e+01 7.455705642700195312e+00 1.229799315333366394e-01 1.664701849222183228e-01 8.683503419160842896e-02 -6.683594733476638794e-02
4.912000000000000000e+03 2.666839027404785156e+01 2.219857597351074219e+01 4.578787088394165039e-02 9.411200135946273804e-02 4.196996241807937622e-02 6.969103962182998657e-02
4.913000000000000000e+03 7.044848632812500000e+01 3.083142089843750000e+01 5.667289495468139648e-01 1.313780593872070312e+01 4.111360549926757812e+00 -1.434092760086059570e+00
4.914000000000000000e+03 7.219686889648437500e+01 3.147714042663574219e+01 1.659411907196044922e+00 1.090465164184570312e+01 3.769219160079956055e+00 -1.739763855934143066e+00
4.915000000000000000e+03 3.470394134521484375e+01 7.292959690093994141e+00 -9.907767176628112793e-01 -8.552813529968261719e-01 -5.538173913955688477e-01 -7.913002371788024902e-01
4.916000000000000000e+03 3.506862640380859375e+01 1.032758522033691406e+01 -1.083716750144958496e+00 -1.114017367362976074e+00 -6.593202352523803711e-01 -1.028320431709289551e+00
4.917000000000000000e+03 2.688294410705566406e+01 2.316946983337402344e+01 4.085925593972206116e-02 9.242110699415206909e-02 3.998410701751708984e-02 6.588508933782577515e-02
4.918000000000000000e+03 2.712803840637207031e+01 2.276327323913574219e+01 4.495965316891670227e-02 9.200913459062576294e-02 4.109063744544982910e-02 6.823264807462692261e-02
4.919000000000000000e+03 2.913492774963378906e+01 2.531706237792968750e+01 3.894022479653358459e-02 8.326810598373413086e-02 3.666250035166740417e-02 6.226443126797676086e-02
4.920000000000000000e+03 2.857799339294433594e+01 2.540454864501953125e+01 3.816542401909828186e-02 8.469847589731216431e-02 3.685916960239410400e-02 6.078977510333061218e-02
4.921000000000000000e+03 1.227494621276855469e+01 7.214374065399169922e+00 8.786750584840774536e-02 3.110558390617370605e-01 1.196769997477531433e-01 -3.588298335671424866e-02
4.922000000000000000e+03 1.272183132171630859e+01 8.080104827880859375e+00 6.715001165866851807e-02 2.960773110389709473e-01 1.089681908488273621e-01 6.339863874018192291e-03
4.923000000000000000e+03 2.948003196716308594e+01 2.612730216979980469e+01 3.666663914918899536e-02 8.247030526399612427e-02 3.574108332395553589e-02 5.989940464496612549e-02
4.924000000000000000e+03 3.326070022583007812e+01 3.140192222595214844e+01 4.140844941139221191e-02 7.108645141124725342e-02 3.374847024679183960e-02 4.536595568060874939e-02
4.925000000000000000e+03 3.596402359008789062e+01 9.246992111206054688e+00 -9.494041204452514648e-01 -9.120935797691345215e-01 -5.584493279457092285e-01 -8.502379655838012695e-01
4.926000000000000000e+03 3.045839118957519531e+01 3.309564352035522461e+00 -1.427529931068420410e+00 -7.956400513648986816e-01 -6.669510006904602051e-01 -4.491961598396301270e-01
4.927000000000000000e+03 3.218634033203125000e+01 3.165222167968750000e+00 -1.052304267883300781e+00 -6.661999225616455078e-01 -5.155512690544128418e-01 -3.245508074760437012e-01
4.928000000000000000e+03 4.206330490112304688e+01 1.727151679992675781e+01 -8.959769606590270996e-01 -8.479306697845458984e-01 -5.231723189353942871e-01 -9.772341847419738770e-01
4.929000000000000000e+03 7.172856140136718750e+01 2.880390739440917969e+01 -5.306555032730102539e-01 1.098617076873779297e+01 3.136654615402221680e+00 -1.192338109016418457e+00
4.930000000000000000e+03 1.968493461608886719e+01 1.529220485687255859e+01 6.068423017859458923e-02 1.394837349653244019e-01 6.005039066076278687e-02 9.047823399305343628e-02
4.931000000000000000e+03 7.205859375000000000e+01 3.213540649414062500e+01 2.403394222259521484e+00 1.099781036376953125e+01 4.020361423492431641e+00 -1.545648097991943359e+00
4.932000000000000000e+03 6.206045150756835938e+01 2.655433082580566406e+01 1.726724058389663696e-01 3.010737180709838867e+00 9.550228714942932129e-01 1.442282080650329590e+00
4.933000000000000000e+03 5.908983230590820312e+01 2.680906295776367188e+01 -4.561246931552886963e-02 1.518326401710510254e+00 4.418141841888427734e-01 4.339490234851837158e-01
4.934000000000000000e+03 2.686009979248046875e+01 2.255091094970703125e+01 4.457975551486015320e-02 9.356345981359481812e-02 4.144296422600746155e-02 6.832340359687805176e-02
4.935000000000000000e+03 1.675163459777832031e+01 1.297421169281005859e+01 5.316056683659553528e-02 1.728002279996871948e-01 6.778823584318161011e-02 8.866060525178909302e-02
4.936000000000000000e+03 1.725530433654785156e+01 1.374012756347656250e+01 5.116987973451614380e-02 1.598311364650726318e-01 6.330030411481857300e-02 8.729849755764007568e-02
4.937000000000000000e+03 3.128127861022949219e+01 2.755185890197753906e+01 3.798635676503181458e-02 7.722873240709304810e-02 3.456452861428260803e-02 5.669168010354042053e-02
4.938000000000000000e+03 3.296670532226562500e+01 -2.311514139175415039e+00 3.511167764663696289e-01 -5.763956904411315918e-01 -6.758367270231246948e-02 6.496045738458633423e-02
4.939000000000000000e+03 3.464655303955078125e+01 7.982308864593505859e+00 -1.018130064010620117e+00 -9.313244223594665527e-01 -5.848363637924194336e-01 -8.690496087074279785e-01
4.940000000000000000e+03 5.696787643432617188e+01 2.783130264282226562e+01 -4.621062874794006348e-01 7.855852842330932617e-01 9.704369306564331055e-02 -2.028978019952774048e-01
4.941000000000000000e+03 5.828327941894531250e+01 2.664390945434570312e+01 -1.432197391986846924e-01 1.321616411209106445e+00 3.535189926624298096e-01 2.523562908172607422e-01
4.942000000000000000e+03 5.403559112548828125e+01 2.779407501220703125e+01 -8.310626149177551270e-01 2.678562700748443604e-01 -1.689618974924087524e-01 -5.469049215316772461e-01
4.943000000000000000e+03 5.491853332519531250e+01 2.768307685852050781e+01 -7.340058684349060059e-01 4.500341415405273438e-01 -8.519151806831359863e-02 -4.559518694877624512e-01
4.944000000000000000e+03 5.559977340698242188e+01 2.782285881042480469e+01 -6.562340259552001953e-01 5.578354597091674805e-01 -2.951956912875175476e-02 -3.979767858982086182e-01
4.945000000000000000e+03 5.646616363525390625e+01 2.745819473266601562e+01 -4.834543764591217041e-01 7.758091092109680176e-01 8.770641684532165527e-02 -2.186662405729293823e-01
4.946000000000000000e+03 3.008816719055175781e+01 3.237708330154418945e+00 -1.444898486137390137e+00 -7.989001274108886719e-01 -6.731395721435546875e-01 -4.520087838172912598e-01
4.947000000000000000e+03 7.001181793212890625e+01 2.255140686035156250e+01 -1.011094927787780762e+00 8.352250099182128906e+00 2.202346563339233398e+00 3.132223784923553467e-01
4.948000000000000000e+03 3.462564086914062500e+01 5.919284343719482422e+00 -9.381061792373657227e-01 -7.194586396217346191e-01 -4.972694516181945801e-01 -6.304729580879211426e-01
4.949000000000000000e+03 7.096273803710937500e+01 2.831651115417480469e+01 -9.260784983634948730e-01 1.109184551239013672e+01 3.049730062484741211e+00 -6.879906654357910156e-01
4.950000000000000000e+03 5.450806045532226562e+01 2.775844955444335938e+01 -7.850744724273681641e-01 3.692790865898132324e-01 -1.247386187314987183e-01 -5.042453408241271973e-01
4.951000000000000000e+03 5.547241973876953125e+01 2.675792884826660156e+01 -5.437938570976257324e-01 6.733765006065368652e-01 3.887478634715080261e-02 -2.673221528530120850e-01
4.952000000000000000e+03 3.051436233520507812e+01 2.903090238571166992e+00 -1.251621842384338379e+00 -7.494337558746337891e-01 -6.003166437149047852e-01 -3.566911220550537109e-01
4.953000000000000000e+03 1.055272293090820312e+01 7.902855396270751953e+00 1.184993460774421692e-01 1.288015544414520264e-01 7.419027388095855713e-02 -5.887292325496673584e-02
4.954000000000000000e+03 7.089437103271484375e+01 3.073396492004394531e+01 6.466817855834960938e-01 1.255321311950683594e+01 3.959968566894531250e+00 -1.599130153656005859e+00
4.955000000000000000e+03 7.097528076171875000e+01 2.474564170837402344e+01 -1.167488455772399902e+00 9.318951606750488281e+00 2.445439100265502930e+00 -1.178876757621765137e-01
4.956000000000000000e+03 7.092608642578125000e+01 2.265569686889648438e+01 -9.799533486366271973e-01 8.587051391601562500e+00 2.282129287719726562e+00 6.234445422887802124e-02
4.957000000000000000e+03 3.276436996459960938e+01 -1.754659056663513184e+00 2.436943501234054565e-01 -5.856181979179382324e-01 -1.025771573185920715e-01 6.249617040157318115e-02
4.958000000000000000e+03 3.207487106323242188e+01 -7.643411755561828613e-01 2.743937447667121887e-02 -6.050063967704772949e-01 -1.732701063156127930e-01 5.264266207814216614e-02
4.959000000000000000e+03 3.546088409423828125e+01 -3.392450571060180664e+00 4.340834915637969971e-01 -4.527375400066375732e-01 -5.596218165010213852e-03 5.803865566849708557e-02
4.960000000000000000e+03 3.199633407592773438e+01 3.408287429809570312e+01 3.349432349205017090e-02 6.854480504989624023e-02 3.061173856258392334e-02 3.638798370957374573e-02
4.961000000000000000e+03 3.429387283325195312e+01 3.101325035095214844e+01 4.166378080844879150e-02 6.936089694499969482e-02 3.330740332603454590e-02 4.868874698877334595e-02
4.962000000000000000e+03 6.233669662475585938e+01 2.708789443969726562e+01 2.371364980936050415e-01 3.013378858566284180e+00 9.751546382904052734e-01 1.556655645370483398e+00
4.963000000000000000e+03 6.155855560302734375e+01 2.691435050964355469e+01 2.044057250022888184e-01 2.548470497131347656e+00 8.258628845214843750e-01 1.245552778244018555e+00
4.964000000000000000e+03 3.361435699462890625e+01 -2.239243745803833008e+00 3.072507679462432861e-01 -5.630099773406982422e-01 -7.672775536775588989e-02 5.862918868660926819e-02
4.965000000000000000e+03 2.947896575927734375e+01 2.078071117401123047e+00 -1.175611972808837891e+00 -7.380982041358947754e-01 -5.741130709648132324e-01 -2.901853024959564209e-01
4.966000000000000000e+03 3.042321777343750000e+01 -3.819797039031982422e-01 -1.146242171525955200e-01 -6.300837993621826172e-01 -2.234124094247817993e-01 2.292259968817234039e-02
4.967000000000000000e+03 1.161115074157714844e+01 6.583736419677734375e+00 1.451435238122940063e-01 2.520722448825836182e-01 1.191647350788116455e-01 -9.708861261606216431e-02
4.968000000000000000e+03 1.178310585021972656e+01 7.160608291625976562e+00 1.121114641427993774e-01 2.610141634941101074e-01 1.119376868009567261e-01 -6.570421159267425537e-02
4.969000000000000000e+03 3.708535385131835938e+01 -4.513932704925537109e+00 4.901066720485687256e-01 -3.114017546176910400e-01 5.361147224903106689e-02 4.312445223331451416e-02
4.970000000000000000e+03 3.527581024169921875e+01 -2.483120679855346680e+00 3.353255987167358398e-01 -4.781900048255920410e-01 -4.285931587219238281e-02 6.484620273113250732e-02
4.971000000000000000e+03 9.332701683044433594e+00 9.783745765686035156e+00 7.917914539575576782e-02 5.218787118792533875e-02 3.941010311245918274e-02 -3.045299276709556580e-02
4.972000000000000000e+03 3.188794136047363281e+01 2.941379165649414062e+01 3.879004716873168945e-02 7.479658722877502441e-02 3.407599031925201416e-02 4.995019733905792236e-02
4.973000000000000000e+03 1.109875965118408203e+01 1.536638259887695312e+01 8.296322077512741089e-03 7.560905814170837402e-02 2.517161332070827484e-02 -2.528274431824684143e-03
4.974000000000000000e+03 1.146416473388671875e+01 1.881546211242675781e+01 -2.543680137023329735e-03 5.532605201005935669e-02 1.583471149206161499e-02 -1.056481734849512577e-03
4.975000000000000000e+03 1.027191543579101562e+01 1.662422370910644531e+01 3.929699305444955826e-03 4.875605925917625427e-02 1.580572687089443207e-02 -8.822225965559482574e-03
4.976000000000000000e+03 6.681285095214843750e+01 3.233567237854003906e+00 3.075503185391426086e-02 5.678173065185546875e+00 1.712678432464599609e+00 5.439926981925964355e-01
4.977000000000000000e+03 1.001314353942871094e+01 1.317880439758300781e+01 2.457485534250736237e-02 7.075435668230056763e-02 2.859876304864883423e-02 -1.311938371509313583e-02
4.978000000000000000e+03 1.093239593505859375e+01 1.371599578857421875e+01 1.841453835368156433e-02 8.853618800640106201e-02 3.208521753549575806e-02 -4.561680369079113007e-03
4.979000000000000000e+03 3.404802703857421875e+01 3.375508880615234375e+01 4.103207960724830627e-02 6.573055684566497803e-02 3.202879056334495544e-02 4.110006615519523621e-02
4.980000000000000000e+03 9.891419410705566406e+00 1.771614646911621094e+01 2.061958803096786141e-04 3.493735194206237793e-02 1.054306421428918839e-02 -1.116355974227190018e-02
4.981000000000000000e+03 7.004860687255859375e+01 2.157512855529785156e+01 -9.042708277702331543e-01 8.082518577575683594e+00 2.153474092483520508e+00 3.221456110477447510e-01
4.982000000000000000e+03 6.916301727294921875e+01 2.051628875732421875e+01 -7.963734269142150879e-01 7.562419891357421875e+00 2.029814004898071289e+00 5.130237936973571777e-01
4.983000000000000000e+03 6.934700775146484375e+01 2.652350807189941406e+01 -1.334088563919067383e+00 9.825915336608886719e+00 2.547547817230224609e+00 6.308667063713073730e-01
4.984000000000000000e+03 1.412089920043945312e+01 1.053675556182861328e+01 4.738952219486236572e-02 2.235709428787231445e-01 8.128813654184341431e-02 6.239558383822441101e-02
4.985000000000000000e+03 8.971814155578613281e+00 1.263242149353027344e+01 3.249529376626014709e-02 3.641404956579208374e-02 2.067280374467372894e-02 -1.934135705232620239e-02
4.986000000000000000e+03 1.147590065002441406e+01 -1.381925106048583984e+01 1.264610141515731812e-01 -6.007136702537536621e-01 -1.422757953405380249e-01 -5.511994361877441406e-01
4.987000000000000000e+03 1.143391704559326172e+01 1.420296287536621094e+01 1.568560115993022919e-02 9.780617803335189819e-02 3.404753282666206360e-02 1.009926898404955864e-03
4.988000000000000000e+03 6.852188110351562500e+01 1.262219619750976562e+01 -2.344131469726562500e-01 6.471065521240234375e+00 1.870995640754699707e+00 5.294261574745178223e-01
4.989000000000000000e+03 6.841893005371093750e+01 1.146809959411621094e+01 -1.814454048871994019e-01 6.380934715270996094e+00 1.859846830368041992e+00 5.347816348075866699e-01
4.990000000000000000e+03 3.829606628417968750e+01 -4.574410915374755859e+00 4.669603109359741211e-01 -1.879335343837738037e-01 8.370804041624069214e-02 5.590236559510231018e-02
4.991000000000000000e+03 3.938938140869140625e+01 -5.729584217071533203e+00 4.912672340869903564e-01 -4.749535769224166870e-02 1.331315636634826660e-01 4.755850508809089661e-02
4.992000000000000000e+03 6.837779998779296875e+01 -6.559867382049560547e+00 7.549465447664260864e-02 5.909707069396972656e+00 1.795560479164123535e+00 4.068974554538726807e-01
4.993000000000000000e+03 6.876344299316406250e+01 7.572994232177734375e+00 -5.803704261779785156e-02 6.308030605316162109e+00 1.874997973442077637e+00 5.158439874649047852e-01
4.994000000000000000e+03 6.998955535888671875e+01 7.463688850402832031e+00 -5.631227046251296997e-02 6.669444084167480469e+00 1.983939528465270996e+00 4.653582572937011719e-01
4.995000000000000000e+03 1.015275859832763672e+01 -1.161741256713867188e+01 -7.497203536331653595e-03 -5.599302649497985840e-01 -1.702282428741455078e-01 -5.988178849220275879e-01
4.996000000000000000e+03 4.395335006713867188e+01 -1.080996417999267578e+01 3.773745894432067871e-01 7.323898673057556152e-01 3.329293429851531982e-01 4.899898916482925415e-02
4.997000000000000000e+03 4.278188323974609375e+01 -9.802933692932128906e+00 4.151968061923980713e-01 5.074215531349182129e-01 2.767854928970336914e-01 3.809269890189170837e-02
4.998000000000000000e+03 6.978167724609375000e+01 1.747785186767578125e+01 -5.325478911399841309e-01 7.258011817932128906e+00 2.017639160156250000e+00 4.180451631546020508e-01
4.999000000000000000e+03 6.959252929687500000e+01 1.377338790893554688e+01 -2.879125475883483887e-01 6.867298126220703125e+00 1.973815679550170898e+00 4.561339914798736572e-01
5.000000000000000000e+03 3.793997955322265625e+01 3.841605377197265625e+01 5.736932903528213501e-02 5.424221605062484741e-02 3.348346427083015442e-02 2.461448870599269867e-02
5.001000000000000000e+03 3.514123535156250000e+01 3.542891693115234375e+01 4.631100222468376160e-02 6.077199429273605347e-02 3.212489932775497437e-02 3.694527596235275269e-02
5.002000000000000000e+03 6.847080993652343750e+01 1.858104705810546875e+01 -6.145074963569641113e-01 6.945696353912353516e+00 1.899356722831726074e+00 6.009781360626220703e-01
5.003000000000000000e+03 6.891448974609375000e+01 1.784737777709960938e+01 -5.597140192985534668e-01 7.030833721160888672e+00 1.941335916519165039e+00 5.193443894386291504e-01
5.004000000000000000e+03 1.139692974090576172e+01 -1.264324474334716797e+01 6.006754934787750244e-02 -6.020260453224182129e-01 -1.625875532627105713e-01 -5.999168157577514648e-01
5.005000000000000000e+03 6.889727020263671875e+01 4.983651161193847656e+00 -4.563197493553161621e-03 6.263083934783935547e+00 1.877556204795837402e+00 4.991803765296936035e-01
5.006000000000000000e+03 6.783866882324218750e+01 4.624075889587402344e+00 2.218332141637802124e-03 5.995853424072265625e+00 1.799421548843383789e+00 5.303367972373962402e-01
5.007000000000000000e+03 1.266494750976562500e+01 2.175298500061035156e+01 -6.259304936975240707e-03 5.232167243957519531e-02 1.381871011108160019e-02 3.280583769083023071e-03
5.008000000000000000e+03 1.531558322906494141e+01 2.374057388305664062e+01 -3.849059110507369041e-03 6.765271723270416260e-02 1.914109662175178528e-02 1.605550944805145264e-02
5.009000000000000000e+03 7.063903808593750000e+01 1.374522781372070312e+01 -2.721540331840515137e-01 7.171550273895263672e+00 2.069818735122680664e+00 3.875590264797210693e-01
5.010000000000000000e+03 1.283867931365966797e+01 -1.951547431945800781e+01 1.960655897855758667e-01 -5.377759933471679688e-01 -1.025131270289421082e-01 -4.153276085853576660e-01
5.011000000000000000e+03 1.459582805633544922e+01 -2.019639778137207031e+01 2.206462770700454712e-01 -4.323751628398895264e-01 -6.351866573095321655e-02 -3.993395566940307617e-01
5.012000000000000000e+03 6.797975158691406250e+01 -7.918085098266601562e+00 7.121481001377105713e-02 5.786424160003662109e+00 1.757291793823242188e+00 3.998869359493255615e-01
5.013000000000000000e+03 4.176228332519531250e+01 -5.726495742797851562e+00 4.401935338973999023e-01 2.673800587654113770e-01 2.122720777988433838e-01 8.592700213193893433e-02
5.014000000000000000e+03 6.868717193603515625e+01 6.227962493896484375e+00 -3.030396252870559692e-02 6.235529899597167969e+00 1.861567854881286621e+00 5.147591233253479004e-01
5.015000000000000000e+03 1.298557949066162109e+01 2.526618576049804688e+01 -8.889264427125453949e-03 3.703903406858444214e-02 8.444931358098983765e-03 1.401330926455557346e-03
5.016000000000000000e+03 1.193608665466308594e+01 2.100399017333984375e+01 -5.838368088006973267e-03 4.835199192166328430e-02 1.275408733636140823e-02 -4.839906468987464905e-04
5.017000000000000000e+03 4.525959777832031250e+01 -1.588366603851318359e+01 1.935723870992660522e-01 1.031567811965942383e+00 3.675420582294464111e-01 2.822201326489448547e-02
5.018000000000000000e+03 4.284872436523437500e+01 -8.678777694702148438e+00 4.278720915317535400e-01 4.859542846679687500e-01 2.741479277610778809e-01 5.011559277772903442e-02
5.019000000000000000e+03 1.998199272155761719e+01 -2.923194313049316406e+01 2.683343589305877686e-01 -4.399420320987701416e-02 6.730204820632934570e-02 -3.079159259796142578e-01
5.020000000000000000e+03 1.427030277252197266e+01 -1.505359172821044922e+01 2.210310995578765869e-01 -5.355529785156250000e-01 -9.435656666755676270e-02 -4.923022389411926270e-01
5.021000000000000000e+03 1.327704048156738281e+01 -1.565051937103271484e+01 1.944918781518936157e-01 -5.779199600219726562e-01 -1.150284260511398315e-01 -4.960828423500061035e-01
5.022000000000000000e+03 6.660298919677734375e+01 -1.868211936950683594e+01 3.975550085306167603e-02 5.366108417510986328e+00 1.621759176254272461e+00 3.192736506462097168e-01
5.023000000000000000e+03 1.331389808654785156e+01 2.738397789001464844e+01 -9.135759435594081879e-03 3.131503984332084656e-02 6.653784774243831635e-03 1.502170925959944725e-03
5.024000000000000000e+03 3.777874755859375000e+01 3.600264739990234375e+01 5.870709568262100220e-02 5.083540454506874084e-02 3.286274895071983337e-02 3.764403238892555237e-02
5.025000000000000000e+03 6.685419464111328125e+01 -1.571862792968750000e+01 5.278207361698150635e-02 5.458850860595703125e+00 1.653489828109741211e+00 3.447147607803344727e-01
5.026000000000000000e+03 6.978459930419921875e+01 -1.527872848510742188e+01 3.480584546923637390e-02 6.105931282043457031e+00 1.842221260070800781e+00 3.051652610301971436e-01
5.027000000000000000e+03 6.757098388671875000e+01 -1.217258071899414062e+01 6.319332867860794067e-02 5.655034065246582031e+00 1.715468287467956543e+00 3.694375157356262207e-01
5.028000000000000000e+03 1.140830326080322266e+01 -1.977743339538574219e+01 1.690520346164703369e-01 -6.185023188591003418e-01 -1.348350793123245239e-01 -4.229743182659149170e-01
5.029000000000000000e+03 6.730752563476562500e+01 -2.491610765457153320e+00 7.549262046813964844e-02 5.704350471496582031e+00 1.733952879905700684e+00 4.754681587219238281e-01
5.030000000000000000e+03 1.624001312255859375e+01 -2.280108261108398438e+01 2.282861322164535522e-01 -3.047338128089904785e-01 -2.293430455029010773e-02 -3.470572233200073242e-01
5.031000000000000000e+03 1.336708927154541016e+01 -2.523275566101074219e+01 1.802371293306350708e-01 -5.089127421379089355e-01 -9.860268980264663696e-02 -3.278949856758117676e-01
5.032000000000000000e+03 1.556530761718750000e+01 -1.982553863525390625e+01 2.397716641426086426e-01 -3.896560966968536377e-01 -4.496533051133155823e-02 -3.894667029380798340e-01
5.033000000000000000e+03 6.825269317626953125e+01 1.031098175048828125e+01 -1.423292756080627441e-01 6.277113914489746094e+00 1.840435385704040527e+00 5.381804108619689941e-01
5.034000000000000000e+03 6.688678741455078125e+01 2.079185009002685547e+00 5.069963634014129639e-02 5.692707061767578125e+00 1.723022103309631348e+00 5.275545716285705566e-01
5.035000000000000000e+03 4.950525283813476562e+01 -1.784728240966796875e+01 9.491880238056182861e-02 1.928894162178039551e+00 6.071438789367675781e-01 1.041535884141921997e-01
5.036000000000000000e+03 5.287877655029296875e+01 -2.148430252075195312e+01 1.091489102691411972e-02 2.718408346176147461e+00 8.187969923019409180e-01 2.031901031732559204e-01
5.037000000000000000e+03 6.735904693603515625e+01 -4.805698871612548828e+00 8.350086957216262817e-02 5.691464424133300781e+00 1.732489585876464844e+00 4.449774622917175293e-01
5.038000000000000000e+03 4.534160232543945312e+01 -1.369145011901855469e+01 2.590958178043365479e-01 1.002751111984252930e+00 3.785540759563446045e-01 3.044501878321170807e-02
5.039000000000000000e+03 5.065411376953125000e+01 -3.261938476562500000e+01 1.872886121273040771e-01 2.529881238937377930e+00 8.151509165763854980e-01 4.079805314540863037e-01
5.040000000000000000e+03 5.134319686889648438e+01 -3.015971946716308594e+01 3.406832739710807800e-02 2.596618413925170898e+00 7.892060279846191406e-01 3.273605704307556152e-01
5.041000000000000000e+03 6.580966186523437500e+01 2.987844276428222656e+01 3.398201465606689453e-01 6.485584259033203125e+00 2.047621250152587891e+00 3.727025747299194336e+00
5.042000000000000000e+03 6.525397491455078125e+01 2.996803283691406250e+01 6.441812515258789062e-01 5.111599445343017578e+00 1.726734161376953125e+00 3.502644777297973633e+00
5.043000000000000000e+03 2.841153526306152344e+01 1.600859403610229492e+00 -1.145462512969970703e+00 -6.909283399581909180e-01 -5.509172677993774414e-01 -2.908293604850769043e-01
5.044000000000000000e+03 6.774718475341796875e+01 3.022517776489257812e+01 -9.151986837387084961e-01 1.215721130371093750e+01 3.372603893280029297e+00 2.860449314117431641e+00
5.045000000000000000e+03 2.804588508605957031e+01 1.943944215774536133e+00 -1.429250717163085938e+00 -7.077146768569946289e-01 -6.410896182060241699e-01 -4.389034807682037354e-01
5.046000000000000000e+03 2.696327209472656250e+01 1.486439228057861328e+00 -1.511292695999145508e+00 -5.052853822708129883e-01 -6.049734354019165039e-01 -4.259338974952697754e-01
5.047000000000000000e+03 2.828312683105468750e+01 2.100646972656250000e+00 -1.483046650886535645e+00 -6.894925236701965332e-01 -6.517617702484130859e-01 -4.125041365623474121e-01
5.048000000000000000e+03 4.912881469726562500e+01 2.346805953979492188e+01 -8.512028455734252930e-01 -3.595561683177947998e-01 -3.632276952266693115e-01 -6.973674893379211426e-01
5.049000000000000000e+03 2.721956825256347656e+01 5.623882412910461426e-01 -8.715173602104187012e-01 -4.426522850990295410e-01 -3.942508995532989502e-01 -1.969572901725769043e-01
5.050000000000000000e+03 3.777268981933593750e+01 1.277329158782958984e+01 -9.842552542686462402e-01 -1.026700496673583984e+00 -6.032866835594177246e-01 -9.771646857261657715e-01
5.051000000000000000e+03 4.806235122680664062e+01 2.268127632141113281e+01 -8.779182434082031250e-01 -4.819161295890808105e-01 -4.079503118991851807e-01 -7.513409852981567383e-01
5.052000000000000000e+03 6.680535888671875000e+01 3.030719184875488281e+01 -2.016342729330062866e-01 9.575651168823242188e+00 2.812205076217651367e+00 3.987793922424316406e+00
5.053000000000000000e+03 4.957838058471679688e+01 2.466976928710937500e+01 -9.247106909751892090e-01 -4.206263720989227295e-01 -4.036011397838592529e-01 -7.614048719406127930e-01
5.054000000000000000e+03 4.898122787475585938e+01 2.448186111450195312e+01 -9.555881023406982422e-01 -5.172768831253051758e-01 -4.418594837188720703e-01 -8.126040697097778320e-01
5.055000000000000000e+03 3.811422348022460938e+01 1.289928627014160156e+01 -9.626200795173645020e-01 -9.970622062683105469e-01 -5.879046916961669922e-01 -9.574663043022155762e-01
5.056000000000000000e+03 3.801749420166015625e+01 1.322966098785400391e+01 -9.952651262283325195e-01 -1.038249850273132324e+00 -6.100544929504394531e-01 -9.943692684173583984e-01
5.057000000000000000e+03 4.995469665527343750e+01 2.546604728698730469e+01 -9.524377584457397461e-01 -4.328665733337402344e-01 -4.155912995338439941e-01 -7.781757712364196777e-01
5.058000000000000000e+03 4.564972305297851562e+01 2.049510192871093750e+01 -8.633146882057189941e-01 -6.843122839927673340e-01 -4.642881155014038086e-01 -8.384148478507995605e-01
5.059000000000000000e+03 4.297587966918945312e+01 1.817225646972656250e+01 -8.737000823020935059e-01 -8.227061033248901367e-01 -5.089218616485595703e-01 -9.599611759185791016e-01
5.060000000000000000e+03 2.516871833801269531e+01 2.120651817321777344e+01 4.636390507221221924e-02 1.009833291172981262e-01 4.420416802167892456e-02 7.140143960714340210e-02
5.061000000000000000e+03 4.478639602661132812e+01 1.972868156433105469e+01 -8.554726839065551758e-01 -7.376661896705627441e-01 -4.779416620731353760e-01 -8.790827393531799316e-01
5.062000000000000000e+03 2.735877037048339844e+01 8.607593178749084473e-01 -9.363092184066772461e-01 -4.923117458820343018e-01 -4.285863041877746582e-01 -2.477685362100601196e-01
5.063000000000000000e+03 4.380508804321289062e+01 1.939523696899414062e+01 -8.996465206146240234e-01 -8.433622717857360840e-01 -5.229026079177856445e-01 -9.612189531326293945e-01
5.064000000000000000e+03 4.971083831787109375e+01 2.429602622985839844e+01 -8.730702996253967285e-01 -3.451799452304840088e-01 -3.654750585556030273e-01 -7.063788771629333496e-01
5.065000000000000000e+03 4.585088729858398438e+01 2.077843093872070312e+01 -8.745418787002563477e-01 -6.834761500358581543e-01 -4.674054086208343506e-01 -8.402730226516723633e-01
5.066000000000000000e+03 4.710883331298828125e+01 2.217402648925781250e+01 -9.151437878608703613e-01 -6.096106171607971191e-01 -4.574263095855712891e-01 -8.141093850135803223e-01
5.067000000000000000e+03 2.157510566711425781e+01 1.853519821166992188e+01 4.620783403515815735e-02 1.176558732986450195e-01 4.915911331772804260e-02 7.532186806201934814e-02
5.068000000000000000e+03 3.833754348754882812e+01 1.337972450256347656e+01 -9.806376695632934570e-01 -1.014403820037841797e+00 -5.985124707221984863e-01 -9.778581261634826660e-01
5.069000000000000000e+03 3.853015518188476562e+01 1.388270568847656250e+01 -9.917522072792053223e-01 -1.035883307456970215e+00 -6.082906723022460938e-01 -9.980645179748535156e-01
5.070000000000000000e+03 1.661535263061523438e+01 1.236750602722167969e+01 5.804717168211936951e-02 1.830136179924011230e-01 7.231823354959487915e-02 9.508766233921051025e-02
5.071000000000000000e+03 5.145916748046875000e+01 2.673086547851562500e+01 -9.531345963478088379e-01 -2.357430309057235718e-01 -3.566632866859436035e-01 -7.064154148101806641e-01
5.072000000000000000e+03 5.259433364868164062e+01 2.623539543151855469e+01 -8.045122027397155762e-01 8.927202224731445312e-02 -2.145720571279525757e-01 -5.402521491050720215e-01
5.073000000000000000e+03 3.178659820556640625e+01 3.725180864334106445e+00 -1.241279959678649902e+00 -7.159543037414550781e-01 -5.871703028678894043e-01 -4.503625035285949707e-01
5.074000000000000000e+03 3.612754058837890625e+01 1.129534530639648438e+01 -1.041137695312500000e+00 -1.090042114257812500e+00 -6.393539905548095703e-01 -1.009943962097167969e+00
5.075000000000000000e+03 3.898692703247070312e+01 1.371379566192626953e+01 -9.467784762382507324e-01 -9.571645259857177734e-01 -5.711829066276550293e-01 -9.436137676239013672e-01
5.076000000000000000e+03 4.051589584350585938e+01 1.557253932952880859e+01 -9.341198205947875977e-01 -9.007905125617980957e-01 -5.504730939865112305e-01 -9.631230831146240234e-01
5.077000000000000000e+03 4.097991943359375000e+01 1.526370716094970703e+01 -8.780186772346496582e-01 -8.126552700996398926e-01 -5.072022080421447754e-01 -9.018622636795043945e-01
5.078000000000000000e+03 2.048983192443847656e+01 1.680240631103515625e+01 5.288657918572425842e-02 1.285245269536972046e-01 5.442333221435546875e-02 8.248030394315719604e-02
5.079000000000000000e+03 2.073504447937011719e+01 1.752337074279785156e+01 4.846941307187080383e-02 1.242697760462760925e-01 5.182175710797309875e-02 7.804332673549652100e-02
5.080000000000000000e+03 2.694115447998046875e+01 7.635171413421630859e-01 -1.042307138442993164e+00 -4.554497003555297852e-01 -4.493270516395568848e-01 -3.074158132076263428e-01
5.081000000000000000e+03 1.964469718933105469e+01 1.607256507873535156e+01 5.267283692955970764e-02 1.349299103021621704e-01 5.628082528710365295e-02 8.387424051761627197e-02
5.082000000000000000e+03 3.932629013061523438e+01 1.387395954132080078e+01 -9.248982667922973633e-01 -9.200315475463867188e-01 -5.534789562225341797e-01 -9.282163977622985840e-01
5.083000000000000000e+03 4.428503417968750000e+01 1.958662414550781250e+01 -8.785524368286132812e-01 -8.002414703369140625e-01 -5.036381483078002930e-01 -9.219776988029479980e-01
5.084000000000000000e+03 4.633205795288085938e+01 2.124772071838378906e+01 -8.864827752113342285e-01 -6.543189883232116699e-01 -4.622405171394348145e-01 -8.216735720634460449e-01
5.085000000000000000e+03 2.492573928833007812e+01 2.090126228332519531e+01 4.744243994355201721e-02 1.018612459301948547e-01 4.479110613465309143e-02 7.229254394769668579e-02
5.086000000000000000e+03 2.457932853698730469e+01 2.072469711303710938e+01 4.589360207319259644e-02 1.032570824027061462e-01 4.474520683288574219e-02 7.232415676116943359e-02
5.087000000000000000e+03 1.823861312866210938e+01 1.431575489044189453e+01 5.698138847947120667e-02 1.523347795009613037e-01 6.279484927654266357e-02 9.044204652309417725e-02
5.088000000000000000e+03 1.879124259948730469e+01 1.419546604156494141e+01 6.416355073451995850e-02 1.505384743213653564e-01 6.441061198711395264e-02 9.605666995048522949e-02
5.089000000000000000e+03 2.982274627685546875e+01 6.636102199554443359e-01 -5.378773212432861328e-01 -6.510061025619506836e-01 -3.566650152206420898e-01 -5.063477158546447754e-02
5.090000000000000000e+03 5.410070800781250000e+01 2.725450134277343750e+01 -7.761092782020568848e-01 3.248511254787445068e-01 -1.353774517774581909e-01 -4.842793345451354980e-01
5.091000000000000000e+03 3.963549423217773438e+01 1.410509300231933594e+01 -9.197458624839782715e-01 -9.017030596733093262e-01 -5.464347004890441895e-01 -9.181792140007019043e-01
5.092000000000000000e+03 6.957349395751953125e+01 2.907864952087402344e+01 -1.116146326065063477e+00 1.207213878631591797e+01 3.286797523498535156e+00 2.387976646423339844e-01
5.093000000000000000e+03 6.801174163818359375e+01 3.005362129211425781e+01 -1.024235248565673828e+00 1.237730121612548828e+01 3.405919790267944336e+00 2.337884426116943359e+00
5.094000000000000000e+03 2.348564720153808594e+01 1.916024589538574219e+01 5.238917469978332520e-02 1.102680191397666931e-01 4.879715666174888611e-02 7.811104506254196167e-02
5.095000000000000000e+03 2.102786636352539062e+01 1.851352310180664062e+01 4.188495129346847534e-02 1.181711554527282715e-01 4.801683127880096436e-02 7.300957292318344116e-02
5.096000000000000000e+03 4.246232986450195312e+01 1.731415939331054688e+01 -8.663628697395324707e-01 -8.017248511314392090e-01 -5.004262924194335938e-01 -9.439304471015930176e-01
5.097000000000000000e+03 4.273478317260742188e+01 1.775227355957031250e+01 -8.680392503738403320e-01 -8.107187747955322266e-01 -5.036274194717407227e-01 -9.514281153678894043e-01
5.098000000000000000e+03 4.360538864135742188e+01 1.849807929992675781e+01 -8.489633202552795410e-01 -7.770553231239318848e-01 -4.878056049346923828e-01 -9.181796312332153320e-01
5.099000000000000000e+03 3.990311813354492188e+01 1.437915897369384766e+01 -9.132953286170959473e-01 -8.883342146873474121e-01 -5.404888391494750977e-01 -9.165889620780944824e-01
5.100000000000000000e+03 5.162939071655273438e+01 2.630510330200195312e+01 -8.974559307098388672e-01 -1.477334350347518921e-01 -3.135567903518676758e-01 -6.536338925361633301e-01
5.101000000000000000e+03 4.133113479614257812e+01 1.532984733581542969e+01 -8.568568229675292969e-01 -7.699210047721862793e-01 -4.880333542823791504e-01 -8.786085844039916992e-01
5.102000000000000000e+03 5.044667434692382812e+01 2.581296348571777344e+01 -9.407205581665039062e-01 -3.775092959403991699e-01 -3.954689502716064453e-01 -7.488632202148437500e-01
5.103000000000000000e+03 5.084413909912109375e+01 2.594983482360839844e+01 -9.249266386032104492e-01 -2.981477677822113037e-01 -3.669223189353942871e-01 -7.142435908317565918e-01
5.104000000000000000e+03 4.660019302368164062e+01 2.145878982543945312e+01 -8.865727186203002930e-01 -6.343139410018920898e-01 -4.562659859657287598e-01 -8.115629553794860840e-01
5.105000000000000000e+03 1.453092002868652344e+01 1.000887870788574219e+01 5.467338860034942627e-02 2.403548210859298706e-01 8.850846439599990845e-02 8.083175867795944214e-02
5.106000000000000000e+03 4.399786376953125000e+01 1.868559646606445312e+01 -8.305101394653320312e-01 -7.395277023315429688e-01 -4.710113406181335449e-01 -8.902409076690673828e-01
5.107000000000000000e+03 4.528690338134765625e+01 1.987166595458984375e+01 -8.337588310241699219e-01 -6.817245483398437500e-01 -4.546450078487396240e-01 -8.329166769981384277e-01
5.108000000000000000e+03 4.002639007568359375e+01 1.489970302581787109e+01 -9.338280558586120605e-01 -9.152401685714721680e-01 -5.547204613685607910e-01 -9.482429027557373047e-01
5.109000000000000000e+03 4.159650421142578125e+01 1.584444141387939453e+01 -8.624100685119628906e-01 -7.787898778915405273e-01 -4.923599660396575928e-01 -8.994342684745788574e-01
5.110000000000000000e+03 1.402328872680664062e+01 1.173498821258544922e+01 3.740581870079040527e-02 1.900454163551330566e-01 6.823536753654479980e-02 5.077588185667991638e-02
5.111000000000000000e+03 5.537031173706054688e+01 2.726576995849609375e+01 -6.148931384086608887e-01 5.836961269378662109e-01 -9.359101764857769012e-03 -3.522114455699920654e-01
5.112000000000000000e+03 5.610875701904296875e+01 2.745948791503906250e+01 -5.494774580001831055e-01 7.016221880912780762e-01 4.564341530203819275e-02 -2.879250943660736084e-01
5.113000000000000000e+03 4.045443725585937500e+01 1.470345020294189453e+01 -8.893775343894958496e-01 -8.430570363998413086e-01 -5.197303891181945801e-01 -9.016123414039611816e-01
5.114000000000000000e+03 4.033090972900390625e+01 1.505643844604492188e+01 -9.196574687957763672e-01 -8.853545188903808594e-01 -5.415036082267761230e-01 -9.363700747489929199e-01
5.115000000000000000e+03 2.004063796997070312e+01 1.706907463073730469e+01 4.670856893062591553e-02 1.281518340110778809e-01 5.245812237262725830e-02 7.766878604888916016e-02
5.116000000000000000e+03 2.287569808959960938e+01 1.923602676391601562e+01 4.778124019503593445e-02 1.115352213382720947e-01 4.779493808746337891e-02 7.544254511594772339e-02
5.117000000000000000e+03 2.400885200500488281e+01 1.965172004699707031e+01 5.189213901758193970e-02 1.070898994803428650e-01 4.769461229443550110e-02 7.629526406526565552e-02
5.118000000000000000e+03 1.126554870605468750e+01 6.310475826263427734e+00 1.688459515571594238e-01 2.098503708839416504e-01 1.136088967323303223e-01 -1.033854037523269653e-01
5.119000000000000000e+03 2.602038955688476562e+01 2.212324714660644531e+01 4.352815449237823486e-02 9.655585139989852905e-02 4.202520102262496948e-02 6.889893114566802979e-02
5.120000000000000000e+03 2.415724754333496094e+01 2.056228828430175781e+01 4.601297527551651001e-02 1.047085225582122803e-01 4.521644860506057739e-02 7.229781150817871094e-02
5.121000000000000000e+03 4.858570480346679688e+01 2.308562660217285156e+01 -8.706230521202087402e-01 -4.298507869243621826e-01 -3.901421427726745605e-01 -7.291130423545837402e-01
5.122000000000000000e+03 4.755564880371093750e+01 2.226797866821289062e+01 -8.866807818412780762e-01 -5.388234853744506836e-01 -4.276512861251831055e-01 -7.742468714714050293e-01
5.123000000000000000e+03 3.564451980590820312e+01 1.078397941589355469e+01 -1.056382417678833008e+00 -1.093732714653015137e+00 -6.450345516204833984e-01 -1.013560175895690918e+00
5.124000000000000000e+03 3.787575531005859375e+01 1.245535659790039062e+01 -9.662067294120788574e-01 -9.936940670013427734e-01 -5.879702568054199219e-01 -9.460464715957641602e-01
5.125000000000000000e+03 1.716156196594238281e+01 1.213575267791748047e+01 6.786260008811950684e-02 1.817869096994400024e-01 7.489485293626785278e-02 1.055111587047576904e-01
5.126000000000000000e+03 1.734174537658691406e+01 1.270461845397949219e+01 6.349894404411315918e-02 1.729098260402679443e-01 7.092262804508209229e-02 9.978172183036804199e-02
5.127000000000000000e+03 3.541972732543945312e+01 9.196909904479980469e+00 -9.938736557960510254e-01 -9.704576730728149414e-01 -5.892993807792663574e-01 -8.947147727012634277e-01
5.128000000000000000e+03 3.712123107910156250e+01 1.127155113220214844e+01 -9.568500518798828125e-01 -9.737119078636169434e-01 -5.791685581207275391e-01 -9.141057133674621582e-01
5.129000000000000000e+03 4.187436294555664062e+01 1.635834884643554688e+01 -8.668974041938781738e-01 -7.876115441322326660e-01 -4.963526725769042969e-01 -9.188663959503173828e-01
5.130000000000000000e+03 1.320983695983886719e+01 1.039960479736328125e+01 4.456562921404838562e-02 2.151646912097930908e-01 7.791909575462341309e-02 3.635821864008903503e-02
5.131000000000000000e+03 2.111706733703613281e+01 1.800846099853515625e+01 4.720956087112426758e-02 1.209868937730789185e-01 5.045893788337707520e-02 7.662452012300491333e-02
5.132000000000000000e+03 4.689248275756835938e+01 2.165284538269042969e+01 -8.796540498733520508e-01 -5.966418385505676270e-01 -4.428887665271759033e-01 -7.937693595886230469e-01
5.133000000000000000e+03 4.801928710937500000e+01 2.222797393798828125e+01 -8.398886322975158691e-01 -4.419892430305480957e-01 -3.845633566379547119e-01 -7.168219685554504395e-01
5.134000000000000000e+03 1.415295791625976562e+01 8.795238494873046875e+00 6.397363543510437012e-02 2.888216376304626465e-01 1.058385819196701050e-01 8.211059868335723877e-02
5.135000000000000000e+03 1.363577461242675781e+01 9.523573875427246094e+00 5.018927156925201416e-02 2.515991032123565674e-01 9.053651243448257446e-02 5.472080036997795105e-02
5.136000000000000000e+03 1.287769794464111328e+01 1.192844963073730469e+01 3.101389855146408081e-02 1.681090295314788818e-01 5.973688140511512756e-02 2.451701462268829346e-02
5.137000000000000000e+03 5.323459625244140625e+01 2.709034919738769531e+01 -8.338547348976135254e-01 1.532924622297286987e-01 -2.041686773300170898e-01 -5.527847409248352051e-01
5.138000000000000000e+03 5.241398620605468750e+01 2.672263336181640625e+01 -8.688554167747497559e-01 -4.851069301366806030e-03 -2.621119618415832520e-01 -6.051581501960754395e-01
5.139000000000000000e+03 6.539314270019531250e+01 2.922539901733398438e+01 2.318884432315826416e-01 5.810081005096435547e+00 1.812590837478637695e+00 3.231983184814453125e+00
5.140000000000000000e+03 2.731459236145019531e+01 2.336984252929687500e+01 4.242215678095817566e-02 9.053229540586471558e-02 3.988633677363395691e-02 6.622723489999771118e-02
5.141000000000000000e+03 3.016590309143066406e+01 1.798217892646789551e-01 -3.693540692329406738e-01 -5.879094600677490234e-01 -2.871790528297424316e-01 -3.040170762687921524e-03
5.142000000000000000e+03 3.087096023559570312e+01 3.347851991653442383e+00 -1.324394464492797852e+00 -7.545608878135681152e-01 -6.236866116523742676e-01 -4.164919853210449219e-01
5.143000000000000000e+03 3.614894104003906250e+01 1.025392627716064453e+01 -9.878355860710144043e-01 -9.905073642730712891e-01 -5.935028791427612305e-01 -9.233655929565429688e-01
5.144000000000000000e+03 6.516586303710937500e+01 2.949910736083984375e+01 4.157123565673828125e-01 5.283277034759521484e+00 1.709696769714355469e+00 3.251510858535766602e+00
5.145000000000000000e+03 6.355262374877929688e+01 2.879058837890625000e+01 4.487221539020538330e-01 3.237617731094360352e+00 1.105901956558227539e+00 2.157772541046142578e+00
5.146000000000000000e+03 3.235387802124023438e+01 4.132158756256103516e+00 -1.195357084274291992e+00 -7.027639746665954590e-01 -5.694363117218017578e-01 -5.031001567840576172e-01
5.147000000000000000e+03 6.863546752929687500e+01 2.995959663391113281e+01 -1.096065521240234375e+00 1.292620849609375000e+01 3.549042940139770508e+00 1.336799979209899902e+00
5.148000000000000000e+03 2.625409889221191406e+01 2.475965499877929688e+01 3.056810609996318817e-02 9.035901725292205811e-02 3.627813607454299927e-02 5.955277383327484131e-02
5.149000000000000000e+03 2.500487518310546875e+01 2.323344421386718750e+01 3.239681944251060486e-02 9.618125855922698975e-02 3.857342153787612915e-02 6.154569238424301147e-02
5.150000000000000000e+03 1.148723983764648438e+01 1.027313327789306641e+01 5.175191909074783325e-02 1.590034663677215576e-01 6.322661042213439941e-02 -1.062197797000408173e-02
5.151000000000000000e+03 6.968840026855468750e+01 3.047298622131347656e+01 -3.069086074829101562e-01 1.367985534667968750e+01 4.011884212493896484e+00 -5.597970485687255859e-01
5.152000000000000000e+03 7.128941345214843750e+01 2.950838088989257812e+01 -2.513850331306457520e-01 1.157537174224853516e+01 3.397196054458618164e+00 -1.290648341178894043e+00
5.153000000000000000e+03 2.377276229858398438e+01 1.888502311706542969e+01 5.745084956288337708e-02 1.100608259439468384e-01 5.025350302457809448e-02 8.100388199090957642e-02
5.154000000000000000e+03 2.375619888305664062e+01 1.939384651184082031e+01 5.267534032464027405e-02 1.088554039597511292e-01 4.845922440290451050e-02 7.751277089118957520e-02
5.155000000000000000e+03 1.639383506774902344e+01 1.177559471130371094e+01 6.160908564925193787e-02 1.921870112419128418e-01 7.613883167505264282e-02 9.943137317895889282e-02
5.156000000000000000e+03 3.174094009399414062e+01 3.268289327621459961e+00 -1.130410313606262207e+00 -6.814104914665222168e-01 -5.435461997985839844e-01 -3.575376868247985840e-01
5.157000000000000000e+03 1.908180236816406250e+01 1.539583778381347656e+01 5.502693355083465576e-02 1.408616155385971069e-01 5.876656621694564819e-02 8.612946420907974243e-02
5.158000000000000000e+03 1.856631088256835938e+01 1.455964851379394531e+01 5.736766010522842407e-02 1.477557420730590820e-01 6.153701990842819214e-02 9.059546142816543579e-02
5.159000000000000000e+03 7.086202239990234375e+01 3.119618034362792969e+01 1.317917585372924805e+00 1.267306804656982422e+01 4.197295665740966797e+00 -1.763836622238159180e+00
5.160000000000000000e+03 1.690268325805664062e+01 1.359099102020263672e+01 4.911152645945549011e-02 1.643154174089431763e-01 6.402808427810668945e-02 8.391399681568145752e-02
5.161000000000000000e+03 2.875923347473144531e+01 5.493507981300354004e-01 -5.998189449310302734e-01 -5.626134872436523438e-01 -3.487297296524047852e-01 -8.084554970264434814e-02
5.162000000000000000e+03 1.409043502807617188e+01 1.002970600128173828e+01 4.929841682314872742e-02 2.388070374727249146e-01 8.643163740634918213e-02 6.508806347846984863e-02
5.163000000000000000e+03 2.653022956848144531e+01 2.366609573364257812e+01 3.750264272093772888e-02 9.183342754840850830e-02 3.880082070827484131e-02 6.385105103254318237e-02
5.164000000000000000e+03 3.150238037109375000e+01 2.874332809448242188e+01 3.705869615077972412e-02 7.495077699422836304e-02 3.360284119844436646e-02 5.304817855358123779e-02
5.165000000000000000e+03 1.544609355926513672e+01 1.194380664825439453e+01 4.675949737429618835e-02 1.919083148241043091e-01 7.160034030675888062e-02 8.124187588691711426e-02
5.166000000000000000e+03 2.256474113464355469e+01 1.845790100097656250e+01 5.290074646472930908e-02 1.154114603996276855e-01 5.049366131424903870e-02 7.959572225809097290e-02
5.167000000000000000e+03 2.261782264709472656e+01 1.800394248962402344e+01 5.668362602591514587e-02 1.164736449718475342e-01 5.194718018174171448e-02 8.326996862888336182e-02
5.168000000000000000e+03 7.011891174316406250e+01 2.874496841430664062e+01 -1.052403807640075684e+00 1.164269256591796875e+01 3.177086591720581055e+00 -2.011267095804214478e-01
5.169000000000000000e+03 7.118617248535156250e+01 2.888293266296386719e+01 -6.806403994560241699e-01 1.132945156097412109e+01 3.194643497467041016e+00 -9.911025166511535645e-01
5.170000000000000000e+03 7.000123596191406250e+01 3.010650444030761719e+01 -4.182330965995788574e-01 1.297790145874023438e+01 3.767900705337524414e+00 -6.724601387977600098e-01
5.171000000000000000e+03 3.650585937500000000e+01 9.654810905456542969e+00 -9.279747009277343750e-01 -8.966838717460632324e-01 -5.473975539207458496e-01 -8.373203277587890625e-01
5.172000000000000000e+03 2.305432701110839844e+01 1.805192375183105469e+01 5.964941158890724182e-02 1.150998845696449280e-01 5.242478847503662109e-02 8.421284705400466919e-02
5.173000000000000000e+03 2.343031501770019531e+01 1.818344688415527344e+01 6.108330935239791870e-02 1.126815751194953918e-01 5.212946608662605286e-02 8.462014049291610718e-02
5.174000000000000000e+03 2.745950698852539062e+01 1.366221904754638672e+00 -1.297511100769042969e+00 -5.545702576637268066e-01 -5.556244254112243652e-01 -3.294315934181213379e-01
5.175000000000000000e+03 3.549339675903320312e+01 9.755670547485351562e+00 -1.017415404319763184e+00 -1.018556237220764160e+00 -6.107915043830871582e-01 -9.420356750488281250e-01
5.176000000000000000e+03 3.605068588256835938e+01 8.797248840332031250e+00 -9.196773171424865723e-01 -8.667704463005065918e-01 -5.359343290328979492e-01 -7.991825938224792480e-01
5.177000000000000000e+03 4.329601287841796875e+01 1.821416854858398438e+01 -8.534390330314636230e-01 -7.905521988868713379e-01 -4.931973516941070557e-01 -9.304666519165039062e-01
5.178000000000000000e+03 3.063692855834960938e+01 2.814035987854003906e+01 3.484997525811195374e-02 7.780151814222335815e-02 3.379544615745544434e-02 5.389589071273803711e-02
5.179000000000000000e+03 3.411777496337890625e+01 6.323281288146972656e+00 -1.036659598350524902e+00 -7.924833297729492188e-01 -5.487428903579711914e-01 -7.384141683578491211e-01
5.180000000000000000e+03 2.876453208923339844e+01 2.596926116943359375e+01 3.481958061456680298e-02 8.344763517379760742e-02 3.548016399145126343e-02 5.930887162685394287e-02
5.181000000000000000e+03 2.708064651489257812e+01 2.529465675354003906e+01 3.106407634913921356e-02 8.768175542354583740e-02 3.562374785542488098e-02 5.900001525878906250e-02
5.182000000000000000e+03 6.379108047485351562e+01 2.779569435119628906e+01 2.437700927257537842e-01 4.031320095062255859e+00 1.282526969909667969e+00 2.194893836975097656e+00
5.183000000000000000e+03 2.795348167419433594e+01 2.563965415954589844e+01 3.343160450458526611e-02 8.537118881940841675e-02 3.564083576202392578e-02 5.952868610620498657e-02
5.184000000000000000e+03 2.923292732238769531e+01 2.573499488830566406e+01 3.949535638093948364e-02 8.226066082715988159e-02 3.652680292725563049e-02 6.037707999348640442e-02
5.185000000000000000e+03 1.219528675079345703e+01 7.680856227874755859e+00 8.262684196233749390e-02 2.814677357673645020e-01 1.092283725738525391e-01 -2.913964539766311646e-02
5.186000000000000000e+03 1.277135181427001953e+01 8.526748657226562500e+00 5.818000063300132751e-02 2.747621536254882812e-01 9.988264739513397217e-02 1.654490642249584198e-02
5.187000000000000000e+03 5.281930923461914062e+01 2.691813087463378906e+01 -8.562774062156677246e-01 6.582480669021606445e-02 -2.371357828378677368e-01 -5.785285830497741699e-01
5.188000000000000000e+03 2.598903274536132812e+01 2.410089874267578125e+01 3.379468247294425964e-02 9.241543710231781006e-02 3.786303848028182983e-02 6.041457131505012512e-02
5.189000000000000000e+03 2.534649467468261719e+01 2.214821243286132812e+01 4.057850316166877747e-02 9.822513163089752197e-02 4.164109006524085999e-02 6.745918840169906616e-02
5.190000000000000000e+03 2.909474563598632812e+01 2.646412467956542969e+01 3.615856915712356567e-02 8.181402087211608887e-02 3.539177775382995605e-02 5.728059634566307068e-02
5.191000000000000000e+03 3.531619262695312500e+01 -1.677619338035583496e+00 2.315715998411178589e-01 -4.657246172428131104e-01 -7.024590671062469482e-02 8.371874690055847168e-02
5.192000000000000000e+03 3.403040313720703125e+01 -1.081767916679382324e+00 1.255336552858352661e-01 -5.396223664283752441e-01 -1.242266148328781128e-01 6.529438495635986328e-02
5.193000000000000000e+03 3.415621948242187500e+01 5.886755943298339844e+00 -1.005318045616149902e+00 -7.434618473052978516e-01 -5.246339440345764160e-01 -6.620131134986877441e-01
5.194000000000000000e+03 3.291426467895507812e+01 3.971594810485839844e+00 -1.059130907058715820e+00 -6.606715321540832520e-01 -5.159407258033752441e-01 -4.385873079299926758e-01
5.195000000000000000e+03 3.473366546630859375e+01 5.505840301513671875e+00 -9.007419347763061523e-01 -6.677595376968383789e-01 -4.705504477024078369e-01 -5.573626160621643066e-01
5.196000000000000000e+03 5.734755325317382812e+01 2.717677497863769531e+01 -3.417623937129974365e-01 9.823080301284790039e-01 1.921636909246444702e-01 -4.003492370247840881e-02
5.197000000000000000e+03 5.854104614257812500e+01 2.715024375915527344e+01 -1.457845419645309448e-01 1.262140274047851562e+00 3.349066972732543945e-01 2.333396971225738525e-01
5.198000000000000000e+03 5.961438369750976562e+01 2.634990119934082031e+01 1.714116148650646210e-02 1.824365496635437012e+00 5.524520277976989746e-01 6.272519230842590332e-01
5.199000000000000000e+03 6.998612213134765625e+01 2.779190444946289062e+01 -1.272883653640747070e+00 1.086847496032714844e+01 2.878677368164062500e+00 1.284144967794418335e-01
5.200000000000000000e+03 5.673840713500976562e+01 2.624379158020019531e+01 -3.325281441211700439e-01 1.031705856323242188e+00 2.097533196210861206e-01 -8.488202467560768127e-03
5.201000000000000000e+03 5.575669479370117188e+01 2.734749412536621094e+01 -5.796217918395996094e-01 6.430830955505371094e-01 1.903838850557804108e-02 -3.173550367355346680e-01
5.202000000000000000e+03 3.075922775268554688e+01 2.900049591064453125e+01 3.609989210963249207e-02 7.652432471513748169e-02 3.378726541996002197e-02 5.027015879750251770e-02
5.203000000000000000e+03 7.179454040527343750e+01 2.935208129882812500e+01 -2.092586755752563477e-01 1.118069267272949219e+01 3.291430234909057617e+00 -1.412362098693847656e+00
5.204000000000000000e+03 7.142834472656250000e+01 3.012312126159667969e+01 2.431696951389312744e-01 1.168558025360107422e+01 3.578624963760375977e+00 -1.576486706733703613e+00
5.205000000000000000e+03 7.170770263671875000e+01 3.141600036621093750e+01 1.705526471138000488e+00 1.164799690246582031e+01 4.006056785583496094e+00 -1.805297613143920898e+00
5.206000000000000000e+03 6.959516143798828125e+01 2.991553306579589844e+01 -7.963312268257141113e-01 1.299101924896240234e+01 3.658406257629394531e+00 -9.587633609771728516e-02
5.207000000000000000e+03 7.059848785400390625e+01 2.788434219360351562e+01 -1.142349839210510254e+00 1.089284324645996094e+01 2.925148010253906250e+00 -3.436782956123352051e-01
5.208000000000000000e+03 1.947546958923339844e+01 1.466429805755615234e+01 6.586629897356033325e-02 1.438962519168853760e-01 6.292876601219177246e-02 9.546891599893569946e-02
5.209000000000000000e+03 3.541212844848632812e+01 7.927873134613037109e+00 -9.379594922065734863e-01 -8.446906208992004395e-01 -5.347950458526611328e-01 -7.831084132194519043e-01
5.210000000000000000e+03 3.553849029541015625e+01 8.649790763854980469e+00 -9.613239169120788574e-01 -9.072464108467102051e-01 -5.605710744857788086e-01 -8.430829644203186035e-01
5.211000000000000000e+03 6.126351165771484375e+01 2.638730430603027344e+01 1.447450965642929077e-01 2.569946765899658203e+00 8.144075274467468262e-01 1.159533739089965820e+00
5.212000000000000000e+03 6.311685562133789062e+01 2.729601669311523438e+01 2.299802005290985107e-01 3.577206850051879883e+00 1.142156124114990234e+00 1.878415226936340332e+00
5.213000000000000000e+03 7.030509948730468750e+01 2.646345138549804688e+01 -1.281327843666076660e+00 1.001164531707763672e+01 2.619095325469970703e+00 9.008391946554183960e-02
5.214000000000000000e+03 7.081086730957031250e+01 2.633082771301269531e+01 -1.224552869796752930e+00 1.001080036163330078e+01 2.635874032974243164e+00 -1.964679211378097534e-01
5.215000000000000000e+03 3.172216415405273438e+01 -3.428791761398315430e-01 -1.115864068269729614e-01 -6.046454906463623047e-01 -2.148695737123489380e-01 5.076633393764495850e-02
5.216000000000000000e+03 3.128253555297851562e+01 5.628299117088317871e-01 -4.085767567157745361e-01 -6.080259680747985840e-01 -3.049808144569396973e-01 2.023753244429826736e-03
5.217000000000000000e+03 3.303024291992187500e+01 -8.023631572723388672e-01 3.093813546001911163e-02 -5.823299884796142578e-01 -1.654175519943237305e-01 5.989659950137138367e-02
5.218000000000000000e+03 3.244289398193359375e+01 -1.226211667060852051e+00 1.408962905406951904e-01 -5.990786552429199219e-01 -1.374547034502029419e-01 6.999836862087249756e-02
5.219000000000000000e+03 6.903526306152343750e+01 2.321501731872558594e+01 -1.048861742019653320e+00 8.173066139221191406e+00 2.137261390686035156e+00 6.480330228805541992e-01
5.220000000000000000e+03 5.525447845458984375e+01 2.770174026489257812e+01 -6.869562268257141113e-01 5.193988680839538574e-01 -5.026721581816673279e-02 -4.169140756130218506e-01
5.221000000000000000e+03 6.045725250244140625e+01 2.629165840148925781e+01 8.643641322851181030e-02 2.193153142929077148e+00 6.838768124580383301e-01 8.923371434211730957e-01
5.222000000000000000e+03 3.227757644653320312e+01 3.639602184295654297e+00 -1.108759403228759766e+00 -6.725636124610900879e-01 -5.343969464302062988e-01 -4.030077159404754639e-01
5.223000000000000000e+03 3.130397033691406250e+01 3.336013793945312500e+00 -1.256932377815246582e+00 -7.301675081253051758e-01 -5.961300134658813477e-01 -3.983949124813079834e-01
5.224000000000000000e+03 1.099728107452392578e+01 1.808495140075683594e+01 -5.342569784261286259e-04 5.361223965883255005e-02 1.592339575290679932e-02 -4.459791351109743118e-03
5.225000000000000000e+03 1.261344909667968750e+01 2.025317382812500000e+01 -4.252533428370952606e-03 6.157450377941131592e-02 1.719659008085727692e-02 5.066092591732740402e-03
5.226000000000000000e+03 3.631777954101562500e+01 -3.027506351470947266e+00 3.797764480113983154e-01 -3.936792016029357910e-01 -4.170820582658052444e-03 6.711993366479873657e-02
5.227000000000000000e+03 6.929920196533203125e+01 2.391260910034179688e+01 -1.125312447547912598e+00 8.530733108520507812e+00 2.221626281738281250e+00 5.717347264289855957e-01
5.228000000000000000e+03 9.824006080627441406e+00 9.221684455871582031e+00 8.865740150213241577e-02 7.173210382461547852e-02 4.811685159802436829e-02 -3.529766574501991272e-02
5.229000000000000000e+03 3.342539215087890625e+01 -1.476951718330383301e+00 1.936023682355880737e-01 -5.659467577934265137e-01 -1.117033213376998901e-01 7.590911537408828735e-02
5.230000000000000000e+03 3.461223983764648438e+01 -1.541790604591369629e+00 1.806767135858535767e-01 -5.137476325035095215e-01 -9.992127865552902222e-02 7.581064850091934204e-02
5.231000000000000000e+03 1.187464618682861328e+01 1.464998626708984375e+01 1.338672824203968048e-02 1.027397066354751587e-01 3.483793139457702637e-02 8.067270740866661072e-03
5.232000000000000000e+03 1.104967784881591797e+01 1.478545856475830078e+01 1.266697701066732407e-02 7.993476837873458862e-02 2.778052352368831635e-02 -3.155025886371731758e-03
5.233000000000000000e+03 1.027034568786621094e+01 8.788413047790527344e+00 9.784614294767379761e-02 1.034277677536010742e-01 6.038217246532440186e-02 -4.400082677602767944e-02
5.234000000000000000e+03 1.134686660766601562e+01 6.983664512634277344e+00 1.357180029153823853e-01 2.152719199657440186e-01 1.052969768643379211e-01 -8.096902072429656982e-02
5.235000000000000000e+03 3.215648269653320312e+01 3.201780319213867188e+01 3.519878908991813660e-02 7.061030715703964233e-02 3.174272924661636353e-02 4.325596615672111511e-02
5.236000000000000000e+03 3.379239654541015625e+01 3.224339675903320312e+01 3.993474692106246948e-02 6.825888901948928833e-02 3.245809301733970642e-02 4.478124901652336121e-02
5.237000000000000000e+03 1.124193286895751953e+01 1.691733360290527344e+01 3.082366194576025009e-03 6.679301708936691284e-02 2.096261642873287201e-02 -2.057629171758890152e-03
5.238000000000000000e+03 1.168385219573974609e+01 1.755932807922363281e+01 1.127508934587240219e-03 6.891727447509765625e-02 2.101343497633934021e-02 1.980216708034276962e-03
5.239000000000000000e+03 1.891214942932128906e+01 1.480303955078125000e+01 5.910085886716842651e-02 1.458776742219924927e-01 6.149356067180633545e-02 9.094597399234771729e-02
5.240000000000000000e+03 3.283832931518554688e+01 3.045337677001953125e+01 3.840159624814987183e-02 7.162993401288986206e-02 3.300945833325386047e-02 4.882162809371948242e-02
5.241000000000000000e+03 6.761204528808593750e+01 7.931377410888671875e+00 -6.567903608083724976e-02 6.001045703887939453e+00 1.780609965324401855e+00 5.542405843734741211e-01
5.242000000000000000e+03 6.904620361328125000e+01 8.884121894836425781e+00 -9.713742882013320923e-02 6.445128917694091797e+00 1.904397487640380859e+00 5.059913992881774902e-01
5.243000000000000000e+03 6.914100646972656250e+01 2.145129394531250000e+01 -8.882954120635986328e-01 7.754828453063964844e+00 2.059959888458251953e+00 5.406525135040283203e-01
5.244000000000000000e+03 3.610338211059570312e+01 -2.277995109558105469e+00 3.052835464477539062e-01 -4.067377150058746338e-01 -3.043624386191368103e-02 7.460904121398925781e-02
5.245000000000000000e+03 3.665684509277343750e+01 -3.781165361404418945e+00 4.410508573055267334e-01 -3.607038855552673340e-01 2.410409413278102875e-02 6.230968981981277466e-02
5.246000000000000000e+03 6.823327636718750000e+01 2.134625244140625000e+01 -8.374489545822143555e-01 7.350529193878173828e+00 1.953924179077148438e+00 7.390459775924682617e-01
5.247000000000000000e+03 1.079429531097412109e+01 1.303676795959472656e+01 2.592959627509117126e-02 9.153870493173599243e-02 3.524048998951911926e-02 -8.131166920065879822e-03
5.248000000000000000e+03 1.242158794403076172e+01 1.455013179779052734e+01 1.442234124988317490e-02 1.127858459949493408e-01 3.816245496273040771e-02 1.361957937479019165e-02
5.249000000000000000e+03 1.225668334960937500e+01 1.593968677520751953e+01 7.545646745711565018e-03 9.541049599647521973e-02 3.088684193789958954e-02 9.486150927841663361e-03
5.250000000000000000e+03 1.275835704803466797e+01 1.636772727966308594e+01 6.427308544516563416e-03 9.692749381065368652e-02 3.100644052028656006e-02 1.377399079501628876e-02
5.251000000000000000e+03 6.532244110107421875e+01 5.155832290649414062e+00 1.018918119370937347e-02 5.287856101989746094e+00 1.589413523674011230e+00 5.816267728805541992e-01
5.252000000000000000e+03 4.003595352172851562e+01 -5.015071868896484375e+00 4.443717598915100098e-01 2.528206631541252136e-02 1.408961564302444458e-01 8.060473948717117310e-02
5.253000000000000000e+03 3.948739624023437500e+01 -4.477931976318359375e+00 4.407972991466522217e-01 -5.107985436916351318e-02 1.169152334332466125e-01 7.170742005109786987e-02
5.254000000000000000e+03 1.040322208404541016e+01 9.346229553222656250e+00 7.660142332315444946e-02 1.102135404944419861e-01 5.604448914527893066e-02 -3.336543589830398560e-02
5.255000000000000000e+03 1.180132675170898438e+01 1.078006839752197266e+01 4.108703136444091797e-02 1.590233892202377319e-01 6.003312766551971436e-02 9.985384531319141388e-04
5.256000000000000000e+03 6.542317199707031250e+01 -8.313134312629699707e-01 9.714764356613159180e-02 5.254188060760498047e+00 1.605400800704956055e+00 5.189967155456542969e-01
5.257000000000000000e+03 6.543498992919921875e+01 -1.625294685363769531e+00 1.000458151102066040e-01 5.249286651611328125e+00 1.604799747467041016e+00 5.061790943145751953e-01
5.258000000000000000e+03 6.956539154052734375e+01 2.592538452148437500e+01 -1.297529339790344238e+00 9.573615074157714844e+00 2.482825756072998047e+00 5.022563934326171875e-01
5.259000000000000000e+03 6.980551147460937500e+01 2.338521766662597656e+01 -1.080361723899841309e+00 8.536876678466796875e+00 2.236954450607299805e+00 3.542810380458831787e-01
5.260000000000000000e+03 4.395536422729492188e+01 -7.446635723114013672e+00 4.178577959537506104e-01 6.441643238067626953e-01 3.186066448688507080e-01 9.501011669635772705e-02
5.261000000000000000e+03 1.127907752990722656e+01 2.022278022766113281e+01 -5.826121661812067032e-03 4.254770651459693909e-02 1.101647503674030304e-02 -3.857681993395090103e-03
5.262000000000000000e+03 6.961325836181640625e+01 1.626388931274414062e+01 -4.431700110435485840e-01 7.079895973205566406e+00 1.991017818450927734e+00 4.382805228233337402e-01
5.263000000000000000e+03 2.983451843261718750e+01 2.915415382385253906e+01 2.973677404224872589e-02 7.786148041486740112e-02 3.227947652339935303e-02 4.951983317732810974e-02
5.264000000000000000e+03 6.750963592529296875e+01 5.899696350097656250e+00 -1.816228590905666351e-02 5.927938938140869141e+00 1.772933006286621094e+00 5.489383935928344727e-01
5.265000000000000000e+03 4.057043838500976562e+01 -5.551540851593017578e+00 4.629230797290802002e-01 1.015643402934074402e-01 1.693462282419204712e-01 6.773987412452697754e-02
5.266000000000000000e+03 6.692964172363281250e+01 8.804566860198974609e-01 6.136258691549301147e-02 5.678211688995361328e+00 1.721872210502624512e+00 5.110404491424560547e-01
5.267000000000000000e+03 6.667455291748046875e+01 -2.354021519422531128e-01 7.171933352947235107e-02 5.597117424011230469e+00 1.700650930404663086e+00 5.064443349838256836e-01
5.268000000000000000e+03 6.524066162109375000e+01 -9.054205894470214844e+00 9.873248636722564697e-02 5.136743545532226562e+00 1.570642828941345215e+00 4.127475619316101074e-01
5.269000000000000000e+03 6.651506805419921875e+01 -1.315930271148681641e+01 7.107205688953399658e-02 5.413792610168457031e+00 1.645459413528442383e+00 3.642913401126861572e-01
5.270000000000000000e+03 4.437451171875000000e+01 -1.399409580230712891e+01 2.581710815429687500e-01 8.511942028999328613e-01 3.328095972537994385e-01 2.271423302590847015e-02
5.271000000000000000e+03 6.784933471679687500e+01 -5.674940586090087891e+00 7.468808442354202271e-02 5.794975280761718750e+00 1.760899066925048828e+00 4.258381128311157227e-01
5.272000000000000000e+03 6.689843750000000000e+01 -3.950659275054931641e+00 8.955214172601699829e-02 5.588279724121093750e+00 1.703349590301513672e+00 4.628809690475463867e-01
5.273000000000000000e+03 6.660021972656250000e+01 1.273460578918457031e+01 -2.244879454374313354e-01 5.870116233825683594e+00 1.693688511848449707e+00 6.277004480361938477e-01
5.274000000000000000e+03 6.745169067382812500e+01 1.159871578216552734e+01 -1.844418644905090332e-01 6.090776920318603516e+00 1.771900534629821777e+00 5.798098444938659668e-01
5.275000000000000000e+03 6.755455017089843750e+01 -9.071336746215820312e+00 8.513188362121582031e-02 5.680271148681640625e+00 1.729620933532714844e+00 3.891239166259765625e-01
5.276000000000000000e+03 6.857206726074218750e+01 -9.671830177307128906e+00 7.016677409410476685e-02 5.915627479553222656e+00 1.795738220214843750e+00 3.656766712665557861e-01
5.277000000000000000e+03 6.613662719726562500e+01 -1.101070165634155273e+00 8.774868398904800415e-02 5.451964855194091797e+00 1.661914110183715820e+00 4.979015886783599854e-01
5.278000000000000000e+03 1.359346389770507812e+01 -2.105477142333984375e+01 2.062317728996276855e-01 -5.110705494880676270e-01 -9.145162999629974365e-02 -3.925662636756896973e-01
5.279000000000000000e+03 4.395845413208007812e+01 -9.686058044433593750e+00 4.017039537429809570e-01 6.919792890548706055e-01 3.281049728393554688e-01 6.197644025087356567e-02
5.280000000000000000e+03 6.717948913574218750e+01 -8.415097236633300781e+00 8.011344075202941895e-02 5.585697174072265625e+00 1.699743151664733887e+00 4.001058638095855713e-01
5.281000000000000000e+03 3.347284317016601562e+01 3.501654052734375000e+01 3.966297954320907593e-02 6.628889590501785278e-02 3.178556263446807861e-02 3.301937878131866455e-02
5.282000000000000000e+03 1.218654060363769531e+01 -1.628749847412109375e+01 1.779126375913619995e-01 -5.828337669372558594e-01 -1.214763447642326355e-01 -4.907471537590026855e-01
5.283000000000000000e+03 1.244068241119384766e+01 -1.363263034820556641e+01 1.251074969768524170e-01 -6.050342321395874023e-01 -1.439780294895172119e-01 -5.623905658721923828e-01
5.284000000000000000e+03 6.835971069335937500e+01 -8.764918327331542969e+00 6.605081260204315186e-02 5.864488601684570312e+00 1.779161810874938965e+00 3.784944117069244385e-01
5.285000000000000000e+03 4.531363296508789062e+01 -1.173988151550292969e+01 3.350011408329010010e-01 9.792544841766357422e-01 3.942767083644866943e-01 6.006297841668128967e-02
5.286000000000000000e+03 4.507115936279296875e+01 -1.065098190307617188e+01 3.603214323520660400e-01 9.136717319488525391e-01 3.821979463100433350e-01 6.471922248601913452e-02
5.287000000000000000e+03 3.692310714721679688e+01 3.684336090087890625e+01 5.860195681452751160e-02 5.345818400382995605e-02 3.361804038286209106e-02 3.053132444620132446e-02
5.288000000000000000e+03 4.656626892089843750e+01 -1.954040527343750000e+01 4.587664082646369934e-02 1.367162704467773438e+00 4.239118099212646484e-01 4.461463168263435364e-02
5.289000000000000000e+03 4.665504837036132812e+01 -1.762366485595703125e+01 1.199516430497169495e-01 1.345650434494018555e+00 4.396806359291076660e-01 5.158486589789390564e-02
5.290000000000000000e+03 6.521504974365234375e+01 -2.079737281799316406e+01 3.920428082346916199e-02 5.087920188903808594e+00 1.538137316703796387e+00 3.237683475017547607e-01
5.291000000000000000e+03 6.691351318359375000e+01 -6.257014751434326172e+00 9.052675962448120117e-02 5.560251235961914062e+00 1.695233345031738281e+00 4.311392009258270264e-01
5.292000000000000000e+03 1.879383850097656250e+01 -2.536937332153320312e+01 2.309657931327819824e-01 -1.088194176554679871e-01 3.664391487836837769e-02 -3.402585685253143311e-01
5.293000000000000000e+03 1.907209968566894531e+01 -2.362236595153808594e+01 2.479421645402908325e-01 -8.646049350500106812e-02 4.844450205564498901e-02 -3.351762592792510986e-01
5.294000000000000000e+03 6.671559906005859375e+01 -2.167725753784179688e+01 4.198351874947547913e-02 5.397072315216064453e+00 1.631716728210449219e+00 3.009216785430908203e-01
5.295000000000000000e+03 6.731978607177734375e+01 -1.979601097106933594e+01 3.549018874764442444e-02 5.509844303131103516e+00 1.663600325584411621e+00 3.073610067367553711e-01
5.296000000000000000e+03 1.118556880950927734e+01 -2.781826400756835938e+01 1.405483335256576538e-01 -6.711742281913757324e-01 -1.591877639293670654e-01 -2.684480845928192139e-01
5.297000000000000000e+03 1.476306343078613281e+01 2.487864875793457031e+01 -6.600654684007167816e-03 5.608269572257995605e-02 1.484461221843957901e-02 1.045619323849678040e-02
5.298000000000000000e+03 6.371684265136718750e+01 -1.534960556030273438e+01 7.767069339752197266e-02 4.808776855468750000e+00 1.465934276580810547e+00 3.585235774517059326e-01
5.299000000000000000e+03 5.146547317504882812e+01 -2.068969345092773438e+01 3.064216487109661102e-02 2.416089296340942383e+00 7.340194582939147949e-01 1.618300974369049072e-01
5.300000000000000000e+03 4.836159896850585938e+01 -1.722815132141113281e+01 1.277724057435989380e-01 1.695471286773681641e+00 5.469731092453002930e-01 7.667255401611328125e-02
5.301000000000000000e+03 4.831622314453125000e+01 -2.062169075012207031e+01 8.083808235824108124e-03 1.743681311607360840e+00 5.255295038223266602e-01 7.511423528194427490e-02
5.302000000000000000e+03 5.976461410522460938e+01 -2.638248825073242188e+01 6.106109172105789185e-02 4.069331645965576172e+00 1.239117741584777832e+00 3.344115018844604492e-01
5.303000000000000000e+03 3.968582916259765625e+01 4.040554046630859375e+01 8.390952646732330322e-02 3.824555128812789917e-02 3.664652258157730103e-02 8.799562230706214905e-03
5.304000000000000000e+03 3.282459259033203125e+01 3.662592697143554688e+01 3.711820393800735474e-02 6.407069414854049683e-02 3.035666979849338531e-02 2.898898534476757050e-02
5.305000000000000000e+03 6.494122314453125000e+01 2.924592399597167969e+01 4.046469330787658691e-01 4.990032672882080078e+00 1.618403911590576172e+00 3.087425947189331055e+00
5.306000000000000000e+03 2.764553833007812500e+01 1.583041071891784668e+00 -1.378871560096740723e+00 -6.293988227844238281e-01 -6.024811267852783203e-01 -4.094863235950469971e-01
5.307000000000000000e+03 2.743912124633789062e+01 1.801577329635620117e+00 -1.558462619781494141e+00 -6.152151823043823242e-01 -6.521033048629760742e-01 -4.829497039318084717e-01
5.308000000000000000e+03 4.906366729736328125e+01 2.298101043701171875e+01 -8.222584128379821777e-01 -3.180364370346069336e-01 -3.420884609222412109e-01 -6.650186181068420410e-01
5.309000000000000000e+03 6.644583129882812500e+01 2.960885620117187500e+01 -2.179023623466491699e-01 8.291539192199707031e+00 2.422091007232666016e+00 3.612618207931518555e+00
5.310000000000000000e+03 4.852675247192382812e+01 2.260439872741699219e+01 -8.315569162368774414e-01 -3.833815157413482666e-01 -3.644815385341644287e-01 -6.941615939140319824e-01
5.311000000000000000e+03 3.891186523437500000e+01 1.285812854766845703e+01 -8.918413519859313965e-01 -8.885429501533508301e-01 -5.341153144836425781e-01 -8.821871876716613770e-01
5.312000000000000000e+03 3.746594619750976562e+01 1.160908603668212891e+01 -9.423571228981018066e-01 -9.615460038185119629e-01 -5.711709260940551758e-01 -9.111063480377197266e-01
5.313000000000000000e+03 4.922295379638671875e+01 2.392971229553222656e+01 -8.904467821121215820e-01 -4.017458856105804443e-01 -3.876577913761138916e-01 -7.344318032264709473e-01
5.314000000000000000e+03 2.783784484863281250e+01 1.774819850921630859e+00 -1.456436991691589355e+00 -6.247591972351074219e-01 -6.243588328361511230e-01 -4.067949950695037842e-01
5.315000000000000000e+03 6.705572509765625000e+01 2.994595527648925781e+01 -5.581439733505249023e-01 1.011999320983886719e+01 2.868554830551147461e+00 3.496445417404174805e+00
5.316000000000000000e+03 6.730562591552734375e+01 3.025102806091308594e+01 -6.261868476867675781e-01 1.108518981933593750e+01 3.137700796127319336e+00 3.516857862472534180e+00
5.317000000000000000e+03 4.964393615722656250e+01 2.524651718139648438e+01 -9.602178335189819336e-01 -4.811420440673828125e-01 -4.324079751968383789e-01 -8.022404909133911133e-01
5.318000000000000000e+03 4.416576766967773438e+01 1.927777671813964844e+01 -8.642529845237731934e-01 -7.861637473106384277e-01 -4.951250255107879639e-01 -9.113939404487609863e-01
5.319000000000000000e+03 4.546374511718750000e+01 2.018754768371582031e+01 -8.493350744247436523e-01 -6.854698657989501953e-01 -4.604414999485015869e-01 -8.379516005516052246e-01
5.320000000000000000e+03 3.855152893066406250e+01 1.266769599914550781e+01 -9.164134860038757324e-01 -9.235937595367431641e-01 -5.520021915435791016e-01 -8.995001912117004395e-01
5.321000000000000000e+03 3.878014755249023438e+01 1.319526576995849609e+01 -9.331909418106079102e-01 -9.388606548309326172e-01 -5.616154670715332031e-01 -9.251915216445922852e-01
5.322000000000000000e+03 6.383475875854492188e+01 2.829973983764648438e+01 3.527074158191680908e-01 3.820889949798583984e+00 1.252079248428344727e+00 2.276988506317138672e+00
5.323000000000000000e+03 6.520310974121093750e+01 2.898425674438476562e+01 2.223352640867233276e-01 5.547976493835449219e+00 1.731093525886535645e+00 3.079923391342163086e+00
5.324000000000000000e+03 4.598431396484375000e+01 2.029510307312011719e+01 -8.232867121696472168e-01 -6.110446453094482422e-01 -4.302994012832641602e-01 -7.894073724746704102e-01
5.325000000000000000e+03 2.986326599121093750e+01 2.836015701293945312e+00 -1.393154859542846680e+00 -7.754016518592834473e-01 -6.505669355392456055e-01 -4.071862101554870605e-01
5.326000000000000000e+03 3.809860610961914062e+01 1.222773742675781250e+01 -9.355488419532775879e-01 -9.425135254859924316e-01 -5.634186863899230957e-01 -9.063163399696350098e-01
5.327000000000000000e+03 4.988255310058593750e+01 2.492324447631835938e+01 -9.192829132080078125e-01 -3.859837055206298828e-01 -3.915799856185913086e-01 -7.449603676795959473e-01
5.328000000000000000e+03 4.355126571655273438e+01 1.758036994934082031e+01 -7.960106730461120605e-01 -6.867352128028869629e-01 -4.448237717151641846e-01 -8.550429344177246094e-01
5.329000000000000000e+03 3.844820785522460938e+01 1.303449153900146484e+01 -9.459915757179260254e-01 -9.712229371070861816e-01 -5.751643776893615723e-01 -9.405467510223388672e-01
5.330000000000000000e+03 3.866018676757812500e+01 1.354339504241943359e+01 -9.661839008331298828e-01 -9.873243570327758789e-01 -5.860524773597717285e-01 -9.613835215568542480e-01
5.331000000000000000e+03 2.439215469360351562e+01 2.180390930175781250e+01 3.799178078770637512e-02 1.007432416081428528e-01 4.162050411105155945e-02 6.606965512037277222e-02
5.332000000000000000e+03 2.479122924804687500e+01 2.149850845336914062e+01 4.193938523530960083e-02 1.008416861295700073e-01 4.283431917428970337e-02 6.901354342699050903e-02
5.333000000000000000e+03 4.580861282348632812e+01 1.998407745361328125e+01 -8.044906854629516602e-01 -6.029362678527832031e-01 -4.222280979156494141e-01 -7.859887480735778809e-01
5.334000000000000000e+03 4.358507156372070312e+01 1.823399543762207031e+01 -8.361119031906127930e-01 -7.545941472053527832e-01 -4.772118031978607178e-01 -9.029164910316467285e-01
5.335000000000000000e+03 4.607859420776367188e+01 2.102744674682617188e+01 -8.835092186927795410e-01 -6.703103184700012207e-01 -4.661458730697631836e-01 -8.342779874801635742e-01
5.336000000000000000e+03 5.123830795288085938e+01 2.611666107177734375e+01 -9.093123674392700195e-01 -2.201873064041137695e-01 -3.388499021530151367e-01 -6.824119091033935547e-01
5.337000000000000000e+03 4.406726455688476562e+01 1.897763824462890625e+01 -8.471336960792541504e-01 -7.603598237037658691e-01 -4.822480380535125732e-01 -9.023988842964172363e-01
5.338000000000000000e+03 6.886447143554687500e+01 2.954450416564941406e+01 -1.171137332916259766e+00 1.240713882446289062e+01 3.370800495147705078e+00 1.011318206787109375e+00
5.339000000000000000e+03 1.305070781707763672e+01 9.358951568603515625e+00 4.956460371613502502e-02 2.445335835218429565e-01 8.822945505380630493e-02 3.116885013878345490e-02
5.340000000000000000e+03 1.326261901855468750e+01 9.717315673828125000e+00 4.804782569408416748e-02 2.381982356309890747e-01 8.587381243705749512e-02 3.670915961265563965e-02
5.341000000000000000e+03 5.201983642578125000e+01 2.651037597656250000e+01 -8.839963674545288086e-01 -7.893241941928863525e-02 -2.888786494731903076e-01 -6.275131106376647949e-01
5.342000000000000000e+03 5.496113204956054688e+01 2.725581741333007812e+01 -6.627837419509887695e-01 5.091033577919006348e-01 -4.610412940382957458e-02 -3.966809213161468506e-01
5.343000000000000000e+03 4.722370147705078125e+01 2.178916931152343750e+01 -8.622202873229980469e-01 -5.410152077674865723e-01 -4.209706485271453857e-01 -7.653420567512512207e-01
5.344000000000000000e+03 4.759221267700195312e+01 2.183099365234375000e+01 -8.380346298217773438e-01 -4.786017239093780518e-01 -3.949908912181854248e-01 -7.302035689353942871e-01
5.345000000000000000e+03 1.389895534515380859e+01 1.466961288452148438e+01 1.846507750451564789e-02 1.355735510587692261e-01 4.621158912777900696e-02 3.412107378244400024e-02
5.346000000000000000e+03 4.064818954467773438e+01 1.517528915405273438e+01 -9.015570282936096191e-01 -8.511847257614135742e-01 -5.258225202560424805e-01 -9.224863648414611816e-01
5.347000000000000000e+03 4.107030105590820312e+01 1.483878421783447266e+01 -8.494629263877868652e-01 -7.641517519950866699e-01 -4.840843975543975830e-01 -8.587287664413452148e-01
5.348000000000000000e+03 5.023737716674804688e+01 2.475778961181640625e+01 -8.705040812492370605e-01 -2.867218255996704102e-01 -3.471677601337432861e-01 -6.802649497985839844e-01
5.349000000000000000e+03 1.672467231750488281e+01 1.407260322570800781e+01 4.270977899432182312e-02 1.566097736358642578e-01 5.979586765170097351e-02 7.724506407976150513e-02
5.350000000000000000e+03 1.740711975097656250e+01 1.431213855743408203e+01 4.772928729653358459e-02 1.535877287387847900e-01 6.039510667324066162e-02 8.253616839647293091e-02
5.351000000000000000e+03 2.037634277343750000e+01 1.738303565979003906e+01 4.619338363409042358e-02 1.253476440906524658e-01 5.146230757236480713e-02 7.731968909502029419e-02
5.352000000000000000e+03 3.779500198364257812e+01 1.192479991912841797e+01 -9.374447464942932129e-01 -9.491246342658996582e-01 -5.659708380699157715e-01 -9.071639776229858398e-01
5.353000000000000000e+03 3.810032272338867188e+01 1.165303897857666016e+01 -8.958517313003540039e-01 -8.913057446479797363e-01 -5.361472368240356445e-01 -8.603017926216125488e-01
5.354000000000000000e+03 4.464093780517578125e+01 1.942380905151367188e+01 -8.401593565940856934e-01 -7.265124917030334473e-01 -4.700015485286712646e-01 -8.722882866859436035e-01
5.355000000000000000e+03 1.773621368408203125e+01 1.566785621643066406e+01 3.997313976287841797e-02 1.411934942007064819e-01 5.434999242424964905e-02 7.283946871757507324e-02
5.356000000000000000e+03 2.454696846008300781e+01 2.113144874572753906e+01 4.351562261581420898e-02 1.026157885789871216e-01 4.383942484855651855e-02 6.994315981864929199e-02
5.357000000000000000e+03 5.055688858032226562e+01 2.534078979492187500e+01 -8.974016308784484863e-01 -2.992714345455169678e-01 -3.590019345283508301e-01 -7.018132805824279785e-01
5.358000000000000000e+03 1.906864738464355469e+01 1.577085304260253906e+01 4.967259988188743591e-02 1.383475661277770996e-01 5.640604719519615173e-02 8.262066543102264404e-02
5.359000000000000000e+03 1.967319297790527344e+01 1.749456024169921875e+01 4.073802754282951355e-02 1.255383193492889404e-01 4.988290369510650635e-02 7.280517369508743286e-02
5.360000000000000000e+03 5.179346466064453125e+01 2.585936927795410156e+01 -8.347304463386535645e-01 -5.881686881184577942e-02 -2.680642008781433105e-01 -5.970565080642700195e-01
5.361000000000000000e+03 4.393457412719726562e+01 1.840687179565429688e+01 -8.199468255043029785e-01 -7.226057052612304688e-01 -4.627657532691955566e-01 -8.771415948867797852e-01
5.362000000000000000e+03 4.438848114013671875e+01 1.886268806457519531e+01 -8.195707798004150391e-01 -7.113563418388366699e-01 -4.592781364917755127e-01 -8.592789173126220703e-01
5.363000000000000000e+03 5.097466278076171875e+01 2.549799728393554688e+01 -8.733403682708740234e-01 -2.106023579835891724e-01 -3.251828253269195557e-01 -6.619447469711303711e-01
5.364000000000000000e+03 5.138683319091796875e+01 2.567390441894531250e+01 -8.532611131668090820e-01 -1.336222887039184570e-01 -2.960650324821472168e-01 -6.262158155441284180e-01
5.365000000000000000e+03 4.284837341308593750e+01 1.737582778930664062e+01 -8.380448222160339355e-01 -7.587170004844665527e-01 -4.790285229682922363e-01 -9.098058938980102539e-01
5.366000000000000000e+03 2.673636627197265625e+01 1.183533787727355957e+00 -1.297358274459838867e+00 -4.635277688503265381e-01 -5.282658338546752930e-01 -4.049296975135803223e-01
5.367000000000000000e+03 4.679801559448242188e+01 2.117096138000488281e+01 -8.415420651435852051e-01 -5.623285174369812012e-01 -4.211611747741699219e-01 -7.660590410232543945e-01
5.368000000000000000e+03 4.017360305786132812e+01 1.457186508178710938e+01 -9.046957492828369141e-01 -8.705070614814758301e-01 -5.325608849525451660e-01 -9.095267653465270996e-01
5.369000000000000000e+03 4.170947265625000000e+01 1.538372898101806641e+01 -8.258650302886962891e-01 -7.251333594322204590e-01 -4.652995169162750244e-01 -8.508894443511962891e-01
5.370000000000000000e+03 3.015762519836425781e+01 2.894207239151000977e+00 -1.343982100486755371e+00 -7.883294820785522461e-01 -6.396934986114501953e-01 -3.876503705978393555e-01
5.371000000000000000e+03 3.137793159484863281e+01 2.538125753402709961e+00 -1.027047395706176758e+00 -6.839790940284729004e-01 -5.133079290390014648e-01 -2.516959309577941895e-01
5.372000000000000000e+03 3.702390289306640625e+01 1.056526279449462891e+01 -9.322465658187866211e-01 -9.250370264053344727e-01 -5.571850538253784180e-01 -8.683286905288696289e-01
5.373000000000000000e+03 2.723911666870117188e+01 1.189798116683959961e+00 -1.204749464988708496e+00 -5.292906165122985840e-01 -5.202120542526245117e-01 -3.764104247093200684e-01
5.374000000000000000e+03 2.987218856811523438e+01 1.777895569801330566e+00 -1.011393666267395020e+00 -6.757727861404418945e-01 -5.061499476432800293e-01 -1.952629238367080688e-01
5.375000000000000000e+03 3.028585433959960938e+01 2.404465913772583008e+00 -1.172280192375183105e+00 -7.208163738250732422e-01 -5.679289698600769043e-01 -2.776354253292083740e-01
5.376000000000000000e+03 1.169400691986083984e+01 1.265704917907714844e+01 2.644506283104419708e-02 1.220208704471588135e-01 4.453977942466735840e-02 4.786357749253511429e-03
5.377000000000000000e+03 4.654877471923828125e+01 2.096236801147460938e+01 -8.430963158607482910e-01 -5.896825790405273438e-01 -4.298336803913116455e-01 -7.768577933311462402e-01
5.378000000000000000e+03 2.303352165222167969e+01 1.971318817138671875e+01 4.593615233898162842e-02 1.091037765145301819e-01 4.651197791099548340e-02 7.341238111257553101e-02
5.379000000000000000e+03 2.389286994934082031e+01 2.023823165893554688e+01 4.660890623927116394e-02 1.061513200402259827e-01 4.582806676626205444e-02 7.277044653892517090e-02
5.380000000000000000e+03 3.670377731323242188e+01 1.095303630828857422e+01 -9.759300947189331055e-01 -9.946311712265014648e-01 -5.911684036254882812e-01 -9.297862052917480469e-01
5.381000000000000000e+03 3.777756881713867188e+01 1.130520439147949219e+01 -9.056389927864074707e-01 -8.974782228469848633e-01 -5.409351587295532227e-01 -8.604127168655395508e-01
5.382000000000000000e+03 1.411491680145263672e+01 1.780260086059570312e+01 5.931736901402473450e-03 1.003838256001472473e-01 3.189466893672943115e-02 2.372974716126918793e-02
5.383000000000000000e+03 1.019641876220703125e+01 1.112111854553222656e+01 4.786106944084167480e-02 9.103038161993026733e-02 4.166743531823158264e-02 -2.073232457041740417e-02
5.384000000000000000e+03 5.379153442382812500e+01 2.667740821838378906e+01 -7.303151488304138184e-01 3.284704983234405518e-01 -1.205534040927886963e-01 -4.522914886474609375e-01
5.385000000000000000e+03 5.340361785888671875e+01 2.658210182189941406e+01 -7.653607130050659180e-01 2.454826086759567261e-01 -1.559634357690811157e-01 -4.867896437644958496e-01
5.386000000000000000e+03 4.672909545898437500e+01 2.196446609497070312e+01 -9.279134869575500488e-01 -6.639291048049926758e-01 -4.775527715682983398e-01 -8.392451405525207520e-01
5.387000000000000000e+03 1.217492008209228516e+01 8.178709983825683594e+00 7.088822871446609497e-02 2.589042782783508301e-01 9.893774986267089844e-02 -1.672642119228839874e-02
5.388000000000000000e+03 1.288328742980957031e+01 8.957483291625976562e+00 5.656664445996284485e-02 2.590838670730590820e-01 9.469515830278396606e-02 2.158032543957233429e-02
5.389000000000000000e+03 3.095252227783203125e+01 -1.267113983631134033e-01 -2.021716535091400146e-01 -5.966963171958923340e-01 -2.396603822708129883e-01 3.674448654055595398e-02
5.390000000000000000e+03 3.257025146484375000e+01 -3.260630071163177490e-01 -9.600968658924102783e-02 -6.007096171379089355e-01 -2.090157866477966309e-01 5.610667169094085693e-02
5.391000000000000000e+03 7.031008148193359375e+01 3.041875648498535156e+01 -1.917239278554916382e-03 1.297790431976318359e+01 3.892796039581298828e+00 -1.094891428947448730e+00
5.392000000000000000e+03 2.013541603088378906e+01 1.777652740478515625e+01 4.225622490048408508e-02 1.241997703909873962e-01 4.993679746985435486e-02 7.334942370653152466e-02
5.393000000000000000e+03 3.601873779296875000e+01 6.727667808532714844e+00 -8.115860819816589355e-01 -6.835387349128723145e-01 -4.485374391078948975e-01 -6.002205610275268555e-01
5.394000000000000000e+03 5.366382598876953125e+01 2.720400047302246094e+01 -8.043609857559204102e-01 2.477487921714782715e-01 -1.669836640357971191e-01 -5.197201967239379883e-01
5.395000000000000000e+03 6.777062225341796875e+01 2.978708648681640625e+01 -9.924377799034118652e-01 1.147180175781250000e+01 3.143809080123901367e+00 2.614181756973266602e+00
5.396000000000000000e+03 6.853702545166015625e+01 2.932008361816406250e+01 -1.217894196510314941e+00 1.191995334625244141e+01 3.210617780685424805e+00 1.454905152320861816e+00
5.397000000000000000e+03 2.588790130615234375e+01 2.282850074768066406e+01 3.894965350627899170e-02 9.518146514892578125e-02 4.023933410644531250e-02 6.575499475002288818e-02
5.398000000000000000e+03 1.594703102111816406e+01 1.221223926544189453e+01 5.006298422813415527e-02 1.862367540597915649e-01 7.088991999626159668e-02 8.621639758348464966e-02
5.399000000000000000e+03 1.352200603485107422e+01 1.080478668212890625e+01 3.925200179219245911e-02 2.068327218294143677e-01 7.382541894912719727e-02 4.489624500274658203e-02
5.400000000000000000e+03 1.412592124938964844e+01 1.201582717895507812e+01 3.419860079884529114e-02 1.853692680597305298e-01 6.587035953998565674e-02 5.204410478472709656e-02
5.401000000000000000e+03 3.639532470703125000e+01 9.259903907775878906e+00 -9.102627038955688477e-01 -8.767998814582824707e-01 -5.361187458038330078e-01 -8.111141920089721680e-01
5.402000000000000000e+03 3.628116226196289062e+01 8.381112098693847656e+00 -8.839380741119384766e-01 -8.090038299560546875e-01 -5.078825950622558594e-01 -7.479693293571472168e-01
5.403000000000000000e+03 4.228846740722656250e+01 1.641646003723144531e+01 -8.341980576515197754e-01 -7.399786710739135742e-01 -4.722530245780944824e-01 -8.855175971984863281e-01
5.404000000000000000e+03 2.844241905212402344e+01 1.872342586517333984e+00 -1.361541032791137695e+00 -7.091897726058959961e-01 -6.212192177772521973e-01 -3.835933506488800049e-01
5.405000000000000000e+03 2.923539161682128906e+01 1.704108119010925293e+00 -1.122626185417175293e+00 -6.854622960090637207e-01 -5.424265265464782715e-01 -2.496250867843627930e-01
5.406000000000000000e+03 4.307837677001953125e+01 1.781674575805664062e+01 -8.438418507575988770e-01 -7.737827897071838379e-01 -4.852873980998992920e-01 -9.214667677879333496e-01
5.407000000000000000e+03 1.224463748931884766e+01 8.681296348571777344e+00 6.543388217687606812e-02 2.408795505762100220e-01 9.189403057098388672e-02 -8.655177429318428040e-03
5.408000000000000000e+03 3.602170562744140625e+01 9.731764793395996094e+00 -9.694862365722656250e-01 -9.537627696990966797e-01 -5.769746899604797363e-01 -8.845317363739013672e-01
5.409000000000000000e+03 4.199655151367187500e+01 1.590513706207275391e+01 -8.318260908126831055e-01 -7.322505712509155273e-01 -4.692229926586151123e-01 -8.689655661582946777e-01
5.410000000000000000e+03 2.371569061279296875e+01 1.990617561340332031e+01 4.847812280058860779e-02 1.077370271086692810e-01 4.686454311013221741e-02 7.466306537389755249e-02
5.411000000000000000e+03 1.608160018920898438e+01 1.254971981048583984e+01 5.018790066242218018e-02 1.799082010984420776e-01 6.902883201837539673e-02 8.399973064661026001e-02
5.412000000000000000e+03 1.447640514373779297e+01 1.189645290374755859e+01 3.941684961318969727e-02 1.901095360517501831e-01 6.885791569948196411e-02 6.015139073133468628e-02
5.413000000000000000e+03 1.707699775695800781e+01 1.418698692321777344e+01 4.595775529742240906e-02 1.570248752832412720e-01 6.089479103684425354e-02 8.045431971549987793e-02
5.414000000000000000e+03 2.694774055480957031e+01 2.461013412475585938e+01 3.545891493558883667e-02 8.938764780759811401e-02 3.745396807789802551e-02 6.079363822937011719e-02
5.415000000000000000e+03 2.466662788391113281e+01 2.218328285217285156e+01 3.752451390027999878e-02 9.907585382461547852e-02 4.098011180758476257e-02 6.541249155998229980e-02
5.416000000000000000e+03 3.669467544555664062e+01 1.011851310729980469e+01 -9.317857623100280762e-01 -9.216498732566833496e-01 -5.560306906700134277e-01 -8.604333996772766113e-01
5.417000000000000000e+03 2.209141731262207031e+01 1.851506805419921875e+01 4.890787973999977112e-02 1.165309920907020569e-01 4.963166266679763794e-02 7.788242399692535400e-02
5.418000000000000000e+03 2.325377082824707031e+01 1.848655319213867188e+01 5.742456763982772827e-02 1.132042258977890015e-01 5.118863657116889954e-02 8.209696412086486816e-02
5.419000000000000000e+03 2.321967887878417969e+01 1.894186592102050781e+01 5.335441976785659790e-02 1.119896695017814636e-01 4.960322752594947815e-02 7.933630794286727905e-02
5.420000000000000000e+03 2.506623458862304688e+01 2.183386611938476562e+01 4.104620963335037231e-02 9.981565922498703003e-02 4.225856065750122070e-02 6.772445142269134521e-02
5.421000000000000000e+03 2.548197364807128906e+01 2.312117004394531250e+01 3.578075766563415527e-02 9.575682133436203003e-02 3.946127369999885559e-02 6.296773254871368408e-02
5.422000000000000000e+03 4.216844177246093750e+01 1.684985733032226562e+01 -8.668453097343444824e-01 -7.948290109634399414e-01 -4.985022842884063721e-01 -9.332984089851379395e-01
5.423000000000000000e+03 3.091222572326660156e+01 2.924045085906982422e+00 -1.228562474250793457e+00 -7.273848652839660645e-01 -5.867841839790344238e-01 -3.425227403640747070e-01
5.424000000000000000e+03 3.574822235107421875e+01 7.524621009826660156e+00 -8.877376914024353027e-01 -7.700562477111816406e-01 -4.973381757736206055e-01 -7.082741856575012207e-01
5.425000000000000000e+03 5.453450012207031250e+01 2.727393150329589844e+01 -7.233110666275024414e-01 4.181711971759796143e-01 -9.154196083545684814e-02 -4.488058090209960938e-01
5.426000000000000000e+03 1.677945709228515625e+01 1.453274059295654297e+01 3.943531587719917297e-02 1.527141928672790527e-01 5.764485150575637817e-02 7.385656982660293579e-02
5.427000000000000000e+03 2.824433708190917969e+01 1.367906928062438965e+00 -1.162218570709228516e+00 -5.657281279563903809e-01 -5.183840394020080566e-01 -2.460231930017471313e-01
5.428000000000000000e+03 2.774313735961914062e+01 8.192558884620666504e-01 -9.537487030029296875e-01 -5.387434959411621094e-01 -4.477476775646209717e-01 -2.566841542720794678e-01
5.429000000000000000e+03 2.822284507751464844e+01 2.628155136108398438e+01 3.371354565024375916e-02 8.409658819437026978e-02 3.534303978085517883e-02 5.691735446453094482e-02
5.430000000000000000e+03 2.496650505065917969e+01 2.525682258605957031e+01 2.387034334242343903e-02 9.097744524478912354e-02 3.445433452725410461e-02 5.435622856020927429e-02
5.431000000000000000e+03 7.073525238037109375e+01 2.964071655273437500e+01 -4.016937613487243652e-01 1.207613277435302734e+01 3.502331733703613281e+00 -1.020750164985656738e+00
5.432000000000000000e+03 2.797698211669921875e+01 2.734455299377441406e+01 2.980279363691806793e-02 8.256546407938003540e-02 3.371047601103782654e-02 5.269714072346687317e-02
5.433000000000000000e+03 7.067140960693359375e+01 2.907036018371582031e+01 -7.715281844139099121e-01 1.170827007293701172e+01 3.281022787094116211e+00 -7.133787274360656738e-01
5.434000000000000000e+03 2.984160232543945312e+01 2.816657829284667969e+01 3.519383072853088379e-02 7.845332473516464233e-02 3.409414738416671753e-02 5.276603996753692627e-02
5.435000000000000000e+03 2.899613952636718750e+01 2.749871444702148438e+01 3.391889482736587524e-02 8.084345608949661255e-02 3.442870453000068665e-02 5.416070669889450073e-02
5.436000000000000000e+03 2.905645179748535156e+01 2.819575309753417969e+01 2.991101332008838654e-02 8.026872575283050537e-02 3.305392339825630188e-02 5.155906826257705688e-02
5.437000000000000000e+03 2.861751174926757812e+01 2.689061927795410156e+01 3.193765133619308472e-02 8.246012777090072632e-02 3.431933373212814331e-02 5.606740340590476990e-02
5.438000000000000000e+03 6.463852691650390625e+01 2.855883026123046875e+01 2.690843045711517334e-01 4.807647705078125000e+00 1.523019671440124512e+00 2.724208116531372070e+00
5.439000000000000000e+03 6.503546142578125000e+01 2.873925971984863281e+01 2.067105919122695923e-01 5.385087013244628906e+00 1.677539229393005371e+00 2.973437786102294922e+00
5.440000000000000000e+03 7.025861358642578125e+01 2.815662574768066406e+01 -1.143121957778930664e+00 1.112336444854736328e+01 2.994072675704956055e+00 -1.614942252635955811e-01
5.441000000000000000e+03 7.050989532470703125e+01 2.857389640808105469e+01 -9.990282058715820312e-01 1.143506526947021484e+01 3.130811214447021484e+00 -4.679802060127258301e-01
5.442000000000000000e+03 2.730163955688476562e+01 2.596216392517089844e+01 3.112695924937725067e-02 8.617083728313446045e-02 3.518933802843093872e-02 5.619164183735847473e-02
5.443000000000000000e+03 3.538287734985351562e+01 7.279474735260009766e+00 -9.169182777404785156e-01 -7.865301370620727539e-01 -5.110345482826232910e-01 -7.191773056983947754e-01
5.444000000000000000e+03 3.507867813110351562e+01 6.988492012023925781e+00 -9.491257667541503906e-01 -7.795880436897277832e-01 -5.186141133308410645e-01 -7.137711048126220703e-01
5.445000000000000000e+03 5.596379089355468750e+01 2.683939933776855469e+01 -4.825959205627441406e-01 7.750803232192993164e-01 8.774531632661819458e-02 -2.086184620857238770e-01
5.446000000000000000e+03 6.417864990234375000e+01 2.786108970642089844e+01 1.976632326841354370e-01 4.469357490539550781e+00 1.400106191635131836e+00 2.374758481979370117e+00
5.447000000000000000e+03 3.165371894836425781e+01 2.819545745849609375e+00 -1.049099802970886230e+00 -6.699311137199401855e-01 -5.157092809677124023e-01 -2.771099507808685303e-01
5.448000000000000000e+03 3.311860656738281250e+01 4.352082729339599609e+00 -1.073994517326354980e+00 -6.699808239936828613e-01 -5.231925845146179199e-01 -4.995465874671936035e-01
5.449000000000000000e+03 5.759286117553710938e+01 2.653702926635742188e+01 -2.331861555576324463e-01 1.180688977241516113e+00 2.842508554458618164e-01 1.198843419551849365e-01
5.450000000000000000e+03 6.009978485107421875e+01 2.583452033996582031e+01 5.276276171207427979e-02 2.185255527496337891e+00 6.714054942131042480e-01 8.259360790252685547e-01
5.451000000000000000e+03 5.301195526123046875e+01 2.639850616455078125e+01 -7.812950015068054199e-01 1.739459037780761719e-01 -1.822047382593154907e-01 -5.099370479583740234e-01
5.452000000000000000e+03 5.675615692138671875e+01 2.682472610473632812e+01 -3.846687078475952148e-01 9.189049601554870605e-01 1.602708697319030762e-01 -8.855105191469192505e-02
5.453000000000000000e+03 5.781515884399414062e+01 2.695309448242187500e+01 -2.424236088991165161e-01 1.140608072280883789e+00 2.694553434848785400e-01 9.828338027000427246e-02
5.454000000000000000e+03 3.188552093505859375e+01 2.863193452358245850e-01 -2.876094281673431396e-01 -5.970367193222045898e-01 -2.653938531875610352e-01 2.607301808893680573e-02
5.455000000000000000e+03 6.736847686767578125e+01 2.917161941528320312e+01 -9.101586341857910156e-01 1.007862377166748047e+01 2.750539541244506836e+00 2.737312316894531250e+00
5.456000000000000000e+03 7.023777770996093750e+01 2.754613876342773438e+01 -1.234074473381042480e+00 1.064869117736816406e+01 2.824384927749633789e+00 -5.252753943204879761e-02
5.457000000000000000e+03 6.874559020996093750e+01 2.445037078857421875e+01 -1.150580167770385742e+00 8.495682716369628906e+00 2.203530788421630859e+00 8.159158229827880859e-01
5.458000000000000000e+03 2.880005836486816406e+01 1.883224964141845703e+00 -1.224420070648193359e+00 -6.995481252670288086e-01 -5.771904587745666504e-01 -3.040761947631835938e-01
5.459000000000000000e+03 3.212648391723632812e+01 -3.496799618005752563e-02 -1.866261661052703857e-01 -6.116850972175598145e-01 -2.394933849573135376e-01 3.998288512229919434e-02
5.460000000000000000e+03 3.347821044921875000e+01 3.765975236892700195e+00 -9.217249155044555664e-01 -6.224623322486877441e-01 -4.632561802864074707e-01 -3.767055571079254150e-01
5.461000000000000000e+03 3.357094955444335938e+01 5.074919223785400391e+00 -1.050461530685424805e+00 -7.225387096405029297e-01 -5.319000482559204102e-01 -5.952507257461547852e-01
5.462000000000000000e+03 1.154008102416992188e+01 8.269096374511718750e+00 8.714261651039123535e-02 2.041533887386322021e-01 8.738879859447479248e-02 -3.980922326445579529e-02
5.463000000000000000e+03 1.159255218505859375e+01 7.673475742340087891e+00 9.757707267999649048e-02 2.246001958847045898e-01 9.665318578481674194e-02 -5.141945555806159973e-02
5.464000000000000000e+03 3.491100692749023438e+01 6.336899280548095703e+00 -9.294486045837402344e-01 -7.383275032043457031e-01 -5.003328323364257812e-01 -6.561646461486816406e-01
5.465000000000000000e+03 6.094200134277343750e+01 2.587023735046386719e+01 1.000423580408096313e-01 2.563446044921875000e+00 7.990465164184570312e-01 1.074369072914123535e+00
5.466000000000000000e+03 2.627270698547363281e+01 2.249924087524414062e+01 4.238626360893249512e-02 9.549256414175033569e-02 4.136364907026290894e-02 6.746342033147811890e-02
5.467000000000000000e+03 2.616545867919921875e+01 2.323733329772949219e+01 3.770514950156211853e-02 9.430015087127685547e-02 3.960159048438072205e-02 6.408154219388961792e-02
5.468000000000000000e+03 6.593102264404296875e+01 2.778469276428222656e+01 -4.032122790813446045e-01 6.954843044281005859e+00 1.965489268302917480e+00 2.672277927398681641e+00
5.469000000000000000e+03 7.011062622070312500e+01 2.595990180969238281e+01 -1.288069486618041992e+00 9.751945495605468750e+00 2.539162874221801758e+00 2.266036272048950195e-01
5.470000000000000000e+03 1.876585388183593750e+01 1.664873313903808594e+01 4.022296890616416931e-02 1.324435770511627197e-01 5.179996415972709656e-02 7.287090271711349487e-02
5.471000000000000000e+03 3.448271560668945312e+01 -6.331133246421813965e-01 3.233196586370468140e-02 -5.243265628814697266e-01 -1.475983858108520508e-01 6.834445148706436157e-02
5.472000000000000000e+03 7.082023620605468750e+01 3.021181488037109375e+01 7.808919996023178101e-02 1.240102577209472656e+01 3.743734598159790039e+00 -1.324242830276489258e+00
5.473000000000000000e+03 3.072807502746582031e+01 4.198713302612304688e-01 -4.064406454563140869e-01 -6.548965573310852051e-01 -3.184011578559875488e-01 -1.488127931952476501e-02
5.474000000000000000e+03 2.966285324096679688e+01 1.402377843856811523e+00 -8.586516976356506348e-01 -6.738126873970031738e-01 -4.597392976284027100e-01 -1.352211236953735352e-01
5.475000000000000000e+03 3.740560150146484375e+01 -3.299652338027954102e+00 3.920369446277618408e-01 -2.925605773925781250e-01 2.984290570020675659e-02 7.061433047056198120e-02
5.476000000000000000e+03 3.707279205322265625e+01 -2.634272098541259766e+00 3.333710730075836182e-01 -3.284583687782287598e-01 1.473808777518570423e-03 7.631281018257141113e-02
5.477000000000000000e+03 6.987863159179687500e+01 2.449437141418457031e+01 -1.206350922584533691e+00 8.956421852111816406e+00 2.325021266937255859e+00 3.755687773227691650e-01
5.478000000000000000e+03 2.046015548706054688e+01 1.844355010986328125e+01 3.937425091862678528e-02 1.200794354081153870e-01 4.783610627055168152e-02 7.044824957847595215e-02
5.479000000000000000e+03 1.062844753265380859e+01 7.039194583892822266e+00 1.550276577472686768e-01 1.207507699728012085e-01 8.273352682590484619e-02 -7.724966853857040405e-02
5.480000000000000000e+03 1.183797550201416016e+01 9.415651321411132812e+00 5.983137339353561401e-02 1.949342638254165649e-01 7.642968744039535522e-02 -1.137986499816179276e-02
5.481000000000000000e+03 1.217335033416748047e+01 1.820051956176757812e+01 2.044108405243605375e-04 7.196670025587081909e-02 2.165133319795131683e-02 4.709462635219097137e-03
5.482000000000000000e+03 1.330500316619873047e+01 2.093155670166015625e+01 -3.742458298802375793e-03 6.642556190490722656e-02 1.880493201315402985e-02 8.876379579305648804e-03
5.483000000000000000e+03 1.261352634429931641e+01 1.540200233459472656e+01 1.062822528183460236e-02 1.048433780670166016e-01 3.464148193597793579e-02 1.382828131318092346e-02
5.484000000000000000e+03 1.058205318450927734e+01 1.180943775177001953e+01 3.590935468673706055e-02 9.764855355024337769e-02 4.006737098097801208e-02 -1.192936580628156662e-02
5.485000000000000000e+03 6.815329742431640625e+01 1.727293395996093750e+01 -5.019150972366333008e-01 6.728789806365966797e+00 1.868062376976013184e+00 5.898765921592712402e-01
5.486000000000000000e+03 6.856710052490234375e+01 1.495985507965087891e+01 -3.567274808883666992e-01 6.646953582763671875e+00 1.887067794799804688e+00 5.284195542335510254e-01
5.487000000000000000e+03 6.515233612060546875e+01 -1.121856498718261719e+01 8.268488198518753052e-02 5.094194889068603516e+00 1.553063988685607910e+00 4.020671248435974121e-01
5.488000000000000000e+03 6.788471984863281250e+01 -1.074155235290527344e+01 6.919709593057632446e-02 5.736004829406738281e+00 1.741560578346252441e+00 3.728010356426239014e-01
5.489000000000000000e+03 1.137625122070312500e+01 1.324228096008300781e+01 2.238197438418865204e-02 1.117380410432815552e-01 4.023600369691848755e-02 6.475616828538477421e-04
5.490000000000000000e+03 1.192220115661621094e+01 1.360719394683837891e+01 1.981717906892299652e-02 1.151503324508666992e-01 4.049025475978851318e-02 8.014737628400325775e-03
5.491000000000000000e+03 1.228433799743652344e+01 1.698899459838867188e+01 3.793668467551469803e-03 8.539680391550064087e-02 2.675714157521724701e-02 7.521346211433410645e-03
5.492000000000000000e+03 6.576076507568359375e+01 2.031054496765136719e+00 6.540042906999588013e-02 5.373586177825927734e+00 1.631695985794067383e+00 5.410774946212768555e-01
5.493000000000000000e+03 6.910279083251953125e+01 2.236049270629882812e+01 -9.811800718307495117e-01 7.947442531585693359e+00 2.089878797531127930e+00 5.986331701278686523e-01
5.494000000000000000e+03 6.733421325683593750e+01 2.129630851745605469e+01 -7.697474360466003418e-01 6.927809715270996094e+00 1.847418665885925293e+00 9.168258905410766602e-01
5.495000000000000000e+03 1.290567207336425781e+01 1.487109756469726562e+01 1.371472701430320740e-02 1.214193254709243774e-01 4.054021462798118591e-02 1.919415034353733063e-02
5.496000000000000000e+03 6.455745697021484375e+01 -7.907357215881347656e-01 1.112102940678596497e-01 5.045098781585693359e+00 1.546892642974853516e+00 5.213491916656494141e-01
5.497000000000000000e+03 3.896736526489257812e+01 -3.936775922775268555e+00 4.087227582931518555e-01 -1.208098083734512329e-01 8.637388795614242554e-02 8.409731090068817139e-02
5.498000000000000000e+03 3.781785583496093750e+01 -3.948980093002319336e+00 4.295764267444610596e-01 -2.486570924520492554e-01 5.427579954266548157e-02 7.128965854644775391e-02
5.499000000000000000e+03 6.666110229492187500e+01 4.363865375518798828e+00 1.483528781682252884e-02 5.653202056884765625e+00 1.700411200523376465e+00 5.572236180305480957e-01
5.500000000000000000e+03 6.435965728759765625e+01 3.969042062759399414e+00 4.235571250319480896e-02 5.020733833312988281e+00 1.518926858901977539e+00 5.757167339324951172e-01
5.501000000000000000e+03 6.725717163085937500e+01 2.030461502075195312e+01 -6.885638833045959473e-01 6.724974632263183594e+00 1.810923218727111816e+00 8.496634364128112793e-01
5.502000000000000000e+03 4.068978500366210938e+01 -4.326258659362792969e+00 4.155714511871337891e-01 9.925492107868194580e-02 1.544479131698608398e-01 9.214566648006439209e-02
5.503000000000000000e+03 6.985684967041015625e+01 2.545960426330566406e+01 -1.266841650009155273e+00 9.392047882080078125e+00 2.437561988830566406e+00 3.680789172649383545e-01
5.504000000000000000e+03 1.435589504241943359e+01 2.313105773925781250e+01 -5.440487526357173920e-03 6.213228404521942139e-02 1.700753904879093170e-02 1.125274412333965302e-02
5.505000000000000000e+03 4.399989700317382812e+01 -8.557263374328613281e+00 4.103298187255859375e-01 6.738031506538391113e-01 3.252398967742919922e-01 8.205408602952957153e-02
5.506000000000000000e+03 6.587158966064453125e+01 -2.375377893447875977e+00 9.595420211553573608e-02 5.341588973999023438e+00 1.631263017654418945e+00 4.865427911281585693e-01
5.507000000000000000e+03 6.640382385253906250e+01 5.430142402648925781e+00 -2.463092794641852379e-03 5.597208976745605469e+00 1.678423762321472168e+00 5.671529173851013184e-01
5.508000000000000000e+03 6.857341003417968750e+01 1.378390979766845703e+01 -2.932223677635192871e-01 6.561648368835449219e+00 1.880527734756469727e+00 5.289408564567565918e-01
5.509000000000000000e+03 1.324570274353027344e+01 1.151500892639160156e+01 3.338246792554855347e-02 1.841593235731124878e-01 6.526254117488861084e-02 3.507649526000022888e-02
5.510000000000000000e+03 1.110183048248291016e+01 1.231622409820556641e+01 3.001687675714492798e-02 1.113561168313026428e-01 4.241189733147621155e-02 -5.995135288685560226e-03
5.511000000000000000e+03 6.737355804443359375e+01 1.926477241516113281e+01 -6.240581870079040527e-01 6.632061004638671875e+00 1.802400827407836914e+00 7.741415500640869141e-01
5.512000000000000000e+03 6.688227844238281250e+01 1.791848373413085938e+01 -5.092726945877075195e-01 6.328708648681640625e+00 1.745830774307250977e+00 7.410811185836791992e-01
5.513000000000000000e+03 3.090047645568847656e+01 3.281851196289062500e+01 3.231917694211006165e-02 7.229247689247131348e-02 3.138349577784538269e-02 3.782644495368003845e-02
5.514000000000000000e+03 6.701430511474609375e+01 9.471144676208496094e+00 -1.061322465538978577e-01 5.867243766784667969e+00 1.728333473205566406e+00 5.765740871429443359e-01
5.515000000000000000e+03 6.824270629882812500e+01 2.225007438659667969e+01 -9.128054976463317871e-01 7.554632186889648438e+00 1.992548108100891113e+00 7.918060421943664551e-01
5.516000000000000000e+03 6.561133575439453125e+01 -3.690545320510864258e+00 9.349365532398223877e-02 5.296252250671386719e+00 1.616923809051513672e+00 4.742716848850250244e-01
5.517000000000000000e+03 6.639252471923828125e+01 -5.394258022308349609e+00 9.487800300121307373e-02 5.446527004241943359e+00 1.662421584129333496e+00 4.496793150901794434e-01
5.518000000000000000e+03 6.601115417480468750e+01 -1.013509750366210938e+01 9.677853435277938843e-02 5.337852001190185547e+00 1.630389213562011719e+00 3.944111168384552002e-01
5.519000000000000000e+03 1.407682800292968750e+01 2.156661415100097656e+01 -3.622386604547500610e-03 6.939882040023803711e-02 1.973292976617813110e-02 1.289503555744886398e-02
5.520000000000000000e+03 6.627703094482421875e+01 -2.047139739990234375e+01 4.564806073904037476e-02 5.329776763916015625e+00 1.612627506256103516e+00 3.092116117477416992e-01
5.521000000000000000e+03 4.282745742797851562e+01 -6.555090427398681641e+00 4.344033002853393555e-01 4.412758052349090576e-01 2.627037465572357178e-01 8.785218745470046997e-02
5.522000000000000000e+03 4.193901062011718750e+01 -4.137057304382324219e+00 3.958686888217926025e-01 2.701244950294494629e-01 1.997979581356048584e-01 1.118042469024658203e-01
5.523000000000000000e+03 3.508473968505859375e+01 3.705211257934570312e+01 4.474561661481857300e-02 6.154144927859306335e-02 3.188611939549446106e-02 2.612291276454925537e-02
5.524000000000000000e+03 6.754691314697265625e+01 1.268230152130126953e+01 -2.323786467313766479e-01 6.174223899841308594e+00 1.782553553581237793e+00 5.838531255722045898e-01
5.525000000000000000e+03 6.549754333496093750e+01 1.093777751922607422e+01 -1.404577046632766724e-01 5.457583427429199219e+00 1.595137715339660645e+00 6.437369585037231445e-01
5.526000000000000000e+03 4.614421844482421875e+01 -1.521144390106201172e+01 2.115180939435958862e-01 1.199163913726806641e+00 4.232046008110046387e-01 5.340755730867385864e-02
5.527000000000000000e+03 6.930856323242187500e+01 -8.432232856750488281e+00 5.592034757137298584e-02 6.091356754302978516e+00 1.844183206558227539e+00 3.749893307685852051e-01
5.528000000000000000e+03 1.412502574920654297e+01 -2.359287643432617188e+01 2.085042446851730347e-01 -4.607602357864379883e-01 -7.567679136991500854e-02 -3.513509333133697510e-01
5.529000000000000000e+03 1.186275577545166016e+01 -2.419137573242187500e+01 1.609323769807815552e-01 -6.140544414520263672e-01 -1.359366178512573242e-01 -3.327394425868988037e-01
5.530000000000000000e+03 4.399323654174804688e+01 -1.820757293701171875e+01 8.967445790767669678e-02 8.193977475166320801e-01 2.727216780185699463e-01 1.951079815626144409e-02
5.531000000000000000e+03 4.761019897460937500e+01 -1.850763320922851562e+01 7.450338453054428101e-02 1.564043879508972168e+00 4.915641844272613525e-01 5.708694830536842346e-02
5.532000000000000000e+03 4.287609100341796875e+01 -7.603388309478759766e+00 4.405157566070556641e-01 4.697541892528533936e-01 2.730809748172760010e-01 7.935457676649093628e-02
5.533000000000000000e+03 1.538631153106689453e+01 2.685743904113769531e+01 -7.088612299412488937e-03 5.193709954619407654e-02 1.345454622060060501e-02 1.044841110706329346e-02
5.534000000000000000e+03 1.410682106018066406e+01 2.609801292419433594e+01 -7.996621541678905487e-03 4.506284743547439575e-02 1.111986767500638962e-02 6.056139245629310608e-03
5.535000000000000000e+03 1.500319194793701172e+01 -2.649430084228515625e+01 2.069550901651382446e-01 -4.009122848510742188e-01 -5.818715691566467285e-02 -3.113731741905212402e-01
5.536000000000000000e+03 8.985365867614746094e+00 -2.707324981689453125e+01 1.022832095623016357e-01 -8.189435601234436035e-01 -2.149980962276458740e-01 -2.533231675624847412e-01
5.537000000000000000e+03 1.118498134613037109e+01 -2.147619628906250000e+01 1.635886728763580322e-01 -6.372643113136291504e-01 -1.421026885509490967e-01 -3.779097497463226318e-01
5.538000000000000000e+03 6.523886871337890625e+01 -1.386397552490234375e+01 7.640758156776428223e-02 5.150619983673095703e+00 1.568108201026916504e+00 3.655461072921752930e-01
5.539000000000000000e+03 6.527177429199218750e+01 -1.545630741119384766e+01 6.323181837797164917e-02 5.143108844757080078e+00 1.561902284622192383e+00 3.531570136547088623e-01
5.540000000000000000e+03 6.692147827148437500e+01 6.941256046295166016e+00 -3.837736696004867554e-02 5.787923812866210938e+00 1.724863886833190918e+00 5.678838491439819336e-01
5.541000000000000000e+03 6.487345123291015625e+01 -4.988925933837890625e+00 1.138544231653213501e-01 5.090884208679199219e+00 1.561421632766723633e+00 4.673070013523101807e-01
5.542000000000000000e+03 6.536752319335937500e+01 -6.009731769561767578e+00 1.084990203380584717e-01 5.194617748260498047e+00 1.590934991836547852e+00 4.550768733024597168e-01
5.543000000000000000e+03 6.597485351562500000e+01 -6.889802932739257812e+00 9.711965918540954590e-02 5.320785045623779297e+00 1.625371336936950684e+00 4.378717541694641113e-01
5.544000000000000000e+03 4.572724151611328125e+01 -1.849403572082519531e+01 8.344981074333190918e-02 1.171791791915893555e+00 3.765724599361419678e-01 3.704044967889785767e-02
5.545000000000000000e+03 5.207579421997070312e+01 -1.917528724670410156e+01 6.437572091817855835e-02 2.493956565856933594e+00 7.674996852874755859e-01 1.748130470514297485e-01
5.546000000000000000e+03 5.009225082397460938e+01 -1.638755607604980469e+01 1.460954546928405762e-01 2.021484375000000000e+00 6.502739191055297852e-01 1.244930699467658997e-01
5.547000000000000000e+03 6.609356689453125000e+01 -1.121064281463623047e+01 7.898297160863876343e-02 5.331644058227539062e+00 1.623188138008117676e+00 3.803274631500244141e-01
5.548000000000000000e+03 6.574597167968750000e+01 -1.211677455902099609e+01 7.657942920923233032e-02 5.237603187561035156e+00 1.594254851341247559e+00 3.845831751823425293e-01
5.549000000000000000e+03 5.216739273071289062e+01 -2.571577262878417969e+01 -2.684601210057735443e-02 2.706518411636352539e+00 8.039016723632812500e-01 2.360362559556961060e-01
5.550000000000000000e+03 5.351147460937500000e+01 -2.419618225097656250e+01 -4.199138842523097992e-03 2.931450843811035156e+00 8.781755566596984863e-01 2.545655369758605957e-01
5.551000000000000000e+03 6.423783874511718750e+01 -2.479747009277343750e+01 6.309590488672256470e-02 4.896755218505859375e+00 1.487955331802368164e+00 3.189105987548828125e-01
5.552000000000000000e+03 1.435864830017089844e+01 3.278492355346679688e+01 -8.130437694489955902e-03 2.384789474308490753e-02 4.715237300843000412e-03 2.722423989325761795e-03
5.553000000000000000e+03 1.468430233001708984e+01 2.832282447814941406e+01 -8.053487166762351990e-03 4.098555073142051697e-02 9.879618883132934570e-03 6.367071531713008881e-03
5.554000000000000000e+03 6.921468353271484375e+01 2.973768997192382812e+01 -1.030992031097412109e+00 1.281613349914550781e+01 3.535542488098144531e+00 4.866725206375122070e-01
5.555000000000000000e+03 6.798635101318359375e+01 2.945651626586914062e+01 -1.108194589614868164e+00 1.138633823394775391e+01 3.083442926406860352e+00 2.231058835983276367e+00
5.556000000000000000e+03 4.964464187622070312e+01 2.384766769409179688e+01 -8.332722783088684082e-01 -3.002053797245025635e-01 -3.400433063507080078e-01 -6.685161590576171875e-01
5.557000000000000000e+03 3.840375900268554688e+01 1.201488399505615234e+01 -8.982971310615539551e-01 -8.850517272949218750e-01 -5.350046753883361816e-01 -8.640584945678710938e-01
5.558000000000000000e+03 6.673069763183593750e+01 3.001970100402832031e+01 -2.605127096176147461e-01 9.128829002380371094e+00 2.660494804382324219e+00 3.795485973358154297e+00
5.559000000000000000e+03 4.728215789794921875e+01 2.145761299133300781e+01 -8.292011022567749023e-01 -4.928987026214599609e-01 -3.966299295425415039e-01 -7.309471964836120605e-01
5.560000000000000000e+03 4.782670593261718750e+01 2.095361900329589844e+01 -7.442840933799743652e-01 -3.417323529720306396e-01 -3.258049190044403076e-01 -6.374025344848632812e-01
5.561000000000000000e+03 4.958060073852539062e+01 2.337909126281738281e+01 -8.094525337219238281e-01 -2.583911716938018799e-01 -3.203531205654144287e-01 -6.373803019523620605e-01
5.562000000000000000e+03 4.511986160278320312e+01 1.956155204772949219e+01 -8.171561956405639648e-01 -6.636982560157775879e-01 -4.442563354969024658e-01 -8.281726241111755371e-01
5.563000000000000000e+03 2.821721839904785156e+01 1.746163129806518555e+00 -1.365630030632019043e+00 -6.180909872055053711e-01 -5.951163172721862793e-01 -3.587062358856201172e-01
5.564000000000000000e+03 4.612400817871093750e+01 2.058022689819335938e+01 -8.326217532157897949e-01 -6.108029484748840332e-01 -4.330274164676666260e-01 -7.946639060974121094e-01
5.565000000000000000e+03 2.869223022460937500e+01 1.480247378349304199e+00 -1.120009899139404297e+00 -6.239393353462219238e-01 -5.231847763061523438e-01 -2.418001592159271240e-01
5.566000000000000000e+03 3.870806503295898438e+01 1.234004974365234375e+01 -8.961032629013061523e-01 -8.769474029541015625e-01 -5.319151878356933594e-01 -8.644050955772399902e-01
5.567000000000000000e+03 3.980011749267578125e+01 1.341065311431884766e+01 -8.643810153007507324e-01 -8.215475082397460938e-01 -5.057785511016845703e-01 -8.533276915550231934e-01
5.568000000000000000e+03 6.688455963134765625e+01 2.943047142028808594e+01 -5.949504375457763672e-01 9.182459831237792969e+00 2.576252937316894531e+00 3.270317554473876953e+00
5.569000000000000000e+03 6.735123443603515625e+01 2.994582748413085938e+01 -7.455627322196960449e-01 1.084395599365234375e+01 3.029517889022827148e+00 3.227983951568603516e+00
5.570000000000000000e+03 5.017372894287109375e+01 2.517432975769042969e+01 -9.115885496139526367e-01 -3.532655537128448486e-01 -3.794562220573425293e-01 -7.280828356742858887e-01
5.571000000000000000e+03 3.129395675659179688e+01 2.925635099411010742e+00 -1.138154387474060059e+00 -7.089271545410156250e-01 -5.541244745254516602e-01 -3.113209307193756104e-01
5.572000000000000000e+03 4.561620712280273438e+01 1.967657661437988281e+01 -7.922458648681640625e-01 -6.039973497390747070e-01 -4.188729524612426758e-01 -7.831214070320129395e-01
5.573000000000000000e+03 4.643182754516601562e+01 2.049701309204101562e+01 -8.003621101379394531e-01 -5.431161522865295410e-01 -4.030434787273406982e-01 -7.498289346694946289e-01
5.574000000000000000e+03 4.630168533325195312e+01 2.078733634948730469e+01 -8.421534299850463867e-01 -6.031986474990844727e-01 -4.336056411266326904e-01 -7.890091538429260254e-01
5.575000000000000000e+03 2.954286193847656250e+01 2.697787523269653320e+00 -1.421678066253662109e+00 -8.149619102478027344e-01 -6.709920167922973633e-01 -4.218851923942565918e-01
5.576000000000000000e+03 3.996772384643554688e+01 1.250715065002441406e+01 -8.016722798347473145e-01 -7.200683951377868652e-01 -4.565221965312957764e-01 -7.661485075950622559e-01
5.577000000000000000e+03 6.725805664062500000e+01 2.946932792663574219e+01 -7.933562994003295898e-01 1.014351081848144531e+01 2.805046558380126953e+00 2.998306751251220703e+00
5.578000000000000000e+03 4.338029861450195312e+01 1.709146118164062500e+01 -7.831028103828430176e-01 -6.591000556945800781e-01 -4.326608479022979736e-01 -8.354038000106811523e-01
5.579000000000000000e+03 3.925474929809570312e+01 1.306814861297607422e+01 -8.796597719192504883e-01 -8.663115501403808594e-01 -5.237913727760314941e-01 -8.682778477668762207e-01
5.580000000000000000e+03 5.219496536254882812e+01 2.604968452453613281e+01 -8.222254514694213867e-01 1.552372612059116364e-02 -2.420105189085006714e-01 -5.680506229400634766e-01
5.581000000000000000e+03 5.501068878173828125e+01 2.680146217346191406e+01 -6.088586449623107910e-01 5.734149217605590820e-01 -1.063311565667390823e-02 -3.329669833183288574e-01
5.582000000000000000e+03 4.366170883178710938e+01 1.799421882629394531e+01 -8.107724189758300781e-01 -7.173497080802917480e-01 -4.584366381168365479e-01 -8.741877675056457520e-01
5.583000000000000000e+03 4.451106262207031250e+01 1.913061141967773438e+01 -8.293093442916870117e-01 -7.181797623634338379e-01 -4.642467498779296875e-01 -8.659116029739379883e-01
5.584000000000000000e+03 3.915649414062500000e+01 1.093914127349853516e+01 -7.748838067054748535e-01 -6.965830326080322266e-01 -4.414400458335876465e-01 -7.129576802253723145e-01
5.585000000000000000e+03 3.985309219360351562e+01 1.292315006256103516e+01 -8.299519419670104980e-01 -7.735924720764160156e-01 -4.810633063316345215e-01 -8.087795376777648926e-01
5.586000000000000000e+03 4.497981262207031250e+01 1.925309562683105469e+01 -8.037614226341247559e-01 -6.521112322807312012e-01 -4.367617964744567871e-01 -8.232478499412536621e-01
5.587000000000000000e+03 1.771288108825683594e+01 1.443830394744873047e+01 5.048714578151702881e-02 1.530591249465942383e-01 6.106388196349143982e-02 8.463460206985473633e-02
5.588000000000000000e+03 1.799819183349609375e+01 1.467215538024902344e+01 5.075318738818168640e-02 1.490758061408996582e-01 5.994869768619537354e-02 8.487014472484588623e-02
5.589000000000000000e+03 2.410176277160644531e+01 2.140858650207519531e+01 3.975681588053703308e-02 1.020907163619995117e-01 4.255425930023193359e-02 6.773429363965988159e-02
5.590000000000000000e+03 1.491776371002197266e+01 2.214509582519531250e+01 -1.868119230493903160e-03 7.413300871849060059e-02 2.167946659028530121e-02 1.731313578784465790e-02
5.591000000000000000e+03 1.926864242553710938e+01 1.670709991455078125e+01 4.382301867008209229e-02 1.307485401630401611e-01 5.237146466970443726e-02 7.589320093393325806e-02
5.592000000000000000e+03 5.068424987792968750e+01 2.484858131408691406e+01 -8.412756919860839844e-01 -1.946987509727478027e-01 -3.107923269271850586e-01 -6.378100514411926270e-01
5.593000000000000000e+03 4.075116348266601562e+01 1.478978538513183594e+01 -8.714041113853454590e-01 -8.029285073280334473e-01 -5.022997856140136719e-01 -8.825858235359191895e-01
5.594000000000000000e+03 3.056880569458007812e+01 2.545158863067626953e+00 -1.194049239158630371e+00 -7.244470119476318359e-01 -5.755488872528076172e-01 -2.908891141414642334e-01
5.595000000000000000e+03 3.004743194580078125e+01 2.607172966003417969e+00 -1.274562120437622070e+00 -7.631055712699890137e-01 -6.113003492355346680e-01 -3.454965054988861084e-01
5.596000000000000000e+03 4.798477935791015625e+01 2.179097366333007812e+01 -8.050835132598876953e-01 -4.042343199253082275e-01 -3.627953529357910156e-01 -6.852284073829650879e-01
5.597000000000000000e+03 5.236162567138671875e+01 2.557579994201660156e+01 -7.532984614372253418e-01 1.108967140316963196e-01 -1.927205324172973633e-01 -5.058053731918334961e-01
5.598000000000000000e+03 5.111935424804687500e+01 2.503584861755371094e+01 -8.185522556304931641e-01 -1.186003461480140686e-01 -2.811457812786102295e-01 -6.004530191421508789e-01
5.599000000000000000e+03 5.153973770141601562e+01 2.522003746032714844e+01 -7.968287467956542969e-01 -4.472842812538146973e-02 -2.524671554565429688e-01 -5.686323046684265137e-01
5.600000000000000000e+03 4.428935241699218750e+01 1.827092742919921875e+01 -7.826808691024780273e-01 -6.555609703063964844e-01 -4.314725399017333984e-01 -8.280447125434875488e-01
5.601000000000000000e+03 4.298574829101562500e+01 1.698443222045898438e+01 -8.071392774581909180e-01 -7.005892992019653320e-01 -4.523185789585113525e-01 -8.665421009063720703e-01
5.602000000000000000e+03 4.211320114135742188e+01 1.543721485137939453e+01 -7.983143925666809082e-01 -6.748836636543273926e-01 -4.419594109058380127e-01 -8.220829367637634277e-01
5.603000000000000000e+03 1.360186386108398438e+01 9.954337120056152344e+00 4.680386185646057129e-02 2.349136024713516235e-01 8.451523631811141968e-02 5.177536979317665100e-02
5.604000000000000000e+03 3.742609405517578125e+01 1.094693851470947266e+01 -9.135874509811401367e-01 -9.114267826080322266e-01 -5.475042462348937988e-01 -8.630083799362182617e-01
5.605000000000000000e+03 3.811785888671875000e+01 1.102674579620361328e+01 -8.608072400093078613e-01 -8.338916897773742676e-01 -5.084096789360046387e-01 -8.095071911811828613e-01
5.606000000000000000e+03 4.110881042480468750e+01 1.439834976196289062e+01 -8.176152706146240234e-01 -7.250282764434814453e-01 -4.627930521965026855e-01 -8.213012814521789551e-01
5.607000000000000000e+03 4.141739273071289062e+01 1.487420845031738281e+01 -8.192537426948547363e-01 -7.226710915565490723e-01 -4.625774621963500977e-01 -8.342989683151245117e-01
5.608000000000000000e+03 6.908289337158203125e+01 2.917541122436523438e+01 -1.198033690452575684e+00 1.205734825134277344e+01 3.257794380187988281e+00 7.807547450065612793e-01
5.609000000000000000e+03 1.939166259765625000e+01 1.803320884704589844e+01 3.475090488791465759e-02 1.230328977108001709e-01 4.733514040708541870e-02 6.705904752016067505e-02
5.610000000000000000e+03 4.180088043212890625e+01 1.490911388397216797e+01 -7.956277132034301758e-01 -6.717776656150817871e-01 -4.402216076850891113e-01 -8.067392110824584961e-01
5.611000000000000000e+03 4.054991149902343750e+01 1.436623573303222656e+01 -8.690354824066162109e-01 -8.031686544418334961e-01 -5.016612410545349121e-01 -8.662009835243225098e-01
5.612000000000000000e+03 4.890286636352539062e+01 2.203375434875488281e+01 -7.449548244476318359e-01 -2.429360449314117432e-01 -2.963672578334808350e-01 -6.004390716552734375e-01
5.613000000000000000e+03 4.758300018310546875e+01 2.143378829956054688e+01 -8.029376268386840820e-01 -4.394209086894989014e-01 -3.727075755596160889e-01 -6.998678445816040039e-01
5.614000000000000000e+03 6.420977783203125000e+01 2.825489807128906250e+01 2.685703039169311523e-01 4.311050415039062500e+00 1.373886108398437500e+00 2.443948984146118164e+00
5.615000000000000000e+03 3.779163360595703125e+01 1.064998722076416016e+01 -8.733955025672912598e-01 -8.395514488220214844e-01 -5.138840675354003906e-01 -8.059920668601989746e-01
5.616000000000000000e+03 1.909640312194824219e+01 1.857503128051757812e+01 2.838939055800437927e-02 1.184443384408950806e-01 4.405011609196662903e-02 6.143842637538909912e-02
5.617000000000000000e+03 1.366989898681640625e+01 1.121896457672119141e+01 4.035606607794761658e-02 1.984564810991287231e-01 7.164376974105834961e-02 4.686370491981506348e-02
5.618000000000000000e+03 1.381422710418701172e+01 1.150980854034423828e+01 3.567443788051605225e-02 1.908232271671295166e-01 6.794930249452590942e-02 4.810632765293121338e-02
5.619000000000000000e+03 2.262348175048828125e+01 1.890844154357910156e+01 4.915726184844970703e-02 1.132688149809837341e-01 4.872782155871391296e-02 7.704681903123855591e-02
5.620000000000000000e+03 1.355429649353027344e+01 1.282885456085205078e+01 2.736399509012699127e-02 1.597902476787567139e-01 5.614627152681350708e-02 3.631659969687461853e-02
5.621000000000000000e+03 4.321421432495117188e+01 1.746167182922363281e+01 -8.152894973754882812e-01 -7.183691859245300293e-01 -4.600975811481475830e-01 -8.804142475128173828e-01
5.622000000000000000e+03 3.746184539794921875e+01 1.026187324523925781e+01 -8.724113106727600098e-01 -8.417634367942810059e-01 -5.142524242401123047e-01 -8.000503778457641602e-01
5.623000000000000000e+03 3.842697525024414062e+01 1.139887714385986328e+01 -8.595554828643798828e-01 -8.281477689743041992e-01 -5.063109397888183594e-01 -8.104844093322753906e-01
5.624000000000000000e+03 1.990980529785156250e+01 1.828146553039550781e+01 3.627535700798034668e-02 1.209719330072402954e-01 4.717418551445007324e-02 6.873138248920440674e-02
5.625000000000000000e+03 1.916871643066406250e+01 1.724851417541503906e+01 3.933020681142807007e-02 1.283539086580276489e-01 5.030523613095283508e-02 7.134760916233062744e-02
5.626000000000000000e+03 1.259398365020751953e+01 1.389685344696044922e+01 1.805387251079082489e-02 1.274548768997192383e-01 4.365262389183044434e-02 1.749260351061820984e-02
5.627000000000000000e+03 3.645335388183593750e+01 8.925505638122558594e+00 -8.902474045753479004e-01 -8.389222025871276855e-01 -5.187509059906005859e-01 -7.804846167564392090e-01
5.628000000000000000e+03 3.693695831298828125e+01 9.477001190185546875e+00 -8.741432428359985352e-01 -8.370382189750671387e-01 -5.133544206619262695e-01 -7.807174324989318848e-01
5.629000000000000000e+03 2.349125671386718750e+01 1.964258193969726562e+01 4.911808297038078308e-02 1.085926517844200134e-01 4.731322079896926880e-02 7.512428611516952515e-02
5.630000000000000000e+03 3.490026473999023438e+01 6.666776180267333984e+00 -9.444279670715332031e-01 -7.754936814308166504e-01 -5.159764885902404785e-01 -6.979754567146301270e-01
5.631000000000000000e+03 3.672883605957031250e+01 9.140215873718261719e+00 -8.788055181503295898e-01 -8.256186842918395996e-01 -5.113272666931152344e-01 -7.707836627960205078e-01
5.632000000000000000e+03 3.668661499023437500e+01 8.600781440734863281e+00 -8.584101796150207520e-01 -7.831209301948547363e-01 -4.924593269824981689e-01 -7.277926206588745117e-01
5.633000000000000000e+03 1.259041118621826172e+01 9.618477821350097656e+00 5.072266608476638794e-02 2.227341830730438232e-01 8.203705400228500366e-02 1.317636296153068542e-02
5.634000000000000000e+03 4.257928085327148438e+01 1.690774726867675781e+01 -8.348338007926940918e-01 -7.482951879501342773e-01 -4.749386906623840332e-01 -8.984553217887878418e-01
5.635000000000000000e+03 4.385294342041015625e+01 1.774433708190917969e+01 -7.845966219902038574e-01 -6.628311872482299805e-01 -4.342283308506011963e-01 -8.368999361991882324e-01
5.636000000000000000e+03 4.241395568847656250e+01 1.596758556365966797e+01 -8.022493720054626465e-01 -6.816961169242858887e-01 -4.451836645603179932e-01 -8.382782340049743652e-01
5.637000000000000000e+03 1.499929618835449219e+01 1.215444469451904297e+01 4.226947203278541565e-02 1.868937611579895020e-01 6.874897330999374390e-02 6.909765303134918213e-02
5.638000000000000000e+03 1.556192779541015625e+01 1.237523174285888672e+01 4.709390923380851746e-02 1.840132027864456177e-01 6.933213025331497192e-02 7.856796681880950928e-02
5.639000000000000000e+03 1.628553199768066406e+01 1.221275043487548828e+01 5.478879064321517944e-02 1.838520765304565430e-01 7.159225642681121826e-02 9.171611070632934570e-02
5.640000000000000000e+03 1.653275108337402344e+01 1.343785381317138672e+01 4.651558399200439453e-02 1.658614575862884521e-01 6.371311098337173462e-02 8.190413564443588257e-02
5.641000000000000000e+03 1.352290534973144531e+01 1.179094028472900391e+01 3.454688936471939087e-02 1.821856349706649780e-01 6.501975655555725098e-02 4.042766988277435303e-02
5.642000000000000000e+03 6.524558258056640625e+01 2.848760604858398438e+01 5.230491608381271362e-02 5.825135707855224609e+00 1.763232111930847168e+00 2.931876659393310547e+00
5.643000000000000000e+03 1.606217193603515625e+01 1.442975711822509766e+01 3.401645645499229431e-02 1.539529860019683838e-01 5.639082938432693481e-02 6.642006337642669678e-02
5.644000000000000000e+03 2.321484184265136719e+01 2.024838066101074219e+01 4.260906949639320374e-02 1.080001518130302429e-01 4.518276453018188477e-02 7.126533985137939453e-02
5.645000000000000000e+03 2.351132583618164062e+01 2.038093948364257812e+01 4.291554540395736694e-02 1.067242324352264404e-01 4.489193484187126160e-02 7.128220051527023315e-02
5.646000000000000000e+03 1.638242912292480469e+01 1.279238510131835938e+01 4.962477460503578186e-02 1.752212643623352051e-01 6.745380908250808716e-02 8.631151914596557617e-02
5.647000000000000000e+03 1.557108211517333984e+01 1.355094814300537109e+01 3.776789084076881409e-02 1.655762344598770142e-01 6.100323796272277832e-02 6.786968559026718140e-02
5.648000000000000000e+03 2.881176948547363281e+01 9.332662820816040039e-01 -8.634569048881530762e-01 -5.751962661743164062e-01 -4.315959513187408447e-01 -1.547650992870330811e-01
5.649000000000000000e+03 3.717170715332031250e+01 9.864213943481445312e+00 -8.761516213417053223e-01 -8.404725193977355957e-01 -5.149872303009033203e-01 -7.920706868171691895e-01
5.650000000000000000e+03 4.722122192382812500e+01 2.117381477355957031e+01 -8.057177662849426270e-01 -4.707758724689483643e-01 -3.829481005668640137e-01 -7.145516872406005859e-01
5.651000000000000000e+03 2.525546836853027344e+01 2.280117034912109375e+01 3.680444881319999695e-02 9.694716334342956543e-02 4.012548550963401794e-02 6.476499885320663452e-02
5.652000000000000000e+03 2.454989814758300781e+01 2.299998474121093750e+01 3.267335146665573120e-02 9.730584174394607544e-02 3.899375721812248230e-02 6.173653155565261841e-02
5.653000000000000000e+03 1.087225246429443359e+01 8.475884437561035156e+00 9.340432286262512207e-02 1.463169008493423462e-01 7.191636413335800171e-02 -4.333478957414627075e-02
5.654000000000000000e+03 1.166460990905761719e+01 8.864473342895507812e+00 6.787171214818954468e-02 1.963997930288314819e-01 7.928144931793212891e-02 -2.105917595326900482e-02
5.655000000000000000e+03 3.054301834106445312e+01 2.251313924789428711e+00 -1.034973263740539551e+00 -7.174134254455566406e-01 -5.257160067558288574e-01 -2.417410910129547119e-01
5.656000000000000000e+03 5.421710205078125000e+01 2.672330284118652344e+01 -6.933842897415161133e-01 4.035280048847198486e-01 -8.695688843727111816e-02 -4.184005558490753174e-01
5.657000000000000000e+03 3.583956527709960938e+01 8.173568725585937500e+00 -9.124019145965576172e-01 -8.243091702461242676e-01 -5.210133194923400879e-01 -7.619326114654541016e-01
5.658000000000000000e+03 3.616033935546875000e+01 7.741474628448486328e+00 -8.624254465103149414e-01 -7.600295543670654297e-01 -4.867365062236785889e-01 -6.983928680419921875e-01
5.659000000000000000e+03 3.568217849731445312e+01 6.958780288696289062e+00 -8.807674050331115723e-01 -7.245773673057556152e-01 -4.816034436225891113e-01 -6.549813747406005859e-01
5.660000000000000000e+03 3.007806396484375000e+01 2.111043930053710938e+00 -1.088210344314575195e+00 -7.207707762718200684e-01 -5.426943302154541016e-01 -2.446896284818649292e-01
5.661000000000000000e+03 3.066229057312011719e+01 9.743525385856628418e-01 -5.789183974266052246e-01 -6.270938515663146973e-01 -3.618036508560180664e-01 -3.106279298663139343e-02
5.662000000000000000e+03 3.375772857666015625e+01 3.103594541549682617e+00 -7.706424593925476074e-01 -5.870153903961181641e-01 -4.072973430156707764e-01 -2.600192129611968994e-01
5.663000000000000000e+03 3.252937698364257812e+01 2.607388019561767578e+00 -8.649451732635498047e-01 -6.284371018409729004e-01 -4.480146765708923340e-01 -2.221547067165374756e-01
5.664000000000000000e+03 5.761176681518554688e+01 2.581126785278320312e+01 -2.048052102327346802e-01 1.314596176147460938e+00 3.329373002052307129e-01 2.064024060964584351e-01
5.665000000000000000e+03 5.632909011840820312e+01 2.706628799438476562e+01 -4.560120105743408203e-01 8.109896779060363770e-01 1.064932942390441895e-01 -1.845138967037200928e-01
5.666000000000000000e+03 2.759165382385253906e+01 2.665731620788574219e+01 2.909168228507041931e-02 8.394155651330947876e-02 3.390996903181076050e-02 5.505217611789703369e-02
5.667000000000000000e+03 2.586936569213867188e+01 2.648624610900878906e+01 2.435608580708503723e-02 8.640819042921066284e-02 3.322928398847579956e-02 5.073999240994453430e-02
5.668000000000000000e+03 3.421861267089843750e+01 4.918107032775878906e+00 -9.306616187095642090e-01 -6.597918272018432617e-01 -4.771360456943511963e-01 -5.149117112159729004e-01
5.669000000000000000e+03 3.574255371093750000e+01 6.406683444976806641e+00 -8.248708844184875488e-01 -6.699173450469970703e-01 -4.484364688396453857e-01 -5.837296843528747559e-01
5.670000000000000000e+03 6.991164398193359375e+01 2.836508560180664062e+01 -1.202664971351623535e+00 1.134736347198486328e+01 3.043409585952758789e+00 6.328392773866653442e-02
5.671000000000000000e+03 6.820806121826171875e+01 2.907026672363281250e+01 -1.211309432983398438e+00 1.128216361999511719e+01 3.021256208419799805e+00 1.865159273147583008e+00
5.672000000000000000e+03 5.842853164672851562e+01 2.579369544982910156e+01 -1.132260933518409729e-01 1.564129829406738281e+00 4.352711439132690430e-01 3.854486048221588135e-01
5.673000000000000000e+03 3.145176124572753906e+01 9.617097675800323486e-02 -2.581403851509094238e-01 -6.387473940849304199e-01 -2.690663337707519531e-01 2.722848206758499146e-02
5.674000000000000000e+03 6.176803207397460938e+01 2.600887489318847656e+01 1.173814013600349426e-01 3.004351377487182617e+00 9.365198612213134766e-01 1.333170294761657715e+00
5.675000000000000000e+03 6.396505355834960938e+01 2.731320762634277344e+01 1.246931180357933044e-01 4.390945434570312500e+00 1.354691505432128906e+00 2.189496755599975586e+00
5.676000000000000000e+03 3.229930496215820312e+01 3.358883261680603027e-01 -2.798162698745727539e-01 -6.241982579231262207e-01 -2.712043523788452148e-01 2.836577408015727997e-02
5.677000000000000000e+03 3.489187622070312500e+01 -9.546781182289123535e-01 1.092203482985496521e-01 -4.976034462451934814e-01 -1.165149286389350891e-01 6.590706110000610352e-02
5.678000000000000000e+03 6.977262115478515625e+01 2.954174423217773438e+01 -8.957079648971557617e-01 1.254838752746582031e+01 3.495803833007812500e+00 -1.365178972482681274e-01
5.679000000000000000e+03 6.940554809570312500e+01 2.938508987426757812e+01 -1.087659358978271484e+00 1.237006187438964844e+01 3.384720802307128906e+00 3.417684733867645264e-01
5.680000000000000000e+03 2.661306762695312500e+01 2.625101470947265625e+01 2.633348852396011353e-02 8.601180464029312134e-02 3.370358794927597046e-02 5.455690249800682068e-02
5.681000000000000000e+03 3.207275009155273438e+01 2.675352573394775391e+00 -9.245477914810180664e-01 -6.471966505050659180e-01 -4.715233445167541504e-01 -2.370408773422241211e-01
5.682000000000000000e+03 2.153219032287597656e+01 1.908610343933105469e+01 4.113188013434410095e-02 1.150864064693450928e-01 4.686548560857772827e-02 7.162350416183471680e-02
5.683000000000000000e+03 1.868816757202148438e+01 1.519347476959228516e+01 5.198325589299201965e-02 1.429004520177841187e-01 5.846511200070381165e-02 8.522076904773712158e-02
5.684000000000000000e+03 2.509696006774902344e+01 2.582347488403320312e+01 2.382703498005867004e-02 8.856327086687088013e-02 3.371709212660789490e-02 5.164681747555732727e-02
5.685000000000000000e+03 3.278293228149414062e+01 3.501477479934692383e+00 -1.007747173309326172e+00 -6.481066942214965820e-01 -4.967561662197113037e-01 -3.638932406902313232e-01
5.686000000000000000e+03 2.209729385375976562e+01 1.969435119628906250e+01 3.977757692337036133e-02 1.117392256855964661e-01 4.545504227280616760e-02 7.038941979408264160e-02
5.687000000000000000e+03 5.533477401733398438e+01 2.561739158630371094e+01 -4.526035487651824951e-01 7.987640500068664551e-01 1.038481518626213074e-01 -1.496609598398208618e-01
5.688000000000000000e+03 5.313605499267578125e+01 2.590152168273925781e+01 -7.133172154426574707e-01 2.538279592990875244e-01 -1.378467828035354614e-01 -4.508545696735382080e-01
5.689000000000000000e+03 2.575110435485839844e+01 2.569722747802734375e+01 2.467522397637367249e-02 8.873171359300613403e-02 3.402208164334297180e-02 5.466875061392784119e-02
5.690000000000000000e+03 1.832327270507812500e+01 1.492713260650634766e+01 5.186055228114128113e-02 1.469412744045257568e-01 5.964054912328720093e-02 8.527392148971557617e-02
5.691000000000000000e+03 4.899129104614257812e+01 2.249850082397460938e+01 -7.815651297569274902e-01 -2.823878824710845947e-01 -3.191859126091003418e-01 -6.347160935401916504e-01
5.692000000000000000e+03 6.939234924316406250e+01 2.752666854858398438e+01 -1.341371536254882812e+00 1.051300430297851562e+01 2.751489877700805664e+00 5.882323980331420898e-01
5.693000000000000000e+03 6.982600402832031250e+01 2.737794303894042969e+01 -1.308879733085632324e+00 1.049720954895019531e+01 2.756498813629150391e+00 3.041437268257141113e-01
5.694000000000000000e+03 6.145487594604492188e+01 2.545886611938476562e+01 6.962136924266815186e-02 2.975546836853027344e+00 9.135504364967346191e-01 1.226395606994628906e+00
5.695000000000000000e+03 5.876605224609375000e+01 2.627106666564941406e+01 -7.549250125885009766e-02 1.560107350349426270e+00 4.453844428062438965e-01 4.114028215408325195e-01
5.696000000000000000e+03 6.059463119506835938e+01 2.536437416076660156e+01 5.356086790561676025e-02 2.540052652359008789e+00 7.780840396881103516e-01 9.874185323715209961e-01
5.697000000000000000e+03 1.743322753906250000e+01 1.610387611389160156e+01 3.272099792957305908e-02 1.364060044288635254e-01 5.073810368776321411e-02 6.617563217878341675e-02
5.698000000000000000e+03 6.901120758056640625e+01 2.707423782348632812e+01 -1.335192561149597168e+00 1.004490661621093750e+01 2.612914323806762695e+00 8.645776510238647461e-01
5.699000000000000000e+03 6.993656158447265625e+01 2.687104415893554688e+01 -1.308315277099609375e+00 1.020918941497802734e+01 2.670262098312377930e+00 2.626988291740417480e-01
5.700000000000000000e+03 6.743071746826171875e+01 2.297804641723632812e+01 -8.980696797370910645e-01 7.314575672149658203e+00 1.924951672554016113e+00 1.077792048454284668e+00
5.701000000000000000e+03 6.284251785278320312e+01 2.675264739990234375e+01 1.629853248596191406e-01 3.536724090576171875e+00 1.109912753105163574e+00 1.723062872886657715e+00
5.702000000000000000e+03 3.545874786376953125e+01 -6.312678456306457520e-01 6.783530861139297485e-02 -4.656599462032318115e-01 -1.193473860621452332e-01 5.898227542638778687e-02
5.703000000000000000e+03 3.012461280822753906e+01 1.105324149131774902e+00 -7.218455672264099121e-01 -6.502193808555603027e-01 -4.116194844245910645e-01 -9.811739623546600342e-02
5.704000000000000000e+03 6.936412048339843750e+01 2.499344444274902344e+01 -1.235317111015319824e+00 9.038338661193847656e+00 2.340906381607055664e+00 5.834034085273742676e-01
5.705000000000000000e+03 5.797858428955078125e+01 2.619403648376464844e+01 -1.655141562223434448e-01 1.337680816650390625e+00 3.516499996185302734e-01 2.388945817947387695e-01
5.706000000000000000e+03 3.400348281860351562e+01 3.530877113342285156e+00 -7.974090576171875000e-01 -5.927020311355590820e-01 -4.170333147048950195e-01 -3.124018907546997070e-01
5.707000000000000000e+03 3.363936996459960938e+01 -4.227332472801208496e-01 -2.794127725064754486e-02 -5.612194538116455078e-01 -1.767482161521911621e-01 6.068959459662437439e-02
5.708000000000000000e+03 2.562392616271972656e+01 2.246636962890625000e+01 3.981598839163780212e-02 9.701627492904663086e-02 4.104967787861824036e-02 6.607074290513992310e-02
5.709000000000000000e+03 2.495250320434570312e+01 2.252716636657714844e+01 3.699081763625144958e-02 9.815771877765655518e-02 4.054456204175949097e-02 6.446667015552520752e-02
5.710000000000000000e+03 3.265098190307617188e+01 3.040709972381591797e+00 -9.216008782386779785e-01 -6.293162107467651367e-01 -4.652751088142395020e-01 -2.758511006832122803e-01
5.711000000000000000e+03 1.121658420562744141e+01 1.124306392669677734e+01 4.120293632149696350e-02 1.320841610431671143e-01 5.198613181710243225e-02 -8.276791311800479889e-03
5.712000000000000000e+03 6.450090026855468750e+01 2.937052249908447266e+00 6.586270034313201904e-02 5.043473243713378906e+00 1.532800793647766113e+00 5.690144300460815430e-01
5.713000000000000000e+03 6.351458740234375000e+01 -1.688700437545776367e+00 1.213912293314933777e-01 4.764462947845458984e+00 1.465756177902221680e+00 5.133153200149536133e-01
5.714000000000000000e+03 5.726170349121093750e+01 2.626730728149414062e+01 -2.648927867412567139e-01 1.152088403701782227e+00 2.661586999893188477e-01 8.653016388416290283e-02
5.715000000000000000e+03 1.333163928985595703e+01 1.461849403381347656e+01 1.665335148572921753e-02 1.291993856430053711e-01 4.375582188367843628e-02 2.680388465523719788e-02
5.716000000000000000e+03 1.387345790863037109e+01 2.017278289794921875e+01 -1.539901830255985260e-03 7.731006294488906860e-02 2.273104898631572723e-02 1.482157502323389053e-02
5.717000000000000000e+03 1.336158180236816406e+01 1.677438354492187500e+01 6.976607721298933029e-03 1.032072380185127258e-01 3.305515274405479431e-02 1.952696405351161957e-02
5.718000000000000000e+03 1.054033565521240234e+01 1.001051616668701172e+01 6.525927782058715820e-02 1.145462319254875183e-01 5.394165217876434326e-02 -2.717060595750808716e-02
5.719000000000000000e+03 6.430704498291015625e+01 2.754178619384765625e+01 1.085784882307052612e-01 4.732069492340087891e+00 1.452194333076477051e+00 2.369848728179931641e+00
5.720000000000000000e+03 2.568027687072753906e+01 2.357070922851562500e+01 3.444816544651985168e-02 9.403932839632034302e-02 3.854624554514884949e-02 6.256797909736633301e-02
5.721000000000000000e+03 2.505008125305175781e+01 2.380424499511718750e+01 3.174281865358352661e-02 9.461106359958648682e-02 3.790616616606712341e-02 5.948474630713462830e-02
5.722000000000000000e+03 3.682278823852539062e+01 -1.973112463951110840e+00 2.662722170352935791e-01 -3.602085113525390625e-01 -2.818088792264461517e-02 7.823854684829711914e-02
5.723000000000000000e+03 1.105010032653808594e+01 9.102083206176757812e+00 7.514928281307220459e-02 1.562282592058181763e-01 6.941325962543487549e-02 -3.100488334894180298e-02
5.724000000000000000e+03 1.632838058471679688e+01 1.395492744445800781e+01 4.006392136216163635e-02 1.604313850402832031e-01 6.014859303832054138e-02 7.280730456113815308e-02
5.725000000000000000e+03 1.309089660644531250e+01 1.573449039459228516e+01 1.036587636917829514e-02 1.120023205876350403e-01 3.671045973896980286e-02 1.996095106005668640e-02
5.726000000000000000e+03 6.589326477050781250e+01 1.957623481750488281e+01 -5.494005680084228516e-01 6.051200866699218750e+00 1.650540113449096680e+00 9.460207819938659668e-01
5.727000000000000000e+03 1.804436492919921875e+01 1.528884983062744141e+01 4.499696195125579834e-02 1.437750011682510376e-01 5.663159117102622986e-02 7.895903289318084717e-02
5.728000000000000000e+03 1.323666763305664062e+01 1.954273605346679688e+01 -1.180729130282998085e-03 7.625510543584823608e-02 2.252231165766716003e-02 1.108995079994201660e-02
5.729000000000000000e+03 3.958566665649414062e+01 -3.295382499694824219e+00 3.728215992450714111e-01 -5.257657915353775024e-02 9.607350826263427734e-02 8.809325098991394043e-02
5.730000000000000000e+03 6.577989959716796875e+01 9.926320910453796387e-01 6.991041451692581177e-02 5.353214263916015625e+00 1.626937508583068848e+00 5.348252654075622559e-01
5.731000000000000000e+03 6.758006286621093750e+01 1.377434921264648438e+01 -2.872691750526428223e-01 6.243385314941406250e+00 1.786834836006164551e+00 5.920023322105407715e-01
5.732000000000000000e+03 6.743250274658203125e+01 1.593544673919677734e+01 -4.078665077686309814e-01 6.332755565643310547e+00 1.777466773986816406e+00 6.399954557418823242e-01
5.733000000000000000e+03 6.848374176025390625e+01 1.616506767272949219e+01 -4.387062489986419678e-01 6.726608276367187500e+00 1.886370658874511719e+00 5.458709597587585449e-01
5.734000000000000000e+03 3.510842132568359375e+01 -5.427402257919311523e-01 1.784412562847137451e-02 -4.784575104713439941e-01 -1.381840109825134277e-01 6.718557327985763550e-02
5.735000000000000000e+03 2.939647102355957031e+01 3.372419738769531250e+01 2.359568513929843903e-02 7.135051488876342773e-02 2.848386019468307495e-02 3.320915251970291138e-02
5.736000000000000000e+03 2.990749931335449219e+01 3.025769615173339844e+01 3.140105679631233215e-02 7.556002587080001831e-02 3.208832442760467529e-02 4.480824247002601624e-02
5.737000000000000000e+03 6.770713806152343750e+01 1.825999832153320312e+01 -5.772169232368469238e-01 6.662030220031738281e+00 1.825443863868713379e+00 6.799210309982299805e-01
5.738000000000000000e+03 6.550819396972656250e+01 4.141453742980957031e+00 3.010833449661731720e-02 5.326525211334228516e+00 1.606990098953247070e+00 5.700500011444091797e-01
5.739000000000000000e+03 6.303607559204101562e+01 5.952268123626708984e+00 2.896628715097904205e-02 4.654137134552001953e+00 1.404930949211120605e+00 6.147382259368896484e-01
5.740000000000000000e+03 6.605053710937500000e+01 6.320797920227050781e+00 -1.077274419367313385e-02 5.529558181762695312e+00 1.655635714530944824e+00 5.778983831405639648e-01
5.741000000000000000e+03 2.687509346008300781e+01 2.705102348327636719e+01 2.624192461371421814e-02 8.431281894445419312e-02 3.316642343997955322e-02 5.113615840673446655e-02
5.742000000000000000e+03 6.468824768066406250e+01 1.058823391795158386e-01 9.022916108369827271e-02 5.065979003906250000e+00 1.546862483024597168e+00 5.382051467895507812e-01
5.743000000000000000e+03 6.564892578125000000e+01 2.525910735130310059e-02 8.173912018537521362e-02 5.315555572509765625e+00 1.619188427925109863e+00 5.256217122077941895e-01
5.744000000000000000e+03 6.435928344726562500e+01 -2.710062742233276367e+00 1.154284477233886719e-01 5.021827697753906250e+00 1.541176795959472656e+00 5.026175379753112793e-01
5.745000000000000000e+03 6.512886047363281250e+01 -3.064649820327758789e+00 1.023513004183769226e-01 5.143602371215820312e+00 1.573786020278930664e+00 4.889319539070129395e-01
5.746000000000000000e+03 4.769375228881835938e+01 -1.418791770935058594e+01 2.323063910007476807e-01 1.491955518722534180e+00 5.172785520553588867e-01 8.752718567848205566e-02
5.747000000000000000e+03 4.524623107910156250e+01 -8.437005043029785156e+00 3.907857835292816162e-01 8.917686343193054199e-01 3.847663402557373047e-01 1.117101386189460754e-01
5.748000000000000000e+03 1.635677337646484375e+01 2.426999092102050781e+01 -2.734637120738625526e-03 7.169806957244873047e-02 2.068903110921382904e-02 1.992675289511680603e-02
5.749000000000000000e+03 6.754785919189453125e+01 1.486711406707763672e+01 -3.454786837100982666e-01 6.305747985839843750e+00 1.788080811500549316e+00 6.103827357292175293e-01
5.750000000000000000e+03 6.740499114990234375e+01 2.218177604675292969e+01 -8.377707004547119141e-01 7.151616096496582031e+00 1.894153714179992676e+00 9.884712696075439453e-01
5.751000000000000000e+03 6.822608947753906250e+01 2.314567756652832031e+01 -9.944424033164978027e-01 7.806791305541992188e+00 2.043704509735107422e+00 8.732571005821228027e-01
5.752000000000000000e+03 6.661471557617187500e+01 8.482670783996582031e+00 -7.718122005462646484e-02 5.714175224304199219e+00 1.691098213195800781e+00 5.917969942092895508e-01
5.753000000000000000e+03 6.799703979492187500e+01 9.137516021728515625e+00 -9.823602437973022461e-02 6.165850162506103516e+00 1.820284247398376465e+00 5.452435612678527832e-01
5.754000000000000000e+03 4.651813125610351562e+01 -1.430614471435546875e+01 2.407539784908294678e-01 1.248611807823181152e+00 4.468097388744354248e-01 5.987626314163208008e-02
5.755000000000000000e+03 4.725823593139648438e+01 -1.269334220886230469e+01 2.826705276966094971e-01 1.373350024223327637e+00 4.968061745166778564e-01 9.262578934431076050e-02
5.756000000000000000e+03 2.881931877136230469e+01 2.909397888183593750e+01 2.940955944359302521e-02 7.861790806055068970e-02 3.240824118256568909e-02 4.883476719260215759e-02
5.757000000000000000e+03 3.159324455261230469e+01 3.093931198120117188e+01 3.632409870624542236e-02 7.384029775857925415e-02 3.304931893944740295e-02 4.464848712086677551e-02
5.758000000000000000e+03 4.739883804321289062e+01 -1.667259025573730469e+01 1.449342668056488037e-01 1.492306709289550781e+00 4.911723136901855469e-01 5.892157554626464844e-02
5.759000000000000000e+03 6.578041839599609375e+01 -8.330495834350585938e+00 1.068290248513221741e-01 5.274464607238769531e+00 1.614388108253479004e+00 4.164414405822753906e-01
5.760000000000000000e+03 4.273109054565429688e+01 -4.469334125518798828e+00 3.877808451652526855e-01 3.873625695705413818e-01 2.325430214405059814e-01 1.216286644339561462e-01
5.761000000000000000e+03 4.130671691894531250e+01 -4.922520637512207031e+00 4.199079275131225586e-01 1.966795176267623901e-01 1.849762350320816040e-01 1.023403927683830261e-01
5.762000000000000000e+03 5.526381683349609375e+01 -1.844496917724609375e+01 8.120570331811904907e-02 3.138633251190185547e+00 9.659516811370849609e-01 2.558125853538513184e-01
5.763000000000000000e+03 5.259144210815429688e+01 -1.771012115478515625e+01 9.905339032411575317e-02 2.568771839141845703e+00 8.003475666046142578e-01 1.815939694643020630e-01
5.764000000000000000e+03 6.475734710693359375e+01 -3.945605039596557617e+00 1.091737300157546997e-01 5.040143966674804688e+00 1.544795274734497070e+00 4.744810461997985840e-01
5.765000000000000000e+03 6.595188903808593750e+01 -4.518442153930664062e+00 1.038117632269859314e-01 5.360971927642822266e+00 1.639435052871704102e+00 4.677751958370208740e-01
5.766000000000000000e+03 4.382872009277343750e+01 -6.388504028320312500e+00 4.175824820995330811e-01 6.029303669929504395e-01 3.061538636684417725e-01 1.201080009341239929e-01
5.767000000000000000e+03 1.890205574035644531e+01 1.777465248107910156e+01 3.312132135033607483e-02 1.239657253026962280e-01 4.712611436843872070e-02 6.564564257860183716e-02
5.768000000000000000e+03 1.540707683563232422e+01 2.119901657104492188e+01 4.256207321304827929e-04 8.405246585607528687e-02 2.534342557191848755e-02 2.292941883206367493e-02
5.769000000000000000e+03 4.770148468017578125e+01 -1.558630752563476562e+01 1.888093352317810059e-01 1.527798771858215332e+00 5.149824619293212891e-01 7.296574860811233521e-02
5.770000000000000000e+03 1.593024349212646484e+01 2.550207328796386719e+01 -4.742335062474012375e-03 6.308775395154953003e-02 1.750362664461135864e-02 1.566681079566478729e-02
5.771000000000000000e+03 6.394606781005859375e+01 -1.269471740722656250e+01 1.069547161459922791e-01 4.858333110809326172e+00 1.489586353302001953e+00 3.811439275741577148e-01
5.772000000000000000e+03 6.682283020019531250e+01 -9.141181945800781250e+00 9.010159969329833984e-02 5.497694969177246094e+00 1.676339030265808105e+00 4.009904265403747559e-01
5.773000000000000000e+03 4.367776489257812500e+01 -5.389090538024902344e+00 4.028439223766326904e-01 5.627585649490356445e-01 2.896807491779327393e-01 1.257373094558715820e-01
5.774000000000000000e+03 6.386519241333007812e+01 -1.391279792785644531e+01 8.677733689546585083e-02 4.839036464691162109e+00 1.477744102478027344e+00 3.689506947994232178e-01
5.775000000000000000e+03 3.079552459716796875e+01 3.541327667236328125e+01 3.162385150790214539e-02 6.839755177497863770e-02 3.000641986727714539e-02 2.806568704545497894e-02
5.776000000000000000e+03 1.068713188171386719e+01 -3.025237846374511719e+01 1.186971962451934814e-01 -7.310184836387634277e-01 -1.836963891983032227e-01 -2.239141911268234253e-01
5.777000000000000000e+03 5.075697708129882812e+01 -1.850488662719726562e+01 7.997643202543258667e-02 2.202714681625366211e+00 6.848073601722717285e-01 1.313246786594390869e-01
5.778000000000000000e+03 5.218652725219726562e+01 -2.823505592346191406e+01 -1.426900923252105713e-02 2.739667415618896484e+00 8.176195025444030762e-01 2.818136215209960938e-01
5.779000000000000000e+03 5.634665679931640625e+01 -2.053490447998046875e+01 4.687390848994255066e-02 3.368828296661376953e+00 1.024710655212402344e+00 2.783952951431274414e-01
5.780000000000000000e+03 6.521316528320312500e+01 -2.692031478881835938e+01 6.110771000385284424e-02 5.080482006072998047e+00 1.542476892471313477e+00 2.910814881324768066e-01
5.781000000000000000e+03 6.393105316162109375e+01 -2.074514198303222656e+01 4.435708373785018921e-02 4.835036754608154297e+00 1.463818192481994629e+00 3.207003176212310791e-01
5.782000000000000000e+03 6.200363159179687500e+01 -2.285571670532226562e+01 5.139134079217910767e-02 4.469101428985595703e+00 1.356147885322570801e+00 3.270883262157440186e-01
5.783000000000000000e+03 6.604348754882812500e+01 -9.144599914550781250e+00 8.684675395488739014e-02 5.337077617645263672e+00 1.627177357673645020e+00 4.047589004039764404e-01
5.784000000000000000e+03 6.501277923583984375e+01 -1.011153030395507812e+01 1.040985435247421265e-01 5.087758064270019531e+00 1.557556986808776855e+00 4.047597944736480713e-01
5.785000000000000000e+03 4.563515853881835938e+01 -1.452682971954345703e+01 2.355289012193679810e-01 1.053550720214843750e+00 3.867238759994506836e-01 3.737697005271911621e-02
5.786000000000000000e+03 6.560993957519531250e+01 2.898118400573730469e+01 4.573045298457145691e-02 6.374419689178466797e+00 1.926045060157775879e+00 3.223854541778564453e+00
5.787000000000000000e+03 6.672543334960937500e+01 2.968622779846191406e+01 -3.563342392444610596e-01 9.013166427612304688e+00 2.597049713134765625e+00 3.578511953353881836e+00
5.788000000000000000e+03 6.766497039794921875e+01 2.924147415161132812e+01 -1.033790826797485352e+00 1.063107967376708984e+01 2.879186868667602539e+00 2.494864463806152344e+00
5.789000000000000000e+03 6.449799346923828125e+01 2.780961418151855469e+01 1.274563521146774292e-01 4.861679077148437500e+00 1.496740579605102539e+00 2.496234655380249023e+00
5.790000000000000000e+03 4.647642517089843750e+01 1.955288887023925781e+01 -7.254731059074401855e-01 -4.355783462524414062e-01 -3.483154475688934326e-01 -6.804300546646118164e-01
5.791000000000000000e+03 4.749792098999023438e+01 2.105514526367187500e+01 -7.739259600639343262e-01 -4.127379655838012695e-01 -3.559991717338562012e-01 -6.754929423332214355e-01
5.792000000000000000e+03 4.483988952636718750e+01 1.894815444946289062e+01 -7.931343317031860352e-01 -6.423975229263305664e-01 -4.306595325469970703e-01 -8.171802759170532227e-01
5.793000000000000000e+03 4.592049407958984375e+01 1.945038795471191406e+01 -7.546558380126953125e-01 -5.177302360534667969e-01 -3.817158341407775879e-01 -7.322534322738647461e-01
5.794000000000000000e+03 4.792722320556640625e+01 2.136660385131835938e+01 -7.689904570579528809e-01 -3.649019896984100342e-01 -3.401677310466766357e-01 -6.568555235862731934e-01
5.795000000000000000e+03 4.676077651977539062e+01 2.062992477416992188e+01 -7.933720946311950684e-01 -5.043420195579528809e-01 -3.893142342567443848e-01 -7.254438996315002441e-01
5.796000000000000000e+03 2.977702140808105469e+01 2.361144542694091797e+00 -1.243752717971801758e+00 -7.339065670967102051e-01 -5.932977795600891113e-01 -3.051772415637969971e-01
5.797000000000000000e+03 2.904007720947265625e+01 1.297430992126464844e+00 -9.136409163475036621e-01 -6.675958037376403809e-01 -4.743710160255432129e-01 -1.785190701484680176e-01
5.798000000000000000e+03 5.014586257934570312e+01 2.427799987792968750e+01 -8.328265547752380371e-01 -2.433049678802490234e-01 -3.228394687175750732e-01 -6.527079343795776367e-01
5.799000000000000000e+03 5.275519943237304688e+01 2.574625205993652344e+01 -7.374881505966186523e-01 1.761736869812011719e-01 -1.683943420648574829e-01 -4.777914881706237793e-01
5.800000000000000000e+03 5.483803558349609375e+01 2.646000671386718750e+01 -5.899005532264709473e-01 5.728414058685302734e-01 -5.117754917591810226e-03 -3.142294585704803467e-01
5.801000000000000000e+03 4.019776153564453125e+01 1.377052497863769531e+01 -8.570579886436462402e-01 -7.904358506202697754e-01 -4.942481517791748047e-01 -8.424193859100341797e-01
5.802000000000000000e+03 6.596822357177734375e+01 2.898227310180664062e+01 -1.094113662838935852e-01 7.006350994110107422e+00 2.069081783294677734e+00 3.270247220993041992e+00
5.803000000000000000e+03 6.545053100585937500e+01 2.871372795104980469e+01 4.063144326210021973e-02 6.102746486663818359e+00 1.843013286590576172e+00 3.043499231338500977e+00
5.804000000000000000e+03 4.565631866455078125e+01 1.916286277770996094e+01 -7.513997554779052734e-01 -5.356877446174621582e-01 -3.861262500286102295e-01 -7.413741350173950195e-01
5.805000000000000000e+03 4.146437454223632812e+01 1.439716529846191406e+01 -7.969825863838195801e-01 -6.775972247123718262e-01 -4.423739314079284668e-01 -7.942610979080200195e-01
5.806000000000000000e+03 4.030055236816406250e+01 1.427455806732177734e+01 -8.831722140312194824e-01 -8.299280405044555664e-01 -5.139300823211669922e-01 -8.792585730552673340e-01
5.807000000000000000e+03 5.053740310668945312e+01 2.410137557983398438e+01 -7.887325286865234375e-01 -1.440042704343795776e-01 -2.798210382461547852e-01 -5.925298333168029785e-01
5.808000000000000000e+03 4.839061355590820312e+01 2.170284461975097656e+01 -7.618041634559631348e-01 -3.104761242866516113e-01 -3.216840922832489014e-01 -6.311245560646057129e-01
5.809000000000000000e+03 4.375314331054687500e+01 1.724210357666015625e+01 -7.643076181411743164e-01 -6.231833100318908691e-01 -4.162472784519195557e-01 -8.097149729728698730e-01
5.810000000000000000e+03 4.464390563964843750e+01 1.866922187805175781e+01 -7.879171967506408691e-01 -6.438435316085815430e-01 -4.295282065868377686e-01 -8.182917833328247070e-01
5.811000000000000000e+03 6.496219635009765625e+01 2.845071792602539062e+01 1.431989967823028564e-01 5.375725269317626953e+00 1.655677318572998047e+00 2.834338665008544922e+00
5.812000000000000000e+03 6.457455444335937500e+01 2.816872215270996094e+01 1.745010316371917725e-01 4.842154502868652344e+00 1.504996657371520996e+00 2.597824811935424805e+00
5.813000000000000000e+03 5.195401000976562500e+01 2.540010452270507812e+01 -7.762989401817321777e-01 3.294276818633079529e-02 -2.230068445205688477e-01 -5.358673334121704102e-01
5.814000000000000000e+03 1.238723182678222656e+01 9.166275024414062500e+00 5.436541140079498291e-02 2.280113697052001953e-01 8.471303433179855347e-02 4.906042013317346573e-03
5.815000000000000000e+03 1.286063861846923828e+01 1.003190708160400391e+01 4.428012296557426453e-02 2.168483138084411621e-01 7.833853363990783691e-02 2.628986164927482605e-02
5.816000000000000000e+03 4.520522689819335938e+01 1.874823951721191406e+01 -7.520735263824462891e-01 -5.653947591781616211e-01 -3.952404856681823730e-01 -7.611933946609497070e-01
5.817000000000000000e+03 4.532848358154296875e+01 1.909913635253906250e+01 -7.632020115852355957e-01 -5.801858901977539062e-01 -4.030163586139678955e-01 -7.717323303222656250e-01
5.818000000000000000e+03 3.965186309814453125e+01 1.175491333007812500e+01 -7.813525795936584473e-01 -6.960945129394531250e-01 -4.432341158390045166e-01 -7.350731492042541504e-01
5.819000000000000000e+03 6.877194213867187500e+01 2.893246459960937500e+01 -1.260609626770019531e+00 1.159323310852050781e+01 3.099787235260009766e+00 1.164191007614135742e+00
5.820000000000000000e+03 1.877025032043457031e+01 1.910208702087402344e+01 2.453079633414745331e-02 1.162476763129234314e-01 4.223354160785675049e-02 5.670062825083732605e-02
5.821000000000000000e+03 5.574594497680664062e+01 2.570864105224609375e+01 -4.164239168167114258e-01 8.788990974426269531e-01 1.387425512075424194e-01 -1.007985398173332214e-01
5.822000000000000000e+03 4.954785156250000000e+01 2.287434387207031250e+01 -7.685512900352478027e-01 -2.036315798759460449e-01 -2.916548550128936768e-01 -5.967270731925964355e-01
5.823000000000000000e+03 2.371765708923339844e+01 2.182915496826171875e+01 3.408206999301910400e-02 1.019972115755081177e-01 4.082378372550010681e-02 6.429841369390487671e-02
5.824000000000000000e+03 5.086551666259765625e+01 2.437687110900878906e+01 -7.820718884468078613e-01 -1.018163710832595825e-01 -2.651664912700653076e-01 -5.758299231529235840e-01
5.825000000000000000e+03 4.221589660644531250e+01 1.495060920715332031e+01 -7.631431818008422852e-01 -6.170426607131958008e-01 -4.140557348728179932e-01 -7.724294066429138184e-01
5.826000000000000000e+03 6.902619171142578125e+01 2.788463020324707031e+01 -1.329609513282775879e+00 1.065908718109130859e+01 2.798843145370483398e+00 9.054177403450012207e-01
5.827000000000000000e+03 4.437551879882812500e+01 1.710660934448242188e+01 -7.127082347869873047e-01 -5.216979384422302246e-01 -3.703218400478363037e-01 -7.383553385734558105e-01
5.828000000000000000e+03 5.252739334106445312e+01 2.509389877319335938e+01 -6.954799294471740723e-01 2.072815448045730591e-01 -1.464595198631286621e-01 -4.395965635776519775e-01
5.829000000000000000e+03 5.128371810913085938e+01 2.457713127136230469e+01 -7.639320492744445801e-01 -3.091469407081604004e-02 -2.384540140628814697e-01 -5.428698658943176270e-01
5.830000000000000000e+03 5.169720840454101562e+01 2.476240348815917969e+01 -7.447032332420349121e-01 4.832608252763748169e-02 -2.089131325483322144e-01 -5.095390081405639648e-01
5.831000000000000000e+03 4.703164291381835938e+01 2.089984703063964844e+01 -7.966720461845397949e-01 -4.765649437904357910e-01 -3.819710910320281982e-01 -7.156994342803955078e-01
5.832000000000000000e+03 4.026598358154296875e+01 1.302822303771972656e+01 -8.017958402633666992e-01 -7.279999852180480957e-01 -4.589387476444244385e-01 -7.831174135208129883e-01
5.833000000000000000e+03 4.105976104736328125e+01 1.391540527343750000e+01 -7.981560230255126953e-01 -6.885907053947448730e-01 -4.460240304470062256e-01 -7.839441299438476562e-01
5.834000000000000000e+03 3.849141693115234375e+01 1.076785945892333984e+01 -8.203107118606567383e-01 -7.652032971382141113e-01 -4.756542146205902100e-01 -7.545505166053771973e-01
5.835000000000000000e+03 1.381499385833740234e+01 1.198128414154052734e+01 3.351523727178573608e-02 1.796240508556365967e-01 6.394178420305252075e-02 4.539886862039566040e-02
5.836000000000000000e+03 1.563375949859619141e+01 1.694644927978515625e+01 1.618157327175140381e-02 1.225555762648582458e-01 4.162114486098289490e-02 4.307071492075920105e-02
5.837000000000000000e+03 1.865633010864257812e+01 1.709209060668945312e+01 3.607996553182601929e-02 1.283833086490631104e-01 4.933898523449897766e-02 6.894858926534652710e-02
5.838000000000000000e+03 2.270124626159667969e+01 2.011018180847167969e+01 4.030136764049530029e-02 1.096117943525314331e-01 4.497394710779190063e-02 7.028055936098098755e-02
5.839000000000000000e+03 2.373398971557617188e+01 2.105768203735351562e+01 3.967436030507087708e-02 1.044872924685478210e-01 4.324849694967269897e-02 6.819678843021392822e-02
5.840000000000000000e+03 2.265436172485351562e+01 1.964932060241699219e+01 4.486643895506858826e-02 1.108539327979087830e-01 4.671611264348030090e-02 7.259681820869445801e-02
5.841000000000000000e+03 1.368310832977294922e+01 1.235341453552246094e+01 3.080477938055992126e-02 1.726063936948776245e-01 6.102335080504417419e-02 4.081160202622413635e-02
5.842000000000000000e+03 4.635860443115234375e+01 2.013710212707519531e+01 -7.755269408226013184e-01 -5.194886326789855957e-01 -3.885046839714050293e-01 -7.325604557991027832e-01
5.843000000000000000e+03 6.571915435791015625e+01 2.854791450500488281e+01 -1.298399418592453003e-01 6.607725620269775391e+00 1.943365693092346191e+00 3.004302263259887695e+00
5.844000000000000000e+03 3.703368759155273438e+01 8.879561424255371094e+00 -8.357085585594177246e-01 -7.756227850914001465e-01 -4.833993911743164062e-01 -7.221274375915527344e-01
5.845000000000000000e+03 4.271089172363281250e+01 1.648423767089843750e+01 -8.043726682662963867e-01 -6.894547939300537109e-01 -4.481482505798339844e-01 -8.523877263069152832e-01
5.846000000000000000e+03 4.253720474243164062e+01 1.549750614166259766e+01 -7.672948837280273438e-01 -6.224976778030395508e-01 -4.169377684593200684e-01 -7.884465456008911133e-01
5.847000000000000000e+03 3.647856903076171875e+01 7.280815601348876953e+00 -8.044181466102600098e-01 -6.823409199714660645e-01 -4.460277259349822998e-01 -6.157212853431701660e-01
5.848000000000000000e+03 1.756842803955078125e+01 1.736725234985351562e+01 2.708696387708187103e-02 1.270105987787246704e-01 4.622926935553550720e-02 5.860486999154090881e-02
5.849000000000000000e+03 4.934227371215820312e+01 2.189423370361328125e+01 -6.988971233367919922e-01 -1.308615207672119141e-01 -2.489275932312011719e-01 -5.410853624343872070e-01
5.850000000000000000e+03 4.946498870849609375e+01 2.236790847778320312e+01 -7.272555232048034668e-01 -1.584476232528686523e-01 -2.657109498977661133e-01 -5.644353628158569336e-01
5.851000000000000000e+03 3.789561080932617188e+01 9.982165336608886719e+00 -8.224311470985412598e-01 -7.686663866043090820e-01 -4.773292541503906250e-01 -7.402167320251464844e-01
5.852000000000000000e+03 3.771477890014648438e+01 8.927158355712890625e+00 -7.785086035728454590e-01 -7.016745805740356445e-01 -4.440549612045288086e-01 -6.674798727035522461e-01
5.853000000000000000e+03 3.760888671875000000e+01 9.593960762023925781e+00 -8.224696516990661621e-01 -7.680456042289733887e-01 -4.771545827388763428e-01 -7.320265173912048340e-01
5.854000000000000000e+03 1.840813255310058594e+01 1.556579589843750000e+01 4.709530249238014221e-02 1.410839855670928955e-01 5.645378679037094116e-02 7.991153746843338013e-02
5.855000000000000000e+03 1.743987274169921875e+01 1.469447231292724609e+01 4.475534334778785706e-02 1.506707668304443359e-01 5.862782895565032959e-02 7.926551997661590576e-02
5.856000000000000000e+03 1.771199417114257812e+01 1.500846672058105469e+01 4.480301216244697571e-02 1.478896886110305786e-01 5.780781060457229614e-02 7.904955744743347168e-02
5.857000000000000000e+03 2.330660438537597656e+01 2.079243659973144531e+01 4.016892984509468079e-02 1.058375984430313110e-01 4.380195960402488708e-02 6.891515105962753296e-02
5.858000000000000000e+03 2.327193450927734375e+01 1.985288047790527344e+01 4.665545001626014709e-02 1.086915507912635803e-01 4.660410061478614807e-02 7.359608262777328491e-02
5.859000000000000000e+03 6.986009216308593750e+01 2.918750000000000000e+01 -9.917925000190734863e-01 1.217116069793701172e+01 3.353810548782348633e+00 -1.115977168083190918e-01
5.860000000000000000e+03 3.542668151855468750e+01 6.704977512359619141e+00 -8.817246556282043457e-01 -7.339240908622741699e-01 -4.846946299076080322e-01 -6.538875699043273926e-01
5.861000000000000000e+03 3.658760833740234375e+01 7.976517200469970703e+00 -8.355085253715515137e-01 -7.352152466773986816e-01 -4.712171256542205811e-01 -6.766761541366577148e-01
5.862000000000000000e+03 4.284673690795898438e+01 1.604011917114257812e+01 -7.705782651901245117e-01 -6.302201747894287109e-01 -4.202395379543304443e-01 -8.039623498916625977e-01
5.863000000000000000e+03 1.456255340576171875e+01 1.232597637176513672e+01 3.524064272642135620e-02 1.828614473342895508e-01 6.543062627315521240e-02 5.961709469556808472e-02
5.864000000000000000e+03 1.342358970642089844e+01 1.338663578033447266e+01 2.289617620408535004e-02 1.496975123882293701e-01 5.177810415625572205e-02 3.200265020132064819e-02
5.865000000000000000e+03 6.979628753662109375e+01 2.887721443176269531e+01 -1.126729488372802734e+00 1.183373546600341797e+01 3.212101936340332031e+00 3.739538043737411499e-02
5.866000000000000000e+03 7.022650146484375000e+01 2.917029762268066406e+01 -8.827503323554992676e-01 1.200086116790771484e+01 3.335433483123779297e+00 -4.530288875102996826e-01
5.867000000000000000e+03 2.803817558288574219e+01 1.571618676185607910e+00 -1.259937763214111328e+00 -6.764772534370422363e-01 -5.809245109558105469e-01 -3.671450912952423096e-01
5.868000000000000000e+03 3.218230056762695312e+01 1.205468773841857910e+00 -5.320559740066528320e-01 -6.265856623649597168e-01 -3.475925028324127197e-01 -5.863449349999427795e-02
5.869000000000000000e+03 1.632637023925781250e+01 1.483049201965332031e+01 3.370141983032226562e-02 1.475754678249359131e-01 5.438306927680969238e-02 6.497259438037872314e-02
5.870000000000000000e+03 1.614687156677246094e+01 1.325836181640625000e+01 4.455613344907760620e-02 1.696416139602661133e-01 6.425932049751281738e-02 7.728571444749832153e-02
5.871000000000000000e+03 1.574172878265380859e+01 1.313669109344482422e+01 4.077935963869094849e-02 1.693623811006546021e-01 6.304252147674560547e-02 7.335369288921356201e-02
5.872000000000000000e+03 2.094944190979003906e+01 1.904880523681640625e+01 3.842706233263015747e-02 1.161294654011726379e-01 4.636695981025695801e-02 6.922503560781478882e-02
5.873000000000000000e+03 2.030924987792968750e+01 1.903003120422363281e+01 3.348046913743019104e-02 1.161753907799720764e-01 4.489675909280776978e-02 6.568320095539093018e-02
5.874000000000000000e+03 4.818255233764648438e+01 2.083871650695800781e+01 -7.061880826950073242e-01 -2.504844665527343750e-01 -2.870017588138580322e-01 -5.870794057846069336e-01
5.875000000000000000e+03 1.512662220001220703e+01 1.263171577453613281e+01 3.791116178035736084e-02 1.781015843152999878e-01 6.480382382869720459e-02 6.784149259328842163e-02
5.876000000000000000e+03 3.028150749206542969e+01 1.562928557395935059e+00 -8.327112793922424316e-01 -6.737757921218872070e-01 -4.519461393356323242e-01 -1.304158270359039307e-01
5.877000000000000000e+03 1.297533512115478516e+01 1.117161369323730469e+01 3.728176280856132507e-02 1.875190883874893188e-01 6.744025647640228271e-02 2.730464003980159760e-02
5.878000000000000000e+03 5.614858245849609375e+01 2.627694511413574219e+01 -4.170381128787994385e-01 8.889031410217285156e-01 1.415595114231109619e-01 -1.112725660204887390e-01
5.879000000000000000e+03 5.675674057006835938e+01 2.563625717163085938e+01 -2.959541678428649902e-01 1.144338130950927734e+00 2.545151710510253906e-01 7.308505475521087646e-02
5.880000000000000000e+03 3.177869224548339844e+01 6.886484622955322266e-01 -4.024491608142852783e-01 -6.450961232185363770e-01 -3.142635822296142578e-01 -8.793337270617485046e-03
5.881000000000000000e+03 3.431500625610351562e+01 5.476633548736572266e+00 -9.737389683723449707e-01 -7.071562409400939941e-01 -5.042685270309448242e-01 -6.002659797668457031e-01
5.882000000000000000e+03 3.521686935424804688e+01 5.551870346069335938e+00 -8.446137309074401855e-01 -6.510405540466308594e-01 -4.486962854862213135e-01 -5.304062366485595703e-01
5.883000000000000000e+03 3.282787322998046875e+01 2.722081542015075684e-01 -2.153832614421844482e-01 -5.781968832015991211e-01 -2.380740344524383545e-01 2.587205916643142700e-02
5.884000000000000000e+03 3.347660827636718750e+01 2.876491546630859375e-01 -2.050168961286544800e-01 -5.795053243637084961e-01 -2.353566586971282959e-01 2.279791049659252167e-02
5.885000000000000000e+03 6.965570831298828125e+01 2.798414230346679688e+01 -1.285713672637939453e+00 1.101932811737060547e+01 2.920084476470947266e+00 3.225867748260498047e-01
5.886000000000000000e+03 6.785822296142578125e+01 2.882635879516601562e+01 -1.119512557983398438e+00 1.053284931182861328e+01 2.824000835418701172e+00 2.194380044937133789e+00
5.887000000000000000e+03 2.146658515930175781e+01 1.970057296752929688e+01 3.723705559968948364e-02 1.128251031041145325e-01 4.501864686608314514e-02 6.803297996520996094e-02
5.888000000000000000e+03 5.461392974853515625e+01 2.682782745361328125e+01 -6.688037514686584473e-01 4.742677807807922363e-01 -5.836078524589538574e-02 -3.886029124259948730e-01
5.889000000000000000e+03 1.206850147247314453e+01 9.924032211303710938e+00 4.929267987608909607e-02 1.906883716583251953e-01 7.199431210756301880e-02 2.254360355436801910e-03
5.890000000000000000e+03 1.085629844665527344e+01 1.066957283020019531e+01 4.870579019188880920e-02 1.209135130047798157e-01 5.088578909635543823e-02 -1.447871141135692596e-02
5.891000000000000000e+03 2.319768142700195312e+01 2.387054824829101562e+01 2.228705026209354401e-02 9.547486901283264160e-02 3.532857820391654968e-02 5.354918166995048523e-02
5.892000000000000000e+03 2.531573677062988281e+01 2.440019989013671875e+01 2.825309894979000092e-02 9.292367100715637207e-02 3.635303303599357605e-02 5.825953558087348938e-02
5.893000000000000000e+03 3.989644622802734375e+01 1.384954643249511719e+01 -8.851869106292724609e-01 -8.486141562461853027e-01 -5.201402902603149414e-01 -8.796140551567077637e-01
5.894000000000000000e+03 3.041358757019042969e+01 1.939876437187194824e+00 -9.918411374092102051e-01 -6.843644976615905762e-01 -5.028616786003112793e-01 -1.808369755744934082e-01
5.895000000000000000e+03 1.381617164611816406e+01 1.892406463623046875e+01 1.637178706005215645e-03 8.679731190204620361e-02 2.653034776449203491e-02 1.786415278911590576e-02
5.896000000000000000e+03 5.330393218994140625e+01 2.547697448730468750e+01 -6.567579507827758789e-01 3.534813225269317627e-01 -9.098298847675323486e-02 -3.841778039932250977e-01
5.897000000000000000e+03 3.111208915710449219e+01 1.918180108070373535e+00 -8.850718140602111816e-01 -6.814972162246704102e-01 -4.699707031250000000e-01 -1.682846397161483765e-01
5.898000000000000000e+03 3.435946655273437500e+01 3.897270917892456055e+00 -8.110101222991943359e-01 -5.839174389839172363e-01 -4.184782505035400391e-01 -3.526290655136108398e-01
5.899000000000000000e+03 3.357149887084960938e+01 4.188183784484863281e+00 -9.581641554832458496e-01 -6.355139017105102539e-01 -4.781034290790557861e-01 -4.253655076026916504e-01
5.900000000000000000e+03 6.572732543945312500e+01 2.229700279235839844e+01 -6.280605196952819824e-01 6.177549839019775391e+00 1.664846777915954590e+00 1.252257227897644043e+00
5.901000000000000000e+03 6.283906936645507812e+01 2.530404853820800781e+01 -2.312991768121719360e-02 3.935488224029541016e+00 1.173707485198974609e+00 1.590162158012390137e+00
5.902000000000000000e+03 2.210401153564453125e+01 1.906467437744140625e+01 4.554115235805511475e-02 1.142673119902610779e-01 4.794253781437873840e-02 7.403420656919479370e-02
5.903000000000000000e+03 5.973142623901367188e+01 2.534683227539062500e+01 1.010674890130758286e-02 2.155089378356933594e+00 6.495588421821594238e-01 7.563452720642089844e-01
5.904000000000000000e+03 6.872135162353515625e+01 2.615985298156738281e+01 -1.274435639381408691e+00 9.277066230773925781e+00 2.400789022445678711e+00 9.977654814720153809e-01
5.905000000000000000e+03 5.925128936767578125e+01 2.583212661743164062e+01 -2.847793139517307281e-02 1.833796620368957520e+00 5.415955781936645508e-01 5.802848935127258301e-01
5.906000000000000000e+03 6.802918243408203125e+01 2.398046112060546875e+01 -1.037110567092895508e+00 7.971195220947265625e+00 2.080225467681884766e+00 1.013032913208007812e+00
5.907000000000000000e+03 6.898479461669921875e+01 2.555830955505371094e+01 -1.269435167312622070e+00 9.155399322509765625e+00 2.365789413452148438e+00 8.046516776084899902e-01
5.908000000000000000e+03 6.361611938476562500e+01 2.693833351135253906e+01 1.104333549737930298e-01 4.160632133483886719e+00 1.281319618225097656e+00 2.010147809982299805e+00
5.909000000000000000e+03 6.257170486450195312e+01 2.620528221130371094e+01 1.066458374261856079e-01 3.499810934066772461e+00 1.081937074661254883e+00 1.596300005912780762e+00
5.910000000000000000e+03 2.792013931274414062e+01 2.864739990234375000e+01 2.659627050161361694e-02 8.046949654817581177e-02 3.211973235011100769e-02 4.811367392539978027e-02
5.911000000000000000e+03 2.504632186889648438e+01 2.659565162658691406e+01 1.911253295838832855e-02 8.679304271936416626e-02 3.177167475223541260e-02 4.910653457045555115e-02
5.912000000000000000e+03 2.557711791992187500e+01 2.500901222229003906e+01 2.849870733916759491e-02 9.067607671022415161e-02 3.575243428349494934e-02 5.581208691000938416e-02
5.913000000000000000e+03 6.624442291259765625e+01 2.322921752929687500e+01 -7.190102934837341309e-01 6.587071418762207031e+00 1.760418415069580078e+00 1.329126596450805664e+00
5.914000000000000000e+03 2.423299789428710938e+01 2.255454254150390625e+01 3.352681547403335571e-02 9.892618656158447266e-02 3.973590210080146790e-02 6.239164620637893677e-02
5.915000000000000000e+03 5.411204147338867188e+01 2.596034431457519531e+01 -6.252244114875793457e-01 4.735645949840545654e-01 -4.549793526530265808e-02 -3.442293107509613037e-01
5.916000000000000000e+03 5.350941467285156250e+01 2.584773254394531250e+01 -6.705195307731628418e-01 3.589337766170501709e-01 -9.347572922706604004e-02 -3.985059559345245361e-01
5.917000000000000000e+03 5.808837509155273438e+01 2.537953567504882812e+01 -1.368836611509323120e-01 1.561123728752136230e+00 4.272720217704772949e-01 3.598406314849853516e-01
5.918000000000000000e+03 3.405384826660156250e+01 4.297850131988525391e+00 -9.093013405799865723e-01 -6.267343759536743164e-01 -4.608107209205627441e-01 -4.258801043033599854e-01
5.919000000000000000e+03 5.560640335083007812e+01 2.621738433837890625e+01 -4.874044954776763916e-01 7.704215049743652344e-01 8.490511029958724976e-02 -1.887961924076080322e-01
5.920000000000000000e+03 3.877895355224609375e+01 1.116035461425781250e+01 -8.152986764907836914e-01 -7.624514102935791016e-01 -4.733250141143798828e-01 -7.628407478332519531e-01
5.921000000000000000e+03 3.539548873901367188e+01 -1.075337409973144531e+00 1.110753193497657776e-01 -4.665791988372802734e-01 -1.066511571407318115e-01 6.947137415409088135e-02
5.922000000000000000e+03 3.599652481079101562e+01 -1.583932876586914062e+00 2.133350074291229248e-01 -4.315342903137207031e-01 -6.545978039503097534e-02 7.391374558210372925e-02
5.923000000000000000e+03 3.076522636413574219e+01 1.852160692214965820e+00 -8.652907609939575195e-01 -6.695181131362915039e-01 -4.604426622390747070e-01 -1.516754925251007080e-01
5.924000000000000000e+03 3.120464897155761719e+01 1.035188674926757812e+00 -5.601526498794555664e-01 -6.614112854003906250e-01 -3.664691746234893799e-01 -5.469521135091781616e-02
5.925000000000000000e+03 1.267342662811279297e+01 1.079414367675781250e+01 3.786513209342956543e-02 1.872025281190872192e-01 6.752029806375503540e-02 2.123466879129409790e-02
5.926000000000000000e+03 3.205017471313476562e+01 2.166405916213989258e+00 -8.192174434661865234e-01 -6.461362242698669434e-01 -4.396061003208160400e-01 -1.642202287912368774e-01
5.927000000000000000e+03 3.264258575439453125e+01 1.250285387039184570e+00 -4.879077076911926270e-01 -5.935397148132324219e-01 -3.244342207908630371e-01 -3.728039562702178955e-02
5.928000000000000000e+03 1.870102500915527344e+01 1.587930870056152344e+01 4.635670036077499390e-02 1.376983374357223511e-01 5.521650984883308411e-02 7.897176593542098999e-02
5.929000000000000000e+03 1.831071281433105469e+01 1.652661132812500000e+01 3.706751018762588501e-02 1.327432990074157715e-01 5.094324052333831787e-02 7.031197845935821533e-02
5.930000000000000000e+03 1.254921627044677734e+01 1.242127513885498047e+01 2.674588933587074280e-02 1.487822830677032471e-01 5.265845358371734619e-02 1.850636117160320282e-02
5.931000000000000000e+03 3.602748489379882812e+01 7.117284297943115234e+00 -8.410049676895141602e-01 -7.071125507354736328e-01 -4.644352495670318604e-01 -6.425405144691467285e-01
5.932000000000000000e+03 6.537278747558593750e+01 2.807674217224121094e+01 -1.012785285711288452e-01 6.076219558715820312e+00 1.792482256889343262e+00 2.782374382019042969e+00
5.933000000000000000e+03 6.831118011474609375e+01 2.514884185791015625e+01 -1.153378486633300781e+00 8.532284736633300781e+00 2.213671684265136719e+00 1.099039316177368164e+00
5.934000000000000000e+03 1.250727939605712891e+01 1.160086917877197266e+01 3.239498287439346313e-02 1.636670529842376709e-01 5.881860852241516113e-02 1.809459365904331207e-02
5.935000000000000000e+03 6.320415115356445312e+01 3.821378469467163086e+00 5.726687610149383545e-02 4.693946361541748047e+00 1.425364017486572266e+00 5.807496905326843262e-01
5.936000000000000000e+03 1.285435199737548828e+01 1.754257583618164062e+01 2.898109378293156624e-03 8.738517761230468750e-02 2.708498574793338776e-02 1.254304405301809311e-02
5.937000000000000000e+03 1.364038467407226562e+01 1.599092006683349609e+01 1.123620383441448212e-02 1.143418923020362854e-01 3.767342865467071533e-02 2.576996013522148132e-02
5.938000000000000000e+03 3.773701858520507812e+01 -2.223406314849853516e+00 2.924152016639709473e-01 -2.706443667411804199e-01 6.531247869133949280e-03 8.182451128959655762e-02
5.939000000000000000e+03 3.746124649047851562e+01 -1.619542360305786133e+00 2.245526164770126343e-01 -2.947414517402648926e-01 -2.105665579438209534e-02 7.754040509462356567e-02
5.940000000000000000e+03 2.855344009399414062e+01 3.193154716491699219e+01 2.447089180350303650e-02 7.437405735254287720e-02 2.965348586440086365e-02 3.761889785528182983e-02
5.941000000000000000e+03 2.728248405456542969e+01 2.788627052307128906e+01 2.507844567298889160e-02 8.156634867191314697e-02 3.199343755841255188e-02 4.980692639946937561e-02
5.942000000000000000e+03 2.844419479370117188e+01 2.792618751525878906e+01 2.914943546056747437e-02 8.114425837993621826e-02 3.308810666203498840e-02 5.197911337018013000e-02
5.943000000000000000e+03 4.461676406860351562e+01 -5.173210620880126953e+00 3.871530294418334961e-01 7.215594649314880371e-01 3.326137363910675049e-01 1.517270803451538086e-01
5.944000000000000000e+03 6.450134277343750000e+01 -1.742445111274719238e+00 1.089324653148651123e-01 5.039950370788574219e+00 1.544664859771728516e+00 5.076767206192016602e-01
5.945000000000000000e+03 6.253851699829101562e+01 -1.647776246070861816e+00 1.357481181621551514e-01 4.523132324218750000e+00 1.397664189338684082e+00 5.199675559997558594e-01
5.946000000000000000e+03 3.520831680297851562e+01 4.354438781738281250e+00 -7.318846583366394043e-01 -5.600129961967468262e-01 -3.875693082809448242e-01 -3.687296807765960693e-01
5.947000000000000000e+03 3.866999053955078125e+01 -2.332776069641113281e+00 3.048953711986541748e-01 -1.683941036462783813e-01 4.095038399100303650e-02 8.704208582639694214e-02
5.948000000000000000e+03 3.807925796508789062e+01 -2.815283060073852539e+00 3.419629335403442383e-01 -2.299207895994186401e-01 3.361264243721961975e-02 8.407893031835556030e-02
5.949000000000000000e+03 6.644361114501953125e+01 2.135905265808105469e+01 -6.811050772666931152e-01 6.494182586669921875e+00 1.743923306465148926e+00 1.056223988533020020e+00
5.950000000000000000e+03 6.628913116455078125e+01 1.670388793945312500e+01 -4.166824221611022949e-01 5.976901054382324219e+00 1.668065667152404785e+00 7.497079372406005859e-01
5.951000000000000000e+03 1.268527126312255859e+01 1.886675453186035156e+01 -1.047309837304055691e-03 7.290174812078475952e-02 2.155633270740509033e-02 7.999972440302371979e-03
5.952000000000000000e+03 6.509091949462890625e+01 -7.621934413909912109e+00 1.115842238068580627e-01 5.122858047485351562e+00 1.570332646369934082e+00 4.321866929531097412e-01
5.953000000000000000e+03 6.377992630004882812e+01 8.931237459182739258e-01 8.549818396568298340e-02 4.826985359191894531e+00 1.473745107650756836e+00 5.525121092796325684e-01
5.954000000000000000e+03 6.544931030273437500e+01 6.906735420227050781e+00 -1.408378314226865768e-02 5.344179630279541016e+00 1.599028825759887695e+00 5.941476225852966309e-01
5.955000000000000000e+03 4.764445877075195312e+01 -1.064668464660644531e+01 3.234177827835083008e-01 1.383405327796936035e+00 5.120469331741333008e-01 1.215163767337799072e-01
5.956000000000000000e+03 4.600037384033203125e+01 -1.016390609741210938e+01 3.530876636505126953e-01 1.066141486167907715e+00 4.257687330245971680e-01 1.002352312207221985e-01
5.957000000000000000e+03 6.472977447509765625e+01 1.001674532890319824e+00 7.874201238155364990e-02 5.084942340850830078e+00 1.549105405807495117e+00 5.445560216903686523e-01
5.958000000000000000e+03 6.379740905761718750e+01 1.451556980609893799e-01 1.050998121500015259e-01 4.847898483276367188e+00 1.485899567604064941e+00 5.357512831687927246e-01
5.959000000000000000e+03 6.661931610107421875e+01 1.375303554534912109e+01 -2.705420851707458496e-01 5.921457290649414062e+00 1.695274591445922852e+00 6.466483473777770996e-01
5.960000000000000000e+03 6.608801269531250000e+01 7.629110813140869141e+00 -4.987300187349319458e-02 5.555660247802734375e+00 1.651736259460449219e+00 6.009475588798522949e-01
5.961000000000000000e+03 6.611060333251953125e+01 9.813668251037597656e+00 -1.083154082298278809e-01 5.606037616729736328e+00 1.649316668510437012e+00 6.197724938392639160e-01
5.962000000000000000e+03 6.229325103759765625e+01 2.564306640625000000e+01 5.729320272803306580e-02 3.460605382919311523e+00 1.055369615554809570e+00 1.477010726928710938e+00
5.963000000000000000e+03 6.720095825195312500e+01 1.694813346862792969e+01 -4.581218063831329346e-01 6.339361190795898438e+00 1.764371752738952637e+00 6.794113516807556152e-01
5.964000000000000000e+03 4.014079284667968750e+01 -2.625612735748291016e+00 3.164722919464111328e-01 2.858699066564440727e-03 9.579929709434509277e-02 1.059251204133033752e-01
5.965000000000000000e+03 4.011765289306640625e+01 -3.795082330703735352e+00 3.850040137767791748e-01 1.658232323825359344e-02 1.204759031534194946e-01 9.943030774593353271e-02
5.966000000000000000e+03 6.411913299560546875e+01 9.087726593017578125e+00 -6.794574111700057983e-02 4.983000278472900391e+00 1.474516272544860840e+00 6.442955136299133301e-01
5.967000000000000000e+03 6.651775360107421875e+01 1.172791385650634766e+01 -1.822234988212585449e-01 5.807761192321777344e+00 1.687661290168762207e+00 6.196233630180358887e-01
5.968000000000000000e+03 1.336971092224121094e+01 1.821441841125488281e+01 2.639462007209658623e-03 8.903574943542480469e-02 2.750256285071372986e-02 1.530023291707038879e-02
5.969000000000000000e+03 1.716948509216308594e+01 1.662154960632324219e+01 2.863420546054840088e-02 1.322423368692398071e-01 4.826296120882034302e-02 6.021394208073616028e-02
5.970000000000000000e+03 6.492881011962890625e+01 9.490070343017578125e+00 -8.763358741998672485e-02 5.243207931518554688e+00 1.546672344207763672e+00 6.380479335784912109e-01
5.971000000000000000e+03 1.460148048400878906e+01 2.072590637207031250e+01 -1.422592031303793192e-04 8.110897243022918701e-02 2.429001405835151672e-02 1.880485936999320984e-02
5.972000000000000000e+03 1.436514091491699219e+01 1.949690437316894531e+01 2.213501138612627983e-03 8.821164816617965698e-02 2.712754346430301666e-02 2.052070200443267822e-02
5.973000000000000000e+03 6.388927459716796875e+01 -3.591293573379516602e+00 1.215836703777313232e-01 4.858542919158935547e+00 1.494037985801696777e+00 4.872777163982391357e-01
5.974000000000000000e+03 3.021593856811523438e+01 3.149830055236816406e+01 2.878955565392971039e-02 7.364815473556518555e-02 3.073131293058395386e-02 4.236499220132827759e-02
5.975000000000000000e+03 4.512567138671875000e+01 -9.625166893005371094e+00 3.847058117389678955e-01 9.122823476791381836e-01 3.890964388847351074e-01 9.607776999473571777e-02
5.976000000000000000e+03 4.510986328125000000e+01 -7.202124595642089844e+00 4.006385803222656250e-01 8.394133448600769043e-01 3.720155656337738037e-01 1.317947655916213989e-01
5.977000000000000000e+03 1.580639171600341797e+01 2.266842269897460938e+01 -1.449772389605641365e-03 7.698971778154373169e-02 2.266198210418224335e-02 2.092696726322174072e-02
5.978000000000000000e+03 1.749979782104492188e+01 2.466989326477050781e+01 2.554277307353913784e-04 7.735415548086166382e-02 2.328287437558174133e-02 2.549014799296855927e-02
5.979000000000000000e+03 4.885500717163085938e+01 -1.586133861541748047e+01 1.655932515859603882e-01 1.758380055427551270e+00 5.771920084953308105e-01 1.028010100126266479e-01
5.980000000000000000e+03 5.065302658081054688e+01 -1.487989616394042969e+01 1.853734552860260010e-01 2.113590478897094727e+00 6.896891593933105469e-01 1.562677174806594849e-01
5.981000000000000000e+03 4.915000152587890625e+01 -1.433912658691406250e+01 2.214698344469070435e-01 1.775177121162414551e+00 5.989940762519836426e-01 1.183405444025993347e-01
5.982000000000000000e+03 1.684374237060546875e+01 2.751203346252441406e+01 -4.662449005991220474e-03 6.028440594673156738e-02 1.668658666312694550e-02 1.614928990602493286e-02
5.983000000000000000e+03 6.352751922607421875e+01 1.733802080154418945e+00 9.300112724304199219e-02 4.788963794708251953e+00 1.464589476585388184e+00 5.637559890747070312e-01
5.984000000000000000e+03 1.628638076782226562e+01 2.161688423156738281e+01 3.461688524112105370e-03 8.825814723968505859e-02 2.751595154404640198e-02 2.812664583325386047e-02
5.985000000000000000e+03 6.488084411621093750e+01 -1.264756298065185547e+01 9.444399178028106689e-02 5.096304893493652344e+00 1.557224750518798828e+00 3.790857791900634766e-01
5.986000000000000000e+03 6.391513442993164062e+01 -9.814524650573730469e+00 1.071334034204483032e-01 4.849812507629394531e+00 1.487083792686462402e+00 4.193228483200073242e-01
5.987000000000000000e+03 4.182849884033203125e+01 -2.820681333541870117e+00 3.369213938713073730e-01 2.401417046785354614e-01 1.731189340353012085e-01 1.170853823423385620e-01
5.988000000000000000e+03 6.247148132324218750e+01 -2.056988334655761719e+01 5.655074119567871094e-02 4.572231769561767578e+00 1.388634681701660156e+00 3.369411528110504150e-01
5.989000000000000000e+03 6.440827178955078125e+01 -1.896166038513183594e+01 5.841420590877532959e-02 4.960138320922851562e+00 1.505565762519836426e+00 3.350176215171813965e-01
5.990000000000000000e+03 6.317485809326171875e+01 -4.384942531585693359e+00 1.283576935529708862e-01 4.688913822174072266e+00 1.445181488990783691e+00 4.812246561050415039e-01
5.991000000000000000e+03 2.920285987854003906e+01 3.703214263916015625e+01 2.242168784141540527e-02 6.712498515844345093e-02 2.686400152742862701e-02 2.085893787443637848e-02
5.992000000000000000e+03 5.785725021362304688e+01 -2.224065208435058594e+01 3.785498440265655518e-02 3.696993350982666016e+00 1.120454430580139160e+00 3.042121827602386475e-01
5.993000000000000000e+03 5.414930343627929688e+01 -1.677244377136230469e+01 1.129120811820030212e-01 2.857460737228393555e+00 8.911118507385253906e-01 2.274523377418518066e-01
5.994000000000000000e+03 5.134353637695312500e+01 -1.705050468444824219e+01 1.125023439526557922e-01 2.283787727355957031e+00 7.188870310783386230e-01 1.544534713029861450e-01
5.995000000000000000e+03 1.543485546112060547e+01 -2.092500114440917969e+01 2.298129200935363770e-01 -3.785486519336700439e-01 -4.462071508169174194e-02 -3.732015788555145264e-01
5.996000000000000000e+03 1.698676872253417969e+01 -2.738937950134277344e+01 2.272111475467681885e-01 -2.447067052125930786e-01 -5.248666740953922272e-03 -3.130514323711395264e-01
5.997000000000000000e+03 1.569763851165771484e+01 -2.453464126586914062e+01 2.206794321537017822e-01 -3.251010775566101074e-01 -3.132649138569831848e-02 -3.452095091342926025e-01
5.998000000000000000e+03 4.697159194946289062e+01 -9.433664321899414062e+00 3.546524643898010254e-01 1.221358537673950195e+00 4.728032946586608887e-01 1.234107464551925659e-01
5.999000000000000000e+03 5.475864410400390625e+01 -2.585961341857910156e+01 6.356838159263134003e-03 3.177578210830688477e+00 9.551805257797241211e-01 2.882786095142364502e-01
6.000000000000000000e+03 6.026366424560546875e+01 -2.226214027404785156e+01 5.181884393095970154e-02 4.164347648620605469e+00 1.264850020408630371e+00 3.268710672855377197e-01
6.001000000000000000e+03 6.211124038696289062e+01 -2.548265075683593750e+01 6.665376573801040649e-02 4.496181488037109375e+00 1.368850588798522949e+00 3.263448774814605713e-01
6.002000000000000000e+03 6.598326873779296875e+01 2.859554481506347656e+01 -2.754977345466613770e-01 7.151465892791748047e+00 2.062790393829345703e+00 3.036431074142456055e+00
6.003000000000000000e+03 4.989665222167968750e+01 2.216387367248535156e+01 -6.797117590904235840e-01 -5.314126610755920410e-02 -2.198559045791625977e-01 -5.026612281799316406e-01
6.004000000000000000e+03 4.869044876098632812e+01 2.114022636413574219e+01 -6.954160332679748535e-01 -1.852126866579055786e-01 -2.641886174678802490e-01 -5.544524192810058594e-01
6.005000000000000000e+03 4.829994583129882812e+01 2.126690483093261719e+01 -7.344626188278198242e-01 -2.801908254623413086e-01 -3.043960332870483398e-01 -6.071233153343200684e-01
6.006000000000000000e+03 5.041645812988281250e+01 2.372758483886718750e+01 -7.650518417358398438e-01 -1.285992264747619629e-01 -2.680953145027160645e-01 -5.740602016448974609e-01
6.007000000000000000e+03 6.496504974365234375e+01 2.805530929565429688e+01 3.449365124106407166e-02 5.458330154418945312e+00 1.647847175598144531e+00 2.698100805282592773e+00
6.008000000000000000e+03 4.466369247436523438e+01 1.805537605285644531e+01 -7.461869120597839355e-01 -5.760935544967651367e-01 -3.966841399669647217e-01 -7.743439674377441406e-01
6.009000000000000000e+03 4.591314697265625000e+01 1.886207771301269531e+01 -7.121830582618713379e-01 -4.643939435482025146e-01 -3.529731035232543945e-01 -6.954056024551391602e-01
6.010000000000000000e+03 3.999740600585937500e+01 1.157341670989990234e+01 -7.445418238639831543e-01 -6.434932351112365723e-01 -4.164105355739593506e-01 -6.951842904090881348e-01
6.011000000000000000e+03 4.190419387817382812e+01 1.393487262725830078e+01 -7.267105579376220703e-01 -5.746802687644958496e-01 -3.904172182083129883e-01 -7.147255539894104004e-01
6.012000000000000000e+03 4.880555725097656250e+01 2.158265113830566406e+01 -7.202945351600646973e-01 -2.104363441467285156e-01 -2.792192697525024414e-01 -5.756368041038513184e-01
6.013000000000000000e+03 4.147380828857421875e+01 1.388775825500488281e+01 -7.606749534606933594e-01 -6.284938454627990723e-01 -4.167506396770477295e-01 -7.481056451797485352e-01
6.014000000000000000e+03 5.019512176513671875e+01 2.248108863830566406e+01 -6.788116693496704102e-01 -2.822443097829818726e-02 -2.121108323335647583e-01 -4.920679032802581787e-01
6.015000000000000000e+03 5.294820022583007812e+01 2.524664497375488281e+01 -6.671736836433410645e-01 2.971397936344146729e-01 -1.110101714730262756e-01 -4.017731547355651855e-01
6.016000000000000000e+03 5.468500518798828125e+01 2.518351936340332031e+01 -4.974513351917266846e-01 7.017945647239685059e-01 6.130298227071762085e-02 -1.913038343191146851e-01
6.017000000000000000e+03 4.560215377807617188e+01 1.850118064880371094e+01 -7.095311880111694336e-01 -4.774428606033325195e-01 -3.560922145843505859e-01 -7.054989337921142578e-01
6.018000000000000000e+03 4.265170288085937500e+01 1.500277042388916016e+01 -7.314067482948303223e-01 -5.617991089820861816e-01 -3.879617750644683838e-01 -7.387935519218444824e-01
6.019000000000000000e+03 5.108382415771484375e+01 2.392574501037597656e+01 -7.225347161293029785e-01 6.509071215987205505e-03 -2.148077040910720825e-01 -5.107638835906982422e-01
6.020000000000000000e+03 4.019824600219726562e+01 1.342792510986328125e+01 -8.318659067153930664e-01 -7.685024142265319824e-01 -4.801104962825775146e-01 -8.210648894309997559e-01
6.021000000000000000e+03 4.409591674804687500e+01 1.744912147521972656e+01 -7.493624091148376465e-01 -5.976598262786865234e-01 -4.041066765785217285e-01 -7.887633442878723145e-01
6.022000000000000000e+03 6.619636535644531250e+01 2.949180412292480469e+01 -8.748220652341842651e-02 7.559700965881347656e+00 2.241665601730346680e+00 3.580254793167114258e+00
6.023000000000000000e+03 4.356811523437500000e+01 1.669049644470214844e+01 -7.459061145782470703e-01 -5.909796953201293945e-01 -4.010657370090484619e-01 -7.863922715187072754e-01
6.024000000000000000e+03 4.493842697143554688e+01 1.839955520629882812e+01 -7.444706559181213379e-01 -5.706256031990051270e-01 -3.945288658142089844e-01 -7.681717276573181152e-01
6.025000000000000000e+03 4.769222640991210938e+01 2.054776954650878906e+01 -7.217478752136230469e-01 -3.238255381584167480e-01 -3.136720061302185059e-01 -6.207861900329589844e-01
6.026000000000000000e+03 4.733389663696289062e+01 2.066662788391113281e+01 -7.523954510688781738e-01 -3.965553045272827148e-01 -3.446852266788482666e-01 -6.630086302757263184e-01
6.027000000000000000e+03 5.211125946044921875e+01 2.493453979492187500e+01 -7.208621501922607422e-01 1.264239996671676636e-01 -1.783314347267150879e-01 -4.739140570163726807e-01
6.028000000000000000e+03 4.621852111816406250e+01 1.919904518127441406e+01 -7.135905027389526367e-01 -4.448869824409484863e-01 -3.475432395935058594e-01 -6.835572123527526855e-01
6.029000000000000000e+03 4.502429962158203125e+01 1.776623153686523438e+01 -6.999667882919311523e-01 -4.871189892292022705e-01 -3.561257421970367432e-01 -7.131812572479248047e-01
6.030000000000000000e+03 4.080607604980468750e+01 1.442119503021240234e+01 -8.430399298667907715e-01 -7.608817219734191895e-01 -4.811764955520629883e-01 -8.472418189048767090e-01
6.031000000000000000e+03 4.007764434814453125e+01 1.413826370239257812e+01 -8.941822648048400879e-01 -8.500458598136901855e-01 -5.232684016227722168e-01 -8.890947699546813965e-01
6.032000000000000000e+03 5.146189880371093750e+01 2.411922836303710938e+01 -7.106158733367919922e-01 7.056435197591781616e-02 -1.920154690742492676e-01 -4.815257787704467773e-01
6.033000000000000000e+03 5.185645294189453125e+01 2.430705642700195312e+01 -6.901357173919677734e-01 1.409822106361389160e-01 -1.647460460662841797e-01 -4.485503435134887695e-01
6.034000000000000000e+03 1.847820281982421875e+01 1.753310394287109375e+01 3.228228539228439331e-02 1.262847036123275757e-01 4.757009819149971008e-02 6.446944177150726318e-02
6.035000000000000000e+03 5.225780105590820312e+01 2.447214698791503906e+01 -6.695004105567932129e-01 2.149256169795989990e-01 -1.363724321126937866e-01 -4.163497984409332275e-01
6.036000000000000000e+03 6.931484985351562500e+01 2.884695816040039062e+01 -1.223651289939880371e+00 1.175737285614013672e+01 3.160116434097290039e+00 5.427761673927307129e-01
6.037000000000000000e+03 4.229870986938476562e+01 1.444733142852783203e+01 -7.278922200202941895e-01 -5.605276226997375488e-01 -3.865259587764739990e-01 -7.244457602500915527e-01
6.038000000000000000e+03 4.186445236206054688e+01 1.441980075836181641e+01 -7.606777548789978027e-01 -6.187127232551574707e-01 -4.138171374797821045e-01 -7.598519325256347656e-01
6.039000000000000000e+03 3.733057403564453125e+01 9.220910072326660156e+00 -8.291744589805603027e-01 -7.669657468795776367e-01 -4.788420498371124268e-01 -7.239559888839721680e-01
6.040000000000000000e+03 4.469965362548828125e+01 1.671758842468261719e+01 -6.647062301635742188e-01 -4.293820261955261230e-01 -3.282264769077301025e-01 -6.723243594169616699e-01
6.041000000000000000e+03 2.286032867431640625e+01 2.127171516418457031e+01 3.355292230844497681e-02 1.046703457832336426e-01 4.146698117256164551e-02 6.356170028448104858e-02
6.042000000000000000e+03 2.400463867187500000e+01 2.212855529785156250e+01 3.482685238122940063e-02 1.001464873552322388e-01 4.049200192093849182e-02 6.380274146795272827e-02
6.043000000000000000e+03 2.221347999572753906e+01 2.030402946472167969e+01 3.680206090211868286e-02 1.093921586871147156e-01 4.385826736688613892e-02 6.675989925861358643e-02
6.044000000000000000e+03 2.293873405456542969e+01 2.050014877319335938e+01 3.904356807470321655e-02 1.074954867362976074e-01 4.396171495318412781e-02 6.842967122793197632e-02
6.045000000000000000e+03 3.819422531127929688e+01 1.037562465667724609e+01 -8.186050057411193848e-01 -7.666725516319274902e-01 -4.755832552909851074e-01 -7.467719316482543945e-01
6.046000000000000000e+03 3.861588668823242188e+01 1.011919879913330078e+01 -7.714506387710571289e-01 -6.952069997787475586e-01 -4.399972856044769287e-01 -6.908513307571411133e-01
6.047000000000000000e+03 1.303677177429199219e+01 1.267084312438964844e+01 2.652417868375778198e-02 1.566777378320693970e-01 5.496057495474815369e-02 2.658980712294578552e-02
6.048000000000000000e+03 4.329356765747070312e+01 1.613106155395507812e+01 -7.412153482437133789e-01 -5.765233635902404785e-01 -3.953216075897216797e-01 -7.691622972488403320e-01
6.049000000000000000e+03 3.153634834289550781e+01 2.086814880371093750e+00 -8.513399362564086914e-01 -6.414819359779357910e-01 -4.478465616703033447e-01 -1.521452963352203369e-01
6.050000000000000000e+03 4.398865127563476562e+01 1.686158180236816406e+01 -7.251115441322326660e-01 -5.531385540962219238e-01 -3.834750354290008545e-01 -7.569729089736938477e-01
6.051000000000000000e+03 1.966955566406250000e+01 1.888190650939941406e+01 3.107107989490032196e-02 1.180655211210250854e-01 4.474097862839698792e-02 6.301841139793395996e-02
6.052000000000000000e+03 1.755152320861816406e+01 1.964982986450195312e+01 1.361377257853746414e-02 1.082391440868377686e-01 3.655587509274482727e-02 4.470279440283775330e-02
6.053000000000000000e+03 4.673047637939453125e+01 1.993507003784179688e+01 -7.344436049461364746e-01 -4.306107759475708008e-01 -3.495163023471832275e-01 -6.784871816635131836e-01
6.054000000000000000e+03 3.736263656616210938e+01 7.873235702514648438e+00 -7.562264204025268555e-01 -6.507516503334045410e-01 -4.220934212207794189e-01 -6.015121936798095703e-01
6.055000000000000000e+03 3.802831649780273438e+01 9.312281608581542969e+00 -7.743178606033325195e-01 -6.964803338050842285e-01 -4.412394762039184570e-01 -6.735797524452209473e-01
6.056000000000000000e+03 3.832709121704101562e+01 9.712138175964355469e+00 -7.697236537933349609e-01 -6.944452524185180664e-01 -4.392506778240203857e-01 -6.811369061470031738e-01
6.057000000000000000e+03 2.327716064453125000e+01 2.161715888977050781e+01 3.447151556611061096e-02 1.027836129069328308e-01 4.117653891444206238e-02 6.391763687133789062e-02
6.058000000000000000e+03 4.375740432739257812e+01 1.625218200683593750e+01 -7.101500034332275391e-01 -5.226313471794128418e-01 -3.698343932628631592e-01 -7.339380383491516113e-01
6.059000000000000000e+03 4.297898864746093750e+01 1.557014274597167969e+01 -7.365501523017883301e-01 -5.683196783065795898e-01 -3.914609253406524658e-01 -7.547613978385925293e-01
6.060000000000000000e+03 3.542103958129882812e+01 6.151254653930664062e+00 -8.551942110061645508e-01 -6.863263249397277832e-01 -4.624561369419097900e-01 -5.860853195190429688e-01
6.061000000000000000e+03 5.445085525512695312e+01 2.624451446533203125e+01 -6.170740127563476562e-01 5.111940503120422363e-01 -3.176399692893028259e-02 -3.365660309791564941e-01
6.062000000000000000e+03 5.000349807739257812e+01 2.333238410949707031e+01 -7.704769968986511230e-01 -1.638479679822921753e-01 -2.802974879741668701e-01 -5.890591144561767578e-01
6.063000000000000000e+03 1.123243904113769531e+01 9.706192970275878906e+00 6.019112467765808105e-02 1.559751480817794800e-01 6.484988331794738770e-02 -1.837022602558135986e-02
6.064000000000000000e+03 3.961554336547851562e+01 1.233936882019042969e+01 -8.224338889122009277e-01 -7.567720413208007812e-01 -4.737617969512939453e-01 -7.849234938621520996e-01
6.065000000000000000e+03 3.989648056030273438e+01 1.213486480712890625e+01 -7.847554683685302734e-01 -6.972731351852416992e-01 -4.446085691452026367e-01 -7.416322231292724609e-01
6.066000000000000000e+03 5.621875000000000000e+01 2.571422004699707031e+01 -3.617588281631469727e-01 9.906346797943115234e-01 1.886627674102783203e-01 -3.062711469829082489e-02
6.067000000000000000e+03 1.658892059326171875e+01 1.536328697204589844e+01 3.199661150574684143e-02 1.425226181745529175e-01 5.235576629638671875e-02 6.439031660556793213e-02
6.068000000000000000e+03 1.516398239135742188e+01 1.345682430267333984e+01 3.433793783187866211e-02 1.634034812450408936e-01 5.932242795825004578e-02 6.085965409874916077e-02
6.069000000000000000e+03 3.274267959594726562e+01 8.245978951454162598e-01 -3.791819810867309570e-01 -5.996687412261962891e-01 -2.936552166938781738e-01 -1.767521724104881287e-02
6.070000000000000000e+03 6.903105163574218750e+01 2.856913185119628906e+01 -1.284912586212158203e+00 1.134069728851318359e+01 3.016735553741455078e+00 8.871476054191589355e-01
6.071000000000000000e+03 6.932868957519531250e+01 2.824554443359375000e+01 -1.299026608467102051e+00 1.112936687469482422e+01 2.949101924896240234e+00 5.865786075592041016e-01
6.072000000000000000e+03 1.395772457122802734e+01 1.405427932739257812e+01 2.226747944951057434e-02 1.468562185764312744e-01 5.073711276054382324e-02 3.850417956709861755e-02
6.073000000000000000e+03 1.412220668792724609e+01 1.240140342712402344e+01 3.347318992018699646e-02 1.754148602485656738e-01 6.266641616821289062e-02 4.966475814580917358e-02
6.074000000000000000e+03 1.214646434783935547e+01 1.121912670135498047e+01 3.774273395538330078e-02 1.640638560056686401e-01 6.054197624325752258e-02 8.500773459672927856e-03
6.075000000000000000e+03 3.264656829833984375e+01 1.726270437240600586e+00 -6.262287497520446777e-01 -6.190654635429382324e-01 -3.735882639884948730e-01 -9.844871610403060913e-02
6.076000000000000000e+03 3.225587844848632812e+01 7.617528438568115234e-01 -3.621816039085388184e-01 -5.946975350379943848e-01 -2.870637476444244385e-01 -1.174825895577669144e-02
6.077000000000000000e+03 3.072217750549316406e+01 1.465177416801452637e+00 -8.024140596389770508e-01 -6.671391725540161133e-01 -4.408659636974334717e-01 -1.213351562619209290e-01
6.078000000000000000e+03 3.905474472045898438e+01 1.155822563171386719e+01 -8.188911676406860352e-01 -7.612602710723876953e-01 -4.740454256534576416e-01 -7.700902223587036133e-01
6.079000000000000000e+03 3.889247131347656250e+01 1.052811908721923828e+01 -7.709431052207946777e-01 -6.948302984237670898e-01 -4.397320151329040527e-01 -7.009533643722534180e-01
6.080000000000000000e+03 3.568600463867187500e+01 5.773900508880615234e+00 -8.036624789237976074e-01 -6.252003908157348633e-01 -4.286588728427886963e-01 -5.169082880020141602e-01
6.081000000000000000e+03 3.399449920654296875e+01 2.474135875701904297e+00 -6.299466490745544434e-01 -5.623236298561096191e-01 -3.576810657978057861e-01 -1.697476953268051147e-01
6.082000000000000000e+03 5.606967163085937500e+01 2.423468399047851562e+01 -2.975628376007080078e-01 1.191185832023620605e+00 2.680868804454803467e-01 1.009206473827362061e-01
6.083000000000000000e+03 3.581689834594726562e+01 -5.524707436561584473e-01 4.521923884749412537e-02 -4.394182562828063965e-01 -1.182597056031227112e-01 5.799791216850280762e-02
6.084000000000000000e+03 3.421405410766601562e+01 -1.596851348876953125e-01 -7.500068843364715576e-02 -5.313290357589721680e-01 -1.818989217281341553e-01 4.719379171729087830e-02
6.085000000000000000e+03 3.170133399963378906e+01 1.128871440887451172e+00 -5.332542061805725098e-01 -6.102999448776245117e-01 -3.430662453174591064e-01 -3.896956518292427063e-02
6.086000000000000000e+03 1.705328750610351562e+01 1.496575546264648438e+01 3.911791741847991943e-02 1.486778110265731812e-01 5.633872002363204956e-02 7.263158261775970459e-02
6.087000000000000000e+03 1.811118125915527344e+01 1.592911720275878906e+01 3.974106535315513611e-02 1.376780867576599121e-01 5.322574824094772339e-02 7.336181402206420898e-02
6.088000000000000000e+03 3.450110626220703125e+01 4.549028873443603516e+00 -8.568918704986572266e-01 -6.060731410980224609e-01 -4.388895034790039062e-01 -4.326500296592712402e-01
6.089000000000000000e+03 3.547315597534179688e+01 5.062663555145263672e+00 -7.760456800460815430e-01 -5.900562405586242676e-01 -4.098305702209472656e-01 -4.465364515781402588e-01
6.090000000000000000e+03 5.474901199340820312e+01 2.582891845703125000e+01 -5.480005145072937012e-01 6.341632008552551270e-01 2.584880776703357697e-02 -2.557919621467590332e-01
6.091000000000000000e+03 6.667666625976562500e+01 2.474544334411621094e+01 -8.459559082984924316e-01 7.277040481567382812e+00 1.929325342178344727e+00 1.528078556060791016e+00
6.092000000000000000e+03 6.485138702392578125e+01 2.763636398315429688e+01 -2.202715910971164703e-02 5.399079799652099609e+00 1.613115787506103516e+00 2.547292232513427734e+00
6.093000000000000000e+03 1.235548782348632812e+01 1.038418197631835938e+01 4.544532299041748047e-02 1.909404397010803223e-01 7.091572880744934082e-02 1.077011972665786743e-02
6.094000000000000000e+03 6.866970825195312500e+01 2.753886222839355469e+01 -1.327656269073486328e+00 1.018155097961425781e+01 2.656168460845947266e+00 1.177378535270690918e+00
6.095000000000000000e+03 6.849021911621093750e+01 2.673357200622558594e+01 -1.276852846145629883e+00 9.455477714538574219e+00 2.453587293624877930e+00 1.195418119430541992e+00
6.096000000000000000e+03 1.817534637451171875e+01 1.695278930664062500e+01 3.350483253598213196e-02 1.304562985897064209e-01 4.918833822011947632e-02 6.588536500930786133e-02
6.097000000000000000e+03 6.167522048950195312e+01 2.446966552734375000e+01 -2.053162083029747009e-02 3.360235691070556641e+00 1.001911282539367676e+00 1.247270107269287109e+00
6.098000000000000000e+03 6.111504745483398438e+01 2.491111946105957031e+01 3.461627662181854248e-02 2.926861047744750977e+00 8.884432315826416016e-01 1.134224176406860352e+00
6.099000000000000000e+03 1.845685958862304688e+01 1.615085792541503906e+01 4.156863316893577576e-02 1.366841495037078857e-01 5.347583815455436707e-02 7.444409281015396118e-02
6.100000000000000000e+03 3.693585586547851562e+01 7.558138370513916016e+00 -7.736694812774658203e-01 -6.705712676048278809e-01 -4.332722127437591553e-01 -6.089490652084350586e-01
6.101000000000000000e+03 3.212293624877929688e+01 1.673284173011779785e+00 -6.562398076057434082e-01 -6.120681762695312500e-01 -3.804923892021179199e-01 -8.401376008987426758e-02
6.102000000000000000e+03 3.898760986328125000e+01 1.215107345581054688e+01 -8.601343631744384766e-01 -8.202948570251464844e-01 -5.041287541389465332e-01 -8.213492631912231445e-01
6.103000000000000000e+03 3.871934509277343750e+01 1.177293491363525391e+01 -8.502681255340576172e-01 -8.215805292129516602e-01 -5.015546083450317383e-01 -8.152526617050170898e-01
6.104000000000000000e+03 6.022198867797851562e+01 2.485480880737304688e+01 1.530500501394271851e-02 2.505130290985107422e+00 7.561305761337280273e-01 9.093061089515686035e-01
6.105000000000000000e+03 6.763515472412109375e+01 2.469676589965820312e+01 -1.032450079917907715e+00 7.963074207305908203e+00 2.079187154769897461e+00 1.272174477577209473e+00
6.106000000000000000e+03 6.334100723266601562e+01 2.642139053344726562e+01 6.298339366912841797e-02 4.053789615631103516e+00 1.235031962394714355e+00 1.842757701873779297e+00
6.107000000000000000e+03 5.310023880004882812e+01 2.471586608886718750e+01 -6.137185692787170410e-01 3.901865184307098389e-01 -6.705960631370544434e-02 -3.401986956596374512e-01
6.108000000000000000e+03 5.371218490600585938e+01 2.624356079101562500e+01 -6.900943517684936523e-01 3.512334227561950684e-01 -1.016582772135734558e-01 -4.165939688682556152e-01
6.109000000000000000e+03 3.328635787963867188e+01 3.316895246505737305e+00 -8.703066706657409668e-01 -6.096292138099670410e-01 -4.439807534217834473e-01 -3.006365597248077393e-01
6.110000000000000000e+03 2.301637077331542969e+01 2.308387184143066406e+01 2.564225345849990845e-02 9.813132137060165405e-02 3.713206946849822998e-02 5.608533322811126709e-02
6.111000000000000000e+03 6.805609130859375000e+01 2.585437774658203125e+01 -1.172497749328613281e+00 8.681208610534667969e+00 2.252613067626953125e+00 1.307613134384155273e+00
6.112000000000000000e+03 5.386318206787109375e+01 2.559224319458007812e+01 -6.192744970321655273e-01 4.559771418571472168e-01 -4.898920282721519470e-02 -3.374009132385253906e-01
6.113000000000000000e+03 5.364987945556640625e+01 2.518840026855468750e+01 -6.043624877929687500e-01 4.552687406539916992e-01 -4.472813382744789124e-02 -3.228072226047515869e-01
6.114000000000000000e+03 2.604628944396972656e+01 2.740115928649902344e+01 2.109105326235294342e-02 8.373574167490005493e-02 3.144804015755653381e-02 4.892519116401672363e-02
6.115000000000000000e+03 3.333480453491210938e+01 2.189583539962768555e+00 -6.490941047668457031e-01 -5.908223986625671387e-01 -3.719749450683593750e-01 -1.467244029045104980e-01
6.116000000000000000e+03 3.355657196044921875e+01 9.701195359230041504e-01 -3.450040817260742188e-01 -5.577896237373352051e-01 -2.708381116390228271e-01 -1.601552963256835938e-02
6.117000000000000000e+03 1.503027725219726562e+01 1.994122314453125000e+01 2.251852303743362427e-03 8.994478732347488403e-02 2.765899337828159332e-02 2.413905784487724304e-02
6.118000000000000000e+03 2.450382232666015625e+01 2.569240570068359375e+01 2.096476219594478607e-02 8.972290903329849243e-02 3.320629894733428955e-02 5.027465522289276123e-02
6.119000000000000000e+03 6.520685577392578125e+01 2.735716438293457031e+01 -1.948165595531463623e-01 5.895896911621093750e+00 1.710324168205261230e+00 2.504016399383544922e+00
6.120000000000000000e+03 3.662916564941406250e+01 -1.340650320053100586e+00 1.840362548828125000e-01 -3.671636581420898438e-01 -5.493822321295738220e-02 7.604943215847015381e-02
6.121000000000000000e+03 1.207947731018066406e+01 1.209654712677001953e+01 2.936867624521255493e-02 1.448801606893539429e-01 5.227464810013771057e-02 9.056703187525272369e-03
6.122000000000000000e+03 1.331062126159667969e+01 1.401204204559326172e+01 1.992423087358474731e-02 1.361645907163619995e-01 4.682664573192596436e-02 2.797005511820316315e-02
6.123000000000000000e+03 3.592197799682617188e+01 -1.000415682792663574e+00 1.254533380270004272e-01 -4.248103201389312744e-01 -8.980710059404373169e-02 7.483198493719100952e-02
6.124000000000000000e+03 1.224440383911132812e+01 1.298264503479003906e+01 2.412946522235870361e-02 1.354873329401016235e-01 4.788503795862197876e-02 1.300648599863052368e-02
6.125000000000000000e+03 6.192997360229492188e+01 5.934796810150146484e+00 4.142266511917114258e-02 4.351807594299316406e+00 1.317969083786010742e+00 6.106204986572265625e-01
6.126000000000000000e+03 2.357605171203613281e+01 2.230549621582031250e+01 3.196063637733459473e-02 1.005704477429389954e-01 3.975932672619819641e-02 6.136482954025268555e-02
6.127000000000000000e+03 1.331308364868164062e+01 1.516098403930664062e+01 1.378853153437376022e-02 1.200528442859649658e-01 4.015241190791130066e-02 2.492804825305938721e-02
6.128000000000000000e+03 5.730652236938476562e+01 2.539267539978027344e+01 -2.235857844352722168e-01 1.325027585029602051e+00 3.304325342178344727e-01 1.962968260049819946e-01
6.129000000000000000e+03 2.464201545715332031e+01 2.473442268371582031e+01 2.606920897960662842e-02 9.223371744155883789e-02 3.549087792634963989e-02 5.439947918057441711e-02
6.130000000000000000e+03 1.381579494476318359e+01 1.530416584014892578e+01 1.477183308452367783e-02 1.259572654962539673e-01 4.221872985363006592e-02 3.005570732057094574e-02
6.131000000000000000e+03 6.310953140258789062e+01 4.901663303375244141e+00 4.366856068372726440e-02 4.680008888244628906e+00 1.417103171348571777e+00 5.971806049346923828e-01
6.132000000000000000e+03 1.757194328308105469e+01 1.802090644836425781e+01 2.221740409731864929e-02 1.209892854094505310e-01 4.296200722455978394e-02 5.435954034328460693e-02
6.133000000000000000e+03 1.854049491882324219e+01 1.827739334106445312e+01 2.733447961509227753e-02 1.209182143211364746e-01 4.447580873966217041e-02 5.951205268502235413e-02
6.134000000000000000e+03 5.892870330810546875e+01 2.438747596740722656e+01 -6.614801287651062012e-02 2.067368745803833008e+00 6.003662347793579102e-01 6.173606514930725098e-01
6.135000000000000000e+03 5.888920593261718750e+01 2.534368133544921875e+01 -5.910955742001533508e-02 1.831044673919677734e+00 5.315805673599243164e-01 5.376121997833251953e-01
6.136000000000000000e+03 6.656594085693359375e+01 2.221753692626953125e+01 -7.377842664718627930e-01 6.669492244720458984e+00 1.779512405395507812e+00 1.146552801132202148e+00
6.137000000000000000e+03 6.606062316894531250e+01 1.759790229797363281e+01 -4.518006443977355957e-01 5.939184188842773438e+00 1.646215081214904785e+00 8.127293586730957031e-01
6.138000000000000000e+03 3.493060302734375000e+01 2.220532178878784180e+00 -4.727608859539031982e-01 -5.055456161499023438e-01 -2.934919595718383789e-01 -1.322235912084579468e-01
6.139000000000000000e+03 3.485176849365234375e+01 -3.230584859848022461e-01 -2.569395489990711212e-02 -4.943981468677520752e-01 -1.560276299715042114e-01 4.784142225980758667e-02
6.140000000000000000e+03 6.199810028076171875e+01 2.506352806091308594e+01 1.503790356218814850e-02 3.425826072692871094e+00 1.032259225845336914e+00 1.364846467971801758e+00
6.141000000000000000e+03 6.731758880615234375e+01 2.368264389038085938e+01 -9.112796187400817871e-01 7.402376651763916016e+00 1.947329163551330566e+00 1.217023015022277832e+00
6.142000000000000000e+03 6.657334136962890625e+01 1.476884078979492188e+01 -3.224957585334777832e-01 5.952106475830078125e+00 1.688883185386657715e+00 6.703392863273620605e-01
6.143000000000000000e+03 6.568153381347656250e+01 1.277787971496582031e+01 -2.123007774353027344e-01 5.567728042602539062e+00 1.606628179550170898e+00 6.665355563163757324e-01
6.144000000000000000e+03 1.487231254577636719e+01 1.770095062255859375e+01 9.581335820257663727e-03 1.097265258431434631e-01 3.579235821962356567e-02 3.175123780965805054e-02
6.145000000000000000e+03 1.409248065948486328e+01 1.696568489074707031e+01 8.659203536808490753e-03 1.077706590294837952e-01 3.492895886301994324e-02 2.623002044856548309e-02
6.146000000000000000e+03 6.348554611206054688e+01 -2.718197584152221680e+00 1.279039978981018066e-01 4.744048118591308594e+00 1.461585640907287598e+00 4.948440492153167725e-01
6.147000000000000000e+03 6.251700210571289062e+01 -2.784344196319580078e+00 1.374129951000213623e-01 4.523934841156005859e+00 1.398404359817504883e+00 5.096216797828674316e-01
6.148000000000000000e+03 1.162675762176513672e+01 1.171137237548828125e+01 3.339154273271560669e-02 1.352856904268264771e-01 5.060316994786262512e-02 1.560599310323596001e-03
6.149000000000000000e+03 1.200260066986083984e+01 1.954094314575195312e+01 -3.341373056173324585e-03 5.919426679611206055e-02 1.675586774945259094e-02 1.666569267399609089e-03
6.150000000000000000e+03 6.671463012695312500e+01 2.293259620666503906e+01 -7.896672487258911133e-01 6.857676982879638672e+00 1.820402979850769043e+00 1.227452039718627930e+00
6.151000000000000000e+03 6.704568481445312500e+01 2.428092765808105469e+01 -8.960390686988830566e-01 7.393949508666992188e+00 1.949373126029968262e+00 1.373896956443786621e+00
6.152000000000000000e+03 6.422877502441406250e+01 5.009295940399169922e+00 2.704045921564102173e-02 4.989451885223388672e+00 1.504947662353515625e+00 5.865983963012695312e-01
6.153000000000000000e+03 6.516441345214843750e+01 6.110317230224609375e+00 -8.546739991288632154e-05 5.255481719970703125e+00 1.576618909835815430e+00 5.916049480438232422e-01
6.154000000000000000e+03 6.464004516601562500e+01 1.941536068916320801e+00 7.664512097835540771e-02 5.065367698669433594e+00 1.542603850364685059e+00 5.575343370437622070e-01
6.155000000000000000e+03 3.962082672119140625e+01 -2.206252813339233398e+00 2.965857088565826416e-01 -6.015823781490325928e-02 7.092824578285217285e-02 9.219063818454742432e-02
6.156000000000000000e+03 3.909828948974609375e+01 -2.813673973083496094e+00 3.341502547264099121e-01 -1.157123893499374390e-01 6.553135812282562256e-02 9.433718770742416382e-02
6.157000000000000000e+03 6.561022186279296875e+01 1.183819007873535156e+01 -1.724441200494766235e-01 5.512588500976562500e+00 1.602043271064758301e+00 6.498740911483764648e-01
6.158000000000000000e+03 6.540702819824218750e+01 1.653754997253417969e+01 -3.611269593238830566e-01 5.602631092071533203e+00 1.572451114654541016e+00 7.944790720939636230e-01
6.159000000000000000e+03 2.717147636413574219e+01 2.964042282104492188e+01 2.147866971790790558e-02 7.822386920452117920e-02 2.991076186299324036e-02 4.357800632715225220e-02
6.160000000000000000e+03 2.416010856628417969e+01 2.645701980590820312e+01 1.800510101020336151e-02 8.713653683662414551e-02 3.154249116778373718e-02 4.718612134456634521e-02
6.161000000000000000e+03 6.384583663940429688e+01 1.198105907440185547e+01 -1.423429548740386963e-01 4.926938533782958984e+00 1.435378670692443848e+00 7.007225751876831055e-01
6.162000000000000000e+03 5.101721572875976562e+01 -1.338900756835937500e+01 2.251103371381759644e-01 2.151858568191528320e+00 7.130906581878662109e-01 1.745694875717163086e-01
6.163000000000000000e+03 2.398201751708984375e+01 2.524288368225097656e+01 2.084732800722122192e-02 9.138049185276031494e-02 3.366834670305252075e-02 5.135733634233474731e-02
6.164000000000000000e+03 2.431514358520507812e+01 2.411830902099609375e+01 2.612124942243099213e-02 9.460193663835525513e-02 3.621695563197135925e-02 5.656930059194564819e-02
6.165000000000000000e+03 2.377724647521972656e+01 2.900196075439453125e+01 1.249112747609615326e-02 7.902886718511581421e-02 2.745599672198295593e-02 3.740727528929710388e-02
6.166000000000000000e+03 6.527731323242187500e+01 8.146011352539062500e+00 -5.714035406708717346e-02 5.330024242401123047e+00 1.581865191459655762e+00 6.143219470977783203e-01
6.167000000000000000e+03 6.340309524536132812e+01 -7.902286052703857422e+00 1.317283958196640015e-01 4.736649036407470703e+00 1.460513114929199219e+00 4.367403686046600342e-01
6.168000000000000000e+03 6.259040451049804688e+01 -1.366460132598876953e+01 1.034972742199897766e-01 4.566245079040527344e+00 1.400922656059265137e+00 3.667374849319458008e-01
6.169000000000000000e+03 6.368318176269531250e+01 -5.580754756927490234e+00 1.296118944883346558e-01 4.806410312652587891e+00 1.480806589126586914e+00 4.644307792186737061e-01
6.170000000000000000e+03 2.846269416809082031e+01 3.031684875488281250e+01 2.325812168419361115e-02 7.747824490070343018e-02 3.022090904414653778e-02 4.285485669970512390e-02
6.171000000000000000e+03 6.438841247558593750e+01 -8.587119102478027344e+00 1.194679811596870422e-01 4.973206996917724609e+00 1.527802467346191406e+00 4.235534071922302246e-01
6.172000000000000000e+03 1.484670352935791016e+01 -2.212056732177734375e+01 2.097222506999969482e-01 -3.988152444362640381e-01 -5.672789737582206726e-02 -3.721554577350616455e-01
6.173000000000000000e+03 6.237009048461914062e+01 -3.828313589096069336e+00 1.414933800697326660e-01 4.508738994598388672e+00 1.395069718360900879e+00 4.942062795162200928e-01
6.174000000000000000e+03 6.645818328857421875e+01 1.575796413421630859e+01 -3.694756627082824707e-01 5.977882862091064453e+00 1.682522177696228027e+00 7.029612064361572266e-01
6.175000000000000000e+03 6.551525878906250000e+01 1.561921405792236328e+01 -3.309420347213745117e-01 5.610512256622314453e+00 1.583871126174926758e+00 7.507963180541992188e-01
6.176000000000000000e+03 6.570192718505859375e+01 1.372789573669433594e+01 -2.487544864416122437e-01 5.604736328125000000e+00 1.606794476509094238e+00 6.835497617721557617e-01
6.177000000000000000e+03 1.724342536926269531e+01 2.600261116027832031e+01 -3.137273481115698814e-03 6.886664777994155884e-02 1.971881091594696045e-02 2.035328932106494904e-02
6.178000000000000000e+03 1.625905990600585938e+01 2.918083000183105469e+01 -6.866845302283763885e-03 4.922158643603324890e-02 1.270642224699258804e-02 1.083539612591266632e-02
6.179000000000000000e+03 4.488537216186523438e+01 -6.128930091857910156e+00 3.967844843864440918e-01 7.807527780532836914e-01 3.532611727714538574e-01 1.352646201848983765e-01
6.180000000000000000e+03 4.069766235351562500e+01 -3.095436573028564453e+00 3.542276918888092041e-01 8.446379750967025757e-02 1.316074430942535400e-01 1.049390062689781189e-01
6.181000000000000000e+03 4.128712081909179688e+01 -3.598730087280273438e+00 3.642077445983886719e-01 1.659544110298156738e-01 1.590486466884613037e-01 1.146042346954345703e-01
6.182000000000000000e+03 4.651087188720703125e+01 -8.139052391052246094e+00 3.705438375473022461e-01 1.125904083251953125e+00 4.489343762397766113e-01 1.423874348402023315e-01
6.183000000000000000e+03 4.633541107177734375e+01 -6.801048278808593750e+00 3.819167017936706543e-01 1.046403050422668457e+00 4.284959137439727783e-01 1.621498316526412964e-01
6.184000000000000000e+03 6.428708648681640625e+01 -6.766119003295898438e+00 1.208557263016700745e-01 4.938234329223632812e+00 1.517727017402648926e+00 4.465310573577880859e-01
6.185000000000000000e+03 6.228641891479492188e+01 -1.508504581451416016e+01 8.688750118017196655e-02 4.509798526763916016e+00 1.379005789756774902e+00 3.545729219913482666e-01
6.186000000000000000e+03 5.200121688842773438e+01 -1.563232421875000000e+01 1.575998365879058838e-01 2.398557186126708984e+00 7.668471336364746094e-01 1.771942079067230225e-01
6.187000000000000000e+03 6.192692947387695312e+01 -1.662649726867675781e+01 8.309885114431381226e-02 4.448666095733642578e+00 1.359529495239257812e+00 3.422171473503112793e-01
6.188000000000000000e+03 6.340066909790039062e+01 -1.694490623474121094e+01 6.997834891080856323e-02 4.751385211944580078e+00 1.446408987045288086e+00 3.473661839962005615e-01
6.189000000000000000e+03 5.307890701293945312e+01 -1.644534111022949219e+01 1.189089566469192505e-01 2.649204492568969727e+00 8.304340243339538574e-01 2.028191983699798584e-01
6.190000000000000000e+03 5.666698837280273438e+01 -1.869644165039062500e+01 7.290989905595779419e-02 3.393749952316284180e+00 1.039997935295104980e+00 2.758878469467163086e-01
6.191000000000000000e+03 6.332624053955078125e+01 2.742805004119873047e+00 7.657796889543533325e-02 4.737297058105468750e+00 1.444162487983703613e+00 5.702368021011352539e-01
6.192000000000000000e+03 5.853940963745117188e+01 -1.735622215270996094e+01 9.337565302848815918e-02 3.762020587921142578e+00 1.156618952751159668e+00 3.012851774692535400e-01
6.193000000000000000e+03 6.099919891357421875e+01 -2.015467453002929688e+01 6.807880848646163940e-02 4.314485073089599609e+00 1.314769148826599121e+00 3.285350799560546875e-01
6.194000000000000000e+03 1.242953586578369141e+01 -2.669915771484375000e+01 1.632056981325149536e-01 -5.909874439239501953e-01 -1.283345222473144531e-01 -2.956598103046417236e-01
6.195000000000000000e+03 1.897691535949707031e+01 -2.732183074951171875e+01 2.530469894409179688e-01 -8.640587329864501953e-02 4.999233409762382507e-02 -3.132041692733764648e-01
6.196000000000000000e+03 6.434156036376953125e+01 -1.174624347686767578e+01 9.127788990736007690e-02 4.953248500823974609e+00 1.513357996940612793e+00 3.923426866531372070e-01
6.197000000000000000e+03 4.844548034667968750e+01 -1.189509010314941406e+01 2.914583981037139893e-01 1.580490589141845703e+00 5.615847110748291016e-01 1.323352903127670288e-01
6.198000000000000000e+03 6.626956176757812500e+01 2.902363967895507812e+01 -3.055258989334106445e-01 7.769211292266845703e+00 2.239105701446533203e+00 3.284354448318481445e+00
6.199000000000000000e+03 4.028200149536132812e+01 1.402323341369628906e+01 -8.648205995559692383e-01 -8.116558790206909180e-01 -5.029429197311401367e-01 -8.599876761436462402e-01
6.200000000000000000e+03 4.679713439941406250e+01 1.930586242675781250e+01 -6.833035945892333984e-01 -3.554854393005371094e-01 -3.116367161273956299e-01 -6.305185556411743164e-01
6.201000000000000000e+03 5.053739166259765625e+01 2.210487556457519531e+01 -6.249498724937438965e-01 1.093275099992752075e-01 -1.546867191791534424e-01 -4.202995002269744873e-01
6.202000000000000000e+03 6.750254821777343750e+01 2.855502510070800781e+01 -1.017159461975097656e+00 9.785409927368164062e+00 2.630475044250488281e+00 2.390301704406738281e+00
6.203000000000000000e+03 6.702579498291015625e+01 2.904128265380859375e+01 -7.535726428031921387e-01 9.351116180419921875e+00 2.579262971878051758e+00 3.008749723434448242e+00
6.204000000000000000e+03 6.650902557373046875e+01 2.925969314575195312e+01 -3.899810612201690674e-01 8.370306015014648438e+00 2.394097566604614258e+00 3.363996982574462891e+00
6.205000000000000000e+03 5.083853912353515625e+01 2.330238151550292969e+01 -6.925953626632690430e-01 2.547276951372623444e-02 -2.001367807388305664e-01 -4.798524975776672363e-01
6.206000000000000000e+03 4.275157928466796875e+01 1.448275089263916016e+01 -6.938328742980957031e-01 -5.033543109893798828e-01 -3.591561615467071533e-01 -6.883350610733032227e-01
6.207000000000000000e+03 4.839475631713867188e+01 2.026343727111816406e+01 -6.496665477752685547e-01 -1.512641608715057373e-01 -2.402792125940322876e-01 -5.258347392082214355e-01
6.208000000000000000e+03 4.655080032348632812e+01 1.894008255004882812e+01 -6.774457097053527832e-01 -3.610198497772216797e-01 -3.115396797657012939e-01 -6.332838535308837891e-01
6.209000000000000000e+03 5.125451660156250000e+01 2.343994712829589844e+01 -6.656336188316345215e-01 1.053802594542503357e-01 -1.680760085582733154e-01 -4.478546082973480225e-01
6.210000000000000000e+03 4.531618118286132812e+01 1.812391662597656250e+01 -7.039166688919067383e-01 -4.800897538661956787e-01 -3.552019298076629639e-01 -7.081968784332275391e-01
6.211000000000000000e+03 4.627656173706054688e+01 1.857522773742675781e+01 -6.687263846397399902e-01 -3.680185079574584961e-01 -3.110234737396240234e-01 -6.375738382339477539e-01
6.212000000000000000e+03 4.704854202270507812e+01 2.030006027221679688e+01 -7.402022480964660645e-01 -4.103361070156097412e-01 -3.451614975929260254e-01 -6.697567105293273926e-01
6.213000000000000000e+03 3.163662528991699219e+01 1.592312693595886230e+00 -6.957418322563171387e-01 -6.475099921226501465e-01 -4.029755592346191406e-01 -1.044479683041572571e-01
6.214000000000000000e+03 4.855444717407226562e+01 2.070256805419921875e+01 -6.658515334129333496e-01 -1.671518087387084961e-01 -2.499010115861892700e-01 -5.366216897964477539e-01
6.215000000000000000e+03 4.923308181762695312e+01 2.143663406372070312e+01 -6.785738468170166016e-01 -1.083688959479331970e-01 -2.360828220844268799e-01 -5.174450278282165527e-01
6.216000000000000000e+03 5.266883087158203125e+01 2.460968780517578125e+01 -6.441384553909301758e-01 2.950245141983032227e-01 -1.047341823577880859e-01 -3.796011507511138916e-01
6.217000000000000000e+03 5.316315078735351562e+01 2.420688056945800781e+01 -5.621078610420227051e-01 4.666106998920440674e-01 -2.864915318787097931e-02 -2.850356101989746094e-01
6.218000000000000000e+03 4.440021133422851562e+01 1.772262573242187500e+01 -7.437769174575805664e-01 -5.812646746635437012e-01 -3.975124955177307129e-01 -7.796200513839721680e-01
6.219000000000000000e+03 4.666756439208984375e+01 1.829857826232910156e+01 -6.222699284553527832e-01 -2.684283256530761719e-01 -2.672094702720642090e-01 -5.753015279769897461e-01
6.220000000000000000e+03 4.505965042114257812e+01 1.710117721557617188e+01 -6.586241722106933594e-01 -4.122274219989776611e-01 -3.212554752826690674e-01 -6.630431413650512695e-01
6.221000000000000000e+03 5.164080429077148438e+01 2.366683578491210938e+01 -6.494573354721069336e-01 1.708469539880752563e-01 -1.435831189155578613e-01 -4.200395047664642334e-01
6.222000000000000000e+03 4.735702896118164062e+01 1.997343444824218750e+01 -6.930699348449707031e-01 -3.128721117973327637e-01 -3.017826080322265625e-01 -6.125341653823852539e-01
6.223000000000000000e+03 4.471713638305664062e+01 1.742047309875488281e+01 -7.035072445869445801e-01 -4.993036389350891113e-01 -3.608432710170745850e-01 -7.225624918937683105e-01
6.224000000000000000e+03 4.569150543212890625e+01 1.783792686462402344e+01 -6.583459377288818359e-01 -3.907917439937591553e-01 -3.147413134574890137e-01 -6.488655209541320801e-01
6.225000000000000000e+03 3.737519454956054688e+01 8.567202568054199219e+00 -7.933145761489868164e-01 -7.073382139205932617e-01 -4.501958489418029785e-01 -6.639835238456726074e-01
6.226000000000000000e+03 3.811755371093750000e+01 8.616400718688964844e+00 -7.300171852111816406e-01 -6.294214725494384766e-01 -4.078315794467926025e-01 -6.076222658157348633e-01
6.227000000000000000e+03 3.931891250610351562e+01 1.030719947814941406e+01 -7.248172163963317871e-01 -6.246591210365295410e-01 -4.048429131507873535e-01 -6.481751799583435059e-01
6.228000000000000000e+03 3.978614425659179688e+01 1.116299057006835938e+01 -7.374532222747802734e-01 -6.318574547767639160e-01 -4.107932150363922119e-01 -6.787358522415161133e-01
6.229000000000000000e+03 4.538511657714843750e+01 1.747043800354003906e+01 -6.592057943344116211e-01 -4.008398950099945068e-01 -3.180136978626251221e-01 -6.554185748100280762e-01
6.230000000000000000e+03 5.355049514770507812e+01 2.470353507995605469e+01 -5.729784369468688965e-01 4.912549555301666260e-01 -2.451704069972038269e-02 -2.896045148372650146e-01
6.231000000000000000e+03 5.201627731323242188e+01 2.386610412597656250e+01 -6.399014592170715332e-01 2.314122319221496582e-01 -1.225467771291732788e-01 -3.907509446144104004e-01
6.232000000000000000e+03 5.239082717895507812e+01 2.402636146545410156e+01 -6.182648539543151855e-01 2.978668808937072754e-01 -9.611938893795013428e-02 -3.596806526184082031e-01
6.233000000000000000e+03 3.606831359863281250e+01 6.080955505371093750e+00 -7.770323157310485840e-01 -6.219389438629150391e-01 -4.196913838386535645e-01 -5.245916247367858887e-01
6.234000000000000000e+03 4.343770980834960938e+01 1.566040515899658203e+01 -7.052698731422424316e-01 -5.131601691246032715e-01 -3.655290305614471436e-01 -7.200590968132019043e-01
6.235000000000000000e+03 4.310354614257812500e+01 1.506983184814453125e+01 -6.995232701301574707e-01 -5.063550472259521484e-01 -3.617634773254394531e-01 -7.040469646453857422e-01
6.236000000000000000e+03 6.871870422363281250e+01 2.827129936218261719e+01 -1.313753843307495117e+00 1.084444808959960938e+01 2.859208345413208008e+00 1.202337384223937988e+00
6.237000000000000000e+03 2.252921104431152344e+01 2.080435943603515625e+01 3.520144894719123840e-02 1.068784743547439575e-01 4.262397810816764832e-02 6.590054184198379517e-02
6.238000000000000000e+03 4.357012939453125000e+01 1.515484237670898438e+01 -6.685837507247924805e-01 -4.475207626819610596e-01 -3.348313570022583008e-01 -6.690794825553894043e-01
6.239000000000000000e+03 4.036978912353515625e+01 1.143259239196777344e+01 -7.077230215072631836e-01 -5.779081583023071289e-01 -3.856893479824066162e-01 -6.498277783393859863e-01
6.240000000000000000e+03 4.969013595581054688e+01 2.127457237243652344e+01 -6.273176074028015137e-01 9.340167976915836334e-03 -1.853932291269302368e-01 -4.529893398284912109e-01
6.241000000000000000e+03 4.425172805786132812e+01 1.642119979858398438e+01 -6.818006038665771484e-01 -4.641521573066711426e-01 -3.437858223915100098e-01 -6.967581510543823242e-01
6.242000000000000000e+03 4.391613006591796875e+01 1.577186203002929688e+01 -6.766157150268554688e-01 -4.566393196582794189e-01 -3.399765193462371826e-01 -6.844752430915832520e-01
6.243000000000000000e+03 3.306687927246093750e+01 1.134211182594299316e+00 -4.268599450588226318e-01 -5.971069335937500000e-01 -3.071900606155395508e-01 -3.315158560872077942e-02
6.244000000000000000e+03 3.845134735107421875e+01 9.026000022888183594e+00 -7.212370634078979492e-01 -6.240931749343872070e-01 -4.035990536212921143e-01 -6.150573492050170898e-01
6.245000000000000000e+03 3.876473999023437500e+01 9.448802947998046875e+00 -7.214385271072387695e-01 -6.217013597488403320e-01 -4.029419720172882080e-01 -6.246998310089111328e-01
6.246000000000000000e+03 6.460319519042968750e+01 2.728153228759765625e+01 -4.052092134952545166e-02 5.142293453216552734e+00 1.530531764030456543e+00 2.356549024581909180e+00
6.247000000000000000e+03 1.531382083892822266e+01 1.388857555389404297e+01 2.994708903133869171e-02 1.584029793739318848e-01 5.650502070784568787e-02 5.975862219929695129e-02
6.248000000000000000e+03 1.581860351562500000e+01 1.491493034362792969e+01 2.885203436017036438e-02 1.465145498514175415e-01 5.260997638106346130e-02 5.809251964092254639e-02
6.249000000000000000e+03 1.593971157073974609e+01 1.374221515655517578e+01 3.747696056962013245e-02 1.620845049619674683e-01 5.986844003200531006e-02 7.058572024106979370e-02
6.250000000000000000e+03 1.563300037384033203e+01 1.553051948547363281e+01 2.342940121889114380e-02 1.381999999284744263e-01 4.848882183432579041e-02 5.245982855558395386e-02
6.251000000000000000e+03 1.462918853759765625e+01 1.283748626708984375e+01 3.396644815802574158e-02 1.717990636825561523e-01 6.172965466976165771e-02 5.661401525139808655e-02
6.252000000000000000e+03 1.536687564849853516e+01 1.299396514892578125e+01 3.784456849098205566e-02 1.732330024242401123e-01 6.332327425479888916e-02 6.699619442224502563e-02
6.253000000000000000e+03 6.844921112060546875e+01 2.867030906677246094e+01 -1.264717102050781250e+00 1.105405998229980469e+01 2.936802864074707031e+00 1.519765615463256836e+00
6.254000000000000000e+03 5.580955123901367188e+01 2.524554443359375000e+01 -3.736294806003570557e-01 9.657725095748901367e-01 1.776429116725921631e-01 -4.033438861370086670e-02
6.255000000000000000e+03 5.622080612182617188e+01 2.519560813903808594e+01 -3.244507908821105957e-01 1.081649303436279297e+00 2.271595597267150879e-01 3.529326245188713074e-02
6.256000000000000000e+03 3.775687789916992188e+01 8.228189468383789062e+00 -7.380606532096862793e-01 -6.402596831321716309e-01 -4.134961068630218506e-01 -6.030278801918029785e-01
6.257000000000000000e+03 3.495137405395507812e+01 4.812100887298583984e+00 -8.190055489540100098e-01 -6.117880940437316895e-01 -4.292380809783935547e-01 -4.499060213565826416e-01
6.258000000000000000e+03 3.775077056884765625e+01 6.661519527435302734e+00 -6.451397538185119629e-01 -5.219960808753967285e-01 -3.501407504081726074e-01 -4.633136987686157227e-01
6.259000000000000000e+03 3.291258621215820312e+01 2.427860736846923828e+00 -7.423555850982666016e-01 -6.025009751319885254e-01 -4.034569561481475830e-01 -1.723095923662185669e-01
6.260000000000000000e+03 3.255816268920898438e+01 2.191837787628173828e+00 -7.284376621246337891e-01 -6.062187552452087402e-01 -4.003969430923461914e-01 -1.551440656185150146e-01
6.261000000000000000e+03 3.940825653076171875e+01 1.135107707977294922e+01 -7.773739099502563477e-01 -7.008183002471923828e-01 -4.434576630592346191e-01 -7.252648472785949707e-01
6.262000000000000000e+03 6.811267852783203125e+01 2.840852928161621094e+01 -1.227820873260498047e+00 1.044371223449707031e+01 2.764767408370971680e+00 1.813691735267639160e+00
6.263000000000000000e+03 6.825458526611328125e+01 2.725000572204589844e+01 -1.249936103820800781e+00 9.657771110534667969e+00 2.522350549697875977e+00 1.441143989562988281e+00
6.264000000000000000e+03 6.406248474121093750e+01 2.657317924499511719e+01 -4.099997505545616150e-02 4.746759414672851562e+00 1.411727905273437500e+00 2.066308975219726562e+00
6.265000000000000000e+03 6.735562896728515625e+01 2.580535697937011719e+01 -1.026688575744628906e+00 8.109593391418457031e+00 2.124871492385864258e+00 1.584372282028198242e+00
6.266000000000000000e+03 2.034516716003417969e+01 1.961334991455078125e+01 3.042357414960861206e-02 1.138818189501762390e-01 4.329161718487739563e-02 6.267222017049789429e-02
6.267000000000000000e+03 2.089677810668945312e+01 1.957438468933105469e+01 3.393597528338432312e-02 1.137484833598136902e-01 4.430533573031425476e-02 6.583759933710098267e-02
6.268000000000000000e+03 1.661887741088867188e+01 2.056533050537109375e+01 6.096132099628448486e-03 9.737116098403930664e-02 3.104018792510032654e-02 3.376784920692443848e-02
6.269000000000000000e+03 5.667070388793945312e+01 2.508460044860839844e+01 -2.721699178218841553e-01 1.228927373886108398e+00 2.870272397994995117e-01 1.203191652894020081e-01
6.270000000000000000e+03 3.956066513061523438e+01 1.073724079132080078e+01 -7.289131879806518555e-01 -6.295254826545715332e-01 -4.075315892696380615e-01 -6.634123921394348145e-01
6.271000000000000000e+03 3.641527938842773438e+01 6.452168464660644531e+00 -7.589178085327148438e-01 -6.150302290916442871e-01 -4.121844172477722168e-01 -5.374565124511718750e-01
6.272000000000000000e+03 2.369561576843261719e+01 2.287031173706054688e+01 2.900130674242973328e-02 9.870001673698425293e-02 3.831039741635322571e-02 5.976330488920211792e-02
6.273000000000000000e+03 4.704527664184570312e+01 1.966105079650878906e+01 -6.945129632949829102e-01 -3.437384963035583496e-01 -3.114754259586334229e-01 -6.261032223701477051e-01
6.274000000000000000e+03 6.555687713623046875e+01 2.152333259582519531e+01 -5.832052826881408691e-01 6.016197204589843750e+00 1.629897594451904297e+00 1.157143235206604004e+00
6.275000000000000000e+03 6.309070205688476562e+01 2.587584686279296875e+01 1.799450069665908813e-02 3.988379240036010742e+00 1.201912164688110352e+00 1.707762956619262695e+00
6.276000000000000000e+03 6.383456039428710938e+01 2.610821723937988281e+01 -6.534278392791748047e-02 4.598337650299072266e+00 1.359898447990417480e+00 1.928747177124023438e+00
6.277000000000000000e+03 6.074308776855468750e+01 2.436871719360351562e+01 -1.740834210067987442e-03 2.867090225219726562e+00 8.596047759056091309e-01 1.044277548789978027e+00
6.278000000000000000e+03 5.934491348266601562e+01 2.485053634643554688e+01 -3.009932488203048706e-02 2.126331567764282227e+00 6.288696527481079102e-01 6.866492033004760742e-01
6.279000000000000000e+03 5.443143844604492188e+01 2.558473205566406250e+01 -5.602725148200988770e-01 5.867869853973388672e-01 7.954330183565616608e-03 -2.698598504066467285e-01
6.280000000000000000e+03 5.004928207397460938e+01 2.379356575012207031e+01 -8.008176088333129883e-01 -1.985706239938735962e-01 -2.998164594173431396e-01 -6.217201948165893555e-01
6.281000000000000000e+03 4.999291229248046875e+01 2.286660575866699219e+01 -7.360878586769104004e-01 -1.168700084090232849e-01 -2.558873593807220459e-01 -5.523878335952758789e-01
6.282000000000000000e+03 6.228290557861328125e+01 2.405919837951660156e+01 -9.274268150329589844e-02 3.837882280349731445e+00 1.123541831970214844e+00 1.359167933464050293e+00
6.283000000000000000e+03 3.444064712524414062e+01 3.240637302398681641e+00 -6.954505443572998047e-01 -5.532474517822265625e-01 -3.746093809604644775e-01 -2.541355490684509277e-01
6.284000000000000000e+03 2.170168304443359375e+01 2.070484352111816406e+01 3.216712921857833862e-02 1.083093881607055664e-01 4.214295372366905212e-02 6.365805864334106445e-02
6.285000000000000000e+03 4.038157272338867188e+01 1.260823822021484375e+01 -7.758705615997314453e-01 -6.732633709907531738e-01 -4.347401857376098633e-01 -7.378133535385131836e-01
6.286000000000000000e+03 4.235404205322265625e+01 1.393775272369384766e+01 -6.898193359375000000e-01 -5.123544931411743164e-01 -3.606521785259246826e-01 -6.820890307426452637e-01
6.287000000000000000e+03 6.794420623779296875e+01 2.650228309631347656e+01 -1.179281234741210938e+00 8.925354957580566406e+00 2.323822021484375000e+00 1.503685474395751953e+00
6.288000000000000000e+03 1.928229713439941406e+01 1.949946594238281250e+01 2.493063919246196747e-02 1.139511540532112122e-01 4.166453704237937927e-02 5.742923915386199951e-02
6.289000000000000000e+03 1.787364196777343750e+01 1.634338760375976562e+01 3.549912571907043457e-02 1.352689415216445923e-01 5.123041942715644836e-02 6.809563189744949341e-02
6.290000000000000000e+03 1.699077224731445312e+01 1.724565315246582031e+01 2.329793758690357208e-02 1.257212609052658081e-01 4.470575973391532898e-02 5.465449765324592590e-02
6.291000000000000000e+03 1.281666374206542969e+01 1.323782157897949219e+01 2.293192781507968903e-02 1.405596584081649780e-01 4.904747754335403442e-02 2.209271490573883057e-02
6.292000000000000000e+03 1.409140110015869141e+01 1.288471794128417969e+01 2.903445996344089508e-02 1.670898646116256714e-01 5.883729457855224609e-02 4.645596444606781006e-02
6.293000000000000000e+03 5.852183532714843750e+01 2.491301345825195312e+01 -8.801810443401336670e-02 1.793937444686889648e+00 5.117757916450500488e-01 4.950505495071411133e-01
6.294000000000000000e+03 5.546150588989257812e+01 2.523718643188476562e+01 -4.115518033504486084e-01 8.816996216773986816e-01 1.410443335771560669e-01 -8.879268914461135864e-02
6.295000000000000000e+03 3.354898834228515625e+01 2.661726713180541992e+00 -7.097438573837280273e-01 -5.806232094764709473e-01 -3.871101140975952148e-01 -2.003674656152725220e-01
6.296000000000000000e+03 1.403464126586914062e+01 1.344772052764892578e+01 2.576408721506595612e-02 1.551834046840667725e-01 5.428424850106239319e-02 4.232592508196830750e-02
6.297000000000000000e+03 1.491943550109863281e+01 1.620022010803222656e+01 1.555657759308815002e-02 1.241789758205413818e-01 4.192066565155982971e-02 3.920103982090950012e-02
6.298000000000000000e+03 1.699599647521972656e+01 1.578994369506835938e+01 3.290992602705955505e-02 1.402445435523986816e-01 5.194634199142456055e-02 6.506112217903137207e-02
6.299000000000000000e+03 3.418838882446289062e+01 2.880051136016845703e+00 -6.619566679000854492e-01 -5.602924823760986328e-01 -3.666747510433197021e-01 -2.144564837217330933e-01
6.300000000000000000e+03 3.666740417480468750e+01 9.751047194004058838e-02 -1.493104360997676849e-02 -3.765022754669189453e-01 -1.174299940466880798e-01 3.713682666420936584e-02
6.301000000000000000e+03 3.832748794555664062e+01 -1.816292285919189453e+00 2.505474388599395752e-01 -2.096660584211349487e-01 1.226441282778978348e-02 8.306255936622619629e-02
6.302000000000000000e+03 3.722011184692382812e+01 -1.021761536598205566e+00 1.540181487798690796e-01 -3.272029757499694824e-01 -5.195544660091400146e-02 7.178058475255966187e-02
6.303000000000000000e+03 1.487423801422119141e+01 1.695713424682617188e+01 1.242918986827135086e-02 1.167490407824516296e-01 3.875346854329109192e-02 3.535988926887512207e-02
6.304000000000000000e+03 2.024851608276367188e+01 2.640522193908691406e+01 4.182920791208744049e-03 8.107755333185195923e-02 2.557814307510852814e-02 3.303711488842964172e-02
6.305000000000000000e+03 6.282702255249023438e+01 2.033903884887695312e+01 -2.851054668426513672e-01 4.497182369232177734e+00 1.263622999191284180e+00 1.093454003334045410e+00
6.306000000000000000e+03 2.504911804199218750e+01 2.760951805114746094e+01 1.866127736866474152e-02 8.378051966428756714e-02 3.073254041373729706e-02 4.485746100544929504e-02
6.307000000000000000e+03 2.386826324462890625e+01 2.754304885864257812e+01 1.279276795685291290e-02 8.359800279140472412e-02 2.891723066568374634e-02 4.180749878287315369e-02
6.308000000000000000e+03 6.479081726074218750e+01 1.281907081604003906e+01 -1.908557265996932983e-01 5.262039661407470703e+00 1.521355271339416504e+00 6.954689621925354004e-01
6.309000000000000000e+03 3.699926376342773438e+01 8.248727798461914062e+00 -8.085641264915466309e-01 -7.235352396965026855e-01 -4.596298038959503174e-01 -6.686418652534484863e-01
6.310000000000000000e+03 1.499024486541748047e+01 1.546648883819580078e+01 2.038780413568019867e-02 1.359284371137619019e-01 4.689487442374229431e-02 4.489756003022193909e-02
6.311000000000000000e+03 6.257192611694335938e+01 2.470288085937500000e+01 -6.284713745117187500e-02 3.881536006927490234e+00 1.145606637001037598e+00 1.473628520965576172e+00
6.312000000000000000e+03 6.575381469726562500e+01 1.838582038879394531e+01 -4.697658717632293701e-01 5.856059074401855469e+00 1.615887999534606934e+00 8.771182894706726074e-01
6.313000000000000000e+03 6.536924743652343750e+01 1.898721313476562500e+01 -4.755625724792480469e-01 5.747553825378417969e+00 1.581597328186035156e+00 9.321808815002441406e-01
6.314000000000000000e+03 1.824338912963867188e+01 1.884865188598632812e+01 2.149846963584423065e-02 1.157329604029655457e-01 4.116942733526229858e-02 5.422039702534675598e-02
6.315000000000000000e+03 1.814080238342285156e+01 1.788861274719238281e+01 2.678109332919120789e-02 1.227484047412872314e-01 4.485885053873062134e-02 5.906148999929428101e-02
6.316000000000000000e+03 6.671862792968750000e+01 2.349169349670410156e+01 -8.135468959808349609e-01 7.002120018005371094e+00 1.856572031974792480e+00 1.311419725418090820e+00
6.317000000000000000e+03 6.362676239013671875e+01 2.557609939575195312e+01 -9.771008044481277466e-02 4.512334823608398438e+00 1.324387431144714355e+00 1.781986236572265625e+00
6.318000000000000000e+03 3.470581436157226562e+01 3.792719170451164246e-02 -7.273237407207489014e-02 -5.057181119918823242e-01 -1.735351532697677612e-01 3.336123749613761902e-02
6.319000000000000000e+03 1.490302276611328125e+01 1.836604690551757812e+01 7.214544340968132019e-03 1.032251864671707153e-01 3.313191980123519897e-02 2.920581586658954620e-02
6.320000000000000000e+03 6.709046936035156250e+01 2.520093345642089844e+01 -9.532115459442138672e-01 7.724751949310302734e+00 2.031462192535400391e+00 1.530607223510742188e+00
6.321000000000000000e+03 3.805662536621093750e+01 -1.256242394447326660e+00 1.921218037605285645e-01 -2.464721649885177612e-01 -1.630510762333869934e-02 7.871876657009124756e-02
6.322000000000000000e+03 6.727996063232421875e+01 2.735344123840332031e+01 -1.002962946891784668e+00 8.739744186401367188e+00 2.321034431457519531e+00 2.096041440963745117e+00
6.323000000000000000e+03 6.598654174804687500e+01 2.690997505187988281e+01 -5.545550584793090820e-01 6.908077716827392578e+00 1.906056880950927734e+00 2.307840585708618164e+00
6.324000000000000000e+03 4.598528289794921875e+01 -5.692718029022216797e+00 3.721576035022735596e-01 9.673039913177490234e-01 4.018384814262390137e-01 1.730737835168838501e-01
6.325000000000000000e+03 4.547974777221679688e+01 -4.826180458068847656e+00 3.689172267913818359e-01 8.518412113189697266e-01 3.662275373935699463e-01 1.722217053174972534e-01
6.326000000000000000e+03 2.301141166687011719e+01 2.229812622070312500e+01 2.834752015769481659e-02 1.006981730461120605e-01 3.871370851993560791e-02 5.995570868253707886e-02
6.327000000000000000e+03 2.232057380676269531e+01 2.160417556762695312e+01 2.939586527645587921e-02 1.036829575896263123e-01 3.992364555597305298e-02 6.108226627111434937e-02
6.328000000000000000e+03 6.508753967285156250e+01 1.995483207702636719e+01 -4.956915676593780518e-01 5.652349472045898438e+00 1.546997427940368652e+00 1.042777180671691895e+00
6.329000000000000000e+03 4.297746276855468750e+01 -3.626579523086547852e+00 3.619006574153900146e-01 4.129213392734527588e-01 2.324465960264205933e-01 1.393875479698181152e-01
6.330000000000000000e+03 4.807212448120117188e+01 -8.787547111511230469e+00 3.438626825809478760e-01 1.416179418563842773e+00 5.280126333236694336e-01 1.705746799707412720e-01
6.331000000000000000e+03 4.865416336059570312e+01 -9.878293991088867188e+00 3.144540488719940186e-01 1.569935321807861328e+00 5.653167963027954102e-01 1.600121557712554932e-01
6.332000000000000000e+03 4.359527206420898438e+01 -4.468319416046142578e+00 3.832711875438690186e-01 5.400536060333251953e-01 2.769974470138549805e-01 1.414649337530136108e-01
6.333000000000000000e+03 4.440795898437500000e+01 -4.292540073394775391e+00 3.671074807643890381e-01 6.590636372566223145e-01 3.078513443470001221e-01 1.528775840997695923e-01
6.334000000000000000e+03 6.479342651367187500e+01 7.454245567321777344e+00 -2.055004239082336426e-02 5.185278892517089844e+00 1.549418687820434570e+00 6.024615168571472168e-01
6.335000000000000000e+03 4.516061401367187500e+01 -4.017491340637207031e+00 3.506646156311035156e-01 7.770797014236450195e-01 3.383232951164245605e-01 1.787903308868408203e-01
6.336000000000000000e+03 4.241240310668945312e+01 -3.269798278808593750e+00 3.411949574947357178e-01 3.279095292091369629e-01 2.007313519716262817e-01 1.337480396032333374e-01
6.337000000000000000e+03 6.281986618041992188e+01 -9.261832237243652344e+00 1.281076371669769287e-01 4.596657276153564453e+00 1.417429447174072266e+00 4.159708023071289062e-01
6.338000000000000000e+03 1.602286529541015625e+01 1.942520141601562500e+01 7.457401137799024582e-03 1.021409854292869568e-01 3.287951648235321045e-02 3.401136398315429688e-02
6.339000000000000000e+03 1.578065395355224609e+01 2.029009628295898438e+01 4.789375234395265579e-03 9.366908669471740723e-02 2.953753992915153503e-02 2.875380963087081909e-02
6.340000000000000000e+03 6.480339813232421875e+01 1.457760047912597656e+01 -2.584127485752105713e-01 5.323408603668212891e+00 1.519498825073242188e+00 7.427449226379394531e-01
6.341000000000000000e+03 6.565511322021484375e+01 1.467507457733154297e+01 -2.932258546352386475e-01 5.625852108001708984e+00 1.599787950515747070e+00 7.127916216850280762e-01
6.342000000000000000e+03 5.961506652832031250e+01 -1.607956767082214355e+00 1.780428439378738403e-01 3.813725233078002930e+00 1.197530388832092285e+00 5.011703372001647949e-01
6.343000000000000000e+03 6.230341339111328125e+01 -4.787551879882812500e+00 1.481347084045410156e-01 4.487537384033203125e+00 1.390701651573181152e+00 4.697757363319396973e-01
6.344000000000000000e+03 1.435498905181884766e+01 1.848781204223632812e+01 4.533984232693910599e-03 9.630932658910751343e-02 3.025299310684204102e-02 2.313203550875186920e-02
6.345000000000000000e+03 1.635011672973632812e+01 1.705049514770507812e+01 2.070290595293045044e-02 1.263479292392730713e-01 4.411524906754493713e-02 5.006330460309982300e-02
6.346000000000000000e+03 6.262876510620117188e+01 -5.076199769973754883e-01 1.296123564243316650e-01 4.544074058532714844e+00 1.402105927467346191e+00 5.314834713935852051e-01
6.347000000000000000e+03 2.584406852722167969e+01 3.048467826843261719e+01 1.693925261497497559e-02 7.673145085573196411e-02 2.810121141374111176e-02 3.747735545039176941e-02
6.348000000000000000e+03 6.472044372558593750e+01 1.191659259796142578e+01 -1.620572954416275024e-01 5.216847419738769531e+00 1.516437053680419922e+00 6.788849234580993652e-01
6.349000000000000000e+03 6.448152923583984375e+01 8.224163055419921875e+00 -4.285531863570213318e-02 5.089666366577148438e+00 1.514043331146240234e+00 6.244072318077087402e-01
6.350000000000000000e+03 2.756154060363769531e+01 3.467501831054687500e+01 1.865858957171440125e-02 6.996629387140274048e-02 2.658746391534805298e-02 2.646594867110252380e-02
6.351000000000000000e+03 1.672267341613769531e+01 2.314979362487792969e+01 7.294550887309014797e-04 8.108594268560409546e-02 2.454461902379989624e-02 2.562112174928188324e-02
6.352000000000000000e+03 2.000530052185058594e+01 2.474034690856933594e+01 8.470132946968078613e-03 8.796431124210357666e-02 2.893033251166343689e-02 3.756344318389892578e-02
6.353000000000000000e+03 4.063204193115234375e+01 -1.927784085273742676e+00 2.777587771415710449e-01 6.458774954080581665e-02 1.027039587497711182e-01 1.040644571185112000e-01
6.354000000000000000e+03 6.341430282592773438e+01 -1.108799457550048828e+01 1.126163527369499207e-01 4.752119541168212891e+00 1.459420680999755859e+00 3.963931500911712646e-01
6.355000000000000000e+03 5.239691925048828125e+01 -1.330697917938232422e+01 2.055251300334930420e-01 2.425964593887329102e+00 7.894468903541564941e-01 2.084314227104187012e-01
6.356000000000000000e+03 5.024367141723632812e+01 -1.165770149230957031e+01 2.772828340530395508e-01 1.950028657913208008e+00 6.681934595108032227e-01 1.787748783826828003e-01
6.357000000000000000e+03 1.847814178466796875e+01 2.802108764648437500e+01 -2.626534085720777512e-03 6.719540059566497803e-02 1.937066018581390381e-02 2.127564698457717896e-02
6.358000000000000000e+03 4.960259246826171875e+01 -1.286714076995849609e+01 2.435591816902160645e-01 1.821387887001037598e+00 6.194841265678405762e-01 1.424365341663360596e-01
6.359000000000000000e+03 2.198023986816406250e+01 3.080558586120605469e+01 4.424118436872959137e-03 7.037110626697540283e-02 2.243856713175773621e-02 2.660517208278179169e-02
6.360000000000000000e+03 6.171564483642578125e+01 -8.757093429565429688e+00 1.458156555891036987e-01 4.364684104919433594e+00 1.353149890899658203e+00 4.178807437419891357e-01
6.361000000000000000e+03 2.331741333007812500e+01 2.599817848205566406e+01 1.600084453821182251e-02 8.878042548894882202e-02 3.143438324332237244e-02 4.549678415060043335e-02
6.362000000000000000e+03 2.353137588500976562e+01 2.461284065246582031e+01 2.200397476553916931e-02 9.308227151632308960e-02 3.452587500214576721e-02 5.153299123048782349e-02
6.363000000000000000e+03 5.089527511596679688e+01 -1.062889003753662109e+01 2.787176370620727539e-01 2.064620256423950195e+00 7.030013203620910645e-01 2.254510223865509033e-01
6.364000000000000000e+03 4.936418533325195312e+01 -1.089104747772216797e+01 3.009288311004638672e-01 1.748373389244079590e+00 6.147906780242919922e-01 1.683635860681533813e-01
6.365000000000000000e+03 6.230815124511718750e+01 -1.057458400726318359e+01 1.264811903238296509e-01 4.497891902923583984e+00 1.387311935424804688e+00 3.968803286552429199e-01
6.366000000000000000e+03 6.301169204711914062e+01 4.423865377902984619e-01 1.112180501222610474e-01 4.624688625335693359e+00 1.420771956443786621e+00 5.383574366569519043e-01
6.367000000000000000e+03 6.158881759643554688e+01 -4.666745662689208984e-01 1.416250318288803101e-01 4.300362110137939453e+00 1.332596063613891602e+00 5.323876142501831055e-01
6.368000000000000000e+03 4.122882461547851562e+01 -2.368051767349243164e+00 3.002403080463409424e-01 1.471538245677947998e-01 1.342182457447052002e-01 1.168594658374786377e-01
6.369000000000000000e+03 5.904201126098632812e+01 -1.572527313232421875e+01 1.073342114686965942e-01 3.844700336456298828e+00 1.185610413551330566e+00 3.169446289539337158e-01
6.370000000000000000e+03 6.150270080566406250e+01 -1.830437469482421875e+01 6.713744997978210449e-02 4.383264541625976562e+00 1.335120677947998047e+00 3.358217179775238037e-01
6.371000000000000000e+03 6.206509399414062500e+01 3.708888292312622070e+00 7.575193792581558228e-02 4.380575180053710938e+00 1.336898207664489746e+00 5.842993259429931641e-01
6.372000000000000000e+03 6.212177276611328125e+01 2.512008428573608398e+00 9.284970909357070923e-02 4.397572040557861328e+00 1.347126483917236328e+00 5.658202767372131348e-01
6.373000000000000000e+03 6.413743591308593750e+01 6.061706066131591797e+00 1.024078577756881714e-02 4.986720561981201172e+00 1.499088406562805176e+00 6.016199588775634766e-01
6.374000000000000000e+03 6.057212066650390625e+01 -8.312006950378417969e+00 1.677388697862625122e-01 4.107081890106201172e+00 1.282446265220642090e+00 4.174671471118927002e-01
6.375000000000000000e+03 5.386537933349609375e+01 -1.563503837585449219e+01 1.395889669656753540e-01 2.778832912445068359e+00 8.755266070365905762e-01 2.197366505861282349e-01
6.376000000000000000e+03 5.772562789916992188e+01 -2.067585182189941406e+01 4.096266999840736389e-02 3.623459339141845703e+00 1.099326610565185547e+00 2.899804413318634033e-01
6.377000000000000000e+03 5.877923583984375000e+01 -2.399734687805175781e+01 5.451311916112899780e-02 3.903499841690063477e+00 1.187403917312622070e+00 3.231523334980010986e-01
6.378000000000000000e+03 1.219708919525146484e+01 -2.938809585571289062e+01 1.423462629318237305e-01 -6.298749446868896484e-01 -1.462586075067520142e-01 -2.481759786605834961e-01
6.379000000000000000e+03 2.007036972045898438e+01 -2.534029006958007812e+01 2.416586726903915405e-01 4.900509491562843323e-03 7.396775484085083008e-02 -3.280422687530517578e-01
6.380000000000000000e+03 1.314522171020507812e+01 -3.135884094238281250e+01 1.626428961753845215e-01 -5.657126307487487793e-01 -1.209209188818931580e-01 -2.147632986307144165e-01
6.381000000000000000e+03 7.243363189697265625e+01 -4.124022293090820312e+01 8.723609894514083862e-02 6.199549674987792969e+00 1.886035680770874023e+00 2.287580631673336029e-02
6.382000000000000000e+03 5.549686431884765625e+01 -3.342888259887695312e+01 2.938618361949920654e-01 3.335526704788208008e+00 1.088816523551940918e+00 3.639532625675201416e-01
6.383000000000000000e+03 5.340419006347656250e+01 -3.062618637084960938e+01 1.200012043118476868e-01 3.008729457855224609e+00 9.386191964149475098e-01 3.670180141925811768e-01
6.384000000000000000e+03 6.291514587402343750e+01 -2.811736297607421875e+01 9.457448124885559082e-02 4.609545230865478516e+00 1.411235928535461426e+00 3.119810521602630615e-01
6.385000000000000000e+03 6.801788330078125000e+01 2.772005271911621094e+01 -1.221303105354309082e+00 9.787859916687011719e+00 2.569967031478881836e+00 1.718324780464172363e+00
6.386000000000000000e+03 5.017930603027343750e+01 2.181110191345214844e+01 -6.266186237335205078e-01 5.891861021518707275e-02 -1.703100055456161499e-01 -4.362775981426239014e-01
6.387000000000000000e+03 4.753402328491210938e+01 1.890119171142578125e+01 -5.996119976043701172e-01 -1.606010347604751587e-01 -2.280639111995697021e-01 -5.174518823623657227e-01
6.388000000000000000e+03 4.951331710815429688e+01 2.081192207336425781e+01 -6.069455146789550781e-01 2.665702812373638153e-02 -1.740865409374237061e-01 -4.373091459274291992e-01
6.389000000000000000e+03 4.909724044799804688e+01 2.098928833007812500e+01 -6.482090950012207031e-01 -8.549371361732482910e-02 -2.201108336448669434e-01 -4.977512061595916748e-01
6.390000000000000000e+03 5.149557495117187500e+01 2.298027229309082031e+01 -6.143562197685241699e-01 2.116021513938903809e-01 -1.208262145519256592e-01 -3.823118209838867188e-01
6.391000000000000000e+03 3.318081283569335938e+01 1.671328306198120117e+00 -5.413313508033752441e-01 -5.704173445701599121e-01 -3.335246145725250244e-01 -8.630171418190002441e-02
6.392000000000000000e+03 4.235288238525390625e+01 1.343645668029785156e+01 -6.744322180747985840e-01 -4.743857979774475098e-01 -3.446453809738159180e-01 -6.455295681953430176e-01
6.393000000000000000e+03 4.020039749145507812e+01 1.196479988098144531e+01 -7.567734718322753906e-01 -6.476647853851318359e-01 -4.213314652442932129e-01 -7.092449665069580078e-01
6.394000000000000000e+03 4.598676300048828125e+01 1.820800971984863281e+01 -6.620126366615295410e-01 -3.775144219398498535e-01 -3.118581175804138184e-01 -6.412569284439086914e-01
6.395000000000000000e+03 6.432597351074218750e+01 2.695259094238281250e+01 -4.533134400844573975e-02 4.912306785583496094e+00 1.460092663764953613e+00 2.198249578475952148e+00
6.396000000000000000e+03 6.533585357666015625e+01 2.408189773559570312e+01 -5.618177056312561035e-01 6.051637172698974609e+00 1.646945834159851074e+00 1.601989865303039551e+00
6.397000000000000000e+03 4.879450988769531250e+01 2.013633918762207031e+01 -6.067043542861938477e-01 -4.600437730550765991e-02 -1.958126127719879150e-01 -4.671350121498107910e-01
6.398000000000000000e+03 4.934516525268554688e+01 2.037447357177734375e+01 -5.885102152824401855e-01 3.867262601852416992e-02 -1.649512797594070435e-01 -4.237708449363708496e-01
6.399000000000000000e+03 4.974520111083984375e+01 2.016873550415039062e+01 -5.467497110366821289e-01 1.414247751235961914e-01 -1.215974837541580200e-01 -3.704241812229156494e-01
6.400000000000000000e+03 4.321806335449218750e+01 1.453822994232177734e+01 -6.616658568382263184e-01 -4.420565366744995117e-01 -3.311167061328887939e-01 -6.531319022178649902e-01
6.401000000000000000e+03 3.889273834228515625e+01 8.742072105407714844e+00 -6.722735762596130371e-01 -5.490521192550659180e-01 -3.663977086544036865e-01 -5.563398003578186035e-01
6.402000000000000000e+03 4.050474929809570312e+01 1.220838737487792969e+01 -7.508483529090881348e-01 -6.303029060363769531e-01 -4.143453836441040039e-01 -7.038880586624145508e-01
6.403000000000000000e+03 5.277212524414062500e+01 2.414477729797363281e+01 -5.935425162315368652e-01 3.740952610969543457e-01 -6.583417207002639771e-02 -3.260179162025451660e-01
6.404000000000000000e+03 5.399040603637695312e+01 2.460259246826171875e+01 -5.188770890235900879e-01 6.075409054756164551e-01 2.659913338720798492e-02 -2.239769697189331055e-01
6.405000000000000000e+03 4.637754058837890625e+01 1.791847229003906250e+01 -6.175757050514221191e-01 -2.789364755153656006e-01 -2.689536511898040771e-01 -5.815976262092590332e-01
6.406000000000000000e+03 5.184377670288085938e+01 2.324864959716796875e+01 -6.018931865692138672e-01 2.661015689373016357e-01 -1.007374897599220276e-01 -3.623057603836059570e-01
6.407000000000000000e+03 5.218439102172851562e+01 2.345159912109375000e+01 -5.869925022125244141e-01 3.212867081165313721e-01 -7.971174269914627075e-02 -3.364045023918151855e-01
6.408000000000000000e+03 4.607382583618164062e+01 1.754491043090820312e+01 -6.181511282920837402e-01 -2.915584146976470947e-01 -2.729128599166870117e-01 -5.878286361694335938e-01
6.409000000000000000e+03 4.442819976806640625e+01 1.590073490142822266e+01 -6.421562433242797852e-01 -3.901572227478027344e-01 -3.096940219402313232e-01 -6.431544423103332520e-01
6.410000000000000000e+03 4.543822860717773438e+01 1.680134773254394531e+01 -6.215762495994567871e-01 -3.252010643482208252e-01 -2.840332090854644775e-01 -6.062944531440734863e-01
6.411000000000000000e+03 4.123125839233398438e+01 1.310558128356933594e+01 -7.367921471595764160e-01 -6.017182469367980957e-01 -4.015531241893768311e-01 -7.112739086151123047e-01
6.412000000000000000e+03 4.332063293457031250e+01 1.397138309478759766e+01 -6.274933218955993652e-01 -3.796734213829040527e-01 -3.021500110626220703e-01 -6.022912859916687012e-01
6.413000000000000000e+03 5.402611923217773438e+01 2.502358436584472656e+01 -5.501393079757690430e-01 5.725653767585754395e-01 6.727822124958038330e-03 -2.578101754188537598e-01
6.414000000000000000e+03 5.252163696289062500e+01 2.360609817504882812e+01 -5.773165822029113770e-01 3.756059408187866211e-01 -6.051319837570190430e-02 -3.091823756694793701e-01
6.415000000000000000e+03 4.537664794921875000e+01 1.582079601287841797e+01 -5.708810687065124512e-01 -2.324711680412292480e-01 -2.410056591033935547e-01 -5.436524152755737305e-01
6.416000000000000000e+03 5.356761169433593750e+01 2.419614028930664062e+01 -5.276740789413452148e-01 5.585593581199645996e-01 9.265597909688949585e-03 -2.381932586431503296e-01
6.417000000000000000e+03 6.837954711914062500e+01 2.798118209838867188e+01 -1.279361605644226074e+00 1.032417392730712891e+01 2.713443756103515625e+00 1.484423160552978516e+00
6.418000000000000000e+03 5.658451461791992188e+01 2.456333160400390625e+01 -2.614137530326843262e-01 1.291799068450927734e+00 3.091155886650085449e-01 1.570073515176773071e-01
6.419000000000000000e+03 4.095020294189453125e+01 1.229888534545898438e+01 -7.141682505607604980e-01 -5.766032934188842773e-01 -3.872314691543579102e-01 -6.700028181076049805e-01
6.420000000000000000e+03 4.404700088500976562e+01 1.525496006011962891e+01 -6.353791356086730957e-01 -3.868609368801116943e-01 -3.066720068454742432e-01 -6.309910416603088379e-01
6.421000000000000000e+03 4.803437805175781250e+01 2.042350769042968750e+01 -6.796246170997619629e-01 -2.356684952974319458e-01 -2.745879292488098145e-01 -5.711386799812316895e-01
6.422000000000000000e+03 6.493515777587890625e+01 2.701687240600585938e+01 -1.872229725122451782e-01 5.571815967559814453e+00 1.615377902984619141e+00 2.358039855957031250e+00
6.423000000000000000e+03 6.683159637451171875e+01 2.762952995300292969e+01 -8.116815686225891113e-01 8.252680778503417969e+00 2.232299804687500000e+00 2.371610164642333984e+00
6.424000000000000000e+03 4.369732666015625000e+01 1.461999607086181641e+01 -6.299777626991271973e-01 -3.810259401798248291e-01 -3.033010959625244141e-01 -6.167110204696655273e-01
6.425000000000000000e+03 4.156431198120117188e+01 1.342450714111328125e+01 -7.305302023887634277e-01 -5.836019515991210938e-01 -3.942396640777587891e-01 -7.073542475700378418e-01
6.426000000000000000e+03 6.469152832031250000e+01 2.667985153198242188e+01 -1.724626719951629639e-01 5.378642082214355469e+00 1.561853766441345215e+00 2.212058067321777344e+00
6.427000000000000000e+03 3.905507659912109375e+01 9.877626419067382812e+00 -7.209907770156860352e-01 -6.208502650260925293e-01 -4.025523066520690918e-01 -6.345847845077514648e-01
6.428000000000000000e+03 3.383045959472656250e+01 2.028343439102172852e+00 -5.425702333450317383e-01 -5.527185797691345215e-01 -3.285866379737854004e-01 -1.145007312297821045e-01
6.429000000000000000e+03 3.951792144775390625e+01 9.649870872497558594e+00 -6.729991436004638672e-01 -5.481939315795898438e-01 -3.663579523563385010e-01 -5.805971026420593262e-01
6.430000000000000000e+03 4.018927001953125000e+01 1.100669860839843750e+01 -6.952577233314514160e-01 -5.688098669052124023e-01 -3.792202770709991455e-01 -6.338114738464355469e-01
6.431000000000000000e+03 4.061282348632812500e+01 1.088611507415771484e+01 -6.572898030281066895e-01 -5.008814930915832520e-01 -3.474513888359069824e-01 -5.898504257202148438e-01
6.432000000000000000e+03 4.001278686523437500e+01 9.430239677429199219e+00 -6.212361454963684082e-01 -4.643608033657073975e-01 -3.256790935993194580e-01 -5.238368511199951172e-01
6.433000000000000000e+03 3.921620178222656250e+01 9.193284988403320312e+00 -6.677623391151428223e-01 -5.462390184402465820e-01 -3.642004132270812988e-01 -5.666865706443786621e-01
6.434000000000000000e+03 3.684181594848632812e+01 6.803965091705322266e+00 -7.398937344551086426e-01 -6.196585893630981445e-01 -4.078657031059265137e-01 -5.450375676155090332e-01
6.435000000000000000e+03 3.732538604736328125e+01 7.122091770172119141e+00 -7.149916887283325195e-01 -5.945548415184020996e-01 -3.928639590740203857e-01 -5.352137684822082520e-01
6.436000000000000000e+03 5.778148269653320312e+01 2.501198005676269531e+01 -1.549770385026931763e-01 1.536818265914916992e+00 4.145523607730865479e-01 3.372603952884674072e-01
6.437000000000000000e+03 1.613491630554199219e+01 1.588313674926757812e+01 2.519976906478404999e-02 1.374763846397399902e-01 4.880284890532493591e-02 5.528829619288444519e-02
6.438000000000000000e+03 3.464706420898437500e+01 4.719766378402709961e-01 -1.697094738483428955e-01 -5.145329833030700684e-01 -2.052727490663528442e-01 1.275609619915485382e-02
6.439000000000000000e+03 3.444956588745117188e+01 2.322822332382202148e+00 -5.356155037879943848e-01 -5.332684516906738281e-01 -3.206652104854583740e-01 -1.405504941940307617e-01
6.440000000000000000e+03 2.120915031433105469e+01 2.033077430725097656e+01 3.061939589679241180e-02 1.100035384297370911e-01 4.218688234686851501e-02 6.262748688459396362e-02
6.441000000000000000e+03 2.208676528930664062e+01 2.113074302673339844e+01 3.123933263123035431e-02 1.062118262052536011e-01 4.123534634709358215e-02 6.182774528861045837e-02
6.442000000000000000e+03 3.693069458007812500e+01 5.625378131866455078e+00 -6.516866683959960938e-01 -5.180420279502868652e-01 -3.509185910224914551e-01 -4.079338908195495605e-01
6.443000000000000000e+03 3.977474212646484375e+01 1.010671329498291016e+01 -6.765931844711303711e-01 -5.505563020706176758e-01 -3.681448698043823242e-01 -5.961344838142395020e-01
6.444000000000000000e+03 4.686915206909179688e+01 1.692800331115722656e+01 -5.340263247489929199e-01 -8.389834314584732056e-02 -1.853773891925811768e-01 -4.651491940021514893e-01
6.445000000000000000e+03 4.755689620971679688e+01 1.963886451721191406e+01 -6.592664122581481934e-01 -2.492430955171585083e-01 -2.725528478622436523e-01 -5.688772201538085938e-01
6.446000000000000000e+03 5.545098876953125000e+01 2.490929603576660156e+01 -3.892284631729125977e-01 9.289098978042602539e-01 1.619044244289398193e-01 -4.863364249467849731e-02
6.447000000000000000e+03 6.649876403808593750e+01 2.400051498413085938e+01 -7.845525741577148438e-01 6.916966438293457031e+00 1.839724183082580566e+00 1.416751623153686523e+00
6.448000000000000000e+03 6.674256134033203125e+01 2.597924995422363281e+01 -8.516408801078796387e-01 7.567436695098876953e+00 2.014738798141479492e+00 1.855206727981567383e+00
6.449000000000000000e+03 6.739299774169921875e+01 2.642217445373535156e+01 -1.049410581588745117e+00 8.444005012512207031e+00 2.218378543853759766e+00 1.734317779541015625e+00
6.450000000000000000e+03 6.554675292968750000e+01 2.762261581420898438e+01 -2.748959064483642578e-01 6.364177703857421875e+00 1.826784610748291016e+00 2.613581180572509766e+00
6.451000000000000000e+03 3.777364730834960938e+01 7.477057456970214844e+00 -6.925012469291687012e-01 -5.812041163444519043e-01 -3.821116089820861816e-01 -5.352497696876525879e-01
6.452000000000000000e+03 5.616865921020507812e+01 2.470141220092773438e+01 -3.012993931770324707e-01 1.154124021530151367e+00 2.558473944664001465e-01 7.793031632900238037e-02
6.453000000000000000e+03 2.397845077514648438e+01 2.347821044921875000e+01 2.827593684196472168e-02 9.657616168260574341e-02 3.745562955737113953e-02 5.764788016676902771e-02
6.454000000000000000e+03 1.768656158447265625e+01 1.681362724304199219e+01 3.018545731902122498e-02 1.304719448089599609e-01 4.819722101092338562e-02 6.315883249044418335e-02
6.455000000000000000e+03 1.806649208068847656e+01 1.740942192077636719e+01 2.940578758716583252e-02 1.257877945899963379e-01 4.655807465314865112e-02 6.205205246806144714e-02
6.456000000000000000e+03 1.661057090759277344e+01 1.634037208557128906e+01 2.545601874589920044e-02 1.327511966228485107e-01 4.746216535568237305e-02 5.687999352812767029e-02
6.457000000000000000e+03 1.444540882110595703e+01 1.475998878479003906e+01 2.099932357668876648e-02 1.398703306913375854e-01 4.826089739799499512e-02 4.155644774436950684e-02
6.458000000000000000e+03 1.453910064697265625e+01 1.412192058563232422e+01 2.532815001904964447e-02 1.498378366231918335e-01 5.254979431629180908e-02 4.732856526970863342e-02
6.459000000000000000e+03 3.557695770263671875e+01 3.599192619323730469e+00 -6.055099964141845703e-01 -5.145241022109985352e-01 -3.360102176666259766e-01 -2.615480422973632812e-01
6.460000000000000000e+03 3.577130889892578125e+01 4.527740955352783203e+00 -6.913939118385314941e-01 -5.450610518455505371e-01 -3.709365129470825195e-01 -3.644770085811614990e-01
6.461000000000000000e+03 6.434465026855468750e+01 2.278470802307128906e+01 -4.145305454730987549e-01 5.335919380187988281e+00 1.476416707038879395e+00 1.417979717254638672e+00
6.462000000000000000e+03 6.781184387207031250e+01 2.704010581970214844e+01 -1.168609976768493652e+00 9.134161949157714844e+00 2.389665603637695312e+00 1.691655516624450684e+00
6.463000000000000000e+03 1.463734245300292969e+01 1.345714855194091797e+01 2.887732908129692078e-02 1.631625890731811523e-01 5.761197581887245178e-02 5.284935981035232544e-02
6.464000000000000000e+03 3.620911407470703125e+01 -2.814827263355255127e-01 1.888678595423698425e-02 -4.062921106815338135e-01 -1.162215992808341980e-01 5.153225734829902649e-02
6.465000000000000000e+03 5.981630325317382812e+01 2.433548545837402344e+01 -2.069370448589324951e-02 2.448448657989501953e+00 7.283264994621276855e-01 8.306038975715637207e-01
6.466000000000000000e+03 6.033000183105468750e+01 2.382418823242187500e+01 -3.146780282258987427e-02 2.794797420501708984e+00 8.289989233016967773e-01 9.544976949691772461e-01
6.467000000000000000e+03 1.979856872558593750e+01 1.998252868652343750e+01 2.540016546845436096e-02 1.115615814924240112e-01 4.108852520585060120e-02 5.757907778024673462e-02
6.468000000000000000e+03 1.713453865051269531e+01 2.212058258056640625e+01 4.318802151829004288e-03 8.930584043264389038e-02 2.808739244937896729e-02 3.110401518642902374e-02
6.469000000000000000e+03 6.663381958007812500e+01 2.816148757934570312e+01 -6.654838919639587402e-01 8.177048683166503906e+00 2.253469467163085938e+00 2.673317432403564453e+00
6.470000000000000000e+03 5.074419403076171875e+01 2.376083374023437500e+01 -7.334558367729187012e-01 -4.554484039545059204e-02 -2.337002158164978027e-01 -5.301189422607421875e-01
6.471000000000000000e+03 6.466627502441406250e+01 1.541417980194091797e+01 -2.969790399074554443e-01 5.290294170379638672e+00 1.497994542121887207e+00 7.785164713859558105e-01
6.472000000000000000e+03 6.534404754638671875e+01 2.072329711914062500e+01 -5.410445928573608398e-01 5.829493999481201172e+00 1.586534857749938965e+00 1.104931712150573730e+00
6.473000000000000000e+03 6.449206542968750000e+01 2.630392265319824219e+01 -1.739094108343124390e-01 5.209636688232421875e+00 1.510718107223510742e+00 2.071949481964111328e+00
6.474000000000000000e+03 4.357747268676757812e+01 -3.684667587280273438e+00 3.536559343338012695e-01 5.109241008758544922e-01 2.593740224838256836e-01 1.425538510084152222e-01
6.475000000000000000e+03 4.371799850463867188e+01 -2.005790233612060547e+00 2.870831489562988281e-01 4.902477860450744629e-01 2.331992834806442261e-01 1.613693684339523315e-01
6.476000000000000000e+03 5.935703277587890625e+01 2.381565856933593750e+01 -5.112008750438690186e-02 2.374428272247314453e+00 6.969924569129943848e-01 7.444593906402587891e-01
6.477000000000000000e+03 5.497007751464843750e+01 2.483228111267089844e+01 -4.360015392303466797e-01 8.106741309165954590e-01 1.124017834663391113e-01 -1.193771660327911377e-01
6.478000000000000000e+03 5.417231369018554688e+01 2.533366203308105469e+01 -5.702695250511169434e-01 5.598473548889160156e-01 -3.126642899587750435e-03 -2.740453481674194336e-01
6.479000000000000000e+03 3.644352340698242188e+01 -7.678560018539428711e-01 1.019144952297210693e-01 -3.958051502704620361e-01 -8.816719800233840942e-02 6.508829444646835327e-02
6.480000000000000000e+03 5.531537628173828125e+01 2.457971191406250000e+01 -3.779022395610809326e-01 9.575435519218444824e-01 1.738923937082290649e-01 -3.338865935802459717e-02
6.481000000000000000e+03 5.519585037231445312e+01 2.510317420959472656e+01 -4.359409213066101074e-01 8.357980251312255859e-01 1.199571266770362854e-01 -1.123379915952682495e-01
6.482000000000000000e+03 3.476574707031250000e+01 4.188446521759033203e+00 -7.944706678390502930e-01 -5.925207138061523438e-01 -4.160974025726318359e-01 -3.771152794361114502e-01
6.483000000000000000e+03 1.503374385833740234e+01 1.428069877624511719e+01 2.759865485131740570e-02 1.524071246385574341e-01 5.400173366069793701e-02 5.219312012195587158e-02
6.484000000000000000e+03 3.369557571411132812e+01 1.535627603530883789e+00 -4.719144105911254883e-01 -5.737105607986450195e-01 -3.136875033378601074e-01 -7.414761930704116821e-02
6.485000000000000000e+03 3.432170104980468750e+01 1.911010384559631348e+00 -4.767114818096160889e-01 -5.454373359680175781e-01 -3.066446483135223389e-01 -1.045028194785118103e-01
6.486000000000000000e+03 3.780212783813476562e+01 -6.770389676094055176e-01 1.229202821850776672e-01 -2.674093842506408691e-01 -4.334673285484313965e-02 6.589050590991973877e-02
6.487000000000000000e+03 6.510882568359375000e+01 2.299304771423339844e+01 -5.208243727684020996e-01 5.822702407836914062e+00 1.590563416481018066e+00 1.401547551155090332e+00
6.488000000000000000e+03 6.600354766845703125e+01 2.376535034179687500e+01 -6.831377744674682617e-01 6.502986431121826172e+00 1.745954632759094238e+00 1.468487501144409180e+00
6.489000000000000000e+03 2.129460334777832031e+01 2.129326820373535156e+01 2.563380077481269836e-02 1.052432581782341003e-01 3.926311805844306946e-02 5.728629976511001587e-02
6.490000000000000000e+03 1.425254917144775391e+01 1.614261627197265625e+01 1.299748662859201431e-02 1.205797716975212097e-01 4.007317870855331421e-02 3.166858851909637451e-02
6.491000000000000000e+03 1.437408351898193359e+01 1.541757965087890625e+01 1.650804840028285980e-02 1.297161132097244263e-01 4.386724904179573059e-02 3.659767284989356995e-02
6.492000000000000000e+03 3.410200500488281250e+01 3.842592239379882812e-01 -1.725502014160156250e-01 -5.282382965087890625e-01 -2.102365493774414062e-01 1.737972721457481384e-02
6.493000000000000000e+03 2.230449104309082031e+01 2.231423950195312500e+01 2.645439654588699341e-02 1.011470928788185120e-01 3.828044608235359192e-02 5.704486370086669922e-02
6.494000000000000000e+03 2.220578193664550781e+01 2.322927474975585938e+01 2.033880539238452911e-02 9.680954366922378540e-02 3.514450415968894958e-02 5.259549617767333984e-02
6.495000000000000000e+03 6.503327178955078125e+01 2.644953536987304688e+01 -3.055249750614166260e-01 5.776472091674804688e+00 1.641284108161926270e+00 2.209535598754882812e+00
6.496000000000000000e+03 6.502841949462890625e+01 1.808106422424316406e+01 -4.150555133819580078e-01 5.534185886383056641e+00 1.535739183425903320e+00 8.934450149536132812e-01
6.497000000000000000e+03 6.462524414062500000e+01 1.019608688354492188e+01 -1.047489941120147705e-01 5.151785850524902344e+00 1.514111161231994629e+00 6.498584747314453125e-01
6.498000000000000000e+03 6.373503875732421875e+01 7.913474082946777344e+00 -2.580622583627700806e-02 4.889324665069580078e+00 1.459055542945861816e+00 6.400713920593261719e-01
6.499000000000000000e+03 4.762416839599609375e+01 -7.705437660217285156e+00 3.553729057312011719e-01 1.308608055114746094e+00 4.991942942142486572e-01 1.633780449628829956e-01
6.500000000000000000e+03 4.424663162231445312e+01 -3.483427047729492188e+00 3.420301675796508789e-01 6.196976900100708008e-01 2.885183691978454590e-01 1.646489053964614868e-01
6.501000000000000000e+03 6.398525619506835938e+01 1.372875595092773438e+01 -2.020306736230850220e-01 5.002172946929931641e+00 1.440042734146118164e+00 7.391887307167053223e-01
6.502000000000000000e+03 1.826288604736328125e+01 2.076363754272460938e+01 1.330664195120334625e-02 1.041024178266525269e-01 3.522271662950515747e-02 4.406903311610221863e-02
6.503000000000000000e+03 1.616473960876464844e+01 1.860907745361328125e+01 1.247186865657567978e-02 1.103486344218254089e-01 3.684614971280097961e-02 3.949584066867828369e-02
6.504000000000000000e+03 1.534198760986328125e+01 1.919937896728515625e+01 6.371591240167617798e-03 9.898988157510757446e-02 3.160843998193740845e-02 2.936445549130439758e-02
6.505000000000000000e+03 3.886331558227539062e+01 -1.449770569801330566e+00 2.192547470331192017e-01 -1.635724157094955444e-01 1.670469902455806732e-02 8.570437878370285034e-02
6.506000000000000000e+03 6.392433547973632812e+01 1.287626171112060547e+01 -1.778847873210906982e-01 4.971672534942626953e+00 1.438136339187622070e+00 7.189286351203918457e-01
6.507000000000000000e+03 6.482793426513671875e+01 1.371104431152343750e+01 -2.316422015428543091e-01 5.305978775024414062e+00 1.522300958633422852e+00 7.183355689048767090e-01
6.508000000000000000e+03 6.377536773681640625e+01 1.104680252075195312e+01 -1.191672310233116150e-01 4.888257026672363281e+00 1.430727005004882812e+00 6.864067316055297852e-01
6.509000000000000000e+03 6.464402770996093750e+01 1.102807426452636719e+01 -1.291025131940841675e-01 5.169617652893066406e+00 1.512154579162597656e+00 6.618107557296752930e-01
6.510000000000000000e+03 5.018696975708007812e+01 -1.004410743713378906e+01 2.917535603046417236e-01 1.880468249320983887e+00 6.516665220260620117e-01 2.039420306682586670e-01
6.511000000000000000e+03 1.889769744873046875e+01 2.112030029296875000e+01 1.563598960638046265e-02 1.035371199250221252e-01 3.575193136930465698e-02 4.635401815176010132e-02
6.512000000000000000e+03 6.154516983032226562e+01 -1.631433606147766113e+00 1.463401019573211670e-01 4.292711734771728516e+00 1.331715583801269531e+00 5.145174860954284668e-01
6.513000000000000000e+03 5.427378845214843750e+01 -1.384657478332519531e+01 1.840631663799285889e-01 2.829998254776000977e+00 9.042184352874755859e-01 2.566301226615905762e-01
6.514000000000000000e+03 6.466312408447265625e+01 1.659674835205078125e+01 -3.318617343902587891e-01 5.326288700103759766e+00 1.498328089714050293e+00 8.196253776550292969e-01
6.515000000000000000e+03 6.222676849365234375e+01 -7.370772361755371094e+00 1.474507898092269897e-01 4.477406978607177734e+00 1.387457370758056641e+00 4.376639127731323242e-01
6.516000000000000000e+03 6.239727401733398438e+01 1.300346255302429199e+00 1.119760796427726746e-01 4.473381042480468750e+00 1.375607132911682129e+00 5.553442239761352539e-01
6.517000000000000000e+03 6.396313095092773438e+01 7.057132720947265625e+00 -4.961778409779071808e-03 4.958698749542236328e+00 1.486121058464050293e+00 6.207337975502014160e-01
6.518000000000000000e+03 6.298588943481445312e+01 6.943850517272949219e+00 1.371747069060802460e-02 4.639990806579589844e+00 1.396112561225891113e+00 6.261174082756042480e-01
6.519000000000000000e+03 6.147246551513671875e+01 -2.715991973876953125e+00 1.472526341676712036e-01 4.280272960662841797e+00 1.328257679939270020e+00 5.012264847755432129e-01
6.520000000000000000e+03 6.040336227416992188e+01 -3.725979566574096680e+00 1.685410141944885254e-01 4.018292903900146484e+00 1.256050229072570801e+00 4.757914841175079346e-01
6.521000000000000000e+03 6.094578170776367188e+01 2.532409429550170898e+00 1.062204092741012573e-01 4.100836753845214844e+00 1.262117147445678711e+00 5.641965270042419434e-01
6.522000000000000000e+03 1.767574882507324219e+01 2.352676391601562500e+01 2.389013534411787987e-03 8.432564139366149902e-02 2.601439505815505981e-02 2.953541278839111328e-02
6.523000000000000000e+03 5.110025787353515625e+01 -9.573844909667968750e+00 2.899324297904968262e-01 2.066089630126953125e+00 7.068066000938415527e-01 2.368808835744857788e-01
6.524000000000000000e+03 1.870017623901367188e+01 2.632404518127441406e+01 1.007572747766971588e-03 7.542269676923751831e-02 2.292907983064651489e-02 2.669775672256946564e-02
6.525000000000000000e+03 2.257192802429199219e+01 2.707399177551269531e+01 1.081221457570791245e-02 8.377796411514282227e-02 2.837705239653587341e-02 3.980429843068122864e-02
6.526000000000000000e+03 5.669486999511718750e+01 -2.493050384521484375e+01 3.366476669907569885e-02 3.505669832229614258e+00 1.061800360679626465e+00 3.075768053531646729e-01
6.527000000000000000e+03 1.545050430297851562e+01 3.095675849914550781e+01 -7.533864583820104599e-03 3.839129954576492310e-02 9.257230907678604126e-03 6.801334675401449203e-03
6.528000000000000000e+03 6.291726303100585938e+01 -1.234191322326660156e+01 1.088631674647331238e-01 4.636083126068115234e+00 1.423483848571777344e+00 3.736435472965240479e-01
6.529000000000000000e+03 6.136344909667968750e+01 -1.326575851440429688e+01 1.124110296368598938e-01 4.303942203521728516e+00 1.324905872344970703e+00 3.608942031860351562e-01
6.530000000000000000e+03 6.048317718505859375e+01 -1.622233772277832031e+01 9.108131378889083862e-02 4.149174213409423828e+00 1.272076606750488281e+00 3.333651423454284668e-01
6.531000000000000000e+03 5.955958175659179688e+01 -1.956377220153808594e+01 6.355804949998855591e-02 4.003802299499511719e+00 1.220208168029785156e+00 3.032000958919525146e-01
6.532000000000000000e+03 6.131987380981445312e+01 7.067870497703552246e-01 1.287123262882232666e-01 4.220473766326904297e+00 1.304755806922912598e+00 5.433192849159240723e-01
6.533000000000000000e+03 5.700452041625976562e+01 -1.685933494567871094e+01 1.070338040590286255e-01 3.425593137741088867e+00 1.059788107872009277e+00 2.864068746566772461e-01
6.534000000000000000e+03 5.547847747802734375e+01 -1.668778228759765625e+01 1.101412102580070496e-01 3.136595487594604492e+00 9.740209579467773438e-01 2.584468126296997070e-01
6.535000000000000000e+03 4.759136581420898438e+01 -6.550606250762939453e+00 3.589906692504882812e-01 1.287154316902160645e+00 4.938434958457946777e-01 1.917562633752822876e-01
6.536000000000000000e+03 2.398347663879394531e+01 3.083325386047363281e+01 8.760953322052955627e-03 7.447751611471176147e-02 2.497154101729393005e-02 3.194110468029975891e-02
6.537000000000000000e+03 5.894698333740234375e+01 -2.119790077209472656e+01 4.739690944552421570e-02 3.883569478988647461e+00 1.179289937019348145e+00 3.143727481365203857e-01
6.538000000000000000e+03 6.661459350585937500e+01 2.861338424682617188e+01 -5.898396968841552734e-01 8.327617645263671875e+00 2.321333408355712891e+00 2.916244983673095703e+00
6.539000000000000000e+03 6.670510101318359375e+01 2.887977790832519531e+01 -5.776689648628234863e-01 8.519826889038085938e+00 2.382647275924682617e+00 3.010538816452026367e+00
6.540000000000000000e+03 6.612428283691406250e+01 2.829420089721679688e+01 -3.882261216640472412e-01 7.385712623596191406e+00 2.099246025085449219e+00 2.896425962448120117e+00
6.541000000000000000e+03 4.894576644897460938e+01 2.055243492126464844e+01 -6.313509941101074219e-01 -6.579693406820297241e-02 -2.091443687677383423e-01 -4.822585880756378174e-01
6.542000000000000000e+03 4.774481201171875000e+01 2.016647148132324219e+01 -6.817188858985900879e-01 -2.705663740634918213e-01 -2.856855690479278564e-01 -5.847185850143432617e-01
6.543000000000000000e+03 5.207382202148437500e+01 2.289203834533691406e+01 -5.638425350189208984e-01 3.609467446804046631e-01 -6.086873263120651245e-02 -3.038099110126495361e-01
6.544000000000000000e+03 6.630668640136718750e+01 2.793914222717285156e+01 -5.523825883865356445e-01 7.597367286682128906e+00 2.113495349884033203e+00 2.667130470275878906e+00
6.545000000000000000e+03 4.713891601562500000e+01 1.907153511047363281e+01 -6.444674730300903320e-01 -2.666641473770141602e-01 -2.733394801616668701e-01 -5.788326263427734375e-01
6.546000000000000000e+03 4.917918395996093750e+01 1.996030235290527344e+01 -5.692396163940429688e-01 4.616657271981239319e-02 -1.569219231605529785e-01 -4.167789518833160400e-01
6.547000000000000000e+03 5.236323928833007812e+01 2.267791748046875000e+01 -5.149982571601867676e-01 4.564329087734222412e-01 -1.756959594786167145e-02 -2.466638237237930298e-01
6.548000000000000000e+03 4.708048629760742188e+01 1.802040100097656250e+01 -5.776132345199584961e-01 -1.589601188898086548e-01 -2.209720164537429810e-01 -5.123781561851501465e-01
6.549000000000000000e+03 4.382731628417968750e+01 1.406396007537841797e+01 -5.955942869186401367e-01 -3.060154616832733154e-01 -2.704829275608062744e-01 -5.637707114219665527e-01
6.550000000000000000e+03 4.285151290893554688e+01 1.333948230743408203e+01 -6.250997185707092285e-01 -3.853227496147155762e-01 -3.031267523765563965e-01 -5.936983823776245117e-01
6.551000000000000000e+03 4.051238632202148438e+01 1.183353137969970703e+01 -7.150167822837829590e-01 -5.950538516044616699e-01 -3.930211961269378662e-01 -6.690611243247985840e-01
6.552000000000000000e+03 5.398856353759765625e+01 2.413317298889160156e+01 -4.807510673999786377e-01 6.662892103195190430e-01 5.566144734621047974e-02 -1.760406941175460815e-01
6.553000000000000000e+03 5.285907363891601562e+01 2.372462463378906250e+01 -5.557789802551269531e-01 4.486338496208190918e-01 -3.214354813098907471e-02 -2.779447436332702637e-01
6.554000000000000000e+03 4.575987625122070312e+01 1.717536735534667969e+01 -6.168061494827270508e-01 -3.090228438377380371e-01 -2.777487039566040039e-01 -5.979426503181457520e-01
6.555000000000000000e+03 4.646648025512695312e+01 1.724376106262207031e+01 -5.751637220382690430e-01 -1.915099471807479858e-01 -2.300021052360534668e-01 -5.285769701004028320e-01
6.556000000000000000e+03 4.282718658447265625e+01 1.393422794342041016e+01 -6.590419411659240723e-01 -4.422681629657745361e-01 -3.303930461406707764e-01 -6.420237421989440918e-01
6.557000000000000000e+03 4.091370391845703125e+01 1.345388889312744141e+01 -7.808061242103576660e-01 -6.733859777450561523e-01 -4.362576305866241455e-01 -7.632771134376525879e-01
6.558000000000000000e+03 4.497854995727539062e+01 1.541977310180664062e+01 -5.809413790702819824e-01 -2.565972506999969482e-01 -2.512615919113159180e-01 -5.555305480957031250e-01
6.559000000000000000e+03 4.418151855468750000e+01 1.472220039367675781e+01 -6.026780009269714355e-01 -3.105681240558624268e-01 -2.739738523960113525e-01 -5.796169042587280273e-01
6.560000000000000000e+03 5.320847702026367188e+01 2.377182960510253906e+01 -5.272656679153442383e-01 5.246049165725708008e-01 -7.982238894328474998e-04 -2.406360954046249390e-01
6.561000000000000000e+03 4.511761474609375000e+01 1.639742660522460938e+01 -6.215098500251770020e-01 -3.352929055690765381e-01 -2.870408296585083008e-01 -6.118518114089965820e-01
6.562000000000000000e+03 4.614999389648437500e+01 1.687596321105957031e+01 -5.781875848770141602e-01 -2.078411430120468140e-01 -2.358086258172988892e-01 -5.367048382759094238e-01
6.563000000000000000e+03 5.267297363281250000e+01 2.319950866699218750e+01 -5.309613347053527832e-01 4.646641016006469727e-01 -1.988917216658592224e-02 -2.566294074058532715e-01
6.564000000000000000e+03 5.295043945312500000e+01 2.337120628356933594e+01 -5.213061571121215820e-01 5.098656415939331055e-01 -3.432150930166244507e-03 -2.369992434978485107e-01
6.565000000000000000e+03 4.556402969360351562e+01 1.616531372070312500e+01 -5.769810676574707031e-01 -2.314472049474716187e-01 -2.425284832715988159e-01 -5.470715165138244629e-01
6.566000000000000000e+03 5.322198104858398438e+01 2.341036415100097656e+01 -4.994312822818756104e-01 5.653527379035949707e-01 1.977644301950931549e-02 -2.084750086069107056e-01
6.567000000000000000e+03 4.465675354003906250e+01 1.483310031890869141e+01 -5.734380483627319336e-01 -2.486938983201980591e-01 -2.466395944356918335e-01 -5.443210005760192871e-01
6.568000000000000000e+03 4.594049835205078125e+01 1.589239692687988281e+01 -5.364124774932861328e-01 -1.423304826021194458e-01 -2.036228924989700317e-01 -4.920138716697692871e-01
6.569000000000000000e+03 4.494461059570312500e+01 1.592189598083496094e+01 -6.100972294807434082e-01 -3.142380118370056152e-01 -2.773005664348602295e-01 -5.954407453536987305e-01
6.570000000000000000e+03 4.452323913574218750e+01 1.535290050506591797e+01 -6.079656481742858887e-01 -3.156116902828216553e-01 -2.770732045173645020e-01 -5.926804542541503906e-01
6.571000000000000000e+03 5.753473663330078125e+01 2.466802597045898438e+01 -1.704728305339813232e-01 1.529522776603698730e+00 4.077149629592895508e-01 3.203902542591094971e-01
6.572000000000000000e+03 4.791938400268554688e+01 1.975096702575683594e+01 -6.443042755126953125e-01 -1.881773322820663452e-01 -2.497444897890090942e-01 -5.398300290107727051e-01
6.573000000000000000e+03 5.039702224731445312e+01 2.284380912780761719e+01 -6.904231309890747070e-01 -1.899853721261024475e-02 -2.128265053033828735e-01 -4.961734414100646973e-01
6.574000000000000000e+03 6.777123260498046875e+01 2.815287399291992188e+01 -1.135785102844238281e+00 9.846202850341796875e+00 2.613125324249267578e+00 2.025677442550659180e+00
6.575000000000000000e+03 4.014859390258789062e+01 8.707460403442382812e+00 -5.717930793762207031e-01 -4.022255241870880127e-01 -2.922056019306182861e-01 -4.615330398082733154e-01
6.576000000000000000e+03 3.935871887207031250e+01 8.467707633972167969e+00 -6.175705194473266602e-01 -4.755610525608062744e-01 -3.279394805431365967e-01 -4.995726346969604492e-01
6.577000000000000000e+03 3.967866516113281250e+01 8.945689201354980469e+00 -6.217019557952880859e-01 -4.718271493911743164e-01 -3.280587196350097656e-01 -5.134627223014831543e-01
6.578000000000000000e+03 4.736714553833007812e+01 1.844732856750488281e+01 -5.872967839241027832e-01 -1.490803956985473633e-01 -2.209131568670272827e-01 -5.078553557395935059e-01
6.579000000000000000e+03 4.731549453735351562e+01 1.941763114929199219e+01 -6.563312411308288574e-01 -2.619315683841705322e-01 -2.754788398742675781e-01 -5.818755030632019043e-01
6.580000000000000000e+03 4.692918014526367188e+01 1.868555831909179688e+01 -6.319655179977416992e-01 -2.659895122051239014e-01 -2.693865001201629639e-01 -5.736165046691894531e-01
6.581000000000000000e+03 3.476567840576171875e+01 1.416446328163146973e+00 -3.505502939224243164e-01 -5.168491601943969727e-01 -2.602198421955108643e-01 -5.344306305050849915e-02
6.582000000000000000e+03 3.468744277954101562e+01 9.440698027610778809e-01 -2.517990767955780029e-01 -5.017783641815185547e-01 -2.260732203722000122e-01 -1.087597198784351349e-02
6.583000000000000000e+03 3.512412261962890625e+01 5.044699311256408691e-01 -1.468034386634826660e-01 -4.773706793785095215e-01 -1.872522383928298950e-01 1.412324234843254089e-02
6.584000000000000000e+03 4.027394104003906250e+01 9.930295944213867188e+00 -6.272163391113281250e-01 -4.700091779232025146e-01 -3.291676640510559082e-01 -5.413676500320434570e-01
6.585000000000000000e+03 3.999077606201171875e+01 1.056143188476562500e+01 -6.851736903190612793e-01 -5.559229254722595215e-01 -3.723289966583251953e-01 -6.141949295997619629e-01
6.586000000000000000e+03 6.549923706054687500e+01 2.701505470275878906e+01 -3.783276975154876709e-01 6.324709892272949219e+00 1.783914685249328613e+00 2.383001804351806641e+00
6.587000000000000000e+03 6.736746215820312500e+01 2.692801094055175781e+01 -1.053916096687316895e+00 8.614665031433105469e+00 2.268224716186523438e+00 1.889422178268432617e+00
6.588000000000000000e+03 2.157036399841308594e+01 2.227395057678222656e+01 2.171803824603557587e-02 1.016188189387321472e-01 3.700105845928192139e-02 5.432395637035369873e-02
6.589000000000000000e+03 4.677814865112304688e+01 1.762360763549804688e+01 -5.770776867866516113e-01 -1.737769544124603271e-01 -2.252563834190368652e-01 -5.188190340995788574e-01
6.590000000000000000e+03 3.818120574951171875e+01 7.873194217681884766e+00 -6.827400326728820801e-01 -5.649218559265136719e-01 -3.742985725402832031e-01 -5.389554500579833984e-01
6.591000000000000000e+03 3.604048156738281250e+01 5.343629360198974609e+00 -7.288039326667785645e-01 -5.744783878326416016e-01 -3.909847140312194824e-01 -4.440849125385284424e-01
6.592000000000000000e+03 3.723016357421875000e+01 6.336419582366943359e+00 -6.672216653823852539e-01 -5.415837764739990234e-01 -3.626416325569152832e-01 -4.647223353385925293e-01
6.593000000000000000e+03 5.712695312500000000e+01 2.490203094482421875e+01 -2.249612063169479370e-01 1.375226497650146484e+00 3.450796008110046387e-01 2.176019549369812012e-01
6.594000000000000000e+03 3.773461914062500000e+01 5.319252014160156250e+00 -5.473205447196960449e-01 -4.339373707771301270e-01 -2.943773865699768066e-01 -3.338122963905334473e-01
6.595000000000000000e+03 6.629951477050781250e+01 2.615891647338867188e+01 -7.405775785446166992e-01 7.235412597656250000e+00 1.948450565338134766e+00 1.985082268714904785e+00
6.596000000000000000e+03 6.764683532714843750e+01 2.750509834289550781e+01 -1.114309430122375488e+00 9.260327339172363281e+00 2.443805456161499023e+00 1.907056093215942383e+00
6.597000000000000000e+03 3.676395797729492188e+01 6.061991214752197266e+00 -6.946139335632324219e-01 -5.719605684280395508e-01 -3.799723386764526367e-01 -4.724562168121337891e-01
6.598000000000000000e+03 6.622084045410156250e+01 2.449159622192382812e+01 -7.239551544189453125e-01 6.771392345428466797e+00 1.814231157302856445e+00 1.581128478050231934e+00
6.599000000000000000e+03 5.483400726318359375e+01 2.403111648559570312e+01 -3.933507204055786133e-01 8.988929390907287598e-01 1.516626626253128052e-01 -5.182918533682823181e-02
6.600000000000000000e+03 5.358072280883789062e+01 2.373919677734375000e+01 -4.885953366756439209e-01 6.180056333541870117e-01 3.882308676838874817e-02 -1.947461664676666260e-01
6.601000000000000000e+03 1.539828872680664062e+01 1.460852050781250000e+01 2.748539671301841736e-02 1.470510214567184448e-01 5.236092582345008850e-02 5.588752776384353638e-02
6.602000000000000000e+03 6.196398162841796875e+01 2.337545776367187500e+01 -1.225819587707519531e-01 3.749915599822998047e+00 1.088200092315673828e+00 1.236122727394104004e+00
6.603000000000000000e+03 6.429168701171875000e+01 2.369173812866210938e+01 -3.867462575435638428e-01 5.283675670623779297e+00 1.469078779220581055e+00 1.531659722328186035e+00
6.604000000000000000e+03 6.272385787963867188e+01 2.157251739501953125e+01 -2.743358314037322998e-01 4.378798484802246094e+00 1.231338739395141602e+00 1.141831040382385254e+00
6.605000000000000000e+03 6.131452178955078125e+01 2.388269042968750000e+01 -4.253197833895683289e-02 3.259844064712524414e+00 9.651936292648315430e-01 1.149797916412353516e+00
6.606000000000000000e+03 1.930355453491210938e+01 2.052946281433105469e+01 1.901642791926860809e-02 1.075282320380210876e-01 3.796339780092239380e-02 5.115150660276412964e-02
6.607000000000000000e+03 1.624885749816894531e+01 1.783147621154785156e+01 1.500597223639488220e-02 1.173453107476234436e-01 3.970538452267646790e-02 4.359500855207443237e-02
6.608000000000000000e+03 1.828078842163085938e+01 1.950410270690917969e+01 1.874686591327190399e-02 1.115691065788269043e-01 3.909479454159736633e-02 5.018850788474082947e-02
6.609000000000000000e+03 1.871546554565429688e+01 2.007161903381347656e+01 1.856462098658084869e-02 1.094788461923599243e-01 3.841304033994674683e-02 5.034311860799789429e-02
6.610000000000000000e+03 3.477418899536132812e+01 3.567689418792724609e+00 -6.875309944152832031e-01 -5.580902099609375000e-01 -3.736863434314727783e-01 -2.853012979030609131e-01
6.611000000000000000e+03 4.090522384643554688e+01 1.179572963714599609e+01 -6.880689859390258789e-01 -5.353510975837707520e-01 -3.670260310173034668e-01 -6.326445937156677246e-01
6.612000000000000000e+03 6.645259857177734375e+01 2.549781990051269531e+01 -7.929405570030212402e-01 7.171731472015380859e+00 1.913637280464172363e+00 1.791644692420959473e+00
6.613000000000000000e+03 6.686254882812500000e+01 2.649233818054199219e+01 -8.822464346885681152e-01 7.875165939331054688e+00 2.097875833511352539e+00 1.944576978683471680e+00
6.614000000000000000e+03 4.193040466308593750e+01 1.350047016143798828e+01 -7.041843533515930176e-01 -5.429223179817199707e-01 -3.741320073604583740e-01 -6.839869618415832520e-01
6.615000000000000000e+03 6.551745605468750000e+01 2.358091163635253906e+01 -5.986142754554748535e-01 6.127569198608398438e+00 1.658686399459838867e+00 1.513159513473510742e+00
6.616000000000000000e+03 1.685052108764648438e+01 1.872920227050781250e+01 1.418238412588834763e-02 1.127865239977836609e-01 3.809067234396934509e-02 4.418835043907165527e-02
6.617000000000000000e+03 3.529394531250000000e+01 1.938732385635375977e+00 -3.813752233982086182e-01 -4.899729192256927490e-01 -2.614044547080993652e-01 -8.873143792152404785e-02
6.618000000000000000e+03 5.441267013549804688e+01 2.455170440673828125e+01 -4.700289070606231689e-01 7.229611277580261230e-01 7.587966322898864746e-02 -1.615452170372009277e-01
6.619000000000000000e+03 6.495733642578125000e+01 2.243955612182617188e+01 -5.076705813407897949e-01 5.682495117187500000e+00 1.552447319030761719e+00 1.333186507225036621e+00
6.620000000000000000e+03 2.028001403808593750e+01 2.049468994140625000e+01 2.505973912775516510e-02 1.082739755511283875e-01 4.000011458992958069e-02 5.713268741965293884e-02
6.621000000000000000e+03 2.178589820861816406e+01 2.158012008666992188e+01 2.796552702784538269e-02 1.042757406830787659e-01 3.967237845063209534e-02 5.885468423366546631e-02
6.622000000000000000e+03 5.847539520263671875e+01 2.401227760314941406e+01 -9.409841895103454590e-02 1.963128447532653809e+00 5.607089996337890625e-01 5.498969554901123047e-01
6.623000000000000000e+03 5.815802764892578125e+01 2.456477165222167969e+01 -1.177118048071861267e-01 1.756173610687255859e+00 4.915385246276855469e-01 4.514048695564270020e-01
6.624000000000000000e+03 3.639473342895507812e+01 4.836578845977783203e+00 -6.448965668678283691e-01 -5.095351338386535645e-01 -3.463295102119445801e-01 -3.624781668186187744e-01
6.625000000000000000e+03 2.079213905334472656e+01 2.092241668701171875e+01 2.577541954815387726e-02 1.067502200603485107e-01 3.975769132375717163e-02 5.765068158507347107e-02
6.626000000000000000e+03 1.983991050720214844e+01 2.100677490234375000e+01 2.020475268363952637e-02 1.055158600211143494e-01 3.771618381142616272e-02 5.194661393761634827e-02
6.627000000000000000e+03 6.466476440429687500e+01 2.177383995056152344e+01 -4.746067523956298828e-01 5.476460456848144531e+00 1.500556111335754395e+00 1.257568717002868652e+00
6.628000000000000000e+03 6.632184600830078125e+01 2.700166320800781250e+01 -6.725896596908569336e-01 7.378782749176025391e+00 2.011857986450195312e+00 2.271219730377197266e+00
6.629000000000000000e+03 4.948085021972656250e+01 -6.338706970214843750e+00 3.299450576305389404e-01 1.652104139328002930e+00 5.946147441864013672e-01 2.381753027439117432e-01
6.630000000000000000e+03 6.600513458251953125e+01 2.584434509277343750e+01 -6.545752882957458496e-01 6.825396537780761719e+00 1.851246356964111328e+00 1.970149517059326172e+00
6.631000000000000000e+03 6.480702972412109375e+01 2.517962646484375000e+01 -3.772739768028259277e-01 5.589383125305175781e+00 1.563632726669311523e+00 1.851689219474792480e+00
6.632000000000000000e+03 3.855205917358398438e+01 8.299621582031250000e+00 -6.732951998710632324e-01 -5.550788044929504395e-01 -3.685122132301330566e-01 -5.472780466079711914e-01
6.633000000000000000e+03 1.557759666442871094e+01 1.772990798950195312e+01 1.343449018895626068e-02 1.144994124770164490e-01 3.838017210364341736e-02 3.874012455344200134e-02
6.634000000000000000e+03 4.108605194091796875e+01 -1.232655286788940430e+00 2.253058403730392456e-01 1.096268296241760254e-01 1.004797965288162231e-01 1.075467839837074280e-01
6.635000000000000000e+03 3.916134262084960938e+01 -1.856741905212402344e+00 2.609696090221405029e-01 -1.137187629938125610e-01 4.417525231838226318e-02 9.316559135913848877e-02
6.636000000000000000e+03 3.865956115722656250e+01 -9.126551747322082520e-01 1.675306409597396851e-01 -1.824361979961395264e-01 -4.471665248274803162e-03 7.548893243074417114e-02
6.637000000000000000e+03 6.097527313232421875e+01 3.670780658721923828e+00 9.120716899633407593e-02 4.108332157135009766e+00 1.259861826896667480e+00 5.784325599670410156e-01
6.638000000000000000e+03 6.480501556396484375e+01 1.869972419738769531e+01 -4.194813966751098633e-01 5.469293117523193359e+00 1.514943599700927734e+00 9.308081269264221191e-01
6.639000000000000000e+03 5.986069107055664062e+01 2.325305366516113281e+01 -5.865233764052391052e-02 2.697094678878784180e+00 7.915327548980712891e-01 8.593353033065795898e-01
6.640000000000000000e+03 6.298212814331054688e+01 1.207557392120361328e+01 -1.324553191661834717e-01 4.650594711303710938e+00 1.355441689491271973e+00 7.134436368942260742e-01
6.641000000000000000e+03 6.461146545410156250e+01 1.722530555725097656e+01 -3.483230769634246826e-01 5.330411911010742188e+00 1.494626760482788086e+00 8.444761633872985840e-01
6.642000000000000000e+03 6.400943756103515625e+01 1.451918315887451172e+01 -2.351888418197631836e-01 5.025722980499267578e+00 1.437160253524780273e+00 7.673475146293640137e-01
6.643000000000000000e+03 1.676059341430664062e+01 1.958991241455078125e+01 1.149682141840457916e-02 1.056830808520317078e-01 3.515397012233734131e-02 3.930647298693656921e-02
6.644000000000000000e+03 1.551119232177734375e+01 1.847066307067871094e+01 8.700625039637088776e-03 1.071141213178634644e-01 3.474442288279533386e-02 3.406323492527008057e-02
6.645000000000000000e+03 3.766404724121093750e+01 2.285390138626098633e+00 -2.483880221843719482e-01 -3.133011460304260254e-01 -1.685067415237426758e-01 -7.357178628444671631e-02
6.646000000000000000e+03 3.697164154052734375e+01 -4.470503628253936768e-01 7.076265662908554077e-02 -3.402783572673797607e-01 -8.085470646619796753e-02 5.755876749753952026e-02
6.647000000000000000e+03 6.198919296264648438e+01 1.128598594665527344e+01 -8.616495877504348755e-02 4.337577342987060547e+00 1.275423765182495117e+00 6.870965361595153809e-01
6.648000000000000000e+03 6.054533767700195312e+01 -1.654624462127685547e+00 1.610496640205383301e-01 4.034061431884765625e+00 1.258533358573913574e+00 5.170704126358032227e-01
6.649000000000000000e+03 6.307876586914062500e+01 1.297285652160644531e+01 -1.572946906089782715e-01 4.681890964508056641e+00 1.357378840446472168e+00 7.312154173851013184e-01
6.650000000000000000e+03 4.402737045288085938e+01 -2.733695745468139648e+00 3.194997310638427734e-01 5.575379729270935059e-01 2.631113231182098389e-01 1.592002958059310913e-01
6.651000000000000000e+03 5.977384948730468750e+01 4.628608703613281250e+00 9.449021518230438232e-02 3.783178329467773438e+00 1.163300514221191406e+00 5.739902853965759277e-01
6.652000000000000000e+03 5.994469070434570312e+01 2.764513254165649414e+00 1.172600686550140381e-01 3.844621181488037109e+00 1.188564419746398926e+00 5.509839057922363281e-01
6.653000000000000000e+03 2.266487312316894531e+01 2.521504402160644531e+01 1.587153971195220947e-02 9.098944067955017090e-02 3.205829486250877380e-02 4.684291034936904907e-02
6.654000000000000000e+03 6.300493621826171875e+01 7.844321250915527344e+00 -1.301322411745786667e-02 4.645319461822509766e+00 1.389691829681396484e+00 6.342058777809143066e-01
6.655000000000000000e+03 1.856425666809082031e+01 2.273337554931640625e+01 7.612692657858133316e-03 9.290238469839096069e-02 3.015452437102794647e-02 3.783448413014411926e-02
6.656000000000000000e+03 6.133657836914062500e+01 -4.756945133209228516e+00 1.653014868497848511e-01 4.257102966308593750e+00 1.326721310615539551e+00 4.723037183284759521e-01
6.657000000000000000e+03 6.483084106445312500e+01 1.929214859008789062e+01 -4.416980445384979248e-01 5.511651039123535156e+00 1.520985960960388184e+00 9.803133010864257812e-01
6.658000000000000000e+03 6.428200531005859375e+01 1.785474967956542969e+01 -3.609355390071868896e-01 5.184947490692138672e+00 1.447203636169433594e+00 8.953225016593933105e-01
6.659000000000000000e+03 6.377942657470703125e+01 1.004801750183105469e+01 -8.529808372259140015e-02 4.886987686157226562e+00 1.440506815910339355e+00 6.677792072296142578e-01
6.660000000000000000e+03 1.828813552856445312e+01 2.202460670471191406e+01 8.813831023871898651e-03 9.581094235181808472e-02 3.138743340969085693e-02 3.809717670083045959e-02
6.661000000000000000e+03 2.092446136474609375e+01 2.198219680786132812e+01 2.155347168445587158e-02 1.024016588926315308e-01 3.718654066324234009e-02 5.348130688071250916e-02
6.662000000000000000e+03 6.122401809692382812e+01 -5.864499092102050781e+00 1.623031049966812134e-01 4.227830886840820312e+00 1.317040205001831055e+00 4.455823898315429688e-01
6.663000000000000000e+03 6.243842315673828125e+01 -5.967121124267578125e+00 1.434478461742401123e-01 4.511164188385009766e+00 1.396383523941040039e+00 4.570023417472839355e-01
6.664000000000000000e+03 6.429075622558593750e+01 2.015093612670898438e+01 -4.215573966503143311e-01 5.249132156372070312e+00 1.448272466659545898e+00 1.082301735877990723e+00
6.665000000000000000e+03 6.413641357421875000e+01 1.938027381896972656e+01 -3.873983025550842285e-01 5.168004035949707031e+00 1.434181690216064453e+00 1.011580228805541992e+00
6.666000000000000000e+03 4.963510894775390625e+01 -9.128865242004394531e+00 3.087690174579620361e-01 1.759233832359313965e+00 6.204008460044860840e-01 2.003317624330520630e-01
6.667000000000000000e+03 5.340804290771484375e+01 -1.018340301513671875e+01 2.436308562755584717e-01 2.540115833282470703e+00 8.351239562034606934e-01 2.706630825996398926e-01
6.668000000000000000e+03 5.624104309082031250e+01 -1.204720973968505859e+01 1.869884878396987915e-01 3.193735837936401367e+00 1.014217257499694824e+00 3.050684630870819092e-01
6.669000000000000000e+03 3.942568969726562500e+01 -1.295439720153808594e+00 2.164718508720397949e-01 -8.633109182119369507e-02 3.904222697019577026e-02 8.782148361206054688e-02
6.670000000000000000e+03 4.171688461303710938e+01 -1.626094341278076172e+00 2.652325332164764404e-01 2.032441496849060059e-01 1.405429989099502563e-01 1.181390434503555298e-01
6.671000000000000000e+03 6.370532608032226562e+01 1.572946166992187500e+01 -2.687453329563140869e-01 4.910035610198974609e+00 1.392387032508850098e+00 8.149098753929138184e-01
6.672000000000000000e+03 6.397090911865234375e+01 1.520405387878417969e+01 -2.559404969215393066e-01 5.018371582031250000e+00 1.428729295730590820e+00 7.861387133598327637e-01
6.673000000000000000e+03 6.181486892700195312e+01 -1.189722824096679688e+01 1.294566243886947632e-01 4.398506641387939453e+00 1.358389019966125488e+00 3.798631727695465088e-01
6.674000000000000000e+03 6.092665863037109375e+01 -1.469923686981201172e+01 1.040769889950752258e-01 4.224927902221679688e+00 1.298701405525207520e+00 3.475899696350097656e-01
6.675000000000000000e+03 6.069775772094726562e+01 -1.140599632263183594e+01 1.406890004873275757e-01 4.150289058685302734e+00 1.287293434143066406e+00 3.779787123203277588e-01
6.676000000000000000e+03 2.660972785949707031e+01 3.245605850219726562e+01 1.501539535820484161e-02 7.359968870878219604e-02 2.658452652394771576e-02 3.332877531647682190e-02
6.677000000000000000e+03 2.510045242309570312e+01 3.544245910644531250e+01 8.841715753078460693e-03 6.733794510364532471e-02 2.285389974713325500e-02 2.128606662154197693e-02
6.678000000000000000e+03 1.873905754089355469e+01 2.485381317138671875e+01 2.764518605545163155e-03 8.245150744915008545e-02 2.556480839848518372e-02 3.100754134356975555e-02
6.679000000000000000e+03 1.996107292175292969e+01 3.046929550170898438e+01 -1.036255504004657269e-03 6.495556235313415527e-02 1.917579211294651031e-02 2.096536196768283844e-02
6.680000000000000000e+03 4.907910537719726562e+01 -8.104747772216796875e+00 3.308688998222351074e-01 1.629465103149414062e+00 5.881001949310302734e-01 2.044058591127395630e-01
6.681000000000000000e+03 5.148920822143554688e+01 -7.827892780303955078e+00 2.959837019443511963e-01 2.086618185043334961e+00 7.147805690765380859e-01 2.715251147747039795e-01
6.682000000000000000e+03 5.956417083740234375e+01 1.930222511291503906e+00 1.284622699022293091e-01 3.760918140411376953e+00 1.166814088821411133e+00 5.473829507827758789e-01
6.683000000000000000e+03 2.207794570922851562e+01 2.871154212951660156e+01 6.052020937204360962e-03 7.727565616369247437e-02 2.499830350279808044e-02 3.247457370162010193e-02
6.684000000000000000e+03 5.303084182739257812e+01 -1.456464004516601562e+01 1.781995743513107300e-01 2.581547737121582031e+00 8.279241919517517090e-01 2.162588238716125488e-01
6.685000000000000000e+03 5.959650039672851562e+01 -1.087823009490966797e+01 1.593759655952453613e-01 3.908489942550659180e+00 1.220359802246093750e+00 3.753505647182464600e-01
6.686000000000000000e+03 4.789464187622070312e+01 -5.216867446899414062e+00 3.431330621242523193e-01 1.300734996795654297e+00 4.931604266166687012e-01 2.193484455347061157e-01
6.687000000000000000e+03 1.379585266113281250e+01 2.984890747070312500e+01 -8.876135572791099548e-03 2.710816264152526855e-02 5.469608120620250702e-03 2.219299552962183952e-03
6.688000000000000000e+03 5.900106430053710938e+01 -9.085890769958496094e+00 1.817862987518310547e-01 3.758965015411376953e+00 1.182225346565246582e+00 3.928107917308807373e-01
6.689000000000000000e+03 5.810845947265625000e+01 -1.904967117309570312e+01 7.083240151405334473e-02 3.671132326126098633e+00 1.122589349746704102e+00 2.976943552494049072e-01
6.690000000000000000e+03 5.304428100585937500e+01 -1.163401317596435547e+01 2.276258319616317749e-01 2.504083395004272461e+00 8.195127844810485840e-01 2.342704236507415771e-01
6.691000000000000000e+03 5.213229751586914062e+01 -1.209346008300781250e+01 2.275138944387435913e-01 2.339359998703002930e+00 7.700622081756591797e-01 2.213525921106338501e-01
6.692000000000000000e+03 6.642177581787109375e+01 2.842938613891601562e+01 -5.179914832115173340e-01 7.898829936981201172e+00 2.214251518249511719e+00 2.898431062698364258e+00
6.693000000000000000e+03 6.638715362548828125e+01 2.869419479370117188e+01 -4.445825517177581787e-01 7.858945369720458984e+00 2.224308729171752930e+00 3.031934022903442383e+00
6.694000000000000000e+03 6.688237762451171875e+01 2.846427536010742188e+01 -7.564280629158020020e-01 8.750888824462890625e+00 2.398338317871093750e+00 2.731582164764404297e+00
6.695000000000000000e+03 5.082266616821289062e+01 2.280008125305175781e+01 -6.546329855918884277e-01 7.702926546335220337e-02 -1.732811182737350464e-01 -4.469956457614898682e-01
6.696000000000000000e+03 5.271659088134765625e+01 2.251996421813964844e+01 -4.806438982486724854e-01 5.590412616729736328e-01 2.351920679211616516e-02 -2.006545811891555786e-01
6.697000000000000000e+03 5.291006469726562500e+01 2.287770080566406250e+01 -4.930864274501800537e-01 5.623989105224609375e-01 2.079374529421329498e-02 -2.030173540115356445e-01
6.698000000000000000e+03 4.718778610229492188e+01 1.731442070007324219e+01 -5.336299538612365723e-01 -6.652229279279708862e-02 -1.800456643104553223e-01 -4.578171372413635254e-01
6.699000000000000000e+03 4.831564712524414062e+01 1.981959724426269531e+01 -6.224324107170104980e-01 -1.191965192556381226e-01 -2.224886864423751831e-01 -5.037868618965148926e-01
6.700000000000000000e+03 4.183752822875976562e+01 1.314163780212402344e+01 -7.001373767852783203e-01 -5.237106680870056152e-01 -3.671544194221496582e-01 -6.617153286933898926e-01
6.701000000000000000e+03 4.397467803955078125e+01 1.349693012237548828e+01 -5.524390935897827148e-01 -2.362604141235351562e-01 -2.366098612546920776e-01 -5.093858242034912109e-01
6.702000000000000000e+03 5.354206085205078125e+01 2.332219505310058594e+01 -4.737524688243865967e-01 6.574220061302185059e-01 5.510086566209793091e-02 -1.645399779081344604e-01
6.703000000000000000e+03 4.583967590332031250e+01 1.651716232299804688e+01 -5.802021622657775879e-01 -2.247697561979293823e-01 -2.414915710687637329e-01 -5.454664826393127441e-01
6.704000000000000000e+03 4.654704284667968750e+01 1.655971908569335938e+01 -5.348894596099853516e-01 -1.046688258647918701e-01 -1.918674856424331665e-01 -4.751653373241424561e-01
6.705000000000000000e+03 4.992234802246093750e+01 2.059879112243652344e+01 -5.662938356399536133e-01 1.324118226766586304e-01 -1.301646083593368530e-01 -3.782488107681274414e-01
6.706000000000000000e+03 5.216622161865234375e+01 2.228431892395019531e+01 -5.049057602882385254e-01 4.647424817085266113e-01 -1.204899046570062637e-02 -2.410989850759506226e-01
6.707000000000000000e+03 5.120322036743164062e+01 2.263414764404296875e+01 -6.102923154830932617e-01 1.833144128322601318e-01 -1.280933618545532227e-01 -3.863265514373779297e-01
6.708000000000000000e+03 5.090314102172851562e+01 2.234783744812011719e+01 -6.191022992134094238e-01 1.469410806894302368e-01 -1.416483670473098755e-01 -3.982967436313629150e-01
6.709000000000000000e+03 6.579055023193359375e+01 2.724000930786132812e+01 -4.421641826629638672e-01 6.712705612182617188e+00 1.881162405014038086e+00 2.440315246582031250e+00
6.710000000000000000e+03 6.525558471679687500e+01 2.673015213012695312e+01 -3.224079608917236328e-01 5.980047702789306641e+00 1.697291970252990723e+00 2.308848857879638672e+00
6.711000000000000000e+03 4.433394241333007812e+01 1.418799304962158203e+01 -5.626661777496337891e-01 -2.405999600887298584e-01 -2.409798502922058105e-01 -5.273869037628173828e-01
6.712000000000000000e+03 4.511243057250976562e+01 1.494793891906738281e+01 -5.491118431091308594e-01 -1.882264167070388794e-01 -2.212014645338058472e-01 -5.109218358993530273e-01
6.713000000000000000e+03 4.537578201293945312e+01 1.546913814544677734e+01 -5.586655139923095703e-01 -1.992314010858535767e-01 -2.273690849542617798e-01 -5.193334221839904785e-01
6.714000000000000000e+03 5.320750427246093750e+01 2.267717170715332031e+01 -4.535136818885803223e-01 6.579430103302001953e-01 6.132880225777626038e-02 -1.480964869260787964e-01
6.715000000000000000e+03 4.567753982543945312e+01 1.561880779266357422e+01 -5.413256287574768066e-01 -1.566290259361267090e-01 -2.093863934278488159e-01 -4.987688958644866943e-01
6.716000000000000000e+03 5.312547302246093750e+01 2.313486289978027344e+01 -4.929406642913818359e-01 5.772070288658142090e-01 2.527991496026515961e-02 -1.950291693210601807e-01
6.717000000000000000e+03 4.623287963867187500e+01 1.621209144592285156e+01 -5.343918204307556152e-01 -1.229421496391296387e-01 -1.972001940011978149e-01 -4.823924601078033447e-01
6.718000000000000000e+03 4.077793502807617188e+01 1.133423233032226562e+01 -6.718750596046447754e-01 -5.163980126380920410e-01 -3.564819097518920898e-01 -6.114153265953063965e-01
6.719000000000000000e+03 4.160061645507812500e+01 1.276004123687744141e+01 -6.871445178985595703e-01 -5.195314884185791016e-01 -3.620027899742126465e-01 -6.558737158775329590e-01
6.720000000000000000e+03 4.083905410766601562e+01 1.278623485565185547e+01 -7.491277456283569336e-01 -6.264870762825012207e-01 -4.126844406127929688e-01 -7.189298868179321289e-01
6.721000000000000000e+03 4.900130844116210938e+01 1.957130050659179688e+01 -5.592293739318847656e-01 5.142763257026672363e-02 -1.523405313491821289e-01 -4.093994796276092529e-01
6.722000000000000000e+03 3.985886383056640625e+01 8.212518692016601562e+00 -5.634034872055053711e-01 -3.995229899883270264e-01 -2.888779640197753906e-01 -4.449091553688049316e-01
6.723000000000000000e+03 4.141438674926757812e+01 9.925734519958496094e+00 -5.436517000198364258e-01 -3.170243203639984131e-01 -2.582027912139892578e-01 -4.586466550827026367e-01
6.724000000000000000e+03 6.433744049072265625e+01 2.585565567016601562e+01 -2.054965049028396606e-01 5.123620033264160156e+00 1.475437045097351074e+00 1.958726882934570312e+00
6.725000000000000000e+03 4.091443252563476562e+01 1.034148883819580078e+01 -6.034752130508422852e-01 -4.185000956058502197e-01 -3.065925836563110352e-01 -5.261369347572326660e-01
6.726000000000000000e+03 4.087195587158203125e+01 9.413040161132812500e+00 -5.631271600723266602e-01 -3.594537973403930664e-01 -2.767742872238159180e-01 -4.633840620517730713e-01
6.727000000000000000e+03 4.749943923950195312e+01 1.772110176086425781e+01 -5.378803610801696777e-01 -5.060506612062454224e-02 -1.765456348657608032e-01 -4.510248303413391113e-01
6.728000000000000000e+03 4.792687606811523438e+01 1.931874847412109375e+01 -6.073469519615173340e-01 -1.414950042963027954e-01 -2.246525883674621582e-01 -5.109929442405700684e-01
6.729000000000000000e+03 4.781177902221679688e+01 1.815517234802246094e+01 -5.428441762924194336e-01 -3.444007039070129395e-02 -1.731852740049362183e-01 -4.467310905456542969e-01
6.730000000000000000e+03 4.759755325317382812e+01 1.930751991271972656e+01 -6.281799674034118652e-01 -2.039856314659118652e-01 -2.496496737003326416e-01 -5.418029427528381348e-01
6.731000000000000000e+03 4.044322204589843750e+01 1.042263889312744141e+01 -6.399737596511840820e-01 -4.881576895713806152e-01 -3.384394347667694092e-01 -5.678839087486267090e-01
6.732000000000000000e+03 6.616319274902343750e+01 2.500247383117675781e+01 -7.178143262863159180e-01 6.862887382507324219e+00 1.843521952629089355e+00 1.704609274864196777e+00
6.733000000000000000e+03 4.043745422363281250e+01 9.170630455017089844e+00 -5.757092833518981934e-01 -4.000834822654724121e-01 -2.927378118038177490e-01 -4.770272076129913330e-01
6.734000000000000000e+03 6.718454742431640625e+01 2.824256134033203125e+01 -9.068371653556823730e-01 9.078216552734375000e+00 2.451413631439208984e+00 2.493392229080200195e+00
6.735000000000000000e+03 3.823691177368164062e+01 7.057719230651855469e+00 -6.297035217285156250e-01 -4.984880387783050537e-01 -3.384574651718139648e-01 -4.629516005516052246e-01
6.736000000000000000e+03 3.643637466430664062e+01 5.721719264984130859e+00 -7.078644037246704102e-01 -5.632838010787963867e-01 -3.813444375991821289e-01 -4.586584270000457764e-01
6.737000000000000000e+03 3.705683517456054688e+01 5.101503849029541016e+00 -5.994609594345092773e-01 -4.837149083614349365e-01 -3.249527513980865479e-01 -3.569561839103698730e-01
6.738000000000000000e+03 3.818358612060546875e+01 6.148554325103759766e+00 -5.641871094703674316e-01 -4.351407587528228760e-01 -2.997983694076538086e-01 -3.790417313575744629e-01
6.739000000000000000e+03 3.522691726684570312e+01 9.234457612037658691e-01 -2.152553647756576538e-01 -4.852725565433502197e-01 -2.101583778858184814e-01 -1.150555815547704697e-02
6.740000000000000000e+03 5.648356246948242188e+01 2.406057167053222656e+01 -2.483795881271362305e-01 1.358541250228881836e+00 3.330485224723815918e-01 1.913066506385803223e-01
6.741000000000000000e+03 5.567694854736328125e+01 2.438778877258300781e+01 -3.311950564384460449e-01 1.060957670211791992e+00 2.189287841320037842e-01 3.971204161643981934e-02
6.742000000000000000e+03 4.878387832641601562e+01 1.921573448181152344e+01 -5.464516282081604004e-01 4.842600598931312561e-02 -1.494076848030090332e-01 -4.060741364955902100e-01
6.743000000000000000e+03 4.866535949707031250e+01 1.975909996032714844e+01 -5.911138653755187988e-01 -3.594678267836570740e-02 -1.881181895732879639e-01 -4.570438861846923828e-01
6.744000000000000000e+03 1.986784934997558594e+01 2.210263442993164062e+01 1.484239753335714340e-02 1.002610921859741211e-01 3.453104943037033081e-02 4.707373678684234619e-02
6.745000000000000000e+03 2.036476516723632812e+01 2.151790809631347656e+01 2.031682990491390228e-02 1.028291061520576477e-01 3.694377839565277100e-02 5.217444896697998047e-02
6.746000000000000000e+03 5.441295242309570312e+01 2.406683540344238281e+01 -4.331456720829010010e-01 7.921261787414550781e-01 1.076941490173339844e-01 -1.124397665262222290e-01
6.747000000000000000e+03 6.292165756225585938e+01 2.374387359619140625e+01 -1.752568185329437256e-01 4.277147769927978516e+00 1.230567336082458496e+00 1.440276265144348145e+00
6.748000000000000000e+03 6.443280792236328125e+01 2.097741317749023438e+01 -4.463237226009368896e-01 5.340421676635742188e+00 1.468229413032531738e+00 1.168890953063964844e+00
6.749000000000000000e+03 3.623322296142578125e+01 5.167170166969299316e-01 -1.026255562901496887e-01 -4.106273651123046875e-01 -1.539758741855621338e-01 1.434433367103338242e-02
6.750000000000000000e+03 3.625721359252929688e+01 1.805692911148071289e+00 -2.755579948425292969e-01 -4.188675582408905029e-01 -2.083276659250259399e-01 -6.479807943105697632e-02
6.751000000000000000e+03 6.089587402343750000e+01 2.332564735412597656e+01 -6.137169525027275085e-02 3.157165765762329102e+00 9.287382364273071289e-01 1.061665892601013184e+00
6.752000000000000000e+03 6.264966964721679688e+01 2.223778915405273438e+01 -2.343489080667495728e-01 4.306938648223876953e+00 1.221776843070983887e+00 1.230474710464477539e+00
6.753000000000000000e+03 3.547701644897460938e+01 2.786025047302246094e+00 -5.039791464805603027e-01 -4.978396594524383545e-01 -3.005456328392028809e-01 -1.740811914205551147e-01
6.754000000000000000e+03 3.791144943237304688e+01 4.770537376403808594e+00 -4.870868027210235596e-01 -3.970296084880828857e-01 -2.652349174022674561e-01 -2.779045403003692627e-01
6.755000000000000000e+03 5.044359588623046875e+01 2.139376449584960938e+01 -5.781208872795104980e-01 1.592117398977279663e-01 -1.256727576255798340e-01 -3.774674534797668457e-01
6.756000000000000000e+03 5.120345306396484375e+01 2.192474937438964844e+01 -5.610489845275878906e-01 2.587766945362091064e-01 -9.068167209625244141e-02 -3.307256102561950684e-01
6.757000000000000000e+03 3.902442932128906250e+01 7.988193988800048828e+00 -6.168879866600036621e-01 -4.770042896270751953e-01 -3.281676769256591797e-01 -4.852712750434875488e-01
6.758000000000000000e+03 6.466350555419921875e+01 2.322780036926269531e+01 -4.609865248203277588e-01 5.560738086700439453e+00 1.529925346374511719e+00 1.455862998962402344e+00
6.759000000000000000e+03 3.573154067993164062e+01 7.836026549339294434e-01 -1.591863632202148438e-01 -4.416166245937347412e-01 -1.802408993244171143e-01 2.069345675408840179e-03
6.760000000000000000e+03 6.341404724121093750e+01 2.499848556518554688e+01 -1.280675530433654785e-01 4.419576644897460938e+00 1.287452697753906250e+00 1.653645634651184082e+00
6.761000000000000000e+03 1.690855026245117188e+01 1.795374679565429688e+01 1.938799954950809479e-02 1.201373785734176636e-01 4.185761511325836182e-02 4.951765760779380798e-02
6.762000000000000000e+03 1.756938171386718750e+01 1.878355979919433594e+01 1.925390586256980896e-02 1.159455031156539917e-01 4.055982455611228943e-02 4.989160969853401184e-02
6.763000000000000000e+03 1.559719181060791016e+01 1.620002937316894531e+01 1.995900087058544159e-02 1.296704262495040894e-01 4.488882794976234436e-02 4.690900444984436035e-02
6.764000000000000000e+03 6.693997955322265625e+01 2.692934417724609375e+01 -9.026148915290832520e-01 8.112855911254882812e+00 2.163072347640991211e+00 2.074831485748291016e+00
6.765000000000000000e+03 6.353463745117187500e+01 2.024196624755859375e+01 -3.578289747238159180e-01 4.889803409576416016e+00 1.359592437744140625e+00 1.091782689094543457e+00
6.766000000000000000e+03 5.880703353881835938e+01 2.332747459411621094e+01 -8.713310956954956055e-02 2.238406896591186523e+00 6.453821659088134766e-01 6.518636345863342285e-01
6.767000000000000000e+03 5.074796295166015625e+01 2.016877937316894531e+01 -4.723118841648101807e-01 3.664101958274841309e-01 -3.177050128579139709e-02 -2.537761926651000977e-01
6.768000000000000000e+03 5.059960174560546875e+01 1.974301910400390625e+01 -4.619700610637664795e-01 3.833295106887817383e-01 -2.359215728938579559e-02 -2.405547052621841431e-01
6.769000000000000000e+03 5.153201675415039062e+01 2.224333190917968750e+01 -5.598282217979431152e-01 3.026763200759887695e-01 -7.714558392763137817e-02 -3.196687102317810059e-01
6.770000000000000000e+03 6.648170471191406250e+01 2.755495834350585938e+01 -6.673297882080078125e-01 7.708295822143554688e+00 2.112289905548095703e+00 2.448180675506591797e+00
6.771000000000000000e+03 6.576651000976562500e+01 2.427000617980957031e+01 -6.392908692359924316e-01 6.415837287902832031e+00 1.732964038848876953e+00 1.597216129302978516e+00
6.772000000000000000e+03 1.941349983215332031e+01 2.149453926086425781e+01 1.576203852891921997e-02 1.024343222379684448e-01 3.545890748500823975e-02 4.750305414199829102e-02
6.773000000000000000e+03 1.749808120727539062e+01 2.059822463989257812e+01 1.100968569517135620e-02 1.014745011925697327e-01 3.374525532126426697e-02 3.969560563564300537e-02
6.774000000000000000e+03 3.513580703735351562e+01 3.921854019165039062e+00 -7.064002156257629395e-01 -5.445397496223449707e-01 -3.752819895744323730e-01 -3.158320784568786621e-01
6.775000000000000000e+03 3.480268096923828125e+01 2.964832782745361328e+00 -6.021802425384521484e-01 -5.318670868873596191e-01 -3.402142226696014404e-01 -2.146717011928558350e-01
6.776000000000000000e+03 3.481019210815429688e+01 1.844343185424804688e+00 -4.041804373264312744e-01 -4.962235689163208008e-01 -2.701211869716644287e-01 -7.892251014709472656e-02
6.777000000000000000e+03 4.003390884399414062e+01 -1.509838342666625977e+00 2.307551801204681396e-01 -2.256302721798419952e-02 6.245764717459678650e-02 9.848200529813766479e-02
6.778000000000000000e+03 2.229300498962402344e+01 2.422706604003906250e+01 1.828384771943092346e-02 9.349772334098815918e-02 3.353447094559669495e-02 4.877851903438568115e-02
6.779000000000000000e+03 2.127485084533691406e+01 2.324222755432128906e+01 1.767377927899360657e-02 9.663794189691543579e-02 3.429351747035980225e-02 4.838887602090835571e-02
6.780000000000000000e+03 5.701420974731445312e+01 2.440433883666992188e+01 -2.113641649484634399e-01 1.448402047157287598e+00 3.711113631725311279e-01 2.470388412475585938e-01
6.781000000000000000e+03 1.774275970458984375e+01 2.140097427368164062e+01 8.258797228336334229e-03 9.780991077423095703e-02 3.182061016559600830e-02 3.833997249603271484e-02
6.782000000000000000e+03 6.490775299072265625e+01 2.613147735595703125e+01 -3.075751960277557373e-01 5.692733764648437500e+00 1.615547537803649902e+00 2.072147846221923828e+00
6.783000000000000000e+03 5.744287872314453125e+01 2.376480102539062500e+01 -1.604851633310317993e-01 1.681908726692199707e+00 4.564270973205566406e-01 3.718283176422119141e-01
6.784000000000000000e+03 6.043210601806640625e+01 2.275301170349121094e+01 -8.360919356346130371e-02 3.055588245391845703e+00 8.915937542915344238e-01 9.663334488868713379e-01
6.785000000000000000e+03 6.316960906982421875e+01 1.381342411041259766e+01 -1.867710202932357788e-01 4.719582557678222656e+00 1.359843492507934570e+00 7.510529756546020508e-01
6.786000000000000000e+03 6.198740768432617188e+01 4.834593772888183594e+00 6.071924418210983276e-02 4.357743263244628906e+00 1.325538754463195801e+00 6.014104485511779785e-01
6.787000000000000000e+03 6.333254241943359375e+01 8.604022026062011719e+00 -4.737637564539909363e-02 4.746349811553955078e+00 1.409691929817199707e+00 6.457780003547668457e-01
6.788000000000000000e+03 6.225000762939453125e+01 1.312029266357421875e+01 -1.447651535272598267e-01 4.404906749725341797e+00 1.278042554855346680e+00 7.333590984344482422e-01
6.789000000000000000e+03 3.840825271606445312e+01 -3.308587074279785156e-01 1.027037054300308228e-01 -2.158728390932083130e-01 -3.395073860883712769e-02 5.969719961285591125e-02
6.790000000000000000e+03 4.238597488403320312e+01 -2.020262718200683594e+00 2.773145735263824463e-01 3.120299279689788818e-01 1.768033504486083984e-01 1.370970904827117920e-01
6.791000000000000000e+03 4.220757293701171875e+01 7.474015235900878906e+00 -3.515501022338867188e-01 -4.990134760737419128e-02 -1.204354390501976013e-01 -2.371783852577209473e-01
6.792000000000000000e+03 3.753062820434570312e+01 -9.880872815847396851e-02 4.878178238868713379e-02 -3.027330636978149414e-01 -7.618538290262222290e-02 4.804826900362968445e-02
6.793000000000000000e+03 3.783428955078125000e+01 8.183335661888122559e-01 -5.441462621092796326e-02 -2.827355265617370605e-01 -1.011450439691543579e-01 1.299077086150646210e-02
6.794000000000000000e+03 6.216394042968750000e+01 8.040998458862304688e+00 -1.147094089537858963e-02 4.401284694671630859e+00 1.316944122314453125e+00 6.284504532814025879e-01
6.795000000000000000e+03 6.197401046752929688e+01 7.004792690277099609e+00 2.091631107032299042e-02 4.355250835418701172e+00 1.312850117683410645e+00 6.186532974243164062e-01
6.796000000000000000e+03 5.970507049560546875e+01 9.549611061811447144e-02 1.520286947488784790e-01 3.824408292770385742e+00 1.192931175231933594e+00 5.247915387153625488e-01
6.797000000000000000e+03 5.852674865722656250e+01 -2.197190046310424805e+00 1.913831532001495361e-01 3.554634332656860352e+00 1.123805284500122070e+00 4.770125150680541992e-01
6.798000000000000000e+03 6.181571960449218750e+01 1.031623554229736328e+01 -6.070232763886451721e-02 4.283867835998535156e+00 1.266949653625488281e+00 6.689562797546386719e-01
6.799000000000000000e+03 6.288381576538085938e+01 1.111937236785888672e+01 -1.019670516252517700e-01 4.624253749847412109e+00 1.356685996055603027e+00 6.938894391059875488e-01
6.800000000000000000e+03 6.301170730590820312e+01 1.776909828186035156e+01 -2.870202064514160156e-01 4.654948711395263672e+00 1.310378551483154297e+00 9.127037525177001953e-01
6.801000000000000000e+03 5.995034790039062500e+01 3.621485948562622070e+00 9.839626401662826538e-02 3.827619552612304688e+00 1.177804827690124512e+00 5.584571361541748047e-01
6.802000000000000000e+03 1.889857864379882812e+01 2.177397537231445312e+01 1.079875044524669647e-02 1.005728766322135925e-01 3.341148793697357178e-02 4.340282827615737915e-02
6.803000000000000000e+03 5.535044860839843750e+01 -1.304069995880126953e+01 1.789868623018264771e-01 3.012759685516357422e+00 9.575240015983581543e-01 2.833386361598968506e-01
6.804000000000000000e+03 5.329600906372070312e+01 -9.256339073181152344e+00 2.650514245033264160e-01 2.518842697143554688e+00 8.351682424545288086e-01 2.914802432060241699e-01
6.805000000000000000e+03 5.168000411987304688e+01 -1.118096446990966797e+01 2.638990581035614014e-01 2.211184978485107422e+00 7.425251603126525879e-01 2.205182611942291260e-01
6.806000000000000000e+03 5.959268569946289062e+01 -4.197626590728759766e+00 1.875276565551757812e-01 3.828459501266479492e+00 1.204796195030212402e+00 4.685539603233337402e-01
6.807000000000000000e+03 6.038794326782226562e+01 -2.732062816619873047e+00 1.676888167858123779e-01 4.008423805236816406e+00 1.252833843231201172e+00 4.938332736492156982e-01
6.808000000000000000e+03 6.388385009765625000e+01 2.227774047851562500e+01 -3.606462776660919189e-01 5.006502151489257812e+00 1.393756747245788574e+00 1.326069355010986328e+00
6.809000000000000000e+03 4.424786758422851562e+01 -9.506158828735351562e-01 2.395025193691253662e-01 5.773730874061584473e-01 2.450626790523529053e-01 1.636382490396499634e-01
6.810000000000000000e+03 6.097037124633789062e+01 -7.061729907989501953e+00 1.585667431354522705e-01 4.178003311157226562e+00 1.300971031188964844e+00 4.371108114719390869e-01
6.811000000000000000e+03 4.717539596557617188e+01 -3.857889175415039062e+00 3.265635669231414795e-01 1.154141783714294434e+00 4.442116022109985352e-01 2.163241654634475708e-01
6.812000000000000000e+03 1.967258262634277344e+01 2.345662498474121094e+01 9.471662342548370361e-03 9.284235537052154541e-02 3.069420345127582550e-02 4.074172303080558777e-02
6.813000000000000000e+03 4.495480728149414062e+01 -3.222223997116088867e+00 3.296352922916412354e-01 7.165994644165039062e-01 3.138704299926757812e-01 1.735088378190994263e-01
6.814000000000000000e+03 4.615312957763671875e+01 -4.340013980865478516e+00 3.477115333080291748e-01 9.467585682868957520e-01 3.883410394191741943e-01 1.898236274719238281e-01
6.815000000000000000e+03 6.044842529296875000e+01 2.244966030120849609e-01 1.412494629621505737e-01 3.993343830108642578e+00 1.240378022193908691e+00 5.269409418106079102e-01
6.816000000000000000e+03 6.278881072998046875e+01 1.008082103729248047e+01 -7.085739821195602417e-02 4.596437931060791016e+00 1.357674121856689453e+00 6.719812750816345215e-01
6.817000000000000000e+03 6.251803207397460938e+01 9.044588088989257812e+00 -3.759418800473213196e-02 4.521412849426269531e+00 1.345145702362060547e+00 6.507927775382995605e-01
6.818000000000000000e+03 5.063506317138671875e+01 -8.487334251403808594e+00 3.040904700756072998e-01 1.953893780708312988e+00 6.773952841758728027e-01 2.353088110685348511e-01
6.819000000000000000e+03 5.003761291503906250e+01 -7.448725700378417969e+00 3.134773671627044678e-01 1.800052642822265625e+00 6.340590119361877441e-01 2.372534573078155518e-01
6.820000000000000000e+03 6.368124389648437500e+01 1.742261695861816406e+01 -3.111156821250915527e-01 4.929781913757324219e+00 1.385599970817565918e+00 8.864561915397644043e-01
6.821000000000000000e+03 6.381627655029296875e+01 1.652612876892089844e+01 -2.995080947875976562e-01 4.996585845947265625e+00 1.409123301506042480e+00 8.560305237770080566e-01
6.822000000000000000e+03 1.867320442199707031e+01 2.365298461914062500e+01 6.588615942746400833e-03 8.807375282049179077e-02 2.839871123433113098e-02 3.480949252843856812e-02
6.823000000000000000e+03 5.920546340942382812e+01 3.148497581481933594e+00 1.133491620421409607e-01 3.638113021850585938e+00 1.125438690185546875e+00 5.554856061935424805e-01
6.824000000000000000e+03 6.121127700805664062e+01 -1.007880210876464844e+01 1.439046859741210938e-01 4.257646083831787109e+00 1.320465207099914551e+00 3.970034122467041016e-01
6.825000000000000000e+03 6.016769409179687500e+01 -1.277349567413330078e+01 1.378367841243743896e-01 4.045545101165771484e+00 1.255014538764953613e+00 3.591357767581939697e-01
6.826000000000000000e+03 2.441716003417968750e+01 3.298951721191406250e+01 9.386298246681690216e-03 6.975489854812622070e-02 2.374235913157463074e-02 2.691266313195228577e-02
6.827000000000000000e+03 2.199071311950683594e+01 3.311296463012695312e+01 2.128368243575096130e-03 6.430884450674057007e-02 1.993116363883018494e-02 2.059249952435493469e-02
6.828000000000000000e+03 4.545819473266601562e+01 -2.200273036956787109e+00 2.971346974372863770e-01 7.928811311721801758e-01 3.270047605037689209e-01 1.834551841020584106e-01
6.829000000000000000e+03 2.026283454895019531e+01 2.834714698791503906e+01 2.745616948232054710e-03 7.376260310411453247e-02 2.295246534049510956e-02 2.788291685283184052e-02
6.830000000000000000e+03 5.758567428588867188e+01 -1.512031841278076172e+01 1.233618035912513733e-01 3.519655227661132812e+00 1.092905044555664062e+00 3.005206286907196045e-01
6.831000000000000000e+03 6.003613662719726562e+01 -1.785414314270019531e+01 7.984038442373275757e-02 4.082009315490722656e+00 1.248554944992065430e+00 3.156263530254364014e-01
6.832000000000000000e+03 5.631753158569335938e+01 -1.417580986022949219e+01 1.535317450761795044e-01 3.247965335845947266e+00 1.020449161529541016e+00 2.891921401023864746e-01
6.833000000000000000e+03 1.638315391540527344e+01 3.418209457397460938e+01 -6.518929731100797653e-03 3.701968491077423096e-02 9.150226600468158722e-03 6.503386422991752625e-03
6.834000000000000000e+03 1.956044197082519531e+01 3.274063873291015625e+01 -1.618470880202949047e-03 5.666652321815490723e-02 1.651441492140293121e-02 1.574732363224029541e-02
6.835000000000000000e+03 6.612651062011718750e+01 2.740224647521972656e+01 -5.500423312187194824e-01 7.182120800018310547e+00 1.989623546600341797e+00 2.491705656051635742e+00
6.836000000000000000e+03 4.121371459960937500e+01 1.124304771423339844e+01 -6.362228989601135254e-01 -4.524466693401336670e-01 -3.266008496284484863e-01 -5.703775882720947266e-01
6.837000000000000000e+03 6.691278839111328125e+01 2.794666290283203125e+01 -8.127449750900268555e-01 8.468310356140136719e+00 2.296669721603393555e+00 2.463573455810546875e+00
6.838000000000000000e+03 5.181547164916992188e+01 2.259344482421875000e+01 -5.555924177169799805e-01 3.407748937606811523e-01 -6.444526463747024536e-02 -3.140277862548828125e-01
6.839000000000000000e+03 6.575387573242187500e+01 2.673179244995117188e+01 -4.927826225757598877e-01 6.611268997192382812e+00 1.835546016693115234e+00 2.278169870376586914e+00
6.840000000000000000e+03 4.341072845458984375e+01 1.335116767883300781e+01 -5.862194299697875977e-01 -3.062177598476409912e-01 -2.677311599254608154e-01 -5.469700694084167480e-01
6.841000000000000000e+03 4.236668777465820312e+01 1.230148792266845703e+01 -6.050408482551574707e-01 -3.707714378833770752e-01 -2.927436828613281250e-01 -5.558666586875915527e-01
6.842000000000000000e+03 4.269764328002929688e+01 1.276292037963867188e+01 -6.105304956436157227e-01 -3.596983551979064941e-01 -2.910686731338500977e-01 -5.608626604080200195e-01
6.843000000000000000e+03 4.451047897338867188e+01 1.366058254241943359e+01 -5.261945724487304688e-01 -1.651841253042221069e-01 -2.074136137962341309e-01 -4.762093424797058105e-01
6.844000000000000000e+03 5.309017944335937500e+01 2.235785865783691406e+01 -4.429947733879089355e-01 6.784626245498657227e-01 7.064035534858703613e-02 -1.391424238681793213e-01
6.845000000000000000e+03 4.760965347290039062e+01 1.698574638366699219e+01 -4.914075136184692383e-01 4.826694726943969727e-02 -1.329421699047088623e-01 -3.929715156555175781e-01
6.846000000000000000e+03 4.727989196777343750e+01 1.659253120422363281e+01 -4.910725653171539307e-01 2.603080868721008301e-02 -1.395125240087509155e-01 -4.032174050807952881e-01
6.847000000000000000e+03 4.530202865600585938e+01 1.448447418212890625e+01 -5.122970938682556152e-01 -1.144223138689994812e-01 -1.880158185958862305e-01 -4.605570733547210693e-01
6.848000000000000000e+03 4.553757095336914062e+01 1.508702182769775391e+01 -5.274377465248107910e-01 -1.351025104522705078e-01 -1.987620741128921509e-01 -4.779721796512603760e-01
6.849000000000000000e+03 5.373388290405273438e+01 2.274666786193847656e+01 -4.203717112541198730e-01 7.943214178085327148e-01 1.121849119663238525e-01 -8.831080049276351929e-02
6.850000000000000000e+03 5.340797424316406250e+01 2.296620368957519531e+01 -4.647703170776367188e-01 6.638770699501037598e-01 5.973201617598533630e-02 -1.551940590143203735e-01
6.851000000000000000e+03 6.419383239746093750e+01 2.533083152770996094e+01 -2.357714474201202393e-01 5.058477401733398438e+00 1.446811795234680176e+00 1.833481550216674805e+00
6.852000000000000000e+03 5.112297439575195312e+01 2.120270729064941406e+01 -5.191496610641479492e-01 3.300814330577850342e-01 -5.672046542167663574e-02 -2.871728837490081787e-01
6.853000000000000000e+03 5.012847518920898438e+01 2.103480911254882812e+01 -5.783977508544921875e-01 1.292728930711746216e-01 -1.347374469041824341e-01 -3.856828808784484863e-01
6.854000000000000000e+03 5.340415191650390625e+01 2.177706909179687500e+01 -3.887400031089782715e-01 8.222923874855041504e-01 1.300657242536544800e-01 -5.811174586415290833e-02
6.855000000000000000e+03 5.398543167114257812e+01 2.365818405151367188e+01 -4.511104524135589600e-01 7.344154715538024902e-01 8.499149233102798462e-02 -1.331379264593124390e-01
6.856000000000000000e+03 4.626873397827148438e+01 1.555892658233642578e+01 -4.996083676815032959e-01 -5.116583779454231262e-02 -1.652322709560394287e-01 -4.374664723873138428e-01
6.857000000000000000e+03 4.694100570678710938e+01 1.621992492675781250e+01 -4.900621473789215088e-01 2.431822242215275764e-03 -1.462890952825546265e-01 -4.128562510013580322e-01
6.858000000000000000e+03 5.191455841064453125e+01 2.183606910705566406e+01 -5.005825161933898926e-01 4.550771117210388184e-01 -1.365161780267953873e-02 -2.383818477392196655e-01
6.859000000000000000e+03 4.823096084594726562e+01 1.917937660217285156e+01 -5.799020528793334961e-01 -5.079847946763038635e-02 -1.892101615667343140e-01 -4.673687517642974854e-01
6.860000000000000000e+03 4.817018890380859375e+01 1.854320716857910156e+01 -5.434324145317077637e-01 -8.713811635971069336e-03 -1.656438559293746948e-01 -4.349514842033386230e-01
6.861000000000000000e+03 4.085894775390625000e+01 8.986976623535156250e+00 -5.321252942085266113e-01 -3.233616948127746582e-01 -2.566460967063903809e-01 -4.310585856437683105e-01
6.862000000000000000e+03 4.792294692993164062e+01 1.739640045166015625e+01 -4.919728338718414307e-01 6.502573192119598389e-02 -1.280841231346130371e-01 -3.855628371238708496e-01
6.863000000000000000e+03 4.936196136474609375e+01 1.934902572631835938e+01 -5.208548307418823242e-01 1.522326767444610596e-01 -1.105866506695747375e-01 -3.538775742053985596e-01
6.864000000000000000e+03 4.083616256713867188e+01 9.864371299743652344e+00 -5.814589858055114746e-01 -3.946400284767150879e-01 -2.928296923637390137e-01 -4.960657060146331787e-01
6.865000000000000000e+03 4.136936569213867188e+01 1.033069992065429688e+01 -5.704470276832580566e-01 -3.559675514698028564e-01 -2.779243588447570801e-01 -4.902597665786743164e-01
6.866000000000000000e+03 3.865479278564453125e+01 7.511389255523681641e+00 -6.161679029464721680e-01 -4.847121834754943848e-01 -3.302640020847320557e-01 -4.725847840309143066e-01
6.867000000000000000e+03 5.514056777954101562e+01 2.421477890014648438e+01 -3.762854337692260742e-01 9.593709111213684082e-01 1.749256402254104614e-01 -2.637479081749916077e-02
6.868000000000000000e+03 5.442367935180664062e+01 2.357543373107910156e+01 -4.149816334247589111e-01 8.500884771347045898e-01 1.305320411920547485e-01 -7.077315449714660645e-02
6.869000000000000000e+03 5.083326339721679688e+01 2.166102600097656250e+01 -5.615019202232360840e-01 2.202905714511871338e-01 -1.023634076118469238e-01 -3.518859148025512695e-01
6.870000000000000000e+03 4.193610763549804688e+01 1.214615440368652344e+01 -6.200206279754638672e-01 -4.155207574367523193e-01 -3.106624186038970947e-01 -5.784197449684143066e-01
6.871000000000000000e+03 4.956571578979492188e+01 1.975102043151855469e+01 -5.303748846054077148e-01 1.501159667968750000e-01 -1.140776798129081726e-01 -3.594993948936462402e-01
6.872000000000000000e+03 3.609286117553710938e+01 3.978441238403320312e+00 -5.927935242652893066e-01 -4.881856739521026611e-01 -3.242937624454498291e-01 -2.812510132789611816e-01
6.873000000000000000e+03 3.752906799316406250e+01 5.843145847320556641e+00 -6.052317619323730469e-01 -4.819203615188598633e-01 -3.261456191539764404e-01 -3.964507281780242920e-01
6.874000000000000000e+03 6.359183120727539062e+01 2.103601646423339844e+01 -3.508610725402832031e-01 4.884899139404296875e+00 1.360211372375488281e+00 1.193925619125366211e+00
6.875000000000000000e+03 6.264017486572265625e+01 1.962401199340820312e+01 -2.722907066345214844e-01 4.446825504302978516e+00 1.252360343933105469e+00 1.017953395843505859e+00
6.876000000000000000e+03 4.047376632690429688e+01 -8.173903822898864746e-01 1.920005679130554199e-01 2.654268220067024231e-02 6.556297093629837036e-02 8.965138345956802368e-02
6.877000000000000000e+03 3.954101181030273438e+01 7.697289943695068359e+00 -5.542846322059631348e-01 -4.006236493587493896e-01 -2.864724695682525635e-01 -4.244457185268402100e-01
6.878000000000000000e+03 4.040599822998046875e+01 7.989561557769775391e+00 -5.042819380760192871e-01 -3.186551928520202637e-01 -2.468811422586441040e-01 -3.882975578308105469e-01
6.879000000000000000e+03 5.480740737915039062e+01 2.446585273742675781e+01 -4.305745363235473633e-01 8.138822317123413086e-01 1.149923056364059448e-01 -1.058629676699638367e-01
6.880000000000000000e+03 6.317119979858398438e+01 2.439444160461425781e+01 -1.469707041978836060e-01 4.339016437530517578e+00 1.257613658905029297e+00 1.548785448074340820e+00
6.881000000000000000e+03 6.274819564819335938e+01 2.299447059631347656e+01 -2.177395820617675781e-01 4.266454219818115234e+00 1.214614391326904297e+00 1.324197292327880859e+00
6.882000000000000000e+03 6.150013351440429688e+01 2.279316711425781250e+01 -1.307046264410018921e-01 3.584492444992065430e+00 1.036136388778686523e+00 1.128344416618347168e+00
6.883000000000000000e+03 6.404090881347656250e+01 2.472204971313476562e+01 -2.645984292030334473e-01 4.993152141571044922e+00 1.418566107749938965e+00 1.690659761428833008e+00
6.884000000000000000e+03 3.516050720214843750e+01 3.230773687362670898e+00 -6.130014061927795410e-01 -5.141248703002929688e-01 -3.381378650665283203e-01 -2.243180274963378906e-01
6.885000000000000000e+03 6.479190063476562500e+01 2.398835945129394531e+01 -4.643613398075103760e-01 5.642378807067871094e+00 1.553405284881591797e+00 1.585698008537292480e+00
6.886000000000000000e+03 6.534587097167968750e+01 2.455417060852050781e+01 -5.518571138381958008e-01 6.156064987182617188e+00 1.681262373924255371e+00 1.687708973884582520e+00
6.887000000000000000e+03 5.551454162597656250e+01 2.395181465148925781e+01 -3.329367935657501221e-01 1.091527223587036133e+00 2.275771349668502808e-01 5.272005125880241394e-02
6.888000000000000000e+03 5.541904067993164062e+01 2.344499588012695312e+01 -3.137209713459014893e-01 1.139182329177856445e+00 2.476384043693542480e-01 8.123347163200378418e-02
6.889000000000000000e+03 5.087594604492187500e+01 2.059001350402832031e+01 -4.962401092052459717e-01 3.509481549263000488e-01 -4.358759149909019470e-02 -2.686270177364349365e-01
6.890000000000000000e+03 6.639833068847656250e+01 2.657282066345214844e+01 -7.405040264129638672e-01 7.369904041290283203e+00 1.988820075988769531e+00 2.102380990982055664e+00
6.891000000000000000e+03 4.144019699096679688e+01 1.226266193389892578e+01 -6.735895276069641113e-01 -5.055661201477050781e-01 -3.537466824054718018e-01 -6.301565170288085938e-01
6.892000000000000000e+03 4.145607376098632812e+01 1.069854354858398438e+01 -5.863806605339050293e-01 -3.751474022865295410e-01 -2.884584367275238037e-01 -5.132037401199340820e-01
6.893000000000000000e+03 5.932259368896484375e+01 2.264587402343750000e+01 -8.437104523181915283e-02 2.557679414749145508e+00 7.419925332069396973e-01 7.594363689422607422e-01
6.894000000000000000e+03 6.547090911865234375e+01 2.568742561340332031e+01 -5.233383178710937500e-01 6.305332660675048828e+00 1.734598278999328613e+00 1.971475362777709961e+00
6.895000000000000000e+03 5.490375137329101562e+01 2.352767753601074219e+01 -3.682853877544403076e-01 9.879192113876342773e-01 1.858901381492614746e-01 1.976813422515988350e-03
6.896000000000000000e+03 5.812899017333984375e+01 2.309706115722656250e+01 -1.164008602499961853e-01 2.042863845825195312e+00 5.779388546943664551e-01 5.464429259300231934e-01
6.897000000000000000e+03 6.557404327392578125e+01 2.642001342773437500e+01 -4.793527424335479736e-01 6.388800144195556641e+00 1.772834181785583496e+00 2.194639444351196289e+00
6.898000000000000000e+03 6.271362686157226562e+01 1.614928245544433594e+01 -2.370390295982360840e-01 4.541110038757324219e+00 1.291221261024475098e+00 8.255180716514587402e-01
6.899000000000000000e+03 6.336161422729492188e+01 1.526965618133544922e+01 -2.313264310359954834e-01 4.774443626403808594e+00 1.362935185432434082e+00 7.965087890625000000e-01
6.900000000000000000e+03 3.937990188598632812e+01 9.615374803543090820e-01 -6.221952848136425018e-03 -1.270967274904251099e-01 -3.999560326337814331e-02 2.927118912339210510e-02
6.901000000000000000e+03 3.631355285644531250e+01 2.652947425842285156e+00 -3.962169587612152100e-01 -4.342584908008575439e-01 -2.491426318883895874e-01 -1.399080157279968262e-01
6.902000000000000000e+03 2.121747970581054688e+01 2.450044822692871094e+01 1.163914427161216736e-02 9.110791236162185669e-02 3.082411736249923706e-02 4.330158606171607971e-02
6.903000000000000000e+03 3.918238830566406250e+01 7.163190364837646484e+00 -5.491474866867065430e-01 -4.003312289714813232e-01 -2.848436236381530762e-01 -4.049597680568695068e-01
6.904000000000000000e+03 3.812835311889648438e+01 2.535174787044525146e-01 2.026491425931453705e-02 -2.411469519138336182e-01 -6.626460701227188110e-02 3.894797712564468384e-02
6.905000000000000000e+03 4.280635452270507812e+01 -1.167153596878051758e+00 2.528331279754638672e-01 3.508084118366241455e-01 1.810924708843231201e-01 1.321561932563781738e-01
6.906000000000000000e+03 4.474085235595703125e+01 -2.446137905120849609e+00 3.076351583003997803e-01 6.769791841506958008e-01 2.953843176364898682e-01 1.784970611333847046e-01
6.907000000000000000e+03 5.797503662109375000e+01 2.379431915283203125e+01 -1.247848272323608398e-01 1.848000049591064453e+00 5.169645547866821289e-01 4.767989814281463623e-01
6.908000000000000000e+03 6.097406005859375000e+01 2.233301162719726562e+01 -1.282372921705245972e-01 3.359500885009765625e+00 9.693790674209594727e-01 1.019768476486206055e+00
6.909000000000000000e+03 6.325812149047851562e+01 1.458199596405029297e+01 -2.081904113292694092e-01 4.739331722259521484e+00 1.359342455863952637e+00 7.658393979072570801e-01
6.910000000000000000e+03 6.212587356567382812e+01 1.222349548339843750e+01 -1.173913031816482544e-01 4.370822429656982422e+00 1.276029348373413086e+00 7.131093740463256836e-01
6.911000000000000000e+03 6.045233535766601562e+01 1.263538455963134766e+01 -8.952177315950393677e-02 3.821051359176635742e+00 1.119458913803100586e+00 6.856113076210021973e-01
6.912000000000000000e+03 5.915778732299804688e+01 6.785835742950439453e+00 5.478103831410408020e-02 3.585896492004394531e+00 1.092203259468078613e+00 5.882611274719238281e-01
6.913000000000000000e+03 6.089257812500000000e+01 7.172321319580078125e+00 2.624832279980182648e-02 4.039236068725585938e+00 1.219645380973815918e+00 6.143485903739929199e-01
6.914000000000000000e+03 6.407719421386718750e+01 1.859028244018554688e+01 -3.646736741065979004e-01 5.132949352264404297e+00 1.430482625961303711e+00 9.481981396675109863e-01
6.915000000000000000e+03 6.326696014404296875e+01 1.862162971496582031e+01 -3.085039258003234863e-01 4.761477470397949219e+00 1.335892081260681152e+00 9.635724425315856934e-01
6.916000000000000000e+03 3.699002075195312500e+01 1.020533204078674316e+00 -1.220968365669250488e-01 -3.593571782112121582e-01 -1.444361954927444458e-01 -6.907341070473194122e-03
6.917000000000000000e+03 3.722346496582031250e+01 4.733903408050537109e-01 -4.325190931558609009e-02 -3.256229162216186523e-01 -1.106624528765678406e-01 2.156378515064716339e-02
6.918000000000000000e+03 4.297253036499023438e+01 -2.519071340560913086e+00 3.126622140407562256e-01 3.998907804489135742e-01 2.137658894062042236e-01 1.390158534049987793e-01
6.919000000000000000e+03 2.044802856445312500e+01 2.281905555725097656e+01 1.454861368983983994e-02 9.708946943283081055e-02 3.349142521619796753e-02 4.620265215635299683e-02
6.920000000000000000e+03 6.392119979858398438e+01 2.323929214477539062e+01 -3.496098518371582031e-01 5.014726638793945312e+00 1.399535059928894043e+00 1.433679580688476562e+00
6.921000000000000000e+03 5.994538116455078125e+01 7.804594039916992188e-01 1.451781839132308960e-01 3.888661861419677734e+00 1.210152029991149902e+00 5.337107181549072266e-01
6.922000000000000000e+03 5.934172058105468750e+01 -2.587790250778198242e+00 1.809699386358261108e-01 3.753952741622924805e+00 1.180476784706115723e+00 4.833583235740661621e-01
6.923000000000000000e+03 6.010844039916992188e+01 -5.598877429962158203e+00 1.775116622447967529e-01 3.978987216949462891e+00 1.246949672698974609e+00 4.552672207355499268e-01
6.924000000000000000e+03 6.077446365356445312e+01 5.963772773742675781e+00 5.519783869385719299e-02 4.017987728118896484e+00 1.221955657005310059e+00 6.000385284423828125e-01
6.925000000000000000e+03 5.872514343261718750e+01 4.518270015716552734e+00 1.021295562386512756e-01 3.496638774871826172e+00 1.079630494117736816e+00 5.565862655639648438e-01
6.926000000000000000e+03 4.569862365722656250e+01 -2.952579498291015625e+00 3.206617832183837891e-01 8.427402973175048828e-01 3.490206301212310791e-01 1.911528259515762329e-01
6.927000000000000000e+03 5.058477401733398438e+01 -5.870825290679931641e+00 3.132744729518890381e-01 1.875173807144165039e+00 6.565344929695129395e-01 2.790220975875854492e-01
6.928000000000000000e+03 4.851194763183593750e+01 -7.066229343414306641e+00 3.396784365177154541e-01 1.476456522941589355e+00 5.448404550552368164e-01 2.132685333490371704e-01
6.929000000000000000e+03 6.155924987792968750e+01 9.328210830688476562e+00 -2.866362221539020538e-02 4.218081951141357422e+00 1.256825447082519531e+00 6.542532444000244141e-01
6.930000000000000000e+03 1.925276184082031250e+01 2.252298355102539062e+01 1.103511173278093338e-02 9.631136804819107056e-02 3.220394253730773926e-02 4.131959751248359680e-02
6.931000000000000000e+03 5.978457641601562500e+01 -6.697583198547363281e+00 1.778751909732818604e-01 3.909691333770751953e+00 1.226269960403442383e+00 4.314855933189392090e-01
6.932000000000000000e+03 5.863824844360351562e+01 -6.262669563293457031e+00 1.992979943752288818e-01 3.638573646545410156e+00 1.151361465454101562e+00 4.280300438404083252e-01
6.933000000000000000e+03 6.123428344726562500e+01 8.295703887939453125e+00 2.044828375801444054e-03 4.134334564208984375e+00 1.240913748741149902e+00 6.368175148963928223e-01
6.934000000000000000e+03 6.038697052001953125e+01 -4.619915485382080078e+00 1.816050261259078979e-01 4.030308246612548828e+00 1.263574004173278809e+00 4.586104750633239746e-01
6.935000000000000000e+03 4.354574203491210938e+01 -1.261172652244567871e+00 2.500403523445129395e-01 4.609540998935699463e-01 2.132983356714248657e-01 1.483726948499679565e-01
6.936000000000000000e+03 4.372877120971679688e+01 -5.606343746185302734e-01 2.169350683689117432e-01 4.706237614154815674e-01 2.062676399946212769e-01 1.491967141628265381e-01
6.937000000000000000e+03 2.161847496032714844e+01 2.596301460266113281e+01 1.029387302696704865e-02 8.572899550199508667e-02 2.880686149001121521e-02 3.916269540786743164e-02
6.938000000000000000e+03 5.970067596435546875e+01 -7.048931717872619629e-01 1.587364226579666138e-01 3.818355560302734375e+00 1.193127632141113281e+00 5.140299797058105469e-01
6.939000000000000000e+03 5.726587295532226562e+01 -1.928078770637512207e+00 2.019015699625015259e-01 3.245530605316162109e+00 1.034229636192321777e+00 4.656651914119720459e-01
6.940000000000000000e+03 5.910336303710937500e+01 1.086560487747192383e+00 1.583700776100158691e-01 3.658382177352905273e+00 1.145025730133056641e+00 5.259320139884948730e-01
6.941000000000000000e+03 5.887512588500976562e+01 1.915818601846694946e-01 1.602749973535537720e-01 3.615094900131225586e+00 1.132610917091369629e+00 5.078681111335754395e-01
6.942000000000000000e+03 5.961063766479492188e+01 -1.420479869842529297e+01 1.161541193723678589e-01 3.936894178390502930e+00 1.215914487838745117e+00 3.360786437988281250e-01
6.943000000000000000e+03 5.605044937133789062e+01 -1.032072734832763672e+01 2.115566283464431763e-01 3.118408918380737305e+00 9.989897012710571289e-01 3.217807114124298096e-01
6.944000000000000000e+03 4.916427230834960938e+01 -3.689937829971313477e+00 3.060525357723236084e-01 1.516199707984924316e+00 5.466756820678710938e-01 2.633118927478790283e-01
6.945000000000000000e+03 4.918548202514648438e+01 -5.067098140716552734e+00 3.264804184436798096e-01 1.566028594970703125e+00 5.677527189254760742e-01 2.463647723197937012e-01
6.946000000000000000e+03 5.456182479858398438e+01 -1.203265380859375000e+01 2.050292044878005981e-01 2.844543457031250000e+00 9.148718118667602539e-01 2.838992774486541748e-01
6.947000000000000000e+03 1.897630882263183594e+01 3.523753738403320312e+01 -3.754205536097288132e-03 4.770568758249282837e-02 1.318544428795576096e-02 9.071051143109798431e-03
6.948000000000000000e+03 5.836365127563476562e+01 -1.360707187652587891e+01 1.458918750286102295e-01 3.668672084808349609e+00 1.144369244575500488e+00 3.301325738430023193e-01
6.949000000000000000e+03 5.790208435058593750e+01 -8.602441787719726562e+00 1.958551108837127686e-01 3.504811763763427734e+00 1.110200047492980957e+00 3.841459453105926514e-01
6.950000000000000000e+03 5.252694320678710938e+01 -1.056533050537109375e+01 2.507774531841278076e-01 2.360333919525146484e+00 7.833334207534790039e-01 2.525372207164764404e-01
6.951000000000000000e+03 5.229917907714843750e+01 -8.248086929321289062e+00 2.797666788101196289e-01 2.252239704132080078e+00 7.596018910408020020e-01 2.802360057830810547e-01
6.952000000000000000e+03 5.391535949707031250e+01 -1.108135414123535156e+01 2.179893255233764648e-01 2.674434900283813477e+00 8.677272200584411621e-01 2.780163288116455078e-01
6.953000000000000000e+03 4.502476882934570312e+01 1.383082294464111328e+01 -4.972557127475738525e-01 -9.891705214977264404e-02 -1.788518279790878296e-01 -4.413855075836181641e-01
6.954000000000000000e+03 4.415141296386718750e+01 1.209269905090332031e+01 -4.713625609874725342e-01 -9.327151626348495483e-02 -1.693902164697647095e-01 -3.989139497280120850e-01
6.955000000000000000e+03 5.299204254150390625e+01 2.194280624389648438e+01 -4.362235069274902344e-01 6.991636157035827637e-01 7.888203114271163940e-02 -1.219780966639518738e-01
6.956000000000000000e+03 4.552359390258789062e+01 1.401340198516845703e+01 -4.750843942165374756e-01 -3.584756702184677124e-02 -1.532795876264572144e-01 -4.110771119594573975e-01
6.957000000000000000e+03 4.482683944702148438e+01 1.432838630676269531e+01 -5.374736785888671875e-01 -1.746120601892471313e-01 -2.136257290840148926e-01 -4.945989251136779785e-01
6.958000000000000000e+03 4.600948715209960938e+01 1.422389221191406250e+01 -4.552518427371978760e-01 2.833947166800498962e-02 -1.280737221240997314e-01 -3.789077997207641602e-01
6.959000000000000000e+03 4.575646972656250000e+01 1.467040538787841797e+01 -4.930291771888732910e-01 -5.850883945822715759e-02 -1.654614061117172241e-01 -4.312544465065002441e-01
6.960000000000000000e+03 5.594242477416992188e+01 2.336309814453125000e+01 -2.663792669773101807e-01 1.305066466331481934e+00 3.116061687469482422e-01 1.686853170394897461e-01
6.961000000000000000e+03 6.664089202880859375e+01 2.715419387817382812e+01 -7.732624411582946777e-01 7.797203063964843750e+00 2.107182264328002930e+00 2.220226764678955078e+00
6.962000000000000000e+03 4.732636642456054688e+01 1.585668182373046875e+01 -4.498809278011322021e-01 1.095103397965431213e-01 -1.021111756563186646e-01 -3.530523478984832764e-01
6.963000000000000000e+03 4.769474411010742188e+01 1.623610496520996094e+01 -4.451568126678466797e-01 1.435529142618179321e-01 -9.048116952180862427e-02 -3.388539850711822510e-01
6.964000000000000000e+03 4.730782699584960938e+01 1.511012554168701172e+01 -4.181396961212158203e-01 1.765577346086502075e-01 -7.247458398342132568e-02 -3.133012354373931885e-01
6.965000000000000000e+03 5.392874145507812500e+01 2.317089653015136719e+01 -4.325491189956665039e-01 7.847273349761962891e-01 1.056534647941589355e-01 -1.010351255536079407e-01
6.966000000000000000e+03 6.593036651611328125e+01 2.625222015380859375e+01 -5.981091260910034180e-01 6.745181083679199219e+00 1.844121694564819336e+00 2.098548650741577148e+00
6.967000000000000000e+03 5.488153457641601562e+01 2.297478294372558594e+01 -3.354723751544952393e-01 1.064442634582519531e+00 2.186910659074783325e-01 4.855628311634063721e-02
6.968000000000000000e+03 4.592096328735351562e+01 1.528935527801513672e+01 -5.117275118827819824e-01 -8.869304507970809937e-02 -1.801261603832244873e-01 -4.552567899227142334e-01
6.969000000000000000e+03 4.805042266845703125e+01 1.663985443115234375e+01 -4.482390880584716797e-01 1.675658226013183594e-01 -8.420198410749435425e-02 -3.271088898181915283e-01
6.970000000000000000e+03 4.822799682617187500e+01 1.781357002258300781e+01 -4.941750764846801758e-01 8.586058020591735840e-02 -1.224943473935127258e-01 -3.806274533271789551e-01
6.971000000000000000e+03 4.660353469848632812e+01 1.587293338775634766e+01 -4.941145479679107666e-01 -2.499598637223243713e-02 -1.557331532239913940e-01 -4.252356886863708496e-01
6.972000000000000000e+03 4.695713424682617188e+01 1.550390148162841797e+01 -4.558373689651489258e-01 7.652563601732254028e-02 -1.137935221195220947e-01 -3.678081929683685303e-01
6.973000000000000000e+03 4.618415069580078125e+01 1.490294933319091797e+01 -4.768071770668029785e-01 -4.880174063146114349e-03 -1.445062011480331421e-01 -4.042704403400421143e-01
6.974000000000000000e+03 4.223685836791992188e+01 1.297333431243896484e+01 -6.590236425399780273e-01 -4.570297002792358398e-01 -3.348159790039062500e-01 -6.206146478652954102e-01
6.975000000000000000e+03 4.416436004638671875e+01 1.293334293365478516e+01 -5.160196423530578613e-01 -1.617430597543716431e-01 -2.033288180828094482e-01 -4.574773609638214111e-01
6.976000000000000000e+03 4.997482681274414062e+01 1.951848411560058594e+01 -4.951922893524169922e-01 2.642267346382141113e-01 -6.928966194391250610e-02 -2.990960776805877686e-01
6.977000000000000000e+03 4.358571243286132812e+01 1.274850654602050781e+01 -5.439678430557250977e-01 -2.325057536363601685e-01 -2.329420894384384155e-01 -4.908248186111450195e-01
6.978000000000000000e+03 4.066300582885742188e+01 8.511859893798828125e+00 -5.211364030838012695e-01 -3.205731809139251709e-01 -2.525128722190856934e-01 -4.113723039627075195e-01
6.979000000000000000e+03 4.146414184570312500e+01 9.461177825927734375e+00 -5.187246799468994141e-01 -2.845779657363891602e-01 -2.409907877445220947e-01 -4.250723421573638916e-01
6.980000000000000000e+03 4.851565170288085938e+01 1.887740516662597656e+01 -5.374955534934997559e-01 2.946511097252368927e-02 -1.524091213941574097e-01 -4.161577820777893066e-01
6.981000000000000000e+03 4.854150009155273438e+01 1.821231651306152344e+01 -5.003197193145751953e-01 1.091055497527122498e-01 -1.173642426729202271e-01 -3.722387850284576416e-01
6.982000000000000000e+03 4.907104110717773438e+01 1.724487686157226562e+01 -4.142601490020751953e-01 3.202340900897979736e-01 -2.820781059563159943e-02 -2.560847103595733643e-01
6.983000000000000000e+03 5.594151687622070312e+01 2.380629539489746094e+01 -2.908062040805816650e-01 1.218472480773925781e+00 2.782998681068420410e-01 1.284535229206085205e-01
6.984000000000000000e+03 4.211209106445312500e+01 9.555947303771972656e+00 -4.763224720954895020e-01 -2.023557722568511963e-01 -2.036034613847732544e-01 -3.826158940792083740e-01
6.985000000000000000e+03 4.141859817504882812e+01 8.935964584350585938e+00 -4.956941604614257812e-01 -2.594862580299377441e-01 -2.265541255474090576e-01 -3.920098543167114258e-01
6.986000000000000000e+03 6.603195953369140625e+01 2.659850311279296875e+01 -6.010961532592773438e-01 6.912531375885009766e+00 1.893430590629577637e+00 2.196693181991577148e+00
6.987000000000000000e+03 5.132932662963867188e+01 2.066420745849609375e+01 -4.719935357570648193e-01 4.412524104118347168e-01 -9.222336113452911377e-03 -2.285233139991760254e-01
6.988000000000000000e+03 5.049547195434570312e+01 2.074743080139160156e+01 -5.337126255035400391e-01 2.449614256620407104e-01 -8.662535995244979858e-02 -3.202496170997619629e-01
6.989000000000000000e+03 4.864756774902343750e+01 1.750483703613281250e+01 -4.520594477653503418e-01 2.076042443513870239e-01 -7.333655655384063721e-02 -3.184217512607574463e-01
6.990000000000000000e+03 4.123995208740234375e+01 8.372461318969726562e+00 -4.637621343135833740e-01 -2.368052750825881958e-01 -2.101702243089675903e-01 -3.613809049129486084e-01
6.991000000000000000e+03 3.729737472534179688e+01 4.543005943298339844e+00 -5.239828228950500488e-01 -4.271909594535827637e-01 -2.853521108627319336e-01 -2.827509939670562744e-01
6.992000000000000000e+03 6.549110412597656250e+01 2.509837341308593750e+01 -5.635800957679748535e-01 6.285377979278564453e+00 1.716539382934570312e+00 1.814100980758666992e+00
6.993000000000000000e+03 6.471102905273437500e+01 2.459074020385742188e+01 -4.033419787883758545e-01 5.568049430847167969e+00 1.549412250518798828e+00 1.718591451644897461e+00
6.994000000000000000e+03 6.349964523315429688e+01 2.354344177246093750e+01 -2.684605717658996582e-01 4.653736591339111328e+00 1.315582871437072754e+00 1.436135768890380859e+00
6.995000000000000000e+03 4.010852050781250000e+01 7.442400455474853516e+00 -4.955259263515472412e-01 -3.167883455753326416e-01 -2.436942756175994873e-01 -3.665615618228912354e-01
6.996000000000000000e+03 3.997744750976562500e+01 -2.865732908248901367e-01 1.352782100439071655e-01 -3.891386091709136963e-02 2.890930697321891785e-02 7.817725837230682373e-02
6.997000000000000000e+03 6.378838348388671875e+01 2.410578918457031250e+01 -2.713623046875000000e-01 4.850662231445312500e+00 1.373790025711059570e+00 1.556403160095214844e+00
6.998000000000000000e+03 5.663243103027343750e+01 2.268701171875000000e+01 -2.097205072641372681e-01 1.596633434295654297e+00 4.160738885402679443e-01 3.124987781047821045e-01
6.999000000000000000e+03 5.631444549560546875e+01 2.358193016052246094e+01 -2.534149587154388428e-01 1.376813411712646484e+00 3.370195329189300537e-01 2.007692754268646240e-01
7.000000000000000000e+03 6.190568542480468750e+01 2.213293457031250000e+01 -1.732727736234664917e-01 3.894556522369384766e+00 1.116385102272033691e+00 1.164925694465637207e+00
7.001000000000000000e+03 4.313439178466796875e+01 9.349161148071289062e+00 -3.988052606582641602e-01 -4.429977759718894958e-02 -1.329315155744552612e-01 -3.010983467102050781e-01
7.002000000000000000e+03 4.202881622314453125e+01 1.256945228576660156e+01 -6.484040021896362305e-01 -4.452332556247711182e-01 -3.280911743640899658e-01 -6.034709215164184570e-01
7.003000000000000000e+03 6.339638519287109375e+01 1.946529579162597656e+01 -3.333363533020019531e-01 4.838356494903564453e+00 1.351505994796752930e+00 1.030389308929443359e+00
7.004000000000000000e+03 6.269496154785156250e+01 1.692940521240234375e+01 -2.496193200349807739e-01 4.531944274902343750e+00 1.284697532653808594e+00 8.575385212898254395e-01
7.005000000000000000e+03 3.669146728515625000e+01 4.283552646636962891e+00 -5.585120916366577148e-01 -4.648270308971405029e-01 -3.070017397403717041e-01 -2.894612252712249756e-01
7.006000000000000000e+03 3.580671310424804688e+01 2.259552717208862305e+00 -3.861602544784545898e-01 -4.512521326541900635e-01 -2.512237131595611572e-01 -1.089209988713264465e-01
7.007000000000000000e+03 6.335199737548828125e+01 1.681945610046386719e+01 -2.867715358734130859e-01 4.782224178314208984e+00 1.348635911941528320e+00 8.668279051780700684e-01
7.008000000000000000e+03 3.943379592895507812e+01 6.254889011383056641e+00 -4.719839096069335938e-01 -3.189380168914794922e-01 -2.372765839099884033e-01 -3.165061771869659424e-01
7.009000000000000000e+03 3.876201248168945312e+01 6.606269359588623047e+00 -5.466493964195251465e-01 -4.108797907829284668e-01 -2.872587442398071289e-01 -3.854318261146545410e-01
7.010000000000000000e+03 5.155144119262695312e+01 2.145133590698242188e+01 -5.009390115737915039e-01 4.093145728111267090e-01 -2.748732827603816986e-02 -2.556746006011962891e-01
7.011000000000000000e+03 5.074757766723632812e+01 2.101136016845703125e+01 -5.269254446029663086e-01 2.813173234462738037e-01 -7.368243485689163208e-02 -3.120710253715515137e-01
7.012000000000000000e+03 5.238157272338867188e+01 2.157481193542480469e+01 -4.527202248573303223e-01 5.962065458297729492e-01 4.304588958621025085e-02 -1.688262224197387695e-01
7.013000000000000000e+03 5.742227554321289062e+01 2.315421676635742188e+01 -1.643293052911758423e-01 1.777879118919372559e+00 4.840649366378784180e-01 4.093056917190551758e-01
7.014000000000000000e+03 5.883565139770507812e+01 2.195315361022949219e+01 -1.096847653388977051e-01 2.477439641952514648e+00 7.103264927864074707e-01 6.950635313987731934e-01
7.015000000000000000e+03 4.135597229003906250e+01 1.172960281372070312e+01 -6.556061506271362305e-01 -4.765556454658508301e-01 -3.396485447883605957e-01 -5.935670733451843262e-01
7.016000000000000000e+03 5.255945205688476562e+01 2.207609367370605469e+01 -4.758299291133880615e-01 5.705616474151611328e-01 2.841950953006744385e-02 -1.839658915996551514e-01
7.017000000000000000e+03 3.844949340820312500e+01 5.552432060241699219e+00 -4.987653195858001709e-01 -3.827852904796600342e-01 -2.644651830196380615e-01 -3.186297118663787842e-01
7.018000000000000000e+03 3.812144470214843750e+01 4.212400436401367188e+00 -4.168445467948913574e-01 -3.392158448696136475e-01 -2.268181145191192627e-01 -2.116709798574447632e-01
7.019000000000000000e+03 5.732208251953125000e+01 2.249920082092285156e+01 -1.609234362840652466e-01 1.839168429374694824e+00 5.034735202789306641e-01 4.333131611347198486e-01
7.020000000000000000e+03 5.678812789916992188e+01 2.331181716918945312e+01 -2.051720768213272095e-01 1.543947339057922363e+00 4.016326069831848145e-01 2.968293130397796631e-01
7.021000000000000000e+03 3.595348358154296875e+01 3.125734090805053711e+00 -5.012555718421936035e-01 -4.602387249469757080e-01 -2.884483039379119873e-01 -1.886639446020126343e-01
7.022000000000000000e+03 6.225318908691406250e+01 1.798575782775878906e+01 -2.455966472625732422e-01 4.335834503173828125e+00 1.227071404457092285e+00 9.118013978004455566e-01
7.023000000000000000e+03 6.290131378173828125e+01 2.094904136657714844e+01 -2.760577201843261719e-01 4.486218929290771484e+00 1.263048410415649414e+00 1.141112565994262695e+00
7.024000000000000000e+03 6.332197189331054688e+01 2.181967163085937500e+01 -3.198441863059997559e-01 4.716648578643798828e+00 1.319041371345520020e+00 1.257848620414733887e+00
7.025000000000000000e+03 6.346776580810546875e+01 2.294842529296875000e+01 -2.996605038642883301e-01 4.701100349426269531e+00 1.320431947708129883e+00 1.359098672866821289e+00
7.026000000000000000e+03 6.000572204589843750e+01 2.207615852355957031e+01 -1.085168719291687012e-01 2.975520849227905273e+00 8.601012229919433594e-01 8.755812048912048340e-01
7.027000000000000000e+03 6.234755325317382812e+01 2.073944091796875000e+01 -2.532955408096313477e-01 4.237337112426757812e+00 1.195212483406066895e+00 1.057737708091735840e+00
7.028000000000000000e+03 5.807477569580078125e+01 2.231794929504394531e+01 -1.233750209212303162e-01 2.146559476852416992e+00 6.069552898406982422e-01 5.702813267707824707e-01
7.029000000000000000e+03 3.716140747070312500e+01 1.827451467514038086e+00 -2.203558534383773804e-01 -3.539365231990814209e-01 -1.722877174615859985e-01 -5.161463096737861633e-02
7.030000000000000000e+03 3.671759414672851562e+01 1.452356338500976562e+00 -2.026022821664810181e-01 -3.758991658687591553e-01 -1.735504418611526489e-01 -3.139027953147888184e-02
7.031000000000000000e+03 5.962627792358398438e+01 5.784893989562988281e+00 6.579876691102981567e-02 3.718751668930053711e+00 1.135365128517150879e+00 5.841799974441528320e-01
7.032000000000000000e+03 6.273649978637695312e+01 1.546689891815185547e+01 -2.144156843423843384e-01 4.571020603179931641e+00 1.306981444358825684e+00 7.909449934959411621e-01
7.033000000000000000e+03 6.159498596191406250e+01 1.419398498535156250e+01 -1.553871333599090576e-01 4.168074131011962891e+00 1.203806161880493164e+00 7.532413601875305176e-01
7.034000000000000000e+03 4.803610610961914062e+01 -2.882567882537841797e+00 3.037120103836059570e-01 1.290855050086975098e+00 4.783701300621032715e-01 2.437245845794677734e-01
7.035000000000000000e+03 6.253134155273437500e+01 1.476105499267578125e+01 -1.949618905782699585e-01 4.503775119781494141e+00 1.292644023895263672e+00 7.774522304534912109e-01
7.036000000000000000e+03 6.143625640869140625e+01 1.331016921997070312e+01 -1.299546509981155396e-01 4.116926670074462891e+00 1.196091532707214355e+00 7.290916442871093750e-01
7.037000000000000000e+03 4.595011520385742188e+01 -1.710310101509094238e+00 2.741561233997344971e-01 8.757616281509399414e-01 3.449753224849700928e-01 1.975629180669784546e-01
7.038000000000000000e+03 6.128199386596679688e+01 1.241565036773681641e+01 -1.002183631062507629e-01 4.088659286499023438e+00 1.196532249450683594e+00 6.988641619682312012e-01
7.039000000000000000e+03 6.111575698852539062e+01 1.150426197052001953e+01 -7.702372968196868896e-02 4.053674697875976562e+00 1.192995190620422363e+00 6.810665726661682129e-01
7.040000000000000000e+03 4.309149169921875000e+01 -3.353730142116546631e-01 1.837999075651168823e-01 3.784924745559692383e-01 1.686877161264419556e-01 1.360606253147125244e-01
7.041000000000000000e+03 4.239505767822265625e+01 6.108406543731689453e+00 -2.550934851169586182e-01 5.427357926964759827e-02 -6.024596840143203735e-02 -1.395332515239715576e-01
7.042000000000000000e+03 4.453887939453125000e+01 -1.649170041084289551e+00 2.715969085693359375e-01 6.307831406593322754e-01 2.707140147686004639e-01 1.672487854957580566e-01
7.043000000000000000e+03 4.409686660766601562e+01 1.369703412055969238e-01 1.735983490943908691e-01 5.123142004013061523e-01 2.057737708091735840e-01 1.458547562360763550e-01
7.044000000000000000e+03 6.214621353149414062e+01 1.579146385192871094e+01 -2.004913091659545898e-01 4.328035354614257812e+00 1.238263249397277832e+00 8.092395067214965820e-01
7.045000000000000000e+03 5.194397735595703125e+01 -6.417533874511718750e+00 2.920980155467987061e-01 2.154033422470092773e+00 7.338393926620483398e-01 3.012351989746093750e-01
7.046000000000000000e+03 6.088323974609375000e+01 4.779301643371582031e+00 7.261510938405990601e-02 4.070225715637207031e+00 1.242852330207824707e+00 5.861186385154724121e-01
7.047000000000000000e+03 5.828508377075195312e+01 6.276007175445556641e+00 6.948568671941757202e-02 3.355511903762817383e+00 1.027499318122863770e+00 5.528330206871032715e-01
7.048000000000000000e+03 5.874950408935546875e+01 -3.581452131271362305e+00 1.916753649711608887e-01 3.627057075500488281e+00 1.145619750022888184e+00 4.593175649642944336e-01
7.049000000000000000e+03 5.695059967041015625e+01 -1.094403648376464844e+01 1.880277544260025024e-01 3.332612991333007812e+00 1.056192278861999512e+00 3.347482681274414062e-01
7.050000000000000000e+03 5.987324142456054688e+01 7.612967014312744141e+00 3.260970115661621094e-02 3.755367279052734375e+00 1.136393070220947266e+00 6.065145730972290039e-01
7.051000000000000000e+03 6.032022476196289062e+01 8.642891883850097656e+00 4.982631653547286987e-03 3.873500108718872070e+00 1.163544774055480957e+00 6.254650950431823730e-01
7.052000000000000000e+03 4.530194473266601562e+01 -1.472081780433654785e+00 2.692829966545104980e-01 7.423651218414306641e-01 3.034944236278533936e-01 1.867161542177200317e-01
7.053000000000000000e+03 4.267137145996093750e+01 6.817635297775268555e-01 1.059911996126174927e-01 2.846080958843231201e-01 1.171797886490821838e-01 1.049119755625724792e-01
7.054000000000000000e+03 5.852301788330078125e+01 -1.032775783538818359e+01 1.748273819684982300e-01 3.667224168777465820e+00 1.152615427970886230e+00 3.705996870994567871e-01
7.055000000000000000e+03 5.941576766967773438e+01 -7.869865417480468750e+00 1.800253093242645264e-01 3.836700677871704102e+00 1.205017805099487305e+00 4.116667509078979492e-01
7.056000000000000000e+03 5.560647583007812500e+01 -8.968293190002441406e+00 2.284489274024963379e-01 2.998994827270507812e+00 9.682331681251525879e-01 3.348813951015472412e-01
7.057000000000000000e+03 5.220744705200195312e+01 -9.388799667358398438e+00 2.805633544921875000e-01 2.269205093383789062e+00 7.649305462837219238e-01 2.660320699214935303e-01
7.058000000000000000e+03 5.037936782836914062e+01 -4.750292778015136719e+00 3.095380365848541260e-01 1.797610402107238770e+00 6.321445703506469727e-01 2.847889363765716553e-01
7.059000000000000000e+03 5.882791519165039062e+01 -1.490929126739501953e+00 1.830685138702392578e-01 3.631679773330688477e+00 1.144424438476562500e+00 4.859443902969360352e-01
7.060000000000000000e+03 5.228748703002929688e+01 -7.310253143310546875e+00 2.871958613395690918e-01 2.245756149291992188e+00 7.598856091499328613e-01 2.995598316192626953e-01
7.061000000000000000e+03 5.826404571533203125e+01 -7.418218135833740234e+00 1.987875849008560181e-01 3.572494268417358398e+00 1.131384491920471191e+00 4.048988521099090576e-01
7.062000000000000000e+03 4.524011993408203125e+01 1.333652305603027344e+01 -4.637475311756134033e-01 -2.306385524570941925e-02 -1.460434198379516602e-01 -3.916600942611694336e-01
7.063000000000000000e+03 4.576120376586914062e+01 1.352729320526123047e+01 -4.364369511604309082e-01 4.875501245260238647e-02 -1.163045838475227356e-01 -3.575910031795501709e-01
7.064000000000000000e+03 4.628277206420898438e+01 1.374666118621826172e+01 -4.151658713817596436e-01 1.201785430312156677e-01 -8.849620074033737183e-02 -3.260308504104614258e-01
7.065000000000000000e+03 5.598365402221679688e+01 2.280905532836914062e+01 -2.554089725017547607e-01 1.386952280998229980e+00 3.394629955291748047e-01 2.108244895935058594e-01
7.066000000000000000e+03 5.367426681518554688e+01 2.211773109436035156e+01 -3.917794227600097656e-01 8.460160493850708008e-01 1.362709850072860718e-01 -5.602731183171272278e-02
7.067000000000000000e+03 4.647215652465820312e+01 1.447635269165039062e+01 -4.403075277805328369e-01 8.446526527404785156e-02 -1.067526787519454956e-01 -3.528645336627960205e-01
7.068000000000000000e+03 4.810051727294921875e+01 1.586026668548583984e+01 -4.063732922077178955e-01 2.603151798248291016e-01 -4.381743073463439941e-02 -2.771778404712677002e-01
7.069000000000000000e+03 4.852109146118164062e+01 1.627587509155273438e+01 -4.021543264389038086e-01 3.043600916862487793e-01 -2.933826856315135956e-02 -2.582443952560424805e-01
7.070000000000000000e+03 4.836516952514648438e+01 1.706822967529296875e+01 -4.497946500778198242e-01 1.890436410903930664e-01 -7.822530716657638550e-02 -3.212862610816955566e-01
7.071000000000000000e+03 5.343460464477539062e+01 2.243522453308105469e+01 -4.293605387210845947e-01 7.537519335746765137e-01 9.731742739677429199e-02 -1.056376621127128601e-01
7.072000000000000000e+03 4.658148956298828125e+01 1.518340873718261719e+01 -4.650045633316040039e-01 3.752723336219787598e-02 -1.282431930303573608e-01 -3.860614299774169922e-01
7.073000000000000000e+03 4.921938705444335938e+01 1.831444549560546875e+01 -4.661582410335540771e-01 2.344714999198913574e-01 -6.950601935386657715e-02 -3.055953681468963623e-01
7.074000000000000000e+03 4.690305328369140625e+01 1.477374362945556641e+01 -4.270469248294830322e-01 1.350127160549163818e-01 -8.761026710271835327e-02 -3.292890191078186035e-01
7.075000000000000000e+03 4.361900329589843750e+01 1.216782665252685547e+01 -5.175932645797729492e-01 -1.744351983070373535e-01 -2.076085507869720459e-01 -4.470312595367431641e-01
7.076000000000000000e+03 4.195861816406250000e+01 1.009478473663330078e+01 -5.168476104736328125e-01 -2.656871974468231201e-01 -2.347604334354400635e-01 -4.328409731388092041e-01
7.077000000000000000e+03 5.285695266723632812e+01 2.148159599304199219e+01 -4.120688736438751221e-01 7.315867543220520020e-01 9.585537016391754150e-02 -1.000427305698394775e-01
7.078000000000000000e+03 4.974691009521484375e+01 1.910371589660644531e+01 -4.769495725631713867e-01 2.593534588813781738e-01 -6.527883559465408325e-02 -3.005223274230957031e-01
7.079000000000000000e+03 5.221492385864257812e+01 1.975900840759277344e+01 -3.661077022552490234e-01 7.696310281753540039e-01 1.210570037364959717e-01 -6.913755089044570923e-02
7.080000000000000000e+03 3.645127105712890625e+01 3.466423273086547852e+00 -4.844570159912109375e-01 -4.474311172962188721e-01 -2.795664370059967041e-01 -2.079988569021224976e-01
7.081000000000000000e+03 4.912370681762695312e+01 1.896341705322265625e+01 -5.066274404525756836e-01 1.417703777551651001e-01 -1.094571277499198914e-01 -3.578777313232421875e-01
7.082000000000000000e+03 4.207673263549804688e+01 8.907310485839843750e+00 -4.401614964008331299e-01 -1.600955426692962646e-01 -1.800771057605743408e-01 -3.395154178142547607e-01
7.083000000000000000e+03 4.949163818359375000e+01 1.870305252075195312e+01 -4.703243076801300049e-01 2.493187189102172852e-01 -6.630168110132217407e-02 -2.990117371082305908e-01
7.084000000000000000e+03 4.099261856079101562e+01 7.803024291992187500e+00 -4.531227052211761475e-01 -2.294128686189651489e-01 -2.047606706619262695e-01 -3.347026705741882324e-01
7.085000000000000000e+03 4.185063934326171875e+01 8.249449729919433594e+00 -4.182307124137878418e-01 -1.457257270812988281e-01 -1.691869348287582397e-01 -3.098222315311431885e-01
7.086000000000000000e+03 4.961141967773437500e+01 1.804246902465820312e+01 -4.276593327522277832e-01 3.404488563537597656e-01 -2.616314031183719635e-02 -2.477678507566452026e-01
7.087000000000000000e+03 4.167225646972656250e+01 1.111193656921386719e+01 -5.973007082939147949e-01 -3.817567825317382812e-01 -2.937172651290893555e-01 -5.259753465652465820e-01
7.088000000000000000e+03 4.159829330444335938e+01 7.638271331787109375e+00 -3.983692824840545654e-01 -1.400804370641708374e-01 -1.615349203348159790e-01 -2.860048413276672363e-01
7.089000000000000000e+03 4.239934539794921875e+01 1.142255115509033203e+01 -5.600069761276245117e-01 -3.007207512855529785e-01 -2.582183182239532471e-01 -4.936606585979461670e-01
7.090000000000000000e+03 4.187153244018554688e+01 1.162718677520751953e+01 -6.136306524276733398e-01 -3.913321495056152344e-01 -3.014888465404510498e-01 -5.461851954460144043e-01
7.091000000000000000e+03 5.438591003417968750e+01 2.304749870300292969e+01 -3.834149837493896484e-01 9.141620397567749023e-01 1.592241078615188599e-01 -2.835147269070148468e-02
7.092000000000000000e+03 4.043709945678710938e+01 6.639760494232177734e+00 -4.237146973609924316e-01 -2.242674678564071655e-01 -1.943946480751037598e-01 -2.847042679786682129e-01
7.093000000000000000e+03 3.853886795043945312e+01 4.943567276000976562e+00 -4.389262795448303223e-01 -3.313961625099182129e-01 -2.310967296361923218e-01 -2.550218403339385986e-01
7.094000000000000000e+03 3.978208541870117188e+01 6.868975639343261719e+00 -4.837996065616607666e-01 -3.199921846389770508e-01 -2.411375343799591064e-01 -3.445444405078887939e-01
7.095000000000000000e+03 5.540000534057617188e+01 2.288416481018066406e+01 -3.026864528656005859e-01 1.206621408462524414e+00 2.711804807186126709e-01 1.207006350159645081e-01
7.096000000000000000e+03 6.529648590087890625e+01 2.615514755249023438e+01 -4.255819618701934814e-01 6.127439975738525391e+00 1.710557460784912109e+00 2.133520126342773438e+00
7.097000000000000000e+03 3.676175689697265625e+01 2.999689102172851562e+00 -4.104492962360382080e-01 -4.089109897613525391e-01 -2.458080798387527466e-01 -1.548005789518356323e-01
7.098000000000000000e+03 3.874507141113281250e+01 6.096609830856323242e-01 5.662310402840375900e-03 -1.932403445243835449e-01 -5.627340823411941528e-02 3.108062967658042908e-02
7.099000000000000000e+03 6.119401168823242188e+01 1.749120903015136719e+01 -1.936351507902145386e-01 3.912335157394409180e+00 1.115610003471374512e+00 8.490581512451171875e-01
7.100000000000000000e+03 4.884886932373046875e+01 1.858948135375976562e+01 -5.048206448554992676e-01 1.266215890645980835e-01 -1.134597137570381165e-01 -3.623011112213134766e-01
7.101000000000000000e+03 5.533429336547851562e+01 2.231143188476562500e+01 -2.814452946186065674e-01 1.267882585525512695e+00 2.959311902523040771e-01 1.515651345252990723e-01
7.102000000000000000e+03 3.923196411132812500e+01 5.597329616546630859e+00 -4.383796155452728271e-01 -3.003407716751098633e-01 -2.216161042451858521e-01 -2.766117751598358154e-01
7.103000000000000000e+03 6.148195266723632812e+01 2.119674873352050781e+01 -1.741586625576019287e-01 3.782842636108398438e+00 1.082605242729187012e+00 1.061629295349121094e+00
7.104000000000000000e+03 6.190699768066406250e+01 1.972149658203125000e+01 -2.286251932382583618e-01 4.098976135253906250e+00 1.161105275154113770e+00 9.950850009918212891e-01
7.105000000000000000e+03 6.068328475952148438e+01 2.176036453247070312e+01 -1.316985785961151123e-01 3.305563449859619141e+00 9.521595239639282227e-01 9.621011018753051758e-01
7.106000000000000000e+03 3.672655487060546875e+01 2.234340429306030273e+00 -3.076643347740173340e-01 -3.896310329437255859e-01 -2.091886252164840698e-01 -8.680716902017593384e-02
7.107000000000000000e+03 4.244064712524414062e+01 -9.311629086732864380e-02 1.763126105070114136e-01 2.750676274299621582e-01 1.354140788316726685e-01 1.083076745271682739e-01
7.108000000000000000e+03 4.259745407104492188e+01 6.703013420104980469e+00 -2.808246016502380371e-01 4.728525504469871521e-02 -7.006180286407470703e-02 -1.654333025217056274e-01
7.109000000000000000e+03 4.313105392456054688e+01 1.239985656738281250e+01 -5.601727366447448730e-01 -2.774250209331512451e-01 -2.512793242931365967e-01 -5.055270195007324219e-01
7.110000000000000000e+03 5.104406356811523438e+01 1.981323242187500000e+01 -4.420813918113708496e-01 4.693455100059509277e-01 8.179233409464359283e-03 -2.031543105840682983e-01
7.111000000000000000e+03 5.151194763183593750e+01 2.008836555480957031e+01 -4.207132756710052490e-01 5.595116615295410156e-01 4.163950681686401367e-02 -1.667432934045791626e-01
7.112000000000000000e+03 6.210708236694335938e+01 2.141351890563964844e+01 -2.235530912876129150e-01 4.109073638916015625e+00 1.165656208992004395e+00 1.114431500434875488e+00
7.113000000000000000e+03 6.249749374389648438e+01 1.880061531066894531e+01 -2.649700641632080078e-01 4.399229049682617188e+00 1.240277647972106934e+00 9.613540768623352051e-01
7.114000000000000000e+03 5.780100250244140625e+01 2.159366035461425781e+01 -1.349637210369110107e-01 2.167164802551269531e+00 6.096602678298950195e-01 5.524547100067138672e-01
7.115000000000000000e+03 5.437228012084960938e+01 2.253209495544433594e+01 -3.589665293693542480e-01 9.847046732902526855e-01 1.877214461565017700e-01 9.551790542900562286e-03
7.116000000000000000e+03 4.659111022949218750e+01 -2.036389350891113281e+00 2.920652329921722412e-01 9.941790699958801270e-01 3.858732879161834717e-01 2.094435840845108032e-01
7.117000000000000000e+03 4.095665359497070312e+01 -1.979973167181015015e-01 1.433945000171661377e-01 6.966000795364379883e-02 6.391635537147521973e-02 8.846094459295272827e-02
7.118000000000000000e+03 6.192729949951171875e+01 1.712674140930175781e+01 -2.191297113895416260e-01 4.234929561614990234e+00 1.204740047454833984e+00 8.569551706314086914e-01
7.119000000000000000e+03 6.181036376953125000e+01 1.503553867340087891e+01 -1.766432821750640869e-01 4.218327045440673828e+00 1.212505102157592773e+00 7.776193618774414062e-01
7.120000000000000000e+03 4.627075195312500000e+01 -9.397895336151123047e-01 2.548619210720062256e-01 9.211744070053100586e-01 3.528108894824981689e-01 2.005381435155868530e-01
7.121000000000000000e+03 6.026726531982421875e+01 1.174461841583251953e+01 -7.074300199747085571e-02 3.779978990554809570e+00 1.112770795822143555e+00 6.687619090080261230e-01
7.122000000000000000e+03 5.844293975830078125e+01 2.124007987976074219e+01 -1.257179826498031616e-01 2.443989276885986328e+00 6.954814195632934570e-01 6.458353400230407715e-01
7.123000000000000000e+03 4.647010040283203125e+01 -2.872039079666137695e+00 3.088727295398712158e-01 9.907172322273254395e-01 3.898769915103912354e-01 2.029720544815063477e-01
7.124000000000000000e+03 5.946236419677734375e+01 9.067895889282226562e+00 4.850004799664020538e-03 3.604635477066040039e+00 1.082845687866210938e+00 6.071613430976867676e-01
7.125000000000000000e+03 3.998524093627929688e+01 5.437719821929931641e+00 -3.677469491958618164e-01 -2.101424187421798706e-01 -1.733668148517608643e-01 -2.215876579284667969e-01
7.126000000000000000e+03 4.553028106689453125e+01 -6.386424303054809570e-01 2.302978634834289551e-01 7.710918784141540527e-01 3.004169166088104248e-01 1.827484816312789917e-01
7.127000000000000000e+03 4.478656768798828125e+01 -2.676316797733306885e-01 2.139542549848556519e-01 6.370198130607604980e-01 2.552922070026397705e-01 1.691933423280715942e-01
7.128000000000000000e+03 5.651115417480468750e+01 2.485214471817016602e+00 1.513360291719436646e-01 2.972255468368530273e+00 9.370774626731872559e-01 4.925392270088195801e-01
7.129000000000000000e+03 3.842457580566406250e+01 3.671793460845947266e+00 -3.345210850238800049e-01 -2.901982963085174561e-01 -1.874158084392547607e-01 -1.584461629390716553e-01
7.130000000000000000e+03 3.752790069580078125e+01 1.351896643638610840e+00 -1.373863518238067627e-01 -3.072176575660705566e-01 -1.333812028169631958e-01 -1.638416573405265808e-02
7.131000000000000000e+03 5.779520416259765625e+01 -2.907395601272583008e+00 2.048840671777725220e-01 3.379775285720825195e+00 1.075397849082946777e+00 4.644130468368530273e-01
7.132000000000000000e+03 5.748177337646484375e+01 -5.767484188079833984e+00 2.140234410762786865e-01 3.368202447891235352e+00 1.074667811393737793e+00 4.150888621807098389e-01
7.133000000000000000e+03 5.623102569580078125e+01 -1.994986057281494141e+00 2.186869531869888306e-01 3.015756607055664062e+00 9.703330397605895996e-01 4.476524591445922852e-01
7.134000000000000000e+03 5.720422744750976562e+01 -8.544975519180297852e-01 1.933666169643402100e-01 3.197092056274414062e+00 1.017137646675109863e+00 4.805992245674133301e-01
7.135000000000000000e+03 5.980059432983398438e+01 9.955667495727539062e+00 -2.119169197976589203e-02 3.686491012573242188e+00 1.099589824676513672e+00 6.292639970779418945e-01
7.136000000000000000e+03 5.157285308837890625e+01 -5.530552387237548828e+00 2.938900589942932129e-01 2.061474323272705078e+00 7.066093087196350098e-01 2.953991889953613281e-01
7.137000000000000000e+03 5.149788284301757812e+01 -4.601249694824218750e+00 3.006366789340972900e-01 2.035042524337768555e+00 7.007037997245788574e-01 3.142492175102233887e-01
7.138000000000000000e+03 5.906556320190429688e+01 -5.175632953643798828e+00 1.941130906343460083e-01 3.714072227478027344e+00 1.172455549240112305e+00 4.469158649444580078e-01
7.139000000000000000e+03 5.475410461425781250e+01 -9.043440818786621094e+00 2.407774031162261963e-01 2.805632591247558594e+00 9.139229655265808105e-01 3.157135546207427979e-01
7.140000000000000000e+03 5.803960037231445312e+01 -4.620924949645996094e+00 2.049082219600677490e-01 3.474317073822021484e+00 1.103767514228820801e+00 4.379182159900665283e-01
7.141000000000000000e+03 5.033661651611328125e+01 -3.483946800231933594e+00 2.954976856708526611e-01 1.748656153678894043e+00 6.132461428642272949e-01 2.881029546260833740e-01
7.142000000000000000e+03 4.725333404541015625e+01 -2.202031373977661133e+00 2.923918366432189941e-01 1.126513123512268066e+00 4.256714880466461182e-01 2.251159101724624634e-01
7.143000000000000000e+03 5.624045181274414062e+01 -5.233505249023437500e+00 2.307610362768173218e-01 3.054526805877685547e+00 9.855863451957702637e-01 3.999607861042022705e-01
7.144000000000000000e+03 5.154647827148437500e+01 -3.483755588531494141e+00 2.831078767776489258e-01 2.011900186538696289e+00 6.885024309158325195e-01 3.281566202640533447e-01
7.145000000000000000e+03 5.794771957397460938e+01 -1.159303283691406250e+01 1.726074963808059692e-01 3.557252407073974609e+00 1.118957996368408203e+00 3.474085032939910889e-01
7.146000000000000000e+03 5.902333831787109375e+01 -1.221096706390380859e+01 1.526252180337905884e-01 3.794486999511718750e+00 1.184133648872375488e+00 3.536408245563507080e-01
7.147000000000000000e+03 5.466891479492187500e+01 -1.043409919738769531e+01 2.249065339565277100e-01 2.842104911804199219e+00 9.201034903526306152e-01 3.008494079113006592e-01
7.148000000000000000e+03 5.340256881713867188e+01 -8.170500755310058594e+00 2.630114853382110596e-01 2.502107381820678711e+00 8.295356631278991699e-01 3.066962361335754395e-01
7.149000000000000000e+03 5.400003814697265625e+01 2.241888618469238281e+01 -3.847093284130096436e-01 8.868370056152343750e-01 1.506383121013641357e-01 -3.140424937009811401e-02
7.150000000000000000e+03 5.427317810058593750e+01 2.208686065673828125e+01 -3.451416790485382080e-01 1.021997451782226562e+00 2.030567228794097900e-01 3.621027618646621704e-02
7.151000000000000000e+03 5.324784469604492188e+01 2.140376281738281250e+01 -3.898833990097045898e-01 8.246577382087707520e-01 1.304323077201843262e-01 -5.077293142676353455e-02
7.152000000000000000e+03 6.071835327148437500e+01 1.669808006286621094e+01 -1.660120934247970581e-01 3.769451618194580078e+00 1.081031918525695801e+00 7.994084954261779785e-01
7.153000000000000000e+03 4.770141220092773438e+01 1.547451019287109375e+01 -4.127251505851745605e-01 2.194963693618774414e-01 -5.796863883733749390e-02 -2.952538728713989258e-01
7.154000000000000000e+03 4.891720581054687500e+01 1.584332942962646484e+01 -3.622086644172668457e-01 4.215950667858123779e-01 1.781591773033142090e-02 -1.991514712572097778e-01
7.155000000000000000e+03 4.945796203613281250e+01 1.609751129150390625e+01 -3.448101282119750977e-01 5.037835836410522461e-01 4.769203439354896545e-02 -1.627874970436096191e-01
7.156000000000000000e+03 4.884842681884765625e+01 1.675701522827148438e+01 -4.064321517944335938e-01 3.241298198699951172e-01 -2.469070069491863251e-02 -2.536012232303619385e-01
7.157000000000000000e+03 4.806947708129882812e+01 1.508119201660156250e+01 -3.732257187366485596e-01 3.251717090606689453e-01 -1.441619824618101120e-02 -2.377984076738357544e-01
7.158000000000000000e+03 5.182211303710937500e+01 2.088103103637695312e+01 -4.500989913940429688e-01 5.449764728546142578e-01 2.846325002610683441e-02 -1.819373965263366699e-01
7.159000000000000000e+03 4.766988754272460938e+01 1.469991016387939453e+01 -3.797259032726287842e-01 2.874499559402465820e-01 -2.768278121948242188e-02 -2.544537186622619629e-01
7.160000000000000000e+03 5.014402770996093750e+01 1.883710289001464844e+01 -4.392761886119842529e-01 3.873727321624755859e-01 -1.557103358209133148e-02 -2.388041764497756958e-01
7.161000000000000000e+03 4.294333267211914062e+01 1.139990043640136719e+01 -5.203061699867248535e-01 -2.219917923212051392e-01 -2.226893901824951172e-01 -4.479217529296875000e-01
7.162000000000000000e+03 5.043152236938476562e+01 1.927168846130371094e+01 -4.504103362560272217e-01 3.931154310703277588e-01 -1.718846894800662994e-02 -2.311838716268539429e-01
7.163000000000000000e+03 4.893258285522460938e+01 1.792155456542968750e+01 -4.589235782623291016e-01 2.179513871669769287e-01 -7.229165732860565186e-02 -3.118492364883422852e-01
7.164000000000000000e+03 5.003409576416015625e+01 1.774486732482910156e+01 -3.917797803878784180e-01 4.696881175041198730e-01 2.337249368429183960e-02 -1.896778196096420288e-01
7.165000000000000000e+03 4.246124649047851562e+01 8.094130516052246094e+00 -3.696430325508117676e-01 -5.519765242934226990e-02 -1.274522095918655396e-01 -2.622403800487518311e-01
7.166000000000000000e+03 4.213331985473632812e+01 1.087267208099365234e+01 -5.517043471336364746e-01 -2.986800670623779297e-01 -2.551153302192687988e-01 -4.711499214172363281e-01
7.167000000000000000e+03 4.176090240478515625e+01 1.048858737945556641e+01 -5.514498949050903320e-01 -3.118150830268859863e-01 -2.589794993400573730e-01 -4.722239077091217041e-01
7.168000000000000000e+03 4.273680114746093750e+01 8.753078460693359375e+00 -3.933498561382293701e-01 -5.989117175340652466e-02 -1.359723061323165894e-01 -2.880235612392425537e-01
7.169000000000000000e+03 3.756483840942382812e+01 3.971725702285766602e+00 -4.439029097557067871e-01 -3.864175975322723389e-01 -2.490961551666259766e-01 -2.204996645450592041e-01
7.170000000000000000e+03 3.885599136352539062e+01 3.159649372100830078e+00 -2.598181962966918945e-01 -2.303627133369445801e-01 -1.470542699098587036e-01 -1.046335771679878235e-01
7.171000000000000000e+03 3.918585205078125000e+01 4.963397502899169922e+00 -3.921917378902435303e-01 -2.726294696331024170e-01 -1.994463652372360229e-01 -2.287448495626449585e-01
7.172000000000000000e+03 5.482838439941406250e+01 2.242989349365234375e+01 -3.260134756565093994e-01 1.113047242164611816e+00 2.361101210117340088e-01 7.855709642171859741e-02
7.173000000000000000e+03 4.071714401245117188e+01 7.227828025817871094e+00 -4.354201555252075195e-01 -2.288633286952972412e-01 -1.992850452661514282e-01 -3.118890225887298584e-01
7.174000000000000000e+03 4.378797531127929688e+01 1.049106216430664062e+01 -4.157221019268035889e-01 -2.657437138259410858e-02 -1.326889395713806152e-01 -3.233655393123626709e-01
7.175000000000000000e+03 4.018036651611328125e+01 6.041713237762451172e+00 -3.916741907596588135e-01 -2.168275415897369385e-01 -1.825505197048187256e-01 -2.530666291713714600e-01
7.176000000000000000e+03 4.183214569091796875e+01 1.134527623653411865e-01 1.415724009275436401e-01 1.977580338716506958e-01 1.017991304397583008e-01 9.498579055070877075e-02
7.177000000000000000e+03 6.503206634521484375e+01 2.346907043457031250e+01 -5.179123282432556152e-01 5.812944412231445312e+00 1.588509559631347656e+00 1.475214719772338867e+00
7.178000000000000000e+03 4.940382766723632812e+01 1.661403465270996094e+01 -3.721400201320648193e-01 4.449672698974609375e-01 2.184817194938659668e-02 -1.933571547269821167e-01
7.179000000000000000e+03 5.086076354980468750e+01 1.891646003723144531e+01 -4.058049321174621582e-01 5.144401192665100098e-01 3.259056806564331055e-02 -1.698867231607437134e-01
7.180000000000000000e+03 5.158754730224609375e+01 1.884195137023925781e+01 -3.584035634994506836e-01 7.128452658653259277e-01 1.063325107097625732e-01 -8.215916901826858521e-02
7.181000000000000000e+03 5.575291442871093750e+01 2.157584953308105469e+01 -2.310147881507873535e-01 1.495497226715087891e+00 3.793447315692901611e-01 2.551182806491851807e-01
7.182000000000000000e+03 5.954371643066406250e+01 2.138259887695312500e+01 -1.161749586462974548e-01 2.877877950668334961e+00 8.285109400749206543e-01 8.069982528686523438e-01
7.183000000000000000e+03 6.010551452636718750e+01 2.070927047729492188e+01 -1.392145752906799316e-01 3.187443494796752930e+00 9.144687056541442871e-01 8.635390996932983398e-01
7.184000000000000000e+03 4.023220062255859375e+01 6.508201360702514648e-01 5.460606887936592102e-02 -2.146370150148868561e-02 9.942710399627685547e-03 5.280110612511634827e-02
7.185000000000000000e+03 3.716652297973632812e+01 2.664331912994384766e+00 -3.156411349773406982e-01 -3.719547688961029053e-01 -2.062787711620330811e-01 -1.165220886468887329e-01
7.186000000000000000e+03 3.809122467041015625e+01 1.750586867332458496e+00 -1.506196707487106323e-01 -2.705105245113372803e-01 -1.263390630483627319e-01 -2.959210425615310669e-02
7.187000000000000000e+03 5.234153747558593750e+01 2.099963378906250000e+01 -4.196981489658355713e-01 6.493602395057678223e-01 6.889861077070236206e-02 -1.340638995170593262e-01
7.188000000000000000e+03 5.792164230346679688e+01 2.744508743286132812e+00 1.304840147495269775e-01 3.322685480117797852e+00 1.035950779914855957e+00 5.200644135475158691e-01
7.189000000000000000e+03 5.728997802734375000e+01 3.703065961599349976e-02 1.833953559398651123e-01 3.212356567382812500e+00 1.018725633621215820e+00 4.838983714580535889e-01
7.190000000000000000e+03 5.817317199707031250e+01 1.966602706909179688e+01 -1.419256329536437988e-01 2.548270225524902344e+00 7.219033837318420410e-01 6.293040513992309570e-01
7.191000000000000000e+03 6.150139236450195312e+01 1.625392341613769531e+01 -1.920618712902069092e-01 4.094614028930664062e+00 1.170765638351440430e+00 8.099997043609619141e-01
7.192000000000000000e+03 6.175047683715820312e+01 2.047970390319824219e+01 -2.218364924192428589e-01 3.984970569610595703e+00 1.128940224647521973e+00 1.029516220092773438e+00
7.193000000000000000e+03 4.951737213134765625e+01 1.501320266723632812e+01 -2.957015931606292725e-01 6.292738318443298340e-01 1.000716611742973328e-01 -9.914862364530563354e-02
7.194000000000000000e+03 3.844081497192382812e+01 1.192872047424316406e+00 -7.195433229207992554e-02 -2.217945605516433716e-01 -8.812467008829116821e-02 3.613158129155635834e-03
7.195000000000000000e+03 6.080791091918945312e+01 1.444332981109619141e+01 -1.370461136102676392e-01 3.860232353210449219e+00 1.116955876350402832e+00 7.379938364028930664e-01
7.196000000000000000e+03 4.844166183471679688e+01 -1.703459620475769043e+00 2.711468935012817383e-01 1.328794360160827637e+00 4.799823760986328125e-01 2.615599930286407471e-01
7.197000000000000000e+03 6.064469909667968750e+01 1.351497459411621094e+01 -1.167512238025665283e-01 3.847511768341064453e+00 1.119228124618530273e+00 7.037712335586547852e-01
7.198000000000000000e+03 6.181681823730468750e+01 1.896864509582519531e+01 -2.288265228271484375e-01 4.113183021545410156e+00 1.165306925773620605e+00 9.462154507637023926e-01
7.199000000000000000e+03 5.961207580566406250e+01 1.288988018035888672e+01 -8.407810330390930176e-02 3.535330772399902344e+00 1.035375833511352539e+00 6.641049385070800781e-01
7.200000000000000000e+03 5.944015121459960938e+01 1.198093032836914062e+01 -6.194158270955085754e-02 3.507836580276489258e+00 1.033768534660339355e+00 6.444370746612548828e-01
7.201000000000000000e+03 6.083285522460937500e+01 1.947064971923828125e+01 -1.781967580318450928e-01 3.624550342559814453e+00 1.033906102180480957e+00 8.971071839332580566e-01
7.202000000000000000e+03 5.650247192382812500e+01 2.203731918334960938e+01 -2.015598565340042114e-01 1.652469038963317871e+00 4.352727532386779785e-01 3.328504860401153564e-01
7.203000000000000000e+03 6.053697967529296875e+01 1.795391654968261719e+01 -1.724527925252914429e-01 3.639086723327636719e+00 1.039990186691284180e+00 8.314362168312072754e-01
7.204000000000000000e+03 4.339629364013671875e+01 4.146407842636108398e-01 1.587159633636474609e-01 4.059516191482543945e-01 1.694002747535705566e-01 1.301970183849334717e-01
7.205000000000000000e+03 4.215520858764648438e+01 2.968449592590332031e+00 -5.140929669141769409e-02 1.558747589588165283e-01 3.133964166045188904e-02 1.344732474535703659e-02
7.206000000000000000e+03 4.595311355590820312e+01 2.013680636882781982e-01 2.014815211296081543e-01 8.300306200981140137e-01 3.094536364078521729e-01 1.898634284734725952e-01
7.207000000000000000e+03 5.901951217651367188e+01 8.229959487915039062e+00 2.303570136427879333e-02 3.485109329223632812e+00 1.052443504333496094e+00 5.952215790748596191e-01
7.208000000000000000e+03 5.842892074584960938e+01 1.138097858428955078e+01 -3.550704568624496460e-02 3.231329679489135742e+00 9.587468504905700684e-01 6.024951934814453125e-01
7.209000000000000000e+03 6.006002426147460938e+01 1.084939670562744141e+01 -4.454177990555763245e-02 3.737406969070434570e+00 1.107859611511230469e+00 6.482542157173156738e-01
7.210000000000000000e+03 5.846696090698242188e+01 3.577150106430053711e+00 1.178670004010200500e-01 3.458458662033081055e+00 1.072897672653198242e+00 5.422173142433166504e-01
7.211000000000000000e+03 5.825938415527343750e+01 8.749246597290039062e+00 1.982670649886131287e-02 3.265237808227539062e+00 9.855193495750427246e-01 5.781915783882141113e-01
7.212000000000000000e+03 5.845015335083007812e+01 7.520344734191894531e+00 4.419451579451560974e-02 3.359777688980102539e+00 1.021191596984863281e+00 5.736433863639831543e-01
7.213000000000000000e+03 5.238183975219726562e+01 -5.016510009765625000e+00 2.836775779724121094e-01 2.232702255249023438e+00 7.549139261245727539e-01 3.317208290100097656e-01
7.214000000000000000e+03 6.105903625488281250e+01 1.538402843475341797e+01 -1.576869338750839233e-01 3.939263343811035156e+00 1.134472966194152832e+00 7.739477157592773438e-01
7.215000000000000000e+03 4.443623352050781250e+01 9.485436081886291504e-01 1.433172821998596191e-01 5.489091873168945312e-01 2.076679468154907227e-01 1.398845165967941284e-01
7.216000000000000000e+03 4.305922698974609375e+01 7.899164199829101562e+00 -3.246341943740844727e-01 4.292133450508117676e-02 -8.451385796070098877e-02 -2.113689035177230835e-01
7.217000000000000000e+03 5.811846160888671875e+01 -1.581482768058776855e+00 1.914501637220382690e-01 3.459241867065429688e+00 1.095207571983337402e+00 4.803096950054168701e-01
7.218000000000000000e+03 4.747538375854492188e+01 -1.616761445999145508e+00 2.716861069202423096e-01 1.147883534431457520e+00 4.258708953857421875e-01 2.336877137422561646e-01
7.219000000000000000e+03 5.455802917480468750e+01 -7.983678340911865234e+00 2.489205896854400635e-01 2.757323980331420898e+00 9.018733501434326172e-01 3.290218114852905273e-01
7.220000000000000000e+03 5.432337570190429688e+01 -1.457444906234741211e+00 2.326425164937973022e-01 2.565848350524902344e+00 8.395472764968872070e-01 4.043425023555755615e-01
7.221000000000000000e+03 5.779998779296875000e+01 6.957125186920166016e+00 6.864564865827560425e-02 3.197659492492675781e+00 9.798915386199951172e-01 5.497069954872131348e-01
7.222000000000000000e+03 5.787803268432617188e+01 4.504001617431640625e+00 1.100428998470306396e-01 3.273032188415527344e+00 1.014922499656677246e+00 5.309635400772094727e-01
7.223000000000000000e+03 5.522373580932617188e+01 -1.713087916374206543e+00 2.241240888833999634e-01 2.773180007934570312e+00 8.991912007331848145e-01 4.220671057701110840e-01
7.224000000000000000e+03 5.748871994018554688e+01 -9.784908294677734375e+00 1.960123479366302490e-01 3.427461147308349609e+00 1.087042093276977539e+00 3.626716732978820801e-01
7.225000000000000000e+03 5.680955886840820312e+01 -8.183551788330078125e+00 2.163245528936386108e-01 3.247878074645996094e+00 1.039260864257812500e+00 3.731394410133361816e-01
7.226000000000000000e+03 5.569999694824218750e+01 -7.923861980438232422e+00 2.317816913127899170e-01 2.998422861099243164e+00 9.690613746643066406e-01 3.505106568336486816e-01
7.227000000000000000e+03 5.294554138183593750e+01 -5.953434467315673828e+00 2.807071208953857422e-01 2.365340948104858398e+00 7.938144207000732422e-01 3.341140151023864746e-01
7.228000000000000000e+03 5.708733749389648438e+01 -6.980664730072021484e+00 2.180071622133255005e-01 3.297882556915283203e+00 1.054766893386840820e+00 3.966737091541290283e-01
7.229000000000000000e+03 5.538864898681640625e+01 -1.123192214965820312e+01 2.028614878654479980e-01 2.993419408798217773e+00 9.588842391967773438e-01 3.014982938766479492e-01
7.230000000000000000e+03 5.589566040039062500e+01 2.218782043457031250e+01 -2.394616305828094482e-01 1.456088304519653320e+00 3.649880290031433105e-01 2.430609613656997681e-01
7.231000000000000000e+03 5.469358444213867188e+01 2.187539100646972656e+01 -3.039608597755432129e-01 1.147776007652282715e+00 2.531445622444152832e-01 9.732943773269653320e-02
7.232000000000000000e+03 5.373364639282226562e+01 2.154348945617675781e+01 -3.562224507331848145e-01 9.412528276443481445e-01 1.755091100931167603e-01 -3.458967898041009903e-03
7.233000000000000000e+03 4.847319030761718750e+01 1.546363830566406250e+01 -3.694388866424560547e-01 3.635312318801879883e-01 -1.772296382114291191e-03 -2.226953655481338501e-01
7.234000000000000000e+03 4.964289855957031250e+01 1.563525390625000000e+01 -3.163719177246093750e-01 5.942727923393249512e-01 8.337027579545974731e-02 -1.180753409862518311e-01
7.235000000000000000e+03 4.844674682617187500e+01 1.468893241882324219e+01 -3.350308537483215332e-01 4.300059080123901367e-01 2.849251218140125275e-02 -1.833538115024566650e-01
7.236000000000000000e+03 3.863050460815429688e+01 4.417619705200195312e+00 -3.941122293472290039e-01 -3.046245872974395752e-01 -2.096210420131683350e-01 -2.118413746356964111e-01
7.237000000000000000e+03 4.412615203857421875e+01 1.157607078552246094e+01 -4.518660604953765869e-01 -5.672669038176536560e-02 -1.525778323411941528e-01 -3.655479550361633301e-01
7.238000000000000000e+03 4.932617187500000000e+01 1.766223716735839844e+01 -4.207371771335601807e-01 3.281698226928710938e-01 -2.777020633220672607e-02 -2.551255524158477783e-01
7.239000000000000000e+03 4.274421691894531250e+01 9.843189239501953125e+00 -4.485267400741577148e-01 -1.283982545137405396e-01 -1.730775088071823120e-01 -3.538928627967834473e-01
7.240000000000000000e+03 5.520391464233398438e+01 2.172585487365722656e+01 -2.656324505805969238e-01 1.315738201141357422e+00 3.150317370891571045e-01 1.783247739076614380e-01
7.241000000000000000e+03 5.127648162841796875e+01 1.929306602478027344e+01 -3.986885547637939453e-01 5.845876336097717285e-01 5.576972663402557373e-02 -1.441464871168136597e-01
7.242000000000000000e+03 5.294128036499023438e+01 2.054013824462890625e+01 -3.590851128101348877e-01 8.628904223442077637e-01 1.511415839195251465e-01 -3.037413582205772400e-02
7.243000000000000000e+03 4.281512832641601562e+01 7.301241397857666016e+00 -2.987464964389801025e-01 4.446512833237648010e-02 -7.628441601991653442e-02 -1.902474761009216309e-01
7.244000000000000000e+03 5.173820495605468750e+01 1.956915664672851562e+01 -3.840450644493103027e-01 6.708484292030334473e-01 8.604101836681365967e-02 -1.081833988428115845e-01
7.245000000000000000e+03 5.903750228881835938e+01 2.076087379455566406e+01 -1.290872693061828613e-01 2.733169555664062500e+00 7.812247276306152344e-01 7.309986352920532227e-01
7.246000000000000000e+03 4.678767395019531250e+01 1.401058483123779297e+01 -3.991875648498535156e-01 1.846518814563751221e-01 -6.436070054769515991e-02 -2.953451871871948242e-01
7.247000000000000000e+03 4.599632644653320312e+01 1.302217197418212891e+01 -4.039281606674194336e-01 1.318369507789611816e-01 -8.162736147642135620e-02 -3.068954646587371826e-01
7.248000000000000000e+03 4.272053146362304688e+01 1.192241954803466797e+01 -5.645775794982910156e-01 -2.969479262828826904e-01 -2.584576606750488281e-01 -5.043775439262390137e-01
7.249000000000000000e+03 3.908919525146484375e+01 1.579793453216552734e+00 -8.399713039398193359e-02 -1.760166585445404053e-01 -7.800413668155670166e-02 -3.898129332810640335e-03
7.250000000000000000e+03 5.200222015380859375e+01 2.029059600830078125e+01 -4.001835286617279053e-01 6.547384262084960938e-01 7.636646926403045654e-02 -1.207508817315101624e-01
7.251000000000000000e+03 4.987803268432617188e+01 1.843105125427246094e+01 -4.333781898021697998e-01 3.595210015773773193e-01 -2.215715311467647552e-02 -2.474658191204071045e-01
7.252000000000000000e+03 4.134252548217773438e+01 7.042986869812011719e+00 -3.846367001533508301e-01 -1.358176171779632568e-01 -1.561362892389297485e-01 -2.595022916793823242e-01
7.253000000000000000e+03 4.109698486328125000e+01 6.449703216552734375e+00 -3.562433123588562012e-01 -1.329551339149475098e-01 -1.467595249414443970e-01 -2.313916087150573730e-01
7.254000000000000000e+03 3.939882278442382812e+01 2.630710601806640625e+00 -1.669857352972030640e-01 -1.585585176944732666e-01 -9.766327589750289917e-02 -5.631896853446960449e-02
7.255000000000000000e+03 5.004162216186523438e+01 1.621346092224121094e+01 -3.156658709049224854e-01 6.267346739768981934e-01 9.332064539194107056e-02 -1.026260107755661011e-01
7.256000000000000000e+03 5.012753295898437500e+01 1.576713752746582031e+01 -2.999316751956939697e-01 6.874580383300781250e-01 1.162579134106636047e-01 -7.511962205171585083e-02
7.257000000000000000e+03 3.699614334106445312e+01 3.738813400268554688e+00 -4.662102460861206055e-01 -4.114866852760314941e-01 -2.633090913295745850e-01 -2.174983024597167969e-01
7.258000000000000000e+03 4.921179580688476562e+01 1.539087104797363281e+01 -3.249580562114715576e-01 5.298749804496765137e-01 6.147508695721626282e-02 -1.457656472921371460e-01
7.259000000000000000e+03 6.108114242553710938e+01 2.030767440795898438e+01 -1.813290566205978394e-01 3.669440746307373047e+00 1.046433448791503906e+00 9.555037617683410645e-01
7.260000000000000000e+03 3.725901794433593750e+01 3.180074214935302734e+00 -3.777031898498535156e-01 -3.740851879119873047e-01 -2.255365103483200073e-01 -1.583222597837448120e-01
7.261000000000000000e+03 5.923541641235351562e+01 1.112235164642333984e+01 -4.073871672153472900e-02 3.481667995452880859e+00 1.032278776168823242e+00 6.256707310676574707e-01
7.262000000000000000e+03 4.248892974853515625e+01 1.043045139312744141e+01 -5.019536018371582031e-01 -2.208100855350494385e-01 -2.168291062116622925e-01 -4.170942902565002441e-01
7.263000000000000000e+03 5.906045532226562500e+01 1.966491889953613281e+01 -1.369043290615081787e-01 2.869843959808349609e+00 8.198819160461425781e-01 7.310068011283874512e-01
7.264000000000000000e+03 5.771900177001953125e+01 2.005351257324218750e+01 -1.456466764211654663e-01 2.335131406784057617e+00 6.568453907966613770e-01 5.693731904029846191e-01
7.265000000000000000e+03 5.407094955444335938e+01 2.139778709411621094e+01 -3.188298046588897705e-01 1.059509992599487305e+00 2.222040742635726929e-01 5.734735727310180664e-02
7.266000000000000000e+03 5.987798309326171875e+01 1.372357463836669922e+01 -1.017174869775772095e-01 3.590711116790771484e+00 1.046698093414306641e+00 6.893029212951660156e-01
7.267000000000000000e+03 3.887559127807617188e+01 4.006153106689453125e+00 -3.346206545829772949e-01 -2.592847049236297607e-01 -1.781716048717498779e-01 -1.628051102161407471e-01
7.268000000000000000e+03 4.655466079711914062e+01 1.323748970031738281e+01 -3.765260279178619385e-01 2.152489721775054932e-01 -4.838311672210693359e-02 -2.706974148750305176e-01
7.269000000000000000e+03 4.764538955688476562e+01 1.386095809936523438e+01 -3.426534533500671387e-01 3.592830896377563477e-01 4.988892003893852234e-03 -2.074138224124908447e-01
7.270000000000000000e+03 6.094843292236328125e+01 1.857641983032226562e+01 -1.838183254003524780e-01 3.757270097732543945e+00 1.072035551071166992e+00 8.803617358207702637e-01
7.271000000000000000e+03 4.171986770629882812e+01 1.535134553909301758e+00 2.563351951539516449e-02 1.447602063417434692e-01 5.111811682581901550e-02 5.860611796379089355e-02
7.272000000000000000e+03 4.322895431518554688e+01 6.539890766143798828e+00 -2.299986034631729126e-01 1.482373774051666260e-01 -2.452837117016315460e-02 -1.227526962757110596e-01
7.273000000000000000e+03 6.124483489990234375e+01 1.913769531250000000e+01 -1.955437064170837402e-01 3.851514577865600586e+00 1.096791267395019531e+00 9.222471714019775391e-01
7.274000000000000000e+03 5.997800064086914062e+01 1.850925636291503906e+01 -1.523730605840682983e-01 3.350223064422607422e+00 9.593549966812133789e-01 7.990037202835083008e-01
7.275000000000000000e+03 6.031584167480468750e+01 1.584360790252685547e+01 -1.500737965106964111e-01 3.657387018203735352e+00 1.052193999290466309e+00 7.558883428573608398e-01
7.276000000000000000e+03 5.747822570800781250e+01 5.923083305358886719e+00 8.156290650367736816e-02 3.136492490768432617e+00 9.654166102409362793e-01 5.331953763961791992e-01
7.277000000000000000e+03 4.512957000732421875e+01 1.216431427001953125e+01 -4.135765135288238525e-01 6.227567046880722046e-02 -1.053902581334114075e-01 -3.237096071243286133e-01
7.278000000000000000e+03 4.545882797241210938e+01 1.283560371398925781e+01 -4.258666038513183594e-01 5.736588314175605774e-02 -1.105502173304557800e-01 -3.412180840969085693e-01
7.279000000000000000e+03 5.786336135864257812e+01 1.236155796051025391e+01 -5.049053579568862915e-02 2.999655008316040039e+00 8.847492933273315430e-01 5.885465741157531738e-01
7.280000000000000000e+03 4.691370773315429688e+01 -1.279195070266723633e+00 2.588675916194915771e-01 1.038947463035583496e+00 3.893445134162902832e-01 2.212903052568435669e-01
7.281000000000000000e+03 4.784418487548828125e+01 -2.113061904907226562e+00 2.894231081008911133e-01 1.243541955947875977e+00 4.598895013332366943e-01 2.485678344964981079e-01
7.282000000000000000e+03 4.313109207153320312e+01 2.367309093475341797e+00 2.395438216626644135e-02 3.165845274925231934e-01 1.021616756916046143e-01 6.358369439840316772e-02
7.283000000000000000e+03 4.559277725219726562e+01 1.346082448959350586e+00 1.443362534046173096e-01 7.339988350868225098e-01 2.635005414485931396e-01 1.634363234043121338e-01
7.284000000000000000e+03 5.936264038085937500e+01 1.422191047668457031e+01 -1.042483597993850708e-01 3.387809038162231445e+00 9.850682616233825684e-01 6.696383357048034668e-01
7.285000000000000000e+03 5.898308181762695312e+01 1.029135417938232422e+01 -1.916168071329593658e-02 3.430703639984130859e+00 1.023462533950805664e+00 6.095125675201416016e-01
7.286000000000000000e+03 5.591196441650390625e+01 1.569398045539855957e+00 1.770552843809127808e-01 2.864636898040771484e+00 9.125076532363891602e-01 4.685637652873992920e-01
7.287000000000000000e+03 5.771660232543945312e+01 3.845982313156127930e+00 1.169963851571083069e-01 3.246286869049072266e+00 1.008984923362731934e+00 5.314512252807617188e-01
7.288000000000000000e+03 5.050786590576171875e+01 -2.148820638656616211e+00 2.723355889320373535e-01 1.736698985099792480e+00 6.027103662490844727e-01 3.026662468910217285e-01
7.289000000000000000e+03 4.083238983154296875e+01 7.205345034599304199e-01 6.189265102148056030e-02 4.750968515872955322e-02 3.282070159912109375e-02 6.342080980539321899e-02
7.290000000000000000e+03 5.717758178710937500e+01 6.497251510620117188e+00 7.784941792488098145e-02 3.044532537460327148e+00 9.367145895957946777e-01 5.333027839660644531e-01
7.291000000000000000e+03 6.129499816894531250e+01 2.184427833557128906e+01 -1.518387943506240845e-01 3.611897945404052734e+00 1.038017749786376953e+00 1.053097367286682129e+00
7.292000000000000000e+03 5.756175613403320312e+01 9.183479309082031250e+00 2.038960717618465424e-02 3.054496049880981445e+00 9.224656820297241211e-01 5.577204823493957520e-01
7.293000000000000000e+03 5.750627136230468750e+01 2.094624900817871094e+01 -1.469273269176483154e-01 2.150799274444580078e+00 6.011615991592407227e-01 5.299569964408874512e-01
7.294000000000000000e+03 5.933205795288085938e+01 1.678331947326660156e+01 -1.377898007631301880e-01 3.245784282684326172e+00 9.323983788490295410e-01 7.207911014556884766e-01
7.295000000000000000e+03 5.325523757934570312e+01 -4.354671001434326172e+00 2.753141522407531738e-01 2.391958475112915039e+00 8.001817464828491211e-01 3.577061891555786133e-01
7.296000000000000000e+03 5.268503952026367188e+01 -3.322395324707031250e+00 2.670845091342926025e-01 2.251870632171630859e+00 7.556865215301513672e-01 3.571959137916564941e-01
7.297000000000000000e+03 5.581410980224609375e+01 -6.618770599365234375e+00 2.374034225940704346e-01 2.993913650512695312e+00 9.693951010704040527e-01 3.711687326431274414e-01
7.298000000000000000e+03 5.406835937500000000e+01 -9.624732017517089844e+00 2.421414405107498169e-01 2.681059360504150391e+00 8.769602179527282715e-01 2.987999618053436279e-01
7.299000000000000000e+03 5.650951385498046875e+01 -9.303333282470703125e+00 2.102241665124893188e-01 3.200269460678100586e+00 1.023148059844970703e+00 3.485563695430755615e-01
7.300000000000000000e+03 5.649567031860351562e+01 2.373828291893005371e-01 1.883795261383056641e-01 3.032963991165161133e+00 9.664030671119689941e-01 4.779865443706512451e-01
7.301000000000000000e+03 4.734325408935546875e+01 -5.884379148483276367e-01 2.409383207559585571e-01 1.088702678680419922e+00 3.988923132419586182e-01 2.343328297138214111e-01
7.302000000000000000e+03 5.509457778930664062e+01 -4.502896308898925781e+00 2.485384345054626465e-01 2.800155401229858398e+00 9.146081209182739258e-01 3.889299333095550537e-01
7.303000000000000000e+03 5.696802139282226562e+01 -3.930346488952636719e+00 2.217027842998504639e-01 3.210709571838378906e+00 1.029723644256591797e+00 4.328923523426055908e-01
7.304000000000000000e+03 5.631808853149414062e+01 -7.998594641685485840e-01 1.977612674236297607e-01 3.011787414550781250e+00 9.628645777702331543e-01 4.649008214473724365e-01
7.305000000000000000e+03 5.420181274414062500e+01 -3.659906864166259766e+00 2.549647390842437744e-01 2.574387073516845703e+00 8.488055467605590820e-01 3.873790204524993896e-01
7.306000000000000000e+03 5.405286788940429688e+01 -5.402523040771484375e+00 2.651105821132659912e-01 2.598957777023315430e+00 8.592205047607421875e-01 3.584284484386444092e-01
7.307000000000000000e+03 5.636313629150390625e+01 5.274933815002441406e+00 9.784367680549621582e-02 2.858792781829833984e+00 8.869909644126892090e-01 4.948383867740631104e-01
7.308000000000000000e+03 4.668536758422851562e+01 -1.633519828319549561e-01 2.120300680398941040e-01 9.661685228347778320e-01 3.534595668315887451e-01 2.120607197284698486e-01
7.309000000000000000e+03 5.735931015014648438e+01 1.961677551269531250e+00 1.549643278121948242e-01 3.200229406356811523e+00 1.006558179855346680e+00 5.049397945404052734e-01
7.310000000000000000e+03 5.820755004882812500e+01 1.474960684776306152e+00 1.582179218530654907e-01 3.421175718307495117e+00 1.073818087577819824e+00 5.150347948074340820e-01
7.311000000000000000e+03 5.075798034667968750e+01 1.811767005920410156e+01 -3.672029376029968262e-01 5.923550724983215332e-01 6.754564493894577026e-02 -1.288944929838180542e-01
7.312000000000000000e+03 5.451371383666992188e+01 2.129198265075683594e+01 -2.907311618328094482e-01 1.178262472152709961e+00 2.662594020366668701e-01 1.140202283859252930e-01
7.313000000000000000e+03 5.029047393798828125e+01 1.815075874328613281e+01 -3.913731575012207031e-01 4.929135739803314209e-01 3.046212345361709595e-02 -1.852039396762847900e-01
7.314000000000000000e+03 5.234394073486328125e+01 1.926992797851562500e+01 -3.331483900547027588e-01 8.529341220855712891e-01 1.559357047080993652e-01 -2.844890207052230835e-02
7.315000000000000000e+03 5.503259277343750000e+01 2.113410186767578125e+01 -2.568085789680480957e-01 1.341100215911865234e+00 3.252874612808227539e-01 1.860015839338302612e-01
7.316000000000000000e+03 5.557692337036132812e+01 2.097433090209960938e+01 -2.219777852296829224e-01 1.526626944541931152e+00 3.913947343826293945e-01 2.691154479980468750e-01
7.317000000000000000e+03 4.806022644042968750e+01 1.429260540008544922e+01 -3.371793627738952637e-01 3.949012458324432373e-01 1.731657050549983978e-02 -1.939526200294494629e-01
7.318000000000000000e+03 4.919460678100585938e+01 1.468746852874755859e+01 -2.981424629688262939e-01 5.926697254180908203e-01 8.835817873477935791e-02 -1.128459051251411438e-01
7.319000000000000000e+03 5.385059738159179688e+01 2.093919372558593750e+01 -3.131293952465057373e-01 1.047964334487915039e+00 2.204504907131195068e-01 5.853221192955970764e-02
7.320000000000000000e+03 6.001761627197265625e+01 1.729513549804687500e+01 -1.532235890626907349e-01 3.462539672851562500e+00 9.927948713302612305e-01 7.739464044570922852e-01
7.321000000000000000e+03 4.047737503051757812e+01 4.633960247039794922e+00 -2.775342166423797607e-01 -1.165185049176216125e-01 -1.182158142328262329e-01 -1.422577500343322754e-01
7.322000000000000000e+03 4.968888092041015625e+01 1.742148399353027344e+01 -3.902238905429840088e-01 4.275273680686950684e-01 1.119104679673910141e-02 -2.063941955566406250e-01
7.323000000000000000e+03 4.997279357910156250e+01 1.667832374572753906e+01 -3.379428982734680176e-01 5.682262778282165527e-01 6.908500939607620239e-02 -1.369072645902633667e-01
7.324000000000000000e+03 4.948857498168945312e+01 1.707689857482910156e+01 -3.901994526386260986e-01 4.152306020259857178e-01 7.509343791753053665e-03 -2.109283804893493652e-01
7.325000000000000000e+03 4.621450805664062500e+01 1.249423980712890625e+01 -3.643345832824707031e-01 2.161100804805755615e-01 -4.446735605597496033e-02 -2.568589746952056885e-01
7.326000000000000000e+03 4.983045196533203125e+01 1.526951599121093750e+01 -2.896127402782440186e-01 6.667085886001586914e-01 1.131287515163421631e-01 -8.211447298526763916e-02
7.327000000000000000e+03 4.367090225219726562e+01 9.012527465820312500e+00 -3.463277220726013184e-01 6.570325046777725220e-02 -8.418734371662139893e-02 -2.383023202419281006e-01
7.328000000000000000e+03 4.359675979614257812e+01 9.791464805603027344e+00 -3.945119380950927734e-01 -5.798837170004844666e-03 -1.200932338833808899e-01 -2.942645251750946045e-01
7.329000000000000000e+03 4.333962631225585938e+01 8.480628013610839844e+00 -3.332434892654418945e-01 5.097215995192527771e-02 -8.468139916658401489e-02 -2.294678390026092529e-01
7.330000000000000000e+03 6.129147338867187500e+01 1.968785095214843750e+01 -1.992143392562866211e-01 3.820114135742187500e+00 1.086269974708557129e+00 9.495360851287841797e-01
7.331000000000000000e+03 5.858929061889648438e+01 2.018284034729003906e+01 -1.363237798213958740e-01 2.634177684783935547e+00 7.493561506271362305e-01 6.732761859893798828e-01
7.332000000000000000e+03 4.354493331909179688e+01 1.154838371276855469e+01 -4.841933548450469971e-01 -1.353422403335571289e-01 -1.858606785535812378e-01 -4.122418761253356934e-01
7.333000000000000000e+03 4.305517959594726562e+01 1.076812934875488281e+01 -4.771009385585784912e-01 -1.519394963979721069e-01 -1.887121349573135376e-01 -3.960444033145904541e-01
7.334000000000000000e+03 5.344161224365234375e+01 2.064473533630371094e+01 -3.256370425224304199e-01 9.776717424392700195e-01 1.956104189157485962e-01 2.776074782013893127e-02
7.335000000000000000e+03 5.246887588500976562e+01 2.044228172302246094e+01 -3.867018222808837891e-01 7.497857809066772461e-01 1.089251860976219177e-01 -8.346313983201980591e-02
7.336000000000000000e+03 4.990203857421875000e+01 1.710760307312011719e+01 -3.727551996707916260e-01 5.077798962593078613e-01 4.050740972161293030e-02 -1.714030206203460693e-01
7.337000000000000000e+03 5.354573822021484375e+01 2.122945404052734375e+01 -3.570319712162017822e-01 9.182761311531066895e-01 1.683732420206069946e-01 -3.173943841829895973e-03
7.338000000000000000e+03 4.196944427490234375e+01 6.871877670288085938e+00 -3.267624378204345703e-01 -4.524202272295951843e-02 -1.116013377904891968e-01 -2.108513414859771729e-01
7.339000000000000000e+03 4.174669647216796875e+01 6.276969909667968750e+00 -3.084404766559600830e-01 -4.116450995206832886e-02 -1.048815026879310608e-01 -1.866991817951202393e-01
7.340000000000000000e+03 5.035615539550781250e+01 1.732564163208007812e+01 -3.524841666221618652e-01 5.824746489524841309e-01 6.899714469909667969e-02 -1.310302615165710449e-01
7.341000000000000000e+03 5.958610916137695312e+01 1.599343872070312500e+01 -1.305735111236572266e-01 3.383213996887207031e+00 9.757921695709228516e-01 7.266207933425903320e-01
7.342000000000000000e+03 3.983434295654296875e+01 4.825967788696289062e+00 -3.316088616847991943e-01 -1.955816149711608887e-01 -1.581571400165557861e-01 -1.863428503274917603e-01
7.343000000000000000e+03 4.006931304931640625e+01 1.268038868904113770e+00 -5.731026176363229752e-03 -5.917384475469589233e-02 -1.947146095335483551e-02 2.971107326447963715e-02
7.344000000000000000e+03 5.692148208618164062e+01 2.120173263549804688e+01 -1.651357561349868774e-01 1.916683793067932129e+00 5.254644155502319336e-01 4.418160319328308105e-01
7.345000000000000000e+03 3.785482788085937500e+01 3.353428602218627930e+00 -3.497215211391448975e-01 -3.287930786609649658e-01 -2.035543769598007202e-01 -1.473106592893600464e-01
7.346000000000000000e+03 3.824857711791992188e+01 2.740522861480712891e+00 -2.514850795269012451e-01 -2.787680923938751221e-01 -1.590759605169296265e-01 -9.674329310655593872e-02
7.347000000000000000e+03 4.443385314941406250e+01 1.246976470947265625e+01 -4.827777743339538574e-01 -7.633609324693679810e-02 -1.677341610193252563e-01 -4.040895998477935791e-01
7.348000000000000000e+03 5.633039855957031250e+01 2.140668678283691406e+01 -1.936520785093307495e-01 1.698302984237670898e+00 4.513952732086181641e-01 3.492222428321838379e-01
7.349000000000000000e+03 5.858558654785156250e+01 1.917274475097656250e+01 -1.343012899160385132e-01 2.747058629989624023e+00 7.838271856307983398e-01 6.780033707618713379e-01
7.350000000000000000e+03 6.049853897094726562e+01 2.002184867858886719e+01 -1.610034108161926270e-01 3.448134899139404297e+00 9.861394762992858887e-01 8.914176225662231445e-01
7.351000000000000000e+03 5.955066299438476562e+01 2.019071578979492188e+01 -1.373082250356674194e-01 3.003563880920410156e+00 8.598766922950744629e-01 7.919672131538391113e-01
7.352000000000000000e+03 6.003706741333007812e+01 1.451178359985351562e+01 -1.217992901802062988e-01 3.621275663375854492e+00 1.049842834472656250e+00 7.117655873298645020e-01
7.353000000000000000e+03 5.863595199584960938e+01 1.217465877532958984e+01 -5.718716979026794434e-02 3.265035152435302734e+00 9.623543620109558105e-01 6.179815530776977539e-01
7.354000000000000000e+03 4.067217254638671875e+01 5.256564617156982422e+00 -3.030984699726104736e-01 -1.209007278084754944e-01 -1.271997690200805664e-01 -1.756076961755752563e-01
7.355000000000000000e+03 4.357882308959960938e+01 1.826081991195678711e+00 6.985346972942352295e-02 3.900531828403472900e-01 1.379719972610473633e-01 9.575463086366653442e-02
7.356000000000000000e+03 5.613282394409179688e+01 2.079508590698242188e+01 -1.935091763734817505e-01 1.723192095756530762e+00 4.589048922061920166e-01 3.485745191574096680e-01
7.357000000000000000e+03 4.962977600097656250e+01 -1.775491833686828613e+00 2.758476436138153076e-01 1.581939458847045898e+00 5.573361515998840332e-01 2.884407937526702881e-01
7.358000000000000000e+03 4.756838989257812500e+01 1.502607583999633789e+00 1.654323935508728027e-01 1.075323820114135742e+00 3.722268640995025635e-01 2.222490459680557251e-01
7.359000000000000000e+03 5.777112960815429688e+01 8.095317840576171875e+00 3.566920012235641479e-02 3.151457786560058594e+00 9.561380743980407715e-01 5.585908293724060059e-01
7.360000000000000000e+03 5.675588989257812500e+01 5.961692333221435547e+00 9.020864963531494141e-02 2.947330236434936523e+00 9.112616777420043945e-01 5.105853676795959473e-01
7.361000000000000000e+03 6.078136062622070312e+01 2.102754974365234375e+01 -1.484927982091903687e-01 3.440186977386474609e+00 9.875082969665527344e-01 9.511992931365966797e-01
7.362000000000000000e+03 4.299869918823242188e+01 1.370340108871459961e+00 7.628691196441650391e-02 3.098348081111907959e-01 1.158365160226821899e-01 8.980157226324081421e-02
7.363000000000000000e+03 4.091792678833007812e+01 3.773306608200073242e+00 -1.891338080167770386e-01 -3.269379585981369019e-02 -6.654828041791915894e-02 -7.308935374021530151e-02
7.364000000000000000e+03 4.802264022827148438e+01 1.299261474609375000e+01 -2.883978486061096191e-01 5.003597736358642578e-01 6.358858197927474976e-02 -1.312456429004669189e-01
7.365000000000000000e+03 4.328913497924804688e+01 1.022387695312500000e+01 -4.349352717399597168e-01 -7.586281746625900269e-02 -1.532394289970397949e-01 -3.425415158271789551e-01
7.366000000000000000e+03 5.866243362426757812e+01 9.489703178405761719e+00 3.417752217501401901e-03 3.351869821548461914e+00 1.006586313247680664e+00 5.973988771438598633e-01
7.367000000000000000e+03 4.713421630859375000e+01 1.349243164062500000e+01 -3.549839854240417480e-01 2.997064590454101562e-01 -1.658325269818305969e-02 -2.333323508501052856e-01
7.368000000000000000e+03 5.876902389526367188e+01 1.302955818176269531e+01 -7.419727742671966553e-02 3.258601903915405273e+00 9.553213715553283691e-01 6.343565583229064941e-01
7.369000000000000000e+03 3.964588165283203125e+01 4.216387271881103516e+00 -2.967445254325866699e-01 -1.898423284292221069e-01 -1.459760665893554688e-01 -1.527211070060729980e-01
7.370000000000000000e+03 5.049833679199218750e+01 1.490388202667236328e+01 -2.451456636190414429e-01 8.559569120407104492e-01 1.832433640956878662e-01 -1.926370081491768360e-03
7.371000000000000000e+03 4.849904632568359375e+01 1.391182994842529297e+01 -3.070743978023529053e-01 5.077386498451232910e-01 6.019926816225051880e-02 -1.401122361421585083e-01
7.372000000000000000e+03 5.558132553100585938e+01 4.885506927967071533e-01 1.893848627805709839e-01 2.811181545257568359e+00 9.001699090003967285e-01 4.583819508552551270e-01
7.373000000000000000e+03 5.950454330444335938e+01 1.909469985961914062e+01 -1.400953829288482666e-01 3.098621129989624023e+00 8.875576853752136230e-01 7.732108235359191895e-01
7.374000000000000000e+03 4.483707046508789062e+01 1.742616772651672363e+00 1.015843451023101807e-01 5.968379378318786621e-01 2.095266729593276978e-01 1.353762447834014893e-01
7.375000000000000000e+03 4.420619964599609375e+01 7.498565196990966797e+00 -2.359978556632995605e-01 2.455317080020904541e-01 2.860155189409852028e-03 -1.203448176383972168e-01
7.376000000000000000e+03 4.520093154907226562e+01 5.658123493194580078e-01 1.706158816814422607e-01 6.946926712989807129e-01 2.595925629138946533e-01 1.647485494613647461e-01
7.377000000000000000e+03 5.819930648803710938e+01 1.060711002349853516e+01 -2.175965346395969391e-02 3.183694839477539062e+00 9.485805630683898926e-01 5.904396176338195801e-01
7.378000000000000000e+03 5.791536331176757812e+01 9.865381240844726562e+00 -2.480769529938697815e-03 3.129871606826782227e+00 9.382172822952270508e-01 5.761914849281311035e-01
7.379000000000000000e+03 5.999068069458007812e+01 1.959057998657226562e+01 -1.498347073793411255e-01 3.255082368850708008e+00 9.315742850303649902e-01 8.296030163764953613e-01
7.380000000000000000e+03 4.151873016357421875e+01 2.283261299133300781e+00 -2.835942804813385010e-02 9.807065874338150024e-02 2.091336809098720551e-02 2.420054562389850616e-02
7.381000000000000000e+03 3.983326721191406250e+01 1.976874113082885742e+00 -7.938855886459350586e-02 -9.643711894750595093e-02 -5.274770036339759827e-02 -8.699237369000911713e-03
7.382000000000000000e+03 5.980898666381835938e+01 1.526532268524169922e+01 -1.246228963136672974e-01 3.529068946838378906e+00 1.021333813667297363e+00 7.108272910118103027e-01
7.383000000000000000e+03 4.848886489868164062e+01 -4.381243586540222168e-01 2.399231493473052979e-01 1.309563517570495605e+00 4.648459851741790771e-01 2.635569870471954346e-01
7.384000000000000000e+03 5.154583358764648438e+01 -2.279505968093872070e+00 2.647408545017242432e-01 1.976957440376281738e+00 6.725094914436340332e-01 3.437122702598571777e-01
7.385000000000000000e+03 5.539907836914062500e+01 -6.143348217010498047e-01 2.091371566057205200e-01 2.795426845550537109e+00 9.013692140579223633e-01 4.410444498062133789e-01
7.386000000000000000e+03 4.865169525146484375e+01 3.970409631729125977e-01 2.071585357189178467e-01 1.308137774467468262e+00 4.545889198780059814e-01 2.591315805912017822e-01
7.387000000000000000e+03 5.946632385253906250e+01 1.797835922241210938e+01 -1.446436345577239990e-01 3.182171583175659180e+00 9.112583994865417480e-01 7.511387467384338379e-01
7.388000000000000000e+03 5.747842788696289062e+01 1.839105606079101562e+01 -1.391116827726364136e-01 2.432898283004760742e+00 6.881359815597534180e-01 5.637856721878051758e-01
7.389000000000000000e+03 5.768091964721679688e+01 5.216416358947753906e+00 9.950681775808334351e-02 3.209406852722167969e+00 9.926741123199462891e-01 5.310292243957519531e-01
7.390000000000000000e+03 5.684729003906250000e+01 1.148858904838562012e+00 1.792500615119934082e-01 3.104662179946899414e+00 9.851736426353454590e-01 4.891502559185028076e-01
7.391000000000000000e+03 5.625633621215820312e+01 4.523743629455566406e+00 1.102965027093887329e-01 2.842175722122192383e+00 8.857416510581970215e-01 4.911629557609558105e-01
7.392000000000000000e+03 5.663790130615234375e+01 3.789661169052124023e+00 1.238747909665107727e-01 2.973349094390869141e+00 9.291672110557556152e-01 5.061333179473876953e-01
7.393000000000000000e+03 5.693225097656250000e+01 4.853451251983642578e+00 1.075927540659904480e-01 3.035130977630615234e+00 9.428171515464782715e-01 5.205179452896118164e-01
7.394000000000000000e+03 5.329438018798828125e+01 -7.014887332916259766e+00 2.716125845909118652e-01 2.439657211303710938e+00 8.133809566497802734e-01 3.220765888690948486e-01
7.395000000000000000e+03 5.449203872680664062e+01 -6.661810398101806641e+00 2.532960474491119385e-01 2.708941221237182617e+00 8.886711597442626953e-01 3.461965322494506836e-01
7.396000000000000000e+03 5.586539077758789062e+01 -3.274746894836425781e+00 2.323277741670608521e-01 2.964745998382568359e+00 9.591221213340759277e-01 4.246329367160797119e-01
7.397000000000000000e+03 5.259421157836914062e+01 -1.317597985267639160e+00 2.424130290746688843e-01 2.175378084182739258e+00 7.253373861312866211e-01 3.766110837459564209e-01
7.398000000000000000e+03 5.486704254150390625e+01 -2.757250547409057617e+00 2.416406720876693726e-01 2.708502769470214844e+00 8.850430250167846680e-01 4.032883048057556152e-01
7.399000000000000000e+03 5.724668502807617188e+01 4.257131576538085938e+00 1.107212305068969727e-01 3.120997667312622070e+00 9.695156216621398926e-01 5.244256854057312012e-01
7.400000000000000000e+03 5.193194961547851562e+01 1.848760604858398438e+01 -3.238912522792816162e-01 8.281832933425903320e-01 1.512876152992248535e-01 -2.748027257621288300e-02
7.401000000000000000e+03 5.120463180541992188e+01 1.844872474670410156e+01 -3.585745096206665039e-01 6.700834631919860840e-01 9.345268458127975464e-02 -9.953194856643676758e-02
7.402000000000000000e+03 5.484620285034179688e+01 2.054980278015136719e+01 -2.496204227209091187e-01 1.368413686752319336e+00 3.356379866600036621e-01 2.001338750123977661e-01
7.403000000000000000e+03 4.885573577880859375e+01 1.431283760070800781e+01 -2.981790900230407715e-01 5.542735457420349121e-01 7.682833820581436157e-02 -1.264550536870956421e-01
7.404000000000000000e+03 5.304563522338867188e+01 2.009375381469726562e+01 -3.304620087146759033e-01 9.285066723823547363e-01 1.794134080410003662e-01 8.257539942860603333e-03
7.405000000000000000e+03 5.194902420043945312e+01 1.913965225219726562e+01 -3.541054725646972656e-01 7.505210638046264648e-01 1.189246699213981628e-01 -6.725785136222839355e-02
7.406000000000000000e+03 4.812773513793945312e+01 1.349364566802978516e+01 -3.040072023868560791e-01 4.758624136447906494e-01 5.155656859278678894e-02 -1.501673012971878052e-01
7.407000000000000000e+03 4.960659408569335938e+01 1.436722469329833984e+01 -2.659732103347778320e-01 7.125170826911926270e-01 1.339631527662277222e-01 -5.755420029163360596e-02
7.408000000000000000e+03 5.411813735961914062e+01 2.010324478149414062e+01 -2.755439281463623047e-01 1.218141674995422363e+00 2.827793061733245850e-01 1.334871798753738403e-01
7.409000000000000000e+03 5.823984146118164062e+01 1.712023353576660156e+01 -1.217132881283760071e-01 2.828038454055786133e+00 8.118975758552551270e-01 6.385808587074279785e-01
7.410000000000000000e+03 5.157779693603515625e+01 1.810166931152343750e+01 -3.213129639625549316e-01 7.902874946594238281e-01 1.406923681497573853e-01 -4.283065348863601685e-02
7.411000000000000000e+03 5.059651947021484375e+01 1.630516624450683594e+01 -2.941599190235137939e-01 7.509435415267944336e-01 1.370350867509841919e-01 -5.745187401771545410e-02
7.412000000000000000e+03 5.090765380859375000e+01 1.754265975952148438e+01 -3.320366144180297852e-01 6.950227618217468262e-01 1.088958457112312317e-01 -8.535108715295791626e-02
7.413000000000000000e+03 4.468084335327148438e+01 1.159890937805175781e+01 -4.150207936763763428e-01 2.811337448656558990e-02 -1.160722225904464722e-01 -3.258147239685058594e-01
7.414000000000000000e+03 4.421958541870117188e+01 8.750801086425781250e+00 -2.966752350330352783e-01 1.645077913999557495e-01 -3.965023159980773926e-02 -1.874444633722305298e-01
7.415000000000000000e+03 4.476213836669921875e+01 9.741809844970703125e+00 -3.204012811183929443e-01 1.817340105772018433e-01 -4.160017892718315125e-02 -2.114776521921157837e-01
7.416000000000000000e+03 5.355086135864257812e+01 2.013462829589843750e+01 -3.084555566310882568e-01 1.059771299362182617e+00 2.253947108983993530e-01 6.346444040536880493e-02
7.417000000000000000e+03 5.737588500976562500e+01 1.282954311370849609e+01 -6.000450998544692993e-02 2.829101324081420898e+00 8.307290673255920410e-01 5.575638413429260254e-01
7.418000000000000000e+03 5.721667861938476562e+01 2.034578514099121094e+01 -1.540722250938415527e-01 2.128859996795654297e+00 5.924363136291503906e-01 5.082027316093444824e-01
7.419000000000000000e+03 5.668501281738281250e+01 2.058666038513183594e+01 -1.719858795404434204e-01 1.931158423423767090e+00 5.277517437934875488e-01 4.339933395385742188e-01
7.420000000000000000e+03 5.264216613769531250e+01 1.995618820190429688e+01 -3.492565751075744629e-01 8.509332537651062012e-01 1.505030095577239990e-01 -3.364579379558563232e-02
7.421000000000000000e+03 5.572262191772460938e+01 1.965616226196289062e+01 -1.905073374509811401e-01 1.729973554611206055e+00 4.618398547172546387e-01 3.419124186038970947e-01
7.422000000000000000e+03 4.341818237304687500e+01 7.127094745635986328e+00 -2.583937346935272217e-01 1.438179314136505127e-01 -3.437273949384689331e-02 -1.437912732362747192e-01
7.423000000000000000e+03 5.807720947265625000e+01 1.873790931701660156e+01 -1.320231854915618896e-01 2.614826679229736328e+00 7.448410391807556152e-01 6.274132132530212402e-01
7.424000000000000000e+03 5.050902557373046875e+01 1.681080627441406250e+01 -3.164727389812469482e-01 6.798653006553649902e-01 1.090177595615386963e-01 -8.230844885110855103e-02
7.425000000000000000e+03 4.740415573120117188e+01 1.290243911743164062e+01 -3.135815262794494629e-01 4.009685516357421875e-01 2.621611021459102631e-02 -1.772799640893936157e-01
7.426000000000000000e+03 4.679035949707031250e+01 1.269890689849853516e+01 -3.429779112339019775e-01 2.987599968910217285e-01 -1.326537504792213440e-02 -2.210143357515335083e-01
7.427000000000000000e+03 4.757540130615234375e+01 1.229704570770263672e+01 -2.788792550563812256e-01 4.789799451828002930e-01 6.003021448850631714e-02 -1.321898698806762695e-01
7.428000000000000000e+03 4.153752517700195312e+01 5.682965278625488281e+00 -2.770962119102478027e-01 -3.724990785121917725e-02 -9.430383890867233276e-02 -1.596968770027160645e-01
7.429000000000000000e+03 4.148922729492187500e+01 2.981092691421508789e+00 -9.016331285238265991e-02 7.199326157569885254e-02 -5.451014265418052673e-03 -1.077050063759088516e-02
7.430000000000000000e+03 4.527460479736328125e+01 2.387585163116455078e+00 8.562719076871871948e-02 6.463941335678100586e-01 2.196063995361328125e-01 1.297979205846786499e-01
7.431000000000000000e+03 4.421340179443359375e+01 2.308459997177124023e+00 6.123862043023109436e-02 4.698626101016998291e-01 1.593303680419921875e-01 1.032066270709037781e-01
7.432000000000000000e+03 4.594824981689453125e+01 2.076802253723144531e+00 1.076487302780151367e-01 7.616947889328002930e-01 2.608030438423156738e-01 1.628718078136444092e-01
7.433000000000000000e+03 6.042922973632812500e+01 1.903271675109863281e+01 -1.676141023635864258e-01 3.502647161483764648e+00 1.000509858131408691e+00 8.563702702522277832e-01
7.434000000000000000e+03 5.480945205688476562e+01 1.886636495590209961e+00 1.731917858123779297e-01 2.591724872589111328e+00 8.294749855995178223e-01 4.438913762569427490e-01
7.435000000000000000e+03 5.446262359619140625e+01 -4.427000880241394043e-01 2.129137367010116577e-01 2.566187381744384766e+00 8.337303400039672852e-01 4.138246178627014160e-01
7.436000000000000000e+03 5.029631423950195312e+01 1.450501632690429688e+01 -2.389544993638992310e-01 8.490763902664184570e-01 1.830365806818008423e-01 -3.100867848843336105e-03
7.437000000000000000e+03 4.930385589599609375e+01 1.397031402587890625e+01 -2.658111453056335449e-01 6.848092079162597656e-01 1.256994307041168213e-01 -6.953203678131103516e-02
7.438000000000000000e+03 4.363482284545898438e+01 1.097062683105468750e+01 -4.505209028720855713e-01 -8.286148309707641602e-02 -1.600147187709808350e-01 -3.656609356403350830e-01
7.439000000000000000e+03 4.024992370605468750e+01 3.969712018966674805e+00 -2.331600189208984375e-01 -1.110942810773849487e-01 -1.032762899994850159e-01 -1.107480451464653015e-01
7.440000000000000000e+03 4.585517120361328125e+01 1.172671699523925781e+01 -3.465001285076141357e-01 2.123923450708389282e-01 -4.023233801126480103e-02 -2.392915487289428711e-01
7.441000000000000000e+03 5.010677337646484375e+01 1.308925724029541016e+01 -1.907508820295333862e-01 9.491617679595947266e-01 2.275232523679733276e-01 3.796058520674705505e-02
7.442000000000000000e+03 4.719750213623046875e+01 6.274943947792053223e-01 1.932079643011093140e-01 1.035685896873474121e+00 3.686681389808654785e-01 2.239222675561904907e-01
7.443000000000000000e+03 5.909580612182617188e+01 1.498073959350585938e+01 -1.074515953660011292e-01 3.272185087203979492e+00 9.494200348854064941e-01 6.778790950775146484e-01
7.444000000000000000e+03 5.801190567016601562e+01 1.302366733551025391e+01 -6.547036767005920410e-02 3.022907257080078125e+00 8.872311115264892578e-01 6.032447814941406250e-01
7.445000000000000000e+03 5.690269088745117188e+01 9.540326118469238281e+00 9.176733903586864471e-03 2.872569322586059570e+00 8.645238280296325684e-01 5.300709605216979980e-01
7.446000000000000000e+03 5.713499832153320312e+01 8.569868087768554688e+00 2.868210338056087494e-02 2.966018915176391602e+00 8.984102606773376465e-01 5.389572381973266602e-01
7.447000000000000000e+03 5.721818923950195312e+01 7.521278858184814453e+00 5.438511818647384644e-02 3.025806427001953125e+00 9.240574836730957031e-01 5.394448041915893555e-01
7.448000000000000000e+03 5.662458801269531250e+01 8.026761054992675781e+00 3.986221551895141602e-02 2.851438045501708984e+00 8.673900961875915527e-01 5.197238922119140625e-01
7.449000000000000000e+03 5.612424468994140625e+01 6.384141445159912109e+00 8.702167868614196777e-02 2.775333881378173828e+00 8.587067127227783203e-01 4.946016371250152588e-01
7.450000000000000000e+03 3.933465194702148438e+01 3.647469043731689453e+00 -2.688359618186950684e-01 -2.037168145179748535e-01 -1.417658329010009766e-01 -1.248853653669357300e-01
7.451000000000000000e+03 5.743735504150390625e+01 1.087281131744384766e+01 -2.442411333322525024e-02 2.946598052978515625e+00 8.766521811485290527e-01 5.614426732063293457e-01
7.452000000000000000e+03 4.401575851440429688e+01 9.475525856018066406e+00 -3.516823351383209229e-01 8.156743645668029785e-02 -8.103446662425994873e-02 -2.458671927452087402e-01
7.453000000000000000e+03 4.398184967041015625e+01 1.010904979705810547e+01 -3.873784840106964111e-01 3.002837300300598145e-02 -1.072050407528877258e-01 -2.879487574100494385e-01
7.454000000000000000e+03 5.885531616210937500e+01 1.571796607971191406e+01 -1.094900518655776978e-01 3.136977910995483398e+00 9.082463979721069336e-01 6.738212108612060547e-01
7.455000000000000000e+03 5.866291809082031250e+01 1.390543556213378906e+01 -8.817809075117111206e-02 3.194749593734741211e+00 9.319714307785034180e-01 6.450809836387634277e-01
7.456000000000000000e+03 4.986640930175781250e+01 -6.812534928321838379e-01 2.364003211259841919e-01 1.592958211898803711e+00 5.488075613975524902e-01 2.952769696712493896e-01
7.457000000000000000e+03 5.300071716308593750e+01 3.022829771041870117e+00 1.527702063322067261e-01 2.126690387725830078e+00 6.838381886482238770e-01 3.945131897926330566e-01
7.458000000000000000e+03 5.900223922729492188e+01 1.860405540466308594e+01 -1.345140337944030762e-01 2.957401990890502930e+00 8.468664288520812988e-01 7.184547781944274902e-01
7.459000000000000000e+03 4.068641281127929688e+01 2.205267190933227539e+00 -6.828754395246505737e-02 -4.861160181462764740e-03 -2.194461040198802948e-02 -1.257535768672823906e-04
7.460000000000000000e+03 4.220217514038085938e+01 2.438864469528198242e+00 -1.850029081106185913e-02 1.807569712400436401e-01 4.867700114846229553e-02 3.311918675899505615e-02
7.461000000000000000e+03 5.171590805053710938e+01 -1.192792057991027832e+00 2.417657375335693359e-01 1.970559597015380859e+00 6.636976003646850586e-01 3.508851826190948486e-01
7.462000000000000000e+03 3.871160507202148438e+01 2.169560909271240234e+00 -1.578747630119323730e-01 -2.145257443189620972e-01 -1.117201521992683411e-01 -3.998295962810516357e-02
7.463000000000000000e+03 5.887822341918945312e+01 1.751236343383789062e+01 -1.313014179468154907e-01 3.016720533370971680e+00 8.656257390975952148e-01 6.990967392921447754e-01
7.464000000000000000e+03 5.252639007568359375e+01 -2.276880741119384766e+00 2.543041110038757324e-01 2.178890228271484375e+00 7.299582958221435547e-01 3.634929358959197998e-01
7.465000000000000000e+03 5.357315063476562500e+01 -2.933113098144531250e+00 2.544021606445312500e-01 2.436596632003784180e+00 8.072996735572814941e-01 3.802473843097686768e-01
7.466000000000000000e+03 5.561518478393554688e+01 5.674458026885986328e+00 9.867585450410842896e-02 2.667044639587402344e+00 8.297161459922790527e-01 4.866605997085571289e-01
7.467000000000000000e+03 4.180118179321289062e+01 4.290760040283203125e+00 -1.739623397588729858e-01 5.735297501087188721e-02 -3.498281165957450867e-02 -6.841669976711273193e-02
7.468000000000000000e+03 4.787395858764648438e+01 9.112790226936340332e-02 2.097730785608291626e-01 1.162712216377258301e+00 4.117455780506134033e-01 2.498887926340103149e-01
7.469000000000000000e+03 4.671119689941406250e+01 1.785761713981628418e+00 1.415048092603683472e-01 9.050828814506530762e-01 3.139763176441192627e-01 1.932462155818939209e-01
7.470000000000000000e+03 4.906526947021484375e+01 -1.062573671340942383e+00 2.508688271045684814e-01 1.412201762199401855e+00 4.989211857318878174e-01 2.790218591690063477e-01
7.471000000000000000e+03 5.081601715087890625e+01 -8.814057707786560059e-01 2.401738315820693970e-01 1.772308588027954102e+00 6.037447452545166016e-01 3.324302434921264648e-01
7.472000000000000000e+03 5.408834457397460938e+01 -2.326159238815307617e+00 2.411602586507797241e-01 2.531461238861083984e+00 8.317863941192626953e-01 3.968273997306823730e-01
7.473000000000000000e+03 5.467407608032226562e+01 1.997607040405273438e+01 -2.420296967029571533e-01 1.394305586814880371e+00 3.456827998161315918e-01 2.065160125494003296e-01
7.474000000000000000e+03 5.538849639892578125e+01 2.039183998107910156e+01 -2.168134450912475586e-01 1.542638540267944336e+00 3.977475464344024658e-01 2.726274430751800537e-01
7.475000000000000000e+03 5.592697906494140625e+01 2.020706367492675781e+01 -1.925094276666641235e-01 1.734108090400695801e+00 4.624795913696289062e-01 3.460119068622589111e-01
7.476000000000000000e+03 4.987795257568359375e+01 1.472162818908691406e+01 -2.652908861637115479e-01 7.350452542304992676e-01 1.409263163805007935e-01 -4.878499731421470642e-02
7.477000000000000000e+03 4.898203277587890625e+01 1.352137660980224609e+01 -2.602446079254150391e-01 6.522689461708068848e-01 1.176072955131530762e-01 -7.399215549230575562e-02
7.478000000000000000e+03 5.075802612304687500e+01 1.432421207427978516e+01 -2.206647694110870361e-01 9.692093729972839355e-01 2.245633900165557861e-01 4.277965053915977478e-02
7.479000000000000000e+03 5.105845642089843750e+01 1.694461250305175781e+01 -2.971821725368499756e-01 7.944104075431823730e-01 1.491684615612030029e-01 -4.070362076163291931e-02
7.480000000000000000e+03 5.298091888427734375e+01 1.966777610778808594e+01 -3.181340098381042480e-01 9.607134461402893066e-01 1.927738338708877563e-01 2.343374304473400116e-02
7.481000000000000000e+03 5.741461563110351562e+01 1.954784202575683594e+01 -1.500614434480667114e-01 2.279112577438354492e+00 6.387153267860412598e-01 5.410674214363098145e-01
7.482000000000000000e+03 5.645165634155273438e+01 1.998833465576171875e+01 -1.732164770364761353e-01 1.937848925590515137e+00 5.293897390365600586e-01 4.184471070766448975e-01
7.483000000000000000e+03 5.400610351562500000e+01 1.950405502319335938e+01 -2.614676952362060547e-01 1.260729789733886719e+00 2.997786104679107666e-01 1.510682404041290283e-01
7.484000000000000000e+03 5.064294815063476562e+01 1.580911540985107422e+01 -2.731831967830657959e-01 8.008875846862792969e-01 1.583113223314285278e-01 -2.940374240279197693e-02
7.485000000000000000e+03 4.418075561523437500e+01 1.108698654174804688e+01 -4.184243083000183105e-01 -7.556285709142684937e-03 -1.277941763401031494e-01 -3.353453874588012695e-01
7.486000000000000000e+03 5.646106338500976562e+01 1.611663627624511719e+01 -1.200275793671607971e-01 2.323586463928222656e+00 6.610677242279052734e-01 4.949780702590942383e-01
7.487000000000000000e+03 5.348212432861328125e+01 1.957977867126464844e+01 -2.861629128456115723e-01 1.119349002838134766e+00 2.499558180570602417e-01 8.947845548391342163e-02
7.488000000000000000e+03 5.146640396118164062e+01 1.762904167175292969e+01 -3.099287152290344238e-01 8.055839538574218750e-01 1.486965715885162354e-01 -2.861811034381389618e-02
7.489000000000000000e+03 4.364630126953125000e+01 7.695493221282958984e+00 -2.727512419223785400e-01 1.468523442745208740e-01 -3.776967152953147888e-02 -1.639276593923568726e-01
7.490000000000000000e+03 4.571098709106445312e+01 1.078290367126464844e+01 -3.195612132549285889e-01 2.534586191177368164e-01 -1.983077824115753174e-02 -2.030368447303771973e-01
7.491000000000000000e+03 5.115443038940429688e+01 1.638039970397949219e+01 -2.754242122173309326e-01 8.636437058448791504e-01 1.764658391475677490e-01 -5.216305144131183624e-03
7.492000000000000000e+03 4.642168426513671875e+01 1.195554065704345703e+01 -3.311457633972167969e-01 2.954546213150024414e-01 -1.070734299719333649e-02 -2.129885405302047729e-01
7.493000000000000000e+03 4.525928878784179688e+01 1.161474895477294922e+01 -3.712675273418426514e-01 1.354529708623886108e-01 -7.074436545372009277e-02 -2.809212803840637207e-01
7.494000000000000000e+03 5.717365646362304688e+01 1.354814720153808594e+01 -7.493422925472259521e-02 2.721978902816772461e+00 7.941133975982666016e-01 5.492139458656311035e-01
7.495000000000000000e+03 4.953354263305664062e+01 1.323435211181640625e+01 -2.267316877841949463e-01 7.922537326812744141e-01 1.696566194295883179e-01 -2.109045162796974182e-02
7.496000000000000000e+03 4.386564636230468750e+01 6.399263381958007812e+00 -1.961714774370193481e-01 2.524220347404479980e-01 1.687516830861568451e-02 -8.024556189775466919e-02
7.497000000000000000e+03 5.005863952636718750e+01 1.410997867584228516e+01 -2.441589534282684326e-01 8.296521306037902832e-01 1.756479442119598389e-01 -6.098413839936256409e-03
7.498000000000000000e+03 4.978520965576171875e+01 1.369749355316162109e+01 -2.364444583654403687e-01 8.127807378768920898e-01 1.729008853435516357e-01 -1.640979014337062836e-02
7.499000000000000000e+03 4.219675445556640625e+01 5.514309883117675781e+00 -2.344295233488082886e-01 5.856131389737129211e-02 -5.276046320796012878e-02 -1.195571050047874451e-01
7.500000000000000000e+03 4.438436126708984375e+01 3.586437702178955078e+00 -8.759320713579654694e-03 4.569364488124847412e-01 1.344531327486038208e-01 6.350732594728469849e-02
7.501000000000000000e+03 5.776821136474609375e+01 1.923264503479003906e+01 -1.431078314781188965e-01 2.464311599731445312e+00 6.963611245155334473e-01 5.873971581459045410e-01
7.502000000000000000e+03 5.695226669311523438e+01 1.975644493103027344e+01 -1.564664840698242188e-01 2.125889301300048828e+00 5.908268094062805176e-01 4.940738677978515625e-01
7.503000000000000000e+03 4.462672805786132812e+01 1.206022548675537109e+01 -4.291281104087829590e-01 -5.032076500356197357e-03 -1.302480548620223999e-01 -3.564325869083404541e-01
7.504000000000000000e+03 4.113071060180664062e+01 4.450309753417968750e+00 -2.165858000516891479e-01 -3.230790421366691589e-02 -7.466810941696166992e-02 -1.043279021978378296e-01
7.505000000000000000e+03 4.698152923583984375e+01 1.215353107452392578e+01 -3.040555417537689209e-01 3.853176236152648926e-01 2.437862381339073181e-02 -1.685014516115188599e-01
7.506000000000000000e+03 3.994004821777343750e+01 3.253853559494018555e+00 -1.938503831624984741e-01 -1.207505613565444946e-01 -9.438028186559677124e-02 -7.527467608451843262e-02
7.507000000000000000e+03 5.858662796020507812e+01 1.643767166137695312e+01 -1.274148076772689819e-01 2.994680881500244141e+00 8.601797819137573242e-01 6.578996181488037109e-01
7.508000000000000000e+03 5.845336914062500000e+01 1.815818595886230469e+01 -1.371744126081466675e-01 2.799613952636718750e+00 7.987318634986877441e-01 6.630283594131469727e-01
7.509000000000000000e+03 5.760106277465820312e+01 1.164133262634277344e+01 -3.468894213438034058e-02 2.967181682586669922e+00 8.797478675842285156e-01 5.708825588226318359e-01
7.510000000000000000e+03 4.480998229980468750e+01 2.879500865936279297e+00 5.089530348777770996e-02 5.596870183944702148e-01 1.831746995449066162e-01 1.052192226052284241e-01
7.511000000000000000e+03 5.769489669799804688e+01 1.446976947784423828e+01 -8.790795505046844482e-02 2.842806577682495117e+00 8.264696002006530762e-01 5.842072367668151855e-01
7.512000000000000000e+03 5.840415954589843750e+01 1.470293331146240234e+01 -9.692675620317459106e-02 3.054763555526733398e+00 8.873510360717773438e-01 6.372112035751342773e-01
7.513000000000000000e+03 5.191325378417968750e+01 1.779677581787109375e+01 -2.910472750663757324e-01 9.106195569038391113e-01 1.858716756105422974e-01 4.769911523908376694e-03
7.514000000000000000e+03 5.556348037719726562e+01 1.112637424468994141e+01 -2.485626749694347382e-02 2.419432163238525391e+00 7.183727622032165527e-01 4.677650332450866699e-01
7.515000000000000000e+03 4.429246902465820312e+01 9.873067855834960938e+00 -3.565351366996765137e-01 9.490555524826049805e-02 -7.848887145519256592e-02 -2.503554522991180420e-01
7.516000000000000000e+03 4.447740554809570312e+01 8.005890846252441406e+00 -2.457571178674697876e-01 2.538142800331115723e-01 2.417146461084485054e-03 -1.290764808654785156e-01
7.517000000000000000e+03 5.648198318481445312e+01 1.334612464904785156e+01 -7.011667639017105103e-02 2.533454656600952148e+00 7.390013933181762695e-01 5.161109566688537598e-01
7.518000000000000000e+03 5.667939376831054688e+01 1.258623123168945312e+01 -5.650507658720016479e-02 2.642557382583618164e+00 7.758156657218933105e-01 5.290762782096862793e-01
7.519000000000000000e+03 4.502651214599609375e+01 4.840913772583007812e+00 -5.613296478986740112e-02 5.083486437797546387e-01 1.356647014617919922e-01 4.354025423526763916e-02
7.520000000000000000e+03 5.606602478027343750e+01 7.496626377105712891e+00 6.059570237994194031e-02 2.729844093322753906e+00 8.371319770812988281e-01 4.943189918994903564e-01
7.521000000000000000e+03 5.502117156982421875e+01 2.927685976028442383e+00 1.559550613164901733e-01 2.620516538619995117e+00 8.329414725303649902e-01 4.612829685211181641e-01
7.522000000000000000e+03 5.664871978759765625e+01 6.979336738586425781e+00 7.393109053373336792e-02 2.902759075164794922e+00 8.930070400238037109e-01 5.162359476089477539e-01
7.523000000000000000e+03 4.437842559814453125e+01 1.024604988098144531e+01 -3.703896403312683105e-01 8.026963472366333008e-02 -8.703600615262985229e-02 -2.665849030017852783e-01
7.524000000000000000e+03 5.671702957153320312e+01 1.175520992279052734e+01 -3.239575400948524475e-02 2.699239730834960938e+00 8.000532388687133789e-01 5.298331379890441895e-01
7.525000000000000000e+03 5.668905639648437500e+01 1.100914096832275391e+01 -2.423739805817604065e-02 2.727468252182006836e+00 8.109692931175231934e-01 5.240720510482788086e-01
7.526000000000000000e+03 5.454176330566406250e+01 7.018033862113952637e-01 1.978572309017181396e-01 2.559491157531738281e+00 8.272045254707336426e-01 4.272260069847106934e-01
7.527000000000000000e+03 4.783750152587890625e+01 3.245162725448608398e+00 9.227839112281799316e-02 1.067144274711608887e+00 3.478268086910247803e-01 2.070875316858291626e-01
7.528000000000000000e+03 5.497453689575195312e+01 6.264084339141845703e+00 8.604009449481964111e-02 2.486400127410888672e+00 7.717320322990417480e-01 4.611394405364990234e-01
7.529000000000000000e+03 5.346215820312500000e+01 -1.343270540237426758e+00 2.346949279308319092e-01 2.360964059829711914e+00 7.786976695060729980e-01 3.864172995090484619e-01
7.530000000000000000e+03 5.202516555786132812e+01 -3.133243024349212646e-01 2.293648421764373779e-01 2.006731271743774414e+00 6.708288192749023438e-01 3.583954572677612305e-01
7.531000000000000000e+03 5.337069320678710938e+01 -2.191363573074340820e+00 2.445895224809646606e-01 2.368897438049316406e+00 7.840460538864135742e-01 3.804446756839752197e-01
7.532000000000000000e+03 5.588651275634765625e+01 3.249791383743286133e+00 1.445644348859786987e-01 2.802220106124877930e+00 8.840354084968566895e-01 4.737778306007385254e-01
7.533000000000000000e+03 5.234191894531250000e+01 2.301243543624877930e+00 1.713036894798278809e-01 2.014269590377807617e+00 6.556720137596130371e-01 3.755815327167510986e-01
7.534000000000000000e+03 5.657661056518554688e+01 1.040735626220703125e+01 -7.398482877761125565e-03 2.741037368774414062e+00 8.200916647911071777e-01 5.138738751411437988e-01
7.535000000000000000e+03 5.656735610961914062e+01 8.972246170043945312e+00 2.517651394009590149e-02 2.815819263458251953e+00 8.522986769676208496e-01 5.218174457550048828e-01
7.536000000000000000e+03 4.268449401855468750e+01 2.786537885665893555e+00 -2.179383859038352966e-02 2.470592409372329712e-01 6.757961958646774292e-02 3.570042178034782410e-02
7.537000000000000000e+03 4.161829376220703125e+01 3.651221036911010742e+00 -1.342699825763702393e-01 6.160878762602806091e-02 -2.179835736751556396e-02 -3.818129748106002808e-02
7.538000000000000000e+03 4.320876312255859375e+01 3.990965127944946289e+00 -7.146602869033813477e-02 2.758999466896057129e-01 6.133018061518669128e-02 6.351586431264877319e-03
7.539000000000000000e+03 4.638305664062500000e+01 3.499913215637207031e+00 5.638290569186210632e-02 7.951602935791015625e-01 2.554629445075988770e-01 1.451613157987594604e-01
7.540000000000000000e+03 5.548643112182617188e+01 4.181700229644775391e+00 1.216632947325706482e-01 2.673333883285522461e+00 8.384991884231567383e-01 4.768045246601104736e-01
7.541000000000000000e+03 4.969288253784179688e+01 4.660193026065826416e-01 2.135597765445709229e-01 1.522099018096923828e+00 5.206976532936096191e-01 2.979954183101654053e-01
7.542000000000000000e+03 5.348192977905273438e+01 6.129366159439086914e-01 2.035475671291351318e-01 2.316194772720336914e+00 7.559227347373962402e-01 4.027676582336425781e-01
7.543000000000000000e+03 5.124505996704101562e+01 1.439471817016601562e+01 -2.065507322549819946e-01 1.070247173309326172e+00 2.591089308261871338e-01 8.521740138530731201e-02
7.544000000000000000e+03 4.470026779174804688e+01 1.115009212493896484e+01 -3.955043256282806396e-01 6.016220152378082275e-02 -1.006026342511177063e-01 -2.962381243705749512e-01
7.545000000000000000e+03 4.428692626953125000e+01 1.064334392547607422e+01 -3.898874521255493164e-01 4.278586804866790771e-02 -1.041304767131805420e-01 -2.954905331134796143e-01
7.546000000000000000e+03 5.230299758911132812e+01 1.341290569305419922e+01 -1.363977640867233276e-01 1.401846408843994141e+00 3.796345889568328857e-01 2.033429443836212158e-01
7.547000000000000000e+03 5.294593048095703125e+01 1.745969963073730469e+01 -2.357511371374130249e-01 1.207273960113525391e+00 2.914568483829498291e-01 1.236592084169387817e-01
7.548000000000000000e+03 5.479313278198242188e+01 8.684086799621582031e+00 2.746838144958019257e-02 2.343750953674316406e+00 7.113657593727111816e-01 4.397390484809875488e-01
7.549000000000000000e+03 5.174365234375000000e+01 1.581582927703857422e+01 -2.303187549114227295e-01 1.064223885536193848e+00 2.501715421676635742e-01 7.634511590003967285e-02
7.550000000000000000e+03 5.748168563842773438e+01 1.516770362854003906e+01 -9.560774266719818115e-02 2.728213071823120117e+00 7.897816300392150879e-01 5.781965851783752441e-01
7.551000000000000000e+03 5.520541381835937500e+01 1.983403015136718750e+01 -2.166173011064529419e-01 1.557422280311584473e+00 4.022414982318878174e-01 2.791965007781982422e-01
7.552000000000000000e+03 4.481299972534179688e+01 1.074022102355957031e+01 -3.575756251811981201e-01 1.242522448301315308e-01 -6.999701261520385742e-02 -2.596893012523651123e-01
7.553000000000000000e+03 4.477410125732421875e+01 8.517972946166992188e+00 -2.580720782279968262e-01 2.659488022327423096e-01 2.363018924370408058e-03 -1.378436386585235596e-01
7.554000000000000000e+03 5.175503921508789062e+01 1.645545578002929688e+01 -2.485342621803283691e-01 1.001717686653137207e+00 2.259550243616104126e-01 5.084788799285888672e-02
7.555000000000000000e+03 5.164737319946289062e+01 1.707116889953613281e+01 -2.794089913368225098e-01 9.147323369979858398e-01 1.905969977378845215e-01 1.641387119889259338e-02
7.556000000000000000e+03 4.883994674682617188e+01 1.257439136505126953e+01 -2.385146915912628174e-01 7.003519535064697266e-01 1.385511755943298340e-01 -4.404621943831443787e-02
7.557000000000000000e+03 4.836165618896484375e+01 1.181346797943115234e+01 -2.270365059375762939e-01 6.667953729629516602e-01 1.319276690483093262e-01 -5.132318660616874695e-02
7.558000000000000000e+03 5.579274749755859375e+01 1.318012237548828125e+01 -6.887332350015640259e-02 2.356786489486694336e+00 6.863739490509033203e-01 4.693949520587921143e-01
7.559000000000000000e+03 4.471543502807617188e+01 7.297973632812500000e+00 -1.952156126499176025e-01 3.348019719123840332e-01 4.187590628862380981e-02 -8.083732426166534424e-02
7.560000000000000000e+03 4.400474929809570312e+01 6.968717098236083984e+00 -2.111593037843704224e-01 2.439853847026824951e-01 9.847822599112987518e-03 -1.024783924221992493e-01
7.561000000000000000e+03 5.551594924926757812e+01 6.902692317962646484e+00 7.662084698677062988e-02 2.610118389129638672e+00 8.060217499732971191e-01 4.806280434131622314e-01
7.562000000000000000e+03 4.286496734619140625e+01 5.342854022979736328e+00 -1.859882026910781860e-01 1.570094078779220581e-01 -8.693636395037174225e-03 -7.282403111457824707e-02
7.563000000000000000e+03 5.387861633300781250e+01 1.893042564392089844e+01 -2.463208138942718506e-01 1.297564864158630371e+00 3.153732419013977051e-01 1.615859866142272949e-01
7.564000000000000000e+03 4.857099914550781250e+01 1.313213253021240234e+01 -2.615377306938171387e-01 6.107388138771057129e-01 1.047603264451026917e-01 -8.661074936389923096e-02
7.565000000000000000e+03 4.819784545898437500e+01 1.240984630584716797e+01 -2.584544718265533447e-01 5.818488597869873047e-01 9.701832383871078491e-02 -9.300862252712249756e-02
7.566000000000000000e+03 4.199701309204101562e+01 4.909759998321533203e+00 -1.991486847400665283e-01 5.795534327626228333e-02 -4.235800355672836304e-02 -9.435518831014633179e-02
7.567000000000000000e+03 4.451713943481445312e+01 9.246436119079589844e+00 -3.100140988826751709e-01 1.777573972940444946e-01 -3.967701643705368042e-02 -1.952191144227981567e-01
7.568000000000000000e+03 4.519691085815429688e+01 1.105945110321044922e+01 -3.591807484626770020e-01 1.629472225904464722e-01 -5.887005478143692017e-02 -2.533694803714752197e-01
7.569000000000000000e+03 4.070232391357421875e+01 3.016320705413818359e+00 -1.271602511405944824e-01 -2.881807461380958557e-02 -4.679349809885025024e-02 -3.699599578976631165e-02
7.570000000000000000e+03 5.816585922241210938e+01 1.543071651458740234e+01 -1.032163128256797791e-01 2.925415515899658203e+00 8.466597199440002441e-01 6.227537393569946289e-01
7.571000000000000000e+03 4.133510589599609375e+01 5.079343318939208984e+00 -2.551548182964324951e-01 -3.467997908592224121e-02 -8.695044368505477905e-02 -1.331232041120529175e-01
7.572000000000000000e+03 5.728598022460937500e+01 1.900512886047363281e+01 -1.454806625843048096e-01 2.307743310928344727e+00 6.486787796020507812e-01 5.362249612808227539e-01
7.573000000000000000e+03 4.620253372192382812e+01 2.792360782623291016e+00 8.801694214344024658e-02 7.844676971435546875e-01 2.617453932762145996e-01 1.562405377626419067e-01
7.574000000000000000e+03 4.550429916381835938e+01 1.018851947784423828e+01 -3.058263957500457764e-01 2.623316347599029541e-01 -1.304842811077833176e-02 -1.871235072612762451e-01
7.575000000000000000e+03 5.589616775512695312e+01 1.180908393859863281e+01 -3.815709426999092102e-02 2.459278106689453125e+00 7.263363003730773926e-01 4.804973006248474121e-01
7.576000000000000000e+03 5.218588256835937500e+01 1.735676383972167969e+01 -2.643016278743743896e-01 1.012869715690612793e+00 2.245704233646392822e-01 5.379555001854896545e-02
7.577000000000000000e+03 5.609677886962890625e+01 1.657983589172363281e+01 -1.278375834226608276e-01 2.179841041564941406e+00 6.156010031700134277e-01 4.535597562789916992e-01
7.578000000000000000e+03 5.265274429321289062e+01 1.863566017150878906e+01 -2.941684126853942871e-01 1.007099628448486328e+00 2.138793617486953735e-01 4.043420776724815369e-02
7.579000000000000000e+03 5.504536819458007812e+01 1.929014015197753906e+01 -2.076160758733749390e-01 1.585005879402160645e+00 4.132169485092163086e-01 2.813708782196044922e-01
7.580000000000000000e+03 5.453176116943359375e+01 1.940420913696289062e+01 -2.345020771026611328e-01 1.417082309722900391e+00 3.547740578651428223e-01 2.171420902013778687e-01
7.581000000000000000e+03 4.231906890869140625e+01 3.539196968078613281e+00 -9.538985788822174072e-02 1.542688608169555664e-01 1.766370050609111786e-02 -9.159769862890243530e-03
7.582000000000000000e+03 5.527000045776367188e+01 9.407441139221191406e+00 1.272683776915073395e-02 2.431269168853759766e+00 7.331988215446472168e-01 4.611659049987792969e-01
7.583000000000000000e+03 5.626177978515625000e+01 9.821296691894531250e+00 -1.301319920457899570e-03 2.674707651138305664e+00 8.020219206809997559e-01 5.050982832908630371e-01
7.584000000000000000e+03 5.791141128540039062e+01 1.611460494995117188e+01 -1.127577871084213257e-01 2.794806957244873047e+00 8.046147823333740234e-01 6.085694432258605957e-01
7.585000000000000000e+03 4.369781494140625000e+01 2.949737787246704102e+00 -3.669455181807279587e-04 3.646043539047241211e-01 1.092712283134460449e-01 6.385494768619537354e-02
7.586000000000000000e+03 5.621874237060546875e+01 1.941315841674804688e+01 -1.742429137229919434e-01 1.928284525871276855e+00 5.262125134468078613e-01 4.043174088001251221e-01
7.587000000000000000e+03 4.944338607788085938e+01 1.499238133430480957e+00 1.774364858865737915e-01 1.439175248146057129e+00 4.849835336208343506e-01 2.836036980152130127e-01
7.588000000000000000e+03 4.924364852905273438e+01 3.137912988662719727e+00 1.180904433131217957e-01 1.324291110038757324e+00 4.327144920825958252e-01 2.597220242023468018e-01
7.589000000000000000e+03 5.676458740234375000e+01 1.494558811187744141e+01 -9.261720627546310425e-02 2.512958049774169922e+00 7.261022329330444336e-01 5.215281248092651367e-01
7.590000000000000000e+03 5.496805953979492188e+01 4.984017372131347656e+00 1.071067824959754944e-01 2.539234876632690430e+00 7.939025163650512695e-01 4.653868079185485840e-01
7.591000000000000000e+03 5.437546157836914062e+01 5.645660877227783203e+00 9.539357572793960571e-02 2.373312711715698242e+00 7.406119108200073242e-01 4.419606626033782959e-01
7.592000000000000000e+03 5.157809829711914062e+01 1.619984865188598633e+00 1.911793649196624756e-01 1.886153221130371094e+00 6.231997609138488770e-01 3.533281981945037842e-01
7.593000000000000000e+03 5.213401794433593750e+01 9.160476922988891602e-01 2.030806839466094971e-01 2.005125045776367188e+00 6.624617576599121094e-01 3.666932880878448486e-01
7.594000000000000000e+03 5.132754898071289062e+01 1.605491191148757935e-01 2.176790088415145874e-01 1.852048397064208984e+00 6.209182143211364746e-01 3.443039357662200928e-01
7.595000000000000000e+03 5.608775711059570312e+01 1.073677539825439453e+01 -1.147477142512798309e-02 2.573789596557617188e+00 7.686944007873535156e-01 4.988460242748260498e-01
7.596000000000000000e+03 5.608340835571289062e+01 8.557213783264160156e+00 3.170836344361305237e-02 2.676100254058837891e+00 8.123425841331481934e-01 4.987466335296630859e-01
7.597000000000000000e+03 5.377747344970703125e+01 2.328070402145385742e+00 1.698173880577087402e-01 2.330641746520996094e+00 7.501377463340759277e-01 4.164488911628723145e-01
7.598000000000000000e+03 5.302788925170898438e+01 1.547583580017089844e+00 1.899912506341934204e-01 2.197278976440429688e+00 7.161810994148254395e-01 3.953064382076263428e-01
7.599000000000000000e+03 4.771911621093750000e+01 2.405215740203857422e+00 1.331631243228912354e-01 1.080639004707336426e+00 3.641406297683715820e-01 2.147776186466217041e-01
7.600000000000000000e+03 4.547776412963867188e+01 3.013722896575927734e+00 5.525665357708930969e-02 6.522368192672729492e-01 2.122480273246765137e-01 1.225796192884445190e-01
7.601000000000000000e+03 5.272155761718750000e+01 -4.695954620838165283e-01 2.319951653480529785e-01 2.168145895004272461e+00 7.200423479080200195e-01 3.824079930782318115e-01
7.602000000000000000e+03 5.423943710327148438e+01 3.165601730346679688e+00 1.545587182044982910e-01 2.423722982406616211e+00 7.734845280647277832e-01 4.246926903724670410e-01
7.603000000000000000e+03 4.666913604736328125e+01 1.143072032928466797e+01 -2.909812927246093750e-01 3.828665316104888916e-01 2.756557241082191467e-02 -1.603727787733078003e-01
7.604000000000000000e+03 5.118099594116210938e+01 1.580977344512939453e+01 -2.459955662488937378e-01 9.330573678016662598e-01 2.061185389757156372e-01 2.184355072677135468e-02
7.605000000000000000e+03 5.565621566772460938e+01 1.011786270141601562e+01 -2.845081267878413200e-03 2.484484910964965820e+00 7.444919943809509277e-01 4.802436828613281250e-01
7.606000000000000000e+03 5.177053833007812500e+01 1.361244583129882812e+01 -1.561217159032821655e-01 1.268253803253173828e+00 3.336396217346191406e-01 1.602219194173812866e-01
7.607000000000000000e+03 5.237132644653320312e+01 1.642434692382812500e+01 -2.251807153224945068e-01 1.146744012832641602e+00 2.764689922332763672e-01 1.116275340318679810e-01
7.608000000000000000e+03 4.713893890380859375e+01 1.163924217224121094e+01 -2.768285572528839111e-01 4.500936865806579590e-01 5.197953805327415466e-02 -1.328934133052825928e-01
7.609000000000000000e+03 5.000489044189453125e+01 1.262486457824707031e+01 -1.822052597999572754e-01 9.594443440437316895e-01 2.331717312335968018e-01 4.771028086543083191e-02
7.610000000000000000e+03 4.489662933349609375e+01 1.026784515380859375e+01 -3.454070687294006348e-01 1.670543402433395386e-01 -5.350581929087638855e-02 -2.319023162126541138e-01
7.611000000000000000e+03 5.055674743652343750e+01 1.388373661041259766e+01 -2.177421152591705322e-01 9.579946994781494141e-01 2.220757603645324707e-01 4.194518551230430603e-02
7.612000000000000000e+03 4.248892974853515625e+01 4.137974262237548828e+00 -1.191442459821701050e-01 1.592100411653518677e-01 1.201974041759967804e-02 -3.249785676598548889e-02
7.613000000000000000e+03 5.664018630981445312e+01 1.558983802795410156e+01 -1.051108092069625854e-01 2.429471254348754883e+00 6.973081231117248535e-01 5.147790312767028809e-01
7.614000000000000000e+03 5.262510681152343750e+01 1.777242660522460938e+01 -2.548784017562866211e-01 1.092449903488159180e+00 2.512714564800262451e-01 7.937244325876235962e-02
7.615000000000000000e+03 4.521156692504882812e+01 6.360435009002685547e+00 -1.304127722978591919e-01 4.655150175094604492e-01 1.005306690931320190e-01 -1.019906252622604370e-02
7.616000000000000000e+03 5.293222808837890625e+01 1.627454566955566406e+01 -1.969065219163894653e-01 1.322184801101684570e+00 3.375834822654724121e-01 1.710642874240875244e-01
7.617000000000000000e+03 4.945155715942382812e+01 1.270556831359863281e+01 -2.144184559583663940e-01 8.071560859680175781e-01 1.778212934732437134e-01 -6.605545524507761002e-03
7.618000000000000000e+03 5.488873672485351562e+01 7.468295574188232422e+00 5.513370037078857422e-02 2.413813352584838867e+00 7.406840920448303223e-01 4.492963552474975586e-01
7.619000000000000000e+03 4.771106719970703125e+01 1.172050285339355469e+01 -2.571465373039245605e-01 5.378967523574829102e-01 8.422506600618362427e-02 -9.847722947597503662e-02
7.620000000000000000e+03 4.506269836425781250e+01 9.045964241027832031e+00 -2.653336524963378906e-01 2.778210341930389404e-01 3.746217582374811172e-03 -1.507863253355026245e-01
7.621000000000000000e+03 5.673241424560546875e+01 1.912074089050292969e+01 -1.538650691509246826e-01 2.134084939956665039e+00 5.940659046173095703e-01 4.778746664524078369e-01
7.622000000000000000e+03 5.334756088256835938e+01 1.903644752502441406e+01 -2.735858559608459473e-01 1.138182282447814941e+00 2.593789398670196533e-01 1.006076857447624207e-01
7.623000000000000000e+03 4.372864913940429688e+01 5.787634849548339844e+00 -1.628477275371551514e-01 2.619184553623199463e-01 2.972122095525264740e-02 -6.032120808959007263e-02
7.624000000000000000e+03 4.451748275756835938e+01 6.318225860595703125e+00 -1.597650498151779175e-01 3.547866940498352051e-01 5.850649252533912659e-02 -4.482792690396308899e-02
7.625000000000000000e+03 4.266481018066406250e+01 4.740612983703613281e+00 -1.581746339797973633e-01 1.631053537130355835e-01 1.479214173741638660e-03 -5.749367922544479370e-02
7.626000000000000000e+03 5.592460632324218750e+01 1.890681838989257812e+01 -1.769675165414810181e-01 1.885839581489562988e+00 5.126615762710571289e-01 3.880611062049865723e-01
7.627000000000000000e+03 5.526882553100585938e+01 1.196487998962402344e+01 -4.747951030731201172e-02 2.280264139175415039e+00 6.698353886604309082e-01 4.416670799255371094e-01
7.628000000000000000e+03 5.697954559326171875e+01 1.425333499908447266e+01 -8.148957043886184692e-02 2.624671220779418945e+00 7.629545331001281738e-01 5.406534671783447266e-01
7.629000000000000000e+03 5.374874114990234375e+01 1.836187934875488281e+01 -2.290533334016799927e-01 1.324019551277160645e+00 3.284898698329925537e-01 1.752853840589523315e-01
7.630000000000000000e+03 4.563315582275390625e+01 8.835085868835449219e+00 -2.287786602973937988e-01 3.919080793857574463e-01 4.893882945179939270e-02 -9.857729822397232056e-02
7.631000000000000000e+03 5.232281494140625000e+01 3.686845541000366211e+00 1.354947686195373535e-01 1.957455039024353027e+00 6.278849840164184570e-01 3.689680993556976318e-01
7.632000000000000000e+03 5.760621643066406250e+01 1.676593208312988281e+01 -1.258148849010467529e-01 2.640009403228759766e+00 7.542583346366882324e-01 5.831776857376098633e-01
7.633000000000000000e+03 4.565158081054687500e+01 3.649381399154663086e+00 2.866499871015548706e-02 6.535412669181823730e-01 2.046618908643722534e-01 1.128586530685424805e-01
7.634000000000000000e+03 4.581489181518554688e+01 4.913685798645019531e+00 -2.103840373456478119e-02 6.447276473045349121e-01 1.871067583560943604e-01 8.135944604873657227e-02
7.635000000000000000e+03 4.554222106933593750e+01 7.402282714843750000e+00 -1.622318476438522339e-01 4.654563367366790771e-01 9.096734225749969482e-02 -3.592015802860260010e-02
7.636000000000000000e+03 4.533323669433593750e+01 8.274046897888183594e+00 -2.143349945545196533e-01 3.756281137466430664e-01 4.838792979717254639e-02 -9.289631992578506470e-02
7.637000000000000000e+03 5.785648727416992188e+01 1.776573181152343750e+01 -1.298449635505676270e-01 2.632212638854980469e+00 7.507103085517883301e-01 6.037192344665527344e-01
7.638000000000000000e+03 5.309019088745117188e+01 1.792268943786621094e+01 -2.463719397783279419e-01 1.182574272155761719e+00 2.808607220649719238e-01 1.222089827060699463e-01
7.639000000000000000e+03 5.726929855346679688e+01 1.582129478454589844e+01 -1.103933528065681458e-01 2.610149383544921875e+00 7.499268054962158203e-01 5.572979450225830078e-01
7.640000000000000000e+03 5.196517181396484375e+01 1.283485603332519531e+01 -1.314161866903305054e-01 1.368578672409057617e+00 3.711487352848052979e-01 1.948103308677673340e-01
7.641000000000000000e+03 5.593236923217773438e+01 1.251307296752929688e+01 -5.382381379604339600e-02 2.433479785919189453e+00 7.138968110084533691e-01 4.781262576580047607e-01
7.642000000000000000e+03 5.512926483154296875e+01 1.300103950500488281e+01 -6.956341117620468140e-02 2.173563480377197266e+00 6.312000751495361328e-01 4.215273559093475342e-01
7.643000000000000000e+03 5.070991134643554688e+01 9.265789985656738281e-01 2.039105445146560669e-01 1.709469437599182129e+00 5.740140080451965332e-01 3.256848156452178955e-01
7.644000000000000000e+03 5.546593856811523438e+01 8.098484992980957031e+00 4.302234575152397156e-02 2.547208070755004883e+00 7.770691514015197754e-01 4.715845286846160889e-01
7.645000000000000000e+03 5.436042785644531250e+01 6.838596820831298828e+00 7.040427625179290771e-02 2.322592973709106445e+00 7.178992033004760742e-01 4.331941008567810059e-01
7.646000000000000000e+03 5.387244796752929688e+01 6.248725891113281250e+00 7.870720326900482178e-02 2.236827611923217773e+00 6.946604251861572266e-01 4.173285961151123047e-01
7.647000000000000000e+03 5.700310134887695312e+01 1.643120765686035156e+01 -1.184118390083312988e-01 2.466465234756469727e+00 7.044160366058349609e-01 5.344295501708984375e-01
7.648000000000000000e+03 5.029906082153320312e+01 1.815549373626708984e+00 1.766440272331237793e-01 1.585562825202941895e+00 5.286620259284973145e-01 3.076978325843811035e-01
7.649000000000000000e+03 4.928554153442382812e+01 2.372884988784790039e+00 1.551318913698196411e-01 1.375332355499267578e+00 4.591392576694488525e-01 2.743141949176788330e-01
7.650000000000000000e+03 4.724376678466796875e+01 4.137560844421386719e+00 4.695915803313255310e-02 9.231859445571899414e-01 2.910435199737548828e-01 1.653471291065216064e-01
7.651000000000000000e+03 4.304944229125976562e+01 3.359071254730224609e+00 -4.367031157016754150e-02 2.774929106235504150e-01 7.014678418636322021e-02 2.893702127039432526e-02
7.652000000000000000e+03 5.637322998046875000e+01 1.850759124755859375e+01 -1.563717275857925415e-01 2.080143451690673828e+00 5.771315693855285645e-01 4.510795176029205322e-01
7.653000000000000000e+03 5.559103393554687500e+01 1.609663963317871094e+01 -1.278288960456848145e-01 2.052234172821044922e+00 5.773215889930725098e-01 4.106646776199340820e-01
7.654000000000000000e+03 5.494992828369140625e+01 1.144962596893310547e+01 -3.702306374907493591e-02 2.231735229492187500e+00 6.584136486053466797e-01 4.300464987754821777e-01
7.655000000000000000e+03 5.484883117675781250e+01 1.225097465515136719e+01 -5.517971888184547424e-02 2.143850803375244141e+00 6.266013383865356445e-01 4.130806326866149902e-01
7.656000000000000000e+03 4.851387786865234375e+01 1.382166385650634766e+00 1.856684684753417969e-01 1.261834263801574707e+00 4.342508018016815186e-01 2.547746598720550537e-01
7.657000000000000000e+03 4.711115264892578125e+01 3.365054130554199219e+00 8.102083951234817505e-02 9.317013621330261230e-01 3.038166463375091553e-01 1.752784550189971924e-01
7.658000000000000000e+03 4.509373474121093750e+01 6.957605361938476562e+00 -1.604194045066833496e-01 4.225231111049652100e-01 7.863111048936843872e-02 -3.873867541551589966e-02
7.659000000000000000e+03 5.507287216186523438e+01 1.048643970489501953e+01 -1.563586853444576263e-02 2.324939489364624023e+00 6.927911043167114258e-01 4.417205452919006348e-01
7.660000000000000000e+03 5.596558380126953125e+01 9.178096771240234375e+00 1.775832660496234894e-02 2.619996309280395508e+00 7.913264036178588867e-01 4.909650385379791260e-01
7.661000000000000000e+03 5.293408966064453125e+01 4.449022293090820312e+00 1.191675513982772827e-01 2.070839405059814453e+00 6.570020914077758789e-01 3.826689124107360840e-01
7.662000000000000000e+03 5.261397171020507812e+01 1.699022102355957031e+01 -2.343902140855789185e-01 1.160869002342224121e+00 2.779436409473419189e-01 1.100024282932281494e-01
7.663000000000000000e+03 5.542278289794921875e+01 1.761543273925781250e+01 -1.630957722663879395e-01 1.875936985015869141e+00 5.138523578643798828e-01 3.673401474952697754e-01
7.664000000000000000e+03 5.295993423461914062e+01 7.906627655029296875e+00 3.064734488725662231e-02 1.924325227737426758e+00 5.864917635917663574e-01 3.630055785179138184e-01
7.665000000000000000e+03 5.114585494995117188e+01 1.523179054260253906e+01 -2.324048280715942383e-01 9.746788144111633301e-01 2.226822078227996826e-01 4.457171633839607239e-02
7.666000000000000000e+03 4.750726318359375000e+01 9.486298561096191406e+00 -1.695939004421234131e-01 6.735394001007080078e-01 1.511836498975753784e-01 -7.988142780959606171e-03
7.667000000000000000e+03 5.059469604492187500e+01 1.318604183197021484e+01 -1.823135018348693848e-01 1.033460378646850586e+00 2.553440630435943604e-01 7.614819705486297607e-02
7.668000000000000000e+03 5.062553024291992188e+01 1.533452129364013672e+01 -2.603805959224700928e-01 8.368520736694335938e-01 1.729414463043212891e-01 -7.592577952891588211e-03
7.669000000000000000e+03 5.092100524902343750e+01 1.277740383148193359e+01 -1.533382982015609741e-01 1.139175057411193848e+00 2.957510352134704590e-01 1.175798103213310242e-01
7.670000000000000000e+03 4.750981140136718750e+01 7.571301937103271484e+00 -9.122907370328903198e-02 7.948101162910461426e-01 2.110743075609207153e-01 7.341814041137695312e-02
7.671000000000000000e+03 4.512747192382812500e+01 4.078724384307861328e+00 -7.609618362039327621e-03 5.561379194259643555e-01 1.645584851503372192e-01 7.774001359939575195e-02
7.672000000000000000e+03 4.331856918334960938e+01 4.565998077392578125e+00 -1.160403266549110413e-01 2.534539997577667236e-01 4.122410342097282410e-02 -1.424853969365358353e-02
7.673000000000000000e+03 4.630511093139648438e+01 1.061363410949707031e+01 -2.724157273769378662e-01 3.806283771991729736e-01 3.246379643678665161e-02 -1.457978636026382446e-01
7.674000000000000000e+03 5.440950012207031250e+01 1.883335304260253906e+01 -2.188078761100769043e-01 1.451995611190795898e+00 3.699563145637512207e-01 2.298382967710494995e-01
7.675000000000000000e+03 4.355297470092773438e+01 5.154330730438232422e+00 -1.416943073272705078e-01 2.536563277244567871e-01 3.358861058950424194e-02 -3.446840494871139526e-02
7.676000000000000000e+03 5.552787399291992188e+01 1.916578102111816406e+01 -1.927197128534317017e-01 1.724987149238586426e+00 4.596802294254302979e-01 3.407169580459594727e-01
7.677000000000000000e+03 4.455919647216796875e+01 6.859598636627197266e+00 -1.813106834888458252e-01 3.371533751487731934e-01 4.675281047821044922e-02 -6.662734597921371460e-02
7.678000000000000000e+03 4.442209243774414062e+01 5.666028022766113281e+00 -1.266931146383285522e-01 3.742346465587615967e-01 7.426246255636215210e-02 -1.946029812097549438e-02
7.679000000000000000e+03 5.421961593627929688e+01 8.018938064575195312e+00 3.873712569475173950e-02 2.226906061172485352e+00 6.796929836273193359e-01 4.181508421897888184e-01
7.680000000000000000e+03 5.318181610107421875e+01 1.846587181091308594e+01 -2.601490318775177002e-01 1.157067298889160156e+00 2.690754532814025879e-01 1.093176901340484619e-01
7.681000000000000000e+03 5.464373779296875000e+01 1.558998775482177734e+01 -1.351389586925506592e-01 1.829650640487670898e+00 5.083535313606262207e-01 3.435772955417633057e-01
7.682000000000000000e+03 4.865433883666992188e+01 3.921830892562866211e+00 8.136140555143356323e-02 1.188073158264160156e+00 3.808303475379943848e-01 2.268762439489364624e-01
7.683000000000000000e+03 4.851195144653320312e+01 2.323461055755615234e+00 1.386272907257080078e-01 1.220611572265625000e+00 4.077716469764709473e-01 2.449629455804824829e-01
7.684000000000000000e+03 5.395532226562500000e+01 1.495311546325683594e+01 -1.339940577745437622e-01 1.709644317626953125e+00 4.726950526237487793e-01 3.008027374744415283e-01
7.685000000000000000e+03 5.605988693237304688e+01 1.468288421630859375e+01 -9.546661376953125000e-02 2.322324275970458984e+00 6.680572628974914551e-01 4.779811203479766846e-01
7.686000000000000000e+03 5.367320632934570312e+01 7.355309009552001953e+00 5.032823234796524048e-02 2.115470647811889648e+00 6.497396230697631836e-01 3.947963714599609375e-01
7.687000000000000000e+03 4.591195297241210938e+01 9.418730735778808594e+00 -2.400108575820922852e-01 3.945695757865905762e-01 4.636761546134948730e-02 -1.093959212303161621e-01
7.688000000000000000e+03 5.628236007690429688e+01 1.403155708312988281e+01 -8.326582610607147217e-02 2.437075614929199219e+00 7.061429619789123535e-01 5.000273585319519043e-01
7.689000000000000000e+03 5.018585586547851562e+01 1.537370014190673828e+01 -2.789699137210845947e-01 7.394387125968933105e-01 1.381406486034393311e-01 -5.325729027390480042e-02
7.690000000000000000e+03 4.613499832153320312e+01 7.111865043640136719e+00 -1.291876733303070068e-01 5.758349895477294922e-01 1.339941918849945068e-01 7.087583187967538834e-03
7.691000000000000000e+03 5.493644332885742188e+01 1.874757003784179688e+01 -1.991928517818450928e-01 1.606438398361206055e+00 4.221736490726470947e-01 2.872930467128753662e-01
7.692000000000000000e+03 5.725070953369140625e+01 1.738891220092773438e+01 -1.238097846508026123e-01 2.470268249511718750e+00 7.039375305175781250e-01 5.507553219795227051e-01
7.693000000000000000e+03 5.416445922851562500e+01 1.327272796630859375e+01 -9.047651290893554688e-02 1.894973039627075195e+00 5.413489341735839844e-01 3.480482697486877441e-01
7.694000000000000000e+03 5.475783157348632812e+01 3.726356744766235352e+00 1.380508691072463989e-01 2.530602931976318359e+00 8.005961775779724121e-01 4.547872543334960938e-01
7.695000000000000000e+03 5.364768600463867188e+01 5.097560882568359375e+00 1.079837158322334290e-01 2.212156534194946289e+00 6.960420608520507812e-01 4.087834358215332031e-01
7.696000000000000000e+03 4.991550064086914062e+01 4.811090469360351562e+00 8.048238605260848999e-02 1.392461895942687988e+00 4.418832659721374512e-01 2.626820504665374756e-01
7.697000000000000000e+03 5.173865127563476562e+01 1.518615627288818359e+01 -2.072313278913497925e-01 1.126732826232910156e+00 2.758504450321197510e-01 9.532709419727325439e-02
7.698000000000000000e+03 4.651119613647460938e+01 4.207633495330810547e+00 2.476246096193790436e-02 7.850905656814575195e-01 2.429559081792831421e-01 1.271217167377471924e-01
7.699000000000000000e+03 5.685972213745117188e+01 1.799737930297851562e+01 -1.388384997844696045e-01 2.285317659378051758e+00 6.439437270164489746e-01 5.072017312049865723e-01
7.700000000000000000e+03 4.854895782470703125e+01 3.157674312591552734e+00 1.154412180185317993e-01 1.200076341629028320e+00 3.946552574634552002e-01 2.332915514707565308e-01
7.701000000000000000e+03 4.797001647949218750e+01 4.047359943389892578e+00 7.228768616914749146e-02 1.061338782310485840e+00 3.400879502296447754e-01 1.947516351938247681e-01
7.702000000000000000e+03 5.459173965454101562e+01 9.841634750366210938e+00 -4.354360047727823257e-03 2.224150419235229492e+00 6.659387946128845215e-01 4.192007780075073242e-01
7.703000000000000000e+03 4.968091583251953125e+01 1.218854808807373047e+01 -1.890238970518112183e-01 9.068167805671691895e-01 2.153378725051879883e-01 3.816571086645126343e-02
7.704000000000000000e+03 4.426429748535156250e+01 4.916725635528564453e+00 -8.476609736680984497e-02 3.895741105079650879e-01 9.144240617752075195e-02 8.705998770892620087e-03
7.705000000000000000e+03 4.387513732910156250e+01 4.219336032867431641e+00 -6.722109764814376831e-02 3.565497994422912598e-01 8.679861575365066528e-02 2.606178075075149536e-02
7.706000000000000000e+03 4.999762725830078125e+01 2.547290086746215820e+00 1.497525423765182495e-01 1.511840224266052246e+00 4.984778463840484619e-01 2.933843135833740234e-01
7.707000000000000000e+03 5.462420272827148438e+01 1.688403511047363281e+01 -1.678511649370193481e-01 1.715500235557556152e+00 4.642947316169738770e-01 3.121272921562194824e-01
7.708000000000000000e+03 5.105414199829101562e+01 2.341676473617553711e+00 1.633079200983047485e-01 1.744906067848205566e+00 5.724641680717468262e-01 3.283337354660034180e-01
7.709000000000000000e+03 5.359011077880859375e+01 3.756318330764770508e+00 1.430547982454299927e-01 2.256634950637817383e+00 7.199069261550903320e-01 4.071097373962402344e-01
7.710000000000000000e+03 5.449683380126953125e+01 1.089330863952636719e+01 -2.465789206326007843e-02 2.145437955856323242e+00 6.362340450286865234e-01 4.054102599620819092e-01
7.711000000000000000e+03 4.907793045043945312e+01 1.193129920959472656e+01 -1.982331573963165283e-01 8.159568905830383301e-01 1.853171139955520630e-01 7.727271411567926407e-03
7.712000000000000000e+03 5.423387908935546875e+01 4.396209239959716797e+00 1.198121234774589539e-01 2.387901782989501953e+00 7.523142099380493164e-01 4.323008060455322266e-01
7.713000000000000000e+03 5.479460906982421875e+01 1.754812049865722656e+01 -1.752851009368896484e-01 1.701869726181030273e+00 4.579753875732421875e-01 3.139923214912414551e-01
7.714000000000000000e+03 5.361821746826171875e+01 1.780298423767089844e+01 -2.229006886482238770e-01 1.343385815620422363e+00 3.361455202102661133e-01 1.831597983837127686e-01
7.715000000000000000e+03 5.315769195556640625e+01 1.676627349853515625e+01 -2.019647210836410522e-01 1.336933374404907227e+00 3.404906094074249268e-01 1.680679917335510254e-01
7.716000000000000000e+03 5.521873855590820312e+01 1.497532939910888672e+01 -1.120669692754745483e-01 2.054718732833862305e+00 5.827955603599548340e-01 4.020862281322479248e-01
7.717000000000000000e+03 5.609065628051757812e+01 1.569814968109130859e+01 -1.113821640610694885e-01 2.260689258575439453e+00 6.447921395301818848e-01 4.597840905189514160e-01
7.718000000000000000e+03 5.558909225463867188e+01 1.381099700927734375e+01 -8.414877206087112427e-02 2.243658542633056641e+00 6.478529572486877441e-01 4.499545097351074219e-01
7.719000000000000000e+03 5.398864364624023438e+01 1.704495239257812500e+01 -1.882639676332473755e-01 1.522984623908996582e+00 4.004161953926086426e-01 2.521284520626068115e-01
7.720000000000000000e+03 5.308450317382812500e+01 1.487025356292724609e+01 -1.585759222507476807e-01 1.473515748977661133e+00 3.944819569587707520e-01 2.260868251323699951e-01
7.721000000000000000e+03 5.429956054687500000e+01 1.825606346130371094e+01 -2.071523517370223999e-01 1.488457679748535156e+00 3.843915760517120361e-01 2.353347688913345337e-01
7.722000000000000000e+03 5.051354980468750000e+01 1.238834953308105469e+01 -1.635389178991317749e-01 1.066589474678039551e+00 2.709151506423950195e-01 8.795433491468429565e-02
7.723000000000000000e+03 4.776868820190429688e+01 1.114607429504394531e+01 -2.364891916513442993e-01 6.021082401275634766e-01 1.096857190132141113e-01 -6.649656593799591064e-02
7.724000000000000000e+03 4.780205535888671875e+01 1.053422164916992188e+01 -1.963821053504943848e-01 6.581284999847412109e-01 1.385239064693450928e-01 -3.365036845207214355e-02
7.725000000000000000e+03 5.247095108032226562e+01 1.465152263641357422e+01 -1.613344550132751465e-01 1.357873320579528809e+00 3.589616715908050537e-01 1.828063130378723145e-01
7.726000000000000000e+03 5.547409057617187500e+01 1.869429588317871094e+01 -1.771484762430191040e-01 1.778354167938232422e+00 4.803617000579833984e-01 3.479079008102416992e-01
7.727000000000000000e+03 5.543212890625000000e+01 1.817245864868164062e+01 -1.740239113569259644e-01 1.811212658882141113e+00 4.911566078662872314e-01 3.542759418487548828e-01
7.728000000000000000e+03 4.620217514038085938e+01 8.603850364685058594e+00 -1.914949566125869751e-01 5.030443668365478516e-01 9.346482902765274048e-02 -5.184579268097877502e-02
7.729000000000000000e+03 4.703226089477539062e+01 1.052249813079833984e+01 -2.335741519927978516e-01 5.176516175270080566e-01 8.522323518991470337e-02 -8.819139003753662109e-02
7.730000000000000000e+03 4.595339965820312500e+01 6.379267692565917969e+00 -9.602402895689010620e-02 5.851095318794250488e-01 1.467256397008895874e-01 2.684131078422069550e-02
7.731000000000000000e+03 4.513512802124023438e+01 5.626382350921630859e+00 -9.047545492649078369e-02 4.911671876907348633e-01 1.202075183391571045e-01 1.898588053882122040e-02
7.732000000000000000e+03 5.233221817016601562e+01 1.523949813842773438e+01 -1.928596496582031250e-01 1.268891453742980957e+00 3.228095471858978271e-01 1.517095118761062622e-01
7.733000000000000000e+03 5.181171035766601562e+01 1.458603096008300781e+01 -1.879495233297348022e-01 1.194141983985900879e+00 3.018577396869659424e-01 1.239236220717430115e-01
7.734000000000000000e+03 5.666249847412109375e+01 1.699480438232421875e+01 -1.315529942512512207e-01 2.307395219802856445e+00 6.527526974678039551e-01 5.054056048393249512e-01
7.735000000000000000e+03 5.538182449340820312e+01 1.441084003448486328e+01 -9.976954013109207153e-02 2.138156414031982422e+00 6.115160584449768066e-01 4.264717698097229004e-01
7.736000000000000000e+03 5.256949996948242188e+01 1.258727359771728516e+01 -1.072124540805816650e-01 1.540225028991699219e+00 4.299037456512451172e-01 2.420513033866882324e-01
7.737000000000000000e+03 4.663665771484375000e+01 5.619564533233642578e+00 -3.296821936964988708e-02 7.459289431571960449e-01 2.138882130384445190e-01 9.615399688482284546e-02
7.738000000000000000e+03 5.569728851318359375e+01 1.707612609863281250e+01 -1.459043771028518677e-01 2.005221128463745117e+00 5.577950477600097656e-01 4.029965400695800781e-01
7.739000000000000000e+03 5.397232437133789062e+01 1.031403732299804688e+01 -2.193063311278820038e-02 2.038055658340454102e+00 6.048375368118286133e-01 3.841721415519714355e-01
7.740000000000000000e+03 4.866493606567382812e+01 1.025120639801025391e+01 -1.470571011304855347e-01 8.574289679527282715e-01 2.131115645170211792e-01 4.495096951723098755e-02
7.741000000000000000e+03 5.329888153076171875e+01 6.643654823303222656e+00 6.363981217145919800e-02 2.052190780639648438e+00 6.347491741180419922e-01 3.827374875545501709e-01
7.742000000000000000e+03 5.295670700073242188e+01 1.318498897552490234e+01 -1.211904808878898621e-01 1.584605693817138672e+00 4.390245378017425537e-01 2.588074505329132080e-01
7.743000000000000000e+03 5.397481155395507812e+01 1.134072303771972656e+01 -4.417470842599868774e-02 1.981587529182434082e+00 5.812238454818725586e-01 3.705687522888183594e-01
7.744000000000000000e+03 4.531525421142578125e+01 9.598139762878417969e+00 -2.842313051223754883e-01 2.804305255413055420e-01 -1.140233362093567848e-03 -1.629849672317504883e-01
7.745000000000000000e+03 5.573926162719726562e+01 1.522559452056884766e+01 -1.096284762024879456e-01 2.195603132247924805e+00 6.257923841476440430e-01 4.511010944843292236e-01
7.746000000000000000e+03 5.261703872680664062e+01 6.719392776489257812e+00 6.321953237056732178e-02 1.917749524116516113e+00 5.942907333374023438e-01 3.638710379600524902e-01
7.747000000000000000e+03 4.845160293579101562e+01 1.122650814056396484e+01 -2.082876712083816528e-01 7.249732613563537598e-01 1.550056785345077515e-01 -1.701012998819351196e-02
7.748000000000000000e+03 5.170908355712890625e+01 2.983197450637817383e+00 1.485664397478103638e-01 1.861912727355957031e+00 6.031437516212463379e-01 3.500640690326690674e-01
7.749000000000000000e+03 5.106612396240234375e+01 3.609971046447753906e+00 1.304174065589904785e-01 1.694731712341308594e+00 5.475447177886962891e-01 3.189731538295745850e-01
7.750000000000000000e+03 5.340750122070312500e+01 9.722354888916015625e+00 -1.367529947310686111e-02 1.934113502502441406e+00 5.761314630508422852e-01 3.556236326694488525e-01
7.751000000000000000e+03 5.342735671997070312e+01 1.081799793243408203e+01 -3.846754506230354309e-02 1.870509028434753418e+00 5.496124625205993652e-01 3.435443937778472900e-01
7.752000000000000000e+03 5.407797622680664062e+01 9.195857048034667969e+00 9.010526351630687714e-03 2.129109382629394531e+00 6.414359807968139648e-01 4.021700322628021240e-01
7.753000000000000000e+03 5.417766571044921875e+01 1.766046524047851562e+01 -1.994116157293319702e-01 1.509863615036010742e+00 3.931356072425842285e-01 2.427259236574172974e-01
7.754000000000000000e+03 5.342663192749023438e+01 1.726808738708496094e+01 -2.212381660938262939e-01 1.339007735252380371e+00 3.353308737277984619e-01 1.770794689655303955e-01
7.755000000000000000e+03 5.367552947998046875e+01 1.653285789489746094e+01 -1.753840148448944092e-01 1.503910183906555176e+00 3.985578417778015137e-01 2.346579134464263916e-01
7.756000000000000000e+03 4.642661285400390625e+01 7.769637107849121094e+00 -1.413662731647491455e-01 5.914596319198608398e-01 1.350280046463012695e-01 -1.876496709883213043e-03
7.757000000000000000e+03 4.685343933105468750e+01 9.829595565795898438e+00 -2.123242318630218506e-01 5.386357903480529785e-01 9.789346158504486084e-02 -6.747487932443618774e-02
7.758000000000000000e+03 5.352731704711914062e+01 8.558238029479980469e+00 2.168605849146842957e-02 2.030879020690917969e+00 6.157695055007934570e-01 3.781662285327911377e-01
7.759000000000000000e+03 4.614781951904296875e+01 1.001795864105224609e+01 -2.571513950824737549e-01 3.940394818782806396e-01 4.106642305850982666e-02 -1.235532909631729126e-01
7.760000000000000000e+03 5.322505950927734375e+01 1.563737678527832031e+01 -1.785329729318618774e-01 1.457672238349914551e+00 3.837417662143707275e-01 2.153223305940628052e-01
7.761000000000000000e+03 5.457809066772460938e+01 1.488869476318359375e+01 -1.241613477468490601e-01 1.881213784217834473e+00 5.271157622337341309e-01 3.468052744865417480e-01
7.762000000000000000e+03 5.320016098022460938e+01 1.385811614990234375e+01 -1.231221556663513184e-01 1.591762423515319824e+00 4.405921101570129395e-01 2.620184719562530518e-01
7.763000000000000000e+03 5.141894149780273438e+01 1.315315532684326172e+01 -1.524652987718582153e-01 1.226489305496215820e+00 3.222072124481201172e-01 1.473261713981628418e-01
7.764000000000000000e+03 5.591709899902343750e+01 1.797889137268066406e+01 -1.593884825706481934e-01 2.001505851745605469e+00 5.526351928710937500e-01 4.118214845657348633e-01
7.765000000000000000e+03 5.485655593872070312e+01 1.818219947814941406e+01 -1.863058805465698242e-01 1.643221139907836914e+00 4.370745718479156494e-01 3.000010848045349121e-01
7.766000000000000000e+03 5.106739807128906250e+01 1.227040672302246094e+01 -1.440105289220809937e-01 1.221128702163696289e+00 3.231354355812072754e-01 1.468665003776550293e-01
7.767000000000000000e+03 5.352177810668945312e+01 1.180784034729003906e+01 -6.535897403955459595e-02 1.830959320068359375e+00 5.296800732612609863e-01 3.350047171115875244e-01
7.768000000000000000e+03 4.588257598876953125e+01 8.012813568115234375e+00 -1.775260865688323975e-01 4.888921380043029785e-01 9.340982139110565186e-02 -4.455106332898139954e-02
7.769000000000000000e+03 4.615370559692382812e+01 1.116523742675781250e+01 -3.104433119297027588e-01 3.105013370513916016e-01 1.740585867082700133e-05 -1.902373433113098145e-01
7.770000000000000000e+03 5.525833892822265625e+01 1.553785324096679688e+01 -1.308777481317520142e-01 2.004590749740600586e+00 5.621138811111450195e-01 3.927581906318664551e-01
7.771000000000000000e+03 5.402563858032226562e+01 1.552566432952880859e+01 -1.442941725254058838e-01 1.686865687370300293e+00 4.627714753150939941e-01 2.915794849395751953e-01
7.772000000000000000e+03 5.465220260620117188e+01 1.420746612548828125e+01 -1.070275530219078064e-01 1.960895657539367676e+00 5.561604499816894531e-01 3.646028339862823486e-01
7.773000000000000000e+03 5.488438034057617188e+01 1.358148860931396484e+01 -8.723144978284835815e-02 2.069614648818969727e+00 5.947149395942687988e-01 3.943749368190765381e-01
7.774000000000000000e+03 4.734661102294921875e+01 4.888554573059082031e+00 1.903034932911396027e-02 9.042271971702575684e-01 2.769772708415985107e-01 1.481408327817916870e-01
7.775000000000000000e+03 4.587675857543945312e+01 5.631436347961425781e+00 -6.676179915666580200e-02 6.134357452392578125e-01 1.640021800994873047e-01 5.434216931462287903e-02
7.776000000000000000e+03 5.400071716308593750e+01 1.229614830017089844e+01 -7.109931856393814087e-02 1.928800821304321289e+00 5.573104619979858398e-01 3.585821688175201416e-01
7.777000000000000000e+03 5.327009963989257812e+01 5.866852760314941406e+00 8.483893424272537231e-02 2.090025424957275391e+00 6.524593234062194824e-01 3.873076438903808594e-01
7.778000000000000000e+03 4.818507385253906250e+01 5.620162963867187500e+00 1.529646664857864380e-02 1.036377072334289551e+00 3.155020773410797119e-01 1.707607954740524292e-01
7.779000000000000000e+03 5.054670715332031250e+01 2.975498437881469727e+00 1.393378376960754395e-01 1.606558680534362793e+00 5.237689614295959473e-01 3.087974786758422852e-01
7.780000000000000000e+03 4.993856430053710938e+01 3.204205036163330078e+00 1.314235627651214600e-01 1.475916385650634766e+00 4.822019934654235840e-01 2.896735966205596924e-01
7.781000000000000000e+03 4.652482604980468750e+01 9.196614265441894531e+00 -2.041139006614685059e-01 5.250537991523742676e-01 9.628196060657501221e-02 -5.569530278444290161e-02
7.782000000000000000e+03 5.023079299926757812e+01 1.184415054321289062e+01 -1.569205820560455322e-01 1.035617113113403320e+00 2.636089622974395752e-01 8.609656244516372681e-02
7.783000000000000000e+03 5.215997695922851562e+01 9.676868438720703125e+00 -3.396186232566833496e-02 1.631654143333435059e+00 4.793077111244201660e-01 2.860609889030456543e-01
7.784000000000000000e+03 5.276753616333007812e+01 1.029202079772949219e+01 -3.588093072175979614e-02 1.735960364341735840e+00 5.100238323211669922e-01 3.090097010135650635e-01
7.785000000000000000e+03 5.162517166137695312e+01 9.005393028259277344e+00 -2.652243711054325104e-02 1.548661589622497559e+00 4.566417336463928223e-01 2.646892070770263672e-01
7.786000000000000000e+03 5.145602416992187500e+01 5.472288608551025391e+00 7.603916525840759277e-02 1.688480973243713379e+00 5.293560624122619629e-01 3.187038004398345947e-01
7.787000000000000000e+03 5.157986068725585938e+01 1.154690742492675781e+01 -1.011504679918289185e-01 1.387430906295776367e+00 3.858841359615325928e-01 2.068408876657485962e-01
7.788000000000000000e+03 5.250712585449218750e+01 5.884130001068115234e+00 8.110518008470535278e-02 1.934668779373168945e+00 6.047322154045104980e-01 3.603039681911468506e-01
7.789000000000000000e+03 5.165429306030273438e+01 4.284010410308837891e+00 1.158679723739624023e-01 1.795159220695495605e+00 5.733081698417663574e-01 3.396281301975250244e-01
7.790000000000000000e+03 5.514507293701171875e+01 1.657160377502441406e+01 -1.453022956848144531e-01 1.893796205520629883e+00 5.245481729507446289e-01 3.711059391498565674e-01
7.791000000000000000e+03 4.681135559082031250e+01 6.981182098388671875e+00 -8.877988904714584351e-02 7.020739316940307617e-01 1.839882135391235352e-01 5.008789896965026855e-02
7.792000000000000000e+03 4.803594589233398438e+01 9.058848381042480469e+00 -1.267335265874862671e-01 8.110232949256896973e-01 2.052869200706481934e-01 4.921020939946174622e-02
7.793000000000000000e+03 4.747484588623046875e+01 6.948020458221435547e+00 -6.347826123237609863e-02 8.301337957382202148e-01 2.299966663122177124e-01 9.439006447792053223e-02
7.794000000000000000e+03 5.228242492675781250e+01 8.488425254821777344e+00 1.527712214738130569e-03 1.726069569587707520e+00 5.182791948318481445e-01 3.157911896705627441e-01
7.795000000000000000e+03 5.343006515502929688e+01 1.608957672119140625e+01 -1.787957847118377686e-01 1.476472020149230957e+00 3.893028795719146729e-01 2.158254086971282959e-01
7.796000000000000000e+03 5.457507324218750000e+01 1.624941825866699219e+01 -1.502827554941177368e-01 1.765878677368164062e+00 4.846788048744201660e-01 3.239440917968750000e-01
7.797000000000000000e+03 4.922451019287109375e+01 1.124637317657470703e+01 -1.708830446004867554e-01 8.960994482040405273e-01 2.175649255514144897e-01 4.468052089214324951e-02
7.798000000000000000e+03 4.961198806762695312e+01 1.022351646423339844e+01 -1.208776310086250305e-01 1.037297368049621582e+00 2.749259173870086670e-01 1.033279821276664734e-01
7.799000000000000000e+03 4.847563934326171875e+01 1.069311618804931641e+01 -1.728923916816711426e-01 7.773627042770385742e-01 1.813410967588424683e-01 1.077781617641448975e-02
7.800000000000000000e+03 5.353694915771484375e+01 1.443323612213134766e+01 -1.307689845561981201e-01 1.636309623718261719e+00 4.516622126102447510e-01 2.815776169300079346e-01
7.801000000000000000e+03 4.674983215332031250e+01 8.347812652587890625e+00 -1.576105803251266479e-01 6.139789223670959473e-01 1.369104981422424316e-01 -5.968567915260791779e-03
7.802000000000000000e+03 4.908277511596679688e+01 1.063374423980712891e+01 -1.464432328939437866e-01 9.132050275802612305e-01 2.300285398960113525e-01 5.726633593440055847e-02
7.803000000000000000e+03 5.091495895385742188e+01 1.166148567199707031e+01 -1.180900037288665771e-01 1.248641014099121094e+00 3.391653001308441162e-01 1.551966071128845215e-01
7.804000000000000000e+03 5.169538497924804688e+01 1.221418571472167969e+01 -1.198663711547851562e-01 1.361956715583801270e+00 3.726271092891693115e-01 1.940689384937286377e-01
7.805000000000000000e+03 5.267065429687500000e+01 1.178817844390869141e+01 -8.822389692068099976e-02 1.627760767936706543e+00 4.618610739707946777e-01 2.637046873569488525e-01
7.806000000000000000e+03 4.927337265014648438e+01 3.797027826309204102e+00 1.017060503363609314e-01 1.309152722358703613e+00 4.232576191425323486e-01 2.534347176551818848e-01
7.807000000000000000e+03 5.104697418212890625e+01 6.467466354370117188e+00 3.485478460788726807e-02 1.554645895957946777e+00 4.768502116203308105e-01 2.827637791633605957e-01
7.808000000000000000e+03 5.629446029663085938e+01 1.751759719848632812e+01 -1.403128504753112793e-01 2.149005889892578125e+00 6.026079058647155762e-01 4.642867743968963623e-01
7.809000000000000000e+03 5.390784072875976562e+01 1.391629123687744141e+01 -1.151797175407409668e-01 1.785149574279785156e+00 5.009909272193908691e-01 3.186481297016143799e-01
7.810000000000000000e+03 4.670318984985351562e+01 6.314240932464599609e+00 -6.393508613109588623e-02 7.205506563186645508e-01 1.969846636056900024e-01 7.222170382738113403e-02
7.811000000000000000e+03 4.658140945434570312e+01 4.916825294494628906e+00 -2.629044698551297188e-03 7.647710442543029785e-01 2.286425977945327759e-01 1.126322746276855469e-01
7.812000000000000000e+03 5.065742111206054688e+01 1.000658798217773438e+01 -7.997080683708190918e-02 1.272899150848388672e+00 3.578784763813018799e-01 1.789544820785522461e-01
7.813000000000000000e+03 5.026948547363281250e+01 1.059817695617675781e+01 -1.173848584294319153e-01 1.144096255302429199e+00 3.080134391784667969e-01 1.363084018230438232e-01
7.814000000000000000e+03 5.284350967407226562e+01 9.113133430480957031e+00 -4.769585095345973969e-03 1.834312081336975098e+00 5.488627552986145020e-01 3.361783921718597412e-01
7.815000000000000000e+03 4.987606811523437500e+01 3.851495981216430664e+00 1.083992496132850647e-01 1.440745949745178223e+00 4.647435545921325684e-01 2.760015130043029785e-01
7.816000000000000000e+03 5.355163192749023438e+01 1.527906608581542969e+01 -1.524366736412048340e-01 1.563322067260742188e+00 4.232656061649322510e-01 2.588957250118255615e-01
7.817000000000000000e+03 4.992965698242187500e+01 6.881255149841308594e+00 8.820218034088611603e-03 1.310997486114501953e+00 3.959453105926513672e-01 2.204407900571823120e-01
7.818000000000000000e+03 4.740163803100585938e+01 5.607589244842529297e+00 -9.581080637872219086e-03 8.807048797607421875e-01 2.613371312618255615e-01 1.301158070564270020e-01
7.819000000000000000e+03 5.300135040283203125e+01 1.133061599731445312e+01 -5.982854589819908142e-02 1.739724040031433105e+00 5.039686560630798340e-01 3.052384257316589355e-01
7.820000000000000000e+03 5.219630813598632812e+01 5.037361145019531250e+00 1.006709411740303040e-01 1.891775250434875488e+00 5.977338552474975586e-01 3.566559553146362305e-01
7.821000000000000000e+03 5.175854873657226562e+01 6.172005653381347656e+00 6.402999907732009888e-02 1.730293989181518555e+00 5.382972359657287598e-01 3.211216032505035400e-01
7.822000000000000000e+03 5.237843704223632812e+01 7.371324062347412109e+00 3.718279674649238586e-02 1.826505422592163086e+00 5.591064691543579102e-01 3.386154770851135254e-01
7.823000000000000000e+03 5.197270202636718750e+01 6.848726272583007812e+00 4.873549938201904297e-02 1.754880428314208984e+00 5.410847663879394531e-01 3.159856796264648438e-01
7.824000000000000000e+03 4.805772781372070312e+01 9.953568458557128906e+00 -1.643138825893402100e-01 7.465041875839233398e-01 1.746571063995361328e-01 9.929356165230274200e-03
7.825000000000000000e+03 4.880216598510742188e+01 7.542813777923583984e+00 -4.294448718428611755e-02 1.038546562194824219e+00 2.986806035041809082e-01 1.488538831472396851e-01
7.826000000000000000e+03 5.002948760986328125e+01 1.121736240386962891e+01 -1.380151212215423584e-01 1.039944291114807129e+00 2.705787718296051025e-01 9.866467118263244629e-02
7.827000000000000000e+03 4.887739944458007812e+01 4.657099723815917969e+00 6.700823456048965454e-02 1.199644207954406738e+00 3.799957334995269775e-01 2.172839045524597168e-01
7.828000000000000000e+03 5.395102310180664062e+01 1.610203933715820312e+01 -1.623060554265975952e-01 1.612683653831481934e+00 4.351132810115814209e-01 2.738259732723236084e-01
7.829000000000000000e+03 5.140025329589843750e+01 1.007878971099853516e+01 -7.098159193992614746e-02 1.445564031600952148e+00 4.123747348785400391e-01 2.285107821226119995e-01
7.830000000000000000e+03 5.003013610839843750e+01 9.628026008605957031e+00 -8.767801523208618164e-02 1.154564857482910156e+00 3.200660645961761475e-01 1.499413549900054932e-01
7.831000000000000000e+03 5.046894073486328125e+01 4.235169887542724609e+00 1.045617535710334778e-01 1.543019771575927734e+00 4.942744672298431396e-01 2.942355275154113770e-01
7.832000000000000000e+03 5.172635650634765625e+01 7.866990089416503906e+00 1.575617119669914246e-02 1.643965721130371094e+00 4.979165792465209961e-01 2.921702563762664795e-01
7.833000000000000000e+03 5.101245498657226562e+01 8.362843513488769531e+00 -1.593502610921859741e-02 1.464225530624389648e+00 4.344871342182159424e-01 2.396468222141265869e-01
7.834000000000000000e+03 4.891044998168945312e+01 5.807847976684570312e+00 2.007350511848926544e-02 1.157490015029907227e+00 3.532690405845642090e-01 1.933830976486206055e-01
7.835000000000000000e+03 4.813820266723632812e+01 4.843659877777099609e+00 3.646309301257133484e-02 1.061167359352111816e+00 3.292891085147857666e-01 1.849751174449920654e-01
7.836000000000000000e+03 4.726777267456054688e+01 8.044874191284179688e+00 -1.206484660506248474e-01 7.244257330894470215e-01 1.811331808567047119e-01 3.402772173285484314e-02
7.837000000000000000e+03 4.813250350952148438e+01 6.970358371734619141e+00 -3.911045193672180176e-02 9.454071521759033203e-01 2.718890011310577393e-01 1.279017031192779541e-01
7.838000000000000000e+03 5.308327102661132812e+01 1.224682521820068359e+01 -8.868260681629180908e-02 1.683511734008789062e+00 4.784487485885620117e-01 2.876733541488647461e-01
7.839000000000000000e+03 5.354750061035156250e+01 1.279594135284423828e+01 -9.330759942531585693e-02 1.762983798980712891e+00 5.009028911590576172e-01 3.164980411529541016e-01
7.840000000000000000e+03 4.905005645751953125e+01 9.821660995483398438e+00 -1.329512000083923340e-01 9.464547634124755859e-01 2.440510690212249756e-01 7.659349590539932251e-02
7.841000000000000000e+03 4.947922134399414062e+01 4.330280303955078125e+00 8.804798126220703125e-02 1.340653419494628906e+00 4.286104440689086914e-01 2.540773153305053711e-01
7.842000000000000000e+03 5.040704345703125000e+01 6.344650745391845703e+00 3.715210780501365662e-02 1.431332230567932129e+00 4.405453205108642578e-01 2.541316747665405273e-01
7.843000000000000000e+03 5.234549713134765625e+01 1.093441772460937500e+01 -6.863860785961151123e-02 1.600947380065917969e+00 4.596926271915435791e-01 2.654251456260681152e-01
7.844000000000000000e+03 5.100397491455078125e+01 4.821510791778564453e+00 9.703285992145538330e-02 1.638860702514648438e+00 5.207680463790893555e-01 3.035092055797576904e-01
7.845000000000000000e+03 4.814321899414062500e+01 7.612766742706298828e+00 -7.292668521404266357e-02 9.108356237411499023e-01 2.513726949691772461e-01 1.007050648331642151e-01
7.846000000000000000e+03 4.743067932128906250e+01 6.295186042785644531e+00 -3.428858891129493713e-02 8.594134449958801270e-01 2.475374639034271240e-01 1.118030771613121033e-01
7.847000000000000000e+03 5.126008605957031250e+01 7.182314395904541016e+00 3.077861107885837555e-02 1.581233739852905273e+00 4.836037158966064453e-01 2.790241539478302002e-01
7.848000000000000000e+03 5.103985977172851562e+01 9.473361015319824219e+00 -4.823206737637519836e-02 1.423684716224670410e+00 4.126358032226562500e-01 2.187652140855789185e-01
7.849000000000000000e+03 5.219061279296875000e+01 1.154751968383789062e+01 -8.875726908445358276e-02 1.505803585052490234e+00 4.251138865947723389e-01 2.406212091445922852e-01
7.850000000000000000e+03 4.933185577392578125e+01 5.286454677581787109e+00 4.612897336483001709e-02 1.251954436302185059e+00 3.894250094890594482e-01 2.269462496042251587e-01
7.851000000000000000e+03 4.851520919799804688e+01 8.728325843811035156e+00 -1.071282401680946350e-01 9.083993434906005859e-01 2.403813302516937256e-01 8.479598164558410645e-02
7.852000000000000000e+03 5.083414840698242188e+01 5.865831851959228516e+00 6.102679669857025146e-02 1.551557421684265137e+00 4.837752580642700195e-01 2.764165699481964111e-01
7.853000000000000000e+03 5.043623352050781250e+01 8.972423553466796875e+00 -4.901837930083274841e-02 1.305240392684936523e+00 3.768666088581085205e-01 2.019055187702178955e-01
7.854000000000000000e+03 4.880748367309570312e+01 7.006605148315429688e+00 -2.061133645474910736e-02 1.079102873802185059e+00 3.175474405288696289e-01 1.647475957870483398e-01
7.855000000000000000e+03 4.813688278198242188e+01 6.327095031738281250e+00 -2.022003009915351868e-02 9.809445738792419434e-01 2.882173657417297363e-01 1.480862349271774292e-01
7.856000000000000000e+03 5.047393417358398438e+01 7.616707324981689453e+00 -2.953500021249055862e-03 1.385400414466857910e+00 4.147340953350067139e-01 2.326565831899642944e-01
7.857000000000000000e+03 4.887728500366210938e+01 9.060359001159667969e+00 -9.477072209119796753e-02 9.651473760604858398e-01 2.611129879951477051e-01 8.980788290500640869e-02
7.858000000000000000e+03 4.827758789062500000e+01 8.227233886718750000e+00 -9.654715657234191895e-02 8.958031535148620605e-01 2.397768050432205200e-01 9.139753878116607666e-02
7.859000000000000000e+03 5.040116500854492188e+01 5.332427501678466797e+00 6.246022880077362061e-02 1.478387355804443359e+00 4.622542560100555420e-01 2.737715840339660645e-01
7.860000000000000000e+03 4.941797256469726562e+01 6.273753166198730469e+00 1.128440164029598236e-02 1.236615300178527832e+00 3.743699193000793457e-01 2.109216153621673584e-01
7.861000000000000000e+03 4.969641494750976562e+01 7.957784175872802734e+00 -3.134084492921829224e-02 1.206998348236083984e+00 3.526972532272338867e-01 1.819077283143997192e-01
7.862000000000000000e+03 4.935588455200195312e+01 7.314879417419433594e+00 -1.976793818175792694e-02 1.177866697311401367e+00 3.474296331405639648e-01 1.822855174541473389e-01
7.863000000000000000e+03 4.883551025390625000e+01 6.419119834899902344e+00 -5.128216929733753204e-03 1.111227512359619141e+00 3.318297863006591797e-01 1.784445643424987793e-01
7.864000000000000000e+03 4.903799819946289062e+01 8.607691764831542969e+00 -7.925894856452941895e-02 1.021129965782165527e+00 2.825613021850585938e-01 1.204335242509841919e-01
7.865000000000000000e+03 4.988118362426757812e+01 5.822652816772460938e+00 4.255158081650733948e-02 1.335478186607360840e+00 4.134089350700378418e-01 2.440917342901229858e-01
7.866000000000000000e+03 4.895657730102539062e+01 8.082820892333984375e+00 -6.518306583166122437e-02 1.032619357109069824e+00 2.902309000492095947e-01 1.345825791358947754e-01
7.867000000000000000e+03 6.048783493041992188e+01 -2.922227096557617188e+01 1.248790845274925232e-01 4.190949916839599609e+00 1.294748663902282715e+00 3.437241017818450928e-01
7.868000000000000000e+03 1.288232612609863281e+01 3.454337692260742188e+01 -8.371602743864059448e-03 7.587371859699487686e-03 -2.352692536078393459e-04 -7.163647678680717945e-04
7.869000000000000000e+03 2.529263877868652344e+01 -3.538115692138671875e+01 4.655742347240447998e-01 2.991952002048492432e-01 2.294308394193649292e-01 -2.632851302623748779e-01
7.870000000000000000e+03 2.790629196166992188e+01 -3.587214660644531250e+01 5.319271683692932129e-01 4.615533351898193359e-01 2.980441451072692871e-01 -3.416004776954650879e-01
7.871000000000000000e+03 6.739942169189453125e+01 -3.118853950500488281e+01 9.402520209550857544e-02 5.426346778869628906e+00 1.656111598014831543e+00 2.390432953834533691e-01
7.872000000000000000e+03 7.226017761230468750e+01 -3.880867767333984375e+01 7.616801559925079346e-02 6.194839477539062500e+00 1.881302237510681152e+00 6.383014470338821411e-02
7.873000000000000000e+03 5.561270904541015625e+01 -3.059016227722167969e+01 1.365060806274414062e-01 3.366867542266845703e+00 1.051012158393859863e+00 3.711608350276947021e-01
7.874000000000000000e+03 5.321137237548828125e+01 -2.693562698364257812e+01 -5.523949395865201950e-03 2.897317409515380859e+00 8.675380349159240723e-01 2.834937274456024170e-01
7.875000000000000000e+03 1.484439659118652344e+01 -3.017395591735839844e+01 1.954895704984664917e-01 -4.483731091022491455e-01 -7.586506754159927368e-02 -2.603331804275512695e-01
7.876000000000000000e+03 1.600341987609863281e+01 -3.209483337402343750e+01 2.169164419174194336e-01 -3.425451815128326416e-01 -3.768862411379814148e-02 -2.304386347532272339e-01
7.877000000000000000e+03 1.861572837829589844e+01 -3.077576637268066406e+01 2.500423192977905273e-01 -1.400034725666046143e-01 3.301165252923965454e-02 -2.778450250625610352e-01
7.878000000000000000e+03 7.477966308593750000e+01 -3.656180572509765625e+01 1.966770365834236145e-02 6.578594684600830078e+00 1.979478716850280762e+00 6.576225906610488892e-02
7.879000000000000000e+03 6.128218460083007812e+01 -3.210626220703125000e+01 1.965394765138626099e-01 4.260357856750488281e+00 1.337069153785705566e+00 3.079923987388610840e-01
7.880000000000000000e+03 2.205222320556640625e+01 3.567834472656250000e+01 2.842114772647619247e-03 5.837089568376541138e-02 1.836390234529972076e-02 1.546045020222663879e-02
7.881000000000000000e+03 5.748572158813476562e+01 -2.739697265625000000e+01 5.653531476855278015e-02 3.664353132247924805e+00 1.116266608238220215e+00 3.405061960220336914e-01
7.882000000000000000e+03 1.184041690826416016e+01 -3.450641632080078125e+01 1.402267813682556152e-01 -6.752760410308837891e-01 -1.605147868394851685e-01 -1.520468443632125854e-01
7.883000000000000000e+03 8.040249824523925781e+00 4.128064346313476562e+01 -4.953764844685792923e-03 -3.891138732433319092e-02 -1.315954606980085373e-02 -8.133790106512606144e-04
7.884000000000000000e+03 5.353514862060546875e+01 -4.045146942138671875e+01 8.074600100517272949e-01 2.780217170715332031e+00 1.076303124427795410e+00 1.300849169492721558e-01
7.885000000000000000e+03 5.217979431152343750e+01 -3.608697891235351562e+01 5.273267030715942383e-01 2.737368822097778320e+00 9.794086813926696777e-01 3.840298354625701904e-01
7.886000000000000000e+03 1.835952568054199219e+01 -3.580234527587890625e+01 2.576514184474945068e-01 -2.207270115613937378e-01 1.107731927186250687e-02 -1.759140789508819580e-01
7.887000000000000000e+03 1.541111946105957031e+01 -3.679487228393554688e+01 2.062443494796752930e-01 -4.112939834594726562e-01 -6.151489168405532837e-02 -1.382972300052642822e-01
7.888000000000000000e+03 2.775149917602539062e+01 -3.848042678833007812e+01 6.081984639167785645e-01 3.595927357673645020e-01 2.903373539447784424e-01 -2.063919156789779663e-01
7.889000000000000000e+03 2.759109687805175781e+01 -4.115882492065429688e+01 6.217868924140930176e-01 3.277301788330078125e-01 2.848551273345947266e-01 -5.729059875011444092e-02
7.890000000000000000e+03 6.484888458251953125e+01 -3.740277099609375000e+01 2.368772923946380615e-01 4.841329574584960938e+00 1.523462057113647461e+00 1.492111980915069580e-01
7.891000000000000000e+03 2.625733566284179688e+01 3.819566345214843750e+01 1.451175194233655930e-02 6.483339518308639526e-02 2.380354329943656921e-02 1.394887734204530716e-02
7.892000000000000000e+03 8.565526008605957031e+00 3.892530822753906250e+01 -4.893044941127300262e-03 -3.231510519981384277e-02 -1.116244494915008545e-02 -2.650313079357147217e-03
7.893000000000000000e+03 1.486058807373046875e+01 3.656668472290039062e+01 -7.284339983016252518e-03 2.094142138957977295e-02 4.097124561667442322e-03 1.970570301637053490e-03
7.894000000000000000e+03 1.806673622131347656e+01 3.801806640625000000e+01 -4.744062665849924088e-03 3.791433945298194885e-02 9.951082989573478699e-03 4.760061390697956085e-03
7.895000000000000000e+03 6.392115783691406250e+01 -3.062587738037109375e+01 1.294140666723251343e-01 4.787790775299072266e+00 1.475161433219909668e+00 2.671446204185485840e-01
7.896000000000000000e+03 6.707723236083984375e+01 -3.478377151489257812e+01 1.427146047353744507e-01 5.315290927886962891e+00 1.637401700019836426e+00 1.940445601940155029e-01
7.897000000000000000e+03 2.077101135253906250e+01 -3.474460601806640625e+01 3.278098106384277344e-01 1.148310210555791855e-02 1.017878726124763489e-01 -2.153873145580291748e-01
7.898000000000000000e+03 5.541262054443359375e+01 -2.809774208068847656e+01 4.886683821678161621e-02 3.337142229080200195e+00 1.015802741050720215e+00 3.401010930538177490e-01
7.899000000000000000e+03 1.081889915466308594e+01 3.595323181152343750e+01 -6.944777909666299820e-03 -9.969670325517654419e-03 -5.074334330856800079e-03 -4.268169868737459183e-03
7.900000000000000000e+03 6.238854217529296875e+01 -3.511341857910156250e+01 2.574254274368286133e-01 4.453394412994384766e+00 1.413245916366577148e+00 2.202443927526473999e-01
7.901000000000000000e+03 1.425882339477539062e+01 -3.373875427246093750e+01 1.801234483718872070e-01 -4.972589910030364990e-01 -9.514065831899642944e-02 -1.886157691478729248e-01
7.902000000000000000e+03 5.800373077392578125e+01 -3.011345100402832031e+01 1.392848789691925049e-01 3.758094072341918945e+00 1.169213652610778809e+00 3.661610186100006104e-01
7.903000000000000000e+03 5.836533355712890625e+01 -3.312896347045898438e+01 2.521761953830718994e-01 3.800233364105224609e+00 1.215722918510437012e+00 3.592160642147064209e-01
7.904000000000000000e+03 4.692420196533203125e+01 3.653743743896484375e+01 1.157876253128051758e-01 4.420052841305732727e-02 4.799644649028778076e-02 6.367649137973785400e-02
7.905000000000000000e+03 4.488996887207031250e+01 3.534854125976562500e+01 7.839867472648620605e-02 4.662162065505981445e-02 3.750608861446380615e-02 5.168778076767921448e-02
7.906000000000000000e+03 4.078726577758789062e+01 3.165061187744140625e+01 5.750136822462081909e-02 4.552866145968437195e-02 3.090900927782058716e-02 5.499945580959320068e-02
7.907000000000000000e+03 1.324995613098144531e+01 2.172325611114501953e+00 1.272637248039245605e+00 1.731858611106872559e+00 9.013487696647644043e-01 -9.830937385559082031e-01
7.908000000000000000e+03 1.640789985656738281e+01 -2.896175861358642578e+00 -1.460264563560485840e+00 -9.860528111457824707e-01 -7.338951826095581055e-01 -1.022034406661987305e+00
7.909000000000000000e+03 1.717381095886230469e+01 -2.142077207565307617e+00 -1.939153075218200684e+00 -1.262238621711730957e+00 -9.604175090789794922e-01 -1.191192626953125000e+00
7.910000000000000000e+03 1.744423484802246094e+01 -2.208559751510620117e+00 -1.946571826934814453e+00 -1.253288507461547852e+00 -9.599580764770507812e-01 -1.296147108078002930e+00
7.911000000000000000e+03 1.776758003234863281e+01 -1.588214159011840820e+00 -2.164167404174804688e+00 -1.369500756263732910e+00 -1.060100436210632324e+00 -1.330654144287109375e+00
7.912000000000000000e+03 1.901787567138671875e+01 -6.414774060249328613e-01 -2.590388536453247070e+00 -2.315621614456176758e+00 -1.471803069114685059e+00 -1.652790784835815430e+00
7.913000000000000000e+03 2.062750625610351562e+01 1.759949028491973877e-01 -1.752431869506835938e+00 -2.054811000823974609e+00 -1.142172932624816895e+00 -3.345959663391113281e+00
7.914000000000000000e+03 2.056723976135253906e+01 3.112483024597167969e-01 -1.716512084007263184e+00 -2.200130701065063477e+00 -1.174992799758911133e+00 -3.682413101196289062e+00
7.915000000000000000e+03 2.072875785827636719e+01 4.005541205406188965e-01 -2.010878086090087891e+00 -2.078703403472900391e+00 -1.226874470710754395e+00 -3.381098270416259766e+00
7.916000000000000000e+03 2.126343154907226562e+01 6.802211403846740723e-01 -2.333473682403564453e+00 -8.356170058250427246e-01 -9.507271647453308105e-01 -3.168286323547363281e+00
7.917000000000000000e+03 2.142425727844238281e+01 7.737159132957458496e-01 -2.455080509185791016e+00 -9.748245477676391602e-01 -1.028971552848815918e+00 -2.775562763214111328e+00
7.918000000000000000e+03 2.161908149719238281e+01 8.338985443115234375e-01 -2.480180263519287109e+00 -7.264919281005859375e-01 -9.620016813278198242e-01 -2.779066324234008789e+00
7.919000000000000000e+03 2.216940307617187500e+01 1.195899248123168945e+00 -2.982439994812011719e+00 -6.551600098609924316e-01 -1.091279983520507812e+00 -2.217202663421630859e+00
7.920000000000000000e+03 2.256854820251464844e+01 1.205844044685363770e+00 -2.726873636245727539e+00 -3.606721162796020508e-01 -9.262636899948120117e-01 -1.904883027076721191e+00
7.921000000000000000e+03 2.356343841552734375e+01 1.975153803825378418e+00 -3.261928081512451172e+00 -5.627726316452026367e-01 -1.147410154342651367e+00 -1.548613429069519043e+00
7.922000000000000000e+03 2.345797348022460938e+01 2.103009700775146484e+00 -3.465413331985473633e+00 -7.244640588760375977e-01 -1.256963253021240234e+00 -1.715481996536254883e+00
7.923000000000000000e+03 2.360687637329101562e+01 2.182342052459716797e+00 -3.370317697525024414e+00 -6.256257891654968262e-01 -1.198783040046691895e+00 -1.692230463027954102e+00
7.924000000000000000e+03 2.405882835388183594e+01 1.646476626396179199e+00 -2.688978672027587891e+00 -1.721694320440292358e-01 -8.583444356918334961e-01 -1.154964327812194824e+00
7.925000000000000000e+03 2.424057006835937500e+01 2.079108715057373047e+00 -2.998551368713378906e+00 -4.045412242412567139e-01 -1.020927786827087402e+00 -1.292207837104797363e+00
7.926000000000000000e+03 2.504477882385253906e+01 3.002618551254272461e+00 -3.260390758514404297e+00 -7.535769939422607422e-01 -1.204190373420715332e+00 -1.510492920875549316e+00
7.927000000000000000e+03 2.554464721679687500e+01 2.833578109741210938e+00 -2.894839763641357422e+00 -6.859795451164245605e-01 -1.074245810508728027e+00 -1.249377250671386719e+00
7.928000000000000000e+03 2.535940551757812500e+01 2.934702634811401367e+00 -3.070875883102416992e+00 -7.260234951972961426e-01 -1.139069795608520508e+00 -1.381273627281188965e+00
7.929000000000000000e+03 2.582373046875000000e+01 3.211810588836669922e+00 -2.978843450546264648e+00 -8.285524845123291016e-01 -1.142218828201293945e+00 -1.362675189971923828e+00
7.930000000000000000e+03 2.571200942993164062e+01 3.436666727066040039e+00 -3.118383884429931641e+00 -8.428326845169067383e-01 -1.188364982604980469e+00 -1.507541418075561523e+00
7.931000000000000000e+03 2.639499664306640625e+01 3.673521757125854492e+00 -2.960236072540283203e+00 -9.365488290786743164e-01 -1.169035434722900391e+00 -1.443242311477661133e+00
7.932000000000000000e+03 2.637551689147949219e+01 3.874096155166625977e+00 -2.999279499053955078e+00 -9.658750891685485840e-01 -1.189546346664428711e+00 -1.540847778320312500e+00
7.933000000000000000e+03 2.664156150817871094e+01 3.608600616455078125e+00 -2.760122537612915039e+00 -9.016008973121643066e-01 -1.098517060279846191e+00 -1.317180514335632324e+00
7.934000000000000000e+03 2.742505264282226562e+01 4.032896518707275391e+00 -2.585552215576171875e+00 -1.068845748901367188e+00 -1.096319437026977539e+00 -1.299199342727661133e+00
7.935000000000000000e+03 2.845380210876464844e+01 5.161105155944824219e+00 -2.457715511322021484e+00 -1.534173130989074707e+00 -1.197566628456115723e+00 -1.439808249473571777e+00
7.936000000000000000e+03 2.891784095764160156e+01 5.462480545043945312e+00 -2.371254205703735352e+00 -1.577145099639892578e+00 -1.184519767761230469e+00 -1.307551264762878418e+00
7.937000000000000000e+03 3.103721427917480469e+01 1.098320007324218750e+01 -1.553012967109680176e+00 -1.459394335746765137e+00 -9.037222266197204590e-01 -1.452109694480895996e+00
7.938000000000000000e+03 2.742436790466308594e+01 8.270503997802734375e+00 -4.310179710388183594e+00 -2.126816272735595703e+00 -1.931098818778991699e+00 -3.237195253372192383e+00
7.939000000000000000e+03 2.710642814636230469e+01 8.175982475280761719e+00 -5.009727001190185547e+00 -3.357623338699340820e+00 -2.510205030441284180e+00 -4.162902832031250000e+00
7.940000000000000000e+03 6.536120605468750000e+01 3.567375183105468750e+01 1.487117886543273926e+00 2.212240457534790039e+00 1.109807491302490234e+00 -2.701527833938598633e+00
7.941000000000000000e+03 6.652255249023437500e+01 3.560084152221679688e+01 2.148286819458007812e+00 7.595057487487792969e+00 2.923003435134887695e+00 -5.539799213409423828e+00
7.942000000000000000e+03 6.704176330566406250e+01 3.603563308715820312e+01 8.558511734008789062e-01 1.162412452697753906e+01 3.743992805480957031e+00 -5.423321247100830078e+00
7.943000000000000000e+03 6.907370758056640625e+01 3.538372802734375000e+01 3.065724611282348633e+00 1.759672927856445312e+01 6.198736190795898438e+00 2.154912471771240234e+00
7.944000000000000000e+03 6.934382629394531250e+01 3.484014892578125000e+01 5.967381477355957031e+00 1.650339508056640625e+01 6.741232872009277344e+00 2.596920967102050781e+00
7.945000000000000000e+03 6.920217895507812500e+01 3.378422164916992188e+01 9.312585830688476562e+00 1.620214080810546875e+01 7.654417514801025391e+00 -5.704693794250488281e-01
7.946000000000000000e+03 6.908662414550781250e+01 3.335413742065429688e+01 8.133812904357910156e+00 1.717096710205078125e+01 7.591433525085449219e+00 -2.180319786071777344e+00
7.947000000000000000e+03 6.881961059570312500e+01 3.233439254760742188e+01 2.203952074050903320e+00 1.831299591064453125e+01 6.155084133148193359e+00 -1.326076745986938477e+00
7.948000000000000000e+03 6.732318115234375000e+01 3.230588150024414062e+01 7.799124121665954590e-01 1.557695770263671875e+01 4.907061100006103516e+00 6.088103294372558594e+00
7.949000000000000000e+03 6.694950103759765625e+01 3.236597824096679688e+01 1.916298389434814453e+00 1.138593196868896484e+01 3.990669250488281250e+00 6.999561786651611328e+00
7.950000000000000000e+03 6.610546875000000000e+01 3.210498428344726562e+01 2.135582447052001953e+00 5.278420925140380859e+00 2.224200963973999023e+00 5.135468482971191406e+00
7.951000000000000000e+03 6.592553710937500000e+01 3.238315582275390625e+01 2.263871908187866211e+00 3.429342269897460938e+00 1.707964181900024414e+00 4.296219825744628906e+00
7.952000000000000000e+03 6.512658691406250000e+01 3.179474830627441406e+01 1.355128407478332520e+00 2.541206598281860352e+00 1.168900489807128906e+00 3.091436386108398438e+00
7.953000000000000000e+03 6.488898468017578125e+01 3.242633819580078125e+01 5.398036241531372070e-01 9.908648729324340820e-01 4.592005312442779541e-01 1.906333684921264648e+00
7.954000000000000000e+03 6.468824005126953125e+01 3.240897369384765625e+01 2.942083775997161865e-01 8.892658352851867676e-01 3.550422787666320801e-01 1.680517196655273438e+00
7.955000000000000000e+03 6.138365936279296875e+01 3.625639724731445312e+01 -6.565199494361877441e-01 -5.425427109003067017e-03 -1.985836178064346313e-01 4.645330011844635010e-01
7.956000000000000000e+03 2.595972251892089844e+01 7.297086238861083984e+00 -7.221314430236816406e+00 -3.656815528869628906e+00 -3.263438940048217773e+00 -4.402164459228515625e+00
7.957000000000000000e+03 5.173261260986328125e+01 3.845791244506835938e+01 3.173674046993255615e-01 8.219150453805923462e-02 1.198676675558090210e-01 1.646158397197723389e-01
7.958000000000000000e+03 1.501769638061523438e+01 9.276701211929321289e-01 1.025134277343750000e+01 1.622192859649658203e+00 3.562060594558715820e+00 -3.883230924606323242e+00
7.959000000000000000e+03 4.469176483154296875e+01 -3.749501800537109375e+01 8.751831650733947754e-01 2.584944486618041992e+00 1.038038372993469238e+00 8.694440126419067383e-01
7.960000000000000000e+03 4.170625686645507812e+01 -3.973437118530273438e+01 2.647537231445312500e+00 6.638023853302001953e-01 9.934018850326538086e-01 2.374740540981292725e-01
7.961000000000000000e+03 3.972050857543945312e+01 -3.957600021362304688e+01 2.328274011611938477e+00 6.182900667190551758e-01 8.839692473411560059e-01 -5.484326481819152832e-01
7.962000000000000000e+03 4.450453948974609375e+01 -4.065449905395507812e+01 1.719187021255493164e+00 1.560575962066650391e+00 9.839289188385009766e-01 1.933348774909973145e-01
7.963000000000000000e+03 4.687450027465820312e+01 -3.877801513671875000e+01 1.151476025581359863e+00 1.991908431053161621e+00 9.430153369903564453e-01 4.353588819503784180e-01
7.964000000000000000e+03 2.454967498779296875e+01 -3.794361877441406250e+01 4.536210894584655762e-01 2.012493610382080078e-01 1.964611411094665527e-01 -1.746737658977508545e-01
7.965000000000000000e+03 3.815480804443359375e+01 2.950957107543945312e+01 5.317275226116180420e-02 6.093516573309898376e-02 3.423237428069114685e-02 5.966252833604812622e-02
7.966000000000000000e+03 3.798407745361328125e+01 3.004509162902832031e+01 5.261908471584320068e-02 6.026721000671386719e-02 3.386588767170906067e-02 5.737522616982460022e-02
7.967000000000000000e+03 2.035953140258789062e+01 -5.277746915817260742e-01 -4.048586845397949219e+00 -4.266340732574462891e+00 -2.494478225708007812e+00 -3.811520099639892578e+00
7.968000000000000000e+03 2.630440330505371094e+01 3.486909151077270508e+00 -2.873479843139648438e+00 -9.026525616645812988e-01 -1.132839679718017578e+00 -1.389677166938781738e+00
7.969000000000000000e+03 2.703918647766113281e+01 3.143685817718505859e+00 -2.363250494003295898e+00 -8.233571648597717285e-01 -9.559823274612426758e-01 -1.027971029281616211e+00
7.970000000000000000e+03 2.507597732543945312e+01 2.596276760101318359e+00 -2.966539621353149414e+00 -6.130825877189636230e-01 -1.073886632919311523e+00 -1.271546363830566406e+00
7.971000000000000000e+03 2.432125091552734375e+01 1.724175214767456055e+00 -2.627989292144775391e+00 -3.835607469081878662e-01 -9.034649729728698730e-01 -1.095512032508850098e+00
7.972000000000000000e+03 2.546656227111816406e+01 2.633477210998535156e+00 -2.882161855697631836e+00 -6.245112419128417969e-01 -1.052001833915710449e+00 -1.211687922477722168e+00
7.973000000000000000e+03 2.550673484802246094e+01 3.034106016159057617e+00 -3.049606323242187500e+00 -7.640184164047241211e-01 -1.144087433815002441e+00 -1.366675972938537598e+00
7.974000000000000000e+03 2.583786773681640625e+01 2.997239828109741211e+00 -2.834300279617309570e+00 -7.404960989952087402e-01 -1.072438955307006836e+00 -1.247214913368225098e+00
7.975000000000000000e+03 2.608041381835937500e+01 2.969057559967041016e+00 -2.760084867477416992e+00 -7.412872910499572754e-01 -1.050411701202392578e+00 -1.185115218162536621e+00
7.976000000000000000e+03 2.130555725097656250e+01 2.358181774616241455e-01 -1.739736318588256836e+00 -5.070428252220153809e-01 -6.740337610244750977e-01 -3.147439241409301758e+00
7.977000000000000000e+03 2.063330078125000000e+01 -1.683291792869567871e-02 -2.227656364440917969e+00 -1.810479402542114258e+00 -1.211440801620483398e+00 -3.644898176193237305e+00
7.978000000000000000e+03 1.830200195312500000e+01 -1.557967662811279297e+00 -2.256481885910034180e+00 -2.280084609985351562e+00 -1.360969901084899902e+00 -1.571727752685546875e+00
7.979000000000000000e+03 1.905277442932128906e+01 -1.439314842224121094e+00 -2.147092342376708984e+00 -3.128999710083007812e+00 -1.582827568054199219e+00 -2.064109086990356445e+00
7.980000000000000000e+03 6.725473022460937500e+01 3.201678466796875000e+01 4.683735668659210205e-01 1.387238502502441406e+01 4.302227497100830078e+00 5.683659076690673828e+00
7.981000000000000000e+03 3.977717971801757812e+01 3.183470726013183594e+01 5.652228742837905884e-02 5.378952622413635254e-02 3.309354558587074280e-02 5.263873562216758728e-02
7.982000000000000000e+03 4.574202346801757812e+01 3.579327011108398438e+01 8.286840468645095825e-02 3.492403775453567505e-02 3.533773496747016907e-02 5.820482969284057617e-02
7.983000000000000000e+03 4.652613067626953125e+01 3.650021743774414062e+01 1.050909981131553650e-01 4.093443974852561951e-02 4.380763322114944458e-02 6.568072736263275146e-02
7.984000000000000000e+03 1.587746906280517578e+01 6.200117588043212891e+00 1.919048875570297241e-01 3.032105565071105957e-01 1.485346257686614990e-01 2.190997004508972168e-01
7.985000000000000000e+03 2.450944519042968750e+01 1.529798507690429688e+01 9.742461889982223511e-02 1.105280146002769470e-01 6.238579005002975464e-02 1.072270348668098450e-01
7.986000000000000000e+03 1.899504089355468750e+01 -9.085009098052978516e-01 -2.547217607498168945e+00 -2.452789783477783203e+00 -1.500002264976501465e+00 -1.813451528549194336e+00
7.987000000000000000e+03 5.951015090942382812e+01 3.801225662231445312e+01 3.363803625106811523e-01 7.297910004854202271e-02 1.228078380227088928e-01 6.117293834686279297e-01
7.988000000000000000e+03 5.564110946655273438e+01 3.768471145629882812e+01 -2.371944040060043335e-01 -2.378651350736618042e-01 -1.425178647041320801e-01 4.404093921184539795e-01
7.989000000000000000e+03 3.370339584350585938e+01 -3.726419448852539062e+01 8.120305538177490234e-01 6.045683622360229492e-01 4.249796867370605469e-01 -5.662258863449096680e-01
7.990000000000000000e+03 5.095500183105468750e+01 3.935735321044921875e+01 1.735540777444839478e-01 -1.490471512079238892e-02 4.759480804204940796e-02 7.923499494791030884e-02
7.991000000000000000e+03 2.960681915283203125e+01 4.776713848114013672e+00 -2.012872457504272461e+00 -1.129000186920166016e+00 -9.425618052482604980e-01 -9.206763505935668945e-01
7.992000000000000000e+03 5.173727035522460938e+01 3.874249267578125000e+01 2.487204670906066895e-01 4.927659779787063599e-02 8.939912170171737671e-02 1.036118641495704651e-01
7.993000000000000000e+03 4.891409397125244141e+00 -3.823185443878173828e+00 -1.161280199885368347e-01 -7.542087882757186890e-02 -5.746467038989067078e-02 -1.184687837958335876e-01
7.994000000000000000e+03 2.163236618041992188e+01 -4.129495918750762939e-01 -1.740320563316345215e+00 7.379187345504760742e-01 -3.007205426692962646e-01 -2.721486091613769531e+00
7.995000000000000000e+03 6.675948333740234375e+01 3.159163093566894531e+01 8.913477659225463867e-01 1.014923572540283203e+01 3.312175035476684570e+00 5.554414272308349609e+00
7.996000000000000000e+03 6.664985656738281250e+01 3.576981353759765625e+01 1.667092680931091309e+00 9.170320510864257812e+00 3.251224040985107422e+00 -5.912096500396728516e+00
7.997000000000000000e+03 6.688385009765625000e+01 3.577881240844726562e+01 1.423430085182189941e+00 1.057079029083251953e+01 3.598266124725341797e+00 -6.175849914550781250e+00
7.998000000000000000e+03 6.745842742919921875e+01 3.160509681701660156e+01 -1.407972127199172974e-01 1.420215892791748047e+01 4.218408584594726562e+00 4.513378620147705078e+00
7.999000000000000000e+03 4.061994934082031250e+01 3.215518188476562500e+01 5.680232495069503784e-02 4.904006421566009521e-02 3.175271674990653992e-02 5.390607565641403198e-02
8.000000000000000000e+03 2.982202720642089844e+01 4.677055835723876953e+00 -1.931461453437805176e+00 -1.053057909011840820e+00 -8.953558206558227539e-01 -8.603788018226623535e-01
8.001000000000000000e+03 6.934790802001953125e+01 3.253602600097656250e+01 3.812224388122558594e+00 1.652506637573242188e+01 6.101187229156494141e+00 -2.143171310424804688e+00
8.002000000000000000e+03 6.961619567871093750e+01 3.276715469360351562e+01 4.868238449096679688e+00 1.539425086975097656e+01 6.078746795654296875e+00 -2.174846172332763672e+00
8.003000000000000000e+03 6.966361999511718750e+01 3.195437049865722656e+01 2.070530176162719727e+00 1.521082115173339844e+01 5.184405326843261719e+00 -1.739830851554870605e+00
8.004000000000000000e+03 6.953017425537109375e+01 3.531566619873046875e+01 4.162828445434570312e+00 1.627889060974121094e+01 6.132515430450439453e+00 2.591847419738769531e+00
8.005000000000000000e+03 6.851500034332275391e+00 -3.560456848144531250e+01 4.846719652414321899e-02 -1.145300388336181641e+00 -3.290499746799468994e-01 -9.190261363983154297e-02
8.006000000000000000e+03 6.526159667968750000e+01 3.126040077209472656e+01 1.288849353790283203e+00 3.774559497833251953e+00 1.519022583961486816e+00 3.675039529800415039e+00
8.007000000000000000e+03 6.574403381347656250e+01 3.209284210205078125e+01 1.949937343597412109e+00 3.511308431625366211e+00 1.638373732566833496e+00 4.134434700012207031e+00
8.008000000000000000e+03 6.601826477050781250e+01 3.188889312744140625e+01 1.836838483810424805e+00 5.341758728027343750e+00 2.153579235076904297e+00 4.922298908233642578e+00
8.009000000000000000e+03 6.629834747314453125e+01 3.203651046752929688e+01 1.990736603736877441e+00 6.375933647155761719e+00 2.510001182556152344e+00 5.469085693359375000e+00
8.010000000000000000e+03 2.804391098022460938e+01 4.020519733428955078e+00 -2.300201177597045898e+00 -1.148870348930358887e+00 -1.034721374511718750e+00 -1.128062486648559570e+00
8.011000000000000000e+03 3.577313232421875000e+01 -4.015942382812500000e+01 1.424248695373535156e+00 4.139656424522399902e-01 5.514643192291259766e-01 -3.419569730758666992e-01
8.012000000000000000e+03 2.780587387084960938e+01 3.446788549423217773e+00 -2.229986906051635742e+00 -9.358262419700622559e-01 -9.497439265251159668e-01 -9.585323333740234375e-01
8.013000000000000000e+03 2.102322959899902344e+01 -8.194846510887145996e-01 -4.170497953891754150e-01 -2.461100816726684570e-01 -1.989479660987854004e-01 -2.031798124313354492e+00
8.014000000000000000e+03 2.496848678588867188e+01 1.749057531356811523e+00 -2.371330499649047852e+00 -3.664441108703613281e-01 -8.213323950767517090e-01 -8.922865390777587891e-01
8.015000000000000000e+03 2.549355888366699219e+01 2.412319660186767578e+00 -2.611958742141723633e+00 -5.691260099411010742e-01 -9.543254375457763672e-01 -1.077781558036804199e+00
8.016000000000000000e+03 4.594700241088867188e+01 -3.160170364379882812e+01 -9.343310445547103882e-02 1.516995310783386230e+00 4.270686805248260498e-01 1.588466018438339233e-01
8.017000000000000000e+03 6.440292358398437500e+01 3.112961006164550781e+01 9.666724205017089844e-01 2.353425979614257812e+00 9.960295557975769043e-01 2.549617767333984375e+00
8.018000000000000000e+03 6.496427917480468750e+01 3.143022346496582031e+01 1.156301617622375488e+00 2.767381429672241211e+00 1.177104949951171875e+00 3.100278139114379883e+00
8.019000000000000000e+03 7.825905609130859375e+01 3.443611145019531250e+01 2.609191536903381348e-01 5.544140338897705078e+00 1.741517782211303711e+00 -1.505112834274768829e-02
8.020000000000000000e+03 7.077346038818359375e+01 -3.398631286621093750e+01 7.158941030502319336e-02 5.952866554260253906e+00 1.807336807250976562e+00 1.728036552667617798e-01
8.021000000000000000e+03 2.669396972656250000e+01 3.029804229736328125e+00 -2.478706121444702148e+00 -8.121696114540100098e-01 -9.872627258300781250e-01 -1.056273579597473145e+00
8.022000000000000000e+03 6.682158470153808594e+00 -3.187653732299804688e+01 6.267596036195755005e-02 -1.091148614883422852e+00 -3.085417747497558594e-01 -1.508774757385253906e-01
8.023000000000000000e+03 4.601816177368164062e+01 3.860873031616210938e+01 1.286800354719161987e-01 4.035118222236633301e-02 5.070936679840087891e-02 2.437864057719707489e-02
8.024000000000000000e+03 1.274555397033691406e+01 2.131654024124145508e+00 1.209675312042236328e+00 9.451182186603546143e-02 3.912561535835266113e-01 -3.542703390121459961e-01
8.025000000000000000e+03 2.992451286315917969e+01 4.910769462585449219e+00 -1.929107308387756348e+00 -1.056442141532897949e+00 -8.956648111343383789e-01 -8.877229094505310059e-01
8.026000000000000000e+03 6.682224273681640625e+01 3.677844619750976562e+01 1.122949570417404175e-01 9.760691642761230469e+00 2.961895942687988281e+00 -4.294833183288574219e+00
8.027000000000000000e+03 2.633397674560546875e+01 2.630427360534667969e+00 -2.446233987808227539e+00 -6.709242463111877441e-01 -9.351475238800048828e-01 -9.885888099670410156e-01
8.028000000000000000e+03 2.613882064819335938e+01 2.426613807678222656e+00 -2.400736808776855469e+00 -6.428964734077453613e-01 -9.130899906158447266e-01 -9.612432122230529785e-01
8.029000000000000000e+03 2.660571670532226562e+01 2.403584003448486328e+00 -2.172996520996093750e+00 -6.635389328002929688e-01 -8.509606719017028809e-01 -8.206155896186828613e-01
8.030000000000000000e+03 3.108961677551269531e+01 2.204417228698730469e+01 5.984579026699066162e-02 7.632259279489517212e-02 4.085051640868186951e-02 7.012371718883514404e-02
8.031000000000000000e+03 3.095985984802246094e+01 2.241444969177246094e+01 5.683093890547752380e-02 7.740233093500137329e-02 4.026998206973075867e-02 6.951980292797088623e-02
8.032000000000000000e+03 6.545462799072265625e+01 3.629718399047851562e+01 1.414033532142639160e+00 3.781802654266357422e+00 1.558750867843627930e+00 -3.539421081542968750e+00
8.033000000000000000e+03 6.584488677978515625e+01 3.168380546569824219e+01 1.608363747596740723e+00 5.019337654113769531e+00 1.988310456275939941e+00 4.571083068847656250e+00
8.034000000000000000e+03 6.559658050537109375e+01 3.121105384826660156e+01 1.241985559463500977e+00 4.859424591064453125e+00 1.830422997474670410e+00 4.122887134552001953e+00
8.035000000000000000e+03 4.510365676879882812e+01 3.651307678222656250e+01 9.928864240646362305e-02 2.902107685804367065e-02 3.849291428923606873e-02 5.608700588345527649e-02
8.036000000000000000e+03 2.432521820068359375e+01 1.580006790161132812e+01 9.081663936376571655e-02 1.123297736048698425e-01 6.094392389059066772e-02 1.043005809187889099e-01
8.037000000000000000e+03 1.660239601135253906e+01 -3.453758239746093750e+00 -1.405715227127075195e+00 -1.146090388298034668e+00 -7.655416727066040039e-01 -1.158905506134033203e+00
8.038000000000000000e+03 2.782130813598632812e+01 2.872085571289062500e+00 -1.974673271179199219e+00 -8.484623432159423828e-01 -8.469406962394714355e-01 -7.560064792633056641e-01
8.039000000000000000e+03 2.764801216125488281e+01 2.449857234954833984e+00 -1.852096080780029297e+00 -7.502452135086059570e-01 -7.807024121284484863e-01 -6.546362638473510742e-01
8.040000000000000000e+03 2.802976608276367188e+01 3.611523151397705078e+00 -2.188318490982055664e+00 -1.029962658882141113e+00 -9.654843807220458984e-01 -9.878332614898681641e-01
8.041000000000000000e+03 7.680319213867187500e+01 3.642586898803710938e+01 3.797598481178283691e-01 7.077401161193847656e+00 2.237148284912109375e+00 4.374705255031585693e-01
8.042000000000000000e+03 6.620903778076171875e+01 3.156219673156738281e+01 1.361989140510559082e+00 6.779678344726562500e+00 2.442500114440917969e+00 5.089004993438720703e+00
8.043000000000000000e+03 6.949225616455078125e+01 3.163655090332031250e+01 1.171886324882507324e+00 1.538781738281250000e+01 4.967910766601562500e+00 -1.283322930335998535e+00
8.044000000000000000e+03 6.951295471191406250e+01 3.224412155151367188e+01 2.787111043930053711e+00 1.578452777862548828e+01 5.571491718292236328e+00 -1.906517624855041504e+00
8.045000000000000000e+03 6.981570434570312500e+01 3.231534194946289062e+01 3.348331212997436523e+00 1.497628211975097656e+01 5.497384071350097656e+00 -2.115222930908203125e+00
8.046000000000000000e+03 6.975808715820312500e+01 3.318363571166992188e+01 6.208355903625488281e+00 1.466623592376708984e+01 6.262377262115478516e+00 -1.692961573600769043e+00
8.047000000000000000e+03 6.992156219482421875e+01 3.454701995849609375e+01 6.232819557189941406e+00 1.419903564453125000e+01 6.129556655883789062e+00 1.510827660560607910e+00
8.048000000000000000e+03 1.357874393463134766e+01 -5.572914123535156250e+00 -5.808047056198120117e-01 -4.904564917087554932e-01 -3.213783502578735352e-01 -8.070030212402343750e-01
8.049000000000000000e+03 7.010585021972656250e+01 3.244245910644531250e+01 3.785065412521362305e+00 1.413220214843750000e+01 5.375180244445800781e+00 -2.027807474136352539e+00
8.050000000000000000e+03 6.714851379394531250e+01 3.137778282165527344e+01 1.176342889666557312e-01 1.196390628814697266e+01 3.624462127685546875e+00 4.890489101409912109e+00
8.051000000000000000e+03 6.653623199462890625e+01 3.146343040466308594e+01 9.803954362869262695e-01 8.669839859008789062e+00 2.895070552825927734e+00 5.344795703887939453e+00
8.052000000000000000e+03 2.965538406372070312e+01 4.485458850860595703e+00 -1.931126117706298828e+00 -1.071896433830261230e+00 -9.009067416191101074e-01 -8.482972979545593262e-01
8.053000000000000000e+03 2.576859283447265625e+01 1.931108236312866211e+00 -2.166978597640991211e+00 -4.424505233764648438e-01 -7.828287482261657715e-01 -8.030185103416442871e-01
8.054000000000000000e+03 2.588767814636230469e+01 2.293899774551391602e+00 -2.395113706588745117e+00 -5.566858649253845215e-01 -8.855398297309875488e-01 -9.268857836723327637e-01
8.055000000000000000e+03 6.689492034912109375e+01 3.132826614379882812e+01 3.520300090312957764e-01 1.068873596191406250e+01 3.312229633331298828e+00 5.061551094055175781e+00
8.056000000000000000e+03 6.666110229492187500e+01 3.120767211914062500e+01 5.486674308776855469e-01 9.424348831176757812e+00 2.991904973983764648e+00 5.069718360900878906e+00
8.057000000000000000e+03 7.076961517333984375e+00 -3.063487434387207031e+01 7.004518806934356689e-02 -1.017725586891174316e+00 -2.843041121959686279e-01 -1.767724007368087769e-01
8.058000000000000000e+03 3.066116142272949219e+01 2.245026969909667969e+01 5.583750829100608826e-02 7.909981161355972290e-02 4.048119485378265381e-02 7.034740597009658813e-02
8.059000000000000000e+03 4.225765228271484375e+01 3.420141220092773438e+01 6.763520836830139160e-02 3.863004595041275024e-02 3.187957778573036194e-02 5.006680637598037720e-02
8.060000000000000000e+03 6.996475982666015625e+01 3.512424850463867188e+01 4.534004211425781250e+00 1.440551280975341797e+01 5.681855201721191406e+00 2.087382316589355469e+00
8.061000000000000000e+03 3.119681549072265625e+01 2.226669883728027344e+01 5.762709304690361023e-02 7.518003135919570923e-02 3.984213620424270630e-02 7.042180746793746948e-02
8.062000000000000000e+03 4.280951309204101562e+01 3.390359878540039062e+01 6.698396056890487671e-02 4.165241867303848267e-02 3.259091451764106750e-02 5.035669356584548950e-02
8.063000000000000000e+03 3.170851325988769531e+01 2.412278175354003906e+01 5.145867541432380676e-02 7.516703009605407715e-02 3.798770904541015625e-02 6.596708297729492188e-02
8.064000000000000000e+03 3.015032005310058594e+01 4.798701286315917969e+00 -1.857396245002746582e+00 -9.844958186149597168e-01 -8.525676131248474121e-01 -8.545856475830078125e-01
8.065000000000000000e+03 6.901986694335937500e+01 3.141499710083007812e+01 2.415496855974197388e-01 1.581978702545166016e+01 4.818400859832763672e+00 -3.327501714229583740e-01
8.066000000000000000e+03 5.236852264404296875e+01 3.149711036682128906e+01 -1.154680609703063965e+00 -4.811106324195861816e-01 -4.907373487949371338e-01 -8.634697794914245605e-01
8.067000000000000000e+03 6.611033630371093750e+01 3.121322822570800781e+01 1.060652732849121094e+00 6.884001731872558594e+00 2.383396387100219727e+00 4.721949100494384766e+00
8.068000000000000000e+03 6.588131713867187500e+01 3.118072891235351562e+01 1.222396254539489746e+00 5.771297454833984375e+00 2.098108053207397461e+00 4.510003566741943359e+00
8.069000000000000000e+03 9.919065475463867188e+00 -5.922877788543701172e+00 -3.947551548480987549e-01 -2.129607796669006348e-01 -1.823147684335708618e-01 -5.099751949310302734e-01
8.070000000000000000e+03 1.552470207214355469e+01 -5.550127506256103516e+00 -5.601184964179992676e-01 -9.207028150558471680e-01 -4.442464113235473633e-01 -9.446939229965209961e-01
8.071000000000000000e+03 1.683696937561035156e+01 -6.322457313537597656e+00 -2.463423013687133789e-01 -1.225544333457946777e+00 -4.415659904479980469e-01 -8.086470961570739746e-01
8.072000000000000000e+03 3.551972627639770508e+00 4.933415412902832031e+00 1.042286492884159088e-02 -9.841331094503402710e-02 -2.639713324606418610e-02 9.348825365304946899e-02
8.073000000000000000e+03 3.547448348999023438e+01 2.814718818664550781e+01 5.081453546881675720e-02 7.013700902462005615e-02 3.628546372056007385e-02 5.848035588860511780e-02
8.074000000000000000e+03 3.381759262084960938e+01 2.738603782653808594e+01 4.697151482105255127e-02 7.403171062469482422e-02 3.630096837878227234e-02 5.774347111582756042e-02
8.075000000000000000e+03 3.395415878295898438e+01 2.793610572814941406e+01 4.633387550711631775e-02 7.323457300662994385e-02 3.587053343653678894e-02 5.652811750769615173e-02
8.076000000000000000e+03 4.144552993774414062e+01 3.416773605346679688e+01 6.847872585058212280e-02 4.549876973032951355e-02 3.419324755668640137e-02 4.714864119887351990e-02
8.077000000000000000e+03 4.160704421997070312e+01 3.461632919311523438e+01 6.557660549879074097e-02 4.466976225376129150e-02 3.307390958070755005e-02 4.870747774839401245e-02
8.078000000000000000e+03 2.785186004638671875e+01 2.171977758407592773e+00 -1.632113695144653320e+00 -6.797040700912475586e-01 -6.935453414916992188e-01 -4.951710700988769531e-01
8.079000000000000000e+03 2.827853202819824219e+01 2.654711246490478516e+00 -1.724000811576843262e+00 -8.139327168464660645e-01 -7.613800168037414551e-01 -5.943391323089599609e-01
8.080000000000000000e+03 2.838017082214355469e+01 2.338913202285766602e+00 -1.537554621696472168e+00 -7.219693660736083984e-01 -6.778572201728820801e-01 -4.714113473892211914e-01
8.081000000000000000e+03 6.742224121093750000e+01 3.110460281372070312e+01 -3.954327404499053955e-01 1.260892295837402344e+01 3.664047241210937500e+00 4.059476375579833984e+00
8.082000000000000000e+03 6.655840301513671875e+01 3.083609390258789062e+01 3.748116493225097656e-01 8.876697540283203125e+00 2.775452852249145508e+00 4.640332221984863281e+00
8.083000000000000000e+03 6.676517486572265625e+01 3.096156883239746094e+01 2.307755202054977417e-01 9.852734565734863281e+00 3.025053024291992188e+00 4.727038383483886719e+00
8.084000000000000000e+03 6.593043518066406250e+01 3.080874443054199219e+01 8.474093079566955566e-01 6.368887901306152344e+00 2.164889097213745117e+00 4.350100994110107422e+00
8.085000000000000000e+03 2.524654960632324219e+01 1.184292912483215332e+00 -1.802145361900329590e+00 -2.980498671531677246e-01 -6.300585865974426270e-01 -7.016068696975708008e-01
8.086000000000000000e+03 6.749601745605468750e+01 3.083633422851562500e+01 -5.757284760475158691e-01 1.238481521606445312e+01 3.542725801467895508e+00 3.721426963806152344e+00
8.087000000000000000e+03 6.776160430908203125e+01 3.088576698303222656e+01 -7.333086133003234863e-01 1.342980289459228516e+01 3.808948278427124023e+00 3.148712396621704102e+00
8.088000000000000000e+03 6.811035919189453125e+01 3.044116973876953125e+01 -9.749496579170227051e-01 1.315292358398437500e+01 3.653392314910888672e+00 2.250300407409667969e+00
8.089000000000000000e+03 6.839670562744140625e+01 3.085001182556152344e+01 -7.968867421150207520e-01 1.454337787628173828e+01 4.123947143554687500e+00 1.629347920417785645e+00
8.090000000000000000e+03 6.938488769531250000e+01 3.189832115173339844e+01 1.587193608283996582e+00 1.582327461242675781e+01 5.223140239715576172e+00 -1.447414994239807129e+00
8.091000000000000000e+03 5.949983119964599609e+00 -2.690080833435058594e+01 4.934101924300193787e-02 -1.052136540412902832e+00 -3.008386492729187012e-01 -2.007458359003067017e-01
8.092000000000000000e+03 3.311157608032226562e+01 6.365564346313476562e+00 -1.172195792198181152e+00 -8.877236247062683105e-01 -6.179758310317993164e-01 -8.581389188766479492e-01
8.093000000000000000e+03 2.708120155334472656e+01 -2.409333437681198120e-01 -3.500351309776306152e-01 -3.853193521499633789e-01 -2.206063568592071533e-01 -1.974744945764541626e-01
8.094000000000000000e+03 5.366953659057617188e+01 3.027440071105957031e+01 -1.145194649696350098e+00 1.779033616185188293e-02 -3.382212817668914795e-01 -7.685892581939697266e-01
8.095000000000000000e+03 7.320561218261718750e+01 3.464804840087890625e+01 2.442004680633544922e+00 9.698408126831054688e+00 3.642123937606811523e+00 3.821298182010650635e-01
8.096000000000000000e+03 3.569506072998046875e+01 2.946858406066894531e+01 4.927564412355422974e-02 6.779058277606964111e-02 3.511986881494522095e-02 5.378407239913940430e-02
8.097000000000000000e+03 5.242420196533203125e+01 3.021094512939453125e+01 -1.182526469230651855e+00 -3.306200504302978516e-01 -4.539439678192138672e-01 -8.436121344566345215e-01
8.098000000000000000e+03 4.172875595092773438e+01 3.505480575561523438e+01 7.488690316677093506e-02 4.331630840897560120e-02 3.546096384525299072e-02 4.434773325920104980e-02
8.099000000000000000e+03 3.382841873168945312e+01 2.586831474304199219e+01 5.002893507480621338e-02 7.385759055614471436e-02 3.716595843434333801e-02 6.090591847896575928e-02
8.100000000000000000e+03 3.344141769409179688e+01 2.547286415100097656e+01 5.068934708833694458e-02 7.384204119443893433e-02 3.735941648483276367e-02 6.210630759596824646e-02
8.101000000000000000e+03 7.348610687255859375e+01 3.367699432373046875e+01 2.371280670166015625e+00 9.404911994934082031e+00 3.532857656478881836e+00 -3.423394262790679932e-01
8.102000000000000000e+03 7.063572692871093750e+01 3.231141662597656250e+01 3.304624557495117188e+00 1.300269317626953125e+01 4.892195224761962891e+00 -1.867298364639282227e+00
8.103000000000000000e+03 6.635161590576171875e+01 3.066667938232421875e+01 4.417023360729217529e-01 8.012740135192871094e+00 2.536332845687866211e+00 4.480057239532470703e+00
8.104000000000000000e+03 6.620088958740234375e+01 3.093696212768554688e+01 7.941210269927978516e-01 7.380578517913818359e+00 2.452409982681274414e+00 4.639146804809570312e+00
8.105000000000000000e+03 3.262706375122070312e+01 2.535253715515136719e+01 4.943307861685752869e-02 7.562847435474395752e-02 3.751846402883529663e-02 6.198126077651977539e-02
8.106000000000000000e+03 2.550307655334472656e+01 6.032757759094238281e-01 -1.221395373344421387e+00 -2.032200992107391357e-01 -4.273846447467803955e-01 -4.431784152984619141e-01
8.107000000000000000e+03 2.892359542846679688e+01 2.910175085067749023e+00 -1.643251776695251465e+00 -8.584474921226501465e-01 -7.505097985267639160e-01 -5.656504631042480469e-01
8.108000000000000000e+03 2.866563034057617188e+01 3.218784332275390625e+00 -1.825301051139831543e+00 -8.974738717079162598e-01 -8.168324828147888184e-01 -6.674963831901550293e-01
8.109000000000000000e+03 1.086280727386474609e+01 3.828167200088500977e+00 4.297859966754913330e-01 -1.064201369881629944e-01 9.700975567102432251e-02 -7.185593992471694946e-02
8.110000000000000000e+03 3.435565567016601562e+01 2.805145072937011719e+01 4.810874164104461670e-02 7.170731574296951294e-02 3.594481572508811951e-02 5.676532164216041565e-02
8.111000000000000000e+03 3.419382476806640625e+01 2.842349815368652344e+01 4.703496024012565613e-02 7.222674787044525146e-02 3.577851131558418274e-02 5.575853958725929260e-02
8.112000000000000000e+03 3.016868782043457031e+01 4.066722393035888672e+00 -1.665633797645568848e+00 -9.043765068054199219e-01 -7.710030674934387207e-01 -6.470982432365417480e-01
8.113000000000000000e+03 3.006451797485351562e+01 4.524210453033447266e+00 -1.815038681030273438e+00 -9.883210659027099609e-01 -8.410078883171081543e-01 -7.825968265533447266e-01
8.114000000000000000e+03 6.728939056396484375e+01 3.053356361389160156e+01 -5.246019959449768066e-01 1.130471515655517578e+01 3.234033823013305664e+00 3.767307043075561523e+00
8.115000000000000000e+03 5.362846755981445312e+01 -2.851568794250488281e+01 1.465637329965829849e-02 3.002858638763427734e+00 9.052544832229614258e-01 3.227611482143402100e-01
8.116000000000000000e+03 2.722385978698730469e+01 1.657149791717529297e+00 -1.570915102958679199e+00 -5.824114680290222168e-01 -6.459979414939880371e-01 -4.894477128982543945e-01
8.117000000000000000e+03 2.719985580444335938e+01 1.955260992050170898e+00 -1.665156006813049316e+00 -6.117346286773681641e-01 -6.830672025680541992e-01 -5.449564456939697266e-01
8.118000000000000000e+03 3.321186447143554688e+01 2.603285026550292969e+01 4.926928505301475525e-02 7.558022439479827881e-02 3.745485469698905945e-02 6.067810207605361938e-02
8.119000000000000000e+03 2.677373695373535156e+01 1.966363334655761719e+01 6.682880222797393799e-02 9.745065122842788696e-02 4.928383603692054749e-02 8.116041123867034912e-02
8.120000000000000000e+03 6.883298492431640625e+01 3.050456428527832031e+01 -8.120763301849365234e-01 1.401344966888427734e+01 3.960411787033081055e+00 7.795864939689636230e-01
8.121000000000000000e+03 3.938256454467773438e+01 1.811400413513183594e+01 -1.153719305992126465e+00 -1.246384978294372559e+00 -7.200312614440917969e-01 -1.254462957382202148e+00
8.122000000000000000e+03 5.498167800903320312e+01 2.968725204467773438e+01 -1.003001332283020020e+00 2.908844351768493652e-01 -2.136350721120834351e-01 -6.587257981300354004e-01
8.123000000000000000e+03 1.276951408386230469e+01 6.420831203460693359e+00 9.143185615539550781e-02 4.330846965312957764e-01 1.573549658060073853e-01 -3.372885286808013916e-02
8.124000000000000000e+03 2.845450782775878906e+01 3.496306657791137695e+00 -1.986296534538269043e+00 -1.013891935348510742e+00 -9.000565409660339355e-01 -8.379101753234863281e-01
8.125000000000000000e+03 6.225156402587890625e+01 2.913584327697753906e+01 3.657062649726867676e-01 1.914795637130737305e+00 6.841505765914916992e-01 1.320366501808166504e+00
8.126000000000000000e+03 3.057763862609863281e+01 2.277825546264648438e+01 5.502232909202575684e-02 7.919561862945556641e-02 4.026538506150245667e-02 6.990160048007965088e-02
8.127000000000000000e+03 3.018991470336914062e+01 2.273920822143554688e+01 5.361445620656013489e-02 8.142477273941040039e-02 4.051176831126213074e-02 7.024916261434555054e-02
8.128000000000000000e+03 2.839245986938476562e+01 2.158458518981933594e+01 5.711072310805320740e-02 8.864881098270416260e-02 4.372785985469818115e-02 7.337444275617599487e-02
8.129000000000000000e+03 2.871149444580078125e+01 2.156663894653320312e+01 5.931456387042999268e-02 8.722804486751556396e-02 4.396278411149978638e-02 7.349432259798049927e-02
8.130000000000000000e+03 5.394661712646484375e+01 2.931835746765136719e+01 -1.039631724357604980e+00 1.246715188026428223e-01 -2.744880318641662598e-01 -7.011402249336242676e-01
8.131000000000000000e+03 5.155591201782226562e+01 2.930215644836425781e+01 -1.182547211647033691e+00 -5.154854059219360352e-01 -5.094097852706909180e-01 -8.965302705764770508e-01
8.132000000000000000e+03 6.656044006347656250e+01 3.044531631469726562e+01 9.768275916576385498e-02 8.782472610473632812e+00 2.664046525955200195e+00 4.254658699035644531e+00
8.133000000000000000e+03 2.705183029174804688e+01 1.000131011009216309e+00 -1.150762677192687988e+00 -4.843670725822448730e-01 -4.905389249324798584e-01 -3.407039642333984375e-01
8.134000000000000000e+03 1.128378391265869141e+01 -2.565292167663574219e+01 1.422871202230453491e-01 -6.463537216186523438e-01 -1.512199789285659790e-01 -3.074221312999725342e-01
8.135000000000000000e+03 5.471786499023437500e+01 2.913106918334960938e+01 -9.337545633316040039e-01 2.916565239429473877e-01 -1.926294118165969849e-01 -6.296765208244323730e-01
8.136000000000000000e+03 6.706890106201171875e+01 3.052507209777832031e+01 -3.382132649421691895e-01 1.059847927093505859e+01 3.078079700469970703e+00 3.979880571365356445e+00
8.137000000000000000e+03 6.706227874755859375e+01 3.025196075439453125e+01 -4.480019509792327881e-01 1.035913181304931641e+01 2.973339080810546875e+00 3.739022254943847656e+00
8.138000000000000000e+03 4.604071617126464844e+00 5.305078506469726562e+00 3.134077414870262146e-02 -1.084093302488327026e-01 -2.312056533992290497e-02 1.064451411366462708e-01
8.139000000000000000e+03 5.547469329833984375e+01 2.976180267333984375e+01 -9.690059423446655273e-01 3.527363836765289307e-01 -1.848808676004409790e-01 -6.437749862670898438e-01
8.140000000000000000e+03 3.176132965087890625e+01 2.519991874694824219e+01 4.804334416985511780e-02 7.604429870843887329e-02 3.722629323601722717e-02 6.332329660654067993e-02
8.141000000000000000e+03 7.088654327392578125e+01 3.202371597290039062e+01 2.657959938049316406e+00 1.267728614807128906e+01 4.600573539733886719e+00 -1.912521362304687500e+00
8.142000000000000000e+03 6.540042877197265625e+01 2.969904518127441406e+01 4.088848531246185303e-01 5.645989894866943359e+00 1.816462397575378418e+00 3.456596612930297852e+00
8.143000000000000000e+03 6.583409118652343750e+01 2.960036087036132812e+01 1.820410043001174927e-01 6.587357044219970703e+00 2.030819416046142578e+00 3.568967103958129883e+00
8.144000000000000000e+03 6.603932189941406250e+01 2.973454093933105469e+01 1.248131319880485535e-01 7.182229995727539062e+00 2.192112922668457031e+00 3.732934713363647461e+00
8.145000000000000000e+03 4.100423049926757812e+01 1.986002731323242188e+01 -1.107236981391906738e+00 -1.184951066970825195e+00 -6.876564025878906250e-01 -1.259453296661376953e+00
8.146000000000000000e+03 6.759407806396484375e+01 3.004049682617187500e+01 -8.472757339477539062e-01 1.154102802276611328e+01 3.208125591278076172e+00 2.978116512298583984e+00
8.147000000000000000e+03 1.231511020660400391e+01 -7.643051624298095703e+00 -2.703779637813568115e-01 -4.929100573062896729e-01 -2.289863973855972290e-01 -7.167767882347106934e-01
8.148000000000000000e+03 3.358340454101562500e+01 2.893362045288085938e+01 4.594857618212699890e-02 7.229758799076080322e-02 3.547384962439537048e-02 5.332511290907859802e-02
8.149000000000000000e+03 2.961509513854980469e+01 2.246525192260742188e+01 5.423889309167861938e-02 8.334765583276748657e-02 4.127596318721771240e-02 7.104158401489257812e-02
8.150000000000000000e+03 2.690322494506835938e+01 2.031773567199707031e+01 6.107499450445175171e-02 9.610674530267715454e-02 4.715452343225479126e-02 7.812308520078659058e-02
8.151000000000000000e+03 2.683216476440429688e+01 2.019018554687500000e+01 6.268413364887237549e-02 9.706714749336242676e-02 4.792538657784461975e-02 7.822843641042709351e-02
8.152000000000000000e+03 6.686466979980468750e+01 3.054043769836425781e+01 -1.605412662029266357e-01 9.939161300659179688e+00 2.933586120605468750e+00 4.164084911346435547e+00
8.153000000000000000e+03 2.563099288940429688e+01 1.486654758453369141e+00 -1.812428474426269531e+00 -4.281122386455535889e-01 -6.721621751785278320e-01 -6.562957763671875000e-01
8.154000000000000000e+03 3.345232009887695312e+01 4.552217006683349609e+00 -1.043135404586791992e+00 -6.795867681503295898e-01 -5.168166160583496094e-01 -5.203704237937927246e-01
8.155000000000000000e+03 3.926893997192382812e+01 1.754575920104980469e+01 -1.145249128341674805e+00 -1.228430747985839844e+00 -7.121039628982543945e-01 -1.218474864959716797e+00
8.156000000000000000e+03 1.476596450805664062e+01 8.325736999511718750e+00 7.894616574048995972e-02 3.020968735218048096e-01 1.143129095435142517e-01 1.191948875784873962e-01
8.157000000000000000e+03 6.388297653198242188e+01 2.914847755432128906e+01 5.362540483474731445e-01 3.404866695404052734e+00 1.182336211204528809e+00 2.380432367324829102e+00
8.158000000000000000e+03 6.475571441650390625e+01 2.892624855041503906e+01 3.477125465869903564e-01 4.813464164733886719e+00 1.548352956771850586e+00 2.892399072647094727e+00
8.159000000000000000e+03 2.826428413391113281e+01 2.193739128112792969e+01 5.465034395456314087e-02 8.924512565135955811e-02 4.316864162683486938e-02 7.275123894214630127e-02
8.160000000000000000e+03 1.090635871887207031e+01 4.969994544982910156e+00 2.941552400588989258e-01 8.820190280675888062e-02 1.147071495652198792e-01 -1.328374892473220825e-01
8.161000000000000000e+03 1.051773071289062500e+01 4.635953426361083984e+00 3.357672989368438721e-01 -4.038639739155769348e-02 8.861427009105682373e-02 -8.622261881828308105e-02
8.162000000000000000e+03 2.671696853637695312e+01 2.014640426635742188e+01 6.136080250144004822e-02 9.679908305406570435e-02 4.744796454906463623e-02 7.789359241724014282e-02
8.163000000000000000e+03 3.347732925415039062e+01 -2.995939493179321289e+00 4.626289010047912598e-01 -5.482622981071472168e-01 -2.569002658128738403e-02 5.795083940029144287e-02
8.164000000000000000e+03 2.774272346496582031e+01 1.178736090660095215e+00 -1.056667804718017578e+00 -5.858774781227111816e-01 -4.927635788917541504e-01 -2.809133827686309814e-01
8.165000000000000000e+03 6.685076904296875000e+01 3.074347877502441406e+01 -1.804812997579574585e-02 1.006482124328613281e+01 3.014031887054443359e+00 4.409174919128417969e+00
8.166000000000000000e+03 1.270306301116943359e+01 6.115612983703613281e+00 1.008466258645057678e-01 4.526219069957733154e-01 1.660405695438385010e-01 -5.183112621307373047e-02
8.167000000000000000e+03 2.658932685852050781e+01 2.029802894592285156e+01 6.028725951910018921e-02 9.754244238138198853e-02 4.734891280531883240e-02 7.804488390684127808e-02
8.168000000000000000e+03 2.670252799987792969e+01 2.022020149230957031e+01 6.173226609826087952e-02 9.642986953258514404e-02 4.744864255189895630e-02 7.794027030467987061e-02
8.169000000000000000e+03 7.077565765380859375e+01 3.157123756408691406e+01 1.867663264274597168e+00 1.281239986419677734e+01 4.404018878936767578e+00 -1.861974358558654785e+00
8.170000000000000000e+03 7.111689758300781250e+01 3.169316673278808594e+01 2.101782560348510742e+00 1.237827777862548828e+01 4.344017982482910156e+00 -1.892516255378723145e+00
8.171000000000000000e+03 2.661316490173339844e+01 2.008979606628417969e+01 6.120384112000465393e-02 9.717892110347747803e-02 4.751482978463172913e-02 7.875741273164749146e-02
8.172000000000000000e+03 1.785362434387207031e+01 1.090726566314697266e+01 9.466848522424697876e-02 1.869285702705383301e-01 8.447911590337753296e-02 1.295872032642364502e-01
8.173000000000000000e+03 3.223892211914062500e+01 2.617181205749511719e+01 4.625589773058891296e-02 7.517164945602416992e-02 3.642826527357101440e-02 6.100966781377792358e-02
8.174000000000000000e+03 3.179470825195312500e+01 2.570164489746093750e+01 4.665834456682205200e-02 7.640534639358520508e-02 3.691910952329635620e-02 6.257019937038421631e-02
8.175000000000000000e+03 3.310746383666992188e+01 2.865865468978881836e+00 -8.161617517471313477e-01 -6.088307499885559082e-01 -4.274977743625640869e-01 -2.423827201128005981e-01
8.176000000000000000e+03 6.611558532714843750e+01 2.915142250061035156e+01 -1.418112218379974365e-01 7.345377922058105469e+00 2.161069869995117188e+00 3.370837926864624023e+00
8.177000000000000000e+03 6.598101806640625000e+01 2.935789871215820312e+01 5.224285181611776352e-03 6.983046531677246094e+00 2.096481323242187500e+00 3.470488548278808594e+00
8.178000000000000000e+03 7.128308868408203125e+01 3.125956726074218750e+01 1.530820846557617188e+00 1.212029647827148438e+01 4.095335483551025391e+00 -1.822123169898986816e+00
8.179000000000000000e+03 4.588761901855468750e+01 -1.675249481201171875e+01 1.503264605998992920e-01 1.165144801139831543e+00 3.946413695812225342e-01 4.023502022027969360e-02
8.180000000000000000e+03 2.848774147033691406e+01 1.129441261291503906e+00 -8.916321396827697754e-01 -6.516394615173339844e-01 -4.629814922809600830e-01 -2.050326019525527954e-01
8.181000000000000000e+03 2.433256340026855469e+01 1.883029937744140625e+01 6.145572662353515625e-02 1.080028712749481201e-01 5.083758011460304260e-02 8.243189007043838501e-02
8.182000000000000000e+03 2.363989448547363281e+01 1.784912300109863281e+01 6.599897891283035278e-02 1.127178892493247986e-01 5.361505970358848572e-02 8.734338730573654175e-02
8.183000000000000000e+03 1.759906387329101562e+01 1.140819549560546875e+01 8.395817130804061890e-02 1.847795844078063965e-01 8.062133193016052246e-02 1.203159466385841370e-01
8.184000000000000000e+03 1.647354316711425781e+01 1.079162025451660156e+01 7.702605426311492920e-02 2.036328017711639404e-01 8.419766277074813843e-02 1.156203299760818481e-01
8.185000000000000000e+03 6.560454559326171875e+01 2.945034027099609375e+01 2.173509895801544189e-01 6.188503265380859375e+00 1.921756267547607422e+00 3.418488502502441406e+00
8.186000000000000000e+03 3.391038894653320312e+01 5.308844089508056641e+00 -1.013313412666320801e+00 -7.056885361671447754e-01 -5.157005786895751953e-01 -6.023075580596923828e-01
8.187000000000000000e+03 3.383407592773437500e+01 4.707722663879394531e+00 -9.813672900199890137e-01 -6.631072163581848145e-01 -4.933423697948455811e-01 -5.089064240455627441e-01
8.188000000000000000e+03 3.459979248046875000e+01 5.160168170928955078e+00 -8.975336551666259766e-01 -6.488619446754455566e-01 -4.639186859130859375e-01 -5.190838575363159180e-01
8.189000000000000000e+03 4.474515151977539062e+01 -1.497969055175781250e+01 2.213293761014938354e-01 9.237637519836425781e-01 3.435279428958892822e-01 1.664026640355587006e-02
8.190000000000000000e+03 3.411492156982421875e+01 1.124879169464111328e+01 -1.208955764770507812e+00 -1.292385578155517578e+00 -7.504023909568786621e-01 -1.202768445014953613e+00
8.191000000000000000e+03 5.188510513305664062e+01 2.936426734924316406e+01 -1.163613438606262207e+00 -4.142104983329772949e-01 -4.733471870422363281e-01 -8.582951426506042480e-01
8.192000000000000000e+03 3.095392036437988281e+01 2.513556241989135742e+00 -1.048473834991455078e+00 -6.997137665748596191e-01 -5.244562625885009766e-01 -2.552929520606994629e-01
8.193000000000000000e+03 2.912400054931640625e+01 7.074856162071228027e-01 -6.263287663459777832e-01 -6.391065120697021484e-01 -3.796305954456329346e-01 -1.045266389846801758e-01
8.194000000000000000e+03 2.941749954223632812e+01 1.024601697921752930e+00 -7.999989390373229980e-01 -6.211798787117004395e-01 -4.263536334037780762e-01 -1.209987774491310120e-01
8.195000000000000000e+03 2.801845932006835938e+01 1.197027564048767090e+00 -1.071854352951049805e+00 -6.316513419151306152e-01 -5.110517144203186035e-01 -3.087158203125000000e-01
8.196000000000000000e+03 2.908017730712890625e+01 2.232159423828125000e+01 5.324913933873176575e-02 8.579009771347045898e-02 4.171176999807357788e-02 7.124504446983337402e-02
8.197000000000000000e+03 2.865132331848144531e+01 2.240863609313964844e+01 5.261800438165664673e-02 8.735193312168121338e-02 4.199098050594329834e-02 7.057604193687438965e-02
8.198000000000000000e+03 2.719540023803710938e+01 2.239802169799804688e+01 4.620921611785888672e-02 9.254422783851623535e-02 4.162603244185447693e-02 6.955284625291824341e-02
8.199000000000000000e+03 7.323554992675781250e+01 -1.435084438323974609e+01 1.272241305559873581e-02 6.803933143615722656e+00 2.044996738433837891e+00 2.405731678009033203e-01
8.200000000000000000e+03 1.013466930389404297e+01 5.058160781860351562e+00 2.885755002498626709e-01 -5.327675864100456238e-02 7.058961689472198486e-02 -6.196883693337440491e-02
8.201000000000000000e+03 2.844077873229980469e+01 2.311195755004882812e+01 4.652272537350654602e-02 8.780761063098907471e-02 4.029910266399383545e-02 6.824094057083129883e-02
8.202000000000000000e+03 3.117520332336425781e+01 1.496166944503784180e+00 -7.076677680015563965e-01 -6.338875293731689453e-01 -4.024665951728820801e-01 -7.826254516839981079e-02
8.203000000000000000e+03 2.674137878417968750e+01 2.021392440795898438e+01 6.187392026185989380e-02 9.628601372241973877e-02 4.744797945022583008e-02 7.795327901840209961e-02
8.204000000000000000e+03 2.676094245910644531e+01 2.022414398193359375e+01 6.325265765190124512e-02 9.651244431734085083e-02 4.792952910065650940e-02 7.771027088165283203e-02
8.205000000000000000e+03 2.676869583129882812e+01 2.025224494934082031e+01 6.072853878140449524e-02 9.674848616123199463e-02 4.724310711026191711e-02 7.781163603067398071e-02
8.206000000000000000e+03 2.673557853698730469e+01 2.024750518798828125e+01 6.084617972373962402e-02 9.620469063520431519e-02 4.711525887250900269e-02 7.815612852573394775e-02
8.207000000000000000e+03 2.785955047607421875e+01 1.397595286369323730e+00 -1.272242903709411621e+00 -5.788197517395019531e-01 -5.553188323974609375e-01 -2.887878417968750000e-01
8.208000000000000000e+03 8.638913154602050781e+00 -9.629258155822753906e+00 -1.249397620558738708e-01 -4.232164621353149414e-01 -1.644468754529953003e-01 -5.344250202178955078e-01
8.209000000000000000e+03 6.701264953613281250e+01 2.965285110473632812e+01 -5.756857991218566895e-01 9.790688514709472656e+00 2.764500856399536133e+00 3.374511718750000000e+00
8.210000000000000000e+03 6.343296813964843750e+01 2.838996315002441406e+01 4.181846678256988525e-01 3.364765167236328125e+00 1.134884953498840332e+00 2.117002248764038086e+00
8.211000000000000000e+03 6.578716278076171875e+01 2.919315528869628906e+01 5.067984387278556824e-02 6.618958950042724609e+00 2.000891685485839844e+00 3.354216337203979492e+00
8.212000000000000000e+03 6.628688812255859375e+01 2.924396514892578125e+01 -2.286107093095779419e-01 7.796206951141357422e+00 2.270278930664062500e+00 3.437050580978393555e+00
8.213000000000000000e+03 3.288790512084960938e+01 -2.877325773239135742e+00 4.187853634357452393e-01 -5.664140582084655762e-01 -4.428861662745475769e-02 3.000070340931415558e-02
8.214000000000000000e+03 2.017975044250488281e+01 -2.409477996826171875e+01 2.437159419059753418e-01 2.958096936345100403e-02 8.198907226324081421e-02 -3.585236668586730957e-01
8.215000000000000000e+03 8.177057266235351562e+00 -8.429616928100585938e+00 -1.849631369113922119e-01 -3.482837080955505371e-01 -1.599740535020828247e-01 -5.011562108993530273e-01
8.216000000000000000e+03 8.020591735839843750e+00 -9.200013160705566406e+00 -1.247503906488418579e-01 -3.825426995754241943e-01 -1.521879285573959351e-01 -4.920048415660858154e-01
8.217000000000000000e+03 2.430438804626464844e+01 1.936359786987304688e+01 5.635235086083412170e-02 1.069975271821022034e-01 4.900496453046798706e-02 7.906343042850494385e-02
8.218000000000000000e+03 3.454727935791015625e+01 6.686069965362548828e+00 -9.956963062286376953e-01 -7.952080965042114258e-01 -5.372713208198547363e-01 -7.392742633819580078e-01
8.219000000000000000e+03 6.676746368408203125e+01 2.917984771728515625e+01 -5.672723650932312012e-01 8.861333847045898438e+00 2.488218545913696289e+00 3.150001525878906250e+00
8.220000000000000000e+03 6.647037506103515625e+01 2.896222305297851562e+01 -4.473473131656646729e-01 8.124711990356445312e+00 2.303209543228149414e+00 3.147644758224487305e+00
8.221000000000000000e+03 1.052557563781738281e+01 -7.883133888244628906e+00 -2.756521999835968018e-01 -3.992764651775360107e-01 -2.024785876274108887e-01 -6.414585113525390625e-01
8.222000000000000000e+03 6.616311645507812500e+01 2.879385566711425781e+01 -3.158904612064361572e-01 7.498334407806396484e+00 2.154733180999755859e+00 3.144175767898559570e+00
8.223000000000000000e+03 2.642189025878906250e+01 2.550097465515136719e+01 2.961499616503715515e-02 8.823099732398986816e-02 3.535379841923713684e-02 5.583987385034561157e-02
8.224000000000000000e+03 6.749259185791015625e+01 2.961696815490722656e+01 -8.817075490951538086e-01 1.074340343475341797e+01 2.958508729934692383e+00 2.896444797515869141e+00
8.225000000000000000e+03 1.412228488922119141e+01 -1.899365615844726562e+01 2.206515371799468994e-01 -4.908665120601654053e-01 -8.106449991464614868e-02 -4.211785495281219482e-01
8.226000000000000000e+03 1.530807018280029297e+01 -1.868145179748535156e+01 2.385627329349517822e-01 -4.024500250816345215e-01 -4.916618764400482178e-02 -4.065703451633453369e-01
8.227000000000000000e+03 1.097965240478515625e+01 6.722356796264648438e+00 1.600250899791717529e-01 1.648770868778228760e-01 9.747064858675003052e-02 -9.162423759698867798e-02
8.228000000000000000e+03 7.180142211914062500e+01 -2.315720939636230469e+01 1.829751953482627869e-02 6.315848350524902344e+00 1.900243759155273438e+00 2.357980608940124512e-01
8.229000000000000000e+03 4.152066040039062500e+01 1.849787902832031250e+01 -9.989262819290161133e-01 -1.024135828018188477e+00 -6.069186329841613770e-01 -1.128379583358764648e+00
8.230000000000000000e+03 6.560324096679687500e+01 -1.950712203979492188e+01 4.490233957767486572e-02 5.179499626159667969e+00 1.567320585250854492e+00 3.137964010238647461e-01
8.231000000000000000e+03 6.712337493896484375e+01 2.927171134948730469e+01 -7.413870692253112793e-01 9.518671989440917969e+00 2.633185625076293945e+00 3.061758518218994141e+00
8.232000000000000000e+03 6.725507354736328125e+01 2.886496353149414062e+01 -8.932458758354187012e-01 9.653886795043945312e+00 2.628192186355590820e+00 2.729855060577392578e+00
8.233000000000000000e+03 3.122970390319824219e+01 2.579998207092285156e+01 4.402176663279533386e-02 7.750186324119567871e-02 3.645708784461021423e-02 6.183196231722831726e-02
8.234000000000000000e+03 3.420016479492187500e+01 6.712215423583984375e+00 -1.036286234855651855e+00 -8.371783494949340820e-01 -5.620393753051757812e-01 -7.772379517555236816e-01
8.235000000000000000e+03 1.488828277587890625e+01 1.064624881744384766e+01 5.494786426424980164e-02 2.247236073017120361e-01 8.390144258737564087e-02 8.420272916555404663e-02
8.236000000000000000e+03 3.087900161743164062e+01 2.165813207626342773e+00 -1.005977153778076172e+00 -6.707527637481689453e-01 -5.030189752578735352e-01 -1.877999454736709595e-01
8.237000000000000000e+03 6.698207855224609375e+01 2.877620315551757812e+01 -7.566564083099365234e-01 9.118640899658203125e+00 2.508595466613769531e+00 2.818599224090576172e+00
8.238000000000000000e+03 2.079762840270996094e+01 1.346908760070800781e+01 9.445250034332275391e-02 1.418086141347885132e-01 7.087833434343338013e-02 1.144058927893638611e-01
8.239000000000000000e+03 2.078901100158691406e+01 1.302523803710937500e+01 9.951440244913101196e-02 1.433827280998229980e-01 7.286913692951202393e-02 1.183829382061958313e-01
8.240000000000000000e+03 4.862166213989257812e+01 2.632797622680664062e+01 -1.154718041419982910e+00 -8.432852625846862793e-01 -5.994009971618652344e-01 -1.044970393180847168e+00
8.241000000000000000e+03 3.421825790405273438e+01 1.449990987777709961e+00 -3.944725096225738525e-01 -5.234640836715698242e-01 -2.753809690475463867e-01 -4.929313436150550842e-02
8.242000000000000000e+03 4.673774337768554688e+01 -1.594887351989746094e+01 1.863799691200256348e-01 1.325106024742126465e+00 4.534457921981811523e-01 5.772044137120246887e-02
8.243000000000000000e+03 1.623924636840820312e+01 1.108478736877441406e+01 6.776868551969528198e-02 2.047787606716156006e-01 8.176423609256744385e-02 1.061114892363548279e-01
8.244000000000000000e+03 3.504605865478515625e+01 5.984063625335693359e+00 -8.933701515197753906e-01 -6.950801014900207520e-01 -4.765350818634033203e-01 -5.963661074638366699e-01
8.245000000000000000e+03 1.601084709167480469e+01 -1.724756240844726562e+01 2.533946633338928223e-01 -3.802572786808013916e-01 -3.805879130959510803e-02 -4.022479355335235596e-01
8.246000000000000000e+03 4.531595611572265625e+01 -1.280203723907470703e+01 3.048066496849060059e-01 1.006238698959350586e+00 3.933136165142059326e-01 4.790050908923149109e-02
8.247000000000000000e+03 4.137041854858398438e+01 1.968038177490234375e+01 -1.078991889953613281e+00 -1.143290877342224121e+00 -6.666848063468933105e-01 -1.222270965576171875e+00
8.248000000000000000e+03 2.424346542358398438e+01 1.991848182678222656e+01 5.139643326401710510e-02 1.057638227939605713e-01 4.714807868003845215e-02 7.569573819637298584e-02
8.249000000000000000e+03 1.786939430236816406e+01 2.261528015136718750e+01 6.270326208323240280e-03 9.047082066535949707e-02 2.902234345674514771e-02 3.428392484784126282e-02
8.250000000000000000e+03 3.882677459716796875e+01 -5.171971321105957031e+00 4.725359380245208740e-01 -1.228427365422248840e-01 1.049079596996307373e-01 6.033940985798835754e-02
8.251000000000000000e+03 1.702001762390136719e+01 1.164309597015380859e+01 7.118587940931320190e-02 1.900168210268020630e-01 7.836081087589263916e-02 1.097605824470520020e-01
8.252000000000000000e+03 1.729524040222167969e+01 1.149899482727050781e+01 7.893127202987670898e-02 1.868713349103927612e-01 7.974078506231307983e-02 1.168474704027175903e-01
8.253000000000000000e+03 5.723263931274414062e+01 -1.287500381469726562e+01 1.647338867187500000e-01 3.431048870086669922e+00 1.078734874725341797e+00 3.188748359680175781e-01
8.254000000000000000e+03 6.761084747314453125e+01 -1.794284439086914062e+01 3.940386697649955750e-02 5.616642951965332031e+00 1.696814060211181641e+00 3.214413225650787354e-01
8.255000000000000000e+03 7.142719268798828125e+01 3.072803878784179688e+01 8.074271678924560547e-01 1.185577774047851562e+01 3.798961400985717773e+00 -1.721379756927490234e+00
8.256000000000000000e+03 6.581617736816406250e+01 2.879368972778320312e+01 -9.053280949592590332e-02 6.745077610015869141e+00 1.996363401412963867e+00 3.179111242294311523e+00
8.257000000000000000e+03 2.008637046813964844e+01 1.361732578277587891e+01 8.443731814622879028e-02 1.450918465852737427e-01 6.885875016450881958e-02 1.097941994667053223e-01
8.258000000000000000e+03 3.412839889526367188e+01 9.374202489852905273e-01 -3.013312220573425293e-01 -5.436367392539978027e-01 -2.534903883934020996e-01 -1.935838349163532257e-02
8.259000000000000000e+03 3.518827056884765625e+01 6.466320991516113281e+00 -8.990474343299865723e-01 -7.268511056900024414e-01 -4.877695441246032715e-01 -6.419855356216430664e-01
8.260000000000000000e+03 3.458359146118164062e+01 2.684000492095947266e+00 -5.923290848731994629e-01 -5.339562892913818359e-01 -3.378856182098388672e-01 -1.812083274126052856e-01
8.261000000000000000e+03 2.448993873596191406e+01 2.015848731994628906e+01 5.067975446581840515e-02 1.046034917235374451e-01 4.658497497439384460e-02 7.480429112911224365e-02
8.262000000000000000e+03 6.744047546386718750e+01 2.791008949279785156e+01 -1.045085906982421875e+00 9.264509201049804688e+00 2.465826988220214844e+00 2.184970140457153320e+00
8.263000000000000000e+03 6.991407775878906250e+01 -6.944650650024414062e+00 5.490113794803619385e-02 6.278295516967773438e+00 1.899959087371826172e+00 3.778957426548004150e-01
8.264000000000000000e+03 9.165819168090820312e+00 1.090541839599609375e+01 5.761465057730674744e-02 4.482236877083778381e-02 3.073110617697238922e-02 -2.448241040110588074e-02
8.265000000000000000e+03 7.167150115966796875e+01 2.614357757568359375e+01 -1.100885629653930664e+00 9.889365196228027344e+00 2.636543750762939453e+00 -5.606024265289306641e-01
8.266000000000000000e+03 2.113586044311523438e+01 1.530235958099365234e+01 7.374240458011627197e-02 1.333395689725875854e-01 6.212459132075309753e-02 9.763070940971374512e-02
8.267000000000000000e+03 3.849377822875976562e+01 -3.385706186294555664e+00 3.880029320716857910e-01 -1.776602715253829956e-01 6.310279667377471924e-02 7.779985666275024414e-02
8.268000000000000000e+03 6.869428253173828125e+01 -1.476878261566162109e+01 3.953786939382553101e-02 5.838835716247558594e+00 1.763512134552001953e+00 3.219827413558959961e-01
8.269000000000000000e+03 3.654455566406250000e+01 1.137439441680908203e+01 -1.017915606498718262e+00 -1.055419802665710449e+00 -6.220005750656127930e-01 -9.802608489990234375e-01
8.270000000000000000e+03 3.500408172607421875e+01 2.612471818923950195e+00 -5.204536318778991699e-01 -5.030810236930847168e-01 -3.070604205131530762e-01 -1.538713276386260986e-01
8.271000000000000000e+03 6.959099578857421875e+01 2.857773971557617188e+01 -1.220817208290100098e+00 1.154736900329589844e+01 3.097965478897094727e+00 2.947964072227478027e-01
8.272000000000000000e+03 2.068085479736328125e+01 1.473900413513183594e+01 7.666988670825958252e-02 1.377918422222137451e-01 6.433852016925811768e-02 1.007643938064575195e-01
8.273000000000000000e+03 7.067394256591796875e+01 2.679340362548828125e+01 -1.230619072914123535e+00 1.031260681152343750e+01 2.724596261978149414e+00 -1.866091638803482056e-01
8.274000000000000000e+03 3.534849548339843750e+01 1.424308180809020996e+00 -2.878095507621765137e-01 -4.674319624900817871e-01 -2.265724539756774902e-01 -4.165559634566307068e-02
8.275000000000000000e+03 3.592984008789062500e+01 1.295875787734985352e+00 -2.322612255811691284e-01 -4.405459463596343994e-01 -2.018421441316604614e-01 -3.453889489173889160e-02
8.276000000000000000e+03 4.722669219970703125e+01 2.406020736694335938e+01 -1.097346186637878418e+00 -7.946825027465820312e-01 -5.676085948944091797e-01 -9.815095067024230957e-01
8.277000000000000000e+03 6.714044952392578125e+01 2.770944404602050781e+01 -9.393544197082519531e-01 8.775448799133300781e+00 2.350828409194946289e+00 2.282012224197387695e+00
8.278000000000000000e+03 4.792093276977539062e+01 2.453798294067382812e+01 -1.074151039123535156e+00 -7.350956201553344727e-01 -5.427740216255187988e-01 -9.569284915924072266e-01
8.279000000000000000e+03 2.061244201660156250e+01 1.794256019592285156e+01 4.353889822959899902e-02 1.219113469123840332e-01 4.963507130742073059e-02 7.488207519054412842e-02
8.280000000000000000e+03 1.572867488861083984e+01 1.275234794616699219e+01 4.360691830515861511e-02 1.771568059921264648e-01 6.622911244630813599e-02 7.730439305305480957e-02
8.281000000000000000e+03 8.076700210571289062e+00 1.277280521392822266e+01 3.379559889435768127e-02 5.973181221634149551e-03 1.193063426762819290e-02 -2.132533304393291473e-02
8.282000000000000000e+03 3.515891647338867188e+01 1.490071564912796021e-01 -9.076010435819625854e-02 -4.761164486408233643e-01 -1.700629740953445435e-01 3.092580847442150116e-02
8.283000000000000000e+03 5.528335189819335938e+01 -9.754609107971191406e+00 2.247832268476486206e-01 2.942921638488769531e+00 9.503114819526672363e-01 3.147809207439422607e-01
8.284000000000000000e+03 5.120193481445312500e+01 -1.212566089630126953e+01 2.378164231777191162e-01 2.136852264404296875e+00 7.124006152153015137e-01 1.964976340532302856e-01
8.285000000000000000e+03 1.060646820068359375e+01 1.734807205200195312e+01 1.009383238852024078e-03 5.089339241385459900e-02 1.557083241641521454e-02 -5.917258094996213913e-03
8.286000000000000000e+03 6.010831832885742188e+01 -9.584819793701171875e+00 1.601161807775497437e-01 4.011252880096435547e+00 1.251410722732543945e+00 3.974753022193908691e-01
8.287000000000000000e+03 1.179906654357910156e+01 1.644759368896484375e+01 3.789712442085146904e-03 8.109588921070098877e-02 2.546568214893341064e-02 4.071007017046213150e-03
8.288000000000000000e+03 2.304174423217773438e+01 1.999374961853027344e+01 4.462756961584091187e-02 1.083153113722801208e-01 4.588286206126213074e-02 7.199070602655410767e-02
8.289000000000000000e+03 4.820241546630859375e+01 2.466335868835449219e+01 -1.058866143226623535e+00 -6.985956430435180664e-01 -5.272385478019714355e-01 -9.364510774612426758e-01
8.290000000000000000e+03 6.576602935791015625e+01 2.818614387512207031e+01 -2.398620247840881348e-01 6.722252845764160156e+00 1.944717288017272949e+00 2.857682228088378906e+00
8.291000000000000000e+03 2.344086456298828125e+01 2.008020210266113281e+01 4.673279449343681335e-02 1.072461009025573730e-01 4.619366675615310669e-02 7.283616811037063599e-02
8.292000000000000000e+03 7.043906402587890625e+01 2.718399620056152344e+01 -1.233938217163085938e+00 1.050847530364990234e+01 2.782361268997192383e+00 -1.383900493383407593e-01
8.293000000000000000e+03 6.864050292968750000e+01 -1.057254791259765625e+01 6.659817695617675781e-02 5.915333747863769531e+00 1.794579505920410156e+00 3.607695400714874268e-01
8.294000000000000000e+03 6.770743560791015625e+01 -9.891389846801757812e+00 7.119826972484588623e-02 5.695271015167236328e+00 1.729940772056579590e+00 3.748068809509277344e-01
8.295000000000000000e+03 6.746547698974609375e+01 -7.101044654846191406e+00 8.098294585943222046e-02 5.680575847625732422e+00 1.728467702865600586e+00 4.156667590141296387e-01
8.296000000000000000e+03 3.521804809570312500e+01 -1.953049898147583008e-01 -1.707559078931808472e-02 -4.766717851161956787e-01 -1.481242179870605469e-01 4.031313210725784302e-02
8.297000000000000000e+03 3.586808776855468750e+01 8.588068187236785889e-02 -4.180188477039337158e-02 -4.332607090473175049e-01 -1.425187736749649048e-01 3.079109080135822296e-02
8.298000000000000000e+03 3.558349990844726562e+01 -2.757680714130401611e-01 -1.859183795750141144e-02 -4.551585316658020020e-01 -1.421251147985458374e-01 5.607682466506958008e-02
8.299000000000000000e+03 5.721802902221679688e+01 2.672562217712402344e+01 -3.185923993587493896e-01 1.043872952461242676e+00 2.175841629505157471e-01 1.374265528284013271e-03
8.300000000000000000e+03 6.693453979492187500e+01 2.727935028076171875e+01 -8.852226734161376953e-01 8.264820098876953125e+00 2.213879108428955078e+00 2.216721773147583008e+00
8.301000000000000000e+03 2.068866539001464844e+01 2.003572082519531250e+01 2.970686554908752441e-02 1.115392446517944336e-01 4.237383231520652771e-02 6.205822899937629700e-02
8.302000000000000000e+03 4.313454055786132812e+01 2.005079078674316406e+01 -9.990226030349731445e-01 -9.932399988174438477e-01 -5.976787805557250977e-01 -1.071776747703552246e+00
8.303000000000000000e+03 1.568573284149169922e+01 1.417702293395996094e+01 3.367458283901214600e-02 1.559751331806182861e-01 5.689491331577301025e-02 6.315582990646362305e-02
8.304000000000000000e+03 1.326617717742919922e+01 1.218575668334960938e+01 2.934610284864902496e-02 1.683127135038375854e-01 5.929764360189437866e-02 3.321002796292304993e-02
8.305000000000000000e+03 5.498780441284179688e+01 2.543367195129394531e+01 -4.808399379253387451e-01 7.388731837272644043e-01 7.740996778011322021e-02 -1.796619296073913574e-01
8.306000000000000000e+03 5.513440322875976562e+01 2.606396865844726562e+01 -5.306888222694396973e-01 6.906117200851440430e-01 4.797687008976936340e-02 -2.318686991930007935e-01
8.307000000000000000e+03 1.139706325531005859e+01 1.590556144714355469e+01 6.398641038686037064e-03 7.911571115255355835e-02 2.565430663526058197e-02 -1.656905078561976552e-04
8.308000000000000000e+03 1.183687973022460938e+01 1.549942016601562500e+01 8.167606778442859650e-03 9.231067448854446411e-02 3.014348447322845459e-02 6.163470912724733353e-03
8.309000000000000000e+03 4.288742065429687500e+01 1.976637458801269531e+01 -9.934285879135131836e-01 -9.996295571327209473e-01 -5.979174375534057617e-01 -1.083166599273681641e+00
8.310000000000000000e+03 4.582801818847656250e+01 -3.731314659118652344e+00 3.412986099720001221e-01 8.788226246833801270e-01 3.660363554954528809e-01 1.882288753986358643e-01
8.311000000000000000e+03 6.487315368652343750e+01 2.570014381408691406e+01 -3.392058908939361572e-01 5.628295898437500000e+00 1.586727023124694824e+00 1.959710717201232910e+00
8.312000000000000000e+03 4.313878250122070312e+01 1.657087516784667969e+01 -7.733836174011230469e-01 -6.408376097679138184e-01 -4.242663681507110596e-01 -8.180267214775085449e-01
8.313000000000000000e+03 3.550415802001953125e+01 3.671814203262329102e-01 -1.077443435788154602e-01 -4.635414481163024902e-01 -1.713857352733612061e-01 2.117337845265865326e-02
8.314000000000000000e+03 4.645237731933593750e+01 -3.683349370956420898e+00 3.391204178333282471e-01 9.950218796730041504e-01 4.002426862716674805e-01 1.934068799018859863e-01
8.315000000000000000e+03 6.658939361572265625e+01 -7.727121829986572266e+00 9.092704951763153076e-02 5.461426258087158203e+00 1.665706038475036621e+00 4.202864766120910645e-01
8.316000000000000000e+03 1.475250816345214844e+01 1.892717170715332031e+01 4.137921612709760666e-03 9.581519663333892822e-02 2.998593635857105255e-02 2.531099505722522736e-02
8.317000000000000000e+03 5.436978149414062500e+01 2.500218963623046875e+01 -5.103665590286254883e-01 6.557738184928894043e-01 4.362216591835021973e-02 -2.072057574987411499e-01
8.318000000000000000e+03 4.930818939208984375e+01 2.503086853027343750e+01 -9.717318415641784668e-01 -5.246665477752685547e-01 -4.489195048809051514e-01 -8.228712677955627441e-01
8.319000000000000000e+03 1.943082809448242188e+01 1.563489818572998047e+01 5.508914217352867126e-02 1.375908702611923218e-01 5.780400335788726807e-02 8.644226193428039551e-02
8.320000000000000000e+03 3.932583999633789062e+01 -6.395957469940185547e-01 1.527249366044998169e-01 -1.084799990057945251e-01 1.327348314225673676e-02 7.599703967571258545e-02
8.321000000000000000e+03 1.920448112487792969e+01 1.620246696472167969e+01 4.762005433440208435e-02 1.348360180854797363e-01 5.473681911826133728e-02 7.959672808647155762e-02
8.322000000000000000e+03 1.148673725128173828e+01 1.506679725646972656e+01 1.027891039848327637e-02 9.221304953098297119e-02 3.074758686125278473e-02 9.603115613572299480e-04
8.323000000000000000e+03 1.219561290740966797e+01 1.506386566162109375e+01 1.210105977952480316e-02 1.029966846108436584e-01 3.452932089567184448e-02 1.101757958531379700e-02
8.324000000000000000e+03 3.819809341430664062e+01 1.255722522735595703e+01 -9.388219118118286133e-01 -9.546336531639099121e-01 -5.680366754531860352e-01 -9.230023026466369629e-01
8.325000000000000000e+03 4.339288330078125000e+01 1.789645576477050781e+01 -8.253551721572875977e-01 -7.408196330070495605e-01 -4.698524475097656250e-01 -8.956995010375976562e-01
8.326000000000000000e+03 4.724108123779296875e+01 -2.951423406600952148e+00 3.113211989402770996e-01 1.141388058662414551e+00 4.358127713203430176e-01 2.266052961349487305e-01
8.327000000000000000e+03 6.919857788085937500e+01 1.867604637145996094e+01 -6.313654780387878418e-01 7.282126426696777344e+00 1.995228290557861328e+00 4.749157130718231201e-01
8.328000000000000000e+03 3.646576690673828125e+01 1.016714096069335938e+00 -1.444589495658874512e-01 -3.872841298580169678e-01 -1.595229208469390869e-01 -8.625477552413940430e-03
8.329000000000000000e+03 3.911451339721679688e+01 4.421165943145751953e+00 -3.498043119907379150e-01 -2.526798546314239502e-01 -1.807452440261840820e-01 -1.900888681411743164e-01
8.330000000000000000e+03 6.570603942871093750e+01 2.299654769897460938e+01 -6.306429505348205566e-01 6.225358486175537109e+00 1.678414702415466309e+00 1.369009137153625488e+00
8.331000000000000000e+03 3.903468322753906250e+01 5.854964838363230228e-04 8.018863946199417114e-02 -1.470563113689422607e-01 -2.006030082702636719e-02 5.792266502976417542e-02
8.332000000000000000e+03 3.964790344238281250e+01 3.373408913612365723e-01 6.601777672767639160e-02 -9.279972314834594727e-02 -8.034584112465381622e-03 5.447733029723167419e-02
8.333000000000000000e+03 4.978040695190429688e+01 2.572112083435058594e+01 -1.001125693321228027e+00 -5.157491564750671387e-01 -4.550624489784240723e-01 -8.307398557662963867e-01
8.334000000000000000e+03 4.383898544311523438e+01 1.816044425964355469e+01 -8.091769814491271973e-01 -7.106245160102844238e-01 -4.559404551982879639e-01 -8.693761825561523438e-01
8.335000000000000000e+03 1.880343437194824219e+01 1.624198341369628906e+01 4.388032108545303345e-02 1.342153102159500122e-01 5.342869088053703308e-02 7.656193524599075317e-02
8.336000000000000000e+03 4.087265014648437500e+01 5.856052398681640625e+00 -3.360100686550140381e-01 -1.291531324386596680e-01 -1.395489722490310669e-01 -2.048075944185256958e-01
8.337000000000000000e+03 3.932118988037109375e+01 1.197561073303222656e+01 -8.202567100524902344e-01 -7.647997736930847168e-01 -4.755169451236724854e-01 -7.824207544326782227e-01
8.338000000000000000e+03 6.568038940429687500e+01 8.955475807189941406e+00 -8.513619005680084229e-02 5.448210239410400391e+00 1.608922243118286133e+00 6.204856634140014648e-01
8.339000000000000000e+03 5.780601882934570312e+01 2.432156181335449219e+01 -1.430568546056747437e-01 1.687256336212158203e+00 4.632598161697387695e-01 4.045729339122772217e-01
8.340000000000000000e+03 3.769387435913085938e+01 1.412159633636474609e+01 -1.072992682456970215e+00 -1.177105784416198730e+00 -6.750295758247375488e-01 -1.098641395568847656e+00
8.341000000000000000e+03 3.779900741577148438e+01 1.385939598083496094e+01 -1.049011945724487305e+00 -1.133958101272583008e+00 -6.548910140991210938e-01 -1.068906426429748535e+00
8.342000000000000000e+03 1.498367500305175781e+01 1.482173442840576172e+01 2.291143126785755157e-02 1.435161381959915161e-01 4.992827400565147400e-02 4.811400547623634338e-02
8.343000000000000000e+03 5.743235015869140625e+01 2.427620506286621094e+01 -1.747800707817077637e-01 1.577006340026855469e+00 4.206678569316864014e-01 3.342878520488739014e-01
8.344000000000000000e+03 4.890599060058593750e+01 -2.539080142974853516e+00 2.942885458469390869e-01 1.451155662536621094e+00 5.236332416534423828e-01 2.750639021396636963e-01
8.345000000000000000e+03 5.578442382812500000e+01 2.480862808227539062e+01 -3.450906872749328613e-01 1.029103755950927734e+00 2.052039057016372681e-01 9.427694603800773621e-03
8.346000000000000000e+03 4.104541015625000000e+01 1.079235649108886719e+01 -6.187841296195983887e-01 -4.385037124156951904e-01 -3.171863555908203125e-01 -5.503423213958740234e-01
8.347000000000000000e+03 4.050386428833007812e+01 1.792688965797424316e-01 1.117516085505485535e-01 2.372028306126594543e-02 4.064156487584114075e-02 6.893969327211380005e-02
8.348000000000000000e+03 5.236003875732421875e+01 2.305882644653320312e+01 -5.466322898864746094e-01 4.139778316020965576e-01 -3.979633748531341553e-02 -2.827337682247161865e-01
8.349000000000000000e+03 4.494986343383789062e+01 2.004408454895019531e+01 -8.741599321365356445e-01 -7.453572750091552734e-01 -4.858551621437072754e-01 -8.829477429389953613e-01
8.350000000000000000e+03 5.693402099609375000e+01 2.387890815734863281e+01 -2.046072483062744141e-01 1.501523017883300781e+00 3.890747427940368652e-01 2.775375247001647949e-01
8.351000000000000000e+03 4.085363769531250000e+01 1.418108463287353516e+00 2.052907273173332214e-02 3.968016803264617920e-02 1.806277222931385040e-02 3.815189749002456665e-02
8.352000000000000000e+03 6.533672332763671875e+01 1.012353038787841797e+01 -1.101370304822921753e-01 5.395532131195068359e+00 1.585618615150451660e+00 6.362667679786682129e-01
8.353000000000000000e+03 5.041419982910156250e+01 2.330046653747558594e+01 -7.293968200683593750e-01 -6.785547733306884766e-02 -2.391756922006607056e-01 -5.346165895462036133e-01
8.354000000000000000e+03 4.339173507690429688e+01 -3.078469276428222656e+00 3.313587605953216553e-01 4.741222262382507324e-01 2.416442930698394775e-01 1.527234166860580444e-01
8.355000000000000000e+03 5.098143386840820312e+01 -6.892322063446044922e+00 3.004373013973236084e-01 1.961716175079345703e+00 6.786460280418395996e-01 2.599600255489349365e-01
8.356000000000000000e+03 3.909690856933593750e+01 1.336079025268554688e+01 -9.243336915969848633e-01 -9.171463251113891602e-01 -5.524439811706542969e-01 -9.100733995437622070e-01
8.357000000000000000e+03 4.134736633300781250e+01 4.253242313861846924e-01 1.020103991031646729e-01 1.131869256496429443e-01 6.455919891595840454e-02 7.882577925920486450e-02
8.358000000000000000e+03 4.978116607666015625e+01 2.174513816833496094e+01 -6.537218093872070312e-01 -2.274096012115478516e-02 -2.029388248920440674e-01 -4.779921472072601318e-01
8.359000000000000000e+03 4.190979385375976562e+01 7.885405421257019043e-01 9.370478242635726929e-02 1.844414323568344116e-01 8.344386518001556396e-02 7.820795476436614990e-02
8.360000000000000000e+03 4.703169250488281250e+01 2.136823463439941406e+01 -8.416230082511901855e-01 -5.332629680633544922e-01 -4.124658107757568359e-01 -7.542649507522583008e-01
8.361000000000000000e+03 4.072356033325195312e+01 1.409111022949218750e+01 -8.349906802177429199e-01 -7.520524263381958008e-01 -4.761129319667816162e-01 -8.258197307586669922e-01
8.362000000000000000e+03 3.942141342163085938e+01 1.343053054809570312e+01 -8.955946564674377441e-01 -8.716863393783569336e-01 -5.301842689514160156e-01 -8.847807049751281738e-01
8.363000000000000000e+03 4.410324096679687500e+01 1.797419929504394531e+01 -7.780892252922058105e-01 -6.496455073356628418e-01 -4.283204078674316406e-01 -8.255594372749328613e-01
8.364000000000000000e+03 4.305240249633789062e+01 5.942693710327148438e+00 -2.113953828811645508e-01 1.489495038986206055e-01 -1.873376592993736267e-02 -9.748137742280960083e-02
8.365000000000000000e+03 4.367554473876953125e+01 1.154936075210571289e+00 1.095594167709350586e-01 4.245948195457458496e-01 1.602462679147720337e-01 1.192483752965927124e-01
8.366000000000000000e+03 4.056492233276367188e+01 1.351110267639160156e+01 -8.089496493339538574e-01 -7.310270071029663086e-01 -4.619930088520050049e-01 -7.977166771888732910e-01
8.367000000000000000e+03 5.765537643432617188e+01 7.428290247917175293e-01 1.752270609140396118e-01 3.310476064682006836e+00 1.045710921287536621e+00 4.961774349212646484e-01
8.368000000000000000e+03 4.391829681396484375e+01 8.236372947692871094e+00 -2.914421260356903076e-01 1.545757204294204712e-01 -4.105992242693901062e-02 -1.777772009372711182e-01
8.369000000000000000e+03 4.048722839355468750e+01 1.384996509552001953e+01 -8.415670394897460938e-01 -7.600962519645690918e-01 -4.804989993572235107e-01 -8.248366713523864746e-01
8.370000000000000000e+03 4.471415710449218750e+01 1.315254020690917969e+01 -4.857160747051239014e-01 -8.845271170139312744e-02 -1.722506433725357056e-01 -4.243573248386383057e-01
8.371000000000000000e+03 5.398596954345703125e+01 2.179575920104980469e+01 -3.434032499790191650e-01 9.918002486228942871e-01 1.945191025733947754e-01 1.818578876554965973e-02
8.372000000000000000e+03 6.156495666503906250e+01 1.824099159240722656e+01 -2.133576124906539917e-01 4.045450210571289062e+00 1.149627804756164551e+00 8.927119374275207520e-01
8.373000000000000000e+03 5.860290527343750000e+01 5.459288597106933594e+00 8.734115958213806152e-02 3.449187040328979492e+00 1.060958504676818848e+00 5.616123676300048828e-01
8.374000000000000000e+03 4.250421905517578125e+01 1.875413656234741211e+00 3.883785754442214966e-02 2.394676506519317627e-01 8.349165320396423340e-02 6.526612490415573120e-02
8.375000000000000000e+03 6.528086853027343750e+01 1.736906242370605469e+01 -3.990037441253662109e-01 5.588088989257812500e+00 1.556725621223449707e+00 8.491946458816528320e-01
8.376000000000000000e+03 5.354926681518554688e+01 -4.092394113540649414e-01 2.237307727336883545e-01 2.369853019714355469e+00 7.780751585960388184e-01 3.994304835796356201e-01
8.377000000000000000e+03 4.064397811889648438e+01 1.316629028320312500e+01 -7.791138887405395508e-01 -6.819667816162109375e-01 -4.383241832256317139e-01 -7.613379359245300293e-01
8.378000000000000000e+03 4.434763717651367188e+01 1.858556747436523438e+01 -7.959709167480468750e-01 -6.770782470703125000e-01 -4.419147372245788574e-01 -8.432518839836120605e-01
8.379000000000000000e+03 5.886423873901367188e+01 -6.901264786720275879e-01 1.714220941066741943e-01 3.631150960922241211e+00 1.140771865844726562e+00 4.956552982330322266e-01
8.380000000000000000e+03 5.804789733886718750e+01 -7.589629292488098145e-01 1.791721731424331665e-01 3.433042764663696289e+00 1.083664417266845703e+00 4.824304282665252686e-01
8.381000000000000000e+03 5.803890228271484375e+01 9.796479344367980957e-02 1.780924350023269653e-01 3.410803079605102539e+00 1.076668620109558105e+00 4.996303915977478027e-01
8.382000000000000000e+03 4.542818069458007812e+01 1.939637756347656250e+01 -7.858560085296630859e-01 -6.073048710823059082e-01 -4.179482460021972656e-01 -7.827783823013305664e-01
8.383000000000000000e+03 4.614992904663085938e+01 1.977758598327636719e+01 -7.600539326667785645e-01 -5.156193971633911133e-01 -3.827019929885864258e-01 -7.278461456298828125e-01
8.384000000000000000e+03 6.428568267822265625e+01 1.606737518310546875e+01 -3.003355562686920166e-01 5.183051586151123047e+00 1.464814782142639160e+00 8.145952820777893066e-01
8.385000000000000000e+03 5.259770202636718750e+01 2.535114884376525879e-01 2.105881720781326294e-01 2.109480142593383789e+00 6.960204839706420898e-01 3.795848488807678223e-01
8.386000000000000000e+03 5.719849395751953125e+01 3.200223445892333984e+00 1.392338424921035767e-01 3.136960506439208984e+00 9.828583002090454102e-01 5.185107588768005371e-01
8.387000000000000000e+03 4.694424057006835938e+01 2.579845190048217773e+00 1.081594899296760559e-01 9.273435473442077637e-01 3.106509149074554443e-01 1.825817227363586426e-01
8.388000000000000000e+03 5.430115509033203125e+01 2.070266151428222656e+01 -2.854699194431304932e-01 1.195967555046081543e+00 2.731492817401885986e-01 1.199227944016456604e-01
8.389000000000000000e+03 5.015779876708984375e+01 1.994695281982421875e+01 -4.995770156383514404e-01 2.570299804210662842e-01 -7.276410609483718872e-02 -3.061096966266632080e-01
8.390000000000000000e+03 5.032541656494140625e+01 2.036662673950195312e+01 -5.217236280441284180e-01 2.449359893798828125e-01 -8.303629606962203979e-02 -3.177573978900909424e-01
8.391000000000000000e+03 4.502051925659179688e+01 7.748350143432617188e+00 -2.113575190305709839e-01 3.509567081928253174e-01 4.187975451350212097e-02 -8.425658196210861206e-02
8.392000000000000000e+03 6.415278625488281250e+01 1.694744300842285156e+01 -3.200196921825408936e-01 5.121962547302246094e+00 1.440582752227783203e+00 8.539379239082336426e-01
8.393000000000000000e+03 4.493608093261718750e+01 1.266624736785888672e+01 -4.575763046741485596e-01 -1.506051607429981232e-02 -1.417910456657409668e-01 -3.741749227046966553e-01
8.394000000000000000e+03 4.566458129882812500e+01 1.230618286132812500e+01 -3.931052982807159424e-01 1.345842480659484863e-01 -7.755631208419799805e-02 -2.902621030807495117e-01
8.395000000000000000e+03 6.336089324951171875e+01 1.623831176757812500e+01 -2.573812901973724365e-01 4.797297477722167969e+00 1.361974835395812988e+00 8.379582166671752930e-01
8.396000000000000000e+03 5.284095382690429688e+01 2.100819587707519531e+01 -3.847441971302032471e-01 7.865238189697265625e-01 1.205338835716247559e-01 -7.487383484840393066e-02
8.397000000000000000e+03 5.721281433105468750e+01 1.017544651031494141e+01 -5.748237948864698410e-03 2.911236047744750977e+00 8.716462850570678711e-01 5.446102619171142578e-01
8.398000000000000000e+03 6.237698745727539062e+01 1.397316074371337891e+01 -1.695367246866226196e-01 4.437382698059082031e+00 1.280353784561157227e+00 7.533932924270629883e-01
8.399000000000000000e+03 5.325730133056640625e+01 2.104719352722167969e+01 -3.599006235599517822e-01 8.731448054313659668e-01 1.539732515811920166e-01 -2.677976526319980621e-02
8.400000000000000000e+03 5.282419967651367188e+01 1.918273735046386719e+01 -3.052467107772827148e-01 9.867007136344909668e-01 2.044362127780914307e-01 3.226750344038009644e-02
8.401000000000000000e+03 4.580417251586914062e+01 4.252550125122070312e+00 2.251342870295047760e-03 6.608771681785583496e-01 1.989385634660720825e-01 9.969106316566467285e-02
8.402000000000000000e+03 5.789142608642578125e+01 1.374061775207519531e+01 -7.854176312685012817e-02 2.951322078704833984e+00 8.618340492248535156e-01 5.930496454238891602e-01
8.403000000000000000e+03 5.051661300659179688e+01 1.853722953796386719e+01 -4.036752879619598389e-01 4.854039847850799561e-01 2.451860532164573669e-02 -1.808865815401077271e-01
8.404000000000000000e+03 4.847253799438476562e+01 1.946886444091796875e+01 -5.883871316909790039e-01 -4.787402600049972534e-02 -1.908783465623855591e-01 -4.596527218818664551e-01
8.405000000000000000e+03 5.223117065429687500e+01 1.885401535034179688e+01 -3.216402828693389893e-01 8.725886940956115723e-01 1.652845144271850586e-01 -1.290326192975044250e-02
8.406000000000000000e+03 4.712687683105468750e+01 1.113951206207275391e+01 -2.612282037734985352e-01 4.808568954467773438e-01 6.588860601186752319e-02 -1.130898222327232361e-01
8.407000000000000000e+03 4.793783569335937500e+01 1.892166328430175781e+01 -5.818231701850891113e-01 -8.660793304443359375e-02 -2.005293369293212891e-01 -4.813527762889862061e-01
8.408000000000000000e+03 5.232112884521484375e+01 1.816325187683105469e+01 -2.911693751811981201e-01 9.796765446662902832e-01 2.065521627664566040e-01 3.351727128028869629e-02
8.409000000000000000e+03 4.696205520629882812e+01 7.576735019683837891e+00 -1.221527531743049622e-01 6.915940642356872559e-01 1.708323955535888672e-01 3.503770753741264343e-02
8.410000000000000000e+03 4.710866546630859375e+01 8.901166915893554688e+00 -1.669653207063674927e-01 6.348000168800354004e-01 1.403504014015197754e-01 -9.515337646007537842e-03
8.411000000000000000e+03 4.766522216796875000e+01 8.527168273925781250e+00 -1.310006529092788696e-01 7.649351358413696289e-01 1.901803612709045410e-01 4.541717842221260071e-02
8.412000000000000000e+03 5.010293960571289062e+01 1.504229736328125000e+01 -2.683923840522766113e-01 7.538310885429382324e-01 1.456316262483596802e-01 -4.606952518224716187e-02
8.413000000000000000e+03 5.095644760131835938e+01 1.474483108520507812e+01 -2.221567034721374512e-01 9.760597348213195801e-01 2.261709123849868774e-01 4.860416799783706665e-02
8.414000000000000000e+03 4.849886703491210938e+01 9.480197906494140625e+00 -1.287961751222610474e-01 8.736960291862487793e-01 2.234699577093124390e-01 5.729528889060020447e-02
8.415000000000000000e+03 5.100475692749023438e+01 1.356493186950683594e+01 -1.855958104133605957e-01 1.085536479949951172e+00 2.699822187423706055e-01 9.671750664710998535e-02
8.416000000000000000e+03 5.025708007812500000e+01 1.348637485504150391e+01 -2.137175053358078003e-01 9.338095188140869141e-01 2.160276025533676147e-01 3.488010540604591370e-02
8.417000000000000000e+03 4.971617889404296875e+01 8.671428680419921875e+00 -5.758371949195861816e-02 1.172328710556030273e+00 3.344235122203826904e-01 1.616203039884567261e-01
8.418000000000000000e+03 4.942609405517578125e+01 9.306529045104980469e+00 -9.071104228496551514e-02 1.059593915939331055e+00 2.906648516654968262e-01 1.235733628273010254e-01
8.419000000000000000e+03 5.531562805175781250e+01 1.246329879760742188e+01 -5.566029250621795654e-02 2.262985706329345703e+00 6.621976494789123535e-01 4.415214061737060547e-01
8.420000000000000000e+03 5.443956375122070312e+01 1.183526134490966797e+01 -5.336823686957359314e-02 2.068694829940795898e+00 6.045979857444763184e-01 3.909051716327667236e-01
8.421000000000000000e+03 5.452431869506835938e+01 1.271552848815917969e+01 -7.413785904645919800e-02 2.031794309616088867e+00 5.872969627380371094e-01 3.809452056884765625e-01
8.422000000000000000e+03 5.073963165283203125e+01 1.104442596435546875e+01 -1.076939553022384644e-01 1.238905072212219238e+00 3.393633365631103516e-01 1.548067182302474976e-01
8.423000000000000000e+03 5.151697540283203125e+01 1.082308292388916016e+01 -7.781596481800079346e-02 1.422978758811950684e+00 4.035488367080688477e-01 2.179467380046844482e-01
8.424000000000000000e+03 5.190053558349609375e+01 1.406418895721435547e+01 -1.700169593095779419e-01 1.253203392028808594e+00 3.249559104442596436e-01 1.548413783311843872e-01
8.425000000000000000e+03 5.230079269409179688e+01 1.581978225708007812e+01 -2.121038734912872314e-01 1.196621656417846680e+00 2.953553497791290283e-01 1.269140392541885376e-01
8.426000000000000000e+03 5.141846466064453125e+01 1.392593097686767578e+01 -1.823111772537231445e-01 1.151771545410156250e+00 2.908381223678588867e-01 1.136126220226287842e-01
8.427000000000000000e+03 5.280046844482421875e+01 1.579439735412597656e+01 -1.981746703386306763e-01 1.317260146141052246e+00 3.357256352901458740e-01 1.759609133005142212e-01
8.428000000000000000e+03 5.250669097900390625e+01 1.402569103240966797e+01 -1.503043621778488159e-01 1.406538009643554688e+00 3.768700957298278809e-01 2.005674093961715698e-01
8.429000000000000000e+03 5.226604461669921875e+01 1.206522560119628906e+01 -1.002841293811798096e-01 1.494425058364868164e+00 4.182422757148742676e-01 2.374298274517059326e-01
8.430000000000000000e+03 5.284381866455078125e+01 1.534999561309814453e+01 -1.784225553274154663e-01 1.371219754219055176e+00 3.578391671180725098e-01 1.942989826202392578e-01
8.431000000000000000e+03 2.584260368347167969e+01 7.212127685546875000e+00 -6.398159980773925781e+00 -3.404482126235961914e+00 -2.940792560577392578e+00 -4.871904850006103516e+00
8.432000000000000000e+03 2.572043228149414062e+01 7.138077259063720703e+00 -6.612715721130371094e+00 -3.253023147583007812e+00 -2.959721565246582031e+00 -4.552125930786132812e+00
8.433000000000000000e+03 2.634960937500000000e+01 7.597590446472167969e+00 -6.043071269989013672e+00 -3.684975147247314453e+00 -2.918413877487182617e+00 -4.816691398620605469e+00
8.434000000000000000e+03 2.616375732421875000e+01 7.453528404235839844e+00 -6.780398845672607422e+00 -4.225908279418945312e+00 -3.301892280578613281e+00 -5.027916908264160156e+00
8.435000000000000000e+03 2.604857063293457031e+01 7.368948459625244141e+00 -5.119040966033935547e+00 -3.012521743774414062e+00 -2.439468860626220703e+00 -4.689728260040283203e+00
8.436000000000000000e+03 2.604848098754882812e+01 7.351891517639160156e+00 -6.011062145233154297e+00 -3.301050901412963867e+00 -2.793633937835693359e+00 -5.025091171264648438e+00
8.437000000000000000e+03 2.595682525634765625e+01 7.306581020355224609e+00 -7.822262287139892578e+00 -4.101163387298583984e+00 -3.577027797698974609e+00 -4.917489528656005859e+00
8.438000000000000000e+03 2.575144386291503906e+01 7.166223526000976562e+00 -6.612385749816894531e+00 -3.318955898284912109e+00 -2.979402542114257812e+00 -4.661955356597900391e+00
8.439000000000000000e+03 2.577326011657714844e+01 7.178963184356689453e+00 -6.466332435607910156e+00 -3.031779527664184570e+00 -2.849433660507202148e+00 -4.035978317260742188e+00
8.440000000000000000e+03 2.584219551086425781e+01 7.227824687957763672e+00 -6.435980796813964844e+00 -3.322033643722534180e+00 -2.927404403686523438e+00 -4.950356483459472656e+00
8.441000000000000000e+03 2.585145950317382812e+01 7.226785659790039062e+00 -6.397275924682617188e+00 -3.476883649826049805e+00 -2.962247848510742188e+00 -5.198698997497558594e+00
8.442000000000000000e+03 2.605788612365722656e+01 7.388123035430908203e+00 -6.341766834259033203e+00 -3.669039964675903320e+00 -3.003242015838623047e+00 -4.881610393524169922e+00
8.443000000000000000e+03 1.440431118011474609e+01 9.632363915443420410e-01 3.301501035690307617e+00 2.471701145172119141e+00 1.731960654258728027e+00 -2.022259950637817383e+00
8.444000000000000000e+03 1.114653110504150391e+01 1.993262022733688354e-01 -1.780071020126342773e+00 -1.499468535184860229e-01 -5.790053606033325195e-01 5.576829910278320312e-01
8.445000000000000000e+03 1.121876430511474609e+01 9.378392100334167480e-01 -7.504493594169616699e-01 -3.892572224140167236e-01 -3.419119715690612793e-01 6.555030941963195801e-01
8.446000000000000000e+03 1.040455722808837891e+01 3.265222907066345215e-01 -1.403401017189025879e+00 -1.799702793359756470e-01 -4.750113785266876221e-01 3.900645673274993896e-01
8.447000000000000000e+03 1.188854217529296875e+01 7.071893662214279175e-02 -2.331453561782836914e+00 -2.617357671260833740e-01 -7.779567837715148926e-01 7.316369414329528809e-01
8.448000000000000000e+03 1.271423625946044922e+01 6.772393584251403809e-01 -8.927181363105773926e-01 -4.245932400226593018e-01 -3.951933979988098145e-01 9.851876497268676758e-01
8.449000000000000000e+03 1.263056278228759766e+01 -5.929099395871162415e-02 -3.008948802947998047e+00 -1.808275878429412842e-01 -9.569329023361206055e-01 8.988275527954101562e-01
8.450000000000000000e+03 1.047107124328613281e+01 1.066026568412780762e+00 -6.464561820030212402e-01 -3.045350313186645508e-01 -2.852973639965057373e-01 4.978934228420257568e-01
8.451000000000000000e+03 1.196649551391601562e+01 8.082405924797058105e-01 -7.896697521209716797e-01 -3.853343725204467773e-01 -3.525012433528900146e-01 8.069986701011657715e-01
8.452000000000000000e+03 9.729189872741699219e+00 1.127164006233215332e+00 -5.816488265991210938e-01 -2.283239066600799561e-01 -2.429918199777603149e-01 4.202594757080078125e-01
8.453000000000000000e+03 8.895327568054199219e+00 3.831142783164978027e-01 -7.191534638404846191e-01 -2.974532172083854675e-02 -2.246696352958679199e-01 1.119806468486785889e-01
8.454000000000000000e+03 8.136641502380371094e+00 3.810498118400573730e-01 -5.235062241554260254e-01 -6.473215296864509583e-03 -1.589938402175903320e-01 7.720685750246047974e-02
8.455000000000000000e+03 6.620836257934570312e+00 3.807878792285919189e-01 -2.843681871891021729e-01 -1.160809188149869442e-03 -8.565869927406311035e-02 4.303230345249176025e-02
8.456000000000000000e+03 5.863288402557373047e+00 3.777014017105102539e-01 -2.063130736351013184e-01 -7.214392535388469696e-03 -6.405823677778244019e-02 3.238874673843383789e-02
8.457000000000000000e+03 5.318059444427490234e+00 1.113148808479309082e+00 -1.501948088407516479e-01 -1.745901256799697876e-02 -5.029614642262458801e-02 7.786743342876434326e-02
8.458000000000000000e+03 4.347115039825439453e+00 3.710395395755767822e-01 -9.629623591899871826e-02 -4.153141751885414124e-03 -3.013481386005878448e-02 1.979653351008892059e-02
8.459000000000000000e+03 2.831676959991455078e+00 3.606979846954345703e-01 -2.943746559321880341e-02 -3.232892369851469994e-03 -9.801107458770275116e-03 1.100425235927104950e-02
8.460000000000000000e+03 2.076213359832763672e+00 3.580279946327209473e-01 -1.040321961045265198e-02 -1.093173283152282238e-03 -3.448917763307690620e-03 7.207506336271762848e-03
8.461000000000000000e+03 2.380638122558593750e+00 1.098027944564819336e+00 -2.985776774585247040e-02 -1.134277135133743286e-02 -1.236016210168600082e-02 2.607899345457553864e-02
8.462000000000000000e+03 1.333085298538208008e+00 3.664900958538055420e-01 -2.134899608790874481e-03 -2.586470218375325203e-03 -1.416410901583731174e-03 2.111353678628802299e-03
8.463000000000000000e+03 1.660440564155578613e+00 1.106490135192871094e+00 -1.447340939193964005e-02 -9.768122807145118713e-03 -7.272459566593170166e-03 1.568880304694175720e-02
8.464000000000000000e+03 6.547182202339172363e-01 3.947406113147735596e-01 6.270889425650238991e-04 6.956679135328158736e-05 2.089967310894280672e-04 1.056610140949487686e-03
8.465000000000000000e+03 3.519233465194702148e-01 9.575628638267517090e-01 -1.507137320004403591e-03 -1.659938949160277843e-03 -9.501228923909366131e-04 5.860106903128325939e-04
8.466000000000000000e+03 3.113171100616455078e+00 1.100697994232177734e+00 -5.080061778426170349e-02 -8.025703020393848419e-03 -1.764789596199989319e-02 3.791300207376480103e-02
8.467000000000000000e+03 3.588829517364501953e+00 3.677253723144531250e-01 -5.803259834647178650e-02 -3.808140463661402464e-04 -1.752402447164058685e-02 1.634603925049304962e-02
8.468000000000000000e+03 5.105357170104980469e+00 3.731488585472106934e-01 -1.447914093732833862e-01 -4.449785919860005379e-04 -4.357091709971427917e-02 2.621467225253582001e-02
8.469000000000000000e+03 6.053060531616210938e+00 1.117701411247253418e+00 -2.001324445009231567e-01 -1.614657789468765259e-02 -6.488370895385742188e-02 9.772605448961257935e-02
8.470000000000000000e+03 7.522262096405029297e+00 1.121038317680358887e+00 -3.352798521518707275e-01 -3.457077592611312866e-02 -1.109551861882209778e-01 1.592514514923095703e-01
8.471000000000000000e+03 7.378351211547851562e+00 3.810383677482604980e-01 -3.860803246498107910e-01 -1.283258106559514999e-02 -1.196738705039024353e-01 5.522627383470535278e-02
8.472000000000000000e+03 8.257620811462402344e+00 1.121049761772155762e+00 -4.261780977249145508e-01 -6.417714059352874756e-02 -1.471065729856491089e-01 2.118897438049316406e-01
8.473000000000000000e+03 8.993377685546875000e+00 1.123114228248596191e+00 -5.411396026611328125e-01 -1.051728427410125732e-01 -1.938937306404113770e-01 3.031483292579650879e-01
8.474000000000000000e+03 9.654070854187011719e+00 3.871639966964721680e-01 -1.050822496414184570e+00 -7.116797566413879395e-02 -3.365971446037292480e-01 2.139089852571487427e-01
8.475000000000000000e+03 6.787677288055419922e+00 1.120787858963012695e+00 -2.603558301925659180e-01 -3.024908341467380524e-02 -8.718147873878479004e-02 1.236150711774826050e-01
8.476000000000000000e+03 4.582747936248779297e+00 1.111039519309997559e+00 -1.095886006951332092e-01 -1.003403775393962860e-02 -3.588679060339927673e-02 6.264311075210571289e-02
8.477000000000000000e+03 3.847393035888671875e+00 1.107725381851196289e+00 -7.682647556066513062e-02 -1.178564969450235367e-02 -2.658363804221153259e-02 4.885051399469375610e-02
8.478000000000000000e+03 1.005004048347473145e+00 1.134740591049194336e+00 -6.102440413087606430e-03 -9.199904277920722961e-03 -4.590703174471855164e-03 6.730407942086458206e-03
8.479000000000000000e+03 9.574274063110351562e+00 -3.935540616512298584e-01 -1.601424664258956909e-01 -4.691116046160459518e-04 -4.818347468972206116e-02 -1.278264541178941727e-02
8.480000000000000000e+03 8.789978027343750000e+00 -3.986168801784515381e-01 -1.311599463224411011e-01 4.845417104661464691e-03 -3.789435699582099915e-02 -1.721841096878051758e-02
8.481000000000000000e+03 8.686211585998535156e+00 -1.138616919517517090e+00 -1.999785900115966797e-01 -8.225376717746257782e-03 -6.246118992567062378e-02 -5.815400183200836182e-02
8.482000000000000000e+03 8.006248474121093750e+00 -3.998050093650817871e-01 -9.484729170799255371e-02 -5.000264849513769150e-03 -2.995426580309867859e-02 -1.807562261819839478e-02
8.483000000000000000e+03 7.223060607910156250e+00 -3.997795581817626953e-01 -6.175259128212928772e-02 2.709928201511502266e-03 -1.771279983222484589e-02 -1.483338512480258942e-02
8.484000000000000000e+03 6.439927577972412109e+00 -4.006183743476867676e-01 -3.188493102788925171e-02 -5.052695982158184052e-03 -1.108128856867551804e-02 -1.371274422854185104e-02
8.485000000000000000e+03 5.657042503356933594e+00 -4.034312665462493896e-01 -8.514076471328735352e-03 1.436806633137166500e-03 -2.123180776834487915e-03 -8.909034542739391327e-03
8.486000000000000000e+03 4.874185085296630859e+00 -4.075828790664672852e-01 8.904075250029563904e-03 -4.033836536109447479e-03 1.461071660742163658e-03 -7.398505229502916336e-03
8.487000000000000000e+03 4.091480255126953125e+00 -4.106692969799041748e-01 1.972755044698715210e-02 -1.279019052162766457e-04 5.879894830286502838e-03 -2.571960678324103355e-03
8.488000000000000000e+03 3.310033082962036133e+00 -4.133046567440032959e-01 2.393785491585731506e-02 -2.793613821268081665e-03 6.343272514641284943e-03 -9.233109449269250035e-05
8.489000000000000000e+03 2.531398296356201172e+00 -4.163123965263366699e-01 2.155590616166591644e-02 -2.899706014432013035e-04 6.379780359566211700e-03 3.303827950730919838e-03
8.490000000000000000e+03 6.962535381317138672e-01 -1.126455783843994141e+00 1.624610158614814281e-03 4.293346311897039413e-03 1.775386976078152657e-03 5.729213356971740723e-03
8.491000000000000000e+03 3.739950358867645264e-01 -5.643373131752014160e-01 1.155590289272367954e-03 3.710278077051043510e-03 1.459760591387748718e-03 2.029702067375183105e-03
8.492000000000000000e+03 9.497249603271484375e+00 -1.133554100990295410e+00 -2.642357349395751953e-01 1.450406014919281006e-02 -7.491950690746307373e-02 -5.871264636516571045e-02
8.493000000000000000e+03 7.875741004943847656e+00 -1.139804959297180176e+00 -1.558956950902938843e-01 2.762932563200592995e-03 -4.593982920050621033e-02 -5.301186442375183105e-02
8.494000000000000000e+03 7.065812587738037109e+00 -1.139779567718505859e+00 -1.120494157075881958e-01 -1.252546068280935287e-02 -3.737246245145797729e-02 -4.811426997184753418e-02
8.495000000000000000e+03 6.255938053131103516e+00 -1.140618443489074707e+00 -7.994394004344940186e-02 -1.645555486902594566e-03 -2.447684854269027710e-02 -3.718649595975875854e-02
8.496000000000000000e+03 5.446311473846435547e+00 -1.143431305885314941e+00 -5.045059695839881897e-02 -1.213597971946001053e-02 -1.877597346901893616e-02 -3.092440403997898102e-02
8.497000000000000000e+03 4.636712551116943359e+00 -1.147582888603210449e+00 -3.044565394520759583e-02 -3.900564974173903465e-03 -1.030386518687009811e-02 -1.856470108032226562e-02
8.498000000000000000e+03 3.827266693115234375e+00 -1.150669336318969727e+00 -1.420525368303060532e-02 -1.031612697988748550e-02 -7.356414105743169785e-03 -1.209154073148965836e-02
8.499000000000000000e+03 3.019078254699707031e+00 -1.153304696083068848e+00 -3.806512337177991867e-03 -5.437353160232305527e-03 -2.773159649223089218e-03 -9.300459641963243484e-04
8.500000000000000000e+03 2.213702201843261719e+00 -1.156312346458435059e+00 2.169669140130281448e-03 -4.871723242104053497e-03 -8.106162422336637974e-04 6.209131795912981033e-03
8.501000000000000000e+03 1.420517802238464355e+00 -1.151062846183776855e+00 5.704049253836274147e-04 2.713903086259961128e-03 9.852923685684800148e-04 1.033723726868629456e-02
8.502000000000000000e+03 1.764955043792724609e+00 -4.110628962516784668e-01 1.536180265247821808e-02 3.596966562326997519e-04 4.716449882835149765e-03 4.091229289770126343e-03
8.503000000000000000e+03 1.067432165145874023e+00 -3.864558041095733643e-01 6.865157280117273331e-03 -1.157657010480761528e-03 1.712250057607889175e-03 3.762447973713278770e-03
8.504000000000000000e+03 1.107046413421630859e+01 -5.791122317314147949e-01 -3.074591457843780518e-01 -1.946266856975853443e-03 -9.282162040472030640e-02 1.782812294550240040e-03
8.505000000000000000e+03 1.172848224639892578e+01 -1.444193720817565918e+00 -5.688043236732482910e-01 -8.160616271197795868e-03 -1.730894893407821655e-01 -1.146133244037628174e-01
8.506000000000000000e+03 1.026795482635498047e+01 -1.192459702491760254e+00 -3.369205892086029053e-01 9.713385370559990406e-04 -1.007847711443901062e-01 -6.741990149021148682e-02
8.507000000000000000e+03 1.245870399475097656e+01 -1.572161674499511719e+00 -7.109826207160949707e-01 2.421367214992642403e-03 -2.125683724880218506e-01 -1.529902070760726929e-01
8.508000000000000000e+03 1.254237651824951172e+01 -8.356313705444335938e-01 -6.066307425498962402e-01 -1.257773023098707199e-02 -1.857625395059585571e-01 -3.160310909152030945e-03
8.509000000000000000e+03 1.180643558502197266e+01 -7.066720724105834961e-01 -4.292095601558685303e-01 4.543197806924581528e-03 -1.273999065160751343e-01 5.722078494727611542e-03
8.510000000000000000e+03 1.099823093414306641e+01 -1.317625284194946289e+00 -4.385310709476470947e-01 2.110097743570804596e-02 -1.252290308475494385e-01 -8.467791229486465454e-02
8.511000000000000000e+03 1.033446884155273438e+01 -4.529553353786468506e-01 -2.154887169599533081e-01 9.250155650079250336e-03 -6.187156587839126587e-02 -4.641212988644838333e-03
8.512000000000000000e+03 1.412816143035888672e+01 -9.967193007469177246e-01 -1.027656793594360352e+00 -2.071846462786197662e-02 -3.145125806331634521e-01 -7.824661582708358765e-02
8.513000000000000000e+03 1.524391746520996094e+01 -1.466321945190429688e+00 -1.571945071220397949e+00 -2.195768654346466064e-01 -5.374565720558166504e-01 -5.146973729133605957e-01
8.514000000000000000e+03 1.616965675354003906e+01 -1.725686669349670410e+00 -1.749904990196228027e+00 -4.953133761882781982e-01 -6.735655069351196289e-01 -6.703053712844848633e-01
8.515000000000000000e+03 1.574865627288818359e+01 -1.673639893531799316e+00 -1.651314735412597656e+00 -5.124502182006835938e-01 -6.491295099258422852e-01 -6.483203768730163574e-01
8.516000000000000000e+03 1.561703586578369141e+01 -9.138993620872497559e-01 -2.080807209014892578e+00 -2.259496152400970459e-01 -6.920270323753356934e-01 -2.530595362186431885e-01
8.517000000000000000e+03 1.330834674835205078e+01 -9.333403110504150391e-01 -8.087123632431030273e-01 -1.627500355243682861e-02 -2.474962174892425537e-01 -3.627316653728485107e-02
8.518000000000000000e+03 1.325672912597656250e+01 -1.671557903289794922e+00 -8.959581851959228516e-01 -6.321285665035247803e-02 -2.877513170242309570e-01 -2.122678905725479126e-01
8.519000000000000000e+03 1.414637279510498047e+01 -1.739302992820739746e+00 -1.160463333129882812e+00 -3.014085069298744202e-02 -3.571812510490417480e-01 -2.764495015144348145e-01
8.520000000000000000e+03 1.646326637268066406e+01 -1.909508228302001953e+00 -1.840396046638488770e+00 -7.816997766494750977e-01 -7.866287827491760254e-01 -8.835645318031311035e-01
8.521000000000000000e+03 1.419766807556152344e+01 -2.838388085365295410e-01 -5.677743434906005859e+00 2.137295454740524292e-01 -1.639204144477844238e+00 1.069353342056274414e+00
8.522000000000000000e+03 1.352537155151367188e+01 5.852731466293334961e-01 -3.305692672729492188e-01 -7.061477005481719971e-02 -1.203552111983299255e-01 9.327188730239868164e-01
8.523000000000000000e+03 1.342303657531738281e+01 -1.497735083103179932e-01 -4.162613868713378906e+00 -2.067813128232955933e-01 -1.310818552970886230e+00 1.058829426765441895e+00
8.524000000000000000e+03 1.515072631835937500e+01 6.366986036300659180e-01 5.284776210784912109e+00 1.328709959983825684e+00 1.984045743942260742e+00 -1.386093974113464355e+00
8.525000000000000000e+03 1.436956024169921875e+01 6.066150665283203125e-01 1.892946839332580566e+00 1.460546016693115234e+00 1.006047844886779785e+00 -4.713899195194244385e-01
8.526000000000000000e+03 2.157444953918457031e+01 4.003563880920410156e+00 -1.887002110481262207e+00 -1.168772697448730469e+00 -9.167324900627136230e-01 -1.534035205841064453e+00
8.527000000000000000e+03 2.389948272705078125e+01 5.596093177795410156e+00 -4.708896636962890625e+00 -2.273293733596801758e+00 -2.094656944274902344e+00 -3.198280811309814453e+00
8.528000000000000000e+03 2.412474632263183594e+01 4.887040615081787109e+00 1.557636380195617676e+00 -2.656941860914230347e-02 4.593200981616973877e-01 6.594664454460144043e-01
8.529000000000000000e+03 1.590177440643310547e+01 -5.061372518539428711e-01 -4.303658008575439453e+00 -2.160417437553405762e-01 -1.355909943580627441e+00 -1.298752784729003906e+00
8.530000000000000000e+03 1.952704048156738281e+01 2.294429063796997070e+00 -5.215528979897499084e-02 -8.405826687812805176e-01 -2.678213715553283691e-01 -7.106130123138427734e-01
8.531000000000000000e+03 2.090116500854492188e+01 2.502764463424682617e+00 -2.106754928827285767e-01 -2.443222850561141968e-01 -1.364993304014205933e-01 -2.676589787006378174e-01
8.532000000000000000e+03 2.118369483947753906e+01 2.726105928421020508e+00 3.172510564327239990e-01 -8.819165080785751343e-02 6.871782243251800537e-02 -4.171754419803619385e-02
8.533000000000000000e+03 2.619468307495117188e+01 6.949645519256591797e+00 -2.972058534622192383e+00 -1.802502393722534180e+00 -1.432368278503417969e+00 -2.243676900863647461e+00
8.534000000000000000e+03 2.673808860778808594e+01 7.608308792114257812e+00 -4.330848693847656250e+00 -2.666213274002075195e+00 -2.099118709564208984e+00 -3.372503519058227539e+00
8.535000000000000000e+03 2.781131172180175781e+01 8.301882743835449219e+00 -3.272549152374267578e+00 -1.087896585464477539e+00 -1.308133721351623535e+00 -2.214351654052734375e+00
8.536000000000000000e+03 2.843750381469726562e+01 8.249814033508300781e+00 -2.002725839614868164e+00 2.148291096091270447e-02 -5.943729281425476074e-01 -6.933312416076660156e-01
8.537000000000000000e+03 2.872324943542480469e+01 8.505600929260253906e+00 -2.172048568725585938e+00 -1.091764330863952637e+00 -9.791438579559326172e-01 -8.795527219772338867e-01
8.538000000000000000e+03 2.901180076599121094e+01 8.513568878173828125e+00 -1.776368975639343262e+00 -9.049655795097351074e-01 -8.044003844261169434e-01 -6.155669093132019043e-01
8.539000000000000000e+03 2.951800727844238281e+01 8.114252090454101562e+00 -7.714744806289672852e-01 -1.372019052505493164e+00 -6.430480480194091797e-01 -6.788071990013122559e-01
8.540000000000000000e+03 2.974779701232910156e+01 7.457363605499267578e+00 -6.617954373359680176e-01 -1.851781845092773438e+00 -7.540732026100158691e-01 -1.443496108055114746e+00
8.541000000000000000e+03 2.969834518432617188e+01 6.596699714660644531e+00 -1.868326187133789062e+00 -1.391623258590698242e+00 -9.779848456382751465e-01 -1.624185323715209961e+00
8.542000000000000000e+03 2.914324760437011719e+01 6.185403347015380859e+00 -2.428578138351440430e+00 -1.719260096549987793e+00 -1.244351506233215332e+00 -1.491080641746520996e+00
8.543000000000000000e+03 2.731749725341796875e+01 6.180770397186279297e+00 -3.647626638412475586e+00 -1.495290398597717285e+00 -1.542875170707702637e+00 -2.332868814468383789e+00
8.544000000000000000e+03 2.667770767211914062e+01 5.437873363494873047e+00 -3.464139461517333984e+00 -1.356495141983032227e+00 -1.446190357208251953e+00 -2.126104831695556641e+00
8.545000000000000000e+03 2.510387229919433594e+01 4.538621902465820312e+00 -3.754998207092285156e+00 -1.321682453155517578e+00 -1.523004174232482910e+00 -2.225568532943725586e+00
8.546000000000000000e+03 2.605690193176269531e+01 5.097530364990234375e+00 -3.548665761947631836e+00 -1.316231489181518555e+00 -1.459469199180603027e+00 -2.140565633773803711e+00
8.547000000000000000e+03 2.561135482788085938e+01 5.157556533813476562e+00 -3.654995441436767578e+00 -1.382652640342712402e+00 -1.511294484138488770e+00 -2.270917177200317383e+00
8.548000000000000000e+03 2.728079605102539062e+01 4.737926959991455078e+00 -2.896346330642700195e+00 -1.326025724411010742e+00 -1.266711592674255371e+00 -1.710698127746582031e+00
8.549000000000000000e+03 2.848536109924316406e+01 5.469244956970214844e+00 -2.521164655685424805e+00 -1.683788061141967773e+00 -1.261485815048217773e+00 -1.544884562492370605e+00
8.550000000000000000e+03 2.787462043762207031e+01 6.200993061065673828e+00 -3.404538869857788086e+00 -1.871976375579833984e+00 -1.582954525947570801e+00 -2.391853094100952148e+00
8.551000000000000000e+03 2.660818672180175781e+01 6.537590503692626953e+00 1.815638542175292969e+00 4.327967166900634766e-01 6.745305657386779785e-01 9.420367479324340820e-01
8.552000000000000000e+03 2.734742164611816406e+01 6.542398452758789062e+00 4.813889026641845703e+00 1.763531565666198730e+00 1.973226308822631836e+00 2.932123661041259766e+00
8.553000000000000000e+03 2.703376388549804688e+01 6.653264045715332031e+00 2.612620592117309570e+00 1.071901321411132812e+00 1.105356574058532715e+00 1.652050852775573730e+00
8.554000000000000000e+03 2.627173042297363281e+01 4.064880847930908203e+00 -3.082188129425048828e+00 -1.051106810569763184e+00 -1.239988446235656738e+00 -1.629921436309814453e+00
8.555000000000000000e+03 2.386675453186035156e+01 2.603332996368408203e+00 -3.632867097854614258e+00 -8.381159901618957520e-01 -1.341294884681701660e+00 -1.790772914886474609e+00
8.556000000000000000e+03 2.220455932617187500e+01 3.039056539535522461e+00 -5.030043601989746094e+00 -1.851736187934875488e+00 -2.064533948898315430e+00 -3.083295345306396484e+00
8.557000000000000000e+03 2.217053604125976562e+01 1.547746300697326660e+00 -3.391768455505371094e+00 -9.316699504852294922e-01 -1.297031521797180176e+00 -2.296647548675537109e+00
8.558000000000000000e+03 2.025352096557617188e+01 4.149144887924194336e-01 -1.671683549880981445e+00 -2.646486043930053711e+00 -1.295450925827026367e+00 -3.530475854873657227e+00
8.559000000000000000e+03 1.814858818054199219e+01 4.918190240859985352e-01 -8.396418690681457520e-01 -4.151924848556518555e-01 -3.764503002166748047e-01 -5.302746891975402832e-01
8.560000000000000000e+03 1.820799827575683594e+01 -8.796090483665466309e-01 -2.238170623779296875e+00 -1.559376597404479980e+00 -1.139264225959777832e+00 -1.483065247535705566e+00
8.561000000000000000e+03 2.170348358154296875e+01 2.723834276199340820e+00 -5.142308235168457031e+00 -1.977771043777465820e+00 -2.136023759841918945e+00 -3.184003829956054688e+00
8.562000000000000000e+03 2.102823257446289062e+01 2.260757684707641602e+00 -4.977960586547851562e+00 -1.974972605705261230e+00 -2.085880041122436523e+00 -3.146946668624877930e+00
8.563000000000000000e+03 1.607972335815429688e+01 -8.520542383193969727e-01 -2.430503606796264648e+00 -5.638524889945983887e-01 -8.983068466186523438e-01 -7.260837554931640625e-01
8.564000000000000000e+03 1.663420677185058594e+01 -1.785859823226928711e+00 -1.864367723464965820e+00 -6.897069215774536133e-01 -7.662224173545837402e-01 -7.497310042381286621e-01
8.565000000000000000e+03 1.890606498718261719e+01 -4.218147695064544678e-01 -2.526417493820190430e+00 -2.460634231567382812e+00 -1.496115565299987793e+00 -1.710034251213073730e+00
8.566000000000000000e+03 2.062004280090332031e+01 6.062549352645874023e-01 -2.036625862121582031e+00 -2.095757484436035156e+00 -1.239714980125427246e+00 -3.408836841583251953e+00
8.567000000000000000e+03 2.088251113891601562e+01 1.380865573883056641e+00 -3.146460294723510742e+00 -1.996692657470703125e+00 -1.542945861816406250e+00 -3.002012014389038086e+00
8.568000000000000000e+03 2.300205802917480469e+01 2.110841751098632812e+00 -3.667173147201538086e+00 -7.665938735008239746e-01 -1.330130100250244141e+00 -1.977199912071228027e+00
8.569000000000000000e+03 2.438932991027832031e+01 2.960635662078857422e+00 -3.562581777572631836e+00 -7.994640469551086426e-01 -1.308613777160644531e+00 -1.703597307205200195e+00
8.570000000000000000e+03 2.521880340576171875e+01 3.450610637664794922e+00 -3.389302015304565430e+00 -9.037322402000427246e-01 -1.287910223007202148e+00 -1.649930715560913086e+00
8.571000000000000000e+03 2.289822006225585938e+01 3.422800064086914062e+00 -4.732864856719970703e+00 -1.731020569801330566e+00 -1.939165711402893066e+00 -2.852762222290039062e+00
8.572000000000000000e+03 2.307255363464355469e+01 3.524418592453002930e+00 -4.652714729309082031e+00 -1.712607979774475098e+00 -1.909596920013427734e+00 -2.815809249877929688e+00
8.573000000000000000e+03 2.407131767272949219e+01 4.178638458251953125e+00 -4.187460899353027344e+00 -1.562079787254333496e+00 -1.724862098693847656e+00 -2.547985553741455078e+00
8.574000000000000000e+03 1.780109024047851562e+01 1.569384574890136719e+00 2.724648952484130859e+00 6.818051338195800781e-01 1.021936178207397461e+00 1.335705399513244629e+00
8.575000000000000000e+03 2.510248374938964844e+01 4.799768447875976562e+00 -3.807325124740600586e+00 -1.426125168800354004e+00 -1.570035099983215332e+00 -2.306954383850097656e+00
8.576000000000000000e+03 2.383655929565429688e+01 3.735404729843139648e+00 -4.193208694458007812e+00 -1.394558310508728027e+00 -1.676330089569091797e+00 -2.435452461242675781e+00
8.577000000000000000e+03 2.356903648376464844e+01 3.872204303741455078e+00 -4.398711681365966797e+00 -1.625991821289062500e+00 -1.807411074638366699e+00 -2.680358648300170898e+00
8.578000000000000000e+03 2.272424316406250000e+01 3.322763919830322266e+00 -4.826669692993164062e+00 -1.753653883934020996e+00 -1.974097132682800293e+00 -2.909627199172973633e+00
8.579000000000000000e+03 2.186722183227539062e+01 2.835867881774902344e+00 -5.123675823211669922e+00 -1.923509597778320312e+00 -2.114155769348144531e+00 -3.169713735580444336e+00
8.580000000000000000e+03 1.797665786743164062e+01 3.892868459224700928e-01 -7.960576415061950684e-01 -3.196830749511718750e-01 -3.347222208976745605e-01 -5.302602648735046387e-01
8.581000000000000000e+03 1.780901718139648438e+01 2.828388810157775879e-01 -8.422729969024658203e-01 -3.498902022838592529e-01 -3.576489686965942383e-01 -4.821548759937286377e-01
8.582000000000000000e+03 1.786056327819824219e+01 -7.438153028488159180e-01 -2.075731515884399414e+00 -1.028097271919250488e+00 -9.311486482620239258e-01 -1.221336483955383301e+00
8.583000000000000000e+03 1.490975666046142578e+01 -9.672126770019531250e-01 -1.300954818725585938e+00 7.036323100328445435e-02 -3.691774606704711914e-01 -6.328387558460235596e-02
8.584000000000000000e+03 1.553082847595214844e+01 -5.301201939582824707e-01 -6.367603778839111328e+00 4.675923883914947510e-01 -1.770003437995910645e+00 -8.391997963190078735e-02
8.585000000000000000e+03 2.761780357360839844e+01 7.930091857910156250e+00 -2.586971759796142578e+00 -6.730948090553283691e-01 -9.780199527740478516e-01 -1.778123974800109863e+00
8.586000000000000000e+03 2.491459465026855469e+01 6.318172931671142578e+00 -4.429029464721679688e+00 -2.579548597335815430e+00 -2.102573394775390625e+00 -3.457938671112060547e+00
8.587000000000000000e+03 2.509618377685546875e+01 5.497509956359863281e+00 2.198580980300903320e+00 8.256535530090332031e-01 9.072703719139099121e-01 1.050566315650939941e+00
8.588000000000000000e+03 2.355752754211425781e+01 5.373759746551513672e+00 -4.653727531433105469e+00 -2.057196617126464844e+00 -2.013277292251586914e+00 -3.028839111328125000e+00
8.589000000000000000e+03 2.223781585693359375e+01 4.491950511932373047e+00 -2.683401584625244141e+00 -1.375100851058959961e+00 -1.217550754547119141e+00 -1.937513113021850586e+00
8.590000000000000000e+03 2.086944961547851562e+01 3.572295188903808594e+00 -1.403911471366882324e+00 -8.755785226821899414e-01 -6.838470101356506348e-01 -1.181651234626770020e+00
8.591000000000000000e+03 2.071192550659179688e+01 3.059936761856079102e+00 -3.043338954448699951e-01 -8.956764936447143555e-01 -3.600031137466430664e-01 -8.522886633872985840e-01
8.592000000000000000e+03 2.016724014282226562e+01 3.137828350067138672e+00 -6.505815982818603516e-01 -5.980666279792785645e-01 -3.745944797992706299e-01 -6.999443769454956055e-01
8.593000000000000000e+03 2.013880538940429688e+01 2.411051511764526367e+00 -4.202025532722473145e-01 -9.079611301422119141e-01 -3.984491229057312012e-01 -8.735756278038024902e-01
8.594000000000000000e+03 1.905813980102539062e+01 1.327856063842773438e+00 -3.659338235855102539e+00 -1.319518804550170898e+00 -1.493657112121582031e+00 -2.124305486679077148e+00
8.595000000000000000e+03 1.744436645507812500e+01 1.317501544952392578e+00 3.204389333724975586e+00 7.273888587951660156e-01 1.179533481597900391e+00 1.394792914390563965e+00
8.596000000000000000e+03 1.628603553771972656e+01 8.226152062416076660e-01 5.156615257263183594e+00 4.037890136241912842e-01 1.668121218681335449e+00 1.564012646675109863e+00
8.597000000000000000e+03 1.592049598693847656e+01 7.100230455398559570e-01 5.617034435272216797e+00 7.306141257286071777e-01 1.904294490814208984e+00 9.443265795707702637e-01
8.598000000000000000e+03 1.661206626892089844e+01 8.281219750642776489e-03 -5.374142646789550781e+00 -1.158064603805541992e+00 -1.959662079811096191e+00 -2.868676185607910156e+00
8.599000000000000000e+03 1.869659805297851562e+01 1.178386449813842773e+00 -3.846813440322875977e+00 -1.664011478424072266e+00 -1.653247475624084473e+00 -2.430724382400512695e+00
8.600000000000000000e+03 1.813349723815917969e+01 1.811456799507141113e+00 2.279703617095947266e+00 5.342084169387817383e-01 8.441736102104187012e-01 1.145926594734191895e+00
8.601000000000000000e+03 1.867108726501464844e+01 1.794123888015747070e+00 4.405698776245117188e-01 -6.086829900741577148e-01 -5.043394491076469421e-02 -3.514280021190643311e-01
8.602000000000000000e+03 2.021986579895019531e+01 2.136486768722534180e+00 -1.072663664817810059e+00 -6.915851831436157227e-01 -5.292746424674987793e-01 -8.540307283401489258e-01
8.603000000000000000e+03 2.072131156921386719e+01 2.411337137222290039e+00 -3.951953649520874023e-01 -2.954437732696533203e-01 -2.071917504072189331e-01 -3.763930797576904297e-01
8.604000000000000000e+03 2.134403800964355469e+01 2.867102384567260742e+00 5.883054137229919434e-01 -6.616022437810897827e-02 1.566435545682907104e-01 6.979811191558837891e-02
8.605000000000000000e+03 2.052456855773925781e+01 3.346909999847412109e+00 -1.098057389259338379e+00 -8.087244033813476562e-01 -5.720345377922058105e-01 -9.564676880836486816e-01
8.606000000000000000e+03 2.190268898010253906e+01 3.133645534515380859e+00 1.209919214248657227e+00 2.953339815139770508e-01 4.515759646892547607e-01 5.298923254013061523e-01
8.607000000000000000e+03 2.170759963989257812e+01 3.228340387344360352e+00 8.099032640457153320e-01 -2.914664745330810547e-01 1.555310338735580444e-01 7.338076084852218628e-02
8.608000000000000000e+03 2.218294525146484375e+01 3.758147478103637695e+00 2.500579655170440674e-01 -5.033546686172485352e-01 -7.598902285099029541e-02 -3.642824292182922363e-01
8.609000000000000000e+03 2.309049415588378906e+01 3.885665655136108398e+00 2.504345655441284180e+00 7.814471125602722168e-01 9.857378005981445312e-01 1.304621934890747070e+00
8.610000000000000000e+03 2.343356513977050781e+01 4.924833297729492188e+00 -1.707223534584045410e+00 -1.326456189155578613e+00 -9.101039171218872070e-01 -1.598520040512084961e+00
8.611000000000000000e+03 2.389833259582519531e+01 4.438695907592773438e+00 3.614219665527343750e+00 1.029641389846801758e+00 1.393158316612243652e+00 1.889006853103637695e+00
8.612000000000000000e+03 2.493483924865722656e+01 5.057234764099121094e+00 4.224980831146240234e+00 1.387206435203552246e+00 1.683656096458435059e+00 2.523608684539794922e+00
8.613000000000000000e+03 2.634406471252441406e+01 5.882075309753417969e+00 4.843267917633056641e+00 1.644278883934020996e+00 1.946264028549194336e+00 2.898614883422851562e+00
8.614000000000000000e+03 2.651717948913574219e+01 6.223111629486083984e+00 3.770679235458374023e+00 1.181788325309753418e+00 1.485740303993225098e+00 2.201889991760253906e+00
8.615000000000000000e+03 2.752372932434082031e+01 6.642493247985839844e+00 4.825905323028564453e+00 1.796108961105346680e+00 1.986604213714599609e+00 2.956804037094116211e+00
8.616000000000000000e+03 2.770738792419433594e+01 6.731254100799560547e+00 4.941222190856933594e+00 1.835139513015747070e+00 2.032908439636230469e+00 2.929326295852661133e+00
8.617000000000000000e+03 2.837801170349121094e+01 8.509162902832031250e+00 -2.736043691635131836e+00 -5.781368017196655273e-01 -9.942541718482971191e-01 -1.396496057510375977e+00
8.618000000000000000e+03 2.877238655090332031e+01 8.255836486816406250e+00 -1.250786781311035156e+00 -4.544370472431182861e-01 -5.115671753883361816e-01 -2.289745807647705078e-01
8.619000000000000000e+03 2.819168090820312500e+01 8.265731811523437500e+00 -2.650911092758178711e+00 -4.597525298595428467e-01 -9.331990480422973633e-01 -1.328346371650695801e+00
8.620000000000000000e+03 2.762212753295898438e+01 6.936492919921875000e+00 3.322021722793579102e+00 1.210354685783386230e+00 1.359712958335876465e+00 1.945901393890380859e+00
8.621000000000000000e+03 2.782902908325195312e+01 6.540134429931640625e+00 -3.928553819656372070e+00 -1.751382470130920410e+00 -1.703980922698974609e+00 -2.594021797180175781e+00
8.622000000000000000e+03 2.816375541687011719e+01 6.255253791809082031e+00 -3.170098304748535156e+00 -2.191662549972534180e+00 -1.608528256416320801e+00 -2.362718105316162109e+00
8.623000000000000000e+03 2.855319404602050781e+01 6.142180919647216797e+00 -2.693710565567016602e+00 -2.221042156219482422e+00 -1.474425792694091797e+00 -1.865701556205749512e+00
8.624000000000000000e+03 2.994088172912597656e+01 7.355839729309082031e+00 -9.951919317245483398e-01 -1.714113235473632812e+00 -8.127915263175964355e-01 -1.525808930397033691e+00
8.625000000000000000e+03 2.965469932556152344e+01 6.280673980712890625e+00 -2.139695882797241211e+00 -1.316558957099914551e+00 -1.036876440048217773e+00 -1.473016977310180664e+00
8.626000000000000000e+03 2.813894844055175781e+01 5.262156963348388672e+00 -2.645886182785034180e+00 -1.594299316406250000e+00 -1.272055625915527344e+00 -1.651752233505249023e+00
8.627000000000000000e+03 2.796563339233398438e+01 5.154746055603027344e+00 -2.700941085815429688e+00 -1.556253790855407715e+00 -1.277158498764038086e+00 -1.667156100273132324e+00
8.628000000000000000e+03 2.745028686523437500e+01 4.845677852630615234e+00 -2.861786842346191406e+00 -1.328976988792419434e+00 -1.257229089736938477e+00 -1.693076848983764648e+00
8.629000000000000000e+03 2.690469741821289062e+01 4.545875072479248047e+00 -2.998816251754760742e+00 -1.215931415557861328e+00 -1.264424324035644531e+00 -1.709642291069030762e+00
8.630000000000000000e+03 2.642532920837402344e+01 4.458956241607666016e+00 -3.181646347045898438e+00 -1.150280117988586426e+00 -1.299577951431274414e+00 -1.783080220222473145e+00
8.631000000000000000e+03 2.658790779113769531e+01 4.286829948425292969e+00 -3.086232185363769531e+00 -1.096145272254943848e+00 -1.254713296890258789e+00 -1.666677713394165039e+00
8.632000000000000000e+03 2.574311637878417969e+01 3.786098003387451172e+00 -3.270870685577392578e+00 -9.477965235710144043e-01 -1.265600204467773438e+00 -1.662164568901062012e+00
8.633000000000000000e+03 2.541836547851562500e+01 3.930738449096679688e+00 -3.482254028320312500e+00 -1.016273617744445801e+00 -1.349558353424072266e+00 -1.833063006401062012e+00
8.634000000000000000e+03 2.420208168029785156e+01 2.860757350921630859e+00 -3.622908830642700195e+00 -8.901499509811401367e-01 -1.353917598724365234e+00 -1.789250135421752930e+00
8.635000000000000000e+03 2.345994377136230469e+01 2.607226133346557617e+00 -3.761316061019897461e+00 -9.033611416816711426e-01 -1.399403095245361328e+00 -1.961533546447753906e+00
8.636000000000000000e+03 2.318541145324707031e+01 2.221759319305419922e+00 -3.683523416519165039e+00 -8.406767845153808594e-01 -1.357260107994079590e+00 -1.882682681083679199e+00
8.637000000000000000e+03 2.254116249084472656e+01 2.054912328720092773e+00 -3.822616577148437500e+00 -1.046011924743652344e+00 -1.460588574409484863e+00 -2.246789455413818359e+00
8.638000000000000000e+03 2.216105842590332031e+01 1.763288617134094238e+00 -3.572616100311279297e+00 -1.043051838874816895e+00 -1.384700417518615723e+00 -2.383917570114135742e+00
8.639000000000000000e+03 2.199205207824707031e+01 1.458675265312194824e+00 -3.224779129028320312e+00 -8.695216178894042969e-01 -1.228290200233459473e+00 -2.413257598876953125e+00
8.640000000000000000e+03 2.183944702148437500e+01 1.690778493881225586e+00 -3.618455410003662109e+00 -1.300695538520812988e+00 -1.475745201110839844e+00 -2.586414337158203125e+00
8.641000000000000000e+03 2.182098770141601562e+01 1.338136911392211914e+00 -3.240680217742919922e+00 -1.098414897918701172e+00 -1.301728487014770508e+00 -2.538877725601196289e+00
8.642000000000000000e+03 2.131197357177734375e+01 1.024908065795898438e+00 -2.670393705368041992e+00 -1.147390604019165039e+00 -1.145335316658020020e+00 -3.024599075317382812e+00
8.643000000000000000e+03 2.114123344421386719e+01 9.171155691146850586e-01 -2.525071620941162109e+00 -1.644614696502685547e+00 -1.250905990600585938e+00 -3.104528903961181641e+00
8.644000000000000000e+03 2.067724800109863281e+01 9.409630894660949707e-01 -2.354752063751220703e+00 -2.026000499725341797e+00 -1.314225792884826660e+00 -3.211513757705688477e+00
8.645000000000000000e+03 2.001682472229003906e+01 1.637134432792663574e+00 -3.638109207153320312e+00 -1.821804642677307129e+00 -1.637974143028259277e+00 -2.479646682739257812e+00
8.646000000000000000e+03 2.044163322448730469e+01 5.099294185638427734e-01 -1.860432147979736328e+00 -2.543735504150390625e+00 -1.321250319480895996e+00 -3.313201904296875000e+00
8.647000000000000000e+03 1.973522758483886719e+01 4.402073472738265991e-02 -2.085010290145874023e+00 -3.135013341903686523e+00 -1.566007018089294434e+00 -2.533532381057739258e+00
8.648000000000000000e+03 2.007245063781738281e+01 2.987338006496429443e-01 -1.505366683006286621e+00 -4.118624687194824219e+00 -1.687197446823120117e+00 -3.210343599319458008e+00
8.649000000000000000e+03 1.928709983825683594e+01 -2.650651633739471436e-01 -2.799145936965942383e+00 -3.504703760147094727e+00 -1.891155004501342773e+00 -1.596287131309509277e+00
8.650000000000000000e+03 1.904242515563964844e+01 -6.172461062669754028e-02 -2.184360265731811523e+00 -2.681604862213134766e+00 -1.459789514541625977e+00 -1.639948129653930664e+00
8.651000000000000000e+03 1.837055206298828125e+01 -4.188842475414276123e-01 -2.041276216506958008e+00 -1.324143171310424805e+00 -1.009625792503356934e+00 -1.346891164779663086e+00
8.652000000000000000e+03 1.854799652099609375e+01 -6.623200178146362305e-01 -2.350351572036743164e+00 -1.857370495796203613e+00 -1.262316584587097168e+00 -1.621746778488159180e+00
8.653000000000000000e+03 1.837671661376953125e+01 -7.712314128875732422e-01 -2.240470647811889648e+00 -1.570541024208068848e+00 -1.143303513526916504e+00 -1.535464167594909668e+00
8.654000000000000000e+03 2.547790527343750000e+01 6.817430019378662109e+00 -5.353997230529785156e+00 -2.641449689865112305e+00 -2.398633956909179688e+00 -3.768767356872558594e+00
8.655000000000000000e+03 2.751976966857910156e+01 8.118475914001464844e+00 -3.535580396652221680e+00 -1.801565289497375488e+00 -1.601143717765808105e+00 -2.636422634124755859e+00
8.656000000000000000e+03 2.774594306945800781e+01 8.091825485229492188e+00 -2.844643354415893555e+00 -9.246746897697448730e-01 -1.130795478820800781e+00 -1.860531687736511230e+00
8.657000000000000000e+03 2.639754867553710938e+01 7.404555320739746094e+00 -4.750472068786621094e+00 -2.963360071182250977e+00 -2.314149618148803711e+00 -3.599462747573852539e+00
8.658000000000000000e+03 2.606106948852539062e+01 7.185231208801269531e+00 -5.304014682769775391e+00 -3.012519359588623047e+00 -2.494960308074951172e+00 -3.889935970306396484e+00
8.659000000000000000e+03 2.798363685607910156e+01 8.158415794372558594e+00 -2.787363290786743164e+00 -5.325295925140380859e-01 -9.959678649902343750e-01 -1.606287121772766113e+00
8.660000000000000000e+03 2.766287040710449219e+01 7.594291687011718750e+00 -7.674393057823181152e-01 1.079657673835754395e-01 -1.978420615196228027e-01 -7.830556631088256836e-01
8.661000000000000000e+03 2.922995376586914062e+01 8.264119148254394531e+00 -1.098500490188598633e+00 -1.164165735244750977e+00 -6.787998676300048828e-01 -4.365079402923583984e-01
8.662000000000000000e+03 2.787303733825683594e+01 7.956303119659423828e+00 -2.273724555969238281e+00 4.516285285353660583e-02 -6.685685515403747559e-01 -1.376097798347473145e+00
8.663000000000000000e+03 2.732738494873046875e+01 7.844492435455322266e+00 -3.017719745635986328e+00 -1.437675118446350098e+00 -1.336618423461914062e+00 -2.304269790649414062e+00
8.664000000000000000e+03 2.705543899536132812e+01 7.530703067779541016e+00 -2.443536043167114258e+00 -1.342836260795593262e+00 -1.135911703109741211e+00 -1.874438047409057617e+00
8.665000000000000000e+03 2.968653678894042969e+01 7.849141120910644531e+00 -7.209333777427673340e-01 -1.651405453681945801e+00 -7.117016315460205078e-01 -1.085396289825439453e+00
8.666000000000000000e+03 2.835629081726074219e+01 6.176811218261718750e+00 -2.917755365371704102e+00 -2.270657777786254883e+00 -1.556523919105529785e+00 -2.154826641082763672e+00
8.667000000000000000e+03 2.950033187866210938e+01 6.448091506958007812e+00 -2.267002105712890625e+00 -1.420026183128356934e+00 -1.106108546257019043e+00 -1.628325939178466797e+00
8.668000000000000000e+03 2.894675827026367188e+01 6.136587142944335938e+00 -2.494823932647705078e+00 -1.882380366325378418e+00 -1.313161253929138184e+00 -1.519355297088623047e+00
8.669000000000000000e+03 2.874980735778808594e+01 6.135490417480468750e+00 -2.604350328445434570e+00 -2.109883069992065430e+00 -1.414270043373107910e+00 -1.690535664558410645e+00
8.670000000000000000e+03 2.767642974853515625e+01 6.402858257293701172e+00 -3.756730079650878906e+00 -1.643080472946166992e+00 -1.619943141937255859e+00 -2.500532388687133789e+00
8.671000000000000000e+03 2.937743759155273438e+01 6.025830745697021484e+00 -2.285224676132202148e+00 -1.504484772682189941e+00 -1.136912822723388672e+00 -1.387948989868164062e+00
8.672000000000000000e+03 2.971186447143554688e+01 7.641345977783203125e+00 -4.529327750205993652e-01 -1.879337072372436523e+00 -6.996809244155883789e-01 -1.339388608932495117e+00
8.673000000000000000e+03 1.572074985504150391e+01 2.189624011516571045e-01 -4.876655936241149902e-01 1.638531565666198730e+00 3.452597856521606445e-01 -9.806109666824340820e-01
8.674000000000000000e+03 2.408654022216796875e+01 4.547325134277343750e+00 3.853138923645019531e+00 1.058719158172607422e+00 1.473557472229003906e+00 2.024732351303100586e+00
8.675000000000000000e+03 2.037843704223632812e+01 2.863221883773803711e+00 -3.105471730232238770e-01 -8.875905275344848633e-01 -3.594413101673126221e-01 -7.983673214912414551e-01
8.676000000000000000e+03 2.261888504028320312e+01 3.930613756179809570e+00 1.164612054824829102e+00 -1.414163112640380859e-01 3.069587349891662598e-01 2.306212931871414185e-01
8.677000000000000000e+03 2.189883041381835938e+01 4.254463672637939453e+00 -2.219635963439941406e+00 -1.227323770523071289e+00 -1.034088015556335449e+00 -1.721476078033447266e+00
8.678000000000000000e+03 1.715502357482910156e+01 2.484077364206314087e-01 -5.739739894866943359e+00 -1.899237513542175293e+00 -2.291693210601806641e+00 -3.647179365158081055e+00
8.679000000000000000e+03 1.699773979187011719e+01 1.264773458242416382e-01 -5.909361362457275391e+00 -1.683071255683898926e+00 -2.277729749679565430e+00 -3.342911720275878906e+00
8.680000000000000000e+03 1.885128974914550781e+01 2.235883474349975586e+00 1.229171276092529297e+00 5.822213739156723022e-02 3.862180113792419434e-01 3.753272593021392822e-01
8.681000000000000000e+03 1.847843170166015625e+01 2.026584863662719727e+00 1.799939513206481934e+00 2.351312637329101562e-01 6.105212569236755371e-01 8.000516295433044434e-01
8.682000000000000000e+03 2.543092918395996094e+01 5.707922935485839844e+00 1.737582087516784668e+00 3.019133210182189941e-01 6.118486523628234863e-01 9.371821284294128418e-01
8.683000000000000000e+03 2.457446861267089844e+01 5.008879184722900391e+00 3.148576021194458008e+00 6.510536074638366699e-01 1.139888882637023926e+00 1.488343477249145508e+00
8.684000000000000000e+03 2.325514793395996094e+01 3.987225294113159180e+00 2.753532171249389648e+00 7.460860610008239746e-01 1.049885511398315430e+00 1.382793784141540527e+00
8.685000000000000000e+03 2.463901519775390625e+01 4.825169563293457031e+00 4.029498100280761719e+00 1.431403994560241699e+00 1.638270616531372070e+00 2.586417913436889648e+00
8.686000000000000000e+03 2.104832649230957031e+01 2.598700046539306641e+00 2.953279390931129456e-02 -1.497825533151626587e-01 -3.607492893934249878e-02 -1.129192486405372620e-01
8.687000000000000000e+03 2.219436645507812500e+01 3.388534784317016602e+00 1.678138613700866699e+00 3.470659255981445312e-01 6.075613498687744141e-01 7.078326344490051270e-01
8.688000000000000000e+03 2.275546455383300781e+01 3.693754434585571289e+00 2.187803983688354492e+00 5.292286276817321777e-01 8.151097893714904785e-01 1.115911960601806641e+00
8.689000000000000000e+03 2.191262245178222656e+01 3.660018205642700195e+00 3.653924167156219482e-02 -5.843906998634338379e-01 -1.643554270267486572e-01 -5.140977501869201660e-01
8.690000000000000000e+03 2.427522277832031250e+01 4.646494388580322266e+00 4.093664169311523438e+00 1.135997295379638672e+00 1.568898439407348633e+00 2.189129352569580078e+00
8.691000000000000000e+03 2.446111488342285156e+01 4.740173339843750000e+00 4.199794292449951172e+00 1.227444767951965332e+00 1.628171682357788086e+00 2.419854402542114258e+00
8.692000000000000000e+03 2.528694915771484375e+01 5.271379947662353516e+00 4.364817142486572266e+00 1.558924555778503418e+00 1.777122497558593750e+00 2.469829082489013672e+00
8.693000000000000000e+03 2.717264175415039062e+01 6.434658527374267578e+00 4.786585330963134766e+00 1.670265674591064453e+00 1.937055349349975586e+00 2.888578891754150391e+00
8.694000000000000000e+03 1.733164405822753906e+01 3.668887019157409668e-01 -5.814812660217285156e+00 -2.389414310455322266e+00 -2.461267948150634766e+00 -3.371240139007568359e+00
8.695000000000000000e+03 1.705279922485351562e+01 1.104628801345825195e+00 3.841028451919555664e+00 7.022252082824707031e-01 1.362976074218750000e+00 1.386673808097839355e+00
8.696000000000000000e+03 1.820470809936523438e+01 1.020192623138427734e+00 -2.904313802719116211e+00 -1.727744936943054199e+00 -1.389617681503295898e+00 -2.401606559753417969e+00
8.697000000000000000e+03 1.934757041931152344e+01 1.523654103279113770e+00 -2.747457265853881836e+00 -1.277508139610290527e+00 -1.207489609718322754e+00 -1.804660916328430176e+00
8.698000000000000000e+03 1.620856475830078125e+01 -2.564688026905059814e-01 -4.915937423706054688e+00 -1.213946104049682617e+00 -1.838965058326721191e+00 -2.199167251586914062e+00
8.699000000000000000e+03 1.637600135803222656e+01 -1.055432707071304321e-01 -5.195105552673339844e+00 -1.124428987503051758e+00 -1.895860314369201660e+00 -2.509893178939819336e+00
8.700000000000000000e+03 1.682551574707031250e+01 6.590063869953155518e-02 -5.620738506317138672e+00 -1.637915372848510742e+00 -2.177596092224121094e+00 -3.011376619338989258e+00
8.701000000000000000e+03 2.681288909912109375e+01 6.210831165313720703e+00 4.615086078643798828e+00 1.831196427345275879e+00 1.933884739875793457e+00 2.900251865386962891e+00
8.702000000000000000e+03 2.041065216064453125e+01 2.207756280899047852e+00 -8.462614417076110840e-01 -5.327053070068359375e-01 -4.136900007724761963e-01 -6.820254921913146973e-01
8.703000000000000000e+03 1.647114562988281250e+01 -6.173247694969177246e-01 -1.574083089828491211e+00 -3.809817135334014893e-01 -5.865194797515869141e-01 -7.608531713485717773e-01
8.704000000000000000e+03 2.714648437500000000e+01 6.079617023468017578e+00 -3.600982189178466797e+00 -1.472424864768981934e+00 -1.522022128105163574e+00 -2.295172452926635742e+00
8.705000000000000000e+03 2.610667991638183594e+01 3.989916086196899414e+00 -3.153517007827758789e+00 -9.994776248931884766e-01 -1.245898365974426270e+00 -1.661108374595642090e+00
8.706000000000000000e+03 1.833070755004882812e+01 5.895792841911315918e-01 -8.477098345756530762e-01 -4.912837743759155273e-01 -4.016980826854705811e-01 -6.191110014915466309e-01
8.707000000000000000e+03 2.237835693359375000e+01 3.131584405899047852e+00 -4.973131656646728516e+00 -1.851511836051940918e+00 -2.047393083572387695e+00 -3.017153978347778320e+00
8.708000000000000000e+03 1.764385032653808594e+01 1.744001954793930054e-01 -8.704474568367004395e-01 -2.842735648155212402e-01 -3.464162945747375488e-01 -5.094419121742248535e-01
8.709000000000000000e+03 1.916730690002441406e+01 1.125744342803955078e+00 -1.820249795913696289e+00 -1.192380666732788086e+00 -9.037891626358032227e-01 -1.386237978935241699e+00
8.710000000000000000e+03 2.649093246459960938e+01 5.643176078796386719e+00 -3.543471574783325195e+00 -1.397778630256652832e+00 -1.482375025749206543e+00 -2.200663328170776367e+00
8.711000000000000000e+03 2.631550598144531250e+01 5.527283191680908203e+00 -3.558901071548461914e+00 -1.374146938323974609e+00 -1.479914426803588867e+00 -2.200580120086669922e+00
8.712000000000000000e+03 2.612833976745605469e+01 5.438388347625732422e+00 -3.580605268478393555e+00 -1.368548035621643066e+00 -1.484745979309082031e+00 -2.211333513259887695e+00
8.713000000000000000e+03 2.492999267578125000e+01 4.705292224884033203e+00 -3.863729000091552734e+00 -1.414808511734008789e+00 -1.583561301231384277e+00 -2.366226673126220703e+00
8.714000000000000000e+03 2.546989440917968750e+01 4.657116889953613281e+00 -3.645339250564575195e+00 -1.290380716323852539e+00 -1.480715990066528320e+00 -2.146045923233032227e+00
8.715000000000000000e+03 2.545153236389160156e+01 5.036966800689697266e+00 -3.708486557006835938e+00 -1.424453258514404297e+00 -1.539881944656372070e+00 -2.264901399612426758e+00
8.716000000000000000e+03 2.459490013122558594e+01 4.509659290313720703e+00 -3.982199430465698242e+00 -1.460256218910217285e+00 -1.632736682891845703e+00 -2.446282148361206055e+00
8.717000000000000000e+03 2.469862174987792969e+01 4.145606040954589844e+00 -3.896677255630493164e+00 -1.305747866630554199e+00 -1.560727596282958984e+00 -2.220315217971801758e+00
8.718000000000000000e+03 2.373550224304199219e+01 3.974582195281982422e+00 -4.330564975738525391e+00 -1.597639918327331543e+00 -1.778461575508117676e+00 -2.632771015167236328e+00
8.719000000000000000e+03 2.424369049072265625e+01 4.286685943603515625e+00 -4.118529796600341797e+00 -1.497952699661254883e+00 -1.684944748878479004e+00 -2.508130788803100586e+00
8.720000000000000000e+03 2.339944267272949219e+01 3.365537881851196289e+00 -4.343434810638427734e+00 -1.403309464454650879e+00 -1.724023342132568359e+00 -2.474121093750000000e+00
8.721000000000000000e+03 1.737028121948242188e+01 -1.417335867881774902e+00 -2.045243024826049805e+00 -8.480786085128784180e-01 -8.679965138435363770e-01 -1.024181842803955078e+00
8.722000000000000000e+03 1.628935050964355469e+01 -7.278177142143249512e-01 -1.828833818435668945e+00 -4.389476478099822998e-01 -6.803344488143920898e-01 -8.040199279785156250e-01
8.723000000000000000e+03 1.664281463623046875e+01 -5.031195878982543945e-01 -1.399149775505065918e+00 -4.157890677452087402e-01 -5.444816350936889648e-01 -6.817269325256347656e-01
8.724000000000000000e+03 2.750169563293457031e+01 6.282786369323730469e+00 -3.702880620956420898e+00 -1.624939560890197754e+00 -1.598345994949340820e+00 -2.380273818969726562e+00
8.725000000000000000e+03 2.573222351074218750e+01 4.982469081878662109e+00 -3.622334241867065430e+00 -1.327156305313110352e+00 -1.484847187995910645e+00 -2.176455259323120117e+00
8.726000000000000000e+03 2.255205917358398438e+01 3.223788022994995117e+00 -4.890757083892822266e+00 -1.777053356170654297e+00 -2.000343084335327148e+00 -2.978703737258911133e+00
8.727000000000000000e+03 2.247628593444824219e+01 2.902311563491821289e+00 -4.709849357604980469e+00 -1.576814532279968262e+00 -1.885999202728271484e+00 -2.776383876800537109e+00
8.728000000000000000e+03 2.120512962341308594e+01 2.366119623184204102e+00 -5.026901721954345703e+00 -2.013044357299804688e+00 -2.111983776092529297e+00 -3.166153430938720703e+00
8.729000000000000000e+03 1.982842826843261719e+01 1.562138557434082031e+00 -3.360120296478271484e+00 -1.543400526046752930e+00 -1.471056222915649414e+00 -2.339195728302001953e+00
8.730000000000000000e+03 1.685240936279296875e+01 -8.052365779876708984e-01 -1.879217267036437988e+00 -3.988919556140899658e-01 -6.834327578544616699e-01 -7.786621451377868652e-01
8.731000000000000000e+03 2.866297340393066406e+01 5.560963630676269531e+00 -2.479826450347900391e+00 -1.730597734451293945e+00 -1.263127207756042480e+00 -1.483955740928649902e+00
8.732000000000000000e+03 2.709033966064453125e+01 4.650040626525878906e+00 -2.949336767196655273e+00 -1.241024136543273926e+00 -1.257108211517333984e+00 -1.700310349464416504e+00
8.733000000000000000e+03 1.701620674133300781e+01 -1.598754167556762695e+00 -2.103850841522216797e+00 -7.938426733016967773e-01 -8.693080544471740723e-01 -9.536088705062866211e-01
8.734000000000000000e+03 1.990662193298339844e+01 1.681541800498962402e-01 -1.233557820320129395e+00 -3.342878341674804688e+00 -1.372930884361267090e+00 -2.298986911773681641e+00
8.735000000000000000e+03 2.402393531799316406e+01 2.738673686981201172e+00 -3.636842727661132812e+00 -8.062605857849121094e-01 -1.332931041717529297e+00 -1.756173849105834961e+00
8.736000000000000000e+03 2.919072723388671875e+01 5.915001869201660156e+00 -2.339025735855102539e+00 -1.599038720130920410e+00 -1.181419372558593750e+00 -1.358289480209350586e+00
8.737000000000000000e+03 2.800765800476074219e+01 5.494798660278320312e+00 -2.797898292541503906e+00 -1.717777132987976074e+00 -1.354702591896057129e+00 -1.841304540634155273e+00
8.738000000000000000e+03 2.761833190917968750e+01 4.951700210571289062e+00 -2.805549144744873047e+00 -1.424476146697998047e+00 -1.269007563591003418e+00 -1.697404265403747559e+00
8.739000000000000000e+03 2.456723022460937500e+01 3.055789470672607422e+00 -3.553482294082641602e+00 -8.798327445983886719e-01 -1.329994440078735352e+00 -1.734078764915466309e+00
8.740000000000000000e+03 2.249617195129394531e+01 1.752540349960327148e+00 -3.551584482192993164e+00 -8.818064332008361816e-01 -1.330017328262329102e+00 -2.167243003845214844e+00
8.741000000000000000e+03 2.233315849304199219e+01 1.638239860534667969e+00 -3.381247043609619141e+00 -8.005921244621276855e-01 -1.254551768302917480e+00 -2.220913887023925781e+00
8.742000000000000000e+03 2.148179817199707031e+01 1.128484606742858887e+00 -3.004927158355712891e+00 -1.225803017616271973e+00 -1.269219040870666504e+00 -2.684286832809448242e+00
8.743000000000000000e+03 2.096979713439941406e+01 8.090916872024536133e-01 -2.271251440048217773e+00 -1.627502083778381348e+00 -1.169626116752624512e+00 -3.182574272155761719e+00
8.744000000000000000e+03 2.354416084289550781e+01 2.388252258300781250e+00 -3.639736413955688477e+00 -8.008282184600830078e-01 -1.332169413566589355e+00 -1.806715726852416992e+00
8.745000000000000000e+03 2.522423934936523438e+01 4.140122890472412109e+00 -3.613245487213134766e+00 -1.143048405647277832e+00 -1.426888108253479004e+00 -2.008241891860961914e+00
8.746000000000000000e+03 2.577788734436035156e+01 4.142484188079833984e+00 -3.354726791381835938e+00 -1.066113352775573730e+00 -1.326252102851867676e+00 -1.818141937255859375e+00
8.747000000000000000e+03 2.091345596313476562e+01 1.713690042495727539e+00 -3.807574033737182617e+00 -1.985925555229187012e+00 -1.738049864768981934e+00 -2.999375343322753906e+00
8.748000000000000000e+03 2.337233734130859375e+01 2.300741434097290039e+00 -3.581259012222290039e+00 -7.975234389305114746e-01 -1.313634753227233887e+00 -1.851275444030761719e+00
8.749000000000000000e+03 2.489199066162109375e+01 3.406341314315795898e+00 -3.503514289855957031e+00 -8.896154761314392090e-01 -1.317938923835754395e+00 -1.739370703697204590e+00
8.750000000000000000e+03 2.883820724487304688e+01 5.658454418182373047e+00 -2.409542322158813477e+00 -1.707492113113403320e+00 -1.235110402107238770e+00 -1.433953166007995605e+00
8.751000000000000000e+03 2.854191970825195312e+01 5.962574481964111328e+00 -2.636934518814086914e+00 -2.071890830993652344e+00 -1.412647604942321777e+00 -1.786843299865722656e+00
8.752000000000000000e+03 2.817785644531250000e+01 5.623554706573486328e+00 -2.745678186416625977e+00 -1.789677381515502930e+00 -1.360606670379638672e+00 -1.832883119583129883e+00
8.753000000000000000e+03 2.474594879150390625e+01 3.141265630722045898e+00 -3.465998888015747070e+00 -8.137662410736083984e-01 -1.283929586410522461e+00 -1.657332897186279297e+00
8.754000000000000000e+03 2.469014930725097656e+01 3.378220081329345703e+00 -3.654075860977172852e+00 -1.002954602241516113e+00 -1.397109150886535645e+00 -1.856058001518249512e+00
8.755000000000000000e+03 2.319405364990234375e+01 2.760295867919921875e+00 -4.162803173065185547e+00 -1.135562777519226074e+00 -1.589509725570678711e+00 -2.217348814010620117e+00
8.756000000000000000e+03 2.271275901794433594e+01 2.695827960968017578e+00 -4.341666698455810547e+00 -1.309392094612121582e+00 -1.695317625999450684e+00 -2.472999095916748047e+00
8.757000000000000000e+03 2.165103340148925781e+01 1.230265378952026367e+00 -2.845601081848144531e+00 -1.110957145690917969e+00 -1.186967492103576660e+00 -2.705785274505615234e+00
8.758000000000000000e+03 2.101836776733398438e+01 1.156368136405944824e+00 -2.731341361999511719e+00 -1.647303462028503418e+00 -1.313593506813049316e+00 -3.057700634002685547e+00
8.759000000000000000e+03 1.959152603149414062e+01 -8.714351803064346313e-02 -1.704397320747375488e+00 -3.828038930892944336e+00 -1.659730911254882812e+00 -2.431822061538696289e+00
8.760000000000000000e+03 1.910376167297363281e+01 -3.396536111831665039e-01 -2.312313556671142578e+00 -2.576205015182495117e+00 -1.466555595397949219e+00 -1.691458463668823242e+00
8.761000000000000000e+03 1.737996482849121094e+01 -1.082728028297424316e+00 -2.015727758407592773e+00 -7.385674715042114258e-01 -8.262885808944702148e-01 -9.888221025466918945e-01
8.762000000000000000e+03 1.665299797058105469e+01 -1.366106986999511719e+00 -1.917467951774597168e+00 -5.823192000389099121e-01 -7.499361634254455566e-01 -6.466096043586730957e-01
8.763000000000000000e+03 2.560299110412597656e+01 4.036937236785888672e+00 -3.444801092147827148e+00 -1.068673849105834961e+00 -1.354042530059814453e+00 -1.822120308876037598e+00
8.764000000000000000e+03 2.556997489929199219e+01 3.676821708679199219e+00 -3.296354055404663086e+00 -9.568199515342712402e-01 -1.275952219963073730e+00 -1.657770872116088867e+00
8.765000000000000000e+03 2.267225265502929688e+01 1.856473326683044434e+00 -3.514413595199584961e+00 -7.651515603065490723e-01 -1.283869504928588867e+00 -2.011577606201171875e+00
8.766000000000000000e+03 1.875694274902343750e+01 1.500918716192245483e-01 -1.801904678344726562e+00 -1.759965062141418457e+00 -1.068560957908630371e+00 -1.287490963935852051e+00
8.767000000000000000e+03 1.945619201660156250e+01 -1.930207461118698120e-01 -1.072453737258911133e+00 -3.484905481338500977e+00 -1.367207765579223633e+00 -2.048523426055908203e+00
8.768000000000000000e+03 2.010481643676757812e+01 1.357575654983520508e+00 -2.781511783599853516e+00 -2.169648170471191406e+00 -1.485347986221313477e+00 -2.681321620941162109e+00
8.769000000000000000e+03 1.841072654724121094e+01 5.619067698717117310e-02 -1.595934271812438965e+00 -1.215780973434448242e+00 -8.435146212577819824e-01 -1.075855851173400879e+00
8.770000000000000000e+03 2.293848037719726562e+01 3.778915882110595703e+00 2.267047882080078125e+00 6.116245985031127930e-01 8.636016845703125000e-01 1.282188653945922852e+00
8.771000000000000000e+03 2.319155120849609375e+01 4.172224521636962891e+00 1.872293472290039062e+00 2.491279095411300659e-01 6.364263892173767090e-01 7.648641467094421387e-01
8.772000000000000000e+03 2.230008888244628906e+01 2.838378667831420898e+00 -4.805581092834472656e+00 -1.698254823684692383e+00 -1.951150774955749512e+00 -2.855916023254394531e+00
8.773000000000000000e+03 2.168866348266601562e+01 2.394690036773681641e+00 -4.688617706298828125e+00 -1.777455806732177734e+00 -1.939822077751159668e+00 -2.943145990371704102e+00
8.774000000000000000e+03 1.698645019531250000e+01 5.031378865242004395e-01 -1.796257615089416504e+00 -5.252367258071899414e-01 -6.964482665061950684e-01 -1.239628314971923828e+00
8.775000000000000000e+03 1.666123962402343750e+01 9.482248425483703613e-01 4.616537094116210938e+00 5.648888349533081055e-01 1.554427742958068848e+00 1.404680609703063965e+00
8.776000000000000000e+03 1.766868972778320312e+01 5.414660573005676270e-01 -5.360205650329589844e+00 -2.270375728607177734e+00 -2.289174318313598633e+00 -3.474564075469970703e+00
8.777000000000000000e+03 2.321248054504394531e+01 5.169775009155273438e+00 -4.339445114135742188e+00 -1.799080610275268555e+00 -1.841557741165161133e+00 -2.793043375015258789e+00
8.778000000000000000e+03 2.459815216064453125e+01 6.050763130187988281e+00 -4.462336540222167969e+00 -2.575901508331298828e+00 -2.111471414566040039e+00 -3.270485401153564453e+00
8.779000000000000000e+03 2.424361228942871094e+01 5.820015430450439453e+00 -4.593045711517333984e+00 -2.405196189880371094e+00 -2.099472522735595703e+00 -3.268903493881225586e+00
8.780000000000000000e+03 2.288629722595214844e+01 4.957085609436035156e+00 -3.746922016143798828e+00 -1.620923995971679688e+00 -1.610353827476501465e+00 -2.529703855514526367e+00
8.781000000000000000e+03 2.257455825805664062e+01 4.721637248992919922e+00 -3.102494955062866211e+00 -1.492946147918701172e+00 -1.378632307052612305e+00 -2.211867570877075195e+00
8.782000000000000000e+03 1.947818183898925781e+01 2.024142265319824219e+00 -6.239892840385437012e-01 -1.023671865463256836e+00 -4.942983388900756836e-01 -1.003108024597167969e+00
8.783000000000000000e+03 1.982610702514648438e+01 2.928222179412841797e+00 -2.687777280807495117e-01 -4.300876259803771973e-01 -2.096596062183380127e-01 -3.705802857875823975e-01
8.784000000000000000e+03 2.083228874206542969e+01 2.681646585464477539e+00 -2.539827488362789154e-02 -5.279254913330078125e-01 -1.659971177577972412e-01 -4.232044816017150879e-01
8.785000000000000000e+03 1.949709129333496094e+01 2.715226173400878906e+00 1.481589525938034058e-01 -1.892378926277160645e-01 -1.232368033379316330e-02 -1.269864141941070557e-01
8.786000000000000000e+03 1.919207572937011719e+01 2.472609281539916992e+00 6.855859160423278809e-01 -6.296753138303756714e-02 1.867855191230773926e-01 1.328907012939453125e-01
8.787000000000000000e+03 2.121676445007324219e+01 3.790680646896362305e+00 -1.721563100814819336e+00 -1.087810993194580078e+00 -8.428122401237487793e-01 -1.313229560852050781e+00
8.788000000000000000e+03 2.519695091247558594e+01 6.583257198333740234e+00 -4.878303050994873047e+00 -2.560795307159423828e+00 -2.231729507446289062e+00 -3.625753402709960938e+00
8.789000000000000000e+03 1.563149452209472656e+01 6.393854022026062012e-01 6.221250057220458984e+00 1.177441716194152832e+00 2.219607591629028320e+00 -8.062744140625000000e-02
8.790000000000000000e+03 2.067097282409667969e+01 2.069600105285644531e+00 -4.710213184356689453e+00 -2.020633220672607422e+00 -2.019253969192504883e+00 -3.024961709976196289e+00
8.791000000000000000e+03 1.747878456115722656e+01 6.543330848217010498e-02 -9.052773118019104004e-01 -3.117134571075439453e-01 -3.650972247123718262e-01 -5.354081392288208008e-01
8.792000000000000000e+03 2.746684837341308594e+01 5.217572212219238281e+00 -2.990949392318725586e+00 -1.437878847122192383e+00 -1.328648447990417480e+00 -1.869754195213317871e+00
8.793000000000000000e+03 2.720285987854003906e+01 7.952029705047607422e+00 -3.948981523513793945e+00 -2.300547599792480469e+00 -1.874858736991882324e+00 -2.947333574295043945e+00
8.794000000000000000e+03 2.720083045959472656e+01 7.676205158233642578e+00 -2.740574359893798828e+00 -1.473887681961059570e+00 -1.264338612556457520e+00 -2.119166612625122070e+00
8.795000000000000000e+03 2.689942932128906250e+01 7.720446586608886719e+00 -4.189239978790283203e+00 -2.551219940185546875e+00 -2.022138118743896484e+00 -3.327326297760009766e+00
8.796000000000000000e+03 2.759079551696777344e+01 7.387093544006347656e+00 2.514295578002929688e-01 2.219114154577255249e-01 1.420022994279861450e-01 -8.168424665927886963e-02
8.797000000000000000e+03 2.735442161560058594e+01 8.031585693359375000e+00 -3.746712923049926758e+00 -1.692411065101623535e+00 -1.631737232208251953e+00 -2.758842468261718750e+00
8.798000000000000000e+03 2.757423591613769531e+01 7.161364555358886719e+00 1.673575758934020996e+00 7.690355777740478516e-01 7.327833771705627441e-01 8.557621240615844727e-01
8.799000000000000000e+03 1.913147354125976562e+01 1.708049178123474121e+00 -1.374864459037780762e+00 -1.157279133796691895e+00 -7.596430778503417969e-01 -1.374085903167724609e+00
8.800000000000000000e+03 1.783256149291992188e+01 6.709766387939453125e-01 -5.186162471771240234e+00 -2.164890050888061523e+00 -2.205315828323364258e+00 -3.262890577316284180e+00
8.801000000000000000e+03 2.203362846374511719e+01 3.262252807617187500e+00 1.410982728004455566e+00 2.849675416946411133e-01 5.087850689888000488e-01 6.549141407012939453e-01
8.802000000000000000e+03 2.494200134277343750e+01 5.372527599334716797e+00 2.126236200332641602e+00 5.397621393203735352e-01 7.997995615005493164e-01 1.290667772293090820e+00
8.803000000000000000e+03 2.355599021911621094e+01 4.197517395019531250e+00 3.188354730606079102e+00 9.326400160789489746e-01 1.236298441886901855e+00 1.703719735145568848e+00
8.804000000000000000e+03 1.835742568969726562e+01 9.198219180107116699e-01 -4.442235469818115234e+00 -1.723816037178039551e+00 -1.849815487861633301e+00 -2.874061107635498047e+00
8.805000000000000000e+03 1.981208992004394531e+01 1.908708810806274414e+00 -1.457678198814392090e+00 -8.675630688667297363e-01 -6.975724101066589355e-01 -1.248439788818359375e+00
8.806000000000000000e+03 1.889168930053710938e+01 1.260418415069580078e+00 -3.705781698226928711e+00 -1.432000637054443359e+00 -1.541334748268127441e+00 -2.295164108276367188e+00
8.807000000000000000e+03 2.579296684265136719e+01 5.605371475219726562e+00 4.515919208526611328e+00 1.663454890251159668e+00 1.853812217712402344e+00 2.655630111694335938e+00
8.808000000000000000e+03 2.328168487548828125e+01 4.355839252471923828e+00 1.400277495384216309e+00 -1.286829560995101929e-01 3.814783692359924316e-01 3.133597671985626221e-01
8.809000000000000000e+03 1.962993812561035156e+01 1.788683295249938965e+00 -1.899940609931945801e+00 -1.080583691596984863e+00 -8.941572904586791992e-01 -1.373556256294250488e+00
8.810000000000000000e+03 2.154427337646484375e+01 2.975977420806884766e+00 7.866938710212707520e-01 -4.098711162805557251e-02 2.237120270729064941e-01 1.977166384458541870e-01
8.811000000000000000e+03 2.562596130371093750e+01 5.488987922668457031e+00 4.438332080841064453e+00 1.513721942901611328e+00 1.785616278648376465e+00 2.719064950942993164e+00
8.812000000000000000e+03 2.240906715393066406e+01 3.824522256851196289e+00 8.618281483650207520e-01 -3.204230666160583496e-01 1.624215245246887207e-01 2.885877853259444237e-03
8.813000000000000000e+03 1.945355224609375000e+01 1.662100911140441895e+00 -2.019496202468872070e+00 -1.100040316581726074e+00 -9.358609914779663086e-01 -1.657630205154418945e+00
8.814000000000000000e+03 2.344686126708984375e+01 4.526854038238525391e+00 1.066645026206970215e+00 -2.927626371383666992e-01 2.321647256612777710e-01 7.549554854631423950e-02
8.815000000000000000e+03 2.002790832519531250e+01 2.680840253829956055e+00 -1.652772426605224609e-01 -8.278092741966247559e-01 -2.979259490966796875e-01 -6.962391734123229980e-01
8.816000000000000000e+03 1.999521446228027344e+01 2.037484884262084961e+00 -1.279384493827819824e+00 -8.510989546775817871e-01 -6.391450166702270508e-01 -1.028656005859375000e+00
8.817000000000000000e+03 2.472340774536132812e+01 5.524893760681152344e+00 -4.335432946681976318e-01 -7.514683604240417480e-01 -3.555034995079040527e-01 -4.840614795684814453e-01
8.818000000000000000e+03 1.850706863403320312e+01 1.045880794525146484e+00 -4.036730766296386719e+00 -1.733931779861450195e+00 -1.731198787689208984e+00 -2.685034990310668945e+00
8.819000000000000000e+03 1.807388114929199219e+01 1.353222250938415527e+00 3.767642080783843994e-01 -7.962661385536193848e-01 -1.258505731821060181e-01 -5.521404147148132324e-01
8.820000000000000000e+03 2.476775360107421875e+01 5.282151699066162109e+00 1.793686866760253906e+00 3.137269020080566406e-01 6.322241425514221191e-01 9.626682400703430176e-01
8.821000000000000000e+03 1.802577590942382812e+01 7.688775658607482910e-01 -5.023679256439208984e+00 -1.968174934387207031e+00 -2.097556352615356445e+00 -3.156896352767944336e+00
8.822000000000000000e+03 1.751261901855468750e+01 4.459056854248046875e-01 -5.698335170745849609e+00 -1.769569516181945801e+00 -2.240371465682983398e+00 -3.581723213195800781e+00
8.823000000000000000e+03 1.748308944702148438e+01 7.161186337471008301e-01 -1.983406662940979004e+00 -9.296038746833801270e-01 -8.739031553268432617e-01 -1.856038451194763184e+00
8.824000000000000000e+03 2.175073432922363281e+01 3.445808649063110352e+00 2.377751916646957397e-01 -5.400902032852172852e-01 -9.069449454545974731e-02 -3.262596428394317627e-01
8.825000000000000000e+03 2.698365974426269531e+01 6.330865859985351562e+00 4.736739158630371094e+00 1.820530056953430176e+00 1.967180848121643066e+00 2.790386199951171875e+00
8.826000000000000000e+03 2.316289901733398438e+01 4.730809688568115234e+00 -1.438563108444213867e+00 -1.160831809043884277e+00 -7.798184752464294434e-01 -1.431851029396057129e+00
8.827000000000000000e+03 2.390306663513183594e+01 4.072781562805175781e+00 -4.257275581359863281e+00 -1.571274399757385254e+00 -1.748564958572387695e+00 -2.584689140319824219e+00
8.828000000000000000e+03 2.434104156494140625e+01 4.051373481750488281e+00 -4.027628421783447266e+00 -1.396821498870849609e+00 -1.627334952354431152e+00 -2.353257179260253906e+00
8.829000000000000000e+03 1.749348831176757812e+01 -2.773938775062561035e-01 -1.442198038101196289e+00 -4.634702503681182861e-01 -5.717005133628845215e-01 -7.795321345329284668e-01
8.830000000000000000e+03 1.681100463867187500e+01 -3.843196630477905273e-01 -1.244860649108886719e+00 -3.316750824451446533e-01 -4.729607105255126953e-01 -6.835671067237854004e-01
8.831000000000000000e+03 2.064845657348632812e+01 1.720833301544189453e+00 -3.919979810714721680e+00 -2.017421483993530273e+00 -1.781220316886901855e+00 -2.956375598907470703e+00
8.832000000000000000e+03 2.354714202880859375e+01 3.523911237716674805e+00 -4.330999374389648438e+00 -1.428307056427001953e+00 -1.727792024612426758e+00 -2.482726812362670898e+00
8.833000000000000000e+03 2.284470939636230469e+01 3.051742553710937500e+00 -4.554998397827148438e+00 -1.478503108024597168e+00 -1.810050368309020996e+00 -2.638322114944458008e+00
8.834000000000000000e+03 2.114830780029296875e+01 1.961969375610351562e+00 -4.141205310821533203e+00 -1.854079723358154297e+00 -1.798585534095764160e+00 -2.963293552398681641e+00
8.835000000000000000e+03 2.664954948425292969e+01 5.772653579711914062e+00 -3.532393932342529297e+00 -1.400309681892395020e+00 -1.479811072349548340e+00 -2.223433971405029297e+00
8.836000000000000000e+03 2.085013771057128906e+01 2.169435262680053711e+00 -4.836890697479248047e+00 -1.940422058105468750e+00 -2.033193826675415039e+00 -3.152813434600830078e+00
8.837000000000000000e+03 2.347192382812500000e+01 2.782396554946899414e+00 -4.037914276123046875e+00 -9.502899646759033203e-01 -1.496461272239685059e+00 -1.995969414710998535e+00
8.838000000000000000e+03 2.442706489562988281e+01 4.389493942260742188e+00 -4.053262233734130859e+00 -1.527415275573730469e+00 -1.674203276634216309e+00 -2.452015876770019531e+00
8.839000000000000000e+03 1.697849273681640625e+01 -2.681143581867218018e-01 -1.160702586174011230e+00 -3.716121315956115723e-01 -4.596944153308868408e-01 -5.922969579696655273e-01
8.840000000000000000e+03 1.953655624389648438e+01 1.334767699241638184e+00 -2.458229064941406250e+00 -1.381950974464416504e+00 -1.152053952217102051e+00 -1.847211956977844238e+00
8.841000000000000000e+03 1.868786430358886719e+01 5.500091910362243652e-01 -1.479259967803955078e+00 -9.830191135406494141e-01 -7.386837005615234375e-01 -1.106812834739685059e+00
8.842000000000000000e+03 1.882062339782714844e+01 9.368521571159362793e-01 -1.316540837287902832e+00 -7.972931265830993652e-01 -6.341502070426940918e-01 -9.463308453559875488e-01
8.843000000000000000e+03 2.038509559631347656e+01 1.609160423278808594e+00 -3.576013565063476562e+00 -2.062227249145507812e+00 -1.691472291946411133e+00 -2.851600170135498047e+00
8.844000000000000000e+03 2.033870124816894531e+01 1.899681448936462402e+00 -4.281828403472900391e+00 -1.846598505973815918e+00 -1.838528037071228027e+00 -2.822292327880859375e+00
8.845000000000000000e+03 1.850164413452148438e+01 7.063417434692382812e-01 -9.341991543769836426e-01 -5.505000948905944824e-01 -4.454097747802734375e-01 -7.199332118034362793e-01
8.846000000000000000e+03 2.476949882507324219e+01 4.374063491821289062e+00 -3.854140758514404297e+00 -1.346577525138854980e+00 -1.560215473175048828e+00 -2.278759002685546875e+00
8.847000000000000000e+03 2.643661117553710938e+01 5.221018314361572266e+00 -3.441284894943237305e+00 -1.339686036109924316e+00 -1.434291243553161621e+00 -2.096924543380737305e+00
8.848000000000000000e+03 1.714562606811523438e+01 -1.553380340337753296e-01 -1.043919086456298828e+00 -2.995971143245697021e-01 -4.030548632144927979e-01 -6.027125120162963867e-01
8.849000000000000000e+03 2.687044715881347656e+01 5.361169338226318359e+00 -3.300558328628540039e+00 -1.366590142250061035e+00 -1.400144457817077637e+00 -2.050622463226318359e+00
8.850000000000000000e+03 2.709128570556640625e+01 5.285356521606445312e+00 -3.220506668090820312e+00 -1.410210847854614258e+00 -1.389215230941772461e+00 -2.017221450805664062e+00
8.851000000000000000e+03 2.118954086303710938e+01 1.274497270584106445e+00 -3.063000679016113281e+00 -1.677610158920288086e+00 -1.422183275222778320e+00 -2.917766332626342773e+00
8.852000000000000000e+03 2.019433784484863281e+01 1.759514331817626953e+00 -3.832787752151489258e+00 -1.755991935729980469e+00 -1.676633954048156738e+00 -2.734276294708251953e+00
8.853000000000000000e+03 2.018190765380859375e+01 1.064736366271972656e+00 -2.170439243316650391e+00 -2.475978374481201172e+00 -1.393925309181213379e+00 -2.853357553482055664e+00
8.854000000000000000e+03 1.935871696472167969e+01 1.216935992240905762e+00 -2.080690145492553711e+00 -1.228921055793762207e+00 -9.928833246231079102e-01 -1.716451883316040039e+00
8.855000000000000000e+03 2.539921188354492188e+01 3.561335802078247070e+00 -3.333092451095581055e+00 -9.196600317955017090e-01 -1.275825738906860352e+00 -1.676619529724121094e+00
8.856000000000000000e+03 1.571566581726074219e+01 -1.323912382125854492e+00 -1.660681605339050293e+00 -4.010991454124450684e-01 -6.185342669486999512e-01 -5.380573868751525879e-01
8.857000000000000000e+03 2.263900375366210938e+01 2.504871845245361328e+00 -4.244590759277343750e+00 -1.233407616615295410e+00 -1.643399596214294434e+00 -2.376431226730346680e+00
8.858000000000000000e+03 2.800488471984863281e+01 5.848486900329589844e+00 -2.974437475204467773e+00 -1.878780961036682129e+00 -1.455965518951416016e+00 -2.070970296859741211e+00
8.859000000000000000e+03 1.719545364379882812e+01 -1.510667562484741211e+00 -2.158881425857543945e+00 -8.678374886512756348e-01 -9.080156087875366211e-01 -9.259489774703979492e-01
8.860000000000000000e+03 1.787138938903808594e+01 -1.097423791885375977e+00 -2.259095668792724609e+00 -1.246896982192993164e+00 -1.051797747611999512e+00 -1.345573306083679199e+00
8.861000000000000000e+03 2.079612731933593750e+01 7.050688266754150391e-01 -2.163346052169799805e+00 -2.028994798660278320e+00 -1.257702231407165527e+00 -3.216549158096313477e+00
8.862000000000000000e+03 2.169133377075195312e+01 1.558170557022094727e+00 -3.361993789672851562e+00 -1.247095465660095215e+00 -1.382726788520812988e+00 -2.642822265625000000e+00
8.863000000000000000e+03 2.729758262634277344e+01 5.097759246826171875e+00 -3.016739606857299805e+00 -1.409956336021423340e+00 -1.328008770942687988e+00 -1.864408612251281738e+00
8.864000000000000000e+03 2.415109443664550781e+01 3.541301012039184570e+00 -4.015735626220703125e+00 -1.157550692558288574e+00 -1.551985859870910645e+00 -2.149808645248413086e+00
8.865000000000000000e+03 2.448440170288085938e+01 3.341402530670166016e+00 -3.698312044143676758e+00 -9.422067999839782715e-01 -1.392155647277832031e+00 -1.868663549423217773e+00
8.866000000000000000e+03 1.683305740356445312e+01 -1.691916942596435547e+00 -2.044234275817871094e+00 -7.633700966835021973e-01 -8.422813415527343750e-01 -9.408637881278991699e-01
8.867000000000000000e+03 2.622740745544433594e+01 7.297908306121826172e+00 -4.979642868041992188e+00 -2.913374423980712891e+00 -2.367905139923095703e+00 -3.780469179153442383e+00
8.868000000000000000e+03 2.697657012939453125e+01 5.983730792999267578e+00 -3.574451208114624023e+00 -1.445998072624206543e+00 -1.506134748458862305e+00 -2.253924369812011719e+00
8.869000000000000000e+03 2.779113769531250000e+01 5.052097320556640625e+00 -2.766711950302124023e+00 -1.447878479957580566e+00 -1.264377117156982422e+00 -1.685012221336364746e+00
8.870000000000000000e+03 2.248469924926757812e+01 4.194937229156494141e+00 -6.348385214805603027e-01 -8.777632713317871094e-01 -4.537805318832397461e-01 -9.113129973411560059e-01
8.871000000000000000e+03 2.810100364685058594e+01 6.046474933624267578e+00 -3.030962705612182617e+00 -2.021927833557128906e+00 -1.515867233276367188e+00 -2.195225477218627930e+00
8.872000000000000000e+03 2.771772384643554688e+01 5.859869003295898438e+00 -3.175648450851440430e+00 -1.732802510261535645e+00 -1.472535252571105957e+00 -2.187662363052368164e+00
8.873000000000000000e+03 2.727552604675292969e+01 5.811677932739257812e+00 -3.388742685317993164e+00 -1.509039998054504395e+00 -1.469334840774536133e+00 -2.209397077560424805e+00
8.874000000000000000e+03 1.802574157714843750e+01 -6.289025545120239258e-01 -2.055802822113037109e+00 -9.825962185859680176e-01 -9.115197062492370605e-01 -1.235208988189697266e+00
8.875000000000000000e+03 2.210570907592773438e+01 2.492837190628051758e+00 -4.579212665557861328e+00 -1.538021802902221680e+00 -1.835170388221740723e+00 -2.738380670547485352e+00
8.876000000000000000e+03 2.677413558959960938e+01 6.737572669982910156e+00 1.088563323020935059e+00 2.690735161304473877e-01 4.072910547256469727e-01 6.132645606994628906e-01
8.877000000000000000e+03 2.137590599060058594e+01 2.484710216522216797e+00 -5.074289321899414062e+00 -1.982163548469543457e+00 -2.116935968399047852e+00 -3.211564302444458008e+00
8.878000000000000000e+03 2.203787803649902344e+01 2.063200950622558594e+00 -4.041700839996337891e+00 -1.323242664337158203e+00 -1.609483003616333008e+00 -2.555341720581054688e+00
8.879000000000000000e+03 2.509796905517578125e+01 3.919186592102050781e+00 -3.679579734802246094e+00 -1.075390934944152832e+00 -1.426491260528564453e+00 -1.956656336784362793e+00
8.880000000000000000e+03 2.195049285888671875e+01 1.871048808097839355e+00 -3.787694692611694336e+00 -1.244885802268981934e+00 -1.509774208068847656e+00 -2.528139591217041016e+00
8.881000000000000000e+03 2.650942611694335938e+01 5.975653648376464844e+00 4.840065002441406250e+00 1.779995441436767578e+00 1.986018061637878418e+00 2.961494922637939453e+00
8.882000000000000000e+03 2.526243782043457031e+01 3.778376102447509766e+00 -3.486652135848999023e+00 -1.008361458778381348e+00 -1.348504066467285156e+00 -1.789149641990661621e+00
8.883000000000000000e+03 2.581404304504394531e+01 5.989075660705566406e+00 1.844079971313476562e+00 4.659214615821838379e-01 6.930004358291625977e-01 8.821443915367126465e-01
8.884000000000000000e+03 2.056393432617187500e+01 2.613148450851440430e+00 -1.888734996318817139e-01 -7.383016943931579590e-01 -2.781525552272796631e-01 -6.476463079452514648e-01
8.885000000000000000e+03 2.220507812500000000e+01 4.010235309600830078e+00 -6.401785016059875488e-01 -8.224683403968811035e-01 -4.387940466403961182e-01 -8.916031122207641602e-01
8.886000000000000000e+03 2.517549514770507812e+01 5.827631950378417969e+00 -4.336933195590972900e-01 -3.133471012115478516e-01 -2.241121381521224976e-01 -4.036256372928619385e-01
8.887000000000000000e+03 2.293656158447265625e+01 4.501118659973144531e+00 -7.544849514961242676e-01 -8.973049521446228027e-01 -4.955369532108306885e-01 -1.010154485702514648e+00
8.888000000000000000e+03 2.442124557495117188e+01 5.519610404968261719e+00 -1.635991573333740234e+00 -1.287325382232666016e+00 -8.769950866699218750e-01 -1.338630199432373047e+00
8.889000000000000000e+03 2.104181480407714844e+01 3.073762416839599609e+00 -7.173051685094833374e-02 -7.481805086135864258e-01 -2.459733188152313232e-01 -6.636531352996826172e-01
8.890000000000000000e+03 2.142096900939941406e+01 3.482760190963745117e+00 -3.771508932113647461e-01 -9.019548296928405762e-01 -3.837317228317260742e-01 -8.531243205070495605e-01
8.891000000000000000e+03 2.412429046630859375e+01 5.373105525970458984e+00 -2.031999588012695312e+00 -1.381477594375610352e+00 -1.024043202400207520e+00 -1.599934101104736328e+00
8.892000000000000000e+03 2.116611099243164062e+01 3.312534093856811523e+00 -3.813559114933013916e-01 -9.474112391471862793e-01 -3.986301422119140625e-01 -8.338418602943420410e-01
8.893000000000000000e+03 1.517877674102783203e+01 2.289497256278991699e-01 -1.604563444852828979e-01 1.757774353027343750e+00 4.791954159736633301e-01 -8.778812289237976074e-01
8.894000000000000000e+03 2.783670806884765625e+01 5.383440017700195312e+00 -2.867615461349487305e+00 -1.585462570190429688e+00 -1.335923433303833008e+00 -1.858194112777709961e+00
8.895000000000000000e+03 1.819314384460449219e+01 -5.126250386238098145e-01 -2.089305639266967773e+00 -1.276071906089782715e+00 -1.009613156318664551e+00 -1.323827743530273438e+00
8.896000000000000000e+03 2.597503852844238281e+01 5.709755897521972656e+00 4.626923561096191406e+00 1.599919557571411133e+00 1.868052959442138672e+00 2.683091163635253906e+00
8.897000000000000000e+03 1.796308708190917969e+01 1.059279084205627441e+00 -1.199416995048522949e+00 -1.167875170707702637e+00 -7.101876735687255859e-01 -1.517636656761169434e+00
8.898000000000000000e+03 2.720183753967285156e+01 6.784772396087646484e+00 2.478318691253662109e+00 8.835358023643493652e-01 1.008556365966796875e+00 1.569669961929321289e+00
8.899000000000000000e+03 1.673983955383300781e+01 5.516457557678222656e-01 -5.935614705085754395e-01 -4.663609340786933899e-02 -1.920592635869979858e-01 -5.373387336730957031e-01
8.900000000000000000e+03 2.389292526245117188e+01 4.802043437957763672e+00 1.248654127120971680e+00 -8.676826953887939453e-02 3.485657572746276855e-01 2.211148738861083984e-01
8.901000000000000000e+03 1.610945892333984375e+01 3.070570528507232666e-01 -2.926114499568939209e-01 2.916710078716278076e-01 -2.821303205564618111e-04 -5.701640844345092773e-01
8.902000000000000000e+03 2.368414306640625000e+01 3.659442424774169922e+00 -4.309488773345947266e+00 -1.440461277961730957e+00 -1.724985003471374512e+00 -2.472500562667846680e+00
8.903000000000000000e+03 2.561004066467285156e+01 4.838339805603027344e+00 -3.647142171859741211e+00 -1.304361820220947266e+00 -1.485451221466064453e+00 -2.174815893173217773e+00
8.904000000000000000e+03 2.371541023254394531e+01 2.803117275238037109e+00 -3.842674016952514648e+00 -9.291685819625854492e-01 -1.431552767753601074e+00 -1.906578898429870605e+00
8.905000000000000000e+03 2.558269309997558594e+01 4.275063514709472656e+00 -3.472496509552001953e+00 -1.125182628631591797e+00 -1.379303812980651855e+00 -1.933198332786560059e+00
8.906000000000000000e+03 2.534510612487792969e+01 4.405199050903320312e+00 -3.662249803543090820e+00 -1.220645070075988770e+00 -1.464868426322937012e+00 -2.085514068603515625e+00
8.907000000000000000e+03 2.360383987426757812e+01 3.146109819412231445e+00 -4.177821159362792969e+00 -1.174068927764892578e+00 -1.605566978454589844e+00 -2.209075450897216797e+00
8.908000000000000000e+03 2.136069869995117188e+01 1.376713991165161133e+00 -3.033236503601074219e+00 -1.425486087799072266e+00 -1.337616801261901855e+00 -2.889316320419311523e+00
8.909000000000000000e+03 1.911192321777343750e+01 8.317236304283142090e-01 -1.385164141654968262e+00 -1.641018748283386230e+00 -9.078548550605773926e-01 -1.432009935379028320e+00
8.910000000000000000e+03 2.709817886352539062e+01 5.751211166381835938e+00 -3.414601802825927734e+00 -1.470137119293212891e+00 -1.465421676635742188e+00 -2.193552970886230469e+00
8.911000000000000000e+03 2.756222724914550781e+01 5.541855812072753906e+00 -3.072347879409790039e+00 -1.554190516471862793e+00 -1.387961506843566895e+00 -2.021966934204101562e+00
8.912000000000000000e+03 1.706620979309082031e+01 -1.017040967941284180e+00 -1.888461232185363770e+00 -5.407784581184387207e-01 -7.287719249725341797e-01 -8.055597543716430664e-01
8.913000000000000000e+03 2.030491447448730469e+01 7.856969833374023438e-01 -1.971562385559082031e+00 -2.449634313583374023e+00 -1.326359033584594727e+00 -3.229959249496459961e+00
8.914000000000000000e+03 2.607737541198730469e+01 4.842619895935058594e+00 -3.432005882263183594e+00 -1.254217386245727539e+00 -1.405866980552673340e+00 -2.044738531112670898e+00
8.915000000000000000e+03 2.666492843627929688e+01 4.805519580841064453e+00 -3.224928855895996094e+00 -1.223755478858947754e+00 -1.334605336189270020e+00 -1.869115710258483887e+00
8.916000000000000000e+03 2.630720329284667969e+01 4.768382549285888672e+00 -3.368638038635253906e+00 -1.219334840774536133e+00 -1.376391887664794922e+00 -1.951230406761169434e+00
8.917000000000000000e+03 2.283657073974609375e+01 1.973399281501770020e+00 -3.608858108520507812e+00 -8.615857362747192383e-01 -1.341133117675781250e+00 -2.030659437179565430e+00
8.918000000000000000e+03 2.334562683105468750e+01 2.934128522872924805e+00 -4.167427062988281250e+00 -1.188542962074279785e+00 -1.606791019439697266e+00 -2.257062911987304688e+00
8.919000000000000000e+03 1.984938049316406250e+01 5.231701135635375977e-01 -1.328785419464111328e+00 -2.614211320877075195e+00 -1.182899117469787598e+00 -2.577367782592773438e+00
8.920000000000000000e+03 2.011395072937011719e+01 7.077939510345458984e-01 -1.659456253051757812e+00 -2.970559358596801758e+00 -1.389004707336425781e+00 -3.068749427795410156e+00
8.921000000000000000e+03 1.963491249084472656e+01 7.110378742218017578e-01 -1.726372241973876953e+00 -2.552540063858032227e+00 -1.283673644065856934e+00 -2.421975135803222656e+00
8.922000000000000000e+03 1.723280715942382812e+01 -1.188942551612854004e+00 -2.187435388565063477e+00 -7.397647500038146973e-01 -8.781600594520568848e-01 -9.986591339111328125e-01
8.923000000000000000e+03 1.616164016723632812e+01 -1.410947084426879883e+00 -1.797573328018188477e+00 -6.240706443786621094e-01 -7.264931797981262207e-01 -5.543049573898315430e-01
8.924000000000000000e+03 2.569254302978515625e+01 4.493881225585937500e+00 -3.564319133758544922e+00 -1.173190355300903320e+00 -1.421252846717834473e+00 -2.005629777908325195e+00
8.925000000000000000e+03 1.685601615905761719e+01 -1.279227972030639648e+00 -2.063006877899169922e+00 -5.657830238342285156e-01 -7.886369228363037109e-01 -7.327669262886047363e-01
8.926000000000000000e+03 1.799986267089843750e+01 -2.705654203891754150e-01 -1.754889488220214844e+00 -7.329936623573303223e-01 -7.463649511337280273e-01 -1.019158005714416504e+00
8.927000000000000000e+03 2.143686676025390625e+01 1.690131187438964844e+00 -3.636430025100708008e+00 -1.580828309059143066e+00 -1.565177440643310547e+00 -2.812349557876586914e+00
8.928000000000000000e+03 2.634053611755371094e+01 6.562598705291748047e+00 3.016445040702819824e-01 -3.060295581817626953e-01 -1.315517816692590714e-03 5.685264244675636292e-02
8.929000000000000000e+03 2.582064056396484375e+01 6.539969921112060547e+00 -2.144477844238281250e+00 -1.340160369873046875e+00 -1.045391440391540527e+00 -1.702509641647338867e+00
8.930000000000000000e+03 2.690040969848632812e+01 7.386531829833984375e+00 -2.374571084976196289e+00 -1.391466856002807617e+00 -1.129811286926269531e+00 -1.857716798782348633e+00
8.931000000000000000e+03 2.739855003356933594e+01 6.886539459228515625e+00 2.732824802398681641e+00 1.044237136840820312e+00 1.133118629455566406e+00 1.583680868148803711e+00
8.932000000000000000e+03 2.546012306213378906e+01 6.374949455261230469e+00 -2.504442453384399414e+00 -1.509504675865173340e+00 -1.204184174537658691e+00 -2.050910234451293945e+00
8.933000000000000000e+03 2.576717567443847656e+01 6.282899379730224609e+00 -5.432085990905761719e-01 -4.548792541027069092e-01 -2.994263768196105957e-01 -5.941927433013916016e-01
8.934000000000000000e+03 2.224742889404296875e+01 2.353343725204467773e+00 -4.277420997619628906e+00 -1.427551507949829102e+00 -1.711491703987121582e+00 -2.602856874465942383e+00
8.935000000000000000e+03 1.846948242187500000e+01 3.501643538475036621e-01 -1.417432785034179688e+00 -1.039452314376831055e+00 -7.370654940605163574e-01 -9.746827483177185059e-01
8.936000000000000000e+03 2.635047340393066406e+01 7.097494602203369141e+00 -3.251407623291015625e+00 -1.958709716796875000e+00 -1.563035249710083008e+00 -2.376701354980468750e+00
8.937000000000000000e+03 1.812079811096191406e+01 1.768802553415298462e-01 -1.301109552383422852e+00 -6.695962548255920410e-01 -5.912117362022399902e-01 -7.960445880889892578e-01
8.938000000000000000e+03 2.571139526367187500e+01 6.977231502532958984e+00 -5.491967201232910156e+00 -2.883531808853149414e+00 -2.512649774551391602e+00 -3.871980905532836914e+00
8.939000000000000000e+03 2.285479354858398438e+01 4.230628013610839844e+00 3.232406973838806152e-01 -5.002521872520446777e-01 -5.310343950986862183e-02 -3.271028995513916016e-01
8.940000000000000000e+03 1.606735420227050781e+01 -3.954804837703704834e-01 -4.128170967102050781e+00 -2.949558198451995850e-01 -1.326938033103942871e+00 -2.323291778564453125e+00
8.941000000000000000e+03 1.644632148742675781e+01 -1.453485488891601562e+00 -1.988961219787597656e+00 -5.446329116821289062e-01 -7.600782513618469238e-01 -7.574822306632995605e-01
8.942000000000000000e+03 1.625562286376953125e+01 -1.167083740234375000e+00 -1.889621615409851074e+00 -4.833911955356597900e-01 -7.119038105010986328e-01 -4.182666838169097900e-01
8.943000000000000000e+03 1.906036376953125000e+01 1.955818653106689453e+00 -1.108996048569679260e-01 -7.695320248603820801e-01 -2.641294896602630615e-01 -7.428434491157531738e-01
8.944000000000000000e+03 1.830961990356445312e+01 -2.198664695024490356e-01 -2.024951457977294922e+00 -1.165907621383666992e+00 -9.572576880455017090e-01 -1.326924920082092285e+00
8.945000000000000000e+03 1.897157478332519531e+01 5.663049221038818359e-01 -1.792199730873107910e+00 -1.589082717895507812e+00 -1.014384746551513672e+00 -1.670445919036865234e+00
8.946000000000000000e+03 2.714145660400390625e+01 5.515115261077880859e+00 -3.266479730606079102e+00 -1.431532144546508789e+00 -1.409403562545776367e+00 -2.079987049102783203e+00
8.947000000000000000e+03 2.736359596252441406e+01 5.513992786407470703e+00 -3.179926156997680664e+00 -1.534504890441894531e+00 -1.414329290390014648e+00 -2.067476749420166016e+00
8.948000000000000000e+03 2.710399055480957031e+01 7.190565109252929688e+00 -5.038973689079284668e-01 -2.151665091514587402e-01 -2.157191634178161621e-01 -3.489756882190704346e-01
8.949000000000000000e+03 2.526805114746093750e+01 6.093179225921630859e+00 -1.601841211318969727e+00 -8.817418813705444336e-01 -7.450749278068542480e-01 -1.316998481750488281e+00
8.950000000000000000e+03 2.039383125305175781e+01 1.114218592643737793e+00 -2.468700170516967773e+00 -2.242730855941772461e+00 -1.413429379463195801e+00 -3.050895214080810547e+00
8.951000000000000000e+03 2.417414855957031250e+01 3.933209896087646484e+00 -4.089663505554199219e+00 -1.352460145950317383e+00 -1.632637143135070801e+00 -2.368075847625732422e+00
8.952000000000000000e+03 2.251664733886718750e+01 2.358477115631103516e+00 -4.137031078338623047e+00 -1.254310727119445801e+00 -1.617402553558349609e+00 -2.427271127700805664e+00
8.953000000000000000e+03 1.867271995544433594e+01 3.759214282035827637e-01 -1.162285208702087402e+00 -1.208265304565429688e+00 -7.111651301383972168e-01 -1.298080563545227051e+00
8.954000000000000000e+03 1.949674224853515625e+01 9.525567889213562012e-01 -1.786358594894409180e+00 -2.234983444213867188e+00 -1.206402659416198730e+00 -2.057536840438842773e+00
8.955000000000000000e+03 1.783939170837402344e+01 -3.905213475227355957e-01 -1.782754659652709961e+00 -7.875793576240539551e-01 -7.711002230644226074e-01 -1.024335384368896484e+00
8.956000000000000000e+03 2.321898460388183594e+01 3.217948198318481445e+00 -4.407627582550048828e+00 -1.382537364959716797e+00 -1.737049579620361328e+00 -2.475888729095458984e+00
8.957000000000000000e+03 2.300796318054199219e+01 2.877877712249755859e+00 -4.295885086059570312e+00 -1.287930250167846680e+00 -1.675144672393798828e+00 -2.406045913696289062e+00
8.958000000000000000e+03 2.580160903930664062e+01 4.695583820343017578e+00 -3.513967037200927734e+00 -1.233907818794250488e+00 -1.424362421035766602e+00 -2.056155681610107422e+00
8.959000000000000000e+03 2.489657402038574219e+01 4.026909351348876953e+00 -3.728695631027221680e+00 -1.171496629714965820e+00 -1.470057725906372070e+00 -2.078285694122314453e+00
8.960000000000000000e+03 1.720486450195312500e+01 -8.704810738563537598e-01 -1.981389522552490234e+00 -5.497665405273437500e-01 -7.593468427658081055e-01 -8.945245742797851562e-01
8.961000000000000000e+03 1.967807006835937500e+01 1.468261122703552246e+00 -2.807956218719482422e+00 -1.468475580215454102e+00 -1.282929539680480957e+00 -2.115133762359619141e+00
8.962000000000000000e+03 1.999178695678710938e+01 9.750122427940368652e-01 -2.031118631362915039e+00 -2.337516784667968750e+00 -1.310590624809265137e+00 -2.720972299575805664e+00
8.963000000000000000e+03 1.881453514099121094e+01 -1.145941466093063354e-01 -1.856649875640869141e+00 -1.760044574737548828e+00 -1.085008382797241211e+00 -1.385084986686706543e+00
8.964000000000000000e+03 2.476461601257324219e+01 3.816526651382446289e+00 -3.800652503967285156e+00 -1.092914223670959473e+00 -1.468070030212402344e+00 -2.007845878601074219e+00
8.965000000000000000e+03 2.222923851013183594e+01 2.596244335174560547e+00 -4.605008602142333984e+00 -1.600018620491027832e+00 -1.861508131027221680e+00 -2.741688966751098633e+00
8.966000000000000000e+03 2.157818603515625000e+01 1.730562210083007812e+00 -3.713130950927734375e+00 -1.431293845176696777e+00 -1.543327450752258301e+00 -2.799158096313476562e+00
8.967000000000000000e+03 1.753607368469238281e+01 -9.707576036453247070e-01 -2.112986326217651367e+00 -8.460858464241027832e-01 -8.877216577529907227e-01 -1.070821166038513184e+00
8.968000000000000000e+03 1.557396507263183594e+01 -2.852958738803863525e-01 -5.054258823394775391e+00 1.342612385749816895e+00 -1.113494038581848145e+00 -1.068080663681030273e+00
8.969000000000000000e+03 1.580789661407470703e+01 -2.014942407608032227e+00 -1.631614446640014648e+00 -5.555492639541625977e-01 -6.561491489410400391e-01 -7.378646731376647949e-01
8.970000000000000000e+03 2.779977416992187500e+01 6.011123180389404297e+00 -3.282932043075561523e+00 -1.810670375823974609e+00 -1.528080821037292480e+00 -2.286107540130615234e+00
8.971000000000000000e+03 2.430105209350585938e+01 3.707533121109008789e+00 -3.943420648574829102e+00 -1.208762764930725098e+00 -1.545655012130737305e+00 -2.164564132690429688e+00
8.972000000000000000e+03 1.976152992248535156e+01 8.037325739860534668e-01 -1.858059406280517578e+00 -2.186728477478027344e+00 -1.213436365127563477e+00 -2.423005342483520508e+00
8.973000000000000000e+03 2.400750732421875000e+01 3.809019565582275391e+00 -4.149392127990722656e+00 -1.410457611083984375e+00 -1.667954921722412109e+00 -2.399097919464111328e+00
8.974000000000000000e+03 2.676595687866210938e+01 6.886943340301513672e+00 1.643937528133392334e-01 -1.811637878417968750e-01 -5.031011998653411865e-03 6.052573025226593018e-02
8.975000000000000000e+03 2.651888465881347656e+01 7.204801559448242188e+00 -3.111711978912353516e+00 -1.933872222900390625e+00 -1.513675212860107422e+00 -2.287917375564575195e+00
8.976000000000000000e+03 1.628826141357421875e+01 -2.017508745193481445e+00 -1.709869265556335449e+00 -6.923897862434387207e-01 -7.206777334213256836e-01 -8.256990909576416016e-01
8.977000000000000000e+03 2.591839790344238281e+01 4.346871852874755859e+00 -3.348069906234741211e+00 -1.120236992835998535e+00 -1.340492129325866699e+00 -1.852879524230957031e+00
8.978000000000000000e+03 1.501998519897460938e+01 -1.876763939857482910e+00 -1.503355383872985840e+00 -2.589025497436523438e-01 -5.286773443222045898e-01 -5.480065345764160156e-01
8.979000000000000000e+03 2.733472442626953125e+01 7.141497611999511719e+00 7.495263218879699707e-01 3.923515379428863525e-01 3.425633609294891357e-01 4.946184754371643066e-01
8.980000000000000000e+03 2.684387207031250000e+01 6.556024074554443359e+00 2.435273885726928711e+00 1.021562933921813965e+00 1.037050962448120117e+00 1.479493379592895508e+00
8.981000000000000000e+03 2.666568374633789062e+01 6.083534240722656250e+00 4.718413829803466797e+00 1.807763338088989258e+00 1.957853078842163086e+00 2.972955226898193359e+00
8.982000000000000000e+03 2.625601196289062500e+01 6.063596248626708984e+00 3.324351787567138672e+00 1.000494718551635742e+00 1.297453880310058594e+00 1.909393668174743652e+00
8.983000000000000000e+03 2.616489219665527344e+01 5.798119544982910156e+00 4.761727809906005859e+00 1.597870945930480957e+00 1.907879590988159180e+00 2.757116556167602539e+00
8.984000000000000000e+03 2.606442070007324219e+01 6.034417629241943359e+00 2.619683504104614258e+00 7.396554350852966309e-01 1.007801651954650879e+00 1.460470914840698242e+00
8.985000000000000000e+03 2.558020401000976562e+01 5.873181343078613281e+00 1.618072271347045898e+00 3.003686070442199707e-01 5.755322575569152832e-01 6.852596402168273926e-01
8.986000000000000000e+03 2.528006172180175781e+01 5.593722820281982422e+00 2.011956930160522461e+00 5.738023519515991211e-01 7.757277488708496094e-01 1.122380733489990234e+00
8.987000000000000000e+03 2.545791816711425781e+01 5.377339839935302734e+00 4.479938030242919922e+00 1.452494740486145020e+00 1.779729843139648438e+00 2.586340427398681641e+00
8.988000000000000000e+03 2.511786651611328125e+01 5.163075447082519531e+00 4.195766448974609375e+00 1.505881071090698242e+00 1.710494160652160645e+00 2.547481775283813477e+00
8.989000000000000000e+03 2.478065109252929688e+01 4.935214519500732422e+00 4.245248317718505859e+00 1.601607918739318848e+00 1.754056930541992188e+00 2.346979141235351562e+00
8.990000000000000000e+03 2.434786415100097656e+01 4.955834388732910156e+00 2.023397684097290039e+00 3.068863749504089355e-01 6.990851759910583496e-01 1.087217688560485840e+00
8.991000000000000000e+03 2.371851730346679688e+01 4.320669174194335938e+00 3.372391462326049805e+00 9.691309928894042969e-01 1.302456736564636230e+00 1.809223294258117676e+00
8.992000000000000000e+03 2.365928649902343750e+01 4.679716110229492188e+00 9.910256266593933105e-01 -2.660578191280364990e-01 2.174903452396392822e-01 6.986780464649200439e-02
8.993000000000000000e+03 2.341914558410644531e+01 4.077101707458496094e+00 2.965521574020385742e+00 7.963161468505859375e-01 1.128551363945007324e+00 1.634875416755676270e+00
8.994000000000000000e+03 2.287387466430664062e+01 3.978004455566406250e+00 1.725483775138854980e+00 2.228726260364055634e-02 5.243313312530517578e-01 5.775682926177978516e-01
8.995000000000000000e+03 2.257127761840820312e+01 3.593299865722656250e+00 2.006321191787719727e+00 4.791992902755737305e-01 7.456561326980590820e-01 9.836281538009643555e-01
8.996000000000000000e+03 2.238205909729003906e+01 3.494225025177001953e+00 1.812079310417175293e+00 3.340442180633544922e-01 6.438370347023010254e-01 8.896785974502563477e-01
8.997000000000000000e+03 2.175230789184570312e+01 3.041884422302246094e+00 9.331378340721130371e-01 3.764422610402107239e-02 2.912346124649047852e-01 4.409635066986083984e-01
8.998000000000000000e+03 2.091606521606445312e+01 2.871060132980346680e+00 8.109494298696517944e-02 -6.189411878585815430e-01 -1.613538712263107300e-01 -5.102823376655578613e-01
8.999000000000000000e+03 2.039735031127929688e+01 2.418879747390747070e+00 -4.504235684871673584e-01 -7.580815553665161133e-01 -3.625515401363372803e-01 -7.470324635505676270e-01
9.000000000000000000e+03 2.056420326232910156e+01 2.295139312744140625e+00 -5.804494619369506836e-01 -3.902798891067504883e-01 -2.912187874317169189e-01 -4.768691658973693848e-01
9.001000000000000000e+03 1.985025787353515625e+01 2.300310134887695312e+00 -4.966129660606384277e-01 -1.023280262947082520e+00 -4.559679627418518066e-01 -9.805380702018737793e-01
9.002000000000000000e+03 1.921669578552246094e+01 1.422919631004333496e+00 -3.252664089202880859e+00 -1.221060514450073242e+00 -1.342117428779602051e+00 -2.191324710845947266e+00
9.003000000000000000e+03 1.834779357910156250e+01 1.595245122909545898e+00 8.086878061294555664e-01 -5.968543887138366699e-01 6.355002522468566895e-02 -1.846236884593963623e-01
9.004000000000000000e+03 1.854553031921386719e+01 1.398307919502258301e+00 -1.375148296356201172e+00 -1.346289753913879395e+00 -8.164314031600952148e-01 -1.496007084846496582e+00
9.005000000000000000e+03 1.820831489562988281e+01 8.324990868568420410e-01 -4.851846218109130859e+00 -1.921235084533691406e+00 -2.031924486160278320e+00 -2.995182991027832031e+00
9.006000000000000000e+03 1.684770965576171875e+01 3.050752580165863037e-01 -3.360996246337890625e+00 -1.277283430099487305e+00 -1.391483902931213379e+00 -2.572590589523315430e+00
9.007000000000000000e+03 1.643051910400390625e+01 4.287737011909484863e-01 -3.157660365104675293e-03 -1.295488774776458740e-01 -3.981196135282516479e-02 -5.978053808212280273e-01
9.008000000000000000e+03 1.508499240875244141e+01 -1.196102350950241089e-01 -4.306958675384521484e+00 6.664264798164367676e-01 -1.092159628868103027e+00 -2.058760523796081543e-01
9.009000000000000000e+03 1.489139747619628906e+01 -4.429558813571929932e-01 -7.431734561920166016e+00 -1.916013062000274658e-01 -2.287000656127929688e+00 6.051078438758850098e-01
9.010000000000000000e+03 1.458994865417480469e+01 1.278747320175170898e-01 -1.895605564117431641e+00 4.915404319763183594e-01 -4.212195575237274170e-01 4.805924594402313232e-01
9.011000000000000000e+03 2.798352813720703125e+01 6.378621101379394531e+00 -3.542607307434082031e+00 -1.988810420036315918e+00 -1.659425377845764160e+00 -2.567821741104125977e+00
9.012000000000000000e+03 2.744732856750488281e+01 5.919847488403320312e+00 -3.375124454498291016e+00 -1.628380894660949707e+00 -1.501051664352416992e+00 -2.261209249496459961e+00
9.013000000000000000e+03 2.681096076965332031e+01 5.881733417510986328e+00 -3.552642107009887695e+00 -1.409610271453857422e+00 -1.488675713539123535e+00 -2.237589120864868164e+00
9.014000000000000000e+03 2.695290946960449219e+01 5.657287120819091797e+00 -3.424929618835449219e+00 -1.418256759643554688e+00 -1.452955842018127441e+00 -2.169802188873291016e+00
9.015000000000000000e+03 2.680890464782714844e+01 5.554503917694091797e+00 -3.453569889068603516e+00 -1.386128187179565430e+00 -1.451909422874450684e+00 -2.155982494354248047e+00
9.016000000000000000e+03 2.595121192932128906e+01 5.348055839538574219e+00 -3.599212884902954102e+00 -1.372059106826782227e+00 -1.491381645202636719e+00 -2.226907253265380859e+00
9.017000000000000000e+03 2.624352073669433594e+01 5.168264389038085938e+00 -3.502292633056640625e+00 -1.299584388732910156e+00 -1.440563082695007324e+00 -2.125573635101318359e+00
9.018000000000000000e+03 2.577732086181640625e+01 5.259509563446044922e+00 -3.638149499893188477e+00 -1.391013264656066895e+00 -1.508748888969421387e+00 -2.234792232513427734e+00
9.019000000000000000e+03 2.587140464782714844e+01 5.063723564147949219e+00 -3.567166090011596680e+00 -1.315350174903869629e+00 -1.464754819869995117e+00 -2.178331613540649414e+00
9.020000000000000000e+03 2.528497123718261719e+01 4.897889137268066406e+00 -3.753991365432739258e+00 -1.397318601608276367e+00 -1.545392990112304688e+00 -2.294472217559814453e+00
9.021000000000000000e+03 2.476001930236816406e+01 4.607118606567382812e+00 -3.925541400909423828e+00 -1.477158665657043457e+00 -1.620810031890869141e+00 -2.377581834793090820e+00
9.022000000000000000e+03 2.340548515319824219e+01 3.757633924484252930e+00 -4.502752304077148438e+00 -1.668378114700317383e+00 -1.851339101791381836e+00 -2.706444025039672852e+00
9.023000000000000000e+03 2.324150848388671875e+01 3.638243675231933594e+00 -4.578045845031738281e+00 -1.649891853332519531e+00 -1.868381381034851074e+00 -2.774299383163452148e+00
9.024000000000000000e+03 2.301863098144531250e+01 3.138655900955200195e+00 -4.505954742431640625e+00 -1.455962419509887695e+00 -1.788575053215026855e+00 -2.548299551010131836e+00
9.025000000000000000e+03 2.266702651977539062e+01 2.957285165786743164e+00 -4.627421855926513672e+00 -1.533005237579345703e+00 -1.848128199577331543e+00 -2.673421144485473633e+00
9.026000000000000000e+03 2.203386688232421875e+01 2.941110372543334961e+00 -5.099014282226562500e+00 -1.925330519676208496e+00 -2.107303380966186523e+00 -3.119632720947265625e+00
9.027000000000000000e+03 2.213482093811035156e+01 2.759301662445068359e+00 -4.831120967864990234e+00 -1.692847251892089844e+00 -1.957190513610839844e+00 -2.917293310165405273e+00
9.028000000000000000e+03 2.154034233093261719e+01 2.606009721755981445e+00 -5.130185127258300781e+00 -1.969338059425354004e+00 -2.129856824874877930e+00 -3.195344448089599609e+00
9.029000000000000000e+03 2.183447265625000000e+01 2.533674716949462891e+00 -4.802835464477539062e+00 -1.733650684356689453e+00 -1.960945844650268555e+00 -2.947259902954101562e+00
9.030000000000000000e+03 2.136129570007324219e+01 2.078829288482666016e+00 -4.351817607879638672e+00 -1.810611724853515625e+00 -1.848728895187377930e+00 -2.916548252105712891e+00
9.031000000000000000e+03 2.154104804992675781e+01 2.237478971481323242e+00 -4.519477367401123047e+00 -1.734140753746032715e+00 -1.876085400581359863e+00 -2.915508270263671875e+00
9.032000000000000000e+03 2.077692985534667969e+01 1.859538793563842773e+00 -4.020211219787597656e+00 -1.971874833106994629e+00 -1.797625780105590820e+00 -2.908380746841430664e+00
9.033000000000000000e+03 2.049374771118164062e+01 1.987400770187377930e+00 -4.568024635314941406e+00 -1.859198331832885742e+00 -1.928166866302490234e+00 -2.959414005279541016e+00
9.034000000000000000e+03 2.048386955261230469e+01 1.801054954528808594e+00 -3.914236068725585938e+00 -1.959581732749938965e+00 -1.762145400047302246e+00 -2.904867887496948242e+00
9.035000000000000000e+03 2.034474945068359375e+01 1.374484896659851074e+00 -2.834266901016235352e+00 -2.148081779479980469e+00 -1.494704604148864746e+00 -2.846010208129882812e+00
9.036000000000000000e+03 1.986848831176757812e+01 1.354785084724426270e+00 -2.570369243621826172e+00 -1.894135951995849609e+00 -1.339351534843444824e+00 -2.495349884033203125e+00
9.037000000000000000e+03 1.977758979797363281e+01 1.160026073455810547e+00 -2.357205629348754883e+00 -2.195374727249145508e+00 -1.365774154663085938e+00 -2.424864292144775391e+00
9.038000000000000000e+03 1.899002265930175781e+01 1.033178091049194336e+00 -1.496800780296325684e+00 -8.803628683090209961e-01 -7.131490707397460938e-01 -1.200803637504577637e+00
9.039000000000000000e+03 1.865701293945312500e+01 8.324456810951232910e-01 -1.100172758102416992e+00 -5.834476947784423828e-01 -5.050861239433288574e-01 -8.419295549392700195e-01
9.040000000000000000e+03 1.796325874328613281e+01 6.934621185064315796e-02 -1.290326118469238281e+00 -5.224148035049438477e-01 -5.438222289085388184e-01 -8.013914227485656738e-01
9.041000000000000000e+03 1.781099510192871094e+01 -4.681610688567161560e-02 -1.314196705818176270e+00 -5.593703389167785645e-01 -5.620701313018798828e-01 -7.685952782630920410e-01
9.042000000000000000e+03 1.731255149841308594e+01 -4.446045309305191040e-02 -9.938660264015197754e-01 -3.329572677612304688e-01 -3.980469703674316406e-01 -5.236366391181945801e-01
9.043000000000000000e+03 1.716968917846679688e+01 -5.165702104568481445e-01 -1.588804721832275391e+00 -4.071382582187652588e-01 -5.987828969955444336e-01 -7.914895415306091309e-01
9.044000000000000000e+03 1.733124160766601562e+01 -3.948403298854827881e-01 -1.506885409355163574e+00 -4.339398145675659180e-01 -5.822475552558898926e-01 -7.470291256904602051e-01
9.045000000000000000e+03 1.700969696044921875e+01 -6.479260325431823730e-01 -1.685224890708923340e+00 -4.159001708030700684e-01 -6.303375363349914551e-01 -7.670072913169860840e-01
9.046000000000000000e+03 1.667558479309082031e+01 -9.449340701103210449e-01 -1.951118707656860352e+00 -4.028658270835876465e-01 -7.061953544616699219e-01 -7.433920502662658691e-01
9.047000000000000000e+03 2.749036979675292969e+01 7.732102394104003906e+00 -2.015249729156494141e+00 -7.702420949935913086e-01 -8.356475234031677246e-01 -1.555625319480895996e+00
9.048000000000000000e+03 2.737743186950683594e+01 7.516111850738525391e+00 -1.252867460250854492e+00 -4.309463202953338623e-01 -5.051441192626953125e-01 -1.021461844444274902e+00
9.049000000000000000e+03 2.775899505615234375e+01 7.781839847564697266e+00 -1.558240771293640137e+00 -1.665001064538955688e-01 -5.174222588539123535e-01 -1.187095761299133301e+00
9.050000000000000000e+03 2.767353057861328125e+01 8.236301422119140625e+00 -3.495791673660278320e+00 -1.318244099617004395e+00 -1.444210767745971680e+00 -2.344137430191040039e+00
9.051000000000000000e+03 2.705670928955078125e+01 7.836090087890625000e+00 -3.883261442184448242e+00 -2.363436698913574219e+00 -1.874009370803833008e+00 -3.097452163696289062e+00
9.052000000000000000e+03 2.657050704956054688e+01 7.504411220550537109e+00 -4.505987644195556641e+00 -2.892961978912353516e+00 -2.219684839248657227e+00 -3.549032688140869141e+00
9.053000000000000000e+03 2.671600341796875000e+01 7.279695510864257812e+00 -2.631437063217163086e+00 -1.566094040870666504e+00 -1.259259343147277832e+00 -1.891465067863464355e+00
9.054000000000000000e+03 2.589096641540527344e+01 7.078425884246826172e+00 -5.349272727966308594e+00 -2.920511960983276367e+00 -2.480935335159301758e+00 -3.930343389511108398e+00
9.055000000000000000e+03 2.600694847106933594e+01 6.826173305511474609e+00 -3.123890876770019531e+00 -1.893731236457824707e+00 -1.505286574363708496e+00 -2.318172454833984375e+00
9.056000000000000000e+03 2.562108039855957031e+01 6.621604919433593750e+00 -3.365774393081665039e+00 -1.976110935211181641e+00 -1.602565646171569824e+00 -2.637443780899047852e+00
9.057000000000000000e+03 2.579959106445312500e+01 6.754337787628173828e+00 -3.557392120361328125e+00 -2.111842393875122070e+00 -1.700770378112792969e+00 -2.577956914901733398e+00
9.058000000000000000e+03 2.861095428466796875e+01 8.252856254577636719e+00 -1.820200800895690918e+00 -4.018784463405609131e-01 -6.666237711906433105e-01 -6.661635637283325195e-01
9.059000000000000000e+03 2.853674888610839844e+01 8.360008239746093750e+00 -1.994621872901916504e+00 -1.555475890636444092e-01 -6.450508236885070801e-01 -7.507243752479553223e-01
9.060000000000000000e+03 2.883415985107421875e+01 8.333746910095214844e+00 -1.361376762390136719e+00 -7.545922398567199707e-01 -6.347907185554504395e-01 -1.098418086767196655e-01
9.061000000000000000e+03 2.870514488220214844e+01 8.375977516174316406e+00 -2.039112329483032227e+00 -7.578995823860168457e-01 -8.391035795211791992e-01 -8.189827799797058105e-01
9.062000000000000000e+03 1.971903610229492188e+01 2.516002416610717773e+00 1.253958493471145630e-01 -7.331377863883972168e-01 -1.823225766420364380e-01 -5.138389468193054199e-01
9.063000000000000000e+03 2.373731422424316406e+01 5.086797237396240234e+00 -1.576446294784545898e+00 -1.199944019317626953e+00 -8.329170942306518555e-01 -1.417400717735290527e+00
9.064000000000000000e+03 2.900718116760253906e+01 8.279201507568359375e+00 -1.318310022354125977e+00 -7.323904633522033691e-01 -6.152101755142211914e-01 -2.652327418327331543e-01
9.065000000000000000e+03 2.995883560180664062e+01 7.631362438201904297e+00 -8.174381256103515625e-01 -1.766782402992248535e+00 -7.752661705017089844e-01 -1.375233769416809082e+00
9.066000000000000000e+03 2.986109924316406250e+01 7.173797130584716797e+00 -1.079059958457946777e+00 -1.664451479911804199e+00 -8.230534195899963379e-01 -1.656512856483459473e+00
9.067000000000000000e+03 2.977012825012207031e+01 7.303269386291503906e+00 -8.390740752220153809e-01 -1.783470988273620605e+00 -7.867635488510131836e-01 -1.735120654106140137e+00
9.068000000000000000e+03 1.753824615478515625e+01 -1.313276886940002441e+00 -2.238337755203247070e+00 -1.083888292312622070e+00 -9.966678023338317871e-01 -1.133201718330383301e+00
9.069000000000000000e+03 1.770430946350097656e+01 -1.205825805664062500e+00 -2.107486963272094727e+00 -1.105832576751708984e+00 -9.639958739280700684e-01 -1.224765777587890625e+00
9.070000000000000000e+03 1.803942489624023438e+01 -9.887551069259643555e-01 -2.182677030563354492e+00 -1.222432971000671387e+00 -1.021533012390136719e+00 -1.351218700408935547e+00
9.071000000000000000e+03 1.769699668884277344e+01 -8.576623797416687012e-01 -2.015996694564819336e+00 -8.613754510879516602e-01 -8.632116317749023438e-01 -1.113964557647705078e+00
9.072000000000000000e+03 1.871887207031250000e+01 -5.354961752891540527e-01 -2.343628168106079102e+00 -1.832834362983703613e+00 -1.252938747406005859e+00 -1.639592289924621582e+00
9.073000000000000000e+03 1.851503944396972656e+01 -2.948162555694580078e-01 -2.054757356643676758e+00 -1.604246377944946289e+00 -1.097701072692871094e+00 -1.350932717323303223e+00
9.074000000000000000e+03 1.856393241882324219e+01 1.237389743328094482e-01 -1.511202454566955566e+00 -1.267809271812438965e+00 -8.337035179138183594e-01 -1.276256680488586426e+00
9.075000000000000000e+03 1.924990653991699219e+01 -5.019795522093772888e-02 -1.459806561470031738e+00 -2.751113176345825195e+00 -1.263275861740112305e+00 -1.906360983848571777e+00
9.076000000000000000e+03 1.943012428283691406e+01 -4.136993363499641418e-02 -2.438427209854125977e+00 -3.429199218750000000e+00 -1.760287880897521973e+00 -2.558924913406372070e+00
9.077000000000000000e+03 1.920506477355957031e+01 2.889018356800079346e-01 -1.872041583061218262e+00 -2.529649496078491211e+00 -1.320507287979125977e+00 -1.982347488403320312e+00
9.078000000000000000e+03 1.935403060913085938e+01 1.091038063168525696e-01 -1.471698045730590820e+00 -2.767899751663208008e+00 -1.271879315376281738e+00 -1.719113349914550781e+00
9.079000000000000000e+03 1.970587158203125000e+01 3.779152035713195801e-01 -1.940565466880798340e+00 -3.088306903839111328e+00 -1.508661746978759766e+00 -2.769040346145629883e+00
9.080000000000000000e+03 2.085043907165527344e+01 1.039960861206054688e+00 -2.586204767227172852e+00 -2.021978378295898438e+00 -1.382454991340637207e+00 -3.122190237045288086e+00
9.081000000000000000e+03 2.049315261840820312e+01 8.613141179084777832e-01 -2.097432851791381836e+00 -2.401378870010375977e+00 -1.349643588066101074e+00 -3.125298500061035156e+00
9.082000000000000000e+03 2.152845191955566406e+01 1.460379362106323242e+00 -3.392939567565917969e+00 -1.395859360694885254e+00 -1.436639666557312012e+00 -2.662789106369018555e+00
9.083000000000000000e+03 2.228789710998535156e+01 2.100796222686767578e+00 -4.007910728454589844e+00 -1.221982955932617188e+00 -1.568968057632446289e+00 -2.455714941024780273e+00
9.084000000000000000e+03 2.268266296386718750e+01 2.183539867401123047e+00 -3.859297275543212891e+00 -9.544913172721862793e-01 -1.444136619567871094e+00 -2.152908086776733398e+00
9.085000000000000000e+03 2.282362365722656250e+01 2.349183797836303711e+00 -3.962341070175170898e+00 -1.051077961921691895e+00 -1.504025697708129883e+00 -2.203847646713256836e+00
9.086000000000000000e+03 2.291903305053710938e+01 2.602031946182250977e+00 -4.158837795257568359e+00 -1.177743077278137207e+00 -1.600974202156066895e+00 -2.272228956222534180e+00
9.087000000000000000e+03 2.312372589111328125e+01 2.517670631408691406e+00 -3.954287052154541016e+00 -9.660112857818603516e-01 -1.476089477539062500e+00 -2.126181840896606445e+00
9.088000000000000000e+03 2.329864883422851562e+01 2.554312467575073242e+00 -3.867528915405273438e+00 -9.675210118293762207e-01 -1.450515031814575195e+00 -1.999572038650512695e+00
9.089000000000000000e+03 2.370875740051269531e+01 2.486496210098266602e+00 -3.550410747528076172e+00 -7.944436073303222656e-01 -1.303456306457519531e+00 -1.774869441986083984e+00
9.090000000000000000e+03 2.360039710998535156e+01 2.670200109481811523e+00 -3.807721376419067383e+00 -9.232743978500366211e-01 -1.419298768043518066e+00 -1.936348199844360352e+00
9.091000000000000000e+03 2.383144950866699219e+01 2.970955133438110352e+00 -3.858124017715454102e+00 -1.002205252647399902e+00 -1.458098769187927246e+00 -2.000945091247558594e+00
9.092000000000000000e+03 2.428691291809082031e+01 3.261617898941040039e+00 -3.791335821151733398e+00 -1.034418940544128418e+00 -1.447726488113403320e+00 -1.956537485122680664e+00
9.093000000000000000e+03 2.491758537292480469e+01 3.217509746551513672e+00 -3.451872825622558594e+00 -8.583974838256835938e-01 -1.293081045150756836e+00 -1.651466369628906250e+00
9.094000000000000000e+03 2.506211090087890625e+01 3.325509548187255859e+00 -3.419080734252929688e+00 -8.677300810813903809e-01 -1.286043286323547363e+00 -1.683531999588012695e+00
9.095000000000000000e+03 2.508978843688964844e+01 3.686359405517578125e+00 -3.540918111801147461e+00 -9.654508233070373535e-01 -1.351910710334777832e+00 -1.833680629730224609e+00
9.096000000000000000e+03 2.592293930053710938e+01 3.904886245727539062e+00 -3.248629570007324219e+00 -1.005819559097290039e+00 -1.276334762573242188e+00 -1.666930556297302246e+00
9.097000000000000000e+03 2.642688369750976562e+01 4.173763751983642578e+00 -3.083862304687500000e+00 -1.063343882560729980e+00 -1.244161844253540039e+00 -1.654416441917419434e+00
9.098000000000000000e+03 2.612514495849609375e+01 4.211234092712402344e+00 -3.258834123611450195e+00 -1.062619328498840332e+00 -1.296436071395874023e+00 -1.754327178001403809e+00
9.099000000000000000e+03 2.628206062316894531e+01 4.349055767059326172e+00 -3.243986845016479492e+00 -1.109066724777221680e+00 -1.305916070938110352e+00 -1.771319985389709473e+00
9.100000000000000000e+03 2.674450492858886719e+01 4.412423610687255859e+00 -3.029694795608520508e+00 -1.138481378555297852e+00 -1.250452876091003418e+00 -1.678554177284240723e+00
9.101000000000000000e+03 2.653885078430175781e+01 4.620157718658447266e+00 -3.185733556747436523e+00 -1.184454679489135742e+00 -1.311056375503540039e+00 -1.824376225471496582e+00
9.102000000000000000e+03 2.699238395690917969e+01 4.901086807250976562e+00 -3.144560813903808594e+00 -1.280705571174621582e+00 -1.327579975128173828e+00 -1.843848466873168945e+00
9.103000000000000000e+03 2.765724372863769531e+01 5.295273303985595703e+00 -2.929883956909179688e+00 -1.546306848526000977e+00 -1.342857241630554199e+00 -1.863064885139465332e+00
9.104000000000000000e+03 2.831085968017578125e+01 5.369943618774414062e+00 -2.574645519256591797e+00 -1.684406399726867676e+00 -1.277715563774108887e+00 -1.599738359451293945e+00
9.105000000000000000e+03 2.837192344665527344e+01 5.715072154998779297e+00 -2.666025638580322266e+00 -1.903230190277099609e+00 -1.370776772499084473e+00 -1.770589709281921387e+00
9.106000000000000000e+03 2.900979804992675781e+01 5.785435676574707031e+00 -2.378766536712646484e+00 -1.693552136421203613e+00 -1.221695542335510254e+00 -1.382906198501586914e+00
9.107000000000000000e+03 2.888737106323242188e+01 5.938385963439941406e+00 -2.445903062820434570e+00 -1.829306125640869141e+00 -1.282562732696533203e+00 -1.496124386787414551e+00
9.108000000000000000e+03 2.932737922668457031e+01 6.294694900512695312e+00 -2.278297424316406250e+00 -1.502201914787292480e+00 -1.134149789810180664e+00 -1.547159552574157715e+00
9.109000000000000000e+03 2.987050247192382812e+01 6.886860370635986328e+00 -1.463955640792846680e+00 -1.469086408615112305e+00 -8.799126148223876953e-01 -1.723447442054748535e+00
9.110000000000000000e+03 2.857546615600585938e+01 5.763775825500488281e+00 -2.536709070205688477e+00 -1.883638262748718262e+00 -1.326104164123535156e+00 -1.643819928169250488e+00
9.111000000000000000e+03 2.832865715026855469e+01 5.965070724487304688e+00 -2.782089948654174805e+00 -2.046020269393920898e+00 -1.448433041572570801e+00 -1.956894278526306152e+00
9.112000000000000000e+03 1.585226917266845703e+01 -1.314679533243179321e-01 -4.724651813507080078e+00 1.412661314010620117e+00 -9.935970902442932129e-01 -1.620533347129821777e+00
9.113000000000000000e+03 2.700904464721679688e+01 6.986386775970458984e+00 2.492461651563644409e-01 1.271640062332153320e-01 1.129230484366416931e-01 1.736443489789962769e-01
9.114000000000000000e+03 1.915440750122070312e+01 1.539692163467407227e+00 -2.162388086318969727e+00 -1.258598923683166504e+00 -1.026296138763427734e+00 -1.808586955070495605e+00
9.115000000000000000e+03 1.895336532592773438e+01 1.434279918670654297e+00 -2.515533447265625000e+00 -1.491988301277160645e+00 -1.202256560325622559e+00 -2.092027187347412109e+00
9.116000000000000000e+03 1.832626342773437500e+01 1.212554574012756348e+00 -2.170708179473876953e+00 -1.466499567031860352e+00 -1.091162323951721191e+00 -1.828330993652343750e+00
9.117000000000000000e+03 1.881803703308105469e+01 1.581102371215820312e+00 -1.073769211769104004e+00 -1.133050560951232910e+00 -6.620459556579589844e-01 -1.333888053894042969e+00
9.118000000000000000e+03 1.720338821411132812e+01 7.016548514366149902e-01 -1.199519991874694824e+00 -6.491967439651489258e-01 -5.546150207519531250e-01 -1.149588465690612793e+00
9.119000000000000000e+03 1.766154289245605469e+01 9.660823345184326172e-01 -9.006752371788024902e-01 -1.106446623802185059e+00 -6.021365523338317871e-01 -1.213365912437438965e+00
9.120000000000000000e+03 2.660479927062988281e+01 6.350921630859375000e+00 2.800722837448120117e+00 8.601896166801452637e-01 1.098273754119873047e+00 1.727991819381713867e+00
9.121000000000000000e+03 2.639602661132812500e+01 6.356693744659423828e+00 1.746588706970214844e+00 3.317903280258178711e-01 6.235136985778808594e-01 1.007343530654907227e+00
9.122000000000000000e+03 2.637787246704101562e+01 6.789946079254150391e+00 -1.201597332954406738e+00 -8.712812662124633789e-01 -6.218636035919189453e-01 -9.451152682304382324e-01
9.123000000000000000e+03 2.639554023742675781e+01 6.124566555023193359e+00 3.698868274688720703e+00 1.114850640296936035e+00 1.444115638732910156e+00 2.188929796218872070e+00
9.124000000000000000e+03 2.626122474670410156e+01 6.240300655364990234e+00 2.122161388397216797e+00 4.722289741039276123e-01 7.783170938491821289e-01 1.145925164222717285e+00
9.125000000000000000e+03 2.605123901367187500e+01 6.284544944763183594e+00 1.163399696350097656e+00 3.509836643934249878e-02 3.595494329929351807e-01 4.506641924381256104e-01
9.126000000000000000e+03 2.451865959167480469e+01 5.238244056701660156e+00 1.275820016860961914e+00 1.950546354055404663e-02 3.885976672172546387e-01 4.730338752269744873e-01
9.127000000000000000e+03 2.402710723876953125e+01 5.146443367004394531e+00 -8.693510890007019043e-01 -1.052552580833435059e+00 -5.765711069107055664e-01 -8.940729498863220215e-01
9.128000000000000000e+03 2.145628166198730469e+01 3.227499723434448242e+00 3.745501637458801270e-01 -3.046122491359710693e-01 2.098136954009532928e-02 -1.775269955396652222e-01
9.129000000000000000e+03 2.426770591735839844e+01 5.176071166992187500e+00 6.157087683677673340e-01 -5.203666090965270996e-01 2.860264666378498077e-02 -1.163846105337142944e-01
9.130000000000000000e+03 2.872770690917968750e+01 5.972564697265625000e+00 -2.524988889694213867e+00 -1.989666342735290527e+00 -1.354396581649780273e+00 -1.621056914329528809e+00
9.131000000000000000e+03 2.875193977355957031e+01 5.821742534637451172e+00 -2.474531412124633789e+00 -1.860761404037475586e+00 -1.300587773323059082e+00 -1.533848762512207031e+00
9.132000000000000000e+03 2.641004180908203125e+01 4.976247310638427734e+00 -3.336141347885131836e+00 -1.289676189422607422e+00 -1.387745261192321777e+00 -2.020541667938232422e+00
9.133000000000000000e+03 2.677645301818847656e+01 4.986546516418457031e+00 -3.205338001251220703e+00 -1.302074790000915527e+00 -1.352223753929138184e+00 -1.936425447463989258e+00
9.134000000000000000e+03 2.664482498168945312e+01 5.213761329650878906e+00 -3.356507539749145508e+00 -1.300501823425292969e+00 -1.397102832794189453e+00 -2.053689241409301758e+00
9.135000000000000000e+03 2.723494148254394531e+01 7.353139877319335938e+00 -9.858931899070739746e-01 -5.101573467254638672e-01 -4.488151669502258301e-01 -8.615477681159973145e-01
9.136000000000000000e+03 2.647268295288085938e+01 6.952697277069091797e+00 -1.906697511672973633e+00 -1.295044064521789551e+00 -9.605224728584289551e-01 -1.427498459815979004e+00
9.137000000000000000e+03 2.488064193725585938e+01 5.748773574829101562e+00 -8.803096413612365723e-01 -7.713078260421752930e-01 -4.954852461814880371e-01 -8.370253443717956543e-01
9.138000000000000000e+03 2.606977462768554688e+01 6.554043769836425781e+00 -1.010459065437316895e+00 -7.403901219367980957e-01 -5.252547860145568848e-01 -7.326460480690002441e-01
9.139000000000000000e+03 1.970203399658203125e+01 9.767117500305175781e-01 -1.805637359619140625e+00 -1.998747348785400391e+00 -1.141315460205078125e+00 -2.512461900711059570e+00
9.140000000000000000e+03 2.451392555236816406e+01 4.150055408477783203e+00 -3.951044321060180664e+00 -1.319157719612121582e+00 -1.581060647964477539e+00 -2.285948038101196289e+00
9.141000000000000000e+03 2.222106933593750000e+01 1.953441381454467773e+00 -3.844149351119995117e+00 -1.138087034225463867e+00 -1.494670987129211426e+00 -2.357833147048950195e+00
9.142000000000000000e+03 2.499477386474609375e+01 4.285282135009765625e+00 -3.787558794021606445e+00 -1.260803103446960449e+00 -1.514508605003356934e+00 -2.165539503097534180e+00
9.143000000000000000e+03 2.772571945190429688e+01 5.587497234344482422e+00 -2.983434200286865234e+00 -1.669830799102783203e+00 -1.395979523658752441e+00 -1.989275574684143066e+00
9.144000000000000000e+03 2.786710739135742188e+01 5.700411319732666016e+00 -2.988020896911621094e+00 -1.709302902221679688e+00 -1.409197211265563965e+00 -2.011491060256958008e+00
9.145000000000000000e+03 2.761308097839355469e+01 6.036466598510742188e+00 -3.388193368911743164e+00 -1.664181828498840332e+00 -1.515712618827819824e+00 -2.311492681503295898e+00
9.146000000000000000e+03 2.683716011047363281e+01 5.168988704681396484e+00 -3.240291833877563477e+00 -1.376678347587585449e+00 -1.385091066360473633e+00 -2.006792306900024414e+00
9.147000000000000000e+03 2.701836776733398438e+01 5.092906475067138672e+00 -3.141294717788696289e+00 -1.356546878814697266e+00 -1.349352478981018066e+00 -1.950337171554565430e+00
9.148000000000000000e+03 2.715846061706542969e+01 4.960176944732666016e+00 -3.055604696273803711e+00 -1.302780628204345703e+00 -1.307515621185302734e+00 -1.817431092262268066e+00
9.149000000000000000e+03 2.239185333251953125e+01 1.953694581985473633e+00 -3.697693109512329102e+00 -9.599765539169311523e-01 -1.397300958633422852e+00 -2.213308095932006836e+00
9.150000000000000000e+03 2.253596496582031250e+01 2.679699420928955078e+00 -4.498683452606201172e+00 -1.479274153709411621e+00 -1.793387293815612793e+00 -2.618643760681152344e+00
9.151000000000000000e+03 2.059241485595703125e+01 1.542418837547302246e+00 -3.181191682815551758e+00 -2.059491157531738281e+00 -1.572204947471618652e+00 -2.927806615829467773e+00
9.152000000000000000e+03 1.705965614318847656e+01 -1.238278031349182129e+00 -2.101077556610107422e+00 -6.397783756256103516e-01 -8.222568035125732422e-01 -8.917572498321533203e-01
9.153000000000000000e+03 1.735778236389160156e+01 -7.449176907539367676e-01 -1.852315664291381836e+00 -5.710498690605163574e-01 -7.270096540451049805e-01 -9.057676196098327637e-01
9.154000000000000000e+03 1.751641082763671875e+01 -6.253772377967834473e-01 -1.850954294204711914e+00 -6.417810916900634766e-01 -7.478206157684326172e-01 -9.653012752532958984e-01
9.155000000000000000e+03 1.767763137817382812e+01 -5.077363848686218262e-01 -1.792733073234558105e+00 -6.384381651878356934e-01 -7.293514013290405273e-01 -9.602705240249633789e-01
9.156000000000000000e+03 1.858691024780273438e+01 -9.391445666551589966e-02 -1.967055678367614746e+00 -1.555083990097045898e+00 -1.056641936302185059e+00 -1.382798910140991211e+00
9.157000000000000000e+03 1.897811508178710938e+01 2.083240002393722534e-01 -1.312682986259460449e+00 -1.933128833770751953e+00 -9.737435579299926758e-01 -1.496510267257690430e+00
9.158000000000000000e+03 1.828685569763183594e+01 2.713023126125335693e-01 -1.263794302940368652e+00 -6.458551883697509766e-01 -5.728948712348937988e-01 -9.092870354652404785e-01
9.159000000000000000e+03 2.410520935058593750e+01 3.153629302978515625e+00 -3.831269502639770508e+00 -9.470821022987365723e-01 -1.433505535125732422e+00 -1.924448013305664062e+00
9.160000000000000000e+03 2.391318130493164062e+01 3.180729627609252930e+00 -3.994639158248901367e+00 -1.077045321464538574e+00 -1.521505355834960938e+00 -2.057684898376464844e+00
9.161000000000000000e+03 2.399816131591796875e+01 3.385308742523193359e+00 -4.025695323944091797e+00 -1.168289542198181152e+00 -1.558195471763610840e+00 -2.192052602767944336e+00
9.162000000000000000e+03 2.488282585144042969e+01 3.632354021072387695e+00 -3.627570867538452148e+00 -1.045007944107055664e+00 -1.401773691177368164e+00 -1.877678751945495605e+00
9.163000000000000000e+03 2.444554328918457031e+01 3.841858625411987305e+00 -3.874813318252563477e+00 -1.219767093658447266e+00 -1.528374075889587402e+00 -2.145785808563232422e+00
9.164000000000000000e+03 2.601859092712402344e+01 4.594632148742675781e+00 -3.429180145263671875e+00 -1.179309844970703125e+00 -1.382547020912170410e+00 -1.942043185234069824e+00
9.165000000000000000e+03 2.623686027526855469e+01 4.541726589202880859e+00 -3.284475326538085938e+00 -1.152264356613159180e+00 -1.331021904945373535e+00 -1.863906145095825195e+00
9.166000000000000000e+03 1.928930854797363281e+01 8.976932168006896973e-01 -1.547702312469482422e+00 -1.494530797004699707e+00 -9.126698970794677734e-01 -1.826656699180603027e+00
9.167000000000000000e+03 1.927956962585449219e+01 6.948968768119812012e-01 -2.008662700653076172e+00 -1.959606170654296875e+00 -1.190480589866638184e+00 -2.073751211166381836e+00
9.168000000000000000e+03 1.991943740844726562e+01 6.985806822776794434e-01 -1.785317897796630859e+00 -2.959421396255493164e+00 -1.423421859741210938e+00 -2.539524793624877930e+00
9.169000000000000000e+03 2.460322952270507812e+01 3.955327272415161133e+00 -3.857678413391113281e+00 -1.244507551193237305e+00 -1.530655741691589355e+00 -2.195286273956298828e+00
9.170000000000000000e+03 2.382778739929199219e+01 3.521178722381591797e+00 -4.179749488830566406e+00 -1.297850370407104492e+00 -1.643279910087585449e+00 -2.296512603759765625e+00
9.171000000000000000e+03 2.198137664794921875e+01 2.655979156494140625e+00 -4.848220348358154297e+00 -1.766070127487182617e+00 -1.984287142753601074e+00 -2.941705942153930664e+00
9.172000000000000000e+03 2.185815811157226562e+01 2.212323427200317383e+00 -4.325612545013427734e+00 -1.527083635330200195e+00 -1.755808830261230469e+00 -2.730856418609619141e+00
9.173000000000000000e+03 2.198051834106445312e+01 2.364504098892211914e+00 -4.474615573883056641e+00 -1.576972365379333496e+00 -1.815476298332214355e+00 -2.758710145950317383e+00
9.174000000000000000e+03 2.148756027221679688e+01 1.866619586944580078e+00 -3.836499929428100586e+00 -1.591198325157165527e+00 -1.628309488296508789e+00 -2.743319749832153320e+00
9.175000000000000000e+03 2.106024551391601562e+01 1.529556989669799805e+00 -3.303059339523315430e+00 -1.760879635810852051e+00 -1.519181609153747559e+00 -2.944423913955688477e+00
9.176000000000000000e+03 2.125181007385253906e+01 1.653330326080322266e+00 -3.666933059692382812e+00 -1.740701556205749512e+00 -1.622290372848510742e+00 -2.838619947433471680e+00
9.177000000000000000e+03 2.094637107849121094e+01 1.918027877807617188e+00 -4.139846324920654297e+00 -1.943749308586120605e+00 -1.825078725814819336e+00 -2.928954362869262695e+00
9.178000000000000000e+03 2.076650810241699219e+01 1.574730277061462402e+00 -3.267197370529174805e+00 -1.989950180053710938e+00 -1.577144265174865723e+00 -2.945276975631713867e+00
9.179000000000000000e+03 2.587970352172851562e+01 4.881956577301025391e+00 -3.566699028015136719e+00 -1.275522947311401367e+00 -1.452666521072387695e+00 -2.109236001968383789e+00
9.180000000000000000e+03 1.765451049804687500e+01 -1.619453579187393188e-01 -1.394635200500488281e+00 -4.459043741226196289e-01 -5.521618723869323730e-01 -7.428966164588928223e-01
9.181000000000000000e+03 1.812890052795410156e+01 -1.340038925409317017e-01 -1.650925159454345703e+00 -8.755171298980712891e-01 -7.579326629638671875e-01 -9.875661134719848633e-01
9.182000000000000000e+03 1.826277923583984375e+01 -2.977999858558177948e-02 -1.559202313423156738e+00 -8.491832613945007324e-01 -7.225157022476196289e-01 -1.058393001556396484e+00
9.183000000000000000e+03 1.880193901062011719e+01 6.758607029914855957e-01 -1.111293435096740723e+00 -1.125276207923889160e+00 -6.709708571434020996e-01 -1.059581160545349121e+00
9.184000000000000000e+03 1.894854354858398438e+01 7.549192905426025391e-01 -1.240852832794189453e+00 -1.201187491416931152e+00 -7.326121330261230469e-01 -1.308476448059082031e+00
9.185000000000000000e+03 2.678519821166992188e+01 7.062376022338867188e+00 -1.258807778358459473e+00 -8.181259036064147949e-01 -6.230800747871398926e-01 -9.286863207817077637e-01
9.186000000000000000e+03 2.690731239318847656e+01 6.818960189819335938e+00 9.935668706893920898e-01 4.748947024345397949e-01 4.405384659767150879e-01 6.249134540557861328e-01
9.187000000000000000e+03 2.660069084167480469e+01 7.038652420043945312e+00 -1.930371761322021484e+00 -1.248145341873168945e+00 -9.535551667213439941e-01 -1.384794354438781738e+00
9.188000000000000000e+03 2.659112930297851562e+01 6.734062194824218750e+00 5.353215932846069336e-01 -9.714421629905700684e-02 1.314532160758972168e-01 2.466295063495635986e-01
9.189000000000000000e+03 2.661147308349609375e+01 6.894548892974853516e+00 -8.902597427368164062e-01 -6.753378510475158691e-01 -4.696792960166931152e-01 -6.645047068595886230e-01
9.190000000000000000e+03 2.073003196716308594e+01 1.245025277137756348e+00 -2.779005765914916992e+00 -1.918522000312805176e+00 -1.409258365631103516e+00 -3.056734323501586914e+00
9.191000000000000000e+03 2.058207511901855469e+01 1.154570817947387695e+00 -2.541269302368164062e+00 -2.237634181976318359e+00 -1.433670997619628906e+00 -3.013866186141967773e+00
9.192000000000000000e+03 2.174007797241210938e+01 2.035988092422485352e+00 -4.129854202270507812e+00 -1.550430178642272949e+00 -1.704085350036621094e+00 -2.719505548477172852e+00
9.193000000000000000e+03 1.986181449890136719e+01 8.778309226036071777e-01 -1.728647351264953613e+00 -2.721855878829956055e+00 -1.335150957107543945e+00 -2.627501726150512695e+00
9.194000000000000000e+03 1.949866867065429688e+01 5.670157074928283691e-01 -1.165220022201538086e+00 -2.618463754653930664e+00 -1.135105133056640625e+00 -2.006699323654174805e+00
9.195000000000000000e+03 1.954581260681152344e+01 2.329013496637344360e-01 -1.377731680870056152e+00 -3.276007890701293945e+00 -1.396121859550476074e+00 -2.292154788970947266e+00
9.196000000000000000e+03 2.056551742553710938e+01 1.350121736526489258e+00 -3.020776271820068359e+00 -2.177635908126831055e+00 -1.559523701667785645e+00 -3.020179510116577148e+00
9.197000000000000000e+03 2.213665390014648438e+01 2.220813751220703125e+00 -4.184995651245117188e+00 -1.350912690162658691e+00 -1.660772442817687988e+00 -2.526578664779663086e+00
9.198000000000000000e+03 2.759283638000488281e+01 5.736433982849121094e+00 -3.206478118896484375e+00 -1.612630844116210938e+00 -1.445732712745666504e+00 -2.118318319320678711e+00
9.199000000000000000e+03 1.647349929809570312e+01 -1.049277424812316895e+00 -2.157984733581542969e+00 -4.032093584537506104e-01 -7.683582305908203125e-01 -6.021387577056884766e-01
9.200000000000000000e+03 2.371811103820800781e+01 3.334536314010620117e+00 -4.127344131469726562e+00 -1.226434230804443359e+00 -1.606133580207824707e+00 -2.278597354888916016e+00
9.201000000000000000e+03 1.918312644958496094e+01 5.033789277076721191e-01 -9.866548180580139160e-01 -2.149100303649902344e+00 -9.407265186309814453e-01 -1.570589303970336914e+00
9.202000000000000000e+03 2.467941284179687500e+01 3.614620447158813477e+00 -3.716505765914916992e+00 -1.002859711647033691e+00 -1.415809631347656250e+00 -1.940330028533935547e+00
9.203000000000000000e+03 1.937634086608886719e+01 4.028036594390869141e-01 -1.777015209197998047e+00 -2.440081119537353516e+00 -1.265128850936889648e+00 -2.146641016006469727e+00
9.204000000000000000e+03 1.885597801208496094e+01 4.195890128612518311e-01 -1.456934213638305664e+00 -1.771429061889648438e+00 -9.685089588165283203e-01 -1.573073625564575195e+00
9.205000000000000000e+03 2.240024375915527344e+01 2.218441963195800781e+00 -4.058598518371582031e+00 -1.160858750343322754e+00 -1.565837264060974121e+00 -2.346141576766967773e+00
9.206000000000000000e+03 2.447861862182617188e+01 3.615789175033569336e+00 -3.917070865631103516e+00 -1.113741755485534668e+00 -1.509243726730346680e+00 -2.079526901245117188e+00
9.207000000000000000e+03 2.235301589965820312e+01 2.481110811233520508e+00 -4.430861949920654297e+00 -1.383107185363769531e+00 -1.744190812110900879e+00 -2.567320108413696289e+00
9.208000000000000000e+03 2.166055107116699219e+01 1.858121275901794434e+00 -3.874727010726928711e+00 -1.482448339462280273e+00 -1.607152581214904785e+00 -2.678704023361206055e+00
9.209000000000000000e+03 2.237258148193359375e+01 2.643537998199462891e+00 -4.521128177642822266e+00 -1.469362139701843262e+00 -1.797147154808044434e+00 -2.664523363113403320e+00
9.210000000000000000e+03 2.353147506713867188e+01 2.949220895767211914e+00 -4.043284416198730469e+00 -1.108822584152221680e+00 -1.545632123947143555e+00 -2.181821584701538086e+00
9.211000000000000000e+03 2.845718574523925781e+01 7.030216693878173828e+00 -6.531705856323242188e+00 -3.170905590057373047e+00 -2.910783529281616211e+00 -4.589611053466796875e+00
9.212000000000000000e+03 2.829931449890136719e+01 6.909000873565673828e+00 -5.089093685150146484e+00 -2.479293823242187500e+00 -2.270516157150268555e+00 -3.506119489669799805e+00
9.213000000000000000e+03 2.814144515991210938e+01 6.787785530090332031e+00 -4.507457733154296875e+00 -2.046679496765136719e+00 -1.966241121292114258e+00 -3.014516115188598633e+00
9.214000000000000000e+03 2.798357582092285156e+01 6.666570186614990234e+00 -4.147965908050537109e+00 -1.852331161499023438e+00 -1.800089001655578613e+00 -2.783895492553710938e+00
9.215000000000000000e+03 2.849719047546386719e+01 6.987525463104248047e+00 -5.158301353454589844e+00 -3.776046276092529297e+00 -2.680304288864135742e+00 -4.462379932403564453e+00
9.216000000000000000e+03 2.836599349975585938e+01 6.837849140167236328e+00 -4.394630432128906250e+00 -3.017559289932250977e+00 -2.223656892776489258e+00 -3.374774456024169922e+00
9.217000000000000000e+03 2.823479461669921875e+01 6.688172817230224609e+00 -3.961337566375732422e+00 -2.455490589141845703e+00 -1.925048470497131348e+00 -3.033413887023925781e+00
9.218000000000000000e+03 2.810359573364257812e+01 6.538496494293212891e+00 -3.736668109893798828e+00 -2.177664041519165039e+00 -1.774299621582031250e+00 -2.729703187942504883e+00
9.219000000000000000e+03 2.854475593566894531e+01 6.953455924987792969e+00 -4.150044441223144531e+00 -4.298943519592285156e+00 -2.534696340560913086e+00 -3.984139442443847656e+00
9.220000000000000000e+03 2.844526672363281250e+01 6.781066894531250000e+00 -3.790879726409912109e+00 -3.244561433792114258e+00 -2.110632419586181641e+00 -3.115990877151489258e+00
9.221000000000000000e+03 2.834577941894531250e+01 6.608678340911865234e+00 -3.477992773056030273e+00 -2.760197401046752930e+00 -1.871456980705261230e+00 -2.775437116622924805e+00
9.222000000000000000e+03 2.824629020690917969e+01 6.436289310455322266e+00 -3.322613716125488281e+00 -2.402676820755004883e+00 -1.717587113380432129e+00 -2.576420307159423828e+00
9.223000000000000000e+03 2.859805107116699219e+01 6.929316997528076172e+00 -3.486248016357421875e+00 -4.438113689422607422e+00 -2.377308607101440430e+00 -3.331426858901977539e+00
9.224000000000000000e+03 2.853409385681152344e+01 6.740835666656494141e+00 -3.338226079940795898e+00 -3.321155786514282227e+00 -1.997814536094665527e+00 -2.749657154083251953e+00
9.225000000000000000e+03 2.847013473510742188e+01 6.552354335784912109e+00 -3.129820108413696289e+00 -2.835836648941040039e+00 -1.789697051048278809e+00 -2.476224899291992188e+00
9.226000000000000000e+03 2.840617561340332031e+01 6.363872528076171875e+00 -2.981833934783935547e+00 -2.503274679183959961e+00 -1.645532608032226562e+00 -2.276063442230224609e+00
9.227000000000000000e+03 2.865503120422363281e+01 6.916035652160644531e+00 -3.156325817108154297e+00 -4.180216789245605469e+00 -2.200962781906127930e+00 -2.689700126647949219e+00
9.228000000000000000e+03 2.862905883789062500e+01 6.718699932098388672e+00 -3.080938577651977539e+00 -3.206664800643920898e+00 -1.886281013488769531e+00 -2.401147365570068359e+00
9.229000000000000000e+03 2.860308647155761719e+01 6.521364212036132812e+00 -2.870648860931396484e+00 -2.746835708618164062e+00 -1.685245394706726074e+00 -2.152674436569213867e+00
9.230000000000000000e+03 2.857711601257324219e+01 6.324028491973876953e+00 -2.791426181793212891e+00 -2.448925733566284180e+00 -1.572105646133422852e+00 -2.008903264999389648e+00
9.231000000000000000e+03 2.871350669860839844e+01 6.914121627807617188e+00 -3.155630826950073242e+00 -3.645860910415649414e+00 -2.040447473526000977e+00 -2.271711111068725586e+00
9.232000000000000000e+03 2.872651863098144531e+01 6.715509891510009766e+00 -2.892765045166015625e+00 -2.915892601013183594e+00 -1.742597341537475586e+00 -2.120037555694580078e+00
9.233000000000000000e+03 2.873953056335449219e+01 6.516898155212402344e+00 -2.773977994918823242e+00 -2.551883935928344727e+00 -1.597758650779724121e+00 -1.926353454589843750e+00
9.234000000000000000e+03 2.875254249572753906e+01 6.318286418914794922e+00 -2.626883029937744141e+00 -2.255690813064575195e+00 -1.464772105216979980e+00 -1.754406332969665527e+00
9.235000000000000000e+03 2.877123260498046875e+01 6.923648357391357422e+00 -3.142995595932006836e+00 -2.957250833511352539e+00 -1.830073952674865723e+00 -2.158344984054565430e+00
9.236000000000000000e+03 2.882272911071777344e+01 6.731388092041015625e+00 -2.859266996383666992e+00 -2.586472988128662109e+00 -1.633721947669982910e+00 -1.994611859321594238e+00
9.237000000000000000e+03 2.887422561645507812e+01 6.539127349853515625e+00 -2.653537273406982422e+00 -2.245130777359008789e+00 -1.469600439071655273e+00 -1.786013245582580566e+00
9.238000000000000000e+03 2.892572212219238281e+01 6.346867084503173828e+00 -2.567940235137939453e+00 -2.058351993560791016e+00 -1.387887716293334961e+00 -1.640726208686828613e+00
9.239000000000000000e+03 2.882599258422851562e+01 6.944250583648681641e+00 -3.147759437561035156e+00 -2.425627946853637695e+00 -1.672016143798828125e+00 -2.365720510482788086e+00
9.240000000000000000e+03 2.891399574279785156e+01 6.765724658966064453e+00 -2.686864614486694336e+00 -2.214115381240844727e+00 -1.470293998718261719e+00 -1.989377617835998535e+00
9.241000000000000000e+03 2.900199890136718750e+01 6.587198734283447266e+00 -2.635331392288208008e+00 -1.988214135169982910e+00 -1.387063622474670410e+00 -1.786730885505676270e+00
9.242000000000000000e+03 2.909000015258789062e+01 6.408672809600830078e+00 -2.444572448730468750e+00 -1.796722173690795898e+00 -1.272388339042663574e+00 -1.631243348121643066e+00
9.243000000000000000e+03 2.887568473815917969e+01 6.975136280059814453e+00 -2.795576333999633789e+00 -2.050478696823120117e+00 -1.453816533088684082e+00 -2.685792922973632812e+00
9.244000000000000000e+03 2.899681282043457031e+01 6.817201137542724609e+00 -2.548345804214477539e+00 -1.990521907806396484e+00 -1.361660242080688477e+00 -2.160207509994506836e+00
9.245000000000000000e+03 2.911794281005859375e+01 6.659265518188476562e+00 -2.407955169677734375e+00 -1.762628436088562012e+00 -1.251175045967102051e+00 -1.832281708717346191e+00
9.246000000000000000e+03 2.923907279968261719e+01 6.501330375671386719e+00 -2.437841415405273438e+00 -1.616128563880920410e+00 -1.216191053390502930e+00 -1.708083987236022949e+00
9.247000000000000000e+03 2.891839790344238281e+01 7.015120029449462891e+00 -2.202515602111816406e+00 -2.073516130447387695e+00 -1.282809495925903320e+00 -3.049960136413574219e+00
9.248000000000000000e+03 2.906800079345703125e+01 6.883840560913085938e+00 -2.242831468582153320e+00 -1.810018539428710938e+00 -1.215855002403259277e+00 -2.301049232482910156e+00
9.249000000000000000e+03 2.921760559082031250e+01 6.752560615539550781e+00 -2.159003973007202148e+00 -1.701804161071777344e+00 -1.158242464065551758e+00 -2.037465572357177734e+00
9.250000000000000000e+03 2.936721229553222656e+01 6.621281147003173828e+00 -2.143324851989746094e+00 -1.516918420791625977e+00 -1.098073005676269531e+00 -1.728762030601501465e+00
9.251000000000000000e+03 2.895249176025390625e+01 7.062665939331054688e+00 -1.477846264839172363e+00 -2.240687370300292969e+00 -1.115560173988342285e+00 -3.252832174301147461e+00
9.252000000000000000e+03 2.912482643127441406e+01 6.963083744049072266e+00 -1.730366826057434082e+00 -1.846770167350769043e+00 -1.073141098022460938e+00 -2.426667928695678711e+00
9.253000000000000000e+03 2.929716110229492188e+01 6.863501071929931641e+00 -1.908345580101013184e+00 -1.655885219573974609e+00 -1.069269180297851562e+00 -2.176422119140625000e+00
9.254000000000000000e+03 2.946949577331542969e+01 6.763918876647949219e+00 -1.717061281204223633e+00 -1.608424663543701172e+00 -9.976457953453063965e-01 -1.930931806564331055e+00
9.255000000000000000e+03 2.897665977478027344e+01 7.115948200225830078e+00 -5.534350275993347168e-01 -2.493050813674926758e+00 -9.139457345008850098e-01 -3.141993284225463867e+00
9.256000000000000000e+03 2.916510581970214844e+01 7.051887512207031250e+00 -1.252061843872070312e+00 -2.000716447830200195e+00 -9.758335351943969727e-01 -2.532573223114013672e+00
9.257000000000000000e+03 2.935355186462402344e+01 6.987826824188232422e+00 -1.409269690513610840e+00 -1.708920598030090332e+00 -9.354571104049682617e-01 -2.158743143081665039e+00
9.258000000000000000e+03 2.954199981689453125e+01 6.923766136169433594e+00 -1.590988516807556152e+00 -1.680817008018493652e+00 -9.815416932106018066e-01 -2.107179164886474609e+00
9.259000000000000000e+03 2.898997116088867188e+01 7.172920703887939453e+00 1.798513680696487427e-01 -2.814221858978271484e+00 -7.903111577033996582e-01 -2.896955013275146484e+00
9.260000000000000000e+03 2.918729400634765625e+01 7.146841526031494141e+00 -6.265612244606018066e-01 -2.096189260482788086e+00 -8.168250918388366699e-01 -2.401546955108642578e+00
9.261000000000000000e+03 2.938461494445800781e+01 7.120762348175048828e+00 -9.691327810287475586e-01 -1.940724849700927734e+00 -8.729572892189025879e-01 -2.151561975479125977e+00
9.262000000000000000e+03 2.958193588256835938e+01 7.094683170318603516e+00 -1.216735839843750000e+00 -1.671797990798950195e+00 -8.665601015090942383e-01 -1.930592656135559082e+00
9.263000000000000000e+03 2.899191665649414062e+01 7.231395721435546875e+00 8.471010327339172363e-01 -2.844665527343750000e+00 -5.992693305015563965e-01 -2.418411970138549805e+00
9.264000000000000000e+03 2.919053649902343750e+01 7.244299411773681641e+00 -1.039834916591644287e-01 -2.337134838104248047e+00 -7.323355078697204590e-01 -2.213687658309936523e+00
9.265000000000000000e+03 2.938915443420410156e+01 7.257203578948974609e+00 -4.827820956707000732e-01 -2.018680095672607422e+00 -7.504386305809020996e-01 -1.941362977027893066e+00
9.266000000000000000e+03 2.958777427673339844e+01 7.270107746124267578e+00 -7.426735162734985352e-01 -1.896720886230468750e+00 -7.918183207511901855e-01 -1.763384461402893066e+00
9.267000000000000000e+03 2.898242187500000000e+01 7.289126873016357422e+00 1.265993475914001465e+00 -2.910531520843505859e+00 -4.933614134788513184e-01 -1.977616310119628906e+00
9.268000000000000000e+03 2.917471122741699219e+01 7.340518474578857422e+00 4.218760430812835693e-01 -2.346491813659667969e+00 -5.773847103118896484e-01 -1.819098114967346191e+00
9.269000000000000000e+03 2.936699867248535156e+01 7.391910076141357422e+00 -1.275121867656707764e-01 -2.180665493011474609e+00 -6.924532651901245117e-01 -1.681460022926330566e+00
9.270000000000000000e+03 2.955928802490234375e+01 7.443301677703857422e+00 -3.729381263256072998e-01 -1.953762173652648926e+00 -6.980100870132446289e-01 -1.546006083488464355e+00
9.271000000000000000e+03 2.896185111999511719e+01 7.343897819519042969e+00 1.607851624488830566e+00 -2.592041015625000000e+00 -2.952567636966705322e-01 -1.495749831199645996e+00
9.272000000000000000e+03 2.914042282104492188e+01 7.431803703308105469e+00 7.766458392143249512e-01 -2.503530025482177734e+00 -5.180652737617492676e-01 -1.417290687561035156e+00
9.273000000000000000e+03 2.931899642944335938e+01 7.519709587097167969e+00 1.948114186525344849e-01 -2.043931007385253906e+00 -5.547358393669128418e-01 -1.238952159881591797e+00
9.274000000000000000e+03 2.949757194519042969e+01 7.607614994049072266e+00 -3.011967241764068604e-01 -1.976239323616027832e+00 -6.832308173179626465e-01 -1.282825231552124023e+00
9.275000000000000000e+03 2.893099212646484375e+01 7.393605232238769531e+00 1.850185275077819824e+00 -2.579440116882324219e+00 -2.187764346599578857e-01 -1.083016872406005859e+00
9.276000000000000000e+03 2.908899307250976562e+01 7.514648914337158203e+00 1.025562644004821777e+00 -2.176532506942749023e+00 -3.452909588813781738e-01 -9.359477162361145020e-01
9.277000000000000000e+03 2.924699401855468750e+01 7.635693073272705078e+00 3.536100387573242188e-01 -2.142301082611083984e+00 -5.366073250770568848e-01 -8.346433639526367188e-01
9.278000000000000000e+03 2.940499496459960938e+01 7.756736755371093750e+00 -1.973052620887756348e-01 -1.633632183074951172e+00 -5.492812395095825195e-01 -7.425745129585266113e-01
9.279000000000000000e+03 2.889103126525878906e+01 7.436339855194091797e+00 2.140023708343505859e+00 -2.143013000488281250e+00 -8.967876201495528221e-04 -7.419181466102600098e-01
9.280000000000000000e+03 2.902239227294921875e+01 7.585873603820800781e+00 1.100852727890014648e+00 -2.117895841598510742e+00 -3.051128983497619629e-01 -4.021766781806945801e-01
9.281000000000000000e+03 2.915375137329101562e+01 7.735406875610351562e+00 3.430388569831848145e-01 -1.675006628036499023e+00 -3.995903432369232178e-01 -4.791711866855621338e-01
9.282000000000000000e+03 2.928511238098144531e+01 7.884940624237060547e+00 -5.181109532713890076e-02 -1.804795384407043457e+00 -5.569819808006286621e-01 -3.712786138057708740e-01
9.283000000000000000e+03 2.884350395202636719e+01 7.470460414886474609e+00 2.314970254898071289e+00 -2.008893251419067383e+00 9.182312339544296265e-02 -2.521968185901641846e-01
9.284000000000000000e+03 2.894317817687988281e+01 7.642741680145263672e+00 1.097406983375549316e+00 -1.574871897697448730e+00 -1.432394534349441528e-01 -6.477469950914382935e-02
9.285000000000000000e+03 2.904285430908203125e+01 7.815021991729736328e+00 2.077989280223846436e-01 -1.494129180908203125e+00 -3.858990967273712158e-01 -2.993771061301231384e-02
9.286000000000000000e+03 2.914253044128417969e+01 7.987303256988525391e+00 -2.643681466579437256e-01 -1.303889036178588867e+00 -4.704771637916564941e-01 -3.613075911998748779e-01
9.287000000000000000e+03 2.879023361206054688e+01 7.494657516479492188e+00 2.521226644515991211e+00 -1.580336570739746094e+00 2.822670340538024902e-01 1.593595296144485474e-01
9.288000000000000000e+03 2.885439682006835938e+01 7.683069229125976562e+00 9.210746884346008301e-01 -1.119592070579528809e+00 -5.955521389842033386e-02 3.382840454578399658e-01
9.289000000000000000e+03 2.891856002807617188e+01 7.871481418609619141e+00 2.745105884969234467e-03 -9.912244677543640137e-01 -2.965438067913055420e-01 8.113096654415130615e-02
9.290000000000000000e+03 2.898272323608398438e+01 8.059893608093261719e+00 -7.053413987159729004e-01 -9.594784379005432129e-01 -4.994459450244903564e-01 -1.169870272278785706e-01
9.291000000000000000e+03 2.873326873779296875e+01 7.508000850677490234e+00 2.628035068511962891e+00 -1.026218414306640625e+00 4.805450141429901123e-01 6.182901263236999512e-01
9.292000000000000000e+03 2.875945472717285156e+01 7.705308437347412109e+00 6.778016090393066406e-01 -5.730795264244079590e-01 3.141662850975990295e-02 5.091546773910522461e-01
9.293000000000000000e+03 2.878564071655273438e+01 7.902615547180175781e+00 -2.515728473663330078e-01 -4.711571037769317627e-01 -2.168189883232116699e-01 2.207195609807968140e-01
9.294000000000000000e+03 2.881182670593261719e+01 8.099923133850097656e+00 -1.130203008651733398e+00 -5.153185129165649414e-01 -4.936564564704895020e-01 -1.327847391366958618e-01
9.295000000000000000e+03 2.867479515075683594e+01 7.509978294372558594e+00 2.346883535385131836e+00 -4.041103422641754150e-01 5.828319787979125977e-01 9.478580951690673828e-01
9.296000000000000000e+03 2.866199874877929688e+01 7.708603858947753906e+00 7.280486226081848145e-01 4.925576224923133850e-02 2.331913113594055176e-01 5.777539610862731934e-01
9.297000000000000000e+03 2.864920234680175781e+01 7.907229900360107422e+00 -7.131873369216918945e-01 -3.678757324814796448e-02 -2.249924838542938232e-01 1.878468692302703857e-01
9.298000000000000000e+03 2.863640785217285156e+01 8.105855941772460938e+00 -1.270585536956787109e+00 -7.341657578945159912e-02 -4.032006561756134033e-01 -1.521301120519638062e-01
9.299000000000000000e+03 2.861705780029296875e+01 7.500514030456542969e+00 2.481040477752685547e+00 4.678610265254974365e-01 8.846704363822937012e-01 1.169327378273010254e+00
9.300000000000000000e+03 2.856577110290527344e+01 7.692830562591552734e+00 4.047804474830627441e-01 5.010255575180053711e-01 2.717417776584625244e-01 4.167408049106597900e-01
9.301000000000000000e+03 2.851448440551757812e+01 7.885146617889404297e+00 -5.338408946990966797e-01 4.411374032497406006e-01 -2.781105041503906250e-02 1.644589751958847046e-01
9.302000000000000000e+03 2.846319770812988281e+01 8.077463150024414062e+00 -1.827890396118164062e+00 4.275930672883987427e-02 -5.355393290519714355e-01 -4.239048063755035400e-01
9.303000000000000000e+03 2.856227684020996094e+01 7.479971885681152344e+00 2.395857095718383789e+00 1.051872014999389648e+00 1.034318804740905762e+00 9.569324254989624023e-01
9.304000000000000000e+03 2.847446632385253906e+01 7.658593177795410156e+00 6.180237531661987305e-01 1.002231359481811523e+00 4.860765337944030762e-01 4.006119966506958008e-01
9.305000000000000000e+03 2.838665962219238281e+01 7.837214469909667969e+00 -5.944172739982604980e-01 6.060209274291992188e-01 3.481081919744610786e-03 -1.393085718154907227e-01
9.306000000000000000e+03 2.829885101318359375e+01 8.015835762023925781e+00 -1.676835894584655762e+00 5.995777845382690430e-01 -3.231774568557739258e-01 -4.682371914386749268e-01
9.307000000000000000e+03 2.851255226135253906e+01 7.449139595031738281e+00 2.509747266769409180e+00 1.585065126419067383e+00 1.228443741798400879e+00 6.957426667213439941e-01
9.308000000000000000e+03 2.839159393310546875e+01 7.607206821441650391e+00 1.114326357841491699e+00 1.172747492790222168e+00 6.861221790313720703e-01 2.819727063179016113e-01
9.309000000000000000e+03 2.827063560485839844e+01 7.765273571014404297e+00 -5.151124000549316406e-01 8.945420384407043457e-01 1.138288974761962891e-01 -2.956834137439727783e-01
9.310000000000000000e+03 2.814967727661132812e+01 7.923340797424316406e+00 -1.220589876174926758e+00 5.445451140403747559e-01 -2.028134167194366455e-01 -4.802281260490417480e-01
9.311000000000000000e+03 2.846979522705078125e+01 7.409202575683593750e+00 3.367965221405029297e+00 1.860097408294677734e+00 1.568418860435485840e+00 5.109963417053222656e-01
9.312000000000000000e+03 2.832033348083496094e+01 7.540644645690917969e+00 1.487393856048583984e+00 1.135176777839660645e+00 7.867711782455444336e-01 1.088390499353408813e-01
9.313000000000000000e+03 2.817087173461914062e+01 7.672087192535400391e+00 1.886209547519683838e-01 1.114080309867858887e+00 3.908103704452514648e-01 -8.229292929172515869e-02
9.314000000000000000e+03 2.802140998840332031e+01 7.803529262542724609e+00 -1.039532184600830078e+00 1.583995372056961060e-01 -2.643398046493530273e-01 -8.087002635002136230e-01
9.315000000000000000e+03 2.843564987182617188e+01 7.361693859100341797e+00 4.112624168395996094e+00 1.429650306701660156e+00 1.662682294845581055e+00 3.114517331123352051e-01
9.316000000000000000e+03 2.826342201232910156e+01 7.461463451385498047e+00 2.423184156417846680e+00 1.392953395843505859e+00 1.144841313362121582e+00 3.796373605728149414e-01
9.317000000000000000e+03 2.809119606018066406e+01 7.561233043670654297e+00 8.430327177047729492e-01 7.648915648460388184e-01 4.823772907257080078e-01 -4.430834203958511353e-02
9.318000000000000000e+03 2.791897010803222656e+01 7.661002635955810547e+00 -3.941329717636108398e-01 5.946005582809448242e-01 6.014028191566467285e-02 -5.756995677947998047e-01
9.319000000000000000e+03 2.841142272949218750e+01 7.308437824249267578e+00 5.381357669830322266e+00 1.430445313453674316e+00 2.043540954589843750e+00 6.501702666282653809e-01
9.320000000000000000e+03 2.822304725646972656e+01 7.372703552246093750e+00 3.191555738449096680e+00 1.022657394409179688e+00 1.264263868331909180e+00 6.531061530113220215e-01
9.321000000000000000e+03 2.803466987609863281e+01 7.436968803405761719e+00 1.861443400382995605e+00 1.032293915748596191e+00 8.681212067604064941e-01 3.702453374862670898e-01
9.322000000000000000e+03 2.784629249572753906e+01 7.501234531402587891e+00 4.483534097671508789e-01 5.286902785301208496e-01 2.931131124496459961e-01 -1.336228698492050171e-01
9.323000000000000000e+03 2.839804840087890625e+01 7.251480102539062500e+00 6.328361034393310547e+00 8.851962089538574219e-01 2.164067268371582031e+00 1.311813354492187500e+00
9.324000000000000000e+03 2.820075607299804688e+01 7.277773380279541016e+00 4.189857959747314453e+00 1.286816954612731934e+00 1.643002510070800781e+00 1.218162655830383301e+00
9.325000000000000000e+03 2.800346374511718750e+01 7.304067134857177734e+00 2.771183967590332031e+00 8.417002558708190918e-01 1.083865284919738770e+00 8.843759298324584961e-01
9.326000000000000000e+03 2.780616950988769531e+01 7.330360889434814453e+00 1.713538050651550293e+00 9.148715138435363770e-01 7.885228991508483887e-01 5.998948216438293457e-01
9.327000000000000000e+03 2.839603996276855469e+01 7.193007469177246094e+00 7.178999900817871094e+00 1.121287941932678223e+00 2.490086317062377930e+00 2.271727085113525391e+00
9.328000000000000000e+03 2.819740867614746094e+01 7.180319309234619141e+00 4.936510086059570312e+00 1.189922094345092773e+00 1.837929606437683105e+00 1.914944171905517578e+00
9.329000000000000000e+03 2.799877548217773438e+01 7.167631149291992188e+00 3.808075904846191406e+00 1.233852267265319824e+00 1.512578487396240234e+00 1.600159525871276855e+00
9.330000000000000000e+03 2.780014228820800781e+01 7.154942989349365234e+00 2.862015008926391602e+00 9.091011285781860352e-01 1.131334900856018066e+00 1.351986885070800781e+00
9.331000000000000000e+03 2.840547180175781250e+01 7.135265827178955078e+00 7.445800304412841797e+00 1.389623165130615234e+00 2.650626897811889648e+00 3.387421131134033203e+00
9.332000000000000000e+03 2.821312904357910156e+01 7.084083080291748047e+00 5.656106472015380859e+00 1.629645228385925293e+00 2.185725688934326172e+00 2.619524002075195312e+00
9.333000000000000000e+03 2.802078437805175781e+01 7.032900810241699219e+00 4.688138008117675781e+00 1.378906607627868652e+00 1.820113420486450195e+00 2.424410104751586914e+00
9.334000000000000000e+03 2.782843971252441406e+01 6.981718063354492188e+00 3.950854301452636719e+00 1.406126618385314941e+00 1.607094287872314453e+00 2.216483592987060547e+00
9.335000000000000000e+03 2.842598533630371094e+01 7.080472469329833984e+00 7.470569133758544922e+00 2.330365419387817383e+00 2.940280437469482422e+00 4.263130187988281250e+00
9.336000000000000000e+03 2.824731636047363281e+01 6.992761135101318359e+00 6.101029396057128906e+00 1.980520963668823242e+00 2.424465179443359375e+00 3.395886421203613281e+00
9.337000000000000000e+03 2.806864738464355469e+01 6.905049324035644531e+00 5.363788604736328125e+00 1.904985427856445312e+00 2.180632114410400391e+00 3.162102937698364258e+00
9.338000000000000000e+03 2.788997840881347656e+01 6.817337989807128906e+00 5.106236457824707031e+00 1.766576051712036133e+00 2.061843872070312500e+00 3.039859533309936523e+00
9.339000000000000000e+03 2.861505317687988281e+01 7.151432037353515625e+00 -1.025397872924804688e+01 -4.669939517974853516e+00 -4.477175712585449219e+00 -6.921866893768310547e+00
9.340000000000000000e+03 2.862838935852050781e+01 7.137201309204101562e+00 -9.061281204223632812e+00 -5.635513782501220703e+00 -4.409038543701171875e+00 -7.033596038818359375e+00
9.341000000000000000e+03 2.864424514770507812e+01 7.125844955444335938e+00 -7.503445625305175781e+00 -6.292113780975341797e+00 -4.138668060302734375e+00 -6.842031478881835938e+00
9.342000000000000000e+03 2.866201019287109375e+01 7.117798805236816406e+00 -5.975901603698730469e+00 -6.587408542633056641e+00 -3.768993139266967773e+00 -6.362571239471435547e+00
9.343000000000000000e+03 2.868100357055664062e+01 7.113371372222900391e+00 -4.631753444671630859e+00 -6.464582443237304688e+00 -3.328900814056396484e+00 -5.775859832763671875e+00
9.344000000000000000e+03 2.870049476623535156e+01 7.112733364105224609e+00 -3.392496109008789062e+00 -5.980464935302734375e+00 -2.811888456344604492e+00 -5.225645542144775391e+00
9.345000000000000000e+03 2.871973609924316406e+01 7.115909099578857422e+00 -2.361589908599853516e+00 -5.362550735473632812e+00 -2.317242145538330078e+00 -4.814826965332031250e+00
9.346000000000000000e+03 2.873798942565917969e+01 7.122776508331298828e+00 -1.231823086738586426e+00 -4.670638084411621094e+00 -1.770738363265991211e+00 -4.512690067291259766e+00
9.347000000000000000e+03 2.875455474853515625e+01 7.133071899414062500e+00 -2.025052905082702637e-01 -4.201565742492675781e+00 -1.321221232414245605e+00 -4.315614700317382812e+00
9.348000000000000000e+03 2.876879119873046875e+01 7.146399497985839844e+00 8.521082401275634766e-01 -3.778599023818969727e+00 -8.779472708702087402e-01 -4.038634777069091797e+00
9.349000000000000000e+03 2.878015708923339844e+01 7.162248134613037109e+00 1.885776400566101074e+00 -3.583963632583618164e+00 -5.094561576843261719e-01 -3.634425163269042969e+00
9.350000000000000000e+03 2.878821182250976562e+01 7.180008888244628906e+00 2.574580430984497070e+00 -3.458541393280029297e+00 -2.651882469654083252e-01 -3.168471336364746094e+00
9.351000000000000000e+03 2.879265022277832031e+01 7.198999881744384766e+00 3.101559877395629883e+00 -3.201807737350463867e+00 -3.007437847554683685e-02 -2.536547899246215820e+00
9.352000000000000000e+03 2.879329872131347656e+01 7.218491554260253906e+00 3.215533256530761719e+00 -3.046634674072265625e+00 5.066959559917449951e-02 -2.014016866683959961e+00
9.353000000000000000e+03 2.879013252258300781e+01 7.237735271453857422e+00 3.147608041763305664e+00 -2.654146909713745117e+00 1.480383723974227905e-01 -1.539606451988220215e+00
9.354000000000000000e+03 2.878327560424804688e+01 7.255992412567138672e+00 2.915637969970703125e+00 -2.566248893737792969e+00 1.048166826367378235e-01 -1.313821673393249512e+00
9.355000000000000000e+03 2.877298927307128906e+01 7.272561550140380859e+00 2.764931917190551758e+00 -2.207578420639038086e+00 1.672060489654541016e-01 -1.234727263450622559e+00
9.356000000000000000e+03 2.875966835021972656e+01 7.286806106567382812e+00 2.697132110595703125e+00 -2.380081892013549805e+00 9.511509537696838379e-02 -1.189975142478942871e+00
9.357000000000000000e+03 2.874382781982421875e+01 7.298179626464843750e+00 2.962558031082153320e+00 -2.297430515289306641e+00 1.995382606983184814e-01 -1.232430219650268555e+00
9.358000000000000000e+03 2.872607040405273438e+01 7.306245326995849609e+00 3.320925951004028320e+00 -2.414040803909301758e+00 2.720654904842376709e-01 -1.088183283805847168e+00
9.359000000000000000e+03 2.870708084106445312e+01 7.310693264007568359e+00 3.825081586837768555e+00 -2.374554872512817383e+00 4.351579844951629639e-01 -8.620894551277160645e-01
9.360000000000000000e+03 2.868759155273437500e+01 7.311352252960205078e+00 4.712285041809082031e+00 -2.022288560867309570e+00 8.069989085197448730e-01 -5.640403628349304199e-01
9.361000000000000000e+03 2.866834640502929688e+01 7.308197498321533203e+00 5.274554252624511719e+00 -1.690563559532165527e+00 1.075197219848632812e+00 -3.484031856060028076e-01
9.362000000000000000e+03 2.865008544921875000e+01 7.301350116729736328e+00 6.306107997894287109e+00 -9.617514014244079590e-01 1.603307008743286133e+00 1.236614491790533066e-02
9.363000000000000000e+03 2.863351058959960938e+01 7.291072845458984375e+00 7.621381759643554688e+00 -4.280571043491363525e-01 2.157997369766235352e+00 2.326856553554534912e-01
9.364000000000000000e+03 2.861925697326660156e+01 7.277760505676269531e+00 8.703260421752929688e+00 -5.602441355586051941e-02 2.594170808792114258e+00 5.017185211181640625e-01
9.365000000000000000e+03 2.860787582397460938e+01 7.261924266815185547e+00 1.035109996795654297e+01 6.233864426612854004e-01 3.292345762252807617e+00 1.159383416175842285e+00
9.366000000000000000e+03 2.859980010986328125e+01 7.244172573089599609e+00 1.148859500885009766e+01 6.742600202560424805e-01 3.648856401443481445e+00 1.954591512680053711e+00
9.367000000000000000e+03 2.859534263610839844e+01 7.225186347961425781e+00 1.255560016632080078e+01 1.438368797302246094e+00 4.198190689086914062e+00 3.093286037445068359e+00
9.368000000000000000e+03 2.859467124938964844e+01 7.205695629119873047e+00 1.286677932739257812e+01 1.884467244148254395e+00 4.425374031066894531e+00 4.390494346618652344e+00
9.369000000000000000e+03 2.859781646728515625e+01 7.186448097229003906e+00 1.272656726837158203e+01 2.914988517761230469e+00 4.692466735839843750e+00 5.563437461853027344e+00
9.370000000000000000e+03 2.860465431213378906e+01 7.168183803558349609e+00 1.183870029449462891e+01 3.763083696365356445e+00 4.680535316467285156e+00 6.569130897521972656e+00
9.371000000000000000e+03 6.741365051269531250e+01 3.394108963012695312e+01 2.936676406860351562e+01 5.051609516143798828e+00 1.032551193237304688e+01 1.047806930541992188e+01
9.372000000000000000e+03 6.741659545898437500e+01 3.392184448242187500e+01 2.785880851745605469e+01 1.606407165527343750e+01 1.317686462402343750e+01 2.190514373779296875e+01
9.373000000000000000e+03 6.742323303222656250e+01 3.390354537963867188e+01 2.609407997131347656e+01 2.734055709838867188e+01 1.603039169311523438e+01 2.618126678466796875e+01
9.374000000000000000e+03 6.743330383300781250e+01 3.388688278198242188e+01 2.274806213378906250e+01 3.931393432617187500e+01 1.861859893798828125e+01 2.786692047119140625e+01
9.375000000000000000e+03 6.744642639160156250e+01 3.387250137329101562e+01 1.962365531921386719e+01 5.061697769165039062e+01 2.107218933105468750e+01 2.659541511535644531e+01
9.376000000000000000e+03 6.746209716796875000e+01 3.386095046997070312e+01 1.632963180541992188e+01 6.050282669067382812e+01 2.304973602294921875e+01 2.289443969726562500e+01
9.377000000000000000e+03 6.747972106933593750e+01 3.385267257690429688e+01 1.452484798431396484e+01 6.802903747558593750e+01 2.476616477966308594e+01 1.725054359436035156e+01
9.378000000000000000e+03 6.749861145019531250e+01 3.384798049926757812e+01 1.420543384552001953e+01 7.269332122802734375e+01 2.606962585449218750e+01 1.028314685821533203e+01
9.379000000000000000e+03 6.751805877685546875e+01 3.384706115722656250e+01 1.582074069976806641e+01 7.413456726074218750e+01 2.698659324645996094e+01 3.236876964569091797e+00
9.380000000000000000e+03 6.753731536865234375e+01 3.384994125366210938e+01 1.934575653076171875e+01 7.268687438964843750e+01 2.760978889465332031e+01 -3.105678081512451172e+00
9.381000000000000000e+03 6.755563354492187500e+01 3.385651779174804688e+01 2.411705017089843750e+01 6.898329162597656250e+01 2.793010139465332031e+01 -7.802636623382568359e+00
9.382000000000000000e+03 6.757233428955078125e+01 3.386653137207031250e+01 2.962931060791015625e+01 6.390534973144531250e+01 2.806039810180664062e+01 -1.047550773620605469e+01
9.383000000000000000e+03 6.758675384521484375e+01 3.387960815429687500e+01 3.491783523559570312e+01 5.849514770507812500e+01 2.802389335632324219e+01 -1.099764537811279297e+01
9.384000000000000000e+03 6.759835815429687500e+01 3.389524078369140625e+01 3.960338592529296875e+01 5.358462905883789062e+01 2.795640373229980469e+01 -9.574069976806640625e+00
9.385000000000000000e+03 6.760669708251953125e+01 3.391283416748046875e+01 4.297918701171875000e+01 4.980442428588867188e+01 2.783508300781250000e+01 -6.735248088836669922e+00
9.386000000000000000e+03 6.761145019531250000e+01 3.393171310424804688e+01 4.500746917724609375e+01 4.764179611206054688e+01 2.779477882385253906e+01 -2.870933771133422852e+00
9.387000000000000000e+03 6.761243438720703125e+01 3.395115661621093750e+01 4.537955093383789062e+01 4.713881301879882812e+01 2.775550842285156250e+01 1.276702404022216797e+00
9.388000000000000000e+03 6.760961914062500000e+01 3.397041702270507812e+01 4.426819229125976562e+01 4.874044799804687500e+01 2.790259170532226562e+01 5.431569576263427734e+00
9.389000000000000000e+03 6.760310363769531250e+01 3.398876571655273438e+01 4.149789047241210938e+01 5.152015304565429688e+01 2.790541267395019531e+01 8.826082229614257812e+00
9.390000000000000000e+03 6.759313964843750000e+01 3.400549316406250000e+01 3.759322357177734375e+01 5.636367034912109375e+01 2.818706893920898438e+01 1.097211074829101562e+01
9.391000000000000000e+03 6.758011627197265625e+01 3.401995849609375000e+01 3.241260910034179688e+01 6.145191192626953125e+01 2.815935516357421875e+01 1.152687358856201172e+01
9.392000000000000000e+03 6.756452178955078125e+01 3.403161621093750000e+01 2.707731628417968750e+01 6.710678863525390625e+01 2.825523185729980469e+01 9.846678733825683594e+00
9.393000000000000000e+03 6.754695892333984375e+01 3.404001235961914062e+01 2.180897521972656250e+01 7.160121154785156250e+01 2.802305603027343750e+01 6.142272472381591797e+00
9.394000000000000000e+03 6.752809143066406250e+01 3.404482650756835938e+01 1.770366668701171875e+01 7.447986602783203125e+01 2.765505981445312500e+01 3.795543015003204346e-01
9.395000000000000000e+03 6.750865173339843750e+01 3.404587936401367188e+01 1.510345363616943359e+01 7.455850219726562500e+01 2.689858627319335938e+01 -6.453255176544189453e+00
9.396000000000000000e+03 6.748937988281250000e+01 3.404312515258789062e+01 1.471259975433349609e+01 7.156575775146484375e+01 2.588350677490234375e+01 -1.381089305877685547e+01
9.397000000000000000e+03 6.747101593017578125e+01 3.403667449951171875e+01 1.593727493286132812e+01 6.539241790771484375e+01 2.439890861511230469e+01 -2.028490066528320312e+01
9.398000000000000000e+03 6.745425415039062500e+01 3.402676773071289062e+01 1.912158584594726562e+01 5.635208129882812500e+01 2.264209938049316406e+01 -2.524147987365722656e+01
9.399000000000000000e+03 6.743974304199218750e+01 3.401379013061523438e+01 2.260544586181640625e+01 4.545763778686523438e+01 2.041892623901367188e+01 -2.778975486755371094e+01
9.400000000000000000e+03 6.742803955078125000e+01 3.399823379516601562e+01 2.693602561950683594e+01 3.303174972534179688e+01 1.799033164978027344e+01 -2.738758087158203125e+01
9.401000000000000000e+03 6.741957855224609375e+01 3.398069763183593750e+01 2.996154022216796875e+01 2.088090705871582031e+01 1.525273418426513672e+01 -2.411215591430664062e+01
9.402000000000000000e+03 6.741470336914062500e+01 3.396184921264648438e+01 3.391381454467773438e+01 7.418045043945312500e+00 1.239955711364746094e+01 -1.360134220123291016e+01
