# el_label, x, y, sXX, sYY, sZZ, sXY
1.000000000000000000e+00 7.780482482910156250e+01 3.517490005493164062e+01 1.961571909677578551e-13 8.406736949368581735e-14 8.406736949368581735e-14 9.607699564314481355e-14
2.000000000000000000e+00 7.781526947021484375e+01 3.443119430541992188e+01 3.843079825725792542e-13 -6.405133042876320904e-14 9.607699564314481355e-14 -7.205774334422682115e-14
3.000000000000000000e+00 7.956104278564453125e+01 3.521261978149414062e+01 1.521218996039172544e-13 2.481988952470620680e-13 1.200962343895356499e-13 5.604491073703601889e-14
4.000000000000000000e+00 7.868301391601562500e+01 3.519407272338867188e+01 -7.205774334422682115e-14 -1.681347389873716347e-13 -7.205774334422682115e-14 -7.205774334422682115e-14
5.000000000000000000e+00 7.694084167480468750e+01 3.441418457031250000e+01 3.362694779747432694e-13 1.441154866884536423e-13 1.441154866884536423e-13 -3.202566521438160452e-14
6.000000000000000000e+00 7.868927764892578125e+01 3.444776916503906250e+01 8.807057595141762341e-14 -8.006416303595401129e-15 2.401924891078620339e-14 -4.003208151797700565e-14
7.000000000000000000e+00 7.956313323974609375e+01 3.446380996704101562e+01 0.000000000000000000e+00 0.000000000000000000e+00 0.000000000000000000e+00 -2.401924891078620339e-14
8.000000000000000000e+00 7.692621612548828125e+01 3.515529251098632812e+01 3.202566521438160452e-14 -3.202566521438160452e-14 0.000000000000000000e+00 -1.281026608575264181e-13
9.000000000000000000e+00 7.462894439697265625e+01 3.436700820922851562e+01 1.120898214740720378e-13 4.803849782157240678e-14 4.803849782157240678e-14 4.803849782157240678e-14
1.000000000000000000e+01 7.461499023437500000e+01 3.510688400268554688e+01 6.405133042876320904e-14 -6.405133042876320904e-14 0.000000000000000000e+00 4.803849782157240678e-14
1.100000000000000000e+01 7.612859344482421875e+01 3.439789581298828125e+01 2.481988952470620680e-13 -1.681347389873716347e-13 2.401924891078620339e-14 0.000000000000000000e+00
1.200000000000000000e+01 7.388066101074218750e+01 3.434764099121093750e+01 -5.604491073703601889e-14 -2.401924891078620339e-14 -2.401924891078620339e-14 1.601283260719080226e-14
1.300000000000000000e+01 7.537825775146484375e+01 3.438370895385742188e+01 -8.807057595141762341e-14 8.006416303595401129e-15 -2.401924891078620339e-14 -1.601283260719080226e-14
1.400000000000000000e+01 7.611242675781250000e+01 3.513771820068359375e+01 1.120898214740720378e-13 4.803849782157240678e-14 4.803849782157240678e-14 -3.202566521438160452e-14
1.500000000000000000e+01 7.386781311035156250e+01 3.508753967285156250e+01 2.401924891078620339e-14 -2.642117210779892922e-13 -7.205774334422682115e-14 -8.006416303595401129e-14
1.600000000000000000e+01 7.536319732666015625e+01 3.512355804443359375e+01 2.481988952470620680e-13 -1.681347389873716347e-13 2.401924891078620339e-14 -8.006416303595401129e-14
1.700000000000000000e+01 7.238339996337890625e+01 3.432700347900390625e+01 -1.281026608575264181e-13 1.281026608575264181e-13 0.000000000000000000e+00 -8.006416303595401129e-14
1.800000000000000000e+01 7.163043975830078125e+01 3.505818557739257812e+01 -9.607699564314481355e-14 9.607699564314481355e-14 0.000000000000000000e+00 -1.120898214740720378e-13
1.900000000000000000e+01 7.088690948486328125e+01 3.430988693237304688e+01 -1.601283260719080226e-13 1.601283260719080226e-13 0.000000000000000000e+00 3.202566521438160452e-14
2.000000000000000000e+01 7.312104797363281250e+01 3.507486343383789062e+01 6.405133042876320904e-14 2.562053217150528361e-13 9.607699564314481355e-14 -9.607699564314481355e-14
2.100000000000000000e+01 7.313183593750000000e+01 3.433493804931640625e+01 1.441154866884536423e-13 -3.042437992078345088e-13 -4.803849782157240678e-14 -1.601283260719080226e-14
2.200000000000000000e+01 7.088514709472656250e+01 3.504991149902343750e+01 0.000000000000000000e+00 -3.202566521438160452e-13 -9.607699564314481355e-14 -2.081668171172168513e-13
2.300000000000000000e+01 7.237562561035156250e+01 3.506696319580078125e+01 3.202566521438160452e-14 -3.522823038056704936e-13 -9.607699564314481355e-14 -1.601283260719080226e-14
2.400000000000000000e+01 7.163520812988281250e+01 3.431819152832031250e+01 -1.521218996039172544e-13 -2.481988952470620680e-13 -1.200962343895356499e-13 0.000000000000000000e+00
2.500000000000000000e+01 6.864418792724609375e+01 3.432744216918945312e+01 1.040834085586084257e-13 -1.841475648182988589e-13 -2.401924891078620339e-14 -6.405133042876320904e-14
2.600000000000000000e+01 6.865816497802734375e+01 3.506734085083007812e+01 1.200962343895356499e-13 2.802245740139708285e-13 1.200962343895356499e-13 -4.803849782157240678e-14
2.700000000000000000e+01 6.789818572998046875e+01 3.433293151855468750e+01 9.607699564314481355e-14 2.241796429481440756e-13 9.607699564314481355e-14 -1.601283260719080226e-14
2.800000000000000000e+01 6.939115142822265625e+01 3.431977081298828125e+01 -5.604491073703601889e-14 2.962373998448980528e-13 7.205774334422682115e-14 -1.601283260719080226e-14
2.900000000000000000e+01 7.014167022705078125e+01 3.505007171630859375e+01 1.761411519028352468e-13 3.042437992078345088e-13 1.441154866884536423e-13 1.281026608575264181e-13
3.000000000000000000e+01 7.013907623291015625e+01 3.431005859375000000e+01 -7.205774334422682115e-14 -4.883913911311876799e-13 -1.681347389873716347e-13 -1.601283260719080226e-14
3.100000000000000000e+01 6.791786193847656250e+01 3.507276916503906250e+01 0.000000000000000000e+00 0.000000000000000000e+00 0.000000000000000000e+00 1.601283260719080226e-14
3.200000000000000000e+01 6.939944458007812500e+01 3.505972290039062500e+01 -1.441154866884536423e-13 -3.362694779747432694e-13 -1.441154866884536423e-13 -1.761411519028352468e-13
3.300000000000000000e+01 6.570060729980468750e+01 3.516909790039062500e+01 2.161732300326804634e-13 1.841475648182988589e-13 1.200962343895356499e-13 -6.405133042876320904e-14
3.400000000000000000e+01 6.640644073486328125e+01 3.439306259155273438e+01 -6.405133042876320904e-14 6.405133042876320904e-14 0.000000000000000000e+00 -8.006416303595401129e-14
3.500000000000000000e+01 6.491574096679687500e+01 3.446823501586914062e+01 4.003208151797700565e-14 2.001604042017532392e-13 7.205774334422682115e-14 -6.405133042876320904e-14
3.600000000000000000e+01 6.715198516845703125e+01 3.435549545288085938e+01 1.561251128379126385e-13 -1.160930347080674219e-13 1.200962445539310169e-14 1.601283260719080226e-14
3.700000000000000000e+01 6.717790222167968750e+01 3.509513473510742188e+01 9.607699564314481355e-14 2.241796429481440756e-13 9.607699564314481355e-14 -1.120898214740720378e-13
3.800000000000000000e+01 6.496202087402343750e+01 3.520683670043945312e+01 1.361090737729900302e-13 -2.161732300326804634e-13 -2.401924891078620339e-14 5.604491073703601889e-14
3.900000000000000000e+01 6.643914794921875000e+01 3.513235473632812500e+01 -1.040834085586084257e-13 -1.361090737729900302e-13 -7.205774334422682115e-14 -2.401924687790712998e-13
4.000000000000000000e+01 6.566111755371093750e+01 3.443015289306640625e+01 1.040834085586084257e-13 -1.841475648182988589e-13 -2.401924891078620339e-14 -9.607699564314481355e-14
4.100000000000000000e+01 6.268238067626953125e+01 3.464594268798828125e+01 2.241796429481440756e-13 9.607699564314481355e-14 9.607699564314481355e-14 4.803849782157240678e-14
4.200000000000000000e+01 6.274868774414062500e+01 3.538298034667968750e+01 1.761411519028352468e-13 -1.601283260719080226e-14 4.803849782157240678e-14 -9.607699564314481355e-14
4.300000000000000000e+01 6.193933486938476562e+01 3.470622634887695312e+01 2.121700303512122354e-13 -9.207378240914942946e-14 3.602887167211341057e-14 -9.607699564314481355e-14
4.400000000000000000e+01 6.342625427246093750e+01 3.458350372314453125e+01 2.321860694161348437e-13 8.006416303595401129e-15 7.205774334422682115e-14 -4.803849782157240678e-14
4.500000000000000000e+01 6.422395324707031250e+01 3.525720977783203125e+01 -2.401924687790712998e-13 8.006416303595401129e-14 -4.803849782157240678e-14 -4.003208151797700565e-14
4.600000000000000000e+01 6.417095184326171875e+01 3.451905822753906250e+01 1.841475648182988589e-13 -1.040834085586084257e-13 2.401924891078620339e-14 3.202566521438160452e-14
4.700000000000000000e+01 6.201229858398437500e+01 3.544270706176757812e+01 1.000802021008766196e-13 2.001604075898850282e-14 3.602887167211341057e-14 -1.040834085586084257e-13
4.800000000000000000e+01 6.348590850830078125e+01 3.532109832763671875e+01 3.002405995263662808e-13 6.004811719476782494e-14 1.080866150163402317e-13 -6.405133042876320904e-14
4.900000000000000000e+01 5.980386352539062500e+01 3.570315170288085938e+01 -8.006416303595401129e-15 8.807057595141762341e-14 2.401924891078620339e-14 -1.441154866884536423e-13
5.000000000000000000e+01 5.971332931518554688e+01 3.496871185302734375e+01 0.000000000000000000e+00 0.000000000000000000e+00 0.000000000000000000e+00 -1.361090737729900302e-13
5.100000000000000000e+01 5.897272491455078125e+01 3.505795669555664062e+01 2.401924891078620339e-14 5.604491073703601889e-14 2.401924891078620339e-14 -1.120898214740720378e-13
5.200000000000000000e+01 6.045466995239257812e+01 3.487708282470703125e+01 2.361892690976030718e-13 2.842277736954390566e-13 1.561251128379126385e-13 1.200962343895356499e-13
5.300000000000000000e+01 6.127589035034179688e+01 3.551908111572265625e+01 3.362694779747432694e-13 1.441154866884536423e-13 1.441154866884536423e-13 0.000000000000000000e+00
5.400000000000000000e+01 6.119675064086914062e+01 3.478322982788085938e+01 1.761411519028352468e-13 -1.601283260719080226e-14 4.803849782157240678e-14 2.401924891078620339e-14
5.500000000000000000e+01 5.906895828247070312e+01 3.579169464111328125e+01 4.803849782157240678e-14 -2.081668171172168513e-13 -4.803849782157240678e-14 -2.081668171172168513e-13
5.600000000000000000e+01 6.053950500488281250e+01 3.561222839355468750e+01 -7.606094980195862720e-14 3.602887167211341057e-14 -1.200962445539310169e-14 -8.006416303595401129e-15
5.700000000000000000e+01 5.676622772216796875e+01 3.537297821044921875e+01 2.321860694161348437e-13 8.006416303595401129e-15 7.205774334422682115e-14 -5.604491073703601889e-14
5.800000000000000000e+01 5.690399551391601562e+01 3.610068511962890625e+01 1.881507780522942430e-13 1.200962445539310169e-14 6.004811719476782494e-14 8.807057595141762341e-14
5.900000000000000000e+01 5.603319931030273438e+01 3.547965621948242188e+01 1.641315257533762506e-13 2.762213472274482884e-13 1.321058605389946461e-13 -2.401924891078620339e-14
6.000000000000000000e+01 5.750018692016601562e+01 3.526519775390625000e+01 -1.120898214740720378e-13 -4.803849782157240678e-14 -4.803849782157240678e-14 -4.003208151797700565e-14
6.100000000000000000e+01 5.834177017211914062e+01 3.588873672485351562e+01 8.006416303595401129e-15 -8.807057595141762341e-14 -2.401924891078620339e-14 -6.405133042876320904e-14
6.200000000000000000e+01 5.823495101928710938e+01 3.515648651123046875e+01 -1.881507780522942430e-13 -1.721379386688398627e-13 -1.080866150163402317e-13 8.006416303595401129e-15
6.300000000000000000e+01 5.618644332885742188e+01 3.620509338378906250e+01 -2.081668171172168513e-13 4.803849782157240678e-14 -4.803849782157240678e-14 -1.601283260719080226e-13
6.400000000000000000e+01 5.762247848510742188e+01 3.599517822265625000e+01 1.721379386688398627e-13 -1.321058605389946461e-13 1.200962445539310169e-14 8.006416303595401129e-14
6.500000000000000000e+01 5.562975692749023438e+01 3.712179946899414062e+01 -9.207378240914942946e-14 5.204170427930421283e-14 -1.200962445539310169e-14 -1.681347389873716347e-13
6.600000000000000000e+01 5.706308746337890625e+01 3.677020263671875000e+01 1.601283260719080226e-13 1.601283260719080226e-13 9.607699564314481355e-14 -2.401924891078620339e-14
6.700000000000000000e+01 5.727329635620117188e+01 3.738886260986328125e+01 2.401924687790712998e-13 -8.006416303595401129e-14 4.803849782157240678e-14 -1.281026608575264181e-13
6.800000000000000000e+01 5.228589630126953125e+01 4.043382644653320312e+01 2.441956955655938399e-13 2.762213472274482884e-13 1.561251128379126385e-13 1.281026608575264181e-13
6.900000000000000000e+01 5.226352310180664062e+01 3.895484161376953125e+01 4.603689391508014594e-13 3.803047557860567141e-13 2.522020949285302960e-13 1.200962343895356499e-13
7.000000000000000000e+01 5.255747985839843750e+01 4.176213073730468750e+01 2.742197473867141744e-13 1.861491782115601290e-13 1.381106736137241442e-13 8.606896933441993136e-14
7.100000000000000000e+01 5.098134231567382812e+01 3.861432647705078125e+01 4.323464600653609269e-13 4.803849782157240678e-14 1.441154866884536423e-13 1.200962343895356499e-13
7.200000000000000000e+01 4.801029205322265625e+01 3.856964111328125000e+01 2.602085213965210642e-13 2.001604075898850282e-14 8.406736949368581735e-14 -9.207378240914942946e-14
7.300000000000000000e+01 4.977499389648437500e+01 3.785289764404296875e+01 1.701363388281057487e-13 -3.002405859738391247e-14 4.203368474684290867e-14 1.501202997631831404e-13
7.400000000000000000e+01 5.529547500610351562e+01 3.814062500000000000e+01 1.601283260719080226e-13 1.601283260719080226e-13 9.607699564314481355e-14 -8.807057595141762341e-14
7.500000000000000000e+01 5.999903488159179688e+01 3.661605072021484375e+01 -2.802245536851800944e-14 -1.200962445539310169e-14 -1.200962445539310169e-14 -1.361090737729900302e-13
7.600000000000000000e+01 6.351085662841796875e+01 3.619467544555664062e+01 1.601283260719080226e-13 1.601283260719080226e-13 9.607699564314481355e-14 -7.205774334422682115e-14
7.700000000000000000e+01 6.504644775390625000e+01 3.609980010986328125e+01 1.841475648182988589e-13 5.604491073703601889e-14 7.205774334422682115e-14 -2.401924891078620339e-14
7.800000000000000000e+01 6.869522857666015625e+01 3.590475845336914062e+01 -1.200962343895356499e-13 4.003208151797700565e-14 -2.401924891078620339e-14 -7.205774334422682115e-14
7.900000000000000000e+01 7.008384704589843750e+01 3.610779953002929688e+01 -2.001604075898850282e-14 -2.602085213965210642e-13 -8.406736949368581735e-14 -1.040834085586084257e-13
8.000000000000000000e+01 7.166242980957031250e+01 3.612621307373046875e+01 3.202566521438160452e-14 -3.522823038056704936e-13 -9.607699564314481355e-14 -4.803849782157240678e-14
8.100000000000000000e+01 7.781503295898437500e+01 3.595398330688476562e+01 1.841475648182988589e-13 5.604491073703601889e-14 7.205774334422682115e-14 -1.200962343895356499e-13
8.200000000000000000e+01 7.956282806396484375e+01 3.597412490844726562e+01 6.004811719476782494e-14 -2.001604075898850282e-14 1.200962445539310169e-14 2.401924891078620339e-14
8.300000000000000000e+01 7.784385681152343750e+01 3.679139328002929688e+01 5.204170427930421283e-14 6.805453688649501509e-14 3.602887167211341057e-14 1.601283260719080226e-14
8.400000000000000000e+01 6.337311172485351562e+01 3.727068710327148438e+01 0.000000000000000000e+00 -1.601283260719080226e-13 -4.803849782157240678e-14 -5.604491073703601889e-14
8.500000000000000000e+01 4.549571609497070312e+01 3.544392013549804688e+01 1.020818019416107336e-13 2.381908689383371858e-13 1.020818019416107336e-13 2.001604075898850282e-14
8.600000000000000000e+01 4.399574661254882812e+01 3.740224075317382812e+01 1.931547912066566841e-13 -8.306656957331876034e-14 3.302646513474866152e-14 7.205774334422682115e-14
8.700000000000000000e+01 3.529508972167968750e+01 3.959244537353515625e+01 1.698861456242775625e-13 -2.474483020830503532e-13 -2.326864727644501613e-14 3.002406113848275424e-15
8.800000000000000000e+01 1.781227111816406250e+01 4.090429687500000000e+01 1.020818019416107336e-13 3.803047490097931360e-14 4.203368474684290867e-14 3.402726844324750755e-14
8.900000000000000000e+01 1.188568687438964844e+01 3.701190567016601562e+01 1.511210996835501974e-13 -6.104892389139845998e-14 2.702165375408505793e-14 -5.204170427930421283e-14
9.000000000000000000e+01 1.101803541183471680e+00 3.709814071655273438e+01 4.803849782157240678e-14 1.120898214740720378e-13 4.803849782157240678e-14 -7.205774334422682115e-14
9.100000000000000000e+01 3.504602015018463135e-01 3.406978607177734375e+01 2.401924891078620339e-14 5.604491073703601889e-14 2.401924891078620339e-14 -6.405133042876320904e-14
9.200000000000000000e+01 1.241508364677429199e+00 3.089739608764648438e+01 8.006416303595401129e-15 -8.807057595141762341e-14 -2.401924891078620339e-14 -1.040834085586084257e-13
9.300000000000000000e+01 3.983337581157684326e-01 2.843505477905273438e+01 -2.802245740139708285e-13 2.001604042017532392e-13 -2.401924891078620339e-14 1.601283260719080226e-14
9.400000000000000000e+01 1.121656417846679688e+00 2.441058158874511719e+01 -4.403528797570881170e-14 4.003208151797700565e-15 -1.200962445539310169e-14 1.120898214740720378e-13
9.500000000000000000e+01 6.927667617797851562e+00 1.738188552856445312e+01 1.521218996039172544e-13 -7.205774334422682115e-14 2.401924891078620339e-14 8.006416303595401129e-14
9.600000000000000000e+01 1.893096733093261719e+01 9.015212059020996094e+00 -1.080866150163402317e-13 -2.522020949285302960e-13 -1.080866150163402317e-13 -3.923143819355157103e-13
9.700000000000000000e+01 2.173998260498046875e+01 1.187019252777099609e+01 -2.081668171172168513e-13 -2.722181475459800604e-13 -1.441154866884536423e-13 -3.602887302736612618e-13
9.800000000000000000e+01 2.571260833740234375e+01 1.583576965332031250e+01 -5.104090097080536681e-14 -1.190954344691685929e-13 -5.104090097080536681e-14 -7.706175649858926224e-14
9.900000000000000000e+01 2.578532218933105469e+01 1.700411033630371094e+01 -1.000802037949425141e-14 -5.004010105043830980e-14 -1.801443583605670529e-14 -1.005806020610601481e-13
1.000000000000000000e+02 2.626756858825683594e+01 1.641043853759765625e+01 -1.826463649377482734e-13 -2.126704303113957639e-13 -1.185950345089850644e-13 -5.004010189747125706e-15
1.010000000000000000e+02 3.142056655883789062e+01 2.148246002197265625e+01 2.150473267341357353e-13 1.815204616392035453e-13 1.189703446435180778e-13 3.753007324672989059e-15
1.020000000000000000e+02 3.127034950256347656e+01 2.934606742858886719e+01 -1.251002475438980910e-13 -1.451162866088206993e-13 -8.106496295632106830e-14 6.805453688649501509e-14
1.030000000000000000e+02 2.250477027893066406e+01 4.093854522705078125e+01 8.306656957331876034e-14 -3.302646513474866152e-14 1.501202929869195624e-14 -4.003208151797700565e-15
1.040000000000000000e+02 2.189019012451171875e+01 2.949799156188964844e+01 2.391916688587042428e-13 -1.491194998428160834e-13 2.702165375408505793e-14 -6.605293026949732305e-14
1.050000000000000000e+02 2.523244857788085938e+01 2.997236442565917969e+01 -1.000802037949425141e-14 -5.004010105043830980e-14 -1.801443583605670529e-14 -3.602887167211341057e-14
1.060000000000000000e+02 1.464126110076904297e+01 3.255112838745117188e+01 1.220978477827969200e-13 -1.421138868477195283e-13 -6.004812227696550847e-15 -1.200962445539310169e-14
1.070000000000000000e+02 1.828032875061035156e+01 3.758167648315429688e+01 9.007218256841531545e-14 -1.100882216333379238e-13 -6.004812227696550847e-15 -6.605293026949732305e-14
1.080000000000000000e+02 1.070205450057983398e+00 3.787727355957031250e+01 -1.761411519028352468e-13 1.601283260719080226e-14 -4.803849782157240678e-14 9.607699564314481355e-14
1.090000000000000000e+02 3.626202344894409180e-01 2.039278411865234375e+01 -3.202566521438160452e-14 -2.882309733769072846e-13 -9.607699564314481355e-14 6.405133042876320904e-14
1.100000000000000000e+02 1.074258446693420410e+00 1.718144035339355469e+01 -2.802245740139708285e-13 -1.200962343895356499e-13 -1.200962343895356499e-13 -8.807057595141762341e-14
1.110000000000000000e+02 1.256690311431884766e+01 8.704701423645019531e+00 1.000802021008766196e-13 -4.603689391508014594e-13 -1.080866150163402317e-13 -6.405133042876320904e-14
1.120000000000000000e+02 1.727734565734863281e+01 7.273960113525390625e+00 -3.382710778154773834e-13 -3.622903301143953758e-13 -2.101684169579509653e-13 -2.922341730583755126e-13
1.130000000000000000e+02 1.671163368225097656e+01 6.708224773406982422e+00 -3.913135820151486532e-13 -3.793039558656896570e-13 -2.311852694957677867e-13 -3.763015561045884860e-13
1.140000000000000000e+02 3.561826348304748535e-01 1.476741027832031250e+01 1.881507780522942430e-13 3.322662782932750414e-13 1.561251128379126385e-13 -4.803849782157240678e-14
1.150000000000000000e+02 1.094052195549011230e+00 9.944170951843261719e+00 4.003208151797700565e-14 5.204170427930421283e-13 1.681347389873716347e-13 3.202566521438160452e-14
1.160000000000000000e+02 8.940827369689941406e+00 1.848870754241943359e+00 6.405133042876320904e-14 2.562053217150528361e-13 9.607699564314481355e-14 -3.362694779747432694e-13
1.170000000000000000e+02 1.127701377868652344e+01 1.629799127578735352e+00 -3.122502256758252770e-13 -4.083272077664429345e-13 -2.161732300326804634e-13 -2.241796429481440756e-13
1.180000000000000000e+02 1.287183380126953125e+01 2.670803546905517578e+00 -1.705366642172634339e-12 -1.737392239624380164e-12 -1.032827686223147801e-12 8.166544155328858690e-13
1.190000000000000000e+02 1.366236209869384766e+01 5.774065017700195312e+00 -2.942358000041639388e-13 -1.086870936133077503e-12 -4.143320343936995886e-13 -2.001604042017532392e-13
1.200000000000000000e+02 4.992782592773437500e+00 2.593641519546508789e+00 -8.406736949368581735e-14 -3.602887167211341057e-14 -3.602887167211341057e-14 -6.405133042876320904e-14
1.210000000000000000e+02 3.793607652187347412e-01 6.709986209869384766e+00 1.641315257533762506e-13 4.363496868518834670e-13 1.801443651368306309e-13 -6.405133042876320904e-14
1.220000000000000000e+02 1.140413045883178711e+00 6.681333541870117188e+00 1.721379386688398627e-13 1.881507780522942430e-13 1.080866150163402317e-13 -4.003208151797700565e-14
1.230000000000000000e+02 1.050755786895751953e+01 1.761533498764038086e+00 -5.604491073703601889e-14 6.164940519887140979e-13 1.681347389873716347e-13 -4.483592858962881511e-13
1.240000000000000000e+02 1.364838027954101562e+01 2.705703973770141602e+00 -5.524426944548965768e-13 -3.851086116668511750e-12 -1.321058605389946461e-12 2.722181475459800604e-13
1.250000000000000000e+02 1.426908493041992188e+01 1.305858850479125977e+00 -2.783730711219956078e-12 -3.506309825818121340e-12 -1.887012247847597024e-12 2.592077160551431447e-12
1.260000000000000000e+02 3.199771308898925781e+01 2.203645706176757812e+01 -2.439454888092384977e-14 -5.692061405548898279e-14 -2.439454888092384977e-14 1.301042606982605321e-14
1.270000000000000000e+02 3.516852951049804688e+01 2.561680984497070312e+01 -5.029030103053007406e-14 -1.173440413847898212e-13 -5.029030103053007406e-14 -3.002405859738391247e-14
1.280000000000000000e+02 3.960303115844726562e+01 3.029534721374511719e+01 -7.806255641895631925e-14 -1.821459649775647449e-13 -7.806255641895631925e-14 1.481186999224490264e-13
1.290000000000000000e+02 3.909538650512695312e+01 3.651504898071289062e+01 8.231596285677988956e-14 -1.248500543400699048e-13 -1.276022524270134170e-14 -5.491901082662307976e-14
1.300000000000000000e+02 4.073532867431640625e+01 3.134010124206542969e+01 4.903929774193946378e-14 -9.907939540424598457e-14 -1.501202929869195624e-14 2.201764398785440585e-14
1.310000000000000000e+02 4.453735351562500000e+01 3.599662017822265625e+01 8.807057595141762341e-14 -8.006416303595401129e-15 2.401924891078620339e-14 9.207378240914942946e-14
1.320000000000000000e+02 5.156077575683593750e+01 3.866368103027343750e+01 5.044041898570605920e-13 5.604491073703601889e-14 1.681347389873716347e-13 1.040834085586084257e-13
1.330000000000000000e+02 5.398242950439453125e+01 3.762930297851562500e+01 3.202566521438160452e-14 -3.202566521438160452e-14 0.000000000000000000e+00 -1.601283260719080226e-14
1.340000000000000000e+02 7.038017272949218750e+00 3.945417404174804688e+01 1.220978477827969200e-13 -6.204972381176551699e-14 1.801443583605670529e-14 6.305052373213257400e-14
1.350000000000000000e+02 6.763674736022949219e+00 3.196631813049316406e+01 1.281026608575264181e-13 3.202566521438160452e-14 4.803849782157240678e-14 -8.807057595141762341e-14
1.360000000000000000e+02 1.584285736083984375e+01 2.214423370361328125e+01 2.722181475459800604e-13 -2.722181475459800604e-13 0.000000000000000000e+00 -1.040834085586084257e-13
1.370000000000000000e+02 2.622905349731445312e+01 2.394777870178222656e+01 5.004010105043830980e-14 1.000802037949425141e-14 1.801443583605670529e-14 -4.003208151797700565e-15
1.380000000000000000e+02 2.328437614440917969e+01 2.089879226684570312e+01 4.328468803543351895e-14 -3.260112449096630449e-13 -8.481796943396111010e-14 7.005613842129502361e-15
1.390000000000000000e+02 3.064756584167480469e+01 3.737887191772460938e+01 1.301042606982605321e-13 -1.501202997631831404e-13 -6.004812227696550847e-15 1.000802037949425141e-14
1.400000000000000000e+02 3.200199508666992188e+01 3.051421928405761719e+01 1.458668933253595701e-13 -1.433648935244419276e-13 7.506015284620688559e-16 -8.506816941405287436e-14
1.410000000000000000e+02 3.837317276000976562e+01 2.930894660949707031e+01 -1.421138868477195283e-13 -1.180946345488015359e-13 -7.806255641895631925e-14 -1.446158866486371708e-13
1.420000000000000000e+02 5.794247150421142578e+00 3.198691940307617188e+01 4.803849782157240678e-14 -4.803849782157240678e-14 0.000000000000000000e+00 8.807057595141762341e-14
1.430000000000000000e+02 6.745266437530517578e+00 2.615626907348632812e+01 1.921539912862896271e-13 1.281026608575264181e-13 9.607699564314481355e-14 2.401924891078620339e-14
1.440000000000000000e+02 1.665819549560546875e+01 1.397832775115966797e+01 1.322309639171723172e-13 -4.387265832746234384e-13 -9.194868580723533635e-14 -8.731997601114233065e-14
1.450000000000000000e+02 1.991813468933105469e+01 2.460401535034179688e+01 1.421138868477195283e-13 -1.220978477827969200e-13 6.004812227696550847e-15 -1.080866150163402317e-13
1.460000000000000000e+02 1.492136001586914062e+01 3.488240432739257812e+01 9.207378240914942946e-14 -5.204170427930421283e-14 1.200962445539310169e-14 -4.403528797570881170e-14
1.470000000000000000e+02 7.094647884368896484e+00 2.350148391723632812e+01 1.681347389873716347e-13 -2.481988952470620680e-13 -2.401924891078620339e-14 1.281026608575264181e-13
1.480000000000000000e+02 6.965303421020507812e+00 1.655055809020996094e+01 -8.006416303595401129e-15 -2.321860694161348437e-13 -7.205774334422682115e-14 6.405133042876320904e-14
1.490000000000000000e+02 1.772579002380371094e+01 1.407552909851074219e+01 1.551243129175455815e-13 -3.452767043631010946e-13 -5.704571743366665393e-14 -9.007218256841531545e-14
1.500000000000000000e+02 1.310872840881347656e+01 9.195780754089355469e+00 -1.611291259922750796e-13 -6.905533680686207210e-14 -6.905533680686207210e-14 9.607699564314481355e-14
1.510000000000000000e+02 5.638949584960937500e+01 3.691479873657226562e+01 2.161732300326804634e-13 1.841475648182988589e-13 1.200962343895356499e-13 -1.040834085586084257e-13
1.520000000000000000e+02 5.845980834960937500e+01 3.664807510375976562e+01 1.601283260719080226e-13 -1.601283260719080226e-13 0.000000000000000000e+00 -1.120898214740720378e-13
1.530000000000000000e+02 5.848261260986328125e+01 3.740580749511718750e+01 1.921539912862896271e-13 -1.921539912862896271e-13 0.000000000000000000e+00 -1.761411519028352468e-13
1.540000000000000000e+02 6.074776077270507812e+01 3.646446990966796875e+01 -1.200962343895356499e-13 4.003208151797700565e-14 -2.401924891078620339e-14 -2.001604075898850282e-14
1.550000000000000000e+02 6.187737274169921875e+01 3.717108917236328125e+01 0.000000000000000000e+00 0.000000000000000000e+00 0.000000000000000000e+00 -4.803849782157240678e-14
1.560000000000000000e+02 6.254217529296875000e+01 3.682478713989257812e+01 1.190954344691685929e-13 1.711371387484728057e-13 8.706977603105056640e-14 -1.461170865291877563e-13
1.570000000000000000e+02 6.429140472412109375e+01 3.617966842651367188e+01 9.607699564314481355e-14 -9.607699564314481355e-14 0.000000000000000000e+00 -1.281026608575264181e-13
1.580000000000000000e+02 6.651403808593750000e+01 3.595526504516601562e+01 8.006416303595401129e-15 2.321860694161348437e-13 7.205774334422682115e-14 -1.040834085586084257e-13
1.590000000000000000e+02 6.725885772705078125e+01 3.596196746826171875e+01 -7.205774334422682115e-14 1.521218996039172544e-13 2.401924891078620339e-14 -1.200962343895356499e-13
1.600000000000000000e+02 7.181136322021484375e+01 3.752338409423828125e+01 -3.202566521438160452e-14 3.202566521438160452e-14 0.000000000000000000e+00 -1.521218996039172544e-13
1.610000000000000000e+02 6.978905487060546875e+01 3.763346099853515625e+01 0.000000000000000000e+00 1.601283260719080226e-13 4.803849782157240678e-14 6.004812227696550847e-15
1.620000000000000000e+02 7.244585418701171875e+01 3.606882095336914062e+01 1.761411519028352468e-13 -1.601283260719080226e-14 4.803849782157240678e-14 -5.604491073703601889e-14
1.630000000000000000e+02 7.319833374023437500e+01 3.600675964355468750e+01 -6.004811719476782494e-14 -4.603689391508014594e-13 -1.561251128379126385e-13 -8.006416303595401129e-14
1.640000000000000000e+02 7.394822692871093750e+01 3.947240829467773438e+01 -2.201764398785440585e-14 -1.581267126786467525e-13 -5.404330750817011586e-14 -2.401924891078620339e-14
1.650000000000000000e+02 7.393881225585937500e+01 3.595079421997070312e+01 -6.405133042876320904e-14 6.405133042876320904e-14 0.000000000000000000e+00 5.604491073703601889e-14
1.660000000000000000e+02 7.542323303222656250e+01 3.593439483642578125e+01 1.681347389873716347e-13 7.205774334422682115e-14 7.205774334422682115e-14 -1.681347389873716347e-13
1.670000000000000000e+02 7.616089630126953125e+01 3.593803787231445312e+01 -1.200962445539310169e-14 -2.802245536851800944e-14 -1.200962445539310169e-14 -1.921539912862896271e-13
1.680000000000000000e+02 7.701928710937500000e+01 3.675872802734375000e+01 -1.601283260719080226e-14 -1.441154866884536423e-13 -4.803849782157240678e-14 -2.241796429481440756e-13
1.690000000000000000e+02 7.957462310791015625e+01 3.674764633178710938e+01 -1.401122870069854143e-13 -6.004811719476782494e-14 -6.004811719476782494e-14 8.006416303595401129e-14
1.700000000000000000e+02 7.962556457519531250e+01 4.210384750366210938e+01 1.601283260719080226e-14 -1.761411519028352468e-13 -4.803849782157240678e-14 0.000000000000000000e+00
1.710000000000000000e+02 7.957745361328125000e+01 4.130030059814453125e+01 -5.604491073703601889e-14 -3.442758773376797254e-13 -1.200962343895356499e-13 4.803849782157240678e-14
1.720000000000000000e+02 7.622334289550781250e+01 4.165533447265625000e+01 -1.741395520621011328e-13 -1.661331391466375207e-13 -1.020818019416107336e-13 3.202566521438160452e-14
1.730000000000000000e+02 7.748621368408203125e+01 4.022113037109375000e+01 -2.121700303512122354e-13 -6.805453688649501509e-14 -8.406736949368581735e-14 5.604491073703601889e-14
1.740000000000000000e+02 7.961577606201171875e+01 3.900262832641601562e+01 -2.241796429481440756e-13 -9.607699564314481355e-14 -9.607699564314481355e-14 -7.205774334422682115e-14
1.750000000000000000e+02 7.962606811523437500e+01 3.826051712036132812e+01 0.000000000000000000e+00 -3.202566521438160452e-13 -9.607699564314481355e-14 1.120898214740720378e-13
1.760000000000000000e+02 7.959827423095703125e+01 3.751040649414062500e+01 1.601283260719080226e-14 -1.761411519028352468e-13 -4.803849782157240678e-14 -1.601283260719080226e-14
1.770000000000000000e+02 4.609732627868652344e-01 4.201786041259765625e+01 1.160930347080674219e-13 -1.561251128379126385e-13 -1.200962445539310169e-14 -2.401924891078620339e-14
1.780000000000000000e+02 5.934579372406005859e-01 4.110042572021484375e+01 1.561251128379126385e-13 -2.762213472274482884e-13 -3.602887167211341057e-14 -1.601283260719080226e-14
1.790000000000000000e+02 4.053819656372070312e+00 3.830839157104492188e+01 -2.627105296677681792e-15 -1.125902239753544080e-15 -1.125902239753544080e-15 6.467682699086083065e-14
1.800000000000000000e+02 2.253323554992675781e+01 3.761911392211914062e+01 8.006416303595401129e-14 -4.003208151797700565e-14 1.200962445539310169e-14 2.602085213965210642e-14
1.810000000000000000e+02 4.889839553833007812e+01 3.763725662231445312e+01 1.860240748333824579e-13 -9.970489874260718421e-14 2.589575214960622429e-14 8.381716951359405310e-14
1.820000000000000000e+02 6.635876464843750000e+01 3.760635757446289062e+01 3.402726844324750755e-14 1.060850151756061177e-13 4.203368474684290867e-14 -2.401924891078620339e-14
1.830000000000000000e+02 7.877549743652343750e+01 4.209254455566406250e+01 -1.481186999224490264e-13 -4.523625126828106913e-13 -1.801443651368306309e-13 7.205774334422682115e-14
1.840000000000000000e+02 3.860391676425933838e-01 1.897692203521728516e+00 1.601283260719080226e-14 -1.761411519028352468e-13 -4.803849782157240678e-14 -4.803849782157240678e-14
1.850000000000000000e+02 1.159544110298156738e+00 1.890046596527099609e+00 9.607699564314481355e-14 -9.607699564314481355e-14 0.000000000000000000e+00 -8.006416303595401129e-14
1.860000000000000000e+02 2.682225704193115234e+00 2.636564016342163086e+00 2.441956955655938399e-13 -1.240994476235310340e-13 3.602887167211341057e-14 -1.361090737729900302e-13
1.870000000000000000e+02 1.138977169990539551e+00 5.869023323059082031e+00 -2.321860694161348437e-13 3.122502256758252770e-13 2.401924891078620339e-14 -8.006416303595401129e-14
1.880000000000000000e+02 1.908850312232971191e+00 6.657037734985351562e+00 -2.722181475459800604e-13 4.323464600653609269e-13 4.803849782157240678e-14 -1.281026608575264181e-13
1.890000000000000000e+02 3.788819611072540283e-01 5.903718471527099609e+00 1.841475648182988589e-13 5.604491073703601889e-14 7.205774334422682115e-14 1.601283260719080226e-14
1.900000000000000000e+02 3.742800354957580566e-01 8.324427604675292969e+00 1.080866150163402317e-13 5.724587470723463412e-13 2.041636038832214672e-13 -4.803849782157240678e-14
1.910000000000000000e+02 3.699308633804321289e-01 9.132549285888671875e+00 1.160930347080674219e-13 4.843881914497194519e-13 1.801443651368306309e-13 -7.205774334422682115e-14
1.920000000000000000e+02 3.652904331684112549e-01 9.940128326416015625e+00 -1.881507780522942430e-13 6.285036510331187820e-13 1.321058605389946461e-13 0.000000000000000000e+00
1.930000000000000000e+02 3.613562583923339844e-01 1.074646759033203125e+01 3.642919299551294898e-13 6.365100503960552381e-13 3.002405995263662808e-13 2.401924891078620339e-14
1.940000000000000000e+02 3.585979640483856201e-01 1.155170249938964844e+01 -2.001604042017532392e-13 6.004811990527325616e-13 1.200962343895356499e-13 0.000000000000000000e+00
1.950000000000000000e+02 1.082450628280639648e+00 1.075458431243896484e+01 -4.803849782157240678e-14 5.284234421559785844e-13 1.441154866884536423e-13 -1.681347389873716347e-13
1.960000000000000000e+02 3.563202619552612305e-01 1.316036987304687500e+01 2.802245536851800944e-14 4.923945908126559079e-13 1.561251128379126385e-13 3.202566521438160452e-14
1.970000000000000000e+02 3.566308319568634033e-01 1.557060718536376953e+01 -4.403528797570881170e-14 3.242598518252842732e-13 8.406736949368581735e-14 1.601283260719080226e-14
1.980000000000000000e+02 3.572674393653869629e-01 1.637409782409667969e+01 -9.207378240914942946e-14 2.121700303512122354e-13 3.602887167211341057e-14 1.200962343895356499e-13
1.990000000000000000e+02 3.580276072025299072e-01 1.717761802673339844e+01 -1.200962445539310169e-14 -2.802245536851800944e-14 -1.200962445539310169e-14 3.202566521438160452e-14
2.000000000000000000e+02 3.589198291301727295e-01 1.798126220703125000e+01 5.604491073703601889e-14 2.401924891078620339e-14 2.401924891078620339e-14 -1.281026608575264181e-13
2.010000000000000000e+02 3.600181937217712402e-01 1.878497505187988281e+01 1.801443651368306309e-13 1.000802021008766196e-13 8.406736949368581735e-14 -1.601283260719080226e-14
2.020000000000000000e+02 3.656342625617980957e-01 2.199943542480468750e+01 -9.607699564314481355e-14 -2.241796429481440756e-13 -9.607699564314481355e-14 -2.401924891078620339e-14
2.030000000000000000e+02 3.678617477416992188e-01 2.280309104919433594e+01 8.406736949368581735e-14 -1.240994476235310340e-13 -1.200962445539310169e-14 1.601283260719080226e-14
2.040000000000000000e+02 3.706272840499877930e-01 2.360714912414550781e+01 1.000802021008766196e-13 2.001604075898850282e-14 3.602887167211341057e-14 1.040834085586084257e-13
2.050000000000000000e+02 3.738200366497039795e-01 2.441128158569335938e+01 7.606094980195862720e-14 -3.602887167211341057e-14 1.200962445539310169e-14 7.205774334422682115e-14
2.060000000000000000e+02 3.772703111171722412e-01 2.521541595458984375e+01 -1.040834085586084257e-13 -1.361090737729900302e-13 -7.205774334422682115e-14 4.003208151797700565e-14
2.070000000000000000e+02 3.854936957359313965e-01 2.682349967956542969e+01 0.000000000000000000e+00 3.202566521438160452e-13 9.607699564314481355e-14 -8.807057595141762341e-14
2.080000000000000000e+02 4.063493013381958008e-01 2.924247169494628906e+01 1.721379386688398627e-13 2.802245536851800944e-14 6.004811719476782494e-14 5.604491073703601889e-14
2.090000000000000000e+02 4.122952222824096680e-01 3.005071449279785156e+01 8.006416303595401129e-15 7.205774334422682115e-14 2.401924891078620339e-14 -9.607699564314481355e-14
2.100000000000000000e+02 4.120442569255828857e-01 3.085861015319824219e+01 8.006416303595401129e-15 2.321860694161348437e-13 7.205774334422682115e-14 -6.405133042876320904e-14
2.110000000000000000e+02 4.039307236671447754e-01 3.166717338562011719e+01 -2.802245536851800944e-14 1.481186999224490264e-13 3.602887167211341057e-14 -8.006416303595401129e-15
2.120000000000000000e+02 3.706508278846740723e-01 3.327839660644531250e+01 7.205774334422682115e-14 -1.521218996039172544e-13 -2.401924891078620339e-14 3.202566521438160452e-14
2.130000000000000000e+02 3.346251249313354492e-01 3.563719177246093750e+01 -1.120898214740720378e-13 -4.803849782157240678e-14 -4.803849782157240678e-14 1.120898214740720378e-13
2.140000000000000000e+02 3.475667834281921387e-01 3.642535400390625000e+01 2.001604042017532392e-13 4.003208151797700565e-14 7.205774334422682115e-14 1.601283260719080226e-14
2.150000000000000000e+02 3.576664030551910400e-01 3.721531295776367188e+01 -2.401924687790712998e-13 8.006416303595401129e-14 -4.803849782157240678e-14 -1.601283260719080226e-14
2.160000000000000000e+02 3.518035709857940674e-01 3.800253295898437500e+01 2.602085213965210642e-13 3.402726776562114974e-13 1.801443651368306309e-13 -1.521218996039172544e-13
2.170000000000000000e+02 3.430137634277343750e-01 3.877836990356445312e+01 -3.002405995263662808e-13 1.000802021008766196e-13 -6.004811719476782494e-14 9.607699564314481355e-14
2.180000000000000000e+02 5.077022314071655273e-01 4.029365539550781250e+01 -1.441154866884536423e-13 -1.601283260719080226e-14 -4.803849782157240678e-14 1.361090737729900302e-13
2.190000000000000000e+02 9.726396560668945312e+00 1.830518245697021484e+00 4.003208151797700565e-14 -1.200962343895356499e-13 -2.401924891078620339e-14 -3.522823038056704936e-13
2.200000000000000000e+02 8.159022331237792969e+00 1.857567906379699707e+00 4.803849782157240678e-14 -2.081668171172168513e-13 -4.803849782157240678e-14 -3.682951296365977178e-13
2.210000000000000000e+02 8.119433403015136719e+00 2.581541299819946289e+00 -1.000802021008766196e-13 1.401122870069854143e-13 1.200962445539310169e-14 -3.202566521438160452e-13
2.220000000000000000e+02 7.377495765686035156e+00 1.860699534416198730e+00 4.803849782157240678e-14 1.120898214740720378e-13 4.803849782157240678e-14 -1.441154866884536423e-13
2.230000000000000000e+02 5.039840698242187500e+00 1.863441944122314453e+00 2.481988952470620680e-13 -1.681347389873716347e-13 2.401924891078620339e-14 4.803849782157240678e-14
2.240000000000000000e+02 4.263028621673583984e+00 1.867290735244750977e+00 3.202566521438160452e-14 -3.202566521438160452e-14 0.000000000000000000e+00 -1.601283260719080226e-14
2.250000000000000000e+02 3.486767768859863281e+00 1.872066617012023926e+00 3.763015561045884860e-13 -2.962373998448980528e-13 2.401924891078620339e-14 -4.803849782157240678e-14
2.260000000000000000e+02 1.934996008872985840e+00 1.883579611778259277e+00 1.841475648182988589e-13 -1.040834085586084257e-13 2.401924891078620339e-14 -4.803849782157240678e-14
2.270000000000000000e+02 1.339864158630371094e+01 3.532387018203735352e+00 -1.901523778930283570e-13 -2.151724328228188376e-12 -7.025630077706068732e-13 3.602887167211341057e-14
2.280000000000000000e+02 1.381077003479003906e+01 1.940068960189819336e+00 -1.797440451686838081e-12 -4.727788473213312415e-12 -1.957568655786001699e-12 2.057648973083359145e-12
2.290000000000000000e+02 1.290617084503173828e+01 1.338336825370788574e+00 -8.887121724296398462e-13 -1.753405146770470324e-12 -7.926351632339678766e-13 7.205774334422682115e-14
2.300000000000000000e+02 1.450759506225585938e+01 4.432371139526367188e+00 -4.113296346325984176e-13 -6.795445824971102500e-13 -3.272622515863854442e-13 -6.525229033320367744e-13
2.310000000000000000e+02 1.508483982086181641e+01 4.965434074401855469e+00 -4.994002173602796191e-13 -6.315060778992742652e-13 -3.392718777358444404e-13 -3.362694779747432694e-13
2.320000000000000000e+02 1.573107051849365234e+01 6.721320629119873047e+00 -3.255108585020066725e-13 -3.225084587409055015e-13 -1.944057843308519273e-13 -2.186752433861252620e-13
2.330000000000000000e+02 1.614715766906738281e+01 6.136838436126708984e+00 -5.024025900163264780e-13 -6.385117044468979763e-13 -3.422742774969456114e-13 -3.082470259943570490e-13
2.340000000000000000e+02 1.836802864074707031e+01 8.441053390502929688e+00 -3.092478259147241060e-13 -4.013216083238735354e-13 -2.131708302715792924e-13 -2.321860694161348437e-13
2.350000000000000000e+02 1.850332069396972656e+01 9.578372001647949219e+00 -9.563914059578654259e-14 -2.239919946571411469e-13 -9.588934057587830684e-14 -2.360641792719525567e-13
2.360000000000000000e+02 2.007921981811523438e+01 1.013192367553710938e+01 -1.766415518630187753e-13 -1.986592043212026537e-13 -1.125902282105191443e-13 -2.742197473867141744e-13
2.370000000000000000e+02 1.906526184082031250e+01 1.015063095092773438e+01 -2.608965832002346774e-13 -1.575637678056379665e-13 -1.255381025912563620e-13 -2.847907185684478426e-13
2.380000000000000000e+02 2.016842460632324219e+01 1.129493522644042969e+01 -2.881371627839329763e-13 -2.607401870368536434e-13 -1.646632049462359859e-13 -3.017730921921202292e-13
2.390000000000000000e+02 2.117894554138183594e+01 1.129527378082275391e+01 -1.501202997631831404e-13 -3.502807039649363796e-13 -1.501202997631831404e-13 -2.461972954063279539e-13
2.400000000000000000e+02 2.284622001647949219e+01 1.303138542175292969e+01 -6.905533680686207210e-14 -1.611291259922750796e-13 -6.905533680686207210e-14 -3.422742774969456114e-13
2.410000000000000000e+02 2.340838813781738281e+01 1.360743045806884766e+01 -4.743801380359402575e-13 -4.663737386730038015e-13 -2.822261738547049426e-13 -9.807859548387892756e-14
2.420000000000000000e+02 2.457292556762695312e+01 1.471747684478759766e+01 3.402726844324750755e-14 -1.341074739322559162e-13 -3.002405859738391247e-14 -1.441154866884536423e-13
2.430000000000000000e+02 2.515102386474609375e+01 1.526950836181640625e+01 -2.206768432268593760e-13 -1.946559910872072696e-13 -1.245998475837145625e-13 4.803849782157240678e-14
2.440000000000000000e+02 2.682783126831054688e+01 1.698374176025390625e+01 2.907329867303520832e-13 1.446158866486371708e-13 1.306046606584440606e-13 -7.506014988159157020e-14
2.450000000000000000e+02 2.739763641357421875e+01 1.754941177368164062e+01 2.602085213965210642e-14 -4.603689120457471473e-14 -6.004812227696550847e-15 1.781427517435693608e-13
2.460000000000000000e+02 2.797371101379394531e+01 1.810795021057128906e+01 1.996600042415697107e-13 1.456166865690042278e-13 1.035830085984248972e-13 7.906335633932337625e-14
2.470000000000000000e+02 2.855002021789550781e+01 1.866521835327148438e+01 2.151724301123134064e-13 7.506014988159157020e-14 8.706977603105056640e-14 8.907137587178468041e-14
2.480000000000000000e+02 2.969579505920410156e+01 1.978837394714355469e+01 9.757819552369539906e-15 2.276824562219559311e-14 9.757819552369539906e-15 -7.005613842129502361e-15
2.490000000000000000e+02 3.083843994140625000e+01 2.092541313171386719e+01 -9.107298248878237246e-14 1.000802037949425141e-15 -2.702165375408505793e-14 1.926543912464731556e-13
2.500000000000000000e+02 3.254674148559570312e+01 2.260947418212890625e+01 -2.001604075898850282e-14 6.004811719476782494e-14 1.200962445539310169e-14 -8.807057595141762341e-14
2.510000000000000000e+02 3.307693099975585938e+01 2.320019340515136719e+01 -4.165838477670526230e-14 -9.720289216542596367e-14 -4.165838477670526230e-14 -6.555253030931379454e-14
2.520000000000000000e+02 3.253788757324218750e+01 2.384347152709960938e+01 -1.025822086780578402e-13 4.753809447325708926e-14 -1.651323256737433076e-14 -9.007217918028352643e-15
2.530000000000000000e+02 3.411661148071289062e+01 2.559814453125000000e+01 -1.915284879479284275e-13 5.516921080671484401e-14 -4.090778144829818053e-14 1.133408281507944371e-13
2.540000000000000000e+02 3.569113922119140625e+01 2.622020721435546875e+01 5.279230421957950559e-14 -9.032238254850707970e-14 -1.125902282105191443e-14 -1.291034607778934751e-13
2.550000000000000000e+02 3.619803237915039062e+01 2.683428764343261719e+01 -1.786431517037528893e-13 -9.657739560332834206e-14 -8.256616283687165381e-14 1.100882199392720293e-14
2.560000000000000000e+02 3.669871520996093750e+01 2.746109390258789062e+01 -8.506816941405287436e-14 1.501202929869195624e-14 -2.101684237342145434e-14 -1.190954344691685929e-13
2.570000000000000000e+02 3.777698516845703125e+01 2.873019409179687500e+01 -1.914033845697507563e-13 -1.263512542206204903e-13 -9.532638892660594276e-14 -7.055654346367623564e-14
2.580000000000000000e+02 3.722189331054687500e+01 2.809611320495605469e+01 -2.051644173561156803e-13 -2.652125209983563492e-13 -1.411130869273524713e-13 -8.206576287668812530e-14
2.590000000000000000e+02 3.741616439819335938e+01 3.134112930297851562e+01 -3.202566521438160452e-14 -1.281026608575264181e-13 -4.803849782157240678e-14 0.000000000000000000e+00
2.600000000000000000e+02 3.899513244628906250e+01 2.981376266479492188e+01 8.206576287668812530e-14 -2.201764398785440585e-14 1.801443583605670529e-14 -1.561251128379126385e-13
2.610000000000000000e+02 4.017800140380859375e+01 3.080189704895019531e+01 1.040834085586084257e-13 1.361090737729900302e-13 7.205774334422682115e-14 -1.741395520621011328e-13
2.620000000000000000e+02 4.190193557739257812e+01 3.240853118896484375e+01 -1.371098736933570872e-13 1.070858150959731747e-13 -9.007217918028352643e-15 -3.152526186606628700e-14
2.630000000000000000e+02 4.251640319824218750e+01 3.290973663330078125e+01 6.054852393121493148e-14 3.452766840343103605e-14 2.852285871683332696e-14 -2.201764398785440585e-14
2.640000000000000000e+02 4.374818038940429688e+01 3.389645767211914062e+01 2.709671408692576611e-13 -8.256616283687165381e-15 7.881315635923161200e-14 -2.777225538842624519e-14
2.650000000000000000e+02 4.433652877807617188e+01 3.441057205200195312e+01 1.030826086382413687e-13 2.702165375408505793e-14 3.903127820947815962e-14 9.007218256841531545e-14
2.660000000000000000e+02 4.490982818603515625e+01 3.493083572387695312e+01 3.602887167211341057e-14 8.406736949368581735e-14 3.602887167211341057e-14 1.200962445539310169e-14
2.670000000000000000e+02 4.674497604370117188e+01 3.646419525146484375e+01 2.652125209983563492e-13 2.051644173561156803e-13 1.411130869273524713e-13 6.305052373213257400e-14
2.680000000000000000e+02 4.740004730224609375e+01 3.694985198974609375e+01 6.004812227696550847e-15 1.401122768425900472e-14 6.004812227696550847e-15 1.561251128379126385e-13
2.690000000000000000e+02 4.808160400390625000e+01 3.735377502441406250e+01 2.141716301919463494e-13 1.261010474642651480e-13 1.020818019416107336e-13 -4.803849782157240678e-14
2.700000000000000000e+02 5.062989807128906250e+01 3.801611709594726562e+01 3.923143819355157103e-13 1.681347389873716347e-13 1.681347389873716347e-13 1.601283260719080226e-14
2.710000000000000000e+02 5.775288772583007812e+01 3.667649459838867188e+01 1.521218996039172544e-13 -7.205774334422682115e-14 2.401924891078620339e-14 0.000000000000000000e+00
2.720000000000000000e+02 5.787050247192382812e+01 3.729653930664062500e+01 4.803849782157240678e-14 -2.081668171172168513e-13 -4.803849782157240678e-14 -8.006416303595401129e-14
2.730000000000000000e+02 5.605123901367187500e+01 3.788864135742187500e+01 2.201764432666758475e-13 1.401122870069854143e-13 1.080866150163402317e-13 -2.201764432666758475e-13
2.740000000000000000e+02 5.921864318847656250e+01 3.666700744628906250e+01 3.202566521438160452e-14 -3.202566521438160452e-14 0.000000000000000000e+00 -1.921539912862896271e-13
2.750000000000000000e+02 6.114647293090820312e+01 3.909099960327148438e+01 4.203368474684290867e-14 9.807859548387892756e-14 4.203368474684290867e-14 -1.641315257533762506e-13
2.760000000000000000e+02 6.799949645996093750e+01 3.597105026245117188e+01 1.321058605389946461e-13 3.082470259943570490e-13 1.321058605389946461e-13 -8.807057595141762341e-14
2.770000000000000000e+02 6.524218750000000000e+01 3.718677520751953125e+01 1.441154866884536423e-13 1.601283260719080226e-14 4.803849782157240678e-14 -1.080866150163402317e-13
2.780000000000000000e+02 6.577935791015625000e+01 3.600356292724609375e+01 -4.003208151797700565e-15 -1.160930347080674219e-13 -3.602887167211341057e-14 -1.521218996039172544e-13
2.790000000000000000e+02 6.032432937622070312e+01 3.783271408081054688e+01 -8.006416303595401129e-15 -7.205774334422682115e-14 -2.401924891078620339e-14 -4.803849782157240678e-14
2.800000000000000000e+02 6.147720336914062500e+01 3.631029891967773438e+01 1.861491782115601290e-13 1.140914348673333079e-13 9.007218256841531545e-14 -2.562053217150528361e-13
2.810000000000000000e+02 6.936181640625000000e+01 3.594010925292968750e+01 -6.004811719476782494e-14 1.801443651368306309e-13 3.602887167211341057e-14 -7.205774334422682115e-14
2.820000000000000000e+02 7.346246337890625000e+01 3.720346450805664062e+01 1.601283260719080226e-14 -1.601283260719080226e-14 0.000000000000000000e+00 -1.120898214740720378e-13
2.830000000000000000e+02 1.375037384033203125e+01 1.129200100898742676e+00 -7.926351632339678766e-13 -1.529225422507163312e-12 -6.965582082484045312e-13 9.287442776645393749e-13
2.840000000000000000e+02 7.695383453369140625e+01 3.593731689453125000e+01 1.281026608575264181e-13 1.921539912862896271e-13 9.607699564314481355e-14 -1.521218996039172544e-13
2.850000000000000000e+02 7.415143585205078125e+01 3.694034194946289062e+01 -2.401924891078620339e-14 -3.763015561045884860e-13 -1.200962343895356499e-13 -1.441154866884536423e-13
2.860000000000000000e+02 7.468170928955078125e+01 3.592781066894531250e+01 8.006416303595401129e-14 -2.401924687790712998e-13 -4.803849782157240678e-14 3.202566521438160452e-14
2.870000000000000000e+02 7.556520843505859375e+01 3.688553237915039062e+01 -2.001604075898850282e-14 -2.602085213965210642e-13 -8.406736949368581735e-14 -2.401924891078620339e-14
2.880000000000000000e+02 7.629064941406250000e+01 3.686251068115234375e+01 4.403528797570881170e-14 -4.003208151797700565e-15 1.200962445539310169e-14 -1.361090737729900302e-13
2.890000000000000000e+02 1.205435371398925781e+01 1.485690236091613770e+00 -8.486801214048489417e-13 3.682951296365977178e-13 -1.441154866884536423e-13 -2.081668171172168513e-13
2.900000000000000000e+02 8.909839630126953125e+00 2.558230638504028320e+00 -1.361090737729900302e-13 -1.040834085586084257e-13 -7.205774334422682115e-14 -2.562053217150528361e-13
2.910000000000000000e+02 1.212479496002197266e+01 2.086127042770385742e+00 -8.847089727481716182e-13 -8.366704681503356333e-13 -5.164138431115739003e-13 3.202566521438160452e-13
2.920000000000000000e+02 1.299945735931396484e+01 1.971950411796569824e+00 -1.373100309669250674e-12 -9.087282250470896106e-13 -6.845485549938912229e-13 2.562053217150528361e-13
2.930000000000000000e+02 7.957274627685546875e+01 3.974238967895507812e+01 2.962373998448980528e-13 -3.763015561045884860e-13 -2.401924891078620339e-14 -8.006416303595401129e-15
2.940000000000000000e+02 7.859536743164062500e+01 4.035027694702148438e+01 -6.805453688649501509e-14 -5.204170427930421283e-14 -3.602887167211341057e-14 -1.761411519028352468e-13
2.950000000000000000e+02 7.955256652832031250e+01 4.050316619873046875e+01 0.000000000000000000e+00 -3.202566521438160452e-13 -9.607699564314481355e-14 1.441154866884536423e-13
2.960000000000000000e+02 7.632659912109375000e+01 3.855551147460937500e+01 -4.003208151797700565e-15 -1.160930347080674219e-13 -3.602887167211341057e-14 -9.007218256841531545e-14
2.970000000000000000e+02 7.785356140136718750e+01 3.767702865600585938e+01 -2.161732300326804634e-13 -1.841475648182988589e-13 -1.200962343895356499e-13 -1.841475648182988589e-13
2.980000000000000000e+02 7.871217346191406250e+01 3.676263046264648438e+01 -3.202566521438160452e-14 3.202566521438160452e-14 0.000000000000000000e+00 -8.807057595141762341e-14
2.990000000000000000e+02 7.868707275390625000e+01 3.596424484252929688e+01 -1.641315257533762506e-13 -1.160930347080674219e-13 -8.406736949368581735e-14 8.006416303595401129e-14
3.000000000000000000e+02 5.817647457122802734e+00 1.861534953117370605e+00 1.441154866884536423e-13 1.601283260719080226e-14 4.803849782157240678e-14 -1.601283260719080226e-13
3.010000000000000000e+02 6.596853256225585938e+00 1.861231565475463867e+00 6.405133042876320904e-14 -6.405133042876320904e-14 0.000000000000000000e+00 -4.803849782157240678e-14
3.020000000000000000e+02 7.330022335052490234e+00 2.587385654449462891e+00 -1.561251128379126385e-13 -2.041636038832214672e-13 -1.080866150163402317e-13 -2.562053217150528361e-13
3.030000000000000000e+02 8.085297584533691406e+00 3.330129623413085938e+00 -3.202566521438160452e-14 3.202566521438160452e-14 0.000000000000000000e+00 -8.807057595141762341e-14
3.040000000000000000e+02 3.774979114532470703e-01 4.295571327209472656e+00 1.200962445539310169e-14 2.802245536851800944e-14 1.200962445539310169e-14 -8.006416303595401129e-14
3.050000000000000000e+02 1.898834347724914551e+00 3.433936595916748047e+00 6.805453688649501509e-14 -1.080866150163402317e-13 -1.200962445539310169e-14 -8.006416303595401129e-14
3.060000000000000000e+02 2.710867166519165039e+00 1.877546072006225586e+00 -5.604491073703601889e-14 -2.401924891078620339e-14 -2.401924891078620339e-14 -4.803849782157240678e-14
3.070000000000000000e+02 1.912922620773315430e+00 2.654497623443603516e+00 1.080866150163402317e-13 9.207378240914942946e-14 6.004811719476782494e-14 -3.202566521438160452e-14
3.080000000000000000e+02 3.806160986423492432e-01 2.694592237472534180e+00 -3.602887167211341057e-14 -8.406736949368581735e-14 -3.602887167211341057e-14 1.601283260719080226e-14
3.090000000000000000e+02 1.051855754852294922e+01 2.430949687957763672e+00 -4.323464600653609269e-13 -4.803849782157240678e-14 -1.441154866884536423e-13 -1.601283260719080226e-14
3.100000000000000000e+02 9.703969001770019531e+00 2.504514694213867188e+00 -1.240994476235310340e-13 4.043240080849747065e-13 8.406736949368581735e-14 -2.562053217150528361e-13
3.110000000000000000e+02 1.399177169799804688e+01 3.890631198883056641e+00 -6.224988515109164400e-13 -2.279826934875606170e-12 -8.706977196529241958e-13 -5.004009901755923639e-13
3.120000000000000000e+02 1.195972537994384766e+01 3.210600852966308594e+00 -9.447570763904122870e-13 -1.761411519028352468e-13 -3.362694779747432694e-13 3.883111822540474822e-13
3.130000000000000000e+02 1.562066268920898438e+01 5.540239334106445312e+00 -3.758011425918778015e-13 -4.498604993293658927e-13 -2.476985088394056955e-13 -4.423544863740858091e-13
3.140000000000000000e+02 1.463618183135986328e+01 5.619151592254638672e+00 -2.041636038832214672e-13 -6.365100503960552381e-13 -2.522020949285302960e-13 -5.784635465945486832e-13
3.150000000000000000e+02 1.407858276367187500e+01 5.109745979309082031e+00 -1.551243129175455815e-13 -1.215974478226133915e-12 -4.113296346325984176e-13 -3.602887302736612618e-13
3.160000000000000000e+02 4.692762374877929688e+01 3.827366638183593750e+01 2.522020949285302960e-13 -2.121700303512122354e-13 1.200962445539310169e-14 1.481186999224490264e-13
3.170000000000000000e+02 3.086228752136230469e+01 2.346202087402343750e+01 1.561251128379126385e-13 2.041636038832214672e-13 1.080866150163402317e-13 -1.401122870069854143e-13
3.180000000000000000e+02 3.142466163635253906e+01 2.274670600891113281e+01 -3.455894424797545383e-14 2.611467797921946526e-14 -2.533280092385033384e-15 -3.452766840343103605e-14
3.190000000000000000e+02 1.641795349121093750e+01 8.438018798828125000e+00 -1.663833323504657069e-13 -3.915637887715039955e-13 -1.673841322708327639e-13 -2.431948956452267829e-13
3.200000000000000000e+02 2.062684822082519531e+01 1.071328163146972656e+01 -1.346078738924394447e-13 -1.005806020610601481e-13 -7.055654346367623564e-14 -2.001604042017532392e-13
3.210000000000000000e+02 1.961967849731445312e+01 1.072041893005371094e+01 -2.522020949285302960e-13 -1.080866150163402317e-13 -1.080866150163402317e-13 -2.223031464855876327e-13
3.220000000000000000e+02 4.349760055541992188e+01 3.650181198120117188e+01 1.281026608575264181e-13 1.921539912862896271e-13 9.607699564314481355e-14 -4.003208151797700565e-14
3.230000000000000000e+02 4.610238647460937500e+01 3.595474624633789062e+01 -1.401122768425900472e-14 7.405934996122451319e-14 1.801443583605670529e-14 1.160930347080674219e-13
3.240000000000000000e+02 4.914702987670898438e+01 3.868693161010742188e+01 3.562855034871387216e-13 -7.606094980195862720e-14 8.406736949368581735e-14 -2.001604075898850282e-14
3.250000000000000000e+02 3.608598327636718750e+01 2.806520652770996094e+01 -4.188356475878785012e-13 3.502806921064751181e-15 -1.245998475837145625e-13 -7.455974992140804170e-14
3.260000000000000000e+02 3.413677978515625000e+01 2.439647674560546875e+01 -2.552045048540268340e-14 -5.954771723458429644e-14 -2.552045048540268340e-14 -3.953167816966168813e-14
3.270000000000000000e+02 3.308261489868164062e+01 2.440821838378906250e+01 1.148420280313450226e-13 -4.228388472693467293e-14 2.176744400776264160e-14 -1.551243095294137925e-14
3.280000000000000000e+02 2.522732925415039062e+01 1.644123840332031250e+01 -2.582069215557869502e-13 -2.021620040424873532e-13 -1.381106736137241442e-13 9.957980214069309111e-14
3.290000000000000000e+02 2.398642921447753906e+01 1.416867542266845703e+01 4.003208151797700565e-15 -2.041636038832214672e-13 -6.004811719476782494e-14 -2.401924891078620339e-14
3.300000000000000000e+02 1.684574890136718750e+01 7.858638763427734375e+00 -2.443207853912443550e-13 -4.249655640407856705e-13 -2.007859075401144389e-13 -3.998203948907957939e-13
3.310000000000000000e+02 1.782430076599121094e+01 7.854072093963623047e+00 -2.912333731380084556e-13 -3.592879303532942048e-13 -1.951563910473907981e-13 -4.643721388322696875e-13
3.320000000000000000e+02 3.202363967895507812e+01 2.449802017211914062e+01 -5.604491073703601889e-14 -2.401924891078620339e-14 -2.401924891078620339e-14 2.802245536851800944e-14
3.330000000000000000e+02 3.465024948120117188e+01 2.500819015502929688e+01 -7.568565321995276984e-14 -2.833520636007225146e-13 -1.077113184343343744e-13 2.076664239332969009e-14
3.340000000000000000e+02 1.794424247741699219e+01 9.002004623413085938e+00 -1.471179000020819694e-13 -6.305052373213257400e-14 -6.305052373213257400e-14 -2.753456642377860586e-13
3.350000000000000000e+02 3.710152053833007812e+01 2.954278373718261719e+01 -1.438652934846254561e-13 -1.989093975250308399e-13 -1.028324086581496044e-13 -7.005614350349270714e-14
3.360000000000000000e+02 4.313627243041992188e+01 3.339951324462890625e+01 -9.007217918028352643e-15 -2.101684237342145434e-14 -9.007217918028352643e-15 -5.004010189747125706e-15
3.370000000000000000e+02 1.951150512695312500e+01 9.570188522338867188e+00 -1.180946345488015359e-13 -3.823063556267908281e-13 -1.501202997631831404e-13 -2.101684169579509653e-13
3.380000000000000000e+02 3.026546287536621094e+01 2.035701370239257812e+01 1.396118734942747297e-13 3.257610652583620148e-13 1.396118734942747297e-13 3.753007324672989059e-15
3.390000000000000000e+02 2.183123588562011719e+01 1.303468227386474609e+01 -1.675717805618356926e-13 -1.633183741240121223e-13 -9.926705047151249128e-14 -2.876054700385460849e-13
3.400000000000000000e+02 2.409923362731933594e+01 1.532594013214111328e+01 -3.968179951296946228e-13 -7.856295637913984775e-14 -1.426142868079030568e-13 -4.253408470702643718e-14
3.410000000000000000e+02 2.352504539489746094e+01 1.476287364959716797e+01 -4.153328478665938017e-14 -6.355093046857968053e-14 -3.152526186606628700e-14 -7.556054984177509870e-14
3.420000000000000000e+02 3.512011718750000000e+01 2.681744766235351562e+01 -1.013312020013354409e-13 -2.264314495452335319e-13 -9.832879546397069181e-14 -6.179952383167375274e-14
3.430000000000000000e+02 3.462067031860351562e+01 2.620610427856445312e+01 1.509959963053725263e-13 -2.097931203759451080e-13 -1.763913586591905891e-14 5.354290754798658736e-14
3.440000000000000000e+02 2.072125434875488281e+01 1.187491798400878906e+01 -1.273051488445003931e-13 -3.748159822878488479e-13 -1.506363393397047723e-13 -1.195645687492030707e-13
3.450000000000000000e+02 3.926023101806640625e+01 3.085669136047363281e+01 2.522020949285302960e-13 -5.204170427930421283e-14 6.004811719476782494e-14 -1.761411519028352468e-13
3.460000000000000000e+02 3.778865814208984375e+01 3.021326828002929688e+01 -3.202566521438160452e-14 -2.882309733769072846e-13 -9.607699564314481355e-14 -7.205774334422682115e-14
3.470000000000000000e+02 1.629048347473144531e+01 7.290735244750976562e+00 -2.747201608994248589e-13 -6.209976651828930105e-13 -2.687153342721682048e-13 -2.321860694161348437e-13
3.480000000000000000e+02 2.229477500915527344e+01 1.244862365722656250e+01 -2.311852694957677867e-13 -2.191756433463087905e-13 -1.351082738526229732e-13 -1.621299259126421366e-13
3.490000000000000000e+02 2.127738571166992188e+01 1.245545101165771484e+01 -3.643232091878056966e-13 -2.933913691421236036e-13 -1.973143734989787901e-13 -1.848981715348377297e-13
3.500000000000000000e+02 4.017375564575195312e+01 3.179926109313964844e+01 4.003208151797700565e-15 1.160930347080674219e-13 3.602887167211341057e-14 -6.805453688649501509e-14
3.510000000000000000e+02 4.579642105102539062e+01 3.710833358764648438e+01 -2.301844560228735737e-14 1.731387521417340758e-13 4.503609128420765773e-14 7.806255641895631925e-14
3.520000000000000000e+02 2.474384880065917969e+01 1.703863143920898438e+01 7.581074982186686295e-14 -1.326062689695076471e-14 1.876503747039789255e-14 -1.766415518630187753e-13
3.530000000000000000e+02 2.238734245300292969e+01 1.361399650573730469e+01 -3.527201588530287646e-13 -2.884186216679102133e-13 -1.923416395772925558e-13 -7.681155651849749799e-14
3.540000000000000000e+02 3.560476303100585938e+01 2.743485832214355469e+01 2.553296116203362942e-13 6.367602707049377364e-14 9.570169228487537816e-14 -9.032238254850707970e-14
3.550000000000000000e+02 4.256417465209960938e+01 3.382931137084960938e+01 3.387714913281880680e-13 -6.355093046857968053e-14 8.256616283687165381e-14 -2.201764398785440585e-14
3.560000000000000000e+02 2.746562004089355469e+01 1.871465492248535156e+01 3.032429992874674518e-13 -5.304250758780305885e-14 7.506014988159157020e-14 4.103288143834406265e-14
3.570000000000000000e+02 2.466697883605957031e+01 1.588338184356689453e+01 5.004010189747125706e-15 1.851483647386659159e-13 5.704571743366665393e-14 -1.090874217129708668e-13
3.580000000000000000e+02 4.314423751831054688e+01 3.429654693603515625e+01 2.251804564210382886e-13 -1.150922347877003649e-13 3.302646513474866152e-14 -1.000802037949425141e-14
3.590000000000000000e+02 4.407243728637695312e+01 3.539110946655273438e+01 1.160930347080674219e-13 4.003208151797700565e-15 3.602887167211341057e-14 7.205774334422682115e-14
3.600000000000000000e+02 4.363612747192382812e+01 3.481541061401367188e+01 4.563657394693332314e-13 1.040834085586084257e-13 1.681347389873716347e-13 -6.004811719476782494e-14
3.610000000000000000e+02 4.130598831176757812e+01 3.188263702392578125e+01 -1.486190998826325549e-13 -2.652125379390152943e-14 -5.254210423948774134e-14 -6.730393694621972234e-14
3.620000000000000000e+02 2.858468055725097656e+01 1.985904502868652344e+01 -4.603689120457471473e-14 2.602085213965210642e-14 -6.004812227696550847e-15 -2.602085213965210642e-14
3.630000000000000000e+02 3.361010360717773438e+01 2.379475212097167969e+01 -7.368013669887055195e-14 4.158410676349463819e-14 -9.628809658239131930e-15 1.377666477940650211e-14
3.640000000000000000e+02 3.974783325195312500e+01 3.123875236511230469e+01 8.857097591160115191e-14 -1.135910281308862013e-13 -7.506014649345978118e-15 -5.004010189747125706e-15
3.650000000000000000e+02 2.912403106689453125e+01 1.922498130798339844e+01 7.205774334422682115e-14 1.681347389873716347e-13 7.205774334422682115e-14 -3.652927163229693908e-14
3.660000000000000000e+02 2.802519035339355469e+01 1.928593444824218750e+01 1.936551911668402126e-13 3.117498121631145924e-13 1.516214996437337259e-13 -2.351884725653678038e-14
3.670000000000000000e+02 2.914591789245605469e+01 2.043462181091308594e+01 1.381106736137241442e-13 2.421940957248597259e-13 1.140914348673333079e-13 -1.030826086382413687e-13
3.680000000000000000e+02 3.085406112670898438e+01 2.217943954467773438e+01 2.502005052521915490e-14 -3.502807175174635357e-14 -3.002406113848275424e-15 2.001604075898850282e-15
3.690000000000000000e+02 3.028068542480468750e+01 2.160008811950683594e+01 1.005806020610601481e-13 1.346078738924394447e-13 7.055654346367623564e-14 -5.404330750817011586e-14
3.700000000000000000e+02 4.068699645996093750e+01 3.239255523681640625e+01 -5.004010105043830980e-14 7.005614350349270714e-14 6.004812227696550847e-15 8.406736949368581735e-14
3.710000000000000000e+02 4.128467941284179688e+01 3.293785858154296875e+01 -3.502806921064751181e-15 -1.501203056924137712e-15 -1.501203056924137712e-15 -5.204170427930421283e-14
3.720000000000000000e+02 1.655273079872131348e+00 3.548751449584960938e+01 -6.004811719476782494e-14 -3.002405995263662808e-13 -1.080866150163402317e-13 1.521218996039172544e-13
3.730000000000000000e+02 3.349011242389678955e-01 3.485343551635742188e+01 3.202566521438160452e-14 -3.202566521438160452e-14 0.000000000000000000e+00 8.006416303595401129e-15
3.740000000000000000e+02 3.912210166454315186e-01 2.762891578674316406e+01 2.401924687790712998e-13 2.401924687790712998e-13 1.441154866884536423e-13 1.441154866884536423e-13
3.750000000000000000e+02 2.031435251235961914e+00 2.926058006286621094e+01 1.361090737729900302e-13 1.040834085586084257e-13 7.205774334422682115e-14 2.722181475459800604e-13
3.760000000000000000e+02 3.639833033084869385e-01 2.119631195068359375e+01 2.401924891078620339e-14 -2.642117210779892922e-13 -7.205774334422682115e-14 -1.040834085586084257e-13
3.770000000000000000e+02 1.840138554573059082e+00 2.280280494689941406e+01 8.006416303595401129e-14 -2.401924687790712998e-13 -4.803849782157240678e-14 1.361090737729900302e-13
3.780000000000000000e+02 1.103918075561523438e+00 2.280216789245605469e+01 -4.003208151797700565e-14 -2.001604042017532392e-13 -7.205774334422682115e-14 -1.601283260719080226e-14
3.790000000000000000e+02 2.591317415237426758e+00 2.360701942443847656e+01 8.406736949368581735e-14 -1.240994476235310340e-13 -1.200962445539310169e-14 3.122502256758252770e-13
3.800000000000000000e+02 1.142914175987243652e+00 2.601801872253417969e+01 5.204170427930421283e-14 -9.207378240914942946e-14 -1.200962445539310169e-14 6.405133042876320904e-14
3.810000000000000000e+02 1.132151603698730469e+00 2.521505928039550781e+01 1.240994476235310340e-13 7.606094980195862720e-14 6.004811719476782494e-14 1.281026608575264181e-13
3.820000000000000000e+02 3.810070157051086426e-01 2.601924324035644531e+01 1.681347389873716347e-13 7.205774334422682115e-14 7.205774334422682115e-14 -3.202566521438160452e-14
3.830000000000000000e+02 1.155137538909912109e+00 2.682198143005371094e+01 1.561251128379126385e-13 4.403528797570881170e-14 6.004811719476782494e-14 3.202566521438160452e-14
3.840000000000000000e+02 1.170937657356262207e+00 2.762928199768066406e+01 -1.601283260719080226e-13 1.601283260719080226e-13 0.000000000000000000e+00 1.200962343895356499e-13
3.850000000000000000e+02 1.219463825225830078e+00 2.925537300109863281e+01 -3.042437992078345088e-13 -1.601283260719080226e-14 -9.607699564314481355e-14 1.601283260719080226e-14
3.860000000000000000e+02 2.973598003387451172e+00 3.011437797546386719e+01 2.401924891078620339e-14 -1.040834085586084257e-13 -2.401924891078620339e-14 2.321860694161348437e-13
3.870000000000000000e+02 1.166818022727966309e+00 3.254256820678710938e+01 1.801443651368306309e-13 2.602085213965210642e-13 1.321058605389946461e-13 -8.006416303595401129e-15
3.880000000000000000e+02 1.212846279144287109e+00 3.172041893005371094e+01 6.405133042876320904e-14 2.562053217150528361e-13 9.607699564314481355e-14 1.521218996039172544e-13
3.890000000000000000e+02 3.890934586524963379e-01 3.247593307495117188e+01 -2.001604075898850282e-14 6.004811719476782494e-14 1.200962445539310169e-14 1.361090737729900302e-13
3.900000000000000000e+02 1.119857072830200195e+00 3.334541702270507812e+01 -1.160930347080674219e-13 -4.003208151797700565e-15 -3.602887167211341057e-14 4.803849782157240678e-14
3.910000000000000000e+02 1.004017829895019531e+00 3.557473754882812500e+01 1.120898214740720378e-13 4.803849782157240678e-14 4.803849782157240678e-14 8.006416303595401129e-15
3.920000000000000000e+02 9.999579191207885742e-01 3.860647964477539062e+01 1.841475648182988589e-13 2.161732300326804634e-13 1.200962343895356499e-13 -1.601283260719080226e-14
3.930000000000000000e+02 1.991753935813903809e+00 3.881906890869140625e+01 -1.501202997631831404e-13 2.101684169579509653e-13 1.801443583605670529e-14 -1.921539912862896271e-13
3.940000000000000000e+02 3.704300522804260254e-01 3.954206848144531250e+01 1.080866150163402317e-13 9.207378240914942946e-14 6.004811719476782494e-14 -5.604491073703601889e-14
3.950000000000000000e+02 1.016931533813476562e+00 3.927257919311523438e+01 -4.203368339159019307e-13 -1.801443651368306309e-13 -1.801443651368306309e-13 8.006416303595401129e-15
3.960000000000000000e+02 1.211969971656799316e+00 3.985841751098632812e+01 7.906335633932337625e-14 -1.491194998428160834e-13 -2.101684237342145434e-14 1.311050606186275891e-13
3.970000000000000000e+02 1.532049298286437988e+00 4.188928222656250000e+01 1.461170865291877563e-13 7.405934996122451319e-14 6.605293026949732305e-14 0.000000000000000000e+00
3.980000000000000000e+02 3.612901866436004639e-01 1.958884429931640625e+01 7.205774334422682115e-14 -1.521218996039172544e-13 -2.401924891078620339e-14 -1.601283260719080226e-14
3.990000000000000000e+02 1.092714071273803711e+00 2.119762229919433594e+01 -6.405133042876320904e-14 -2.562053217150528361e-13 -9.607699564314481355e-14 -1.601283260719080226e-14
4.000000000000000000e+02 3.560680150985717773e-01 1.396422290802001953e+01 2.001604075898850282e-14 2.602085213965210642e-13 8.406736949368581735e-14 2.401924891078620339e-14
4.010000000000000000e+02 1.784781336784362793e+00 1.558737945556640625e+01 -3.202566521438160452e-14 3.202566521438160452e-14 0.000000000000000000e+00 -9.607699564314481355e-14
4.020000000000000000e+02 1.123701095581054688e+00 8.312256813049316406e+00 1.000802021008766196e-13 3.402726776562114974e-13 1.321058605389946461e-13 5.604491073703601889e-14
4.030000000000000000e+02 3.777056634426116943e-01 7.516785144805908203e+00 -2.001604075898850282e-14 3.803047557860567141e-13 1.080866150163402317e-13 -1.601283260719080226e-14
4.040000000000000000e+02 3.779148161411285400e-01 5.098710060119628906e+00 7.606094980195862720e-14 2.842277736954390566e-13 1.080866150163402317e-13 -4.003208151797700565e-14
4.050000000000000000e+02 5.577716827392578125e+00 5.549030780792236328e+00 -1.601283260719080226e-14 1.761411519028352468e-13 4.803849782157240678e-14 1.120898214740720378e-13
4.060000000000000000e+02 1.135081648826599121e+00 7.495606899261474609e+00 -1.401122870069854143e-13 4.203368339159019307e-13 8.406736949368581735e-14 -2.401924891078620339e-14
4.070000000000000000e+02 1.070439338684082031e+00 1.236639881134033203e+01 -4.363496868518834670e-13 4.763817378766743715e-13 1.200962445539310169e-14 0.000000000000000000e+00
4.080000000000000000e+02 1.074545860290527344e+00 1.156145286560058594e+01 5.164138431115739003e-13 5.644523477094098851e-13 3.242598518252842732e-13 8.807057595141762341e-14
4.090000000000000000e+02 3.570471704006195068e-01 1.235624980926513672e+01 1.681347389873716347e-13 3.923143819355157103e-13 1.681347389873716347e-13 8.807057595141762341e-14
4.100000000000000000e+02 1.068688988685607910e+00 1.317030334472656250e+01 0.000000000000000000e+00 3.202566521438160452e-13 9.607699564314481355e-14 -7.205774334422682115e-14
4.110000000000000000e+02 1.068391919136047363e+00 1.397354888916015625e+01 9.607699564314481355e-14 2.241796429481440756e-13 9.607699564314481355e-14 -8.006416303595401129e-15
4.120000000000000000e+02 1.070212960243225098e+00 1.557672023773193359e+01 1.281026608575264181e-13 1.921539912862896271e-13 9.607699564314481355e-14 8.006416303595401129e-15
4.130000000000000000e+02 2.504410266876220703e+00 1.640062904357910156e+01 1.240994476235310340e-13 7.606094980195862720e-14 6.004811719476782494e-14 -1.040834085586084257e-13
4.140000000000000000e+02 1.076879620552062988e+00 1.798434257507324219e+01 1.681347389873716347e-13 7.205774334422682115e-14 7.205774334422682115e-14 -1.200962343895356499e-13
4.150000000000000000e+02 1.080234050750732422e+00 1.878742599487304688e+01 1.160930347080674219e-13 -1.561251128379126385e-13 -1.200962445539310169e-14 1.281026608575264181e-13
4.160000000000000000e+02 1.097529053688049316e+00 2.199916267395019531e+01 -6.004811719476782494e-14 -1.401122870069854143e-13 -6.004811719476782494e-14 -2.401924891078620339e-14
4.170000000000000000e+02 5.328169250488281250e+01 3.974328613281250000e+01 3.704218464080366591e-13 1.587522160170079522e-13 1.587522160170079522e-13 9.920449878242365571e-14
4.180000000000000000e+02 5.175246810913085938e+01 3.946586608886718750e+01 5.744603469130804552e-13 1.661331391466375207e-13 2.221780431074099615e-13 5.604491073703601889e-14
4.190000000000000000e+02 7.815376281738281250e+01 3.845914077758789062e+01 1.581267126786467525e-13 2.201764398785440585e-14 5.404330750817011586e-14 2.001604075898850282e-14
4.200000000000000000e+02 5.376485061645507812e+01 3.895332336425781250e+01 3.042437992078345088e-13 -1.441154866884536423e-13 4.803849782157240678e-14 -1.240994476235310340e-13
4.210000000000000000e+02 5.476693725585937500e+01 3.739439010620117188e+01 7.606094980195862720e-14 -1.961571909677578551e-13 -3.602887167211341057e-14 -2.041636038832214672e-13
4.220000000000000000e+02 5.673150253295898438e+01 3.764575576782226562e+01 -8.406736949368581735e-14 -3.602887167211341057e-14 -3.602887167211341057e-14 -2.081668171172168513e-13
4.230000000000000000e+02 5.097732543945312500e+01 3.955034637451171875e+01 1.040834085586084257e-13 1.361090737729900302e-13 7.205774334422682115e-14 0.000000000000000000e+00
4.240000000000000000e+02 7.876632690429687500e+01 3.753763580322265625e+01 -1.361090737729900302e-13 -1.040834085586084257e-13 -7.205774334422682115e-14 2.401924891078620339e-14
4.250000000000000000e+02 7.887805938720703125e+01 3.824077606201171875e+01 -8.006416303595401129e-14 -8.006416303595401129e-14 -4.803849782157240678e-14 8.006416303595401129e-15
4.260000000000000000e+02 1.476012420654296875e+01 6.781936645507812500e+00 -3.697963430696754594e-13 -2.957369863321873682e-13 -1.996600042415697107e-13 -1.861491782115601290e-13
4.270000000000000000e+02 1.518226146697998047e+01 6.159437179565429688e+00 -2.291836696550336727e-13 -6.014820260781539307e-13 -2.491996951674291250e-13 -1.971579908881249121e-13
4.280000000000000000e+02 5.618510437011718750e+01 3.872867202758789062e+01 1.120898214740720378e-13 -1.120898214740720378e-13 0.000000000000000000e+00 -2.361892690976030718e-13
4.290000000000000000e+02 2.914139938354492188e+01 2.167023849487304688e+01 1.013312020013354409e-13 -9.382518904605535726e-14 2.251804479507088161e-15 -3.702967498061225660e-14
4.300000000000000000e+02 3.198552322387695312e+01 2.329803657531738281e+01 2.101684237342145434e-14 9.007217918028352643e-15 9.007217918028352643e-15 3.602887167211341057e-14
4.310000000000000000e+02 5.814047622680664062e+01 3.792552566528320312e+01 -5.204170427930421283e-14 -3.883111822540474822e-13 -1.321058605389946461e-13 -1.601283260719080226e-13
4.320000000000000000e+02 6.113486862182617188e+01 3.741101837158203125e+01 -1.561251128379126385e-13 -4.403528797570881170e-14 -6.004811719476782494e-14 -2.662133209187234062e-13
4.330000000000000000e+02 1.915931701660156250e+01 1.129410076141357422e+01 -4.109543109455382481e-13 -3.133761154218428491e-13 -2.172991333312251916e-13 -2.827265602623613150e-13
4.340000000000000000e+02 7.484821319580078125e+01 3.684314727783203125e+01 6.405133042876320904e-14 -6.405133042876320904e-14 0.000000000000000000e+00 -1.921539912862896271e-13
4.350000000000000000e+02 1.133010578155517578e+01 2.272037267684936523e+00 -6.685357562680183108e-13 6.285036510331187820e-13 -1.200962445539310169e-14 -2.001604042017532392e-13
4.360000000000000000e+02 9.695135116577148438e+00 3.214786291122436523e+00 -5.484394947734283488e-13 -5.204170427930421283e-14 -1.801443651368306309e-13 -1.040834085586084257e-13
4.370000000000000000e+02 1.586720371246337891e+01 7.877826690673828125e+00 -2.321860694161348437e-13 -6.485197036505685464e-13 -2.642117210779892922e-13 -3.838075690598685696e-13
4.380000000000000000e+02 1.739386749267578125e+01 8.427873611450195312e+00 -3.919078061208336461e-13 -3.052133470005796712e-13 -2.091363378049077015e-13 -4.062005181000583054e-13
4.390000000000000000e+02 3.453578567504882812e+01 2.739658737182617188e+01 2.459470886499726117e-13 -1.233488409069921632e-13 3.677947500052049234e-14 1.401122768425900472e-14
4.400000000000000000e+02 7.866252899169921875e+01 3.954118347167968750e+01 -1.881507780522942430e-13 -1.721379386688398627e-13 -1.080866150163402317e-13 -2.401924891078620339e-14
4.410000000000000000e+02 7.884429168701171875e+01 3.887094116210937500e+01 0.000000000000000000e+00 -3.202566521438160452e-13 -9.607699564314481355e-14 9.607699564314481355e-14
4.420000000000000000e+02 2.971071052551269531e+01 2.101560592651367188e+01 -9.707779556351187056e-14 1.871499781319271860e-13 2.702165375408505793e-14 9.507618894651417851e-14
4.430000000000000000e+02 2.313501167297363281e+01 1.652868080139160156e+01 -4.453568793589234021e-14 -1.105886215935214523e-13 -4.653729455289003225e-14 -2.001604075898850282e-14
4.440000000000000000e+02 2.361976814270019531e+01 1.592720985412597656e+01 -6.580273028940555879e-14 6.330072371222433825e-14 -7.506015284620688559e-16 -1.731387521417340758e-13
4.450000000000000000e+02 1.751416397094726562e+01 9.568337440490722656e+00 -2.040697797377200029e-13 -2.247113221410038109e-13 -1.286343264978589973e-13 -2.333745176275048294e-13
4.460000000000000000e+02 2.634469223022460938e+01 1.757253837585449219e+01 -3.390216845320162542e-14 -1.975333010226579256e-13 -6.943064016513150749e-14 4.078268145825229840e-14
4.470000000000000000e+02 2.530044937133789062e+01 1.759444999694824219e+01 9.457578898633065001e-14 -2.797241605012601440e-13 -5.554451077685249039e-14 7.055654346367623564e-14
4.480000000000000000e+02 3.360825347900390625e+01 2.499695587158203125e+01 -2.902990348108147600e-13 5.858991948288344576e-14 -6.951273459837939428e-14 -6.022013264569622826e-14
4.490000000000000000e+02 3.156507682800292969e+01 2.519239425659179688e+01 1.601283260719080226e-14 1.441154866884536423e-13 4.803849782157240678e-14 4.803849782157240678e-14
4.500000000000000000e+02 5.766636848449707031e+00 2.587150335311889648e+00 1.601283260719080226e-14 -1.761411519028352468e-13 -4.803849782157240678e-14 1.601283260719080226e-14
4.510000000000000000e+02 4.950281620025634766e+00 3.331139326095581055e+00 -2.401924891078620339e-14 -5.604491073703601889e-14 -2.401924891078620339e-14 -8.006416303595401129e-15
4.520000000000000000e+02 4.186391830444335938e+00 3.351777791976928711e+00 -1.561251128379126385e-13 1.160930347080674219e-13 -1.200962445539310169e-14 2.401924891078620339e-14
4.530000000000000000e+02 3.451539993286132812e+00 2.620196342468261719e+00 7.205774334422682115e-14 1.681347389873716347e-13 7.205774334422682115e-14 8.006416303595401129e-15
4.540000000000000000e+02 4.221512794494628906e+00 2.605645179748535156e+00 1.521218996039172544e-13 -7.205774334422682115e-14 2.401924891078620339e-14 0.000000000000000000e+00
4.550000000000000000e+02 5.717493534088134766e+00 3.319210052490234375e+00 -2.401924891078620339e-14 -5.604491073703601889e-14 -2.401924891078620339e-14 -3.202566521438160452e-14
4.560000000000000000e+02 6.492608547210693359e+00 3.318199872970581055e+00 -3.522823038056704936e-13 -2.882309733769072846e-13 -1.921539912862896271e-13 -1.601283260719080226e-14
4.570000000000000000e+02 7.281371116638183594e+00 3.325580596923828125e+00 -2.041636038832214672e-13 -3.162534253572935050e-13 -1.561251128379126385e-13 -2.481988952470620680e-13
4.580000000000000000e+02 6.545273780822753906e+00 2.586628437042236328e+00 4.003208151797700565e-14 -1.200962343895356499e-13 -2.401924891078620339e-14 -1.281026608575264181e-13
4.590000000000000000e+02 2.650879383087158203e+00 4.184117317199707031e+00 1.601283260719080226e-13 1.601283260719080226e-13 9.607699564314481355e-14 -2.081668171172168513e-13
4.600000000000000000e+02 8.896078109741210938e+00 3.307635068893432617e+00 -3.642919299551294898e-13 1.641315257533762506e-13 -6.004811719476782494e-14 -1.841475648182988589e-13
4.610000000000000000e+02 1.970462989807128906e+01 1.187124061584472656e+01 -1.613793259723668438e-14 -3.729238597614814577e-13 -1.167185380464286215e-13 -7.706175649858926224e-14
4.620000000000000000e+02 7.221282482147216797e+00 4.073210239410400391e+00 -2.842277736954390566e-13 -7.606094980195862720e-14 -1.080866150163402317e-13 2.401924891078620339e-14
4.630000000000000000e+02 3.627824401855468750e+01 3.005076789855957031e+01 1.160930347080674219e-13 -1.561251128379126385e-13 -1.200962445539310169e-14 -1.281026608575264181e-13
4.640000000000000000e+02 3.859199142456054688e+01 3.058838844299316406e+01 -1.521218996039172544e-13 -2.481988952470620680e-13 -1.200962343895356499e-13 -4.803849782157240678e-14
4.650000000000000000e+02 2.858097648620605469e+01 2.107481956481933594e+01 1.178444413449733497e-13 4.753809362622414200e-15 3.677947500052049234e-14 2.151724233360498284e-14
4.660000000000000000e+02 3.356808853149414062e+01 2.618080520629882812e+01 -8.907137587178468041e-14 -2.211772431870429045e-13 -9.307458910578006450e-14 2.802245536851800944e-14
4.670000000000000000e+02 2.802942657470703125e+01 2.048608970642089844e+01 1.881507780522942430e-13 1.721379386688398627e-13 1.080866150163402317e-13 -8.907137587178468041e-14
4.680000000000000000e+02 2.748441505432128906e+01 1.989844322204589844e+01 1.361090737729900302e-13 -2.161732300326804634e-13 -2.401924891078620339e-14 6.880513682677030785e-14
4.690000000000000000e+02 2.690530776977539062e+01 1.814367675781250000e+01 2.211772431870429045e-13 4.903929774193946378e-14 8.106496295632106830e-14 4.553649124439118623e-14
4.700000000000000000e+02 4.292248916625976562e+01 3.514344024658203125e+01 4.803849782157240678e-14 -2.081668171172168513e-13 -4.803849782157240678e-14 5.604491073703601889e-14
4.710000000000000000e+02 3.992776870727539062e+01 3.293202972412109375e+01 -5.504411081666896188e-14 8.506816941405287436e-14 9.007217918028352643e-15 -5.404330750817011586e-14
4.720000000000000000e+02 3.780818879604339600e-01 3.494129657745361328e+00 -1.601283260719080226e-14 1.601283260719080226e-14 0.000000000000000000e+00 -8.006416303595401129e-14
4.730000000000000000e+02 1.849014759063720703e+00 3.786165618896484375e+01 2.481988952470620680e-13 -8.006416303595401129e-15 7.205774334422682115e-14 -1.040834085586084257e-13
4.740000000000000000e+02 2.136026144027709961e+00 3.942621994018554688e+01 1.361090737729900302e-13 1.040834085586084257e-13 7.205774334422682115e-14 2.562053217150528361e-13
4.750000000000000000e+02 1.241816878318786621e+00 3.007585716247558594e+01 8.006416303595401129e-15 7.205774334422682115e-14 2.401924891078620339e-14 4.803849782157240678e-14
4.760000000000000000e+02 1.939492344856262207e+00 3.264146041870117188e+01 -2.602085213965210642e-13 1.401122870069854143e-13 -3.602887167211341057e-14 2.882309733769072846e-13
4.770000000000000000e+02 1.112041950225830078e+00 2.360619354248046875e+01 1.521218996039172544e-13 -7.205774334422682115e-14 2.401924891078620339e-14 7.205774334422682115e-14
4.780000000000000000e+02 2.645961284637451172e+00 2.521705818176269531e+01 2.401924891078620339e-14 5.604491073703601889e-14 2.401924891078620339e-14 2.481988952470620680e-13
4.790000000000000000e+02 1.057304263114929199e+00 3.632246780395507812e+01 -6.004811719476782494e-14 -1.401122870069854143e-13 -6.004811719476782494e-14 0.000000000000000000e+00
4.800000000000000000e+02 1.931925535202026367e+00 3.699547576904296875e+01 -5.604491073703601889e-14 -1.841475648182988589e-13 -7.205774334422682115e-14 -3.202566521438160452e-14
4.810000000000000000e+02 1.905503630638122559e+00 2.601719856262207031e+01 4.803849782157240678e-14 1.120898214740720378e-13 4.803849782157240678e-14 1.040834085586084257e-13
4.820000000000000000e+02 1.064601302146911621e+00 3.411247253417968750e+01 5.604491073703601889e-14 2.401924891078620339e-14 2.401924891078620339e-14 -8.006416303595401129e-15
4.830000000000000000e+02 1.007262825965881348e+00 3.484780883789062500e+01 -4.803849782157240678e-14 -1.120898214740720378e-13 -4.803849782157240678e-14 1.601283260719080226e-13
4.840000000000000000e+02 1.790168404579162598e+00 3.616537857055664062e+01 -1.601283260719080226e-14 1.761411519028352468e-13 4.803849782157240678e-14 -9.607699564314481355e-14
4.850000000000000000e+02 1.192297458648681641e+00 2.843949699401855469e+01 1.761411519028352468e-13 1.441154866884536423e-13 9.607699564314481355e-14 9.607699564314481355e-14
4.860000000000000000e+02 2.089522600173950195e+00 3.010373497009277344e+01 -2.802245536851800944e-14 -1.200962445539310169e-14 -1.200962445539310169e-14 -4.003208151797700565e-14
4.870000000000000000e+02 1.888234138488769531e+00 2.521569442749023438e+01 3.202566521438160452e-14 -3.202566521438160452e-14 0.000000000000000000e+00 1.120898214740720378e-13
4.880000000000000000e+02 1.942492604255676270e+00 2.762491226196289062e+01 4.083272077664429345e-13 -8.006416303595401129e-15 1.200962343895356499e-13 3.763015561045884860e-13
4.890000000000000000e+02 1.921736598014831543e+00 2.681916999816894531e+01 1.200962343895356499e-13 -4.003208151797700565e-14 2.401924891078620339e-14 1.200962343895356499e-13
4.900000000000000000e+02 2.028560161590576172e+00 3.180767440795898438e+01 1.601283260719080226e-14 1.441154866884536423e-13 4.803849782157240678e-14 1.601283260719080226e-13
4.910000000000000000e+02 1.823796033859252930e+00 3.421833801269531250e+01 -1.240994476235310340e-13 -7.606094980195862720e-14 -6.004811719476782494e-14 1.761411519028352468e-13
4.920000000000000000e+02 1.892591238021850586e+00 3.344887924194335938e+01 -2.161732300326804634e-13 1.361090737729900302e-13 -2.401924891078620339e-14 -2.401924891078620339e-14
4.930000000000000000e+02 1.785640835762023926e+00 4.073502349853515625e+01 -7.606094980195862720e-14 3.602887167211341057e-14 -1.200962445539310169e-14 -8.006416303595401129e-15
4.940000000000000000e+02 1.650524616241455078e+00 3.951573181152343750e+01 -2.441956955655938399e-13 -1.961571909677578551e-13 -1.321058605389946461e-13 -1.601283260719080226e-14
4.950000000000000000e+02 1.084194779396057129e+00 1.959109687805175781e+01 -4.803849782157240678e-14 -1.120898214740720378e-13 -4.803849782157240678e-14 1.601283260719080226e-14
4.960000000000000000e+02 1.823190331459045410e+00 2.120100212097167969e+01 8.006416303595401129e-15 -8.807057595141762341e-14 -2.401924891078620339e-14 6.405133042876320904e-14
4.970000000000000000e+02 1.072061300277709961e+00 1.637895202636718750e+01 -7.606094980195862720e-14 3.562855034871387216e-13 8.406736949368581735e-14 -1.601283260719080226e-13
4.980000000000000000e+02 1.795235157012939453e+00 1.799040794372558594e+01 5.604491073703601889e-14 2.401924891078620339e-14 2.401924891078620339e-14 0.000000000000000000e+00
4.990000000000000000e+02 1.108657240867614746e+00 9.129367828369140625e+00 -1.040834085586084257e-13 5.044041898570605920e-13 1.200962343895356499e-13 -1.601283260719080226e-14
5.000000000000000000e+02 1.800356745719909668e+00 1.077462196350097656e+01 2.481988952470620680e-13 4.723785381952061435e-13 2.161732300326804634e-13 4.803849782157240678e-14
5.010000000000000000e+02 1.135479927062988281e+00 5.061017990112304688e+00 -9.607699564314481355e-14 9.607699564314481355e-14 0.000000000000000000e+00 4.003208151797700565e-14
5.020000000000000000e+02 5.669237136840820312e+00 4.057065010070800781e+00 -1.601283260719080226e-13 -1.601283260719080226e-13 -9.607699564314481355e-14 0.000000000000000000e+00
5.030000000000000000e+02 1.144726753234863281e+00 2.673517704010009766e+00 -2.401924891078620339e-14 -5.604491073703601889e-14 -2.401924891078620339e-14 -8.006416303595401129e-14
5.040000000000000000e+02 1.068930506706237793e+00 1.477505779266357422e+01 5.204170427930421283e-14 2.281828697346666157e-13 8.406736949368581735e-14 -8.807057595141762341e-14
5.050000000000000000e+02 1.787564635276794434e+00 1.638768386840820312e+01 -6.405133042876320904e-14 6.405133042876320904e-14 0.000000000000000000e+00 -4.803849782157240678e-14
5.060000000000000000e+02 1.844457745552062988e+00 9.141194343566894531e+00 8.006416303595401129e-15 2.321860694161348437e-13 7.205774334422682115e-14 -4.803849782157240678e-14
5.070000000000000000e+02 1.874526500701904297e+00 8.313938140869140625e+00 -6.004811719476782494e-14 5.004009901755923639e-13 1.321058605389946461e-13 1.120898214740720378e-13
5.080000000000000000e+02 2.573321342468261719e+00 9.174213409423828125e+00 -5.604491073703601889e-14 2.962373998448980528e-13 7.205774334422682115e-14 6.405133042876320904e-14
5.090000000000000000e+02 1.819059848785400391e+00 9.962198257446289062e+00 6.004811719476782494e-14 4.603689391508014594e-13 1.561251128379126385e-13 -3.202566521438160452e-14
5.100000000000000000e+02 1.788340568542480469e+00 1.158058738708496094e+01 -2.041636038832214672e-13 4.843881914497194519e-13 8.406736949368581735e-14 -8.006416303595401129e-15
5.110000000000000000e+02 1.782692551612854004e+00 1.238400936126708984e+01 3.763015561045884860e-13 6.645325565865500828e-13 3.122502256758252770e-13 1.601283260719080226e-14
5.120000000000000000e+02 1.781350016593933105e+00 1.398812294006347656e+01 -7.205774334422682115e-14 1.521218996039172544e-13 2.401924891078620339e-14 -1.441154866884536423e-13
5.130000000000000000e+02 1.790970563888549805e+00 1.718899345397949219e+01 -1.601283260719080226e-14 1.761411519028352468e-13 4.803849782157240678e-14 -2.401924891078620339e-14
5.140000000000000000e+02 1.800939559936523438e+00 1.879232215881347656e+01 3.202566521438160452e-14 -3.202566521438160452e-14 0.000000000000000000e+00 -1.040834085586084257e-13
5.150000000000000000e+02 1.088428616523742676e+00 2.039494323730468750e+01 1.721379386688398627e-13 -1.321058605389946461e-13 1.200962445539310169e-14 -7.205774334422682115e-14
5.160000000000000000e+02 1.830655217170715332e+00 2.200103187561035156e+01 2.081668171172168513e-13 -4.803849782157240678e-14 4.803849782157240678e-14 3.202566521438160452e-14
5.170000000000000000e+02 1.815699100494384766e+00 2.039924240112304688e+01 -1.841475648182988589e-13 1.040834085586084257e-13 -2.401924891078620339e-14 1.601283260719080226e-14
5.180000000000000000e+02 2.418417549133300781e+01 1.648589515686035156e+01 7.506015284620688559e-16 -2.284330493859676459e-13 -6.830473686658677934e-14 2.001604075898850282e-14
5.190000000000000000e+02 2.136095237731933594e+01 1.361982822418212891e+01 -1.779863826852426389e-13 -7.627987732563776269e-14 -7.627987732563776269e-14 -7.946993215400544042e-14
5.200000000000000000e+02 2.025484657287597656e+01 1.245305728912353516e+01 -1.895268745546671574e-13 -1.269767575589816899e-13 -9.495109234460008540e-14 -2.599583146401657219e-13
5.210000000000000000e+02 2.295212936401367188e+01 1.419147682189941406e+01 -2.687153342721682048e-13 -2.066656172366662658e-13 -1.426142868079030568e-13 -1.601283260719080226e-13
5.220000000000000000e+02 2.080789947509765625e+01 1.303681945800781250e+01 1.438652934846254561e-14 -2.683400376901623474e-13 -7.618605318013629835e-14 -1.938428394578431413e-13
5.230000000000000000e+02 3.658741760253906250e+01 2.874272346496582031e+01 1.881507780522942430e-13 -1.481186999224490264e-13 1.200962445539310169e-14 -1.431146867680865853e-13
5.240000000000000000e+02 4.192981719970703125e+01 3.339704513549804688e+01 9.657739560332834206e-14 1.185950345089850644e-13 6.455173038894673754e-14 -2.502005052521915490e-14
5.250000000000000000e+02 4.058401107788085938e+01 3.363213348388671875e+01 -1.636311257931927221e-13 1.586271126388302810e-13 -1.501203056924137712e-15 1.431146867680865853e-13
5.260000000000000000e+02 2.694300270080566406e+01 1.931323242187500000e+01 7.455974992140804170e-14 -5.954771723458429644e-14 4.503608959014176322e-15 -4.516119127425353985e-14
5.270000000000000000e+02 1.599267673492431641e+01 9.013151168823242188e+00 5.029030103053007406e-14 -2.529527151975963228e-13 -6.079872391130669573e-14 -2.782229470681824024e-13
5.280000000000000000e+02 4.509164810180664062e+01 3.659275054931640625e+01 1.681347389873716347e-13 3.923143819355157103e-13 1.681347389873716347e-13 8.006416303595401129e-14
5.290000000000000000e+02 4.239541625976562500e+01 3.949261856079101562e+01 2.221780431074099615e-13 -4.203368474684290867e-14 5.404330750817011586e-14 1.240994476235310340e-13
5.300000000000000000e+02 3.892747497558593750e+01 3.346179962158203125e+01 -1.160930347080674219e-13 1.561251128379126385e-13 1.200962445539310169e-14 -2.001604075898850282e-14
5.310000000000000000e+02 3.841627883911132812e+01 3.148933982849121094e+01 -3.202566521438160452e-14 -1.281026608575264181e-13 -4.803849782157240678e-14 -1.281026608575264181e-13
5.320000000000000000e+02 4.204016113281250000e+01 3.430394363403320312e+01 4.003208151797700565e-14 -1.200962343895356499e-13 -2.401924891078620339e-14 4.103288143834406265e-14
5.330000000000000000e+02 4.140609741210937500e+01 3.477301788330078125e+01 -1.040834085586084257e-13 -1.361090737729900302e-13 -7.205774334422682115e-14 4.003208151797700565e-14
5.340000000000000000e+02 2.970946693420410156e+01 2.227170944213867188e+01 -5.004010105043830980e-14 7.005614350349270714e-14 6.004812227696550847e-15 3.202566521438160452e-14
5.350000000000000000e+02 2.481398963928222656e+01 1.817292785644531250e+01 2.097931203759451080e-13 4.416038796575469383e-14 7.618605318013629835e-14 -1.628805326291810074e-13
5.360000000000000000e+02 4.213503646850585938e+01 3.521314620971679688e+01 1.240994476235310340e-13 -8.406736949368581735e-14 1.200962445539310169e-14 2.401924891078620339e-14
5.370000000000000000e+02 4.256443023681640625e+01 3.469459533691406250e+01 1.596279261117244941e-13 -5.454371085648543338e-14 3.152526186606628700e-14 8.606896933441993136e-14
5.380000000000000000e+02 1.861348152160644531e+01 1.071860122680664062e+01 -3.039936195565334787e-14 -5.162887261808690731e-13 -1.640064223751985795e-13 -2.752205473070812314e-13
5.390000000000000000e+02 2.640064620971679688e+01 1.873312950134277344e+01 2.533280117796021802e-13 -7.443464654323037055e-14 5.366800753803246948e-14 -5.266720422953362346e-14
5.400000000000000000e+02 3.210141372680664062e+01 2.555691909790039062e+01 1.715124488830058191e-13 1.650072358480927925e-13 1.009559054193295835e-13 1.518717064000890682e-13
5.410000000000000000e+02 3.257526779174804688e+01 2.500692367553710938e+01 -5.254210593355363584e-15 -2.251804479507088161e-15 -2.251804479507088161e-15 -1.025822086780578402e-13
5.420000000000000000e+02 3.622146987915039062e+01 3.120704460144042969e+01 -1.200962445539310169e-14 -1.881507780522942430e-13 -6.004811719476782494e-14 -7.606094980195862720e-14
5.430000000000000000e+02 3.028189468383789062e+01 2.287232780456542969e+01 6.555253030931379454e-14 1.195958344293521214e-13 5.554451077685249039e-14 -1.731387521417340758e-13
5.440000000000000000e+02 3.945838928222656250e+01 3.219235229492187500e+01 -1.220978477827969200e-13 -9.807859548387892756e-14 -6.605293026949732305e-14 4.003208151797700565e-15
5.450000000000000000e+02 2.305087852478027344e+01 1.535862827301025391e+01 -2.278075460476064462e-13 -3.263865414916689023e-13 -1.662582289722880358e-13 -2.001604075898850282e-15
5.460000000000000000e+02 3.405486297607421875e+01 2.678690528869628906e+01 -6.780433690640325084e-14 -7.480994990149980595e-14 -4.278428468711820143e-14 -1.751403587587317678e-14
5.470000000000000000e+02 3.593633651733398438e+01 2.928074836730957031e+01 -2.502004950877961820e-13 -2.902325732176413986e-13 -1.621299259126421366e-13 -1.601283260719080226e-14
5.480000000000000000e+02 4.577730941772460938e+01 4.067024993896484375e+01 3.082470259943570490e-13 -1.080866150163402317e-13 6.004811719476782494e-14 1.240994476235310340e-13
5.490000000000000000e+02 4.637633895874023438e+01 3.764014434814453125e+01 1.561251128379126385e-13 4.403528797570881170e-14 6.004811719476782494e-14 2.401924891078620339e-14
5.500000000000000000e+02 1.531250381469726562e+01 7.322830200195312500e+00 -1.846479647784823874e-13 -4.908934044846324785e-13 -2.026624040026708817e-13 -1.471179000020819694e-13
5.510000000000000000e+02 1.806442642211914062e+01 1.014212417602539062e+01 -1.498701065593549542e-13 -2.929847933274415395e-13 -1.328564672555335169e-13 -1.566255127980961670e-13
5.520000000000000000e+02 1.152217483520507812e+01 2.832772493362426758e+00 -6.164940519887140979e-13 -5.844683461167510252e-13 -3.602887302736612618e-13 2.962373998448980528e-13
5.530000000000000000e+02 1.045481967926025391e+01 3.094088315963745117e+00 -2.882309733769072846e-13 -3.202566521438160452e-14 -9.607699564314481355e-14 -2.161732300326804634e-13
5.540000000000000000e+02 1.421081542968750000e+01 6.261213779449462891e+00 -2.181748434259417335e-13 -9.627715291671279374e-13 -3.542839036464046076e-13 -4.403528797570881170e-14
5.550000000000000000e+02 1.136767387390136719e+00 3.463609695434570312e+00 -9.207378240914942946e-14 5.204170427930421283e-14 -1.200962445539310169e-14 -8.006416303595401129e-14
5.560000000000000000e+02 4.794077301025390625e+01 3.956184005737304688e+01 -1.801443583605670529e-14 -4.203368474684290867e-14 -1.801443583605670529e-14 -2.121700303512122354e-13
5.570000000000000000e+02 1.214882564544677734e+01 2.655826091766357422e+00 -8.967185717925763022e-13 -3.843079825725792542e-13 -3.843079825725792542e-13 2.081668171172168513e-13
5.580000000000000000e+02 1.353887653350830078e+01 4.662703990936279297e+00 -9.407538902614712151e-14 -1.287031353887357898e-12 -4.143320343936995886e-13 -8.006416303595401129e-14
5.590000000000000000e+02 1.300302982330322266e+01 4.315045356750488281e+00 -3.742999562638543720e-13 -1.407127669592056485e-12 -5.344282958882895507e-13 2.922341730583755126e-13
5.600000000000000000e+02 5.457413101196289062e+01 3.854129791259765625e+01 9.807859548387892756e-14 -3.803047490097931360e-14 1.801443583605670529e-14 -2.281828697346666157e-13
5.610000000000000000e+02 6.438486480712890625e+01 3.736462402343750000e+01 8.006416303595401129e-15 7.205774334422682115e-14 2.401924891078620339e-14 -1.200962343895356499e-13
5.620000000000000000e+02 6.926544189453125000e+01 3.980865859985351562e+01 3.002405859738391247e-14 -1.000802037949425141e-14 6.004812227696550847e-15 8.006416303595401129e-15
5.630000000000000000e+02 5.579656600952148438e+01 3.954077148437500000e+01 3.372702778951103264e-13 -1.070858150959731747e-13 6.905533680686207210e-14 -1.501202997631831404e-13
5.640000000000000000e+02 6.798939514160156250e+01 3.852414703369140625e+01 5.904731727440076794e-14 7.105694342385976414e-14 3.903127820947815962e-14 -4.803849782157240678e-14
5.650000000000000000e+02 6.187611770629882812e+01 3.809646987915039062e+01 5.604491073703601889e-14 -1.361090737729900302e-13 -2.401924891078620339e-14 -1.240994476235310340e-13
5.660000000000000000e+02 6.593343353271484375e+01 3.689775466918945312e+01 -1.521218996039172544e-13 7.205774334422682115e-14 -2.401924891078620339e-14 -8.006416303595401129e-14
5.670000000000000000e+02 6.312498855590820312e+01 3.853725051879882812e+01 8.406736949368581735e-14 1.961571909677578551e-13 8.406736949368581735e-14 -3.202566521438160452e-14
5.680000000000000000e+02 5.473013687133789062e+01 4.011813735961914062e+01 2.301844695754007297e-13 -5.004010105043830980e-14 5.404330750817011586e-14 -2.802245536851800944e-14
5.690000000000000000e+02 5.932120513916015625e+01 3.779698562622070312e+01 2.401924891078620339e-14 -2.642117210779892922e-13 -7.205774334422682115e-14 -1.561251128379126385e-13
5.700000000000000000e+02 6.658477783203125000e+01 3.683158111572265625e+01 0.000000000000000000e+00 0.000000000000000000e+00 0.000000000000000000e+00 -1.521218996039172544e-13
5.710000000000000000e+02 6.574348449707031250e+01 3.841600799560546875e+01 -2.401924891078620339e-14 -5.604491073703601889e-14 -2.401924891078620339e-14 -6.004812227696550847e-15
5.720000000000000000e+02 7.268529510498046875e+01 3.739441680908203125e+01 1.160930347080674219e-13 -3.162534253572935050e-13 -6.004811719476782494e-14 -2.161732300326804634e-13
5.730000000000000000e+02 4.239859390258789062e+01 3.788265991210937500e+01 1.020818019416107336e-13 -2.001604075898850282e-15 3.002405859738391247e-14 -4.003208151797700565e-14
5.740000000000000000e+02 1.312847995758056641e+01 5.341886043548583984e+00 -2.602085213965210642e-13 -9.807859819438435878e-13 -3.722983564231202580e-13 -1.160930347080674219e-13
5.750000000000000000e+02 1.263274192810058594e+01 3.399127483367919922e+00 -6.885517546753594509e-13 -1.713373041535570795e-12 -7.205774605473225236e-13 5.844683461167510252e-13
5.760000000000000000e+02 3.144520378112792969e+01 2.400928306579589844e+01 1.541235129971785245e-13 6.605293026949732305e-14 6.605293026949732305e-14 1.801443583605670529e-14
5.770000000000000000e+02 2.737751770019531250e+01 2.236855506896972656e+01 2.451964887096973189e-14 1.050842118671072717e-14 1.050842118671072717e-14 7.105694342385976414e-14
5.780000000000000000e+02 1.923097419738769531e+01 1.243859004974365234e+01 -2.356888826899466993e-13 -3.297642649398302428e-13 -1.696359388679222202e-13 -1.183448413051568782e-13
5.790000000000000000e+02 1.544526386260986328e+01 8.464698791503906250e+00 -3.177546523428984027e-14 -4.711275315184837442e-13 -1.508709064797220112e-13 -2.061652172764827373e-13
5.800000000000000000e+02 1.696552467346191406e+01 9.000607490539550781e+00 -1.822710683557424161e-13 -3.068709023869298225e-13 -1.467425898675489560e-13 -2.448211989039550396e-13
5.810000000000000000e+02 2.264451599121093750e+01 1.713846588134765625e+01 -7.355895000104098469e-14 -1.716375387086563342e-13 -7.355895000104098469e-14 -1.801443651368306309e-13
5.820000000000000000e+02 1.434349536895751953e+01 7.398591995239257812e+00 -5.004010105043830980e-14 -5.704571472316122271e-13 -1.861491782115601290e-13 -1.120898214740720378e-13
5.830000000000000000e+02 3.498051452636718750e+01 2.803125190734863281e+01 -1.951563910473907981e-14 -1.456166865690042278e-13 -4.953969770212299228e-14 -8.606896933441993136e-14
5.840000000000000000e+02 1.213337612152099609e+01 4.631999015808105469e+00 -3.707971429900425164e-13 -1.185449958682194271e-12 -4.668741521857144861e-13 4.083272077664429345e-13
5.850000000000000000e+02 1.102307701110839844e+01 3.275355100631713867e+00 -9.737803011861112523e-13 2.231788430277770185e-13 -2.251804564210382886e-13 2.642117210779892922e-13
5.860000000000000000e+02 1.815504837036132812e+01 1.127687931060791016e+01 -2.712173476256130034e-13 -2.992397996059992238e-13 -1.711371387484728057e-13 -2.767217607401589730e-13
5.870000000000000000e+02 3.308145141601562500e+01 2.558039093017578125e+01 -1.054595118372449181e-13 -9.094787911060470131e-14 -5.892222067248667483e-14 1.828965716941036157e-13
5.880000000000000000e+02 3.236811828613281250e+01 2.730556488037109375e+01 -2.301844560228735737e-14 -2.672141479441447753e-13 -8.706977603105056640e-14 -5.404330750817011586e-14
5.890000000000000000e+02 2.585329246520996094e+01 1.815919876098632812e+01 1.556247128777291100e-13 -7.055654346367623564e-14 2.552045048540268340e-14 -4.278428468711820143e-14
5.900000000000000000e+02 2.426033782958984375e+01 1.762702369689941406e+01 9.807859548387892756e-14 4.203368474684290867e-14 4.203368474684290867e-14 4.303448466720996568e-14
5.910000000000000000e+02 1.893113851547241211e+00 4.222699165344238281e+00 -1.601283260719080226e-14 1.761411519028352468e-13 4.803849782157240678e-14 -4.803849782157240678e-14
5.920000000000000000e+02 2.661626577377319336e+00 3.404845952987670898e+00 2.161732300326804634e-13 1.841475648182988589e-13 1.200962343895356499e-13 -8.807057595141762341e-14
5.930000000000000000e+02 2.248179817199707031e+01 1.478252601623535156e+01 -7.230794332431858540e-14 -3.054948058845569081e-13 -1.133408281507944371e-13 -2.051644071917203133e-14
5.940000000000000000e+02 6.435127735137939453e+00 4.055976867675781250e+00 -7.606094980195862720e-14 -1.240994476235310340e-13 -6.004811719476782494e-14 -6.405133042876320904e-14
5.950000000000000000e+02 2.666818141937255859e+00 5.793644905090332031e+00 -5.124106434301056723e-13 1.921539912862896271e-13 -9.607699564314481355e-14 8.006416303595401129e-15
5.960000000000000000e+02 1.895279288291931152e+00 5.022052764892578125e+00 -1.801443651368306309e-13 6.004811719476782494e-14 -3.602887167211341057e-14 -5.604491073703601889e-14
5.970000000000000000e+02 3.414916038513183594e+00 5.734356403350830078e+00 6.004811719476782494e-14 3.002405995263662808e-13 1.080866150163402317e-13 -4.803849782157240678e-14
5.980000000000000000e+02 3.423917531967163086e+00 3.377115249633789062e+00 9.207378240914942946e-14 -5.204170427930421283e-14 1.200962445539310169e-14 1.200962343895356499e-13
5.990000000000000000e+02 3.543288421630859375e+01 2.867185401916503906e+01 1.351082738526229732e-13 -3.252606517456513302e-13 -5.704571743366665393e-14 -8.006416303595401129e-14
6.000000000000000000e+02 1.653758621215820312e+01 9.567113876342773438e+00 2.836648118817713254e-14 -3.996014673671166584e-13 -1.113705007664729518e-13 -1.955942460947490691e-13
6.010000000000000000e+02 8.039140701293945312e+00 4.104388713836669922e+00 -9.607699564314481355e-14 9.607699564314481355e-14 0.000000000000000000e+00 -1.120898214740720378e-13
6.020000000000000000e+02 2.191787338256835938e+01 1.420204257965087891e+01 -3.634162334129401040e-14 -3.358316229273849984e-13 -1.116519732029773448e-13 -2.638364244959834348e-13
6.030000000000000000e+02 2.087925910949707031e+01 1.420251369476318359e+01 -1.095878216731543953e-13 -2.757209608197919160e-13 -1.155926347478838934e-13 -6.617803364767499419e-14
6.040000000000000000e+02 2.745111274719238281e+01 2.111084938049316406e+01 -2.664635378394741155e-14 -5.717081403558074704e-14 -2.514515051526503703e-14 8.832077593150938766e-14
6.050000000000000000e+02 2.692385101318359375e+01 2.050188064575195312e+01 8.769527259314818801e-14 -5.391820751812423373e-14 1.013312036954013354e-14 -1.643817325097315929e-13
6.060000000000000000e+02 2.640606689453125000e+01 1.989831542968750000e+01 2.026624040026708817e-13 -1.876503780921107145e-13 4.503608959014176322e-15 -1.441154866884536423e-13
6.070000000000000000e+02 2.969639205932617188e+01 2.356000518798828125e+01 1.160930347080674219e-13 1.641315257533762506e-13 8.406736949368581735e-14 -1.446158866486371708e-13
6.080000000000000000e+02 3.427628326416015625e+01 2.859198379516601562e+01 8.206576287668812530e-14 -1.020818019416107336e-13 -6.004812227696550847e-15 -1.160930347080674219e-13
6.090000000000000000e+02 3.087076377868652344e+01 2.631453895568847656e+01 1.351082687704252897e-14 3.152526186606628700e-14 1.351082687704252897e-14 1.541235129971785245e-13
6.100000000000000000e+02 1.134324312210083008e+00 4.259491443634033203e+00 -4.003208151797700565e-15 4.403528797570881170e-14 1.200962445539310169e-14 -4.003208151797700565e-14
6.110000000000000000e+02 4.127885818481445312e+01 3.637990570068359375e+01 2.161732300326804634e-13 -1.361090737729900302e-13 2.401924891078620339e-14 1.701363422162375377e-14
6.120000000000000000e+02 2.565499782562255859e+00 2.200575065612792969e+01 -1.040834085586084257e-13 -1.361090737729900302e-13 -7.205774334422682115e-14 1.521218996039172544e-13
6.130000000000000000e+02 1.669516444206237793e+00 3.489306640625000000e+01 7.205774334422682115e-14 -1.521218996039172544e-13 -2.401924891078620339e-14 -1.601283260719080226e-14
6.140000000000000000e+02 2.763381004333496094e+00 3.665860366821289062e+01 1.200962343895356499e-13 2.802245740139708285e-13 1.200962343895356499e-13 4.003208151797700565e-15
6.150000000000000000e+02 1.976915121078491211e+00 2.843674468994140625e+01 -1.080866150163402317e-13 -9.207378240914942946e-14 -6.004811719476782494e-14 4.803849782157240678e-14
6.160000000000000000e+02 2.860338687896728516e+00 3.196439361572265625e+01 -2.001604075898850282e-14 2.201764432666758475e-13 6.004811719476782494e-14 1.441154866884536423e-13
6.170000000000000000e+02 3.308483362197875977e+00 2.281066131591796875e+01 5.604491073703601889e-14 2.401924891078620339e-14 2.401924891078620339e-14 3.202566521438160452e-14
6.180000000000000000e+02 1.853162169456481934e+00 2.360635375976562500e+01 -3.202566521438160452e-14 3.202566521438160452e-14 0.000000000000000000e+00 2.001604042017532392e-13
6.190000000000000000e+02 1.782739639282226562e+00 1.478795814514160156e+01 -8.006416303595401129e-14 2.401924687790712998e-13 4.803849782157240678e-14 -2.401924891078620339e-14
6.200000000000000000e+02 2.508540153503417969e+00 1.720004081726074219e+01 0.000000000000000000e+00 0.000000000000000000e+00 0.000000000000000000e+00 1.120898214740720378e-13
6.210000000000000000e+02 1.899765253067016602e+00 7.484531879425048828e+00 1.401122870069854143e-13 2.201764432666758475e-13 1.080866150163402317e-13 -5.604491073703601889e-14
6.220000000000000000e+02 1.780933499336242676e+00 1.318644523620605469e+01 8.006416303595401129e-15 2.321860694161348437e-13 7.205774334422682115e-14 1.841475648182988589e-13
6.230000000000000000e+02 2.495521783828735352e+00 1.400761127471923828e+01 -1.601283260719080226e-14 1.761411519028352468e-13 4.803849782157240678e-14 0.000000000000000000e+00
6.240000000000000000e+02 2.493723392486572266e+00 1.320858764648437500e+01 1.521218996039172544e-13 2.481988952470620680e-13 1.200962343895356499e-13 0.000000000000000000e+00
6.250000000000000000e+02 2.500053167343139648e+00 1.160966110229492188e+01 2.161732300326804634e-13 5.044041898570605920e-13 2.161732300326804634e-13 -4.003208151797700565e-14
6.260000000000000000e+02 2.494444370269775391e+00 1.240939903259277344e+01 -1.601283260719080226e-14 4.963977904941241359e-13 1.441154866884536423e-13 7.205774334422682115e-14
6.270000000000000000e+02 3.212274074554443359e+00 1.403088474273681641e+01 -4.803849782157240678e-14 2.081668171172168513e-13 4.803849782157240678e-14 -1.681347389873716347e-13
6.280000000000000000e+02 1.807986497879028320e+00 1.959566497802734375e+01 8.006416303595401129e-15 -4.083272077664429345e-13 -1.200962343895356499e-13 1.441154866884536423e-13
6.290000000000000000e+02 2.575426816940307617e+00 2.280531692504882812e+01 1.401122870069854143e-13 -1.000802021008766196e-13 1.200962445539310169e-14 6.405133042876320904e-14
6.300000000000000000e+02 2.537148952484130859e+00 9.996679306030273438e+00 2.001604042017532392e-13 3.602887302736612618e-13 1.681347389873716347e-13 -3.202566521438160452e-14
6.310000000000000000e+02 2.513590812683105469e+00 1.080721855163574219e+01 -1.281026608575264181e-13 4.483592858962881511e-13 9.607699564314481355e-14 8.006416303595401129e-15
6.320000000000000000e+02 3.227432727813720703e+00 1.721316337585449219e+01 1.200962343895356499e-13 -4.003208151797700565e-14 2.401924891078620339e-14 -8.807057595141762341e-14
6.330000000000000000e+02 2.514163255691528320e+00 1.799928283691406250e+01 2.201764432666758475e-13 3.002405995263662808e-13 1.561251128379126385e-13 -8.006416303595401129e-14
6.340000000000000000e+02 2.522223234176635742e+00 1.879962730407714844e+01 7.205774334422682115e-14 -1.521218996039172544e-13 -2.401924891078620339e-14 4.003208151797700565e-14
6.350000000000000000e+02 2.533062696456909180e+00 1.960244178771972656e+01 -1.601283260719080226e-14 1.761411519028352468e-13 4.803849782157240678e-14 4.003208151797700565e-14
6.360000000000000000e+02 2.545355796813964844e+00 2.040590858459472656e+01 -1.080866150163402317e-13 -2.522020949285302960e-13 -1.080866150163402317e-13 7.205774334422682115e-14
6.370000000000000000e+02 1.903165817260742188e+00 5.834366321563720703e+00 -3.602887167211341057e-14 2.361892690976030718e-13 6.004811719476782494e-14 3.202566521438160452e-14
6.380000000000000000e+02 2.699952363967895508e+00 2.762015151977539062e+01 1.761411519028352468e-13 -1.601283260719080226e-14 4.803849782157240678e-14 0.000000000000000000e+00
6.390000000000000000e+02 4.158553600311279297e+00 4.105854511260986328e+00 1.120898214740720378e-13 4.803849782157240678e-14 4.803849782157240678e-14 -3.202566521438160452e-14
6.400000000000000000e+02 2.674479484558105469e+00 7.487563610076904297e+00 -1.240994476235310340e-13 4.043240080849747065e-13 8.406736949368581735e-14 -2.401924891078620339e-14
6.410000000000000000e+02 3.568721532821655273e+00 2.915839195251464844e+01 1.521218996039172544e-13 -7.205774334422682115e-14 2.401924891078620339e-14 2.882309733769072846e-13
6.420000000000000000e+02 1.869793653488159180e+00 2.441114234924316406e+01 6.405133042876320904e-14 -6.405133042876320904e-14 0.000000000000000000e+00 1.761411519028352468e-13
6.430000000000000000e+02 2.615865230560302734e+00 2.441153526306152344e+01 -7.205774334422682115e-14 -1.681347389873716347e-13 -7.205774334422682115e-14 4.803849782157240678e-14
6.440000000000000000e+02 2.672168731689453125e+00 2.602009391784667969e+01 0.000000000000000000e+00 0.000000000000000000e+00 0.000000000000000000e+00 8.006416303595401129e-14
6.450000000000000000e+02 2.686695814132690430e+00 2.682065773010253906e+01 2.041636038832214672e-13 -1.641315257533762506e-13 1.200962445539310169e-14 2.161732300326804634e-13
6.460000000000000000e+02 2.253990650177001953e+00 3.518385696411132812e+01 -5.547414266772639213e-14 1.592291565526843256e-13 3.112650585955327454e-14 1.075549425997440744e-13
6.470000000000000000e+02 2.682985067367553711e+00 3.276813125610351562e+01 -2.762213472274482884e-13 -4.003208151797700565e-15 -8.406736949368581735e-14 0.000000000000000000e+00
6.480000000000000000e+02 2.095113992691040039e+00 3.095933532714843750e+01 0.000000000000000000e+00 0.000000000000000000e+00 0.000000000000000000e+00 1.441154866884536423e-13
6.490000000000000000e+02 3.007556676864624023e+00 3.105568504333496094e+01 8.006416303595401129e-14 -8.006416303595401129e-14 0.000000000000000000e+00 0.000000000000000000e+00
6.500000000000000000e+02 2.710629701614379883e+00 3.353441619873046875e+01 -1.601283260719080226e-13 -1.601283260719080226e-13 -9.607699564314481355e-14 8.807057595141762341e-14
6.510000000000000000e+02 3.678712606430053711e+00 3.481285858154296875e+01 1.100882216333379238e-13 7.005614350349270714e-14 5.404330750817011586e-14 2.481988952470620680e-13
6.520000000000000000e+02 2.945003986358642578e+00 3.911942291259765625e+01 1.541235129971785245e-13 -9.407538902614712151e-14 1.801443583605670529e-14 4.803849782157240678e-14
6.530000000000000000e+02 3.346006631851196289e+00 3.742556381225585938e+01 5.129110433902892008e-14 -1.838973716144706727e-13 -3.978187814975345238e-14 -4.353488801552528320e-14
6.540000000000000000e+02 2.535033702850341797e+00 3.586321640014648438e+01 3.202566521438160452e-14 -3.522823038056704936e-13 -9.607699564314481355e-14 8.006416303595401129e-14
6.550000000000000000e+02 3.760562515258789062e+01 3.393110275268554688e+01 5.004010105043830980e-14 -1.501202997631831404e-13 -3.002405859738391247e-14 -1.200962445539310169e-14
6.560000000000000000e+02 1.821073722839355469e+01 1.240673065185546875e+01 -4.703769451307356075e-14 -3.232590519049172162e-13 -1.110890215537049808e-13 -1.060850151756061177e-13
6.570000000000000000e+02 1.489470386505126953e+01 7.924379825592041016e+00 -2.647121345906999768e-13 -5.709575607443229117e-13 -2.507009086005068665e-13 -3.072462260739899920e-13
6.580000000000000000e+02 2.588688468933105469e+01 1.930838394165039062e+01 1.827714683159259446e-13 -5.892222067248667483e-14 3.715477497065813872e-14 -1.901523745048965680e-14
6.590000000000000000e+02 2.584999084472656250e+01 2.045940589904785156e+01 1.251002475438980910e-13 -1.351082738526229732e-13 -3.002406113848275424e-15 -1.861491782115601290e-13
6.600000000000000000e+02 2.032759666442871094e+01 1.361390781402587891e+01 -3.480288973678469233e-13 -1.949061842910354558e-13 -1.628805326291810074e-13 -1.588773193951856233e-13
6.610000000000000000e+02 3.346971511840820312e+01 2.737502098083496094e+01 -4.397273967475176515e-14 -2.018492523733067534e-13 -7.374659829204391337e-14 3.283881684374573284e-14
6.620000000000000000e+02 3.298935699462890625e+01 2.675418281555175781e+01 -4.003208151797700565e-15 4.403528797570881170e-14 1.200962445539310169e-14 1.491194998428160834e-13
6.630000000000000000e+02 3.253276824951171875e+01 2.612870407104492188e+01 7.856295637913984775e-14 -1.035830085984248972e-13 -7.506014649345978118e-15 -1.751403519824681898e-13
6.640000000000000000e+02 1.977778816223144531e+01 1.302542400360107422e+01 -5.479391083657719763e-14 -2.979887929292768245e-13 -1.058348151955143535e-13 -3.177546523428984027e-14
6.650000000000000000e+02 2.369999885559082031e+01 1.708393859863281250e+01 1.170938346284344789e-13 -8.706977603105056640e-14 9.007217918028352643e-15 -2.191756433463087905e-13
6.660000000000000000e+02 2.256704139709472656e+01 1.595754718780517578e+01 -2.001604075898850282e-15 -1.381106736137241442e-13 -4.203368474684290867e-14 -1.396118734942747297e-13
6.670000000000000000e+02 3.853942108154296875e+01 3.246819305419921875e+01 3.602887167211341057e-14 -7.606094980195862720e-14 -1.200962445539310169e-14 -6.405133042876320904e-14
6.680000000000000000e+02 3.919281005859375000e+01 3.148282432556152344e+01 -1.801443651368306309e-13 -1.000802021008766196e-13 -8.406736949368581735e-14 -4.003208151797700565e-14
6.690000000000000000e+02 2.912495040893554688e+01 2.293848228454589844e+01 6.229992379185728124e-14 2.554547014459868093e-13 9.532638892660594276e-14 -3.602887167211341057e-14
6.700000000000000000e+02 2.199925231933593750e+01 1.537654018402099609e+01 1.188452361831427231e-14 -3.609142336120224615e-13 -1.047089118969696253e-13 -1.160930347080674219e-13
6.710000000000000000e+02 3.395383453369140625e+01 2.793435859680175781e+01 3.690457329650047996e-15 -1.356712187256317592e-13 -3.959422985875052370e-14 -7.205774334422682115e-14
6.720000000000000000e+02 1.708041000366210938e+01 1.012959289550781250e+01 -1.124025731432526376e-13 -4.599310841034431885e-13 -1.717000971740087478e-13 -6.004811719476782494e-14
6.730000000000000000e+02 3.542845535278320312e+01 2.992902183532714844e+01 -9.407538902614712151e-14 -6.004812227696550847e-15 -3.002405859738391247e-14 -9.607699564314481355e-14
6.740000000000000000e+02 1.761921882629394531e+01 1.070052433013916016e+01 -2.939855864715450184e-14 -6.073617086696514455e-13 -1.910280879877448990e-13 -2.141716301919463494e-13
6.750000000000000000e+02 1.179528331756591797e+01 4.209456443786621094e+00 -3.122502256758252770e-13 -7.285838599102589797e-13 -3.122502256758252770e-13 4.243400607024244708e-13
6.760000000000000000e+02 1.122097396850585938e+01 4.679619789123535156e+00 -6.335076777400083792e-13 -5.174146159268866452e-13 -3.452767043631010946e-13 3.562855034871387216e-13
6.770000000000000000e+02 1.379408359527587891e+01 6.890466690063476562e+00 -2.832269737750719996e-13 -4.873905641057663107e-13 -2.311852694957677867e-13 -1.060850151756061177e-13
6.780000000000000000e+02 1.324788093566894531e+01 6.411604404449462891e+00 -2.772221471478153454e-13 -7.135718339996988124e-13 -2.972381997652651098e-13 2.802245536851800944e-14
6.790000000000000000e+02 7.934214115142822266e+00 4.890611648559570312e+00 -5.364298957290236647e-13 1.361090737729900302e-13 -1.200962343895356499e-13 4.003208151797700565e-14
6.800000000000000000e+02 6.245611190795898438e+01 4.152772521972656250e+01 7.405934996122451319e-14 6.605293026949732305e-14 4.203368474684290867e-14 -4.603689120457471473e-14
6.810000000000000000e+02 4.241014862060546875e+01 4.145651245117187500e+01 1.721379386688398627e-13 -2.121700303512122354e-13 -1.200962445539310169e-14 -8.206576287668812530e-14
6.820000000000000000e+02 5.754786300659179688e+01 3.904858016967773438e+01 2.622101212372551782e-13 -2.001604075898850282e-15 7.806255641895631925e-14 -2.041636038832214672e-13
6.830000000000000000e+02 6.717412567138671875e+01 4.114421844482421875e+01 -2.001604075898850282e-15 -5.804651735403371093e-14 -1.801443583605670529e-14 8.006416303595401129e-15
6.840000000000000000e+02 7.525839233398437500e+01 3.776281738281250000e+01 4.153328478665938017e-14 -4.368500732595398395e-13 -1.185950345089850644e-13 -1.391114735340912012e-13
6.850000000000000000e+02 3.200485706329345703e+00 4.026297378540039062e+01 -8.606896933441993136e-14 -1.401122768425900472e-14 -3.002405859738391247e-14 1.020818019416107336e-13
6.860000000000000000e+02 1.537975549697875977e+00 3.907239151000976562e+01 3.602887302736612618e-13 2.001604042017532392e-13 1.681347389873716347e-13 1.441154866884536423e-13
6.870000000000000000e+02 4.317009353637695312e+01 3.575061798095703125e+01 1.881507780522942430e-13 1.200962445539310169e-14 6.004811719476782494e-14 0.000000000000000000e+00
6.880000000000000000e+02 7.308163452148437500e+01 4.145484924316406250e+01 -1.170938346284344789e-13 -7.305854326459387815e-14 -5.704571743366665393e-14 -4.203368474684290867e-14
6.890000000000000000e+02 7.426001739501953125e+01 3.798543930053710938e+01 -1.000802037949425141e-14 -2.101684169579509653e-13 -6.605293026949732305e-14 -1.721379386688398627e-13
6.900000000000000000e+02 6.461072540283203125e+01 3.881289291381835938e+01 -5.604491073703601889e-14 -2.401924891078620339e-14 -2.401924891078620339e-14 -3.202566521438160452e-14
6.910000000000000000e+02 5.629164886474609375e+01 4.161888122558593750e+01 2.942358000041639388e-13 8.606896933441993136e-14 1.140914348673333079e-13 -8.206576287668812530e-14
6.920000000000000000e+02 4.508545684814453125e+01 3.913122940063476562e+01 1.040834085586084257e-13 -1.040834085586084257e-13 0.000000000000000000e+00 -4.003208151797700565e-15
6.930000000000000000e+02 1.145728588104248047e+01 3.725063800811767578e+00 -6.144924521479799839e-13 -6.865501548346253369e-13 -3.903127820947815962e-13 3.462775042834681516e-13
6.940000000000000000e+02 1.261680126190185547e+01 4.965457439422607422e+00 -1.621299259126421366e-13 -9.387523310783185693e-13 -3.302646513474866152e-13 1.601283260719080226e-14
6.950000000000000000e+02 3.405549526214599609e+00 4.143982887268066406e+00 -1.521218996039172544e-13 7.205774334422682115e-14 -2.401924891078620339e-14 -8.006416303595401129e-14
6.960000000000000000e+02 1.271050643920898438e+01 5.971775054931640625e+00 -1.401122768425900472e-14 -6.465181038098344324e-13 -1.981587908084919691e-13 -8.006416303595401129e-15
6.970000000000000000e+02 1.869115638732910156e+01 1.185603427886962891e+01 1.371098736933570872e-13 -3.072462260739899920e-13 -5.104090097080536681e-14 -2.026624040026708817e-13
6.980000000000000000e+02 3.091815185546875000e+01 2.479911804199218750e+01 -3.202566521438160452e-14 3.202566521438160452e-14 0.000000000000000000e+00 4.003208151797700565e-15
6.990000000000000000e+02 2.795966148376464844e+01 2.297105216979980469e+01 2.749703405507258891e-13 1.178444413449733497e-13 1.178444413449733497e-13 -1.866495781717436575e-13
7.000000000000000000e+02 1.502589893341064453e+01 9.046636581420898438e+00 -2.371900690179701288e-13 -5.534435214803179459e-13 -2.371900690179701288e-13 -1.581267126786467525e-13
7.010000000000000000e+02 1.557019615173339844e+01 9.581355094909667969e+00 2.902325867701685547e-14 -3.592879303532942048e-13 -9.907939540424598457e-14 -1.801443583605670529e-14
7.020000000000000000e+02 2.214426040649414062e+01 1.776384925842285156e+01 5.004010105043830980e-14 -7.005614350349270714e-14 -6.004812227696550847e-15 -1.230986477031639770e-13
7.030000000000000000e+02 3.288047409057617188e+01 2.800218391418457031e+01 -1.351082687704252897e-14 -5.154130431912068433e-14 -1.951563910473907981e-14 9.707779556351187056e-14
7.040000000000000000e+02 1.874410820007324219e+01 1.299579715728759766e+01 1.015814019814272051e-13 -2.967377862525544252e-13 -5.854691731421723944e-14 -4.803849782157240678e-14
7.050000000000000000e+02 1.983491516113281250e+01 1.418540859222412109e+01 1.896519779328448285e-13 -3.047442127205451934e-13 -3.452766840343103605e-14 -5.904731727440076794e-14
7.060000000000000000e+02 3.028380203247070312e+01 2.562532615661621094e+01 5.082197683525802034e-14 -1.612229501377765439e-13 -3.312029266838191488e-14 6.911788849595090767e-14
7.070000000000000000e+02 4.912541866302490234e+00 4.075070381164550781e+00 -2.562053217150528361e-13 -6.405133042876320904e-14 -9.607699564314481355e-14 -6.405133042876320904e-14
7.080000000000000000e+02 5.622096538543701172e+00 4.800261497497558594e+00 -1.200962343895356499e-13 4.003208151797700565e-14 -2.401924891078620339e-14 -2.401924891078620339e-14
7.090000000000000000e+02 4.201890468597412109e+00 6.427490234375000000e+00 -9.207378240914942946e-14 2.121700303512122354e-13 3.602887167211341057e-14 8.006416303595401129e-15
7.100000000000000000e+02 6.370536327362060547e+00 4.798561573028564453e+00 -8.006416303595401129e-15 8.807057595141762341e-14 2.401924891078620339e-14 1.281026608575264181e-13
7.110000000000000000e+02 8.909506797790527344e+00 4.136623859405517578e+00 -3.843079825725792542e-13 6.405133042876320904e-14 -9.607699564314481355e-14 -9.607699564314481355e-14
7.120000000000000000e+02 9.774947166442871094e+00 3.984841346740722656e+00 -4.163336342344337027e-13 9.607699564314481355e-14 -9.607699564314481355e-14 -8.006416303595401129e-15
7.130000000000000000e+02 2.799446487426757812e+01 2.171473884582519531e+01 3.142518255165593910e-13 -9.407538902614712151e-14 6.605293026949732305e-14 -3.602887167211341057e-14
7.140000000000000000e+02 2.633131790161132812e+01 2.108922576904296875e+01 2.762213472274482884e-13 -1.561251128379126385e-13 3.602887167211341057e-14 -1.391114735340912012e-13
7.150000000000000000e+02 7.138127326965332031e+00 4.825792789459228516e+00 1.200962343895356499e-13 2.802245740139708285e-13 1.200962343895356499e-13 -6.405133042876320904e-14
7.160000000000000000e+02 3.081455421447753906e+01 2.822039794921875000e+01 -9.007218256841531545e-14 -2.101684169579509653e-13 -9.007218256841531545e-14 -1.000802021008766196e-13
7.170000000000000000e+02 2.855700874328613281e+01 2.232130622863769531e+01 -1.823961717339200872e-13 -2.154226368686687487e-13 -1.193456412255239352e-13 3.953167816966168813e-14
7.180000000000000000e+02 2.822541713714599609e+00 2.923836135864257812e+01 2.361892690976030718e-13 1.240994476235310340e-13 1.080866150163402317e-13 1.281026608575264181e-13
7.190000000000000000e+02 3.760262966156005859e+00 2.993280792236328125e+01 -4.003208151797700565e-15 4.403528797570881170e-14 1.200962445539310169e-14 6.405133042876320904e-14
7.200000000000000000e+02 2.535682106018066406e+01 1.873260688781738281e+01 8.459904191028197462e-14 -1.924980086356192777e-13 -3.236968933997483311e-14 -7.011868841631796467e-14
7.210000000000000000e+02 2.377783393859863281e+01 1.821203231811523438e+01 5.604491073703601889e-14 -2.962373998448980528e-13 -7.205774334422682115e-14 -1.641315257533762506e-13
7.220000000000000000e+02 2.652286291122436523e+00 4.977870941162109375e+00 -1.120898214740720378e-13 2.722181475459800604e-13 4.803849782157240678e-14 -1.281026608575264181e-13
7.230000000000000000e+02 3.349468708038330078e+00 3.314248657226562500e+01 -4.103288143834406265e-14 2.111692168783180223e-13 5.104090097080536681e-14 2.181748434259417335e-13
7.240000000000000000e+02 4.034281730651855469e+00 2.360610198974609375e+01 -7.205774334422682115e-14 -1.681347389873716347e-13 -7.205774334422682115e-14 8.006416303595401129e-14
7.250000000000000000e+02 2.501197099685668945e+00 1.560280704498291016e+01 -2.401924891078620339e-14 -5.604491073703601889e-14 -2.401924891078620339e-14 2.001604042017532392e-13
7.260000000000000000e+02 3.223786830902099609e+00 1.641702079772949219e+01 1.601283260719080226e-14 -1.761411519028352468e-13 -4.803849782157240678e-14 1.521218996039172544e-13
7.270000000000000000e+02 2.623682498931884766e+00 8.337827682495117188e+00 1.881507780522942430e-13 1.721379386688398627e-13 1.080866150163402317e-13 -1.040834085586084257e-13
7.280000000000000000e+02 3.285692453384399414e+00 9.233287811279296875e+00 3.362694779747432694e-13 4.643721388322696875e-13 2.401924687790712998e-13 -6.405133042876320904e-14
7.290000000000000000e+02 3.208044290542602539e+00 1.323520565032958984e+01 -3.202566521438160452e-14 3.522823038056704936e-13 9.607699564314481355e-14 -1.601283260719080226e-14
7.300000000000000000e+02 3.947627305984497070e+00 1.643590164184570312e+01 -1.361090737729900302e-13 -1.040834085586084257e-13 -7.205774334422682115e-14 -8.006416303595401129e-15
7.310000000000000000e+02 3.205984115600585938e+00 1.244032192230224609e+01 2.802245740139708285e-13 4.403528865333516951e-13 2.161732300326804634e-13 3.202566521438160452e-14
7.320000000000000000e+02 3.219398021697998047e+00 1.084991931915283203e+01 3.843079825725792542e-13 5.764619467538145692e-13 2.882309733769072846e-13 2.401924891078620339e-14
7.330000000000000000e+02 3.320964097976684570e+00 2.360662460327148438e+01 1.441154866884536423e-13 1.601283260719080226e-14 4.803849782157240678e-14 1.441154866884536423e-13
7.340000000000000000e+02 3.233326673507690430e+00 1.800961112976074219e+01 -3.362694779747432694e-13 -1.441154866884536423e-13 -1.441154866884536423e-13 2.161732300326804634e-13
7.350000000000000000e+02 3.259290933609008789e+00 1.960969161987304688e+01 2.882309733769072846e-13 3.202566521438160452e-14 9.607699564314481355e-14 9.607699564314481355e-14
7.360000000000000000e+02 2.556496620178222656e+00 2.120706558227539062e+01 -3.242598518252842732e-13 -1.160930347080674219e-13 -1.321058605389946461e-13 2.401924891078620339e-14
7.370000000000000000e+02 2.686988592147827148e+00 6.633749961853027344e+00 -2.401924891078620339e-14 2.642117210779892922e-13 7.205774334422682115e-14 8.006416303595401129e-14
7.380000000000000000e+02 3.461186885833740234e+00 2.840368461608886719e+01 1.681347389873716347e-13 7.205774334422682115e-14 7.205774334422682115e-14 8.006416303595401129e-14
7.390000000000000000e+02 4.252586364746093750e+00 2.689368247985839844e+01 -5.204170427930421283e-14 -6.805453688649501509e-14 -3.602887167211341057e-14 -5.604491073703601889e-14
7.400000000000000000e+02 3.403061389923095703e+00 2.521305656433105469e+01 5.604491073703601889e-14 2.401924891078620339e-14 2.401924891078620339e-14 -1.601283260719080226e-14
7.410000000000000000e+02 3.933526515960693359e+00 1.405539989471435547e+01 4.003208151797700565e-15 1.160930347080674219e-13 3.602887167211341057e-14 1.601283260719080226e-13
7.420000000000000000e+02 2.498310089111328125e+00 1.480580711364746094e+01 7.205774334422682115e-14 1.681347389873716347e-13 7.205774334422682115e-14 -3.202566521438160452e-14
7.430000000000000000e+02 3.278877258300781250e+00 2.041419982910156250e+01 -8.006416303595401129e-15 8.807057595141762341e-14 2.401924891078620339e-14 -4.003208151797700565e-14
7.440000000000000000e+02 3.243175745010375977e+00 1.004700660705566406e+01 -1.681347389873716347e-13 2.481988952470620680e-13 2.401924891078620339e-14 1.281026608575264181e-13
7.450000000000000000e+02 4.133270740509033203e+00 3.644646835327148438e+01 8.807057595141762341e-14 -8.006416303595401129e-15 2.401924891078620339e-14 1.020818019416107336e-13
7.460000000000000000e+02 3.701112508773803711e+00 3.226297378540039062e+01 -2.802245536851800944e-14 -1.200962445539310169e-14 -1.200962445539310169e-14 5.604491073703601889e-14
7.470000000000000000e+02 3.462870597839355469e+00 7.513097763061523438e+00 -1.200962445539310169e-14 2.922341730583755126e-13 8.406736949368581735e-14 -1.281026608575264181e-13
7.480000000000000000e+02 2.737549304962158203e+00 2.842358016967773438e+01 1.641315257533762506e-13 -4.403528797570881170e-14 3.602887167211341057e-14 2.642117210779892922e-13
7.490000000000000000e+02 3.352885246276855469e+00 2.440612602233886719e+01 2.161732300326804634e-13 -1.361090737729900302e-13 2.401924891078620339e-14 2.081668171172168513e-13
7.500000000000000000e+02 3.302173376083374023e+00 3.588380432128906250e+01 -7.005614350349270714e-14 -3.002405859738391247e-14 -3.002405859738391247e-14 -1.240994476235310340e-13
7.510000000000000000e+02 2.143606948852539062e+01 1.479056739807128906e+01 -9.990036684177916460e-14 -2.715691983356388617e-13 -1.114408654874672611e-13 -1.167185380464286215e-13
7.520000000000000000e+02 4.291401386260986328e+00 3.048616027832031250e+01 2.802245536851800944e-14 -1.481186999224490264e-13 -3.602887167211341057e-14 1.801443651368306309e-13
7.530000000000000000e+02 3.951972723007202148e+00 3.131395149230957031e+01 2.481988952470620680e-13 1.521218996039172544e-13 1.200962343895356499e-13 2.401924687790712998e-13
7.540000000000000000e+02 1.720314598083496094e+01 1.235403633117675781e+01 -1.130906281707026728e-13 -2.772221471478153454e-13 -1.170938346284344789e-13 -9.207378240914942946e-14
7.550000000000000000e+02 3.737860107421875000e+01 3.262638854980468750e+01 -5.204170427930421283e-14 -6.805453688649501509e-14 -3.602887167211341057e-14 -9.607699564314481355e-14
7.560000000000000000e+02 3.469906616210937500e+01 2.935222816467285156e+01 3.102486190588275849e-14 -1.411130869273524713e-13 -3.302646513474866152e-14 -2.702165375408505793e-14
7.570000000000000000e+02 2.851416587829589844e+01 2.360380363464355469e+01 -1.347329637180899597e-13 1.710120489228222906e-13 1.088372200388132080e-14 -8.569367275241407400e-14
7.580000000000000000e+02 1.768698501586914062e+01 1.182337760925292969e+01 -1.351082687704252897e-14 -3.517819173980141212e-13 -1.095878216731543953e-13 -2.401924687790712998e-13
7.590000000000000000e+02 1.611076545715332031e+01 1.012362098693847656e+01 -1.721379386688398627e-13 -1.881507780522942430e-13 -1.080866150163402317e-13 -1.200962343895356499e-13
7.600000000000000000e+02 1.824206352233886719e+01 1.354181385040283203e+01 5.754611739385018243e-14 -1.125902282105191443e-13 -1.651323256737433076e-14 -5.604491073703601889e-14
7.610000000000000000e+02 2.321394729614257812e+01 1.768883705139160156e+01 8.356696953350228885e-14 -1.851483749030612830e-14 1.951563910473907981e-14 7.305854326459387815e-14
7.620000000000000000e+02 1.082079792022705078e+01 4.190378189086914062e+00 -5.884716000083278775e-13 -9.207378240914942946e-14 -2.041636038832214672e-13 4.163336342344337027e-13
7.630000000000000000e+02 3.219621658325195312e+01 2.867411231994628906e+01 2.401924891078620339e-14 5.604491073703601889e-14 2.401924891078620339e-14 -1.441154866884536423e-13
7.640000000000000000e+02 3.166915512084960938e+01 2.780949211120605469e+01 -4.803849782157240678e-14 -1.120898214740720378e-13 -4.803849782157240678e-14 7.205774334422682115e-14
7.650000000000000000e+02 2.536431884765625000e+01 1.985931396484375000e+01 2.364394758539584140e-13 -8.882117589169291616e-14 4.428548795580057595e-14 1.701363422162375377e-14
7.660000000000000000e+02 2.485712432861328125e+01 1.928584289550781250e+01 1.855236748731989294e-13 -3.143769424472642182e-13 -3.865597823934051325e-14 -1.974081976444802544e-13
7.670000000000000000e+02 2.038578033447265625e+01 1.478112030029296875e+01 -2.256808563812218171e-13 -9.957980214069309111e-14 -9.757819552369539906e-14 -2.261812563414053456e-13
7.680000000000000000e+02 1.338178539276123047e+01 7.505035400390625000e+00 -2.141716301919463494e-13 -6.865501548346253369e-13 -2.702165477052459464e-13 -3.202566521438160452e-14
7.690000000000000000e+02 1.283560752868652344e+01 7.028146743774414062e+00 1.641315257533762506e-13 -8.446768675132720894e-13 -2.041636038832214672e-13 -6.805453688649501509e-14
7.700000000000000000e+02 2.207350540161132812e+01 1.656074905395507812e+01 -1.606287260320915511e-13 -5.454371085648543338e-14 -6.455173038894673754e-14 -8.606896933441993136e-14
7.710000000000000000e+02 2.094148635864257812e+01 1.537631416320800781e+01 9.207378240914942946e-14 -2.121700303512122354e-13 -3.602887167211341057e-14 -7.005613842129502361e-15
7.720000000000000000e+02 3.499600601196289062e+01 3.096505737304687500e+01 3.803047490097931360e-14 -1.781427517435693608e-13 -4.203368474684290867e-14 -8.006416303595401129e-15
7.730000000000000000e+02 1.716884613037109375e+01 1.124713706970214844e+01 -7.906335633932337625e-14 -2.912333731380084556e-13 -1.110890215537049808e-13 -2.121700303512122354e-13
7.740000000000000000e+02 1.664518928527832031e+01 1.067933082580566406e+01 -1.771419518232023038e-13 -4.133312344733325316e-13 -1.771419518232023038e-13 -2.341876692568689577e-13
7.750000000000000000e+02 1.393017005920410156e+01 8.005150794982910156e+00 -2.261812563414053456e-13 -3.142518255165593910e-13 -1.621299259126421366e-13 -1.701363388281057487e-13
7.760000000000000000e+02 1.067076492309570312e+01 5.208966732025146484e+00 -2.562053217150528361e-13 -3.843079825725792542e-13 -1.921539912862896271e-13 2.241796429481440756e-13
7.770000000000000000e+02 7.592590332031250000e+01 3.997441864013671875e+01 -1.160930347080674219e-13 -1.641315257533762506e-13 -8.406736949368581735e-14 -2.802245536851800944e-14
7.780000000000000000e+02 4.705310821533203125e+00 3.940543365478515625e+01 1.738893453057457905e-13 -1.313552673749829314e-13 1.276022524270134170e-14 -8.356696953350228885e-14
7.790000000000000000e+02 4.052655410766601562e+01 3.750590896606445312e+01 1.561251128379126385e-13 -1.160930347080674219e-13 1.200962445539310169e-14 1.120898214740720378e-13
7.800000000000000000e+02 5.384813308715820312e+00 4.075801086425781250e+01 8.857097591160115191e-14 -2.136712302317628209e-13 -3.753007494079578510e-14 1.005806020610601481e-13
7.810000000000000000e+02 2.967792892456054688e+01 2.489048957824707031e+01 2.068063466786548843e-13 -9.437250107898961793e-14 3.373015639040501112e-14 -6.295669958663110966e-14
7.820000000000000000e+02 3.029178810119628906e+01 2.418847084045410156e+01 3.903127820947815962e-14 -2.902325867701685547e-14 3.002406113848275424e-15 5.604491073703601889e-14
7.830000000000000000e+02 4.039259719848632812e+01 3.545919799804687500e+01 -3.052446194569922999e-14 -1.045838085187919542e-13 -4.053248147816053415e-14 8.256616283687165381e-14
7.840000000000000000e+02 3.957347869873046875e+01 3.444060134887695312e+01 -1.100882199392720293e-14 -7.906335633932337625e-14 -2.702165375408505793e-14 4.003208151797700565e-15
7.850000000000000000e+02 4.234393692016601562e+01 3.674990463256835938e+01 1.841475648182988589e-13 -2.642117210779892922e-13 -2.401924891078620339e-14 -1.601283260719080226e-14
7.860000000000000000e+02 5.999542236328125000e+01 4.038060760498046875e+01 1.397995353378048144e-13 -1.541860579100037820e-13 -4.315958550428879506e-15 1.113392198397308505e-14
7.870000000000000000e+02 2.043295860290527344e+01 1.595674896240234375e+01 -3.627907334627106933e-15 -2.303095594010512448e-13 -7.018124010540680024e-14 -1.989093975250308399e-13
7.880000000000000000e+02 1.406481742858886719e+01 9.109416007995605469e+00 -1.205966479022463345e-13 -2.346880827695796423e-13 -1.065854151357896462e-13 -5.304250758780305885e-14
7.890000000000000000e+02 1.447886466979980469e+01 8.520014762878417969e+00 -1.190954344691685929e-13 -4.913937637872345388e-13 -1.831467648979318019e-13 -1.701363388281057487e-13
7.900000000000000000e+02 1.162945365905761719e+01 8.816235542297363281e+00 -2.652125209983563492e-13 -2.051644173561156803e-13 -1.411130869273524713e-13 3.002405859738391247e-14
7.910000000000000000e+02 1.351886177062988281e+01 8.603399276733398438e+00 -2.041636038832214672e-13 -6.365100503960552381e-13 -2.522020949285302960e-13 4.803849782157240678e-14
7.920000000000000000e+02 9.545129776000976562e+00 5.334704399108886719e+00 -3.843079825725792542e-13 -2.562053217150528361e-13 -1.921539912862896271e-13 2.802245536851800944e-14
7.930000000000000000e+02 2.432816314697265625e+01 1.873772621154785156e+01 3.137514391089030186e-13 -2.286832561423229881e-13 2.552045048540268340e-14 -2.702165375408505793e-14
7.940000000000000000e+02 2.329910850524902344e+01 1.880960083007812500e+01 -4.303448466720996568e-14 -2.471980953266950110e-13 -8.706977603105056640e-14 -3.002405859738391247e-14
7.950000000000000000e+02 2.737511444091796875e+01 2.361187553405761719e+01 2.109190236744898361e-13 1.718877454650116765e-13 1.148420280313450226e-13 -9.707779556351187056e-14
7.960000000000000000e+02 2.150448417663574219e+01 1.597055339813232422e+01 7.856295637913984775e-14 -2.436952820528831554e-13 -4.953969770212299228e-14 -2.652125209983563492e-13
7.970000000000000000e+02 2.907090950012207031e+01 2.424303817749023438e+01 -4.503609128420765773e-14 -1.050842084789754827e-13 -4.503609128420765773e-14 1.461170865291877563e-13
7.980000000000000000e+02 3.154764366149902344e+01 2.589909934997558594e+01 -1.261010474642651480e-13 2.602085213965210642e-14 -3.002405859738391247e-14 -4.803849782157240678e-14
7.990000000000000000e+02 3.399957418441772461e+00 4.925407886505126953e+00 -2.201764432666758475e-13 1.801443651368306309e-13 -1.200962445539310169e-14 4.803849782157240678e-14
8.000000000000000000e+02 4.140841960906982422e+00 4.869738101959228516e+00 2.401924687790712998e-13 2.401924687790712998e-13 1.441154866884536423e-13 -1.921539912862896271e-13
8.010000000000000000e+02 4.211323738098144531e+00 7.683629512786865234e+00 -1.441154866884536423e-13 3.042437992078345088e-13 4.803849782157240678e-14 1.681347389873716347e-13
8.020000000000000000e+02 4.881296634674072266e+00 4.825064182281494141e+00 -3.202566521438160452e-14 3.202566521438160452e-14 0.000000000000000000e+00 7.205774334422682115e-14
8.030000000000000000e+02 6.302322387695312500e+00 5.540505886077880859e+00 -1.240994476235310340e-13 2.441956955655938399e-13 3.602887167211341057e-14 1.601283260719080226e-14
8.040000000000000000e+02 8.774266242980957031e+00 5.011227607727050781e+00 -1.160930347080674219e-13 -4.003208151797700565e-15 -3.602887167211341057e-14 1.040834085586084257e-13
8.050000000000000000e+02 7.033890247344970703e+00 5.573775291442871094e+00 -1.521218996039172544e-13 7.205774334422682115e-14 -2.401924891078620339e-14 6.405133042876320904e-14
8.060000000000000000e+02 1.568647575378417969e+01 1.066745662689208984e+01 1.521844580692696680e-13 -4.380385214709098252e-13 -8.575622444150290957e-14 -9.720289216542596367e-14
8.070000000000000000e+02 4.496956825256347656e+00 2.974515914916992188e+01 3.042437992078345088e-13 1.761411519028352468e-13 1.441154866884536423e-13 1.841475648182988589e-13
8.080000000000000000e+02 1.121115970611572266e+01 5.683578014373779297e+00 -3.632911300347624328e-13 -5.274226693406658395e-13 -2.672141479441447753e-13 1.251002475438980910e-13
8.090000000000000000e+02 7.768420696258544922e+00 5.663742542266845703e+00 -5.204170427930421283e-14 9.207378240914942946e-14 1.200962445539310169e-14 -3.202566521438160452e-14
8.100000000000000000e+02 1.928699111938476562e+01 1.358970355987548828e+01 -3.727987428307766304e-13 -1.225982477429804485e-13 -1.486190998826325549e-13 -1.230986477031639770e-13
8.110000000000000000e+02 1.987747764587402344e+01 1.535420608520507812e+01 2.649623413470553190e-13 -2.524523016848856383e-13 3.753007324672989059e-15 2.351884725653678038e-14
8.120000000000000000e+02 2.612912940979003906e+01 2.238719367980957031e+01 1.140914348673333079e-13 -5.404330750817011586e-14 1.801443583605670529e-14 -6.805453688649501509e-14
8.130000000000000000e+02 2.568221664428710938e+01 2.163854598999023438e+01 -1.601283260719080226e-14 -1.441154866884536423e-13 -4.803849782157240678e-14 -1.701363388281057487e-13
8.140000000000000000e+02 3.441583871841430664e+00 2.763150596618652344e+01 -4.803849782157240678e-14 -1.120898214740720378e-13 -4.803849782157240678e-14 9.607699564314481355e-14
8.150000000000000000e+02 4.297159194946289062e+00 2.903345870971679688e+01 -4.003208151797700565e-15 2.041636038832214672e-13 6.004811719476782494e-14 6.405133042876320904e-14
8.160000000000000000e+02 4.142036437988281250e+00 5.645515441894531250e+00 -1.801443651368306309e-13 6.004811719476782494e-14 -3.602887167211341057e-14 3.202566521438160452e-14
8.170000000000000000e+02 4.771841049194335938e+00 2.286457252502441406e+01 3.282630515067525012e-13 -8.807057595141762341e-14 7.205774334422682115e-14 -5.604491073703601889e-14
8.180000000000000000e+02 4.164422512054443359e+00 3.369499969482421875e+01 -4.003208151797700565e-14 -4.003208151797700565e-14 -2.401924891078620339e-14 6.805453688649501509e-14
8.190000000000000000e+02 3.304240226745605469e+00 2.201468086242675781e+01 -4.003208151797700565e-14 1.200962343895356499e-13 2.401924891078620339e-14 6.405133042876320904e-14
8.200000000000000000e+02 4.039529800415039062e+00 2.282429885864257812e+01 6.405133042876320904e-14 2.562053217150528361e-13 9.607699564314481355e-14 0.000000000000000000e+00
8.210000000000000000e+02 3.220813751220703125e+00 1.562188148498535156e+01 4.803849782157240678e-14 1.120898214740720378e-13 4.803849782157240678e-14 -1.200962343895356499e-13
8.220000000000000000e+02 3.951621055603027344e+00 1.801971435546875000e+01 5.604491073703601889e-14 2.401924891078620339e-14 2.401924891078620339e-14 4.003208151797700565e-14
8.230000000000000000e+02 3.457972764968872070e+00 2.683879852294921875e+01 3.282630515067525012e-13 -8.807057595141762341e-14 7.205774334422682115e-14 1.120898214740720378e-13
8.240000000000000000e+02 3.355865240097045898e+00 8.398506164550781250e+00 -1.601283260719080226e-13 1.601283260719080226e-13 0.000000000000000000e+00 1.521218996039172544e-13
8.250000000000000000e+02 3.976571321487426758e+00 9.317236900329589844e+00 -1.200962343895356499e-13 3.602887302736612618e-13 7.205774334422682115e-14 1.281026608575264181e-13
8.260000000000000000e+02 3.216977834701538086e+00 1.482672405242919922e+01 1.601283260719080226e-14 1.441154866884536423e-13 4.803849782157240678e-14 1.200962343895356499e-13
8.270000000000000000e+02 3.945718050003051758e+00 1.564283370971679688e+01 -1.200962343895356499e-13 4.003208151797700565e-14 -2.401924891078620339e-14 1.841475648182988589e-13
8.280000000000000000e+02 3.924897193908691406e+00 1.326282596588134766e+01 4.003208151797700565e-14 2.001604042017532392e-13 7.205774334422682115e-14 5.604491073703601889e-14
8.290000000000000000e+02 3.243413209915161133e+00 1.880776023864746094e+01 3.202566521438160452e-14 2.882309733769072846e-13 9.607699564314481355e-14 2.401924891078620339e-14
8.300000000000000000e+02 3.984191417694091797e+00 1.961361122131347656e+01 -4.003208151797700565e-14 1.200962343895356499e-13 2.401924891078620339e-14 -2.401924891078620339e-14
8.310000000000000000e+02 3.295630693435668945e+00 2.121659088134765625e+01 1.601283260719080226e-13 -1.601283260719080226e-13 0.000000000000000000e+00 5.604491073703601889e-14
8.320000000000000000e+02 3.917307138442993164e+00 1.247216796875000000e+01 -1.921539912862896271e-13 1.921539912862896271e-13 0.000000000000000000e+00 2.562053217150528361e-13
8.330000000000000000e+02 3.208560943603515625e+00 1.164616298675537109e+01 -8.807057595141762341e-14 3.282630515067525012e-13 7.205774334422682115e-14 -1.601283260719080226e-14
8.340000000000000000e+02 4.017182350158691406e+00 2.042178916931152344e+01 -4.803849782157240678e-14 -1.120898214740720378e-13 -4.803849782157240678e-14 0.000000000000000000e+00
8.350000000000000000e+02 3.913066148757934570e+00 1.168438816070556641e+01 2.642117210779892922e-13 2.962373998448980528e-13 1.681347389873716347e-13 8.006416303595401129e-15
8.360000000000000000e+02 5.880955696105957031e+00 3.599307632446289062e+01 6.605293026949732305e-14 -6.004812227696550847e-15 1.801443583605670529e-14 5.004010105043830980e-14
8.370000000000000000e+02 3.935467481613159180e+00 1.010906982421875000e+01 3.682951296365977178e-13 4.323464600653609269e-13 2.401924687790712998e-13 8.006416303595401129e-14
8.380000000000000000e+02 3.916798591613769531e+00 1.089760017395019531e+01 -4.803849782157240678e-14 2.081668171172168513e-13 4.803849782157240678e-14 1.921539912862896271e-13
8.390000000000000000e+02 4.132510662078857422e+00 2.839722442626953125e+01 8.006416303595401129e-15 2.321860694161348437e-13 7.205774334422682115e-14 2.081668171172168513e-13
8.400000000000000000e+02 3.450266361236572266e+00 2.602744102478027344e+01 4.003208151797700565e-14 -1.200962343895356499e-13 -2.401924891078620339e-14 6.405133042876320904e-14
8.410000000000000000e+02 4.046150684356689453e+00 2.123051452636718750e+01 -1.120898214740720378e-13 -4.803849782157240678e-14 -4.803849782157240678e-14 6.405133042876320904e-14
8.420000000000000000e+02 3.948563098907470703e+00 1.722801208496093750e+01 -1.521218996039172544e-13 -2.481988952470620680e-13 -1.200962343895356499e-13 1.361090737729900302e-13
8.430000000000000000e+02 5.425870418548583984e+00 1.568655109405517578e+01 4.803849782157240678e-14 -2.081668171172168513e-13 -4.803849782157240678e-14 1.761411519028352468e-13
8.440000000000000000e+02 4.586401462554931641e+00 3.266109085083007812e+01 1.441154866884536423e-13 1.601283260719080226e-14 4.803849782157240678e-14 1.841475648182988589e-13
8.450000000000000000e+02 4.580235958099365234e+00 6.967357635498046875e+00 -9.907939540424598457e-14 4.093280076868099915e-13 9.307458910578006450e-14 9.007218256841531545e-14
8.460000000000000000e+02 4.055506229400634766e+00 8.515380859375000000e+00 9.207378240914942946e-14 2.682149478645118323e-13 1.080866150163402317e-13 1.601283260719080226e-14
8.470000000000000000e+02 4.068593978881835938e+00 2.438654518127441406e+01 7.606094980195862720e-14 -3.602887167211341057e-14 1.200962445539310169e-14 6.405133042876320904e-14
8.480000000000000000e+02 4.148957252502441406e+00 2.518385887145996094e+01 4.403528797570881170e-14 -3.242598518252842732e-13 -8.406736949368581735e-14 -7.205774334422682115e-14
8.490000000000000000e+02 1.218695259094238281e+01 5.556578636169433594e+00 -5.204170427930421283e-13 -6.805453553124229948e-13 -3.602887302736612618e-13 1.281026608575264181e-13
8.500000000000000000e+02 2.671414947509765625e+01 2.308370018005371094e+01 8.206576287668812530e-14 -1.020818019416107336e-13 -6.004812227696550847e-15 -2.562053217150528361e-13
8.510000000000000000e+02 4.878069400787353516e+00 3.168052291870117188e+01 2.321860694161348437e-13 8.006416303595401129e-15 7.205774334422682115e-14 -1.040834085586084257e-13
8.520000000000000000e+02 3.297209548950195312e+01 2.950779151916503906e+01 1.901523745048965680e-14 -1.291034607778934751e-13 -3.302646513474866152e-14 5.104090097080536681e-14
8.530000000000000000e+02 3.058312416076660156e+01 2.716150665283203125e+01 -6.805453688649501509e-14 1.080866150163402317e-13 1.200962445539310169e-14 1.441154866884536423e-13
8.540000000000000000e+02 2.384716224670410156e+01 1.929189109802246094e+01 -3.402726844324750755e-14 -1.060850151756061177e-13 -4.203368474684290867e-14 -1.461170865291877563e-13
8.550000000000000000e+02 3.193775177001953125e+01 2.659486007690429688e+01 -7.806255641895631925e-14 -1.821459649775647449e-13 -7.806255641895631925e-14 1.641315257533762506e-13
8.560000000000000000e+02 2.772465896606445312e+01 2.591712188720703125e+01 0.000000000000000000e+00 0.000000000000000000e+00 0.000000000000000000e+00 8.006416303595401129e-15
8.570000000000000000e+02 1.012819671630859375e+01 4.674244403839111328e+00 -3.460272975271128093e-13 -5.679551406544310066e-14 -1.208468411060745207e-13 1.150922347877003649e-13
8.580000000000000000e+02 2.483157730102539062e+01 2.037781333923339844e+01 6.405133042876320904e-14 -3.843079825725792542e-13 -9.607699564314481355e-14 -2.612093213168881212e-13
8.590000000000000000e+02 2.435394859313964844e+01 1.981912612915039062e+01 7.868805975731751889e-14 -1.950312876692131270e-13 -3.490296837356868243e-14 -7.055654346367623564e-14
8.600000000000000000e+02 2.156854057312011719e+01 1.716477394104003906e+01 1.274771575191652184e-13 8.882117927982470518e-15 4.090778144829818053e-14 -2.753456642377860586e-13
8.610000000000000000e+02 1.460956668853759766e+01 9.623230934143066406e+00 -1.851483647386659159e-13 -4.453568861351869801e-13 -1.891515779726613000e-13 -1.000802021008766196e-13
8.620000000000000000e+02 2.272204589843750000e+01 1.832276535034179688e+01 1.361090737729900302e-13 -2.161732300326804634e-13 -2.401924891078620339e-14 -1.080866150163402317e-13
8.630000000000000000e+02 2.099666213989257812e+01 1.655979728698730469e+01 2.862293735361731706e-13 -1.060850151756061177e-13 5.404330750817011586e-14 -1.000802037949425141e-14
8.640000000000000000e+02 1.671110725402832031e+01 1.177540779113769531e+01 -1.366094737331735587e-13 -3.788035694580332846e-13 -1.546239129573620530e-13 -2.662133209187234062e-13
8.650000000000000000e+02 1.621013259887695312e+01 1.121152019500732422e+01 -3.402726844324750755e-14 -4.263416605431585849e-13 -1.381106736137241442e-13 -1.766415518630187753e-13
8.660000000000000000e+02 1.175269126892089844e+01 6.133338928222656250e+00 -1.000802037949425141e-14 -3.702967294773318319e-13 -1.140914348673333079e-13 8.206576287668812530e-14
8.670000000000000000e+02 1.229279518127441406e+01 6.576964378356933594e+00 -2.141716301919463494e-13 -6.064859985749349036e-13 -2.461972954063279539e-13 1.361090737729900302e-13
8.680000000000000000e+02 9.160638809204101562e+00 6.104860305786132812e+00 -1.641315257533762506e-13 -1.160930347080674219e-13 -8.406736949368581735e-14 -2.401924891078620339e-14
8.690000000000000000e+02 2.904546546936035156e+01 2.551959800720214844e+01 -2.752205498481800731e-15 1.003304020809683839e-13 2.927345865710861972e-14 2.026624073908026707e-14
8.700000000000000000e+02 2.683201408386230469e+01 2.174149131774902344e+01 7.105694342385976414e-14 5.904731727440076794e-14 3.903127820947815962e-14 -1.060850151756061177e-13
8.710000000000000000e+02 3.070483589172363281e+01 3.148785209655761719e+01 2.702165375408505793e-14 -5.704571743366665393e-14 -9.007217918028352643e-15 3.803047490097931360e-14
8.720000000000000000e+02 2.964502716064453125e+01 2.725202369689941406e+01 8.807057595141762341e-14 -8.006416303595401129e-15 2.401924891078620339e-14 5.604491073703601889e-14
8.730000000000000000e+02 4.745954990386962891e+00 3.534442520141601562e+01 1.000802037949425141e-14 5.004010105043830980e-14 1.801443583605670529e-14 -6.004811719476782494e-14
8.740000000000000000e+02 3.444016647338867188e+01 3.239262008666992188e+01 5.404330750817011586e-14 -1.941555911270237411e-13 -4.203368474684290867e-14 -4.403528797570881170e-14
8.750000000000000000e+02 7.872063446044921875e+01 4.123786544799804688e+01 0.000000000000000000e+00 -3.202566521438160452e-13 -9.607699564314481355e-14 -1.120898214740720378e-13
8.760000000000000000e+02 7.790879058837890625e+01 4.145507812500000000e+01 -1.080866150163402317e-13 6.805453688649501509e-14 -1.200962445539310169e-14 -6.004811719476782494e-14
8.770000000000000000e+02 3.815617370605468750e+01 3.524814224243164062e+01 1.901523745048965680e-14 3.102486190588275849e-14 1.501202929869195624e-14 6.004812227696550847e-15
8.780000000000000000e+02 3.591485977172851562e+01 3.427631759643554688e+01 6.004811719476782494e-14 -2.001604075898850282e-14 1.200962445539310169e-14 -5.204170427930421283e-14
8.790000000000000000e+02 3.597584152221679688e+01 3.265139389038085938e+01 7.806255641895631925e-14 -1.381106736137241442e-13 -1.801443583605670529e-14 1.200962445539310169e-14
8.800000000000000000e+02 5.056115150451660156e+00 3.722991943359375000e+01 1.266014474244486765e-13 -1.516214996437337259e-13 -7.506014649345978118e-15 -1.291034607778934751e-13
8.810000000000000000e+02 1.751596450805664062e+00 3.995818328857421875e+01 -2.401924891078620339e-14 2.642117210779892922e-13 7.205774334422682115e-14 -1.281026608575264181e-13
8.820000000000000000e+02 2.682504177093505859e+00 3.443192291259765625e+01 -1.401122870069854143e-13 -6.004811719476782494e-14 -6.004811719476782494e-14 -7.205774334422682115e-14
8.830000000000000000e+02 5.601985931396484375e+00 3.303133773803710938e+01 1.060850151756061177e-13 -4.603689120457471473e-14 1.801443583605670529e-14 -2.001604075898850282e-14
8.840000000000000000e+02 7.242874145507812500e+01 3.869203567504882812e+01 -1.220978477827969200e-13 -2.582069215557869502e-13 -1.140914348673333079e-13 -1.691355389077386917e-13
8.850000000000000000e+02 6.449977874755859375e+01 4.062576675415039062e+01 6.305052373213257400e-14 2.702165375408505793e-14 2.702165375408505793e-14 -5.204170427930421283e-14
8.860000000000000000e+02 3.960507965087890625e+01 3.910777664184570312e+01 1.661331391466375207e-13 -2.261812563414053456e-13 -1.801443583605670529e-14 -7.405934996122451319e-14
8.870000000000000000e+02 2.207821655273437500e+01 2.060606002807617188e+01 2.782229470681824024e-13 -3.382710778154773834e-13 -1.801443583605670529e-14 -4.803849782157240678e-14
8.880000000000000000e+02 2.526209831237792969e+01 2.098224830627441406e+01 2.081668171172168513e-13 -4.803849782157240678e-14 4.803849782157240678e-14 4.803849782157240678e-14
8.890000000000000000e+02 1.771315383911132812e+01 1.294437026977539062e+01 9.557658890669770702e-14 -3.707971429900425164e-13 -8.256616283687165381e-14 -6.605293026949732305e-14
8.900000000000000000e+02 2.162067031860351562e+01 1.839415168762207031e+01 -3.978187814975345238e-14 -3.830569758958568549e-13 -1.268516541808040188e-13 -1.015814019814272051e-13
8.910000000000000000e+02 1.878194427490234375e+01 1.414458084106445312e+01 3.803047490097931360e-14 -2.582069215557869502e-13 -6.605293026949732305e-14 -7.405934996122451319e-14
8.920000000000000000e+02 1.719271659851074219e+01 1.346778202056884766e+01 -1.266014474244486765e-13 -3.287634650194631858e-13 -1.366094737331735587e-13 -6.605293026949732305e-14
8.930000000000000000e+02 1.515123653411865234e+01 1.014196681976318359e+01 -2.624603279936105205e-13 -2.954867795758320259e-13 -1.673841322708327639e-13 -7.506014649345978118e-15
8.940000000000000000e+02 1.473601055145263672e+01 1.070127582550048828e+01 1.015814019814272051e-13 -2.767217607401589730e-13 -5.254210423948774134e-14 -1.220978477827969200e-13
8.950000000000000000e+02 1.615063476562500000e+01 1.449223899841308594e+01 -2.441956955655938399e-13 -3.562855034871387216e-13 -1.801443651368306309e-13 -3.002405859738391247e-14
8.960000000000000000e+02 4.863908767700195312e+00 7.947441101074218750e+00 -3.042437992078345088e-13 1.441154866884536423e-13 -4.803849782157240678e-14 8.006416303595401129e-14
8.970000000000000000e+02 4.859743118286132812e+00 5.577472686767578125e+00 1.361090737729900302e-13 1.040834085586084257e-13 7.205774334422682115e-14 -1.601283260719080226e-14
8.980000000000000000e+02 6.925678253173828125e+00 6.299752235412597656e+00 -4.803849782157240678e-14 2.081668171172168513e-13 4.803849782157240678e-14 1.681347389873716347e-13
8.990000000000000000e+02 8.488554954528808594e+00 5.830857753753662109e+00 -4.803849375581425996e-13 -1.601283260719080226e-13 -1.921539912862896271e-13 8.006416303595401129e-15
9.000000000000000000e+02 7.591434478759765625e+00 6.399642944335937500e+00 -3.562855034871387216e-13 -8.406736949368581735e-14 -1.321058605389946461e-13 1.601283260719080226e-14
9.010000000000000000e+02 5.181254386901855469e+00 3.077832603454589844e+01 2.682149478645118323e-13 9.207378240914942946e-14 1.080866150163402317e-13 8.006416303595401129e-14
9.020000000000000000e+02 2.284632110595703125e+01 1.946780014038085938e+01 6.004811719476782494e-14 -1.801443651368306309e-13 -3.602887167211341057e-14 -8.006416303595401129e-14
9.030000000000000000e+02 1.419561672210693359e+01 1.019927310943603516e+01 -4.203368474684290867e-14 -6.585277028542391164e-13 -2.101684169579509653e-13 -1.230986477031639770e-13
9.040000000000000000e+02 5.511230945587158203e+00 2.298009109497070312e+01 1.961571909677578551e-13 8.406736949368581735e-14 8.406736949368581735e-14 1.601283260719080226e-14
9.050000000000000000e+02 3.477705001831054688e+00 6.600183963775634766e+00 -2.201764432666758475e-13 3.402726776562114974e-13 3.602887167211341057e-14 -8.006416303595401129e-15
9.060000000000000000e+02 4.721328735351562500e+00 2.361466979980468750e+01 3.602887302736612618e-13 2.001604042017532392e-13 1.681347389873716347e-13 9.607699564314481355e-14
9.070000000000000000e+02 4.052793502807617188e+00 2.203230667114257812e+01 1.601283260719080226e-13 -1.601283260719080226e-13 0.000000000000000000e+00 7.205774334422682115e-14
9.080000000000000000e+02 4.824781894683837891e+00 2.206961059570312500e+01 7.606094980195862720e-14 1.240994476235310340e-13 6.004811719476782494e-14 8.006416303595401129e-14
9.090000000000000000e+02 2.835029029846191406e+01 2.496012878417968750e+01 -3.627907165220517482e-14 1.288532540215381328e-13 2.777225538842624519e-14 1.501202929869195624e-14
9.100000000000000000e+02 2.702717781066894531e+01 2.439723777770996094e+01 2.401924891078620339e-14 5.604491073703601889e-14 2.401924891078620339e-14 3.202566521438160452e-14
9.110000000000000000e+02 4.679300308227539062e+00 1.566476726531982422e+01 -1.521218996039172544e-13 7.205774334422682115e-14 -2.401924891078620339e-14 2.001604042017532392e-13
9.120000000000000000e+02 4.673992156982421875e+00 1.724576950073242188e+01 -1.841475648182988589e-13 -2.161732300326804634e-13 -1.200962343895356499e-13 8.006416303595401129e-14
9.130000000000000000e+02 4.722018718719482422e+00 8.663966178894042969e+00 -4.243400607024244708e-13 1.841475648182988589e-13 -7.205774334422682115e-14 1.281026608575264181e-13
9.140000000000000000e+02 3.941056013107299805e+00 1.484901618957519531e+01 -1.761411519028352468e-13 1.601283260719080226e-14 -4.803849782157240678e-14 1.601283260719080226e-14
9.150000000000000000e+02 4.170781612396240234e+00 2.769542312622070312e+01 1.601283260719080226e-13 -1.601283260719080226e-13 0.000000000000000000e+00 -1.601283260719080226e-13
9.160000000000000000e+02 4.760792732238769531e+00 2.860129165649414062e+01 3.182550251980276190e-13 -1.381106736137241442e-13 5.404330750817011586e-14 0.000000000000000000e+00
9.170000000000000000e+02 4.698225498199462891e+00 1.960757827758789062e+01 -2.241796429481440756e-13 -9.607699564314481355e-14 -9.607699564314481355e-14 1.761411519028352468e-13
9.180000000000000000e+02 3.961769580841064453e+00 1.881341171264648438e+01 -1.761411519028352468e-13 1.601283260719080226e-14 -4.803849782157240678e-14 1.281026608575264181e-13
9.190000000000000000e+02 4.679200172424316406e+00 1.645741081237792969e+01 -4.803849782157240678e-14 -1.120898214740720378e-13 -4.803849782157240678e-14 6.405133042876320904e-14
9.200000000000000000e+02 4.645309925079345703e+00 1.328656005859375000e+01 -2.962373998448980528e-13 5.604491073703601889e-14 -7.205774334422682115e-14 1.120898214740720378e-13
9.210000000000000000e+02 4.673254966735839844e+00 1.487051200866699219e+01 8.807057595141762341e-14 -8.006416303595401129e-15 2.401924891078620339e-14 1.200962343895356499e-13
9.220000000000000000e+02 4.648597717285156250e+00 9.412909507751464844e+00 5.604491073703601889e-14 3.442758773376797254e-13 1.200962343895356499e-13 1.281026608575264181e-13
9.230000000000000000e+02 4.606867790222167969e+00 1.094295215606689453e+01 1.441154866884536423e-13 3.362694779747432694e-13 1.441154866884536423e-13 4.803849782157240678e-14
9.240000000000000000e+02 4.667911052703857422e+00 1.803012466430664062e+01 -1.521218996039172544e-13 -2.481988952470620680e-13 -1.200962343895356499e-13 9.607699564314481355e-14
9.250000000000000000e+02 4.883403301239013672e+00 2.785677909851074219e+01 2.321860694161348437e-13 3.282630515067525012e-13 1.681347389873716347e-13 1.681347389873716347e-13
9.260000000000000000e+02 4.614217758178710938e+00 1.171784019470214844e+01 -1.601283260719080226e-14 1.761411519028352468e-13 4.803849782157240678e-14 1.521218996039172544e-13
9.270000000000000000e+02 6.018868923187255859e+00 1.955072402954101562e+01 8.006416303595401129e-15 -8.807057595141762341e-14 -2.401924891078620339e-14 1.441154866884536423e-13
9.280000000000000000e+02 4.615164279937744141e+00 1.017434787750244141e+01 -2.401924687790712998e-13 8.006416303595401129e-14 -4.803849782157240678e-14 0.000000000000000000e+00
9.290000000000000000e+02 4.628777503967285156e+00 1.249938869476318359e+01 3.202566521438160452e-13 3.202566521438160452e-13 1.921539912862896271e-13 9.607699564314481355e-14
9.300000000000000000e+02 4.255212783813476562e+00 2.602915954589843750e+01 2.602085213965210642e-13 -1.401122870069854143e-13 3.602887167211341057e-14 1.281026608575264181e-13
9.310000000000000000e+02 5.604292392730712891e+00 7.524609088897705078e+00 -3.362694779747432694e-13 1.761411519028352468e-13 -4.803849782157240678e-14 1.120898214740720378e-13
9.320000000000000000e+02 5.052727222442626953e+00 2.588915252685546875e+01 8.406736949368581735e-14 -2.842277736954390566e-13 -6.004811719476782494e-14 8.006416303595401129e-15
9.330000000000000000e+02 4.750595092773437500e+00 2.434147644042968750e+01 -1.361090737729900302e-13 -1.040834085586084257e-13 -7.205774334422682115e-14 -7.205774334422682115e-14
9.340000000000000000e+02 4.971598148345947266e+00 2.710437774658203125e+01 7.205774334422682115e-14 -1.521218996039172544e-13 -2.401924891078620339e-14 1.601283260719080226e-14
9.350000000000000000e+02 1.018388271331787109e+01 5.813718318939208984e+00 -5.344282958882895507e-13 -3.662935297958636038e-13 -2.702165477052459464e-13 1.261010474642651480e-13
9.360000000000000000e+02 1.242766857147216797e+01 7.631769180297851562e+00 -3.722983564231202580e-13 -7.085678072928092153e-13 -3.242598518252842732e-13 1.601283260719080226e-14
9.370000000000000000e+02 5.250356197357177734e+00 3.418264770507812500e+01 8.406736949368581735e-14 -1.240994476235310340e-13 -1.200962445539310169e-14 1.641315257533762506e-13
9.380000000000000000e+02 2.104945945739746094e+01 1.775597953796386719e+01 2.456968818936172694e-13 -2.607089349092317487e-13 -4.503608959014176322e-15 -5.754611739385018243e-14
9.390000000000000000e+02 5.412269592285156250e+00 2.985839462280273438e+01 -1.601283260719080226e-14 -1.441154866884536423e-13 -4.803849782157240678e-14 8.006416303595401129e-14
9.400000000000000000e+02 1.932740783691406250e+01 1.474988842010498047e+01 -1.446158866486371708e-13 2.952365863720038397e-14 -3.452766840343103605e-14 -1.851483647386659159e-13
9.410000000000000000e+02 1.623759841918945312e+01 1.227447700500488281e+01 1.451162866088206993e-13 -7.506014988159157020e-14 2.101684237342145434e-14 -1.261010474642651480e-13
9.420000000000000000e+02 1.668872070312500000e+01 1.286511707305908203e+01 4.303448466720996568e-14 -3.933151818558827673e-13 -1.050842084789754827e-13 -6.004811719476782494e-14
9.430000000000000000e+02 2.459804534912109375e+01 2.144676017761230469e+01 1.581267126786467525e-13 2.201764398785440585e-14 5.404330750817011586e-14 -3.522823038056704936e-13
9.440000000000000000e+02 1.526733875274658203e+01 1.120106506347656250e+01 -2.764715539838036307e-13 -3.014916062030886801e-13 -1.733889453455622620e-13 1.000802037949425141e-15
9.450000000000000000e+02 2.383372497558593750e+01 2.035198974609375000e+01 1.060850151756061177e-13 -2.862293735361731706e-13 -5.404330750817011586e-14 -2.011612041221202962e-13
9.460000000000000000e+02 1.993767356872558594e+01 1.772838211059570312e+01 9.532638892660594276e-14 -4.180850273188124744e-13 -9.682759558342010631e-14 6.255012377194904549e-14
9.470000000000000000e+02 2.047519111633300781e+01 1.714117431640625000e+01 8.056456299613753980e-14 3.452766840343103605e-14 3.452766840343103605e-14 -2.181748434259417335e-13
9.480000000000000000e+02 8.235259056091308594e+00 6.568818092346191406e+00 -4.403528797570881170e-14 4.003208151797700565e-15 -1.200962445539310169e-14 4.803849782157240678e-14
9.490000000000000000e+02 1.297284698486328125e+01 8.108665466308593750e+00 -1.511210996835501974e-13 -3.392718777358444404e-13 -1.471179000020819694e-13 -5.004010105043830980e-14
9.500000000000000000e+02 2.949877357482910156e+01 2.620607376098632812e+01 1.000802021008766196e-13 2.001604075898850282e-14 3.602887167211341057e-14 -4.803849782157240678e-14
9.510000000000000000e+02 1.093340587615966797e+01 7.318699359893798828e+00 -8.406736949368581735e-14 -3.562855034871387216e-13 -1.321058605389946461e-13 1.301042606982605321e-13
9.520000000000000000e+02 1.133254051208496094e+01 6.720878124237060547e+00 -1.311050606186275891e-13 -5.594483210025202879e-13 -2.071660171968497943e-13 1.401122870069854143e-13
9.530000000000000000e+02 3.392293548583984375e+01 3.032236671447753906e+01 3.903127820947815962e-14 -1.891515779726613000e-13 -4.503609128420765773e-14 -8.807057595141762341e-14
9.540000000000000000e+02 2.865842437744140625e+01 2.627033805847167969e+01 3.602887167211341057e-14 -7.606094980195862720e-14 -1.200962445539310169e-14 1.120898214740720378e-13
9.550000000000000000e+02 3.751079177856445312e+01 3.784486007690429688e+01 2.977385861729214822e-14 -1.173440413847898212e-13 -2.627105211974387067e-14 6.255012377194904549e-14
9.560000000000000000e+02 7.180225372314453125e+00 3.682952499389648438e+01 2.201764398785440585e-14 -8.206576287668812530e-14 -1.801443583605670529e-14 1.801443583605670529e-14
9.570000000000000000e+02 6.036284446716308594e+00 3.822265243530273438e+01 1.591275125990138095e-13 -1.090874217129708668e-13 1.501202929869195624e-14 3.102486190588275849e-14
9.580000000000000000e+02 3.378565597534179688e+01 3.427012634277343750e+01 1.321058605389946461e-13 -9.207378240914942946e-14 1.200962445539310169e-14 2.001604075898850282e-14
9.590000000000000000e+02 3.305432510375976562e+01 3.162942314147949219e+01 1.801443583605670529e-14 -3.803047490097931360e-14 -6.004812227696550847e-15 1.000802037949425141e-14
9.600000000000000000e+02 7.522148132324218750e+00 4.131852722167968750e+01 8.406736949368581735e-14 -4.403528797570881170e-14 1.200962445539310169e-14 8.807057595141762341e-14
9.610000000000000000e+02 7.105773925781250000e+01 3.999309539794921875e+01 8.406736949368581735e-14 1.160930347080674219e-13 6.004811719476782494e-14 -2.802245536851800944e-14
9.620000000000000000e+02 4.848473072052001953e+00 6.315495491027832031e+00 -4.963977904941241359e-13 1.601283260719080226e-14 -1.441154866884536423e-13 0.000000000000000000e+00
9.630000000000000000e+02 6.245669841766357422e+00 6.264406204223632812e+00 -4.003208151797700565e-14 1.200962343895356499e-13 2.401924891078620339e-14 4.803849782157240678e-14
9.640000000000000000e+02 1.571339130401611328e+01 1.270902824401855469e+01 5.404330750817011586e-14 -4.343480599060950409e-13 -1.140914348673333079e-13 1.761411519028352468e-13
9.650000000000000000e+02 2.221141052246093750e+01 1.904237747192382812e+01 2.311852694957677867e-13 -2.211772431870429045e-13 3.002406113848275424e-15 -1.160930347080674219e-13
9.660000000000000000e+02 2.104682350158691406e+01 1.897206687927246094e+01 1.481186999224490264e-13 -5.084074437486374443e-13 -1.080866150163402317e-13 -1.060850151756061177e-13
9.670000000000000000e+02 5.556265354156494141e+00 2.889519882202148438e+01 1.080866150163402317e-13 2.522020949285302960e-13 1.080866150163402317e-13 1.921539912862896271e-13
9.680000000000000000e+02 6.644457340240478516e+00 1.097018527984619141e+01 -1.200962343895356499e-13 4.003208151797700565e-14 -2.401924891078620339e-14 0.000000000000000000e+00
9.690000000000000000e+02 1.365190696716308594e+01 9.695449829101562500e+00 -1.015814019814272051e-13 -3.637915164424188053e-13 -1.396118734942747297e-13 1.240994476235310340e-13
9.700000000000000000e+02 2.338413047790527344e+01 1.982904243469238281e+01 3.150649771459235193e-13 -3.682325982762996164e-13 -1.595028261216786120e-14 -8.544347277232230975e-14
9.710000000000000000e+02 1.577831554412841797e+01 1.171748828887939453e+01 3.853087824929463112e-14 -3.037434128001781364e-13 -7.956375629950690476e-14 -1.401122870069854143e-13
9.720000000000000000e+02 1.826434707641601562e+01 1.468932247161865234e+01 -2.021620040424873532e-13 -1.781427517435693608e-13 -1.140914348673333079e-13 -1.451162866088206993e-13
9.730000000000000000e+02 5.596974372863769531e+00 6.969244480133056641e+00 -1.681347389873716347e-13 2.481988952470620680e-13 2.401924891078620339e-14 1.441154866884536423e-13
9.740000000000000000e+02 5.536238193511962891e+00 6.308765411376953125e+00 4.403528797570881170e-14 -4.003208151797700565e-15 1.200962445539310169e-14 -4.803849782157240678e-14
9.750000000000000000e+02 6.823546409606933594e+00 6.993089199066162109e+00 -2.802245536851800944e-14 -1.721379386688398627e-13 -6.004811719476782494e-14 -9.607699564314481355e-14
9.760000000000000000e+02 7.426611423492431641e+00 7.093936443328857422e+00 1.200962445539310169e-14 2.802245536851800944e-14 1.200962445539310169e-14 1.361090737729900302e-13
9.770000000000000000e+02 6.160653114318847656e+00 3.113195800781250000e+01 2.602085213965210642e-14 -4.603689120457471473e-14 -6.004812227696550847e-15 -6.805453688649501509e-14
9.780000000000000000e+02 1.432450675964355469e+01 1.127481174468994141e+01 -1.541235129971785245e-13 -3.863095824133133682e-13 -1.621299259126421366e-13 -1.801443583605670529e-14
9.790000000000000000e+02 5.644675254821777344e+00 2.214259719848632812e+01 1.321058605389946461e-13 -1.721379386688398627e-13 -1.200962445539310169e-14 3.202566521438160452e-14
9.800000000000000000e+02 6.869925022125244141e+00 2.177955055236816406e+01 1.175942345886180074e-13 -1.526222995641007829e-13 -1.050842118671072717e-14 4.103288143834406265e-14
9.810000000000000000e+02 1.880488967895507812e+01 1.530756187438964844e+01 2.101684169579509653e-13 -2.301844695754007297e-13 -6.004812227696550847e-15 5.404330750817011586e-14
9.820000000000000000e+02 1.610098838806152344e+01 1.335172367095947266e+01 -3.803047490097931360e-14 -3.022421993671003948e-13 -1.020818019416107336e-13 1.901523745048965680e-14
9.830000000000000000e+02 4.816345214843750000e+00 2.124602890014648438e+01 1.240994476235310340e-13 -8.406736949368581735e-14 1.200962445539310169e-14 -2.401924891078620339e-14
9.840000000000000000e+02 5.408268928527832031e+00 1.727133369445800781e+01 -3.202566521438160452e-14 -2.882309733769072846e-13 -9.607699564314481355e-14 1.120898214740720378e-13
9.850000000000000000e+02 6.060886859893798828e+00 2.637334823608398438e+01 2.401924891078620339e-14 -2.642117210779892922e-13 -7.205774334422682115e-14 1.681347389873716347e-13
9.860000000000000000e+02 5.416228294372558594e+00 1.488829040527343750e+01 -4.403528797570881170e-14 4.003208151797700565e-15 -1.200962445539310169e-14 1.601283260719080226e-14
9.870000000000000000e+02 4.671413898468017578e+00 1.881416702270507812e+01 -1.441154866884536423e-13 -1.601283260719080226e-14 -4.803849782157240678e-14 3.202566521438160452e-14
9.880000000000000000e+02 5.359506607055664062e+00 8.791473388671875000e+00 -1.761411519028352468e-13 3.362694779747432694e-13 4.803849782157240678e-14 1.601283260719080226e-14
9.890000000000000000e+02 5.642338275909423828e+00 2.801082801818847656e+01 4.403528797570881170e-14 -1.641315257533762506e-13 -3.602887167211341057e-14 4.803849782157240678e-14
9.900000000000000000e+02 5.282907009124755859e+00 1.023023033142089844e+01 1.521218996039172544e-13 2.481988952470620680e-13 1.200962343895356499e-13 1.281026608575264181e-13
9.910000000000000000e+02 4.661168575286865234e+00 1.407730293273925781e+01 2.081668171172168513e-13 2.722181475459800604e-13 1.441154866884536423e-13 1.200962343895356499e-13
9.920000000000000000e+02 5.365483760833740234e+00 1.881394386291503906e+01 1.601283260719080226e-13 -1.601283260719080226e-13 0.000000000000000000e+00 1.601283260719080226e-13
9.930000000000000000e+02 5.383477687835693359e+00 1.804785346984863281e+01 -1.040834085586084257e-13 -1.361090737729900302e-13 -7.205774334422682115e-14 6.405133042876320904e-14
9.940000000000000000e+02 5.423799514770507812e+00 1.648306655883789062e+01 -1.521218996039172544e-13 7.205774334422682115e-14 -2.401924891078620339e-14 8.807057595141762341e-14
9.950000000000000000e+02 6.171853542327880859e+00 1.489880371093750000e+01 -5.604491073703601889e-14 -2.401924891078620339e-14 -2.401924891078620339e-14 6.405133042876320904e-14
9.960000000000000000e+02 5.370424747467041016e+00 1.330216121673583984e+01 3.042437992078345088e-13 4.963977904941241359e-13 2.401924687790712998e-13 1.361090737729900302e-13
9.970000000000000000e+02 5.396851062774658203e+00 1.409294414520263672e+01 -2.522020949285302960e-13 5.204170427930421283e-14 -6.004811719476782494e-14 1.601283260719080226e-13
9.980000000000000000e+02 5.313055992126464844e+00 1.174001979827880859e+01 2.642117210779892922e-13 2.962373998448980528e-13 1.681347389873716347e-13 2.321860694161348437e-13
9.990000000000000000e+02 5.618861198425292969e+00 2.124233627319335938e+01 2.241796429481440756e-13 9.607699564314481355e-14 9.607699564314481355e-14 1.281026608575264181e-13
1.000000000000000000e+03 4.754439830780029297e+00 2.041977310180664062e+01 1.801443651368306309e-13 1.000802021008766196e-13 8.406736949368581735e-14 -1.441154866884536423e-13
1.001000000000000000e+03 5.301041126251220703e+00 9.499336242675781250e+00 -4.963977904941241359e-13 1.601283260719080226e-14 -1.441154866884536423e-13 2.081668171172168513e-13
1.002000000000000000e+03 5.937046527862548828e+00 1.026263618469238281e+01 -3.042437992078345088e-13 1.441154866884536423e-13 -4.803849782157240678e-14 6.405133042876320904e-14
1.003000000000000000e+03 4.872099399566650391e+00 2.508764266967773438e+01 3.322662782932750414e-13 -1.321058605389946461e-13 6.004811719476782494e-14 9.607699564314481355e-14
1.004000000000000000e+03 5.290906429290771484e+00 1.097696781158447266e+01 -2.722181475459800604e-13 1.120898214740720378e-13 -4.803849782157240678e-14 9.607699564314481355e-14
1.005000000000000000e+03 5.122804164886474609e+00 7.304191589355468750e+00 -3.502807039649363796e-13 1.701363388281057487e-13 -5.404330750817011586e-14 4.803849782157240678e-14
1.006000000000000000e+03 6.211874961853027344e+00 6.943030357360839844e+00 8.807057595141762341e-14 -8.006416303595401129e-15 2.401924891078620339e-14 6.405133042876320904e-14
1.007000000000000000e+03 5.365660190582275391e+00 2.366374206542968750e+01 -4.003208151797700565e-15 -1.160930347080674219e-13 -3.602887167211341057e-14 -9.607699564314481355e-14
1.008000000000000000e+03 5.385387897491455078e+00 2.425166893005371094e+01 4.203368339159019307e-13 1.801443651368306309e-13 1.801443651368306309e-13 2.001604042017532392e-13
1.009000000000000000e+03 9.438429832458496094e+00 7.131386756896972656e+00 -1.501202997631831404e-13 -1.100882216333379238e-13 -7.806255641895631925e-14 1.561251128379126385e-13
1.010000000000000000e+03 8.013284683227539062e+00 7.248612880706787109e+00 -1.721379386688398627e-13 -2.802245536851800944e-14 -6.004811719476782494e-14 4.003208151797700565e-14
1.011000000000000000e+03 5.581008911132812500e+00 2.490125465393066406e+01 1.641315257533762506e-13 -2.041636038832214672e-13 -1.200962445539310169e-14 -1.120898214740720378e-13
1.012000000000000000e+03 1.202555179595947266e+01 8.227667808532714844e+00 -3.202566521438160452e-14 -2.882309733769072846e-13 -9.607699564314481355e-14 -1.000802037949425141e-14
1.013000000000000000e+03 1.077047824859619141e+01 6.270205974578857422e+00 -1.301042606982605321e-13 -4.103288347122313606e-13 -1.621299259126421366e-13 1.361090737729900302e-13
1.014000000000000000e+03 2.478848075866699219e+01 2.663127708435058594e+01 3.202566521438160452e-14 -3.202566521438160452e-14 0.000000000000000000e+00 -9.607699564314481355e-14
1.015000000000000000e+03 2.156817245483398438e+01 1.972399902343750000e+01 1.681347389873716347e-13 -2.481988952470620680e-13 -2.401924891078620339e-14 -9.007218256841531545e-14
1.016000000000000000e+03 7.775969982147216797e+00 3.023891067504882812e+01 6.805453688649501509e-14 5.204170427930421283e-14 3.602887167211341057e-14 4.803849782157240678e-14
1.017000000000000000e+03 6.520911693572998047e+00 3.015124130249023438e+01 2.522020949285302960e-13 1.080866150163402317e-13 1.080866150163402317e-13 1.321058605389946461e-13
1.018000000000000000e+03 1.666027832031250000e+01 1.617808723449707031e+01 -2.802245536851800944e-14 -3.322662782932750414e-13 -1.080866150163402317e-13 -4.403528797570881170e-14
1.019000000000000000e+03 1.720602798461914062e+01 1.459317493438720703e+01 -1.148420280313450226e-13 -2.679647411081564901e-13 -1.148420280313450226e-13 -5.379310752807835161e-14
1.020000000000000000e+03 1.990821456909179688e+01 1.653482055664062500e+01 2.794739537449048017e-13 -2.919839934070744825e-13 -3.753007324672989059e-15 7.506014988159157020e-14
1.021000000000000000e+03 2.051460838317871094e+01 1.832038879394531250e+01 1.433648935244419276e-13 -3.059952193972675927e-13 -4.878909776184769953e-14 -1.766415518630187753e-13
1.022000000000000000e+03 2.437340927124023438e+01 2.281140899658203125e+01 1.040834085586084257e-13 -1.841475648182988589e-13 -2.401924891078620339e-14 -2.642117210779892922e-13
1.023000000000000000e+03 2.282094001770019531e+01 2.020044517517089844e+01 5.204170427930421283e-14 -4.123304345529654746e-13 -1.080866150163402317e-13 -9.207378240914942946e-14
1.024000000000000000e+03 1.536532402038574219e+01 1.218327522277832031e+01 5.004010189747125706e-16 -3.657931433882072314e-13 -1.095878216731543953e-13 1.000802037949425141e-14
1.025000000000000000e+03 1.486049270629882812e+01 1.174899768829345703e+01 8.706977603105056640e-14 -5.574467211617861739e-13 -1.411130869273524713e-13 -1.461170865291877563e-13
1.026000000000000000e+03 2.611755371093750000e+01 2.680960083007812500e+01 1.281026608575264181e-13 3.202566521438160452e-14 4.803849782157240678e-14 6.405133042876320904e-14
1.027000000000000000e+03 8.849621772766113281e+00 6.813904285430908203e+00 -4.523625126828106913e-13 -1.481186999224490264e-13 -1.801443651368306309e-13 5.604491073703601889e-14
1.028000000000000000e+03 1.188235378265380859e+01 7.173260688781738281e+00 7.005614350349270714e-14 -6.104891982564031316e-13 -1.621299259126421366e-13 9.807859548387892756e-14
1.029000000000000000e+03 9.131366729736328125e+00 7.760799884796142578e+00 -2.221780431074099615e-13 -1.981587908084919691e-13 -1.261010474642651480e-13 8.006416303595401129e-15
1.030000000000000000e+03 9.781951904296875000e+00 6.472667694091796875e+00 -2.141716301919463494e-13 -4.603689120457471473e-14 -7.806255641895631925e-14 6.004811719476782494e-14
1.031000000000000000e+03 2.567055511474609375e+01 2.479210281372070312e+01 -1.301042606982605321e-14 -1.371098736933570872e-13 -4.503609128420765773e-14 -6.605293026949732305e-14
1.032000000000000000e+03 2.659932518005371094e+01 2.546972846984863281e+01 1.381106736137241442e-13 2.001604075898850282e-15 4.203368474684290867e-14 -6.405133042876320904e-14
1.033000000000000000e+03 2.736872100830078125e+01 2.716905975341796875e+01 3.402726844324750755e-14 -5.404330750817011586e-14 -6.004812227696550847e-15 9.607699564314481355e-14
1.034000000000000000e+03 2.429713058471679688e+01 2.085383224487304688e+01 8.907137587178468041e-14 -2.191756433463087905e-13 -3.903127820947815962e-14 -1.220978477827969200e-13
1.035000000000000000e+03 2.529420089721679688e+01 2.284220123291015625e+01 1.801443651368306309e-13 -2.201764432666758475e-13 -1.200962445539310169e-14 -1.521218996039172544e-13
1.036000000000000000e+03 1.323810768127441406e+01 1.028098487854003906e+01 -2.041636038832214672e-13 -3.162534253572935050e-13 -1.561251128379126385e-13 -7.606094980195862720e-14
1.037000000000000000e+03 5.963977336883544922e+00 8.881413459777832031e+00 -4.563657394693332314e-13 2.161732300326804634e-13 -7.205774334422682115e-14 2.722181475459800604e-13
1.038000000000000000e+03 1.998405456542968750e+01 1.887253189086914062e+01 3.312654512678536722e-13 -3.612895301940283188e-13 -9.007217918028352643e-15 -4.603689120457471473e-14
1.039000000000000000e+03 1.826652908325195312e+01 1.585659790039062500e+01 -1.020818019416107336e-13 -2.381908689383371858e-13 -1.020818019416107336e-13 -2.637113346703329197e-13
1.040000000000000000e+03 1.935178375244140625e+01 1.592409515380859375e+01 2.777225538842624519e-14 -1.253504543002534333e-13 -2.927345865710861972e-14 -2.161732300326804634e-13
1.041000000000000000e+03 3.828493118286132812e+01 4.126051712036132812e+01 1.000802021008766196e-13 -1.401122870069854143e-13 -1.200962445539310169e-14 6.805453688649501509e-14
1.042000000000000000e+03 2.975311279296875000e+01 2.853184700012207031e+01 -2.401924891078620339e-14 -5.604491073703601889e-14 -2.401924891078620339e-14 8.807057595141762341e-14
1.043000000000000000e+03 2.853828430175781250e+01 2.734440231323242188e+01 5.204170427930421283e-14 -9.207378240914942946e-14 -1.200962445539310169e-14 2.401924891078620339e-14
1.044000000000000000e+03 6.797439098358154297e+00 3.327947616577148438e+01 8.406736949368581735e-14 -1.240994476235310340e-13 -1.200962445539310169e-14 1.601283260719080226e-13
1.045000000000000000e+03 6.493385791778564453e+00 3.465813827514648438e+01 2.602085213965210642e-14 -4.603689120457471473e-14 -6.004812227696550847e-15 -1.601283260719080226e-14
1.046000000000000000e+03 3.186086845397949219e+01 3.321827697753906250e+01 1.405501285018165292e-13 -1.799567168458277022e-13 -1.182197362329133125e-14 -1.451162933850842773e-14
1.047000000000000000e+03 2.969551849365234375e+01 3.449186706542968750e+01 7.305854326459387815e-14 -1.230986477031639770e-13 -1.501202929869195624e-14 -4.003208151797700565e-15
1.048000000000000000e+03 3.633818054199218750e+01 3.607333755493164062e+01 6.605293026949732305e-14 -2.461972954063279539e-13 -5.404330750817011586e-14 -2.602085213965210642e-14
1.049000000000000000e+03 8.581307411193847656e+00 7.469975471496582031e+00 -1.120898214740720378e-13 -4.803849782157240678e-14 -4.803849782157240678e-14 1.441154866884536423e-13
1.050000000000000000e+03 1.216325283050537109e+01 9.292843818664550781e+00 1.100882199392720293e-14 -4.103288143834406265e-14 -9.007217918028352643e-15 2.481988952470620680e-13
1.051000000000000000e+03 6.564360141754150391e+00 2.901329994201660156e+01 1.641315257533762506e-13 -4.403528797570881170e-14 3.602887167211341057e-14 -6.405133042876320904e-14
1.052000000000000000e+03 1.554337596893310547e+01 1.390861320495605469e+01 2.139214234355910071e-13 -4.115798142838994478e-13 -5.929751725449253219e-14 7.205774334422682115e-14
1.053000000000000000e+03 1.773910140991210938e+01 1.521856880187988281e+01 4.961006750531498505e-15 1.157568270025114560e-14 4.961006750531498505e-15 -6.533360278563465906e-14
1.054000000000000000e+03 1.669861412048339844e+01 1.508978080749511719e+01 3.415236843329338967e-13 -1.638813325495480644e-13 5.329270756789482311e-14 -2.201764398785440585e-14
1.055000000000000000e+03 1.378153991699218750e+01 1.078157711029052734e+01 -1.801443583605670529e-14 -2.822261738547049426e-13 -9.007218256841531545e-14 -5.204170427930421283e-14
1.056000000000000000e+03 7.355362892150878906e+00 1.169897556304931641e+01 -4.443560862148199231e-13 -7.606094980195862720e-14 -1.561251128379126385e-13 -1.601283260719080226e-14
1.057000000000000000e+03 5.465615749359130859e+00 8.124525070190429688e+00 -5.284234421559785844e-13 4.803849782157240678e-14 -1.441154866884536423e-13 1.761411519028352468e-13
1.058000000000000000e+03 6.152181625366210938e+00 7.588288307189941406e+00 -3.362694779747432694e-13 1.761411519028352468e-13 -4.803849782157240678e-14 1.200962343895356499e-13
1.059000000000000000e+03 7.281216621398925781e+00 7.757773399353027344e+00 -1.040834085586084257e-13 -1.361090737729900302e-13 -7.205774334422682115e-14 -3.202566521438160452e-14
1.060000000000000000e+03 6.265161037445068359e+00 2.326206588745117188e+01 0.000000000000000000e+00 -3.202566521438160452e-13 -9.607699564314481355e-14 -1.601283260719080226e-14
1.061000000000000000e+03 5.615403652191162109e+00 2.724617004394531250e+01 6.405133042876320904e-14 -6.405133042876320904e-14 0.000000000000000000e+00 1.761411519028352468e-13
1.062000000000000000e+03 6.432466506958007812e+00 2.239173889160156250e+01 1.200962343895356499e-13 -4.003208151797700565e-14 2.401924891078620339e-14 1.601283260719080226e-13
1.063000000000000000e+03 6.318446636199951172e+00 2.714448165893554688e+01 3.642919299551294898e-13 -4.003208151797700565e-15 1.080866150163402317e-13 -1.601283260719080226e-14
1.064000000000000000e+03 7.823731422424316406e+00 7.879931449890136719e+00 2.241796429481440756e-13 -2.241796429481440756e-13 0.000000000000000000e+00 6.405133042876320904e-14
1.065000000000000000e+03 6.185873985290527344e+00 1.651478767395019531e+01 1.281026608575264181e-13 -1.281026608575264181e-13 0.000000000000000000e+00 1.200962343895356499e-13
1.066000000000000000e+03 6.187606811523437500e+00 1.570574378967285156e+01 7.205774334422682115e-14 8.006416303595401129e-15 2.401924891078620339e-14 5.604491073703601889e-14
1.067000000000000000e+03 5.466758728027343750e+00 2.038391113281250000e+01 -1.521218996039172544e-13 7.205774334422682115e-14 -2.401924891078620339e-14 2.401924891078620339e-14
1.068000000000000000e+03 6.370662689208984375e+00 2.105239295959472656e+01 -5.204170427930421283e-14 9.207378240914942946e-14 1.200962445539310169e-14 1.200962445539310169e-14
1.069000000000000000e+03 8.844055175781250000e+00 8.350460052490234375e+00 -1.841475648182988589e-13 -2.161732300326804634e-13 -1.200962343895356499e-13 2.161732300326804634e-13
1.070000000000000000e+03 5.926425933837890625e+00 9.559855461120605469e+00 9.607699564314481355e-14 2.241796429481440756e-13 9.607699564314481355e-14 2.722181475459800604e-13
1.071000000000000000e+03 5.341212749481201172e+00 1.251679515838623047e+01 -1.521218996039172544e-13 -2.481988952470620680e-13 -1.200962343895356499e-13 0.000000000000000000e+00
1.072000000000000000e+03 6.104275703430175781e+00 1.808973503112792969e+01 2.922341730583755126e-13 -1.721379386688398627e-13 3.602887167211341057e-14 1.601283260719080226e-13
1.073000000000000000e+03 6.142035484313964844e+00 1.409888744354248047e+01 -2.001604075898850282e-14 6.004811719476782494e-14 1.200962445539310169e-14 1.200962343895356499e-13
1.074000000000000000e+03 6.114271163940429688e+00 2.027663040161132812e+01 5.204170427930421283e-14 6.805453688649501509e-14 3.602887167211341057e-14 9.607699564314481355e-14
1.075000000000000000e+03 5.382562637329101562e+00 1.958498573303222656e+01 1.721379386688398627e-13 -1.321058605389946461e-13 1.200962445539310169e-14 8.006416303595401129e-14
1.076000000000000000e+03 6.158023834228515625e+00 1.731393241882324219e+01 8.006416303595401129e-14 8.006416303595401129e-14 4.803849782157240678e-14 3.202566521438160452e-14
1.077000000000000000e+03 2.040697860717773438e+01 1.943944740295410156e+01 2.241796429481440756e-13 -5.444362950919601207e-13 -9.607699564314481355e-14 -9.207378240914942946e-14
1.078000000000000000e+03 5.795762062072753906e+00 2.563493347167968750e+01 1.601283260719080226e-14 1.441154866884536423e-13 4.803849782157240678e-14 4.803849782157240678e-14
1.079000000000000000e+03 6.100503921508789062e+00 1.330620479583740234e+01 -1.040834085586084257e-13 -1.361090737729900302e-13 -7.205774334422682115e-14 2.401924687790712998e-13
1.080000000000000000e+03 6.053545475006103516e+00 1.252056503295898438e+01 1.441154866884536423e-13 3.362694779747432694e-13 1.441154866884536423e-13 2.401924687790712998e-13
1.081000000000000000e+03 1.269838714599609375e+01 9.782438278198242188e+00 -1.491194998428160834e-13 -2.011612041221202962e-13 -1.050842084789754827e-13 8.006416303595401129e-15
1.082000000000000000e+03 5.969374656677246094e+00 1.098940086364746094e+01 2.001604042017532392e-13 4.003208151797700565e-14 7.205774334422682115e-14 2.161732300326804634e-13
1.083000000000000000e+03 6.719719409942626953e+00 7.661830425262451172e+00 1.200962445539310169e-14 2.802245536851800944e-14 1.200962445539310169e-14 2.481988952470620680e-13
1.084000000000000000e+03 6.489300251007080078e+00 2.540809059143066406e+01 1.361090737729900302e-13 1.040834085586084257e-13 7.205774334422682115e-14 2.401924891078620339e-14
1.085000000000000000e+03 5.372826576232910156e+00 2.660205268859863281e+01 8.206576287668812530e-14 -2.201764398785440585e-14 1.801443583605670529e-14 8.406736949368581735e-14
1.086000000000000000e+03 6.289983749389648438e+00 2.460888099670410156e+01 -1.000802021008766196e-13 1.401122870069854143e-13 1.200962445539310169e-14 8.807057595141762341e-14
1.087000000000000000e+03 1.936150741577148438e+01 1.712573051452636719e+01 -4.453568793589234021e-14 -2.106688169181344938e-13 -7.656135653840573374e-14 -2.320609524854300165e-13
1.088000000000000000e+03 7.970969676971435547e+00 3.172498321533203125e+01 1.901523778930283570e-13 -9.007218256841531545e-14 3.002405859738391247e-14 1.160930347080674219e-13
1.089000000000000000e+03 1.963899230957031250e+01 1.959200859069824219e+01 6.805453688649501509e-14 -4.283432603838926989e-13 -1.080866150163402317e-13 -1.361090737729900302e-13
1.090000000000000000e+03 1.036970710754394531e+01 6.884279727935791016e+00 -2.522020949285302960e-13 -2.682149478645118323e-13 -1.561251128379126385e-13 8.006416303595401129e-14
1.091000000000000000e+03 1.392125701904296875e+01 1.186909866333007812e+01 -1.000802037949425141e-14 -3.702967294773318319e-13 -1.140914348673333079e-13 -1.180946345488015359e-13
1.092000000000000000e+03 2.074298858642578125e+01 2.024515724182128906e+01 7.205774334422682115e-14 -1.521218996039172544e-13 -2.401924891078620339e-14 -7.205774334422682115e-14
1.093000000000000000e+03 2.182394599914550781e+01 2.216919708251953125e+01 2.491996951674291250e-13 -2.191756433463087905e-13 9.007217918028352643e-15 -1.381106736137241442e-13
1.094000000000000000e+03 2.389824485778808594e+01 2.143963241577148438e+01 1.621299259126421366e-13 -2.201764398785440585e-14 4.203368474684290867e-14 -1.160930347080674219e-13
1.095000000000000000e+03 2.344047737121582031e+01 2.228845977783203125e+01 1.951563910473907981e-13 -1.451162866088206993e-13 1.501202929869195624e-14 -9.007218256841531545e-14
1.096000000000000000e+03 1.510941410064697266e+01 1.273377132415771484e+01 8.006416303595401129e-15 -4.083272077664429345e-13 -1.200962343895356499e-13 8.006416303595401129e-15
1.097000000000000000e+03 2.264334869384765625e+01 2.150598907470703125e+01 2.091676170375839083e-13 -1.391114735340912012e-13 2.101684237342145434e-14 -1.341074739322559162e-13
1.098000000000000000e+03 1.055541896820068359e+01 7.917654991149902344e+00 -1.120898214740720378e-13 -3.682951296365977178e-13 -1.441154866884536423e-13 1.681347389873716347e-13
1.099000000000000000e+03 1.281988716125488281e+01 1.086672496795654297e+01 -1.045838085187919542e-13 -4.108292211198877331e-13 -1.546239129573620530e-13 6.004812227696550847e-15
1.100000000000000000e+03 1.148299407958984375e+01 7.767500877380371094e+00 -1.401122768425900472e-14 -6.465181038098344324e-13 -1.981587908084919691e-13 1.421138868477195283e-13
1.101000000000000000e+03 9.666181564331054688e+00 8.109619140625000000e+00 -1.781427517435693608e-13 -1.220978477827969200e-13 -9.007218256841531545e-14 2.522020949285302960e-13
1.102000000000000000e+03 2.578641891479492188e+01 2.831923675537109375e+01 9.607699564314481355e-14 -9.607699564314481355e-14 0.000000000000000000e+00 -4.003208151797700565e-14
1.103000000000000000e+03 1.621272850036621094e+01 1.555210590362548828e+01 2.739695541828859882e-14 -2.563304115407033512e-13 -6.868004022485621474e-14 -1.421138868477195283e-13
1.104000000000000000e+03 1.880357742309570312e+01 1.649690628051757812e+01 2.812253739343378856e-13 -4.113296346325984176e-13 -3.903127820947815962e-14 2.639615414266882620e-13
1.105000000000000000e+03 1.938270568847656250e+01 1.837313842773437500e+01 2.702165375408505793e-14 -2.171740299530475204e-13 -5.704571743366665393e-14 -2.251804564210382886e-13
1.106000000000000000e+03 8.014072418212890625e+00 3.517535018920898438e+01 6.705373696612795809e-14 -5.704571743366665393e-14 3.002406113848275424e-15 3.402726844324750755e-14
1.107000000000000000e+03 8.663382530212402344e+00 3.801450729370117188e+01 8.156536291650459680e-14 -5.654531408535133641e-14 7.506014649345978118e-15 2.401924891078620339e-14
1.108000000000000000e+03 3.006928443908691406e+01 2.993489456176757812e+01 8.206576287668812530e-14 -1.020818019416107336e-13 -6.004812227696550847e-15 -8.807057595141762341e-14
1.109000000000000000e+03 2.849716758728027344e+01 2.870645523071289062e+01 1.240994476235310340e-13 -8.406736949368581735e-14 1.200962445539310169e-14 -8.807057595141762341e-14
1.110000000000000000e+03 2.432155418395996094e+01 2.393592834472656250e+01 8.006416303595401129e-14 -2.401924687790712998e-13 -4.803849782157240678e-14 -1.120898214740720378e-13
1.111000000000000000e+03 2.665899848937988281e+01 3.240566635131835938e+01 0.000000000000000000e+00 -8.006416303595401129e-14 -2.401924891078620339e-14 0.000000000000000000e+00
1.112000000000000000e+03 2.858672142028808594e+01 3.032516098022460938e+01 4.003208151797700565e-15 -4.403528797570881170e-14 -1.200962445539310169e-14 8.006416303595401129e-15
1.113000000000000000e+03 8.240900993347167969e+00 3.339822006225585938e+01 1.441154866884536423e-13 -1.441154866884536423e-13 0.000000000000000000e+00 8.006416303595401129e-15
1.114000000000000000e+03 2.713212776184082031e+01 2.863033294677734375e+01 1.801443583605670529e-14 -3.803047490097931360e-14 -6.004812227696550847e-15 -2.401924891078620339e-14
1.115000000000000000e+03 1.308773231506347656e+01 1.312541294097900391e+01 2.141716301919463494e-13 -3.542839036464046076e-13 -4.203368474684290867e-14 1.060850151756061177e-13
1.116000000000000000e+03 1.510363101959228516e+01 1.455298233032226562e+01 -4.123304345529654746e-13 -4.283432603838926989e-13 -2.522020949285302960e-13 2.001604075898850282e-14
1.117000000000000000e+03 1.720688247680664062e+01 1.572139263153076172e+01 -2.149222369084852202e-13 -2.879807666205519423e-13 -1.508709064797220112e-13 -2.336872557441582732e-13
1.118000000000000000e+03 1.570193672180175781e+01 1.501485919952392578e+01 1.956567910075743266e-13 -1.906527778532118855e-13 1.501203056924137712e-15 2.351884725653678038e-14
1.119000000000000000e+03 8.128488540649414062e+00 8.598730087280273438e+00 1.761411519028352468e-13 -1.601283260719080226e-14 4.803849782157240678e-14 2.481988952470620680e-13
1.120000000000000000e+03 1.770429611206054688e+01 1.638539886474609375e+01 1.511210996835501974e-13 -5.014018172010137331e-13 -1.050842084789754827e-13 1.601283260719080226e-13
1.121000000000000000e+03 1.882907867431640625e+01 1.915944862365722656e+01 1.391114735340912012e-13 -3.292638514271195582e-13 -5.704571743366665393e-14 1.591275125990138095e-13
1.122000000000000000e+03 1.443470954895019531e+01 1.411434078216552734e+01 3.222582519845501592e-13 -4.223384337566360447e-13 -3.002405859738391247e-14 1.240994476235310340e-13
1.123000000000000000e+03 1.484470558166503906e+01 1.341044521331787109e+01 2.001604075898850282e-15 -1.020818019416107336e-13 -3.002405859738391247e-14 -4.003208151797700565e-15
1.124000000000000000e+03 6.898445129394531250e+00 1.409133148193359375e+01 -3.202566521438160452e-14 3.202566521438160452e-14 0.000000000000000000e+00 8.006416303595401129e-14
1.125000000000000000e+03 7.714577674865722656e+00 1.747325134277343750e+01 -3.602887167211341057e-14 -2.441956955655938399e-13 -8.406736949368581735e-14 1.200962343895356499e-13
1.126000000000000000e+03 1.976529502868652344e+01 2.059661293029785156e+01 3.222582519845501592e-13 -4.223384337566360447e-13 -3.002405859738391247e-14 -1.040834085586084257e-13
1.127000000000000000e+03 6.587217807769775391e+00 1.954166412353515625e+01 1.281026608575264181e-13 1.921539912862896271e-13 9.607699564314481355e-14 1.281026608575264181e-13
1.128000000000000000e+03 7.173845767974853516e+00 8.418287277221679688e+00 -8.006416303595401129e-14 -8.006416303595401129e-14 -4.803849782157240678e-14 2.722181475459800604e-13
1.129000000000000000e+03 7.384444713592529297e+00 2.587742424011230469e+01 2.582069215557869502e-13 -1.180946345488015359e-13 4.203368474684290867e-14 1.681347389873716347e-13
1.130000000000000000e+03 6.488156795501708984e+00 2.801663398742675781e+01 1.961571909677578551e-13 -7.606094980195862720e-14 3.602887167211341057e-14 1.361090737729900302e-13
1.131000000000000000e+03 6.042668342590332031e+00 1.883123779296875000e+01 1.120898214740720378e-13 -2.722181475459800604e-13 -4.803849782157240678e-14 0.000000000000000000e+00
1.132000000000000000e+03 6.838919639587402344e+00 1.818264579772949219e+01 -2.441956955655938399e-13 -3.562855034871387216e-13 -1.801443651368306309e-13 1.120898214740720378e-13
1.133000000000000000e+03 6.008721351623535156e+00 1.174475669860839844e+01 -2.882309733769072846e-13 -3.202566521438160452e-14 -9.607699564314481355e-14 0.000000000000000000e+00
1.134000000000000000e+03 6.662307739257812500e+00 2.009118080139160156e+01 1.641315257533762506e-13 -2.041636038832214672e-13 -1.200962445539310169e-14 -8.006416303595401129e-15
1.135000000000000000e+03 6.050821304321289062e+00 8.229425430297851562e+00 -2.481988952470620680e-13 1.681347389873716347e-13 -2.401924891078620339e-14 1.361090737729900302e-13
1.136000000000000000e+03 6.615535736083984375e+00 8.312602043151855469e+00 -1.921539912862896271e-13 1.921539912862896271e-13 0.000000000000000000e+00 1.601283260719080226e-14
1.137000000000000000e+03 6.834416389465332031e+00 1.329398632049560547e+01 3.202566521438160452e-14 -3.202566521438160452e-14 0.000000000000000000e+00 -8.006416303595401129e-14
1.138000000000000000e+03 8.549621582031250000e+00 8.897668838500976562e+00 2.201764398785440585e-14 -8.206576287668812530e-14 -1.801443583605670529e-14 1.040834085586084257e-13
1.139000000000000000e+03 6.577695369720458984e+00 1.025411701202392578e+01 1.841475648182988589e-13 2.161732300326804634e-13 1.200962343895356499e-13 1.521218996039172544e-13
1.140000000000000000e+03 1.294072437286376953e+01 1.197077083587646484e+01 4.803849782157240678e-14 -2.081668171172168513e-13 -4.803849782157240678e-14 -3.602887167211341057e-14
1.141000000000000000e+03 7.077754974365234375e+00 2.444340324401855469e+01 2.081668171172168513e-13 1.120898214740720378e-13 9.607699564314481355e-14 2.081668171172168513e-13
1.142000000000000000e+03 7.149523258209228516e+00 2.524588966369628906e+01 -1.601283260719080226e-14 -1.441154866884536423e-13 -4.803849782157240678e-14 8.006416303595401129e-14
1.143000000000000000e+03 1.109521293640136719e+01 8.357336044311523438e+00 -1.931547912066566841e-13 -3.572863034075057787e-13 -1.651323256737433076e-13 1.601283260719080226e-14
1.144000000000000000e+03 1.336511421203613281e+01 1.137193584442138672e+01 -1.050842084789754827e-13 -3.652927298754965468e-13 -1.411130869273524713e-13 4.203368474684290867e-14
1.145000000000000000e+03 7.727159976959228516e+00 1.571635723114013672e+01 -4.003208151797700565e-15 -1.160930347080674219e-13 -3.602887167211341057e-14 6.405133042876320904e-14
1.146000000000000000e+03 1.414036846160888672e+01 1.297128963470458984e+01 9.207378240914942946e-14 -3.722983564231202580e-13 -8.406736949368581735e-14 6.805453688649501509e-14
1.147000000000000000e+03 1.449488067626953125e+01 1.233915233612060547e+01 -2.241796429481440756e-13 -9.607699564314481355e-14 -9.607699564314481355e-14 0.000000000000000000e+00
1.148000000000000000e+03 1.351780700683593750e+01 1.248360919952392578e+01 -1.311050606186275891e-13 -2.391916688587042428e-13 -1.110890215537049808e-13 9.007218256841531545e-14
1.149000000000000000e+03 7.821682453155517578e+00 8.975234985351562500e+00 2.542037218743187221e-13 -7.405934996122451319e-14 5.404330750817011586e-14 2.121700303512122354e-13
1.150000000000000000e+03 1.228483009338378906e+01 1.036407852172851562e+01 -3.002406113848275424e-15 -3.672943297162306608e-13 -1.110890215537049808e-13 7.506014988159157020e-14
1.151000000000000000e+03 2.325493621826171875e+01 2.412284469604492188e+01 2.942358000041639388e-13 -1.140914348673333079e-13 5.404330750817011586e-14 -8.807057595141762341e-14
1.152000000000000000e+03 2.260746765136718750e+01 2.311916923522949219e+01 2.206768432268593760e-13 -1.256006475040816195e-13 2.852285871683332696e-14 -1.461170865291877563e-13
1.153000000000000000e+03 8.343412399291992188e+00 8.070858001708984375e+00 -6.405133042876320904e-14 -2.562053217150528361e-13 -9.607699564314481355e-14 4.003208151797700565e-14
1.154000000000000000e+03 1.000515270233154297e+01 7.504547119140625000e+00 -3.582871304329271478e-13 -3.022421993671003948e-13 -1.981587908084919691e-13 6.405133042876320904e-14
1.155000000000000000e+03 1.135080337524414062e+01 1.043733119964599609e+01 -1.185950345089850644e-13 -4.168340477471443872e-13 -1.606287260320915511e-13 3.803047490097931360e-14
1.156000000000000000e+03 1.534276008605957031e+01 1.553031253814697266e+01 -2.041636038832214672e-13 -4.763817378766743715e-13 -2.041636038832214672e-13 -1.160930347080674219e-13
1.157000000000000000e+03 1.878016090393066406e+01 1.774810028076171875e+01 3.851836655622414840e-13 -3.839326588855190847e-13 3.753007642310344279e-16 1.311050606186275891e-13
1.158000000000000000e+03 1.809804344177246094e+01 1.989581871032714844e+01 -2.552045048540268340e-14 -5.399326818977812081e-13 -1.696359388679222202e-13 -1.711371387484728057e-13
1.159000000000000000e+03 7.081230163574218750e+00 2.693678283691406250e+01 6.805453688649501509e-14 -2.682149478645118323e-13 -6.004811719476782494e-14 1.240994476235310340e-13
1.160000000000000000e+03 9.338191986083984375e+00 8.689557075500488281e+00 3.602887167211341057e-14 -3.963175816169839383e-13 -1.080866150163402317e-13 8.006416303595401129e-14
1.161000000000000000e+03 1.822128105163574219e+01 1.706854057312011719e+01 -2.752205540833448094e-14 -2.777225606605260300e-13 -9.157338244896590096e-14 -2.542037218743187221e-13
1.162000000000000000e+03 6.939261436462402344e+00 1.489919662475585938e+01 -7.205774334422682115e-14 -1.681347389873716347e-13 -7.205774334422682115e-14 2.161732300326804634e-13
1.163000000000000000e+03 7.463134765625000000e+00 2.126793479919433594e+01 2.037883073012156099e-13 -4.991500106039242768e-14 4.616199119462059686e-14 1.553745061213737677e-13
1.164000000000000000e+03 2.892089462280273438e+01 3.221191787719726562e+01 8.406736949368581735e-14 -1.240994476235310340e-13 -1.200962445539310169e-14 8.006416303595401129e-15
1.165000000000000000e+03 7.402948856353759766e+00 2.784886360168457031e+01 1.441154866884536423e-13 -1.441154866884536423e-13 0.000000000000000000e+00 -8.006416303595401129e-14
1.166000000000000000e+03 9.825234413146972656e+00 3.601832199096679688e+01 1.771419518232023038e-13 -2.702165375408505793e-14 4.503609128420765773e-14 -1.801443583605670529e-14
1.167000000000000000e+03 2.245842552185058594e+01 2.471380615234375000e+01 2.211772431870429045e-13 -2.311852694957677867e-13 -3.002406113848275424e-15 -6.104892389139845998e-14
1.168000000000000000e+03 2.657538223266601562e+01 3.486529541015625000e+01 1.040834085586084257e-13 -1.040834085586084257e-13 0.000000000000000000e+00 -6.004812227696550847e-15
1.169000000000000000e+03 9.110774993896484375e+00 2.999378585815429688e+01 1.681347389873716347e-13 -8.807057595141762341e-14 2.401924891078620339e-14 8.807057595141762341e-14
1.170000000000000000e+03 2.688972282409667969e+01 3.036370658874511719e+01 3.602887167211341057e-14 -1.561251128379126385e-13 -3.602887167211341057e-14 -4.003208151797700565e-14
1.171000000000000000e+03 3.178484916687011719e+01 4.075050735473632812e+01 1.180946345488015359e-13 -1.381106736137241442e-13 -6.004812227696550847e-15 -4.203368474684290867e-14
1.172000000000000000e+03 2.459383773803710938e+01 2.792086791992187500e+01 8.606896933441993136e-14 -1.461170865291877563e-13 -1.801443583605670529e-14 -4.003208151797700565e-14
1.173000000000000000e+03 6.980715274810791016e+00 2.065222740173339844e+01 2.702165477052459464e-13 7.005614350349270714e-14 1.020818019416107336e-13 1.040834085586084257e-13
1.174000000000000000e+03 6.528925895690917969e+00 8.944153785705566406e+00 8.807057595141762341e-14 -8.006416303595401129e-15 2.401924891078620339e-14 1.921539912862896271e-13
1.175000000000000000e+03 1.710709571838378906e+01 1.687080192565917969e+01 1.621299259126421366e-13 -3.422742774969456114e-13 -5.404330750817011586e-14 -8.406736949368581735e-14
1.176000000000000000e+03 1.575305557250976562e+01 1.593996143341064453e+01 1.200962445539310169e-14 2.802245536851800944e-14 1.200962445539310169e-14 -2.401924891078620339e-14
1.177000000000000000e+03 1.475324535369873047e+01 1.523964691162109375e+01 1.881507780522942430e-13 -3.082470259943570490e-13 -3.602887167211341057e-14 -8.006416303595401129e-15
1.178000000000000000e+03 6.695598125457763672e+00 1.172872543334960938e+01 2.602085213965210642e-13 1.801443651368306309e-13 1.321058605389946461e-13 1.761411519028352468e-13
1.179000000000000000e+03 1.019355678558349609e+01 8.505848884582519531e+00 -1.361090737729900302e-13 -4.243400607024244708e-13 -1.681347389873716347e-13 4.003208151797700565e-14
1.180000000000000000e+03 1.175942897796630859e+01 9.872050285339355469e+00 -3.002406113848275424e-15 -3.672943297162306608e-13 -1.110890215537049808e-13 4.003208151797700565e-14
1.181000000000000000e+03 7.179865837097167969e+00 2.255748558044433594e+01 -3.602887167211341057e-14 -8.406736949368581735e-14 -3.602887167211341057e-14 1.841475648182988589e-13
1.182000000000000000e+03 1.093300437927246094e+01 2.429630470275878906e+01 1.050842084789754827e-13 -2.752205473070812314e-13 -5.104090097080536681e-14 2.802245536851800944e-14
1.183000000000000000e+03 6.959527969360351562e+00 1.571795940399169922e+01 2.321860694161348437e-13 8.006416303595401129e-15 7.205774334422682115e-14 8.006416303595401129e-14
1.184000000000000000e+03 9.413846015930175781e+00 1.771131515502929688e+01 5.004010189747125706e-16 -1.055846084391590112e-13 -3.152526186606628700e-14 -2.001604075898850282e-15
1.185000000000000000e+03 6.513470649719238281e+00 9.582586288452148438e+00 -3.362694779747432694e-13 1.761411519028352468e-13 -4.803849782157240678e-14 1.601283260719080226e-13
1.186000000000000000e+03 1.871937942504882812e+01 2.098746299743652344e+01 3.042437992078345088e-13 -3.042437992078345088e-13 0.000000000000000000e+00 3.602887167211341057e-14
1.187000000000000000e+03 1.071621513366699219e+01 8.937253952026367188e+00 -3.712975565027532010e-13 -1.591275125990138095e-13 -1.591275125990138095e-13 1.060850151756061177e-13
1.188000000000000000e+03 1.186400794982910156e+01 1.093737220764160156e+01 -4.193360339955348737e-13 -2.311852694957677867e-13 -1.951563910473907981e-13 1.561251128379126385e-13
1.189000000000000000e+03 6.711658000946044922e+00 1.891230201721191406e+01 6.805453688649501509e-14 -2.682149478645118323e-13 -6.004811719476782494e-14 7.205774334422682115e-14
1.190000000000000000e+03 7.464512825012207031e+00 2.015973663330078125e+01 2.652125379390152943e-14 1.686351389475551632e-13 5.854691731421723944e-14 8.256616283687165381e-14
1.191000000000000000e+03 7.586557865142822266e+00 1.835132217407226562e+01 8.406736949368581735e-14 -1.240994476235310340e-13 -1.200962445539310169e-14 1.281026608575264181e-13
1.192000000000000000e+03 7.375838279724121094e+00 1.912969970703125000e+01 -1.601283260719080226e-14 -1.441154866884536423e-13 -4.803849782157240678e-14 2.401924891078620339e-14
1.193000000000000000e+03 7.874767780303955078e+00 2.654880142211914062e+01 9.007218256841531545e-14 -1.100882216333379238e-13 -6.004812227696550847e-15 -1.601283260719080226e-14
1.194000000000000000e+03 8.235505104064941406e+00 1.031552696228027344e+01 -2.542037218743187221e-13 -2.461972954063279539e-13 -1.501202997631831404e-13 8.807057595141762341e-14
1.195000000000000000e+03 7.959513187408447266e+00 1.167596530914306641e+01 -8.006416303595401129e-15 8.807057595141762341e-14 2.401924891078620339e-14 2.081668171172168513e-13
1.196000000000000000e+03 6.759629249572753906e+00 1.250724887847900391e+01 1.601283260719080226e-14 1.441154866884536423e-13 4.803849782157240678e-14 -3.202566521438160452e-14
1.197000000000000000e+03 7.959460735321044922e+00 2.456775474548339844e+01 2.642117210779892922e-13 -1.841475648182988589e-13 2.401924891078620339e-14 -9.607699564314481355e-14
1.198000000000000000e+03 8.867861747741699219e+00 2.374504852294921875e+01 1.761411519028352468e-13 -1.761411519028352468e-13 0.000000000000000000e+00 8.006416303595401129e-15
1.199000000000000000e+03 1.239223575592041016e+01 1.145187473297119141e+01 6.605293026949732305e-14 -1.661331391466375207e-13 -3.002405859738391247e-14 1.120898214740720378e-13
1.200000000000000000e+03 7.035361289978027344e+00 9.550145149230957031e+00 1.601283260719080226e-14 1.441154866884536423e-13 4.803849782157240678e-14 3.202566521438160452e-13
1.201000000000000000e+03 1.123736286163330078e+01 9.394623756408691406e+00 -1.060850151756061177e-13 -2.742197473867141744e-13 -1.140914348673333079e-13 1.741395520621011328e-13
1.202000000000000000e+03 8.024915695190429688e+00 2.261327743530273438e+01 1.761411519028352468e-13 -1.761411519028352468e-13 0.000000000000000000e+00 1.601283260719080226e-14
1.203000000000000000e+03 1.147147083282470703e+01 1.258712100982666016e+01 -2.236792429879605471e-13 -1.416134868875359998e-13 -1.095878216731543953e-13 1.100882216333379238e-13
1.204000000000000000e+03 7.326909065246582031e+00 1.091364002227783203e+01 -1.841475648182988589e-13 1.040834085586084257e-13 -2.401924891078620339e-14 1.921539912862896271e-13
1.205000000000000000e+03 9.477091789245605469e+00 9.624559402465820312e+00 -3.702967498061225660e-14 -5.134114162454184171e-13 -1.651323256737433076e-13 9.407538902614712151e-14
1.206000000000000000e+03 1.815103149414062500e+01 1.838474655151367188e+01 1.130906281707026728e-13 -3.632911300347624328e-13 -7.506014988159157020e-14 -2.582069215557869502e-13
1.207000000000000000e+03 1.607893943786621094e+01 1.655411338806152344e+01 2.161732300326804634e-13 -4.563657394693332314e-13 -7.205774334422682115e-14 -1.321058605389946461e-13
1.208000000000000000e+03 2.083163833618164062e+01 2.285932159423828125e+01 2.512012950081632390e-13 -3.212574520641831022e-13 -2.101684237342145434e-14 -5.004010105043830980e-14
1.209000000000000000e+03 2.162474060058593750e+01 2.388112449645996094e+01 7.141660716579109613e-14 -2.069940085221849690e-13 -4.067321769641273066e-14 -6.158059630799461726e-14
1.210000000000000000e+03 1.374093723297119141e+01 1.364595222473144531e+01 -1.040834085586084257e-13 -1.361090737729900302e-13 -7.205774334422682115e-14 2.802245536851800944e-14
1.211000000000000000e+03 8.398955345153808594e+00 2.746763992309570312e+01 2.622101212372551782e-13 -1.621299259126421366e-13 3.002405859738391247e-14 1.000802021008766196e-13
1.212000000000000000e+03 7.570076465606689453e+00 1.325312519073486328e+01 -8.807057595141762341e-14 8.006416303595401129e-15 -2.401924891078620339e-14 1.040834085586084257e-13
1.213000000000000000e+03 1.084461402893066406e+01 9.957612037658691406e+00 -5.304250758780305885e-14 -1.701363422162375377e-14 -2.101684237342145434e-14 3.002405859738391247e-14
1.214000000000000000e+03 8.124023437500000000e+00 2.170458602905273438e+01 6.004811719476782494e-14 -1.801443651368306309e-13 -3.602887167211341057e-14 8.006416303595401129e-14
1.215000000000000000e+03 1.543034172058105469e+01 1.679602622985839844e+01 -8.006416303595401129e-15 -2.321860694161348437e-13 -7.205774334422682115e-14 8.006416303595401129e-14
1.216000000000000000e+03 1.759392547607421875e+01 1.761226463317871094e+01 8.907137587178468041e-14 -4.193360339955348737e-13 -9.907939540424598457e-14 1.601283260719080226e-14
1.217000000000000000e+03 7.646923542022705078e+00 2.894125747680664062e+01 2.842277736954390566e-13 -8.406736949368581735e-14 6.004811719476782494e-14 2.481988952470620680e-13
1.218000000000000000e+03 1.743617248535156250e+01 1.895771789550781250e+01 4.903929774193946378e-14 -4.193360339955348737e-13 -1.110890215537049808e-13 1.301042606982605321e-13
1.219000000000000000e+03 2.456711578369140625e+01 2.526124572753906250e+01 1.240994476235310340e-13 -8.406736949368581735e-14 1.200962445539310169e-14 -1.240994476235310340e-13
1.220000000000000000e+03 9.681282997131347656e+00 3.307807159423828125e+01 1.481186999224490264e-13 -2.802245536851800944e-14 3.602887167211341057e-14 -3.602887167211341057e-14
1.221000000000000000e+03 2.335179328918457031e+01 2.523763275146484375e+01 2.321860694161348437e-13 -1.521218996039172544e-13 2.401924891078620339e-14 -1.921539912862896271e-13
1.222000000000000000e+03 1.461170482635498047e+01 3.760502624511718750e+01 9.407538902614712151e-14 -7.405934996122451319e-14 6.004812227696550847e-15 4.003208151797700565e-14
1.223000000000000000e+03 1.035054874420166016e+01 3.969465255737304688e+01 1.145918348275168364e-13 6.054852393121493148e-14 5.254210423948774134e-14 1.100882199392720293e-14
1.224000000000000000e+03 1.068983745574951172e+01 3.423430633544921875e+01 2.461972954063279539e-13 -6.605293026949732305e-14 5.404330750817011586e-14 -3.202566521438160452e-14
1.225000000000000000e+03 2.428945159912109375e+01 3.186748504638671875e+01 8.206576287668812530e-14 -1.821459649775647449e-13 -3.002405859738391247e-14 -4.803849782157240678e-14
1.226000000000000000e+03 3.388487243652343750e+01 3.674486160278320312e+01 8.106496295632106830e-14 -1.311050606186275891e-13 -1.501202929869195624e-14 -5.004010105043830980e-14
1.227000000000000000e+03 2.278451347351074219e+01 2.636064147949218750e+01 9.407538902614712151e-14 -1.541235129971785245e-13 -1.801443583605670529e-14 -3.702967498061225660e-14
1.228000000000000000e+03 1.455138397216796875e+01 1.603079032897949219e+01 2.001604075898850282e-14 -2.201764432666758475e-13 -6.004811719476782494e-14 -7.205774334422682115e-14
1.229000000000000000e+03 8.624851226806640625e+00 2.586645698547363281e+01 1.931547912066566841e-13 -4.033232081646076495e-13 -6.305052373213257400e-14 6.204972381176551699e-14
1.230000000000000000e+03 7.987618923187255859e+00 2.362062263488769531e+01 5.604491073703601889e-14 2.401924891078620339e-14 2.401924891078620339e-14 1.681347389873716347e-13
1.231000000000000000e+03 8.637162208557128906e+00 9.774847030639648438e+00 -2.782229470681824024e-13 -3.022421993671003948e-13 -1.741395520621011328e-13 6.004811719476782494e-14
1.232000000000000000e+03 1.405198669433593750e+01 1.486021614074707031e+01 -5.604491073703601889e-14 -3.442758773376797254e-13 -1.200962343895356499e-13 4.003208151797700565e-14
1.233000000000000000e+03 8.815522193908691406e+00 2.864297485351562500e+01 1.421138868477195283e-13 3.803047490097931360e-14 5.404330750817011586e-14 4.003208151797700565e-15
1.234000000000000000e+03 7.813959598541259766e+00 2.537284469604492188e+01 1.501202997631831404e-13 1.100882216333379238e-13 7.806255641895631925e-14 1.601283260719080226e-13
1.235000000000000000e+03 1.646227455139160156e+01 1.728204536437988281e+01 1.180946345488015359e-13 -2.582069215557869502e-13 -4.203368474684290867e-14 3.202566521438160452e-14
1.236000000000000000e+03 7.762883663177490234e+00 1.657985115051269531e+01 -2.001604075898850282e-14 -1.000802021008766196e-13 -3.602887167211341057e-14 1.120898214740720378e-13
1.237000000000000000e+03 7.218053340911865234e+00 1.016936492919921875e+01 -4.643721388322696875e-13 -1.601283260719080226e-14 -1.441154866884536423e-13 5.604491073703601889e-14
1.238000000000000000e+03 7.775964736938476562e+00 9.861287117004394531e+00 1.220978477827969200e-13 9.807859548387892756e-14 6.605293026949732305e-14 2.181748434259417335e-13
1.239000000000000000e+03 8.305906295776367188e+00 1.842624855041503906e+01 -9.607699564314481355e-14 -2.241796429481440756e-13 -9.607699564314481355e-14 2.241796429481440756e-13
1.240000000000000000e+03 8.763562202453613281e+00 1.064651679992675781e+01 -1.801443583605670529e-14 -2.822261738547049426e-13 -9.007218256841531545e-14 2.121700303512122354e-13
1.241000000000000000e+03 7.921313762664794922e+00 1.959127807617187500e+01 1.481186999224490264e-13 -2.802245536851800944e-14 3.602887167211341057e-14 1.546239129573620530e-13
1.242000000000000000e+03 8.705418586730957031e+00 2.050207901000976562e+01 1.641315257533762506e-13 -4.403528797570881170e-14 3.602887167211341057e-14 7.205774334422682115e-14
1.243000000000000000e+03 7.898834228515625000e+00 2.065894889831542969e+01 1.661331391466375207e-13 -6.605293026949732305e-14 3.002405859738391247e-14 5.204170427930421283e-14
1.244000000000000000e+03 8.944495201110839844e+00 2.483772468566894531e+01 6.405133042876320904e-14 -6.405133042876320904e-14 0.000000000000000000e+00 1.281026608575264181e-13
1.245000000000000000e+03 9.637344360351562500e+00 1.147862339019775391e+01 6.330072371222433825e-14 -6.580273028940555879e-14 -7.506015284620688559e-16 4.453568793589234021e-14
1.246000000000000000e+03 1.194659042358398438e+01 1.203082656860351562e+01 -9.107298248878237246e-14 -3.592879303532942048e-13 -1.351082738526229732e-13 1.125902282105191443e-13
1.247000000000000000e+03 7.445690155029296875e+00 1.246905040740966797e+01 6.405133042876320904e-14 -6.405133042876320904e-14 0.000000000000000000e+00 1.441154866884536423e-13
1.248000000000000000e+03 1.249413299560546875e+01 1.257887649536132812e+01 -7.806255641895631925e-14 -1.821459649775647449e-13 -7.806255641895631925e-14 1.341074739322559162e-13
1.249000000000000000e+03 9.837639808654785156e+00 9.076102256774902344e+00 -1.921539912862896271e-13 -1.281026608575264181e-13 -9.607699564314481355e-14 9.607699564314481355e-14
1.250000000000000000e+03 1.717186737060546875e+01 2.043807792663574219e+01 -1.801443583605670529e-14 -3.622903301143953758e-13 -1.140914348673333079e-13 1.200962445539310169e-14
1.251000000000000000e+03 1.431237983703613281e+01 1.796294021606445312e+01 -4.003208151797700565e-15 -4.363496868518834670e-13 -1.321058605389946461e-13 4.003208151797700565e-14
1.252000000000000000e+03 1.330735683441162109e+01 1.436554813385009766e+01 2.532028948488973530e-13 -3.032429992874674518e-13 -1.501202929869195624e-14 2.021620040424873532e-13
1.253000000000000000e+03 1.093437290191650391e+01 1.098211002349853516e+01 -3.257610652583620148e-13 -4.398524730206410105e-13 -2.296840560626900452e-13 3.002405859738391247e-14
1.254000000000000000e+03 7.446208000183105469e+00 9.313377380371093750e+00 1.401122870069854143e-13 6.004811719476782494e-14 6.004811719476782494e-14 1.961571909677578551e-13
1.255000000000000000e+03 8.553329467773437500e+00 1.918170928955078125e+01 -2.001604075898850282e-15 -2.181748434259417335e-13 -6.605293026949732305e-14 -1.601283260719080226e-14
1.256000000000000000e+03 9.001955032348632812e+00 9.243587493896484375e+00 -1.561251128379126385e-13 -2.041636038832214672e-13 -1.080866150163402317e-13 4.403528797570881170e-14
1.257000000000000000e+03 9.963652610778808594e+00 1.004480934143066406e+01 -3.602887167211341057e-14 7.606094980195862720e-14 1.200962445539310169e-14 1.240994476235310340e-13
1.258000000000000000e+03 1.660398292541503906e+01 1.942304420471191406e+01 4.003208151797700565e-15 -5.244202424745103563e-13 -1.561251128379126385e-13 -1.240994476235310340e-13
1.259000000000000000e+03 7.973589897155761719e+00 1.096108150482177734e+01 -1.961571909677578551e-13 -8.406736949368581735e-14 -8.406736949368581735e-14 8.807057595141762341e-14
1.260000000000000000e+03 7.719389438629150391e+00 1.489207363128662109e+01 -8.807057595141762341e-14 -3.122502256758252770e-13 -1.200962343895356499e-13 1.120898214740720378e-13
1.261000000000000000e+03 1.690895080566406250e+01 1.808657073974609375e+01 8.706977603105056640e-14 -4.373504867722505240e-13 -1.050842084789754827e-13 -1.481186999224490264e-13
1.262000000000000000e+03 8.309042930603027344e+00 1.315493869781494141e+01 -9.607699564314481355e-14 9.607699564314481355e-14 0.000000000000000000e+00 -8.006416303595401129e-15
1.263000000000000000e+03 2.180231285095214844e+01 2.560128784179687500e+01 1.055846084391590112e-13 -1.806447650970141594e-13 -2.251804564210382886e-14 -8.807057595141762341e-14
1.264000000000000000e+03 9.460542678833007812e+00 2.682200241088867188e+01 4.003208151797700565e-15 -4.403528797570881170e-14 -1.200962445539310169e-14 -2.001604075898850282e-15
1.265000000000000000e+03 1.007290840148925781e+01 2.817308425903320312e+01 1.721379386688398627e-13 -1.321058605389946461e-13 1.200962445539310169e-14 1.080866150163402317e-13
1.266000000000000000e+03 2.282202339172363281e+01 2.836016654968261719e+01 2.031628039628544102e-13 -1.130906281707026728e-13 2.702165375408505793e-14 -4.553649124439118623e-14
1.267000000000000000e+03 2.184554481506347656e+01 2.744537353515625000e+01 1.996600042415697107e-13 -2.346880827695796423e-13 -1.050842118671072717e-14 -1.441154866884536423e-13
1.268000000000000000e+03 2.024379920959472656e+01 2.171800994873046875e+01 2.542037218743187221e-13 -3.142518255165593910e-13 -1.801443583605670529e-14 -3.602887167211341057e-14
1.269000000000000000e+03 2.121216964721679688e+01 2.118751144409179688e+01 2.001604042017532392e-13 -2.802245740139708285e-13 -2.401924891078620339e-14 -1.441154866884536423e-13
1.270000000000000000e+03 1.920097160339355469e+01 2.218996620178222656e+01 1.661331391466375207e-13 -3.062454261536229350e-13 -4.203368474684290867e-14 -9.607699564314481355e-14
1.271000000000000000e+03 2.312256240844726562e+01 3.437162399291992188e+01 8.306656957331876034e-14 -7.305854326459387815e-14 3.002406113848275424e-15 -8.006416303595401129e-15
1.272000000000000000e+03 2.123887443542480469e+01 3.087497520446777344e+01 1.681347389873716347e-13 -2.481988952470620680e-13 -2.401924891078620339e-14 -6.805453688649501509e-14
1.273000000000000000e+03 1.255997371673583984e+01 3.472895812988281250e+01 8.406736949368581735e-14 -1.240994476235310340e-13 -1.200962445539310169e-14 2.001604075898850282e-14
1.274000000000000000e+03 1.000291919708251953e+01 2.480263137817382812e+01 2.481988952470620680e-13 -1.681347389873716347e-13 2.401924891078620339e-14 -9.207378240914942946e-14
1.275000000000000000e+03 8.890712738037109375e+00 1.712115478515625000e+01 -2.952365863720038397e-14 -1.756407519426517183e-13 -6.154932385158198849e-14 1.421138868477195283e-13
1.276000000000000000e+03 1.576443195343017578e+01 1.759309387207031250e+01 2.522020949285302960e-13 -3.722983564231202580e-13 -3.602887167211341057e-14 -1.801443651368306309e-13
1.277000000000000000e+03 9.310328483581542969e+00 1.884556007385253906e+01 -2.582069215557869502e-13 -2.822261738547049426e-13 -1.621299259126421366e-13 1.641315257533762506e-13
1.278000000000000000e+03 1.143007278442382812e+01 1.149418735504150391e+01 9.757819552369539906e-15 -8.731997601114233065e-14 -2.326864727644501613e-14 1.175942362826839019e-14
1.279000000000000000e+03 8.418288230895996094e+00 1.769742965698242188e+01 2.401924891078620339e-14 -2.642117210779892922e-13 -7.205774334422682115e-14 8.006416303595401129e-15
1.280000000000000000e+03 8.500922203063964844e+00 1.645845794677734375e+01 -3.122502256758252770e-13 -8.807057595141762341e-14 -1.200962343895356499e-13 -4.003208151797700565e-14
1.281000000000000000e+03 8.903256416320800781e+00 1.817792320251464844e+01 -4.603689120457471473e-14 -2.942358000041639388e-13 -1.020818019416107336e-13 1.040834085586084257e-13
1.282000000000000000e+03 8.294322013854980469e+00 2.014646530151367188e+01 3.803047490097931360e-14 6.204972381176551699e-14 3.002405859738391247e-14 -5.404330750817011586e-14
1.283000000000000000e+03 9.190800666809082031e+00 1.189080238342285156e+01 -3.542839036464046076e-13 1.341074739322559162e-13 -6.605293026949732305e-14 7.606094980195862720e-14
1.284000000000000000e+03 8.503318786621093750e+00 1.112995910644531250e+01 4.003208151797700565e-14 2.001604042017532392e-13 7.205774334422682115e-14 0.000000000000000000e+00
1.285000000000000000e+03 8.833869934082031250e+00 2.282729530334472656e+01 2.481988952470620680e-13 -1.681347389873716347e-13 2.401924891078620339e-14 2.802245740139708285e-13
1.286000000000000000e+03 8.984429359436035156e+00 1.286253738403320312e+01 -1.381106736137241442e-13 -2.421940957248597259e-13 -1.140914348673333079e-13 9.607699564314481355e-14
1.287000000000000000e+03 1.200922966003417969e+01 1.318238544464111328e+01 5.635766240621661871e-14 -2.046014589305797382e-13 -4.447313963493529365e-14 1.768917586193741176e-13
1.288000000000000000e+03 1.034040164947509766e+01 9.501840591430664062e+00 -2.401924891078620339e-14 -3.763015561045884860e-13 -1.200962343895356499e-13 4.003208151797700565e-14
1.289000000000000000e+03 1.044918823242187500e+01 1.049885082244873047e+01 -6.455173038894673754e-14 -2.106688169181344938e-13 -8.256616283687165381e-14 2.231788430277770185e-13
1.290000000000000000e+03 8.089609146118164062e+00 1.238648986816406250e+01 -3.602887302736612618e-13 -2.001604042017532392e-13 -1.681347389873716347e-13 6.405133042876320904e-14
1.291000000000000000e+03 1.049022579193115234e+01 1.251215457916259766e+01 4.003208151797700565e-14 -1.200962343895356499e-13 -2.401924891078620339e-14 1.080866150163402317e-13
1.292000000000000000e+03 1.097416591644287109e+01 1.202301120758056641e+01 -1.298540539419051898e-13 -3.029928196361664217e-13 -1.298540539419051898e-13 1.180946345488015359e-13
1.293000000000000000e+03 1.502806854248046875e+01 1.780924415588378906e+01 3.002405859738391247e-14 -2.502004950877961820e-13 -6.605293026949732305e-14 8.807057595141762341e-14
1.294000000000000000e+03 8.482301712036132812e+00 1.571698474884033203e+01 -2.001604042017532392e-13 -3.602887302736612618e-13 -1.681347389873716347e-13 1.441154866884536423e-13
1.295000000000000000e+03 7.670066356658935547e+00 1.406594276428222656e+01 -1.681347389873716347e-13 -7.205774334422682115e-14 -7.205774334422682115e-14 1.040834085586084257e-13
1.296000000000000000e+03 8.407318115234375000e+00 2.106201744079589844e+01 1.801443583605670529e-14 -3.803047490097931360e-14 -6.004812227696550847e-15 9.607699564314481355e-14
1.297000000000000000e+03 1.261270809173583984e+01 1.379140663146972656e+01 -8.056456299613753980e-14 -3.547843171591152922e-13 -1.306046606584440606e-13 6.204972381176551699e-14
1.298000000000000000e+03 1.285587787628173828e+01 1.511841964721679688e+01 -4.203368474684290867e-14 -4.183352340751678167e-13 -1.381106736137241442e-13 3.202566521438160452e-14
1.299000000000000000e+03 1.772356605529785156e+01 2.148818969726562500e+01 6.004812227696550847e-15 -3.863095824133133682e-13 -1.140914348673333079e-13 -1.361090737729900302e-13
1.300000000000000000e+03 1.640476608276367188e+01 2.095971870422363281e+01 -5.404330750817011586e-14 -2.061652172764827373e-13 -7.806255641895631925e-14 -1.441154866884536423e-13
1.301000000000000000e+03 1.846007537841796875e+01 2.381042480468750000e+01 7.005614350349270714e-14 -2.902325732176413986e-13 -6.605293026949732305e-14 -1.641315257533762506e-13
1.302000000000000000e+03 1.468616962432861328e+01 1.691149902343750000e+01 9.607699564314481355e-14 -4.163336342344337027e-13 -9.607699564314481355e-14 -4.403528797570881170e-14
1.303000000000000000e+03 1.967156219482421875e+01 2.341057205200195312e+01 1.501202997631831404e-13 -1.301042606982605321e-13 6.004812227696550847e-15 -1.601283260719080226e-14
1.304000000000000000e+03 1.615857124328613281e+01 1.845980834960937500e+01 1.801443651368306309e-13 -2.201764432666758475e-13 -1.200962445539310169e-14 7.606094980195862720e-14
1.305000000000000000e+03 1.573783969879150391e+01 2.052925872802734375e+01 8.406736949368581735e-14 -2.842277736954390566e-13 -6.004811719476782494e-14 -4.803849782157240678e-14
1.306000000000000000e+03 9.110734939575195312e+00 1.014835739135742188e+01 -1.321058605389946461e-13 1.721379386688398627e-13 1.200962445539310169e-14 1.601283260719080226e-14
1.307000000000000000e+03 1.050732231140136719e+01 2.963520050048828125e+01 1.401122870069854143e-13 -2.602085213965210642e-13 -3.602887167211341057e-14 -6.405133042876320904e-14
1.308000000000000000e+03 1.083765125274658203e+01 3.117398643493652344e+01 1.801443583605670529e-14 -1.981587908084919691e-13 -5.404330750817011586e-14 1.120898214740720378e-13
1.309000000000000000e+03 1.678587341308593750e+01 2.189455413818359375e+01 -4.803849782157240678e-14 -2.722181475459800604e-13 -9.607699564314481355e-14 8.006416303595401129e-14
1.310000000000000000e+03 1.812502670288085938e+01 2.262142753601074219e+01 6.805453688649501509e-14 -1.080866150163402317e-13 -1.200962445539310169e-14 3.602887167211341057e-14
1.311000000000000000e+03 2.096595573425292969e+01 2.652858161926269531e+01 1.320433156261693886e-13 -1.264137991334457478e-13 1.688853359630316121e-15 -5.491901082662307976e-14
1.312000000000000000e+03 2.082760810852050781e+01 2.852232933044433594e+01 1.389472846675954276e-13 -1.692059036287330009e-13 -9.077586874187398153e-15 -4.038490123369452289e-14
1.313000000000000000e+03 2.389302444458007812e+01 2.924782562255859375e+01 2.331868693365019007e-13 -8.306656957331876034e-14 4.503609128420765773e-14 -5.804651735403371093e-14
1.314000000000000000e+03 9.371376037597656250e+00 3.147633934020996094e+01 2.962373998448980528e-13 -5.604491073703601889e-14 7.205774334422682115e-14 -6.805453688649501509e-14
1.315000000000000000e+03 1.268339347839355469e+01 3.272382736206054688e+01 1.040834085586084257e-13 -1.040834085586084257e-13 0.000000000000000000e+00 -1.601283260719080226e-14
1.316000000000000000e+03 9.588019371032714844e+00 1.055773925781250000e+01 -5.854691731421723944e-14 -1.165934346682509504e-13 -5.254210423948774134e-14 3.162534253572935050e-13
1.317000000000000000e+03 1.373115253448486328e+01 1.568048191070556641e+01 4.283432603838926989e-13 -2.281828697346666157e-13 6.004811719476782494e-14 -3.202566521438160452e-14
1.318000000000000000e+03 9.463241577148437500e+00 1.665507507324218750e+01 -8.206576287668812530e-14 -2.181748434259417335e-13 -9.007218256841531545e-14 5.204170427930421283e-14
1.319000000000000000e+03 9.940039634704589844e+00 1.831731796264648438e+01 -8.585004858700437391e-14 -1.740457279165996685e-13 -7.796873227345485491e-14 -3.190056310675335426e-15
1.320000000000000000e+03 9.552395820617675781e+00 1.242268180847167969e+01 -7.906335633932337625e-14 -1.711371387484728057e-13 -7.506014988159157020e-14 9.007218256841531545e-14
1.321000000000000000e+03 1.147469997406005859e+01 1.374812984466552734e+01 -7.506014988159157020e-14 -2.151724301123134064e-13 -8.706977603105056640e-14 1.240994476235310340e-13
1.322000000000000000e+03 8.676111221313476562e+00 1.220573616027832031e+01 -1.160930347080674219e-13 -4.003208151797700565e-15 -3.602887167211341057e-14 1.761411519028352468e-13
1.323000000000000000e+03 8.878439903259277344e+00 1.142250823974609375e+01 2.121700303512122354e-13 -9.207378240914942946e-14 3.602887167211341057e-14 1.281026608575264181e-13
1.324000000000000000e+03 1.179159545898437500e+01 1.583164787292480469e+01 -2.401924891078620339e-14 -3.763015561045884860e-13 -1.200962343895356499e-13 1.160930347080674219e-13
1.325000000000000000e+03 1.182139778137207031e+01 1.692329597473144531e+01 3.002405859738391247e-14 -1.701363388281057487e-13 -4.203368474684290867e-14 2.081668171172168513e-13
1.326000000000000000e+03 8.771969795227050781e+00 1.987471961975097656e+01 -8.006416303595401129e-14 -8.006416303595401129e-14 -4.803849782157240678e-14 2.401924687790712998e-13
1.327000000000000000e+03 9.223747253417968750e+00 1.102587509155273438e+01 5.204170427930421283e-14 -9.207378240914942946e-14 -1.200962445539310169e-14 -5.004010105043830980e-14
1.328000000000000000e+03 1.050480651855468750e+01 1.149809455871582031e+01 4.910184943102829935e-14 -2.470729885603855508e-14 7.318364664277154930e-15 -1.184699311308073932e-13
1.329000000000000000e+03 1.005069351196289062e+01 1.197725105285644531e+01 -1.125902282105191443e-13 -3.227586383922065316e-13 -1.306046606584440606e-13 2.021620040424873532e-13
1.330000000000000000e+03 8.536811828613281250e+00 1.490526008605957031e+01 -1.361090737729900302e-13 -2.642117210779892922e-13 -1.200962343895356499e-13 9.607699564314481355e-14
1.331000000000000000e+03 1.255059432983398438e+01 1.585012531280517578e+01 -2.241796429481440756e-13 -4.163336342344337027e-13 -1.921539912862896271e-13 9.607699564314481355e-14
1.332000000000000000e+03 9.849262237548828125e+00 1.390463924407958984e+01 -6.405133042876320904e-14 -2.562053217150528361e-13 -9.607699564314481355e-14 1.200962343895356499e-13
1.333000000000000000e+03 9.656107902526855469e+00 2.035543060302734375e+01 -5.804651735403371093e-14 -1.621299259126421366e-13 -6.605293026949732305e-14 -3.602887167211341057e-14
1.334000000000000000e+03 9.438369750976562500e+00 1.340365314483642578e+01 3.971932984879640582e-14 -1.407377852631489304e-14 7.693665481447748561e-15 1.348580670962676309e-13
1.335000000000000000e+03 1.004925918579101562e+01 1.100981712341308594e+01 -1.100882216333379238e-13 -2.301844695754007297e-13 -1.020818019416107336e-13 1.065854151357896462e-13
1.336000000000000000e+03 1.532935810089111328e+01 1.871467781066894531e+01 2.081668171172168513e-13 -3.682951296365977178e-13 -4.803849782157240678e-14 -1.601283260719080226e-14
1.337000000000000000e+03 1.441165161132812500e+01 1.887759399414062500e+01 1.160930347080674219e-13 -1.561251128379126385e-13 -1.200962445539310169e-14 1.441154866884536423e-13
1.338000000000000000e+03 1.332797527313232422e+01 1.644459152221679688e+01 -1.628805326291810074e-13 -3.900625753384262540e-13 -1.658829323902821784e-13 4.553649124439118623e-14
1.339000000000000000e+03 1.125230979919433594e+01 1.641257667541503906e+01 1.200962343895356499e-13 -3.602887302736612618e-13 -7.205774334422682115e-14 1.401122870069854143e-13
1.340000000000000000e+03 1.564642906188964844e+01 1.966900444030761719e+01 1.601283260719080226e-13 -3.202566521438160452e-13 -4.803849782157240678e-14 1.601283260719080226e-14
1.341000000000000000e+03 9.408385276794433594e+00 2.121333503723144531e+01 1.321058605389946461e-13 -1.721379386688398627e-13 -1.200962445539310169e-14 -2.401924891078620339e-14
1.342000000000000000e+03 8.797549247741699219e+00 2.159138679504394531e+01 5.004010105043830980e-14 -7.005614350349270714e-14 -6.004812227696550847e-15 1.481186999224490264e-13
1.343000000000000000e+03 9.155989646911621094e+00 2.221523475646972656e+01 2.752205473070812314e-13 -1.050842084789754827e-13 5.104090097080536681e-14 5.604491073703601889e-14
1.344000000000000000e+03 1.048754119873046875e+01 2.336240005493164062e+01 8.807057595141762341e-14 -8.006416303595401129e-15 2.401924891078620339e-14 -4.803849782157240678e-14
1.345000000000000000e+03 9.767178535461425781e+00 2.185310173034667969e+01 1.821459649775647449e-13 7.806255641895631925e-14 7.806255641895631925e-14 1.601283260719080226e-14
1.346000000000000000e+03 1.729013824462890625e+01 2.418637084960937500e+01 1.581267126786467525e-13 -2.982389996856321668e-13 -4.203368474684290867e-14 9.207378240914942946e-14
1.347000000000000000e+03 2.092467117309570312e+01 2.481140708923339844e+01 1.220978477827969200e-13 -1.421138868477195283e-13 -6.004812227696550847e-15 -7.606094980195862720e-14
1.348000000000000000e+03 9.706460952758789062e+00 2.368350982666015625e+01 2.241796429481440756e-13 -2.241796429481440756e-13 0.000000000000000000e+00 1.200962343895356499e-13
1.349000000000000000e+03 1.572842597961425781e+01 2.127502822875976562e+01 8.807057595141762341e-14 -3.282630515067525012e-13 -7.205774334422682115e-14 1.281026608575264181e-13
1.350000000000000000e+03 2.024257850646972656e+01 2.561774444580078125e+01 9.407538902614712151e-14 -2.341876692568689577e-13 -4.203368474684290867e-14 -4.403528797570881170e-14
1.351000000000000000e+03 1.705119514465332031e+01 2.297895240783691406e+01 2.922341730583755126e-13 -3.322662782932750414e-13 -1.200962445539310169e-14 -9.607699564314481355e-14
1.352000000000000000e+03 1.065740966796875000e+01 2.611885070800781250e+01 5.754611739385018243e-14 -2.927345865710861972e-13 -7.055654346367623564e-14 1.100882216333379238e-13
1.353000000000000000e+03 1.241791915893554688e+01 3.089842605590820312e+01 1.661331391466375207e-13 -1.461170865291877563e-13 6.004812227696550847e-15 -2.001604075898850282e-14
1.354000000000000000e+03 1.104752540588378906e+01 3.272994232177734375e+01 1.120898214740720378e-13 -1.120898214740720378e-13 0.000000000000000000e+00 -4.803849782157240678e-14
1.355000000000000000e+03 1.362589550018310547e+01 1.784119415283203125e+01 2.001604075898850282e-14 -2.201764432666758475e-13 -6.004811719476782494e-14 4.803849782157240678e-14
1.356000000000000000e+03 1.398028945922851562e+01 1.717552185058593750e+01 1.441154866884536423e-13 -3.042437992078345088e-13 -4.803849782157240678e-14 1.200962343895356499e-13
1.357000000000000000e+03 1.058459854125976562e+01 1.884028625488281250e+01 1.100882216333379238e-13 -9.007218256841531545e-14 6.004812227696550847e-15 8.006416303595401129e-14
1.358000000000000000e+03 1.086401271820068359e+01 1.422651767730712891e+01 -2.121700303512122354e-13 -3.883111822540474822e-13 -1.801443651368306309e-13 1.381106736137241442e-13
1.359000000000000000e+03 1.207555389404296875e+01 1.446637725830078125e+01 -1.651323256737433076e-14 -4.188356475878785012e-13 -1.306046606584440606e-13 1.701363388281057487e-13
1.360000000000000000e+03 1.096195030212402344e+01 1.309840965270996094e+01 -7.205774334422682115e-14 -1.681347389873716347e-13 -7.205774334422682115e-14 1.200962343895356499e-13
1.361000000000000000e+03 1.350104522705078125e+01 1.875913810729980469e+01 -5.048709793414475555e-29 -4.803849375581425996e-13 -1.441154866884536423e-13 8.807057595141762341e-14
1.362000000000000000e+03 9.682664871215820312e+00 1.949244689941406250e+01 -1.601283260719080226e-13 -1.601283260719080226e-13 -9.607699564314481355e-14 -4.803849782157240678e-14
1.363000000000000000e+03 1.049660301208496094e+01 1.535520648956298828e+01 -1.200962343895356499e-13 -2.802245740139708285e-13 -1.200962343895356499e-13 1.601283260719080226e-14
1.364000000000000000e+03 1.166969966888427734e+01 1.865687370300292969e+01 1.000802021008766196e-13 -1.401122870069854143e-13 -1.200962445539310169e-14 9.007218256841531545e-14
1.365000000000000000e+03 9.285532951354980469e+00 1.997479820251464844e+01 8.006416303595401129e-14 -2.401924687790712998e-13 -4.803849782157240678e-14 -5.604491073703601889e-14
1.366000000000000000e+03 9.216531753540039062e+00 1.401925563812255859e+01 -6.805453688649501509e-14 -5.204170427930421283e-14 -3.602887167211341057e-14 1.441154866884536423e-13
1.367000000000000000e+03 1.295376873016357422e+01 1.762082862854003906e+01 8.006416303595401129e-15 -4.083272077664429345e-13 -1.200962343895356499e-13 4.003208151797700565e-14
1.368000000000000000e+03 8.465566635131835938e+00 1.401263427734375000e+01 2.401924891078620339e-14 -2.642117210779892922e-13 -7.205774334422682115e-14 1.281026608575264181e-13
1.369000000000000000e+03 1.236550617218017578e+01 1.737681579589843750e+01 -1.821459649775647449e-13 -3.983192085627723644e-13 -1.741395520621011328e-13 2.001604075898850282e-14
1.370000000000000000e+03 1.464989566802978516e+01 1.982324600219726562e+01 2.582069215557869502e-13 -3.582871304329271478e-13 -3.002405859738391247e-14 4.003208151797700565e-14
1.371000000000000000e+03 1.089425754547119141e+01 1.990333938598632812e+01 1.666335391068210492e-13 -1.115894215138885093e-13 1.651323256737433076e-14 -3.803047490097931360e-14
1.372000000000000000e+03 1.495437145233154297e+01 2.059915733337402344e+01 1.401122870069854143e-13 -4.203368339159019307e-13 -8.406736949368581735e-14 1.361090737729900302e-13
1.373000000000000000e+03 1.499806880950927734e+01 2.129337501525878906e+01 2.602085213965210642e-13 -1.401122870069854143e-13 3.602887167211341057e-14 6.405133042876320904e-14
1.374000000000000000e+03 1.094042396545410156e+01 2.098867797851562500e+01 2.917337866507191402e-13 3.352686848306397904e-14 9.757819552369539906e-14 8.006416303595401129e-14
1.375000000000000000e+03 9.214571952819824219e+00 2.057562065124511719e+01 -1.921539912862896271e-13 -1.281026608575264181e-13 -9.607699564314481355e-14 2.722181475459800604e-13
1.376000000000000000e+03 1.224573135375976562e+01 1.641267776489257812e+01 5.204170427930421283e-14 -9.207378240914942946e-14 -1.200962445539310169e-14 1.761411519028352468e-13
1.377000000000000000e+03 1.596752738952636719e+01 2.321031761169433594e+01 1.681347389873716347e-13 -2.481988952470620680e-13 -2.401924891078620339e-14 -8.006416303595401129e-15
1.378000000000000000e+03 1.143067359924316406e+01 2.761138534545898438e+01 2.301844695754007297e-13 -2.101684169579509653e-13 6.004812227696550847e-15 -9.007218256841531545e-14
1.379000000000000000e+03 1.203437900543212891e+01 2.103973388671875000e+01 2.043512657267515520e-13 -1.636936842585451357e-13 1.219727444046192488e-14 5.723336572466958261e-14
1.380000000000000000e+03 1.877115249633789062e+01 2.502465057373046875e+01 1.601283260719080226e-13 -3.202566521438160452e-13 -4.803849782157240678e-14 4.403528797570881170e-14
1.381000000000000000e+03 1.165514183044433594e+01 2.527909660339355469e+01 1.371098736933570872e-13 5.304250758780305885e-14 5.704571743366665393e-14 -1.130906281707026728e-13
1.382000000000000000e+03 1.013044643402099609e+01 2.254470825195312500e+01 1.541235129971785245e-13 -1.741395520621011328e-13 -6.004812227696550847e-15 7.606094980195862720e-14
1.383000000000000000e+03 1.246286773681640625e+01 2.307121467590332031e+01 1.120898214740720378e-13 -2.722181475459800604e-13 -4.803849782157240678e-14 -8.006416303595401129e-15
1.384000000000000000e+03 1.991994667053222656e+01 2.740710639953613281e+01 1.511210996835501974e-13 -3.412734775765785544e-13 -5.704571743366665393e-14 -1.361090737729900302e-13
1.385000000000000000e+03 1.196992588043212891e+01 2.922680282592773438e+01 1.000802021008766196e-13 -1.401122870069854143e-13 -1.200962445539310169e-14 1.200962445539310169e-14
1.386000000000000000e+03 1.922089385986328125e+01 2.623444747924804688e+01 7.806255641895631925e-14 -1.381106736137241442e-13 -1.801443583605670529e-14 -7.806255641895631925e-14
1.387000000000000000e+03 1.348559379577636719e+01 2.877149772644042969e+01 1.521218996039172544e-13 -2.321860694161348437e-13 -2.401924891078620339e-14 -5.204170427930421283e-14
1.388000000000000000e+03 1.271368885040283203e+01 1.839439392089843750e+01 -1.120898214740720378e-13 -3.682951296365977178e-13 -1.441154866884536423e-13 1.200962343895356499e-13
1.389000000000000000e+03 1.135904979705810547e+01 1.503361320495605469e+01 3.602887167211341057e-14 -3.963175816169839383e-13 -1.080866150163402317e-13 1.681347389873716347e-13
1.390000000000000000e+03 1.314366340637207031e+01 1.963593101501464844e+01 4.703769451307356075e-14 3.002406113848275424e-15 1.501202929869195624e-14 1.040834085586084257e-13
1.391000000000000000e+03 1.101972484588623047e+01 1.818897056579589844e+01 -5.804651735403371093e-14 -2.421940957248597259e-13 -9.007218256841531545e-14 1.361090737729900302e-13
1.392000000000000000e+03 1.035843467712402344e+01 1.671088218688964844e+01 2.491996951674291250e-13 -3.793039558656896570e-13 -3.903127820947815962e-14 9.807859548387892756e-14
1.393000000000000000e+03 9.995902061462402344e+00 1.625245285034179688e+01 -1.361090737729900302e-13 -4.243400607024244708e-13 -1.681347389873716347e-13 4.003208151797700565e-14
1.394000000000000000e+03 1.203878307342529297e+01 1.799539184570312500e+01 -8.206576287668812530e-14 -5.384314955697577787e-13 -1.861491782115601290e-13 2.081668171172168513e-13
1.395000000000000000e+03 1.015501403808593750e+01 1.458111286163330078e+01 -1.561251128379126385e-13 -3.642919299551294898e-13 -1.561251128379126385e-13 9.607699564314481355e-14
1.396000000000000000e+03 1.041750049591064453e+01 1.354390907287597656e+01 3.803047490097931360e-14 -3.382710778154773834e-13 -9.007218256841531545e-14 7.606094980195862720e-14
1.397000000000000000e+03 1.384535694122314453e+01 2.030658340454101562e+01 4.578669122448295048e-14 -4.836375440755991129e-13 -1.313552673749829314e-13 1.311050606186275891e-13
1.398000000000000000e+03 1.193505764007568359e+01 1.981271553039550781e+01 7.606094980195862720e-14 -3.602887167211341057e-14 1.200962445539310169e-14 -1.801443583605670529e-14
1.399000000000000000e+03 1.438809394836425781e+01 2.099103164672851562e+01 7.556054984177509870e-14 -1.506206997233666689e-13 -2.251804564210382886e-14 4.003208151797700565e-14
1.400000000000000000e+03 1.289679431915283203e+01 2.383585357666015625e+01 2.321860694161348437e-13 8.006416303595401129e-15 7.205774334422682115e-14 2.401924891078620339e-14
1.401000000000000000e+03 1.003714752197265625e+01 1.997752380371093750e+01 1.692606422859163628e-13 -1.104635182153437811e-13 1.763913586591905891e-14 -5.929751725449253219e-14
1.402000000000000000e+03 1.225294971466064453e+01 2.437194061279296875e+01 -4.603689120457471473e-14 -2.942358000041639388e-13 -1.020818019416107336e-13 8.006416303595401129e-14
1.403000000000000000e+03 1.276559352874755859e+01 2.579503440856933594e+01 2.481988952470620680e-13 -4.883913911311876799e-13 -7.205774334422682115e-14 5.604491073703601889e-14
1.404000000000000000e+03 9.974586486816406250e+00 1.296063518524169922e+01 -5.704571743366665393e-14 1.871499781319271860e-13 3.903127820947815962e-14 1.321058605389946461e-13
1.405000000000000000e+03 9.368184089660644531e+00 1.482433795928955078e+01 -2.001604075898850282e-14 -4.203368339159019307e-13 -1.321058605389946461e-13 7.205774334422682115e-14
1.406000000000000000e+03 1.078909778594970703e+01 2.213520050048828125e+01 3.803047490097931360e-14 -2.582069215557869502e-13 -6.605293026949732305e-14 1.200962445539310169e-14
1.407000000000000000e+03 1.143196773529052734e+01 2.162322616577148438e+01 5.604491073703601889e-14 -2.962373998448980528e-13 -7.205774334422682115e-14 2.201764398785440585e-14
1.408000000000000000e+03 1.047476768493652344e+01 2.043345260620117188e+01 6.680353698603619383e-14 -1.543737062010067107e-13 -2.627105211974387067e-14 1.125902282105191443e-13
1.409000000000000000e+03 1.170390224456787109e+01 2.366623687744140625e+01 -1.601283260719080226e-14 -1.441154866884536423e-13 -4.803849782157240678e-14 -2.802245536851800944e-14
1.410000000000000000e+03 1.484016990661621094e+01 2.217004966735839844e+01 1.040834085586084257e-13 -1.841475648182988589e-13 -2.401924891078620339e-14 0.000000000000000000e+00
1.411000000000000000e+03 1.800091552734375000e+01 2.687980079650878906e+01 2.361892690976030718e-13 -3.562855034871387216e-13 -3.602887167211341057e-14 -5.604491073703601889e-14
1.412000000000000000e+03 1.658361053466796875e+01 2.748581123352050781e+01 1.140914348673333079e-13 -2.141716301919463494e-13 -3.002405859738391247e-14 -1.261010474642651480e-13
1.413000000000000000e+03 1.503950023651123047e+01 2.814800071716308594e+01 3.202566521438160452e-14 -3.522823038056704936e-13 -9.607699564314481355e-14 -1.000802037949425141e-14
1.414000000000000000e+03 1.755953216552734375e+01 2.550180435180664062e+01 2.341876692568689577e-13 -1.741395520621011328e-13 1.801443583605670529e-14 -6.405133042876320904e-14
1.415000000000000000e+03 2.279605293273925781e+01 3.066159439086914062e+01 1.007682503520630768e-13 -1.626928707856509226e-13 -1.857738748532906936e-14 -3.815557489102519573e-14
1.416000000000000000e+03 1.846794319152832031e+01 3.095051574707031250e+01 1.225982477429804485e-13 -1.075862150561567032e-13 4.503608959014176322e-15 -7.005613842129502361e-15
1.417000000000000000e+03 1.236760616302490234e+01 1.913097190856933594e+01 -1.401122870069854143e-13 -5.404330954104918927e-13 -2.041636038832214672e-13 1.721379386688398627e-13
1.418000000000000000e+03 9.673672676086425781e+00 1.560348415374755859e+01 -1.120898214740720378e-13 -3.682951296365977178e-13 -1.441154866884536423e-13 7.205774334422682115e-14
1.419000000000000000e+03 1.086875724792480469e+01 1.709698104858398438e+01 -4.803849782157240678e-14 -1.120898214740720378e-13 -4.803849782157240678e-14 1.220978477827969200e-13
1.420000000000000000e+03 1.259344673156738281e+01 2.038319206237792969e+01 -8.506817110811876886e-15 -5.069062032105053905e-13 -1.546239129573620530e-13 1.871499781319271860e-13
1.421000000000000000e+03 1.061687564849853516e+01 1.611344337463378906e+01 -1.841475648182988589e-13 -5.364298957290236647e-13 -2.161732300326804634e-13 2.161732300326804634e-13
1.422000000000000000e+03 1.194674682617187500e+01 2.232465171813964844e+01 1.361090737729900302e-13 -2.161732300326804634e-13 -2.401924891078620339e-14 -2.001604075898850282e-14
1.423000000000000000e+03 1.323913097381591797e+01 2.103986167907714844e+01 3.940657817961580600e-14 -3.033681162181722790e-13 -7.918845971750104740e-14 1.100882216333379238e-13
1.424000000000000000e+03 1.127883243560791016e+01 1.930119895935058594e+01 7.606094980195862720e-14 -1.961571909677578551e-13 -3.602887167211341057e-14 1.481186999224490264e-13
1.425000000000000000e+03 1.394058990478515625e+01 2.175786018371582031e+01 8.006416303595401129e-15 -4.083272077664429345e-13 -1.200962343895356499e-13 8.606896933441993136e-14
1.426000000000000000e+03 1.289908313751220703e+01 2.719346237182617188e+01 1.861491782115601290e-13 -2.061652172764827373e-13 -6.004812227696550847e-15 2.001604075898850282e-14
1.427000000000000000e+03 1.612351608276367188e+01 2.444492721557617188e+01 1.881507780522942430e-13 -3.082470259943570490e-13 -3.602887167211341057e-14 -8.006416303595401129e-14
1.428000000000000000e+03 1.145945930480957031e+01 2.043416023254394531e+01 1.208468411060745207e-13 -2.684651275158128625e-13 -4.428548795580057595e-14 1.080866150163402317e-13
1.429000000000000000e+03 1.871909332275390625e+01 2.828216934204101562e+01 7.005614350349270714e-14 -2.101684169579509653e-13 -4.203368474684290867e-14 -8.006416303595401129e-15
1.430000000000000000e+03 1.500118446350097656e+01 2.583226394653320312e+01 4.003208151797700565e-14 -4.403528865333516951e-13 -1.200962343895356499e-13 -8.006416303595401129e-15
1.431000000000000000e+03 1.378010368347167969e+01 2.349378967285156250e+01 1.000802021008766196e-13 -3.002405995263662808e-13 -6.004811719476782494e-14 8.807057595141762341e-14
1.432000000000000000e+03 1.394211101531982422e+01 2.572699928283691406e+01 2.481988952470620680e-13 -1.681347389873716347e-13 2.401924891078620339e-14 8.807057595141762341e-14
1.433000000000000000e+03 1.580007743835449219e+01 2.994683647155761719e+01 1.801443651368306309e-13 -2.201764432666758475e-13 -1.200962445539310169e-14 -2.401924891078620339e-14
1.434000000000000000e+03 1.975334167480468750e+01 2.968488311767578125e+01 1.378604804098959580e-13 -2.154226368686687487e-13 -2.326864727644501613e-14 -8.706977603105056640e-14
1.435000000000000000e+03 1.328235244750976562e+01 2.250075721740722656e+01 1.726383521815505473e-13 -2.376904825306808133e-13 -1.951563910473907981e-14 9.107298248878237246e-14
1.436000000000000000e+03 1.142896080017089844e+01 1.754378128051757812e+01 9.007218256841531545e-14 -1.901523778930283570e-13 -3.002405859738391247e-14 2.802245536851800944e-14
1.437000000000000000e+03 1.299153804779052734e+01 2.468848228454589844e+01 1.801443651368306309e-13 1.000802021008766196e-13 8.406736949368581735e-14 -1.200962343895356499e-13
1.438000000000000000e+03 1.623015403747558594e+01 2.588208580017089844e+01 1.421138868477195283e-13 -2.822261738547049426e-13 -4.203368474684290867e-14 -4.403528797570881170e-14
1.439000000000000000e+03 1.394235610961914062e+01 2.462208557128906250e+01 2.842277736954390566e-13 -2.441956955655938399e-13 1.200962445539310169e-14 3.202566521438160452e-14
1.440000000000000000e+03 1.484595775604248047e+01 2.330026626586914062e+01 1.601283260719080226e-14 -3.362694779747432694e-13 -9.607699564314481355e-14 3.202566521438160452e-14
1.441000000000000000e+03 1.735589981079101562e+01 2.915828704833984375e+01 1.901523778930283570e-13 -3.302646513474866152e-13 -4.203368474684290867e-14 -4.403528797570881170e-14
1.442000000000000000e+03 1.430587959289550781e+01 2.678265762329101562e+01 2.672141479441447753e-13 -1.771419518232023038e-13 2.702165375408505793e-14 -6.204972381176551699e-14
1.443000000000000000e+03 1.499860572814941406e+01 2.454430389404296875e+01 2.401924687790712998e-13 -2.401924687790712998e-13 0.000000000000000000e+00 9.607699564314481355e-14
1.444000000000000000e+03 1.670546913146972656e+01 3.199571037292480469e+01 1.080866150163402317e-13 -6.805453688649501509e-14 1.200962445539310169e-14 -3.602887167211341057e-14
1.445000000000000000e+03 1.410384082794189453e+01 3.053232192993164062e+01 9.407538902614712151e-14 -1.541235129971785245e-13 -1.801443583605670529e-14 2.802245536851800944e-14
1.446000000000000000e+03 1.337680912017822266e+01 4.078566741943359375e+01 1.100882216333379238e-13 -9.007218256841531545e-14 6.004812227696550847e-15 -1.801443583605670529e-14
1.447000000000000000e+03 1.262800121307373047e+01 2.171934318542480469e+01 -4.053248147816053415e-14 -4.148324208013559611e-13 -1.366094737331735587e-13 1.040834085586084257e-13
1.448000000000000000e+03 1.781960868835449219e+01 3.447834777832031250e+01 9.507618894651417851e-14 -1.251002475438980910e-13 -9.007217918028352643e-15 -3.202566521438160452e-14
1.449000000000000000e+03 2.023118591308593750e+01 3.289593887329101562e+01 1.726383521815505473e-13 -1.776423517833858323e-13 -1.501203056924137712e-15 -1.015814019814272051e-13
1.450000000000000000e+03 6.688491058349609375e+01 3.913647460937500000e+01 1.961571909677578551e-13 8.406736949368581735e-14 8.406736949368581735e-14 -1.601283260719080226e-14
1.451000000000000000e+03 2.723526573181152344e+01 4.093688201904296875e+01 1.030826086382413687e-13 -1.331066604593617031e-13 -9.007217918028352643e-15 4.203368474684290867e-14
1.452000000000000000e+03 2.678202819824218750e+01 3.779981994628906250e+01 1.230986477031639770e-13 -7.305854326459387815e-14 1.501202929869195624e-14 -1.401122768425900472e-14
1.453000000000000000e+03 7.085935211181640625e+01 3.780772399902343750e+01 8.006416303595401129e-15 -8.807057595141762341e-14 -2.401924891078620339e-14 -8.006416303595401129e-14
1.454000000000000000e+03 7.086766052246093750e+01 3.616695785522460938e+01 1.681347389873716347e-13 -8.807057595141762341e-14 2.401924891078620339e-14 2.401924891078620339e-14
1.455000000000000000e+03 6.898954010009765625e+01 3.686937332153320312e+01 -1.501203056924137712e-15 -3.502806921064751181e-15 -1.501203056924137712e-15 -6.004811719476782494e-14
1.456000000000000000e+03 6.732538604736328125e+01 3.699008941650390625e+01 2.201764432666758475e-13 3.002405995263662808e-13 1.561251128379126385e-13 -1.040834085586084257e-13
1.457000000000000000e+03 6.278461074829101562e+01 3.612571334838867188e+01 4.003208151797700565e-14 -1.200962343895356499e-13 -2.401924891078620339e-14 -1.761411519028352468e-13
1.458000000000000000e+03 6.214516067504882812e+01 3.615816497802734375e+01 -2.802245536851800944e-14 -1.721379386688398627e-13 -6.004811719476782494e-14 8.006416303595401129e-15
1.459000000000000000e+03 5.015716934204101562e+01 3.874118423461914062e+01 2.261812563414053456e-13 1.541235129971785245e-13 1.140914348673333079e-13 1.601283260719080226e-14
1.460000000000000000e+03 4.791585540771484375e+01 4.170312118530273438e+01 1.441154866884536423e-13 1.601283260719080226e-14 4.803849782157240678e-14 -4.003208151797700565e-14
1.461000000000000000e+03 5.791355895996093750e+01 4.060150909423828125e+01 2.071660171968497943e-13 -1.170938346284344789e-13 2.702165375408505793e-14 -1.240994476235310340e-13
1.462000000000000000e+03 5.882758712768554688e+01 3.878931808471679688e+01 1.861491782115601290e-13 -4.603689120457471473e-14 4.203368474684290867e-14 -1.821459649775647449e-13
1.463000000000000000e+03 4.507633209228515625e+01 3.794178390502929688e+01 1.681347389873716347e-13 7.205774334422682115e-14 7.205774334422682115e-14 1.080866150163402317e-13
1.464000000000000000e+03 7.686753082275390625e+01 3.757058334350585938e+01 -2.181748434259417335e-13 -2.001604075898850282e-15 -6.605293026949732305e-14 -1.361090737729900302e-13
1.465000000000000000e+03 1.240668010711669922e+01 4.078351974487304688e+00 -6.325068507145870100e-13 -1.369097109987782446e-12 -6.004811990527325616e-13 1.921539912862896271e-13
1.466000000000000000e+03 6.819518280029296875e+01 3.717827987670898438e+01 -1.160930347080674219e-13 -4.003208151797700565e-15 -3.602887167211341057e-14 -6.805453688649501509e-14
1.467000000000000000e+03 5.012518310546875000e+01 3.974209594726562500e+01 2.421940957248597259e-13 5.804651735403371093e-14 9.007218256841531545e-14 -3.602887167211341057e-14
1.468000000000000000e+03 5.087324523925781250e+01 4.036346817016601562e+01 2.962373998448980528e-13 2.642117210779892922e-13 1.681347389873716347e-13 1.601283260719080226e-14
1.469000000000000000e+03 4.898638153076171875e+01 4.043108367919921875e+01 2.912959316033608692e-13 -1.419887851636077516e-14 8.312911448614401788e-14 -2.664635378394741155e-14
1.470000000000000000e+03 1.518507671356201172e+01 8.756831288337707520e-01 -1.040834085586084257e-12 -8.006416303595401129e-14 -3.362694779747432694e-13 1.505206224418353944e-12
1.471000000000000000e+03 5.015678405761718750e+01 4.133122634887695312e+01 1.533729062806396537e-13 -2.577065215956034216e-14 3.828067826920286687e-14 -4.303448466720996568e-14
1.472000000000000000e+03 1.167976665496826172e+01 5.137512207031250000e+00 -1.195958344293521214e-13 -7.060657939393644167e-13 -2.476985088394056955e-13 1.165934346682509504e-13
1.473000000000000000e+03 4.136867141723632812e+01 3.403192901611328125e+01 -1.261010474642651480e-13 2.602085213965210642e-14 -3.002405859738391247e-14 4.803849782157240678e-14
1.474000000000000000e+03 6.271048355102539062e+01 3.989517211914062500e+01 7.606094980195862720e-14 -3.602887167211341057e-14 1.200962445539310169e-14 -6.405133042876320904e-14
1.475000000000000000e+03 6.712283325195312500e+01 3.800273895263671875e+01 -4.003208151797700565e-15 4.403528797570881170e-14 1.200962445539310169e-14 3.202566521438160452e-14
1.476000000000000000e+03 3.388696432113647461e+00 4.170508575439453125e+01 1.000802037949425141e-14 -1.100882216333379238e-13 -3.002405859738391247e-14 -4.003208151797700565e-14
1.477000000000000000e+03 5.739365005493164062e+01 3.805517959594726562e+01 3.002405995263662808e-13 -1.000802021008766196e-13 6.004811719476782494e-14 -1.841475648182988589e-13
1.478000000000000000e+03 7.762912750244140625e+01 3.915122222900390625e+01 -1.661331391466375207e-13 -2.542037218743187221e-13 -1.261010474642651480e-13 -4.803849782157240678e-14
1.479000000000000000e+03 4.217276763916015625e+01 3.591925430297851562e+01 2.401924687790712998e-13 8.006416303595401129e-14 9.607699564314481355e-14 1.601283260719080226e-14
1.480000000000000000e+03 1.582660317420959473e+00 3.855921173095703125e+01 -2.401924891078620339e-14 -5.604491073703601889e-14 -2.401924891078620339e-14 -1.040834085586084257e-13
1.481000000000000000e+03 2.545077562332153320e+00 3.825923538208007812e+01 1.468676932457266271e-13 -7.430954994131627744e-14 2.176744400776264160e-14 9.832879546397069181e-14
1.482000000000000000e+03 1.050687599182128906e+01 3.679622650146484375e+00 -5.484394947734283488e-13 -2.121700303512122354e-13 -2.281828697346666157e-13 8.006416303595401129e-14
1.483000000000000000e+03 3.130778503417968750e+01 2.699382209777832031e+01 -9.607699564314481355e-14 -2.241796429481440756e-13 -9.607699564314481355e-14 -2.001604075898850282e-14
1.484000000000000000e+03 2.369169998168945312e+01 2.721632766723632812e+01 1.661331391466375207e-13 -6.605293026949732305e-14 3.002405859738391247e-14 -6.204972381176551699e-14
1.485000000000000000e+03 3.352814865112304688e+01 2.859784698486328125e+01 -6.405133042876320904e-14 -2.562053217150528361e-13 -9.607699564314481355e-14 -6.805453688649501509e-14
1.486000000000000000e+03 2.782659912109375000e+01 2.425380325317382812e+01 1.501202929869195624e-14 -8.506816941405287436e-14 -2.101684237342145434e-14 7.806255641895631925e-14
1.487000000000000000e+03 2.537500190734863281e+01 2.379983901977539062e+01 2.001604075898850282e-14 -6.004811719476782494e-14 -1.200962445539310169e-14 -1.601283260719080226e-13
1.488000000000000000e+03 1.122803211212158203e+01 2.288386917114257812e+01 2.001604075898850282e-14 -2.201764432666758475e-13 -6.004811719476782494e-14 7.806255641895631925e-14
1.489000000000000000e+03 2.493802261352539062e+01 2.210555839538574219e+01 2.682149478645118323e-13 -2.281828697346666157e-13 1.200962445539310169e-14 -2.802245536851800944e-14
1.490000000000000000e+03 9.492115020751953125e+00 2.283470535278320312e+01 -2.802245536851800944e-14 -1.200962445539310169e-14 -1.200962445539310169e-14 -6.405133042876320904e-14
1.491000000000000000e+03 1.036931037902832031e+01 2.146425247192382812e+01 -2.001604075898850282e-15 -1.381106736137241442e-13 -4.203368474684290867e-14 9.607699564314481355e-14
1.492000000000000000e+03 8.203173637390136719e+00 9.390733718872070312e+00 -1.991596042813861822e-13 1.891515779726613000e-13 -3.002406113848275424e-15 2.481988952470620680e-13
1.493000000000000000e+03 7.690497875213623047e+00 8.473657608032226562e+00 -8.006416303595401129e-15 8.807057595141762341e-14 2.401924891078620339e-14 2.401924687790712998e-13
1.494000000000000000e+03 9.981344223022460938e+00 2.087310218811035156e+01 8.006416303595401129e-14 -2.401924687790712998e-13 -4.803849782157240678e-14 2.201764432666758475e-13
1.495000000000000000e+03 7.048860073089599609e+00 9.013331413269042969e+00 -2.081668171172168513e-13 4.803849782157240678e-14 -4.803849782157240678e-14 1.120898214740720378e-13
1.496000000000000000e+03 5.930741786956787109e+00 2.394785118103027344e+01 8.986889466107428337e-14 -2.817413999583323614e-13 -5.756175023392470780e-14 -4.109543312743289822e-14
1.497000000000000000e+03 1.029691982269287109e+01 1.947726821899414062e+01 1.601283260719080226e-14 -1.761411519028352468e-13 -4.803849782157240678e-14 1.681347389873716347e-13
1.498000000000000000e+03 1.043280696868896484e+01 1.771433067321777344e+01 -1.080866150163402317e-13 -9.207378240914942946e-14 -6.004811719476782494e-14 -8.006416303595401129e-15
1.499000000000000000e+03 1.279150485992431641e+01 1.693396759033203125e+01 -1.954065978037461404e-13 -2.424442753761607561e-13 -1.313552673749829314e-13 -3.052446194569922999e-14
1.500000000000000000e+03 8.477345466613769531e+00 1.163401317596435547e+01 -4.563657394693332314e-13 -1.040834085586084257e-13 -1.681347389873716347e-13 1.281026608575264181e-13
1.501000000000000000e+03 7.055379867553710938e+00 1.972739601135253906e+01 2.942358000041639388e-13 -1.941555911270237411e-13 3.002405859738391247e-14 1.921539912862896271e-13
1.502000000000000000e+03 9.911806106567382812e+00 1.720928192138671875e+01 7.881315466516571749e-15 3.377706719260632241e-15 3.377706719260632241e-15 1.198460411857074637e-13
1.503000000000000000e+03 1.523760795593261719e+01 1.610049438476562500e+01 1.521218996039172544e-13 -3.923143819355157103e-13 -7.205774334422682115e-14 -1.120898214740720378e-13
1.504000000000000000e+03 9.059492111206054688e+00 1.604281616210937500e+01 -1.125902282105191443e-13 -3.227586383922065316e-13 -1.306046606584440606e-13 0.000000000000000000e+00
1.505000000000000000e+03 1.490241527557373047e+01 9.732781648635864258e-01 -2.678146116333324223e-12 -1.765414745814875008e-12 -1.333068312854568394e-12 1.745398747407533868e-12
1.506000000000000000e+03 1.445492744445800781e+01 9.512775540351867676e-01 -4.443560970568416479e-12 -4.283432549628818364e-12 -2.618098012691083554e-12 2.161732381641967571e-12
1.507000000000000000e+03 5.395429611206054688e+01 3.693809890747070312e+01 1.281026608575264181e-13 -1.281026608575264181e-13 0.000000000000000000e+00 -1.281026608575264181e-13
1.508000000000000000e+03 5.457032394409179688e+01 3.671128845214843750e+01 -8.807057595141762341e-14 8.006416303595401129e-15 -2.401924891078620339e-14 -1.761411519028352468e-13
1.509000000000000000e+03 5.450144958496093750e+01 3.609733200073242188e+01 1.521218996039172544e-13 -7.205774334422682115e-14 2.401924891078620339e-14 8.006416303595401129e-15
1.510000000000000000e+03 5.398003387451171875e+01 3.642699813842773438e+01 -8.006416303595401129e-15 8.807057595141762341e-14 2.401924891078620339e-14 4.803849782157240678e-14
1.511000000000000000e+03 5.522428131103515625e+01 3.568979263305664062e+01 1.601283260719080226e-14 1.441154866884536423e-13 4.803849782157240678e-14 -1.000802021008766196e-13
1.512000000000000000e+03 5.539638900756835938e+01 3.641075515747070312e+01 1.040834085586084257e-13 1.361090737729900302e-13 7.205774334422682115e-14 -1.281026608575264181e-13
1.513000000000000000e+03 5.406488800048828125e+01 3.589797592163085938e+01 3.202566521438160452e-14 -3.202566521438160452e-14 0.000000000000000000e+00 9.607699564314481355e-14
1.514000000000000000e+03 2.666285514831542969e+01 7.755641937255859375e+00 7.365902592731954357e-13 -4.163336342344337027e-13 9.607699564314481355e-14 -4.483592858962881511e-13
1.515000000000000000e+03 2.613673210144042969e+01 7.422132015228271484e+00 1.832468421794630764e-12 -1.010810020212436766e-13 5.194162157676207592e-13 2.001603960702369456e-12
1.516000000000000000e+03 2.664976310729980469e+01 7.826040744781494141e+00 5.124106434301056723e-13 -5.124106434301056723e-13 0.000000000000000000e+00 -1.281026608575264181e-13
1.517000000000000000e+03 2.821692466735839844e+01 8.096912384033203125e+00 -1.401122870069854143e-13 -6.004811719476782494e-14 -6.004811719476782494e-14 -4.003208151797700565e-14
1.518000000000000000e+03 1.579107666015625000e+01 5.069116353988647461e-01 -8.446768675132720894e-13 1.641315257533762506e-13 -2.041636038832214672e-13 3.162534253572935050e-13
1.519000000000000000e+03 1.626283645629882812e+01 6.976646780967712402e-01 5.904731998490619915e-13 3.102486258350911630e-13 2.702165477052459464e-13 2.001604042017532392e-13
1.520000000000000000e+03 1.673426437377929688e+01 1.871538758277893066e-01 -3.722983564231202580e-13 9.207378240914942946e-14 -8.406736949368581735e-14 1.801443651368306309e-13
1.521000000000000000e+03 1.695173645019531250e+01 1.009778618812561035e+00 7.205774605473225236e-13 4.003208084035064784e-13 3.362694779747432694e-13 6.485197036505685464e-13
1.522000000000000000e+03 2.673784065246582031e+01 6.450963973999023438e+00 -3.913135820151486532e-13 -5.904731727440076794e-14 -1.351082738526229732e-13 -6.925550085669363032e-13
1.523000000000000000e+03 2.141027832031250000e+01 3.081205368041992188e+00 -6.525229033320367744e-13 -2.802245536851800944e-14 -2.041636038832214672e-13 -4.923945908126559079e-13
1.524000000000000000e+03 2.777861022949218750e+01 7.907329082489013672e+00 -3.162534253572935050e-13 1.160930347080674219e-13 -6.004811719476782494e-14 2.481988952470620680e-13
1.525000000000000000e+03 1.831746482849121094e+01 1.793717980384826660e+00 1.130906241049445260e-12 6.104891982564031316e-13 5.224186426337762423e-13 5.724587470723463412e-13
1.526000000000000000e+03 1.764193344116210938e+01 1.385449767112731934e+00 1.060850083993425397e-12 3.402726776562114974e-13 4.203368339159019307e-13 6.965582082484045312e-13
1.527000000000000000e+03 1.941045379638671875e+01 1.815795183181762695e+00 -9.527634757533487431e-13 -4.083272077664429345e-13 -4.083272077664429345e-13 -3.042437992078345088e-13
1.528000000000000000e+03 2.007798767089843750e+01 2.236675500869750977e+00 -7.606095115721134281e-13 -2.802245740139708285e-13 -3.122502256758252770e-13 -5.924747996897961055e-13
1.529000000000000000e+03 2.029679107666015625e+01 3.080831766128540039e+00 9.627715291671279374e-13 5.384314955697577787e-13 4.503609128420765773e-13 6.965582082484045312e-13
1.530000000000000000e+03 2.095136833190917969e+01 3.517306327819824219e+00 1.088872590183920241e-12 5.124106434301056723e-13 4.803849375581425996e-13 7.926351632339678766e-13
1.531000000000000000e+03 2.207550430297851562e+01 3.504298448562622070e+00 -8.266624689466650633e-13 -4.343480599060950409e-13 -3.783031559453226000e-13 -3.482791041242022656e-13
1.532000000000000000e+03 2.225897407531738281e+01 4.387421607971191406e+00 8.326672684688674053e-13 1.281026608575264181e-13 2.882309733769072846e-13 8.046448164884811849e-13
1.533000000000000000e+03 2.407743072509765625e+01 4.759360790252685547e+00 -6.184956518294482120e-13 -1.621299259126421366e-13 -2.341876692568689577e-13 -2.962373998448980528e-13
1.534000000000000000e+03 2.424750137329101562e+01 5.659109592437744141e+00 1.168936692233502050e-12 5.924747996897961055e-13 5.284234421559785844e-13 5.784635465945486832e-13
1.535000000000000000e+03 2.541352272033691406e+01 5.607533454895019531e+00 -5.804651464352827972e-13 -1.801443651368306309e-13 -2.281828697346666157e-13 -6.265020511923846680e-13
1.536000000000000000e+03 2.489480400085449219e+01 6.110505580902099609e+00 8.566865207677853977e-13 5.044041898570605920e-13 4.083272077664429345e-13 7.285838599102589797e-13
1.537000000000000000e+03 2.607724380493164062e+01 6.030574798583984375e+00 -9.517627571481446225e-13 -2.992397996059992238e-13 -3.753007561842214290e-13 -2.321860694161348437e-13
1.538000000000000000e+03 2.554079437255859375e+01 6.556051731109619141e+00 1.012811579395589412e-12 5.484394947734283488e-13 4.683753385137379155e-13 5.544442942956306908e-13
1.539000000000000000e+03 2.620363426208496094e+01 6.990326881408691406e+00 6.895525817007808200e-13 5.414338682258046376e-13 3.692959295569647749e-13 6.385117044468979763e-13
1.540000000000000000e+03 2.685677909851074219e+01 7.412545204162597656e+00 5.514419216395838319e-13 7.395926861393509189e-13 3.873103823336804252e-13 -1.361090737729900302e-13
1.541000000000000000e+03 2.776221466064453125e+01 7.362480163574218750e+00 3.402726776562114974e-13 -3.803047557860567141e-13 -1.200962445539310169e-14 -1.521218996039172544e-13
1.542000000000000000e+03 2.737894630432128906e+01 7.737019538879394531e+00 5.844683461167510252e-13 -9.847891816253118158e-13 -1.200962343895356499e-13 3.202566521438160452e-13
1.543000000000000000e+03 2.803461647033691406e+01 8.686052322387695312e+00 1.501202997631831404e-13 1.100882216333379238e-13 7.806255641895631925e-14 1.801443583605670529e-14
1.544000000000000000e+03 2.761102485656738281e+01 8.303568840026855469e+00 1.000802021008766196e-13 2.001604075898850282e-14 3.602887167211341057e-14 -3.402726776562114974e-13
1.545000000000000000e+03 1.613242340087890625e+01 -1.521811783313751221e-01 3.362694779747432694e-13 1.441154866884536423e-13 1.441154866884536423e-13 4.243400607024244708e-13
1.546000000000000000e+03 2.474598884582519531e+01 5.182096004486083984e+00 -9.627715291671279374e-13 -2.181748434259417335e-13 -3.542839036464046076e-13 -4.183352340751678167e-13
1.547000000000000000e+03 2.359036827087402344e+01 5.223106384277343750e+00 5.884716000083278775e-13 4.123304345529654746e-13 3.002405995263662808e-13 7.846287638710314205e-13
1.548000000000000000e+03 2.292430496215820312e+01 4.804641723632812500e+00 1.020818087178743117e-12 4.603689391508014594e-13 4.443560862148199231e-13 3.002405995263662808e-13
1.549000000000000000e+03 2.340895080566406250e+01 4.340773105621337891e+00 -5.024025900163264780e-13 -3.182550251980276190e-13 -2.461972954063279539e-13 -2.562053217150528361e-13
1.550000000000000000e+03 2.274085235595703125e+01 3.923990488052368164e+00 -2.842277736954390566e-13 -2.361892690976030718e-13 -1.561251128379126385e-13 -4.843881914497194519e-13
1.551000000000000000e+03 2.160291481018066406e+01 3.957338571548461914e+00 1.275021754842953214e-12 6.265020511923846680e-13 5.704571472316122271e-13 6.084875984156690176e-13
1.552000000000000000e+03 2.074438095092773438e+01 2.658224105834960938e+00 -6.405133042876320904e-13 -3.202566521438160452e-13 -2.882309733769072846e-13 -3.242598518252842732e-13
1.553000000000000000e+03 1.963918876647949219e+01 2.649476766586303711e+00 1.158928747239940105e-12 4.623705389915355735e-13 4.863897912904535659e-13 6.004811990527325616e-13
1.554000000000000000e+03 1.898037338256835938e+01 2.218899488449096680e+00 9.467587304412550253e-13 3.943159817762498243e-13 4.023224082442405924e-13 8.406736678318038614e-13
1.555000000000000000e+03 1.739060020446777344e+01 5.764690637588500977e-01 -5.524426944548965768e-13 -8.006416303595401129e-15 -1.681347389873716347e-13 -1.881507780522942430e-13
1.556000000000000000e+03 2.737304496765136719e+01 6.862043857574462891e+00 -3.541900930534302994e-13 -5.061868892791698826e-13 -2.581130838577583297e-13 -2.882309733769072846e-13
1.557000000000000000e+03 2.831841278076171875e+01 7.399614334106445312e+00 2.401924891078620339e-14 5.604491073703601889e-14 2.401924891078620339e-14 -2.401924891078620339e-14
1.558000000000000000e+03 2.723757743835449219e+01 8.264894485473632812e+00 -7.285838599102589797e-13 -3.122502256758252770e-13 -3.122502256758252770e-13 3.122502256758252770e-13
1.559000000000000000e+03 1.806696701049804688e+01 9.819889664649963379e-01 -9.767827822623753597e-13 -1.441154866884536423e-13 -3.362694779747432694e-13 -3.122502256758252770e-13
1.560000000000000000e+03 1.874140167236328125e+01 1.396335721015930176e+00 -6.685357562680183108e-13 -1.721379386688398627e-13 -2.522020949285302960e-13 -6.245004513516505540e-13
1.561000000000000000e+03 2.722784042358398438e+01 8.057379722595214844e+00 -1.032827686223147801e-12 -8.086480161699494129e-13 -5.524426944548965768e-13 1.541235129971785245e-12
1.562000000000000000e+03 1.475407886505126953e+01 2.160628139972686768e-01 -2.846030702774449139e-14 4.034482979902581645e-14 3.565357339604165871e-15 1.042210154983402859e-12
1.563000000000000000e+03 1.500916194915771484e+01 -3.388480842113494873e-01 1.208968797468401579e-12 -4.883913911311876799e-13 2.161732300326804634e-13 1.601283260719080226e-13
1.564000000000000000e+03 1.531368350982666016e+01 4.549172520637512207e-01 -8.286640687873991773e-13 3.082470259943570490e-13 -1.561251128379126385e-13 7.686159651451585084e-13
1.565000000000000000e+03 1.346279621124267578e+01 5.895571708679199219e-01 4.603689391508014594e-13 -1.381106817452404378e-12 -2.762213472274482884e-13 1.120898214740720378e-13
1.566000000000000000e+03 1.332272911071777344e+01 -1.431303471326828003e-01 2.554046817787591905e-12 8.807057595141762341e-14 7.926351632339678766e-13 -2.481988952470620680e-13
1.567000000000000000e+03 1.418815517425537109e+01 5.270836949348449707e-01 -1.281026608575264181e-13 -8.326672684688674053e-13 -2.882309733769072846e-13 9.607698751162851991e-13
1.568000000000000000e+03 1.555681705474853516e+01 -3.017292618751525879e-01 7.165742608658542956e-13 -3.602887167211341057e-14 2.041636038832214672e-13 4.323464600653609269e-13
1.569000000000000000e+03 1.394102001190185547e+01 -1.989094614982604980e-01 2.570059616513464817e-12 -4.083272077664429345e-13 6.485197036505685464e-13 -1.601283260719080226e-14
1.570000000000000000e+03 1.449648284912109375e+01 -3.063628971576690674e-01 2.129706567349787250e-12 2.722181475459800604e-13 7.205774605473225236e-13 2.562053217150528361e-13
1.571000000000000000e+03 1.114653110504150391e+01 1.993262022733688354e-01 1.637312030747239966e-12 -7.606094980195862720e-14 4.683753385137379155e-13 -5.204170427930421283e-13
1.572000000000000000e+03 1.121876430511474609e+01 9.378392100334167480e-01 2.682149478645118323e-13 7.325870595917272077e-13 3.002405995263662808e-13 -4.083272077664429345e-13
1.573000000000000000e+03 1.040455722808837891e+01 3.265222907066345215e-01 1.269016901110642248e-12 4.523625126828106913e-13 5.164138431115739003e-13 -2.802245740139708285e-13
1.574000000000000000e+03 1.188854217529296875e+01 7.071893662214279175e-02 2.069658463707546581e-12 2.922341730583755126e-13 7.085678072928092153e-13 -5.364298957290236647e-13
1.575000000000000000e+03 1.271423625946044922e+01 6.772393584251403809e-01 6.965582082484045312e-13 2.401924891078620339e-14 2.161732300326804634e-13 -3.282630515067525012e-13
1.576000000000000000e+03 1.263056278228759766e+01 -5.929099395871162415e-02 2.333870293205753121e-12 -3.722983564231202580e-13 5.884716000083278775e-13 -4.483592858962881511e-13
1.577000000000000000e+03 1.047107124328613281e+01 1.066026568412780762e+00 4.803849375581425996e-13 -1.601283260719080226e-13 9.607699564314481355e-14 -4.883913911311876799e-13
1.578000000000000000e+03 1.196649551391601562e+01 8.082405924797058105e-01 3.883111822540474822e-13 -2.682149478645118323e-13 3.602887167211341057e-14 -4.883913911311876799e-13
1.579000000000000000e+03 8.876827239990234375e+00 3.907654583454132080e-01 6.285036510331187820e-13 2.922341730583755126e-13 2.762213472274482884e-13 -1.921539912862896271e-13
1.580000000000000000e+03 9.647832870483398438e+00 3.904283344745635986e-01 9.407538767089440590e-13 -2.602085213965210642e-13 2.041636038832214672e-13 -2.562053217150528361e-13
1.581000000000000000e+03 7.379626274108886719e+00 1.131214857101440430e+00 2.401924891078620339e-14 -2.642117210779892922e-13 -7.205774334422682115e-14 -4.003208084035064784e-13
1.582000000000000000e+03 7.333109855651855469e+00 3.912148773670196533e-01 1.441154866884536423e-13 3.362694779747432694e-13 1.441154866884536423e-13 -9.607699564314481355e-14
1.583000000000000000e+03 5.048897743225097656e+00 1.131865501403808594e+00 1.521218996039172544e-13 -7.205774334422682115e-14 2.401924891078620339e-14 4.803849782157240678e-14
1.584000000000000000e+03 2.717499017715454102e+00 1.131736278533935547e+00 2.802245740139708285e-13 -2.001604042017532392e-13 2.401924891078620339e-14 -3.202566521438160452e-14
1.585000000000000000e+03 2.700361490249633789e+00 3.917362987995147705e-01 3.763015561045884860e-13 2.401924891078620339e-14 1.200962343895356499e-13 1.601283260719080226e-14
1.586000000000000000e+03 1.940472364425659180e+00 1.131693840026855469e+00 4.803849782157240678e-14 -2.081668171172168513e-13 -4.803849782157240678e-14 -4.803849782157240678e-14
1.587000000000000000e+03 1.928231120109558105e+00 3.916938602924346924e-01 2.481988952470620680e-13 -1.681347389873716347e-13 2.401924891078620339e-14 -1.601283260719080226e-14
1.588000000000000000e+03 1.157143712043762207e+00 3.913856744766235352e-01 1.120898214740720378e-13 4.803849782157240678e-14 4.803849782157240678e-14 3.202566521438160452e-14
1.589000000000000000e+03 3.882699608802795410e-01 1.130560278892517090e+00 2.401924891078620339e-14 -2.642117210779892922e-13 -7.205774334422682115e-14 -1.601283260719080226e-14
1.590000000000000000e+03 3.858217298984527588e-01 3.905603289604187012e-01 1.040834085586084257e-13 1.361090737729900302e-13 7.205774334422682115e-14 -1.120898214740720378e-13
1.591000000000000000e+03 4.245013236999511719e+00 3.917648196220397949e-01 2.642117210779892922e-13 -2.401924891078620339e-14 7.205774334422682115e-14 -6.405133042876320904e-14
1.592000000000000000e+03 3.495027065277099609e+00 1.131726503372192383e+00 1.761411519028352468e-13 -1.601283260719080226e-14 4.803849782157240678e-14 3.202566521438160452e-14
1.593000000000000000e+03 4.271943569183349609e+00 1.131764769554138184e+00 3.362694779747432694e-13 -1.761411519028352468e-13 4.803849782157240678e-14 -1.601283260719080226e-14
1.594000000000000000e+03 5.017070770263671875e+00 3.918655514717102051e-01 3.843079825725792542e-13 -6.405133042876320904e-14 9.607699564314481355e-14 -1.601283260719080226e-14
1.595000000000000000e+03 5.789480209350585938e+00 3.920044898986816406e-01 2.642117210779892922e-13 2.962373998448980528e-13 1.681347389873716347e-13 -4.003208151797700565e-14
1.596000000000000000e+03 6.603249549865722656e+00 1.131646037101745605e+00 1.441154866884536423e-13 1.601283260719080226e-14 4.803849782157240678e-14 -8.006416303595401129e-14
1.597000000000000000e+03 6.561629772186279297e+00 3.916460275650024414e-01 4.483592858962881511e-13 -1.281026608575264181e-13 9.607699564314481355e-14 4.803849782157240678e-14
1.598000000000000000e+03 8.105130195617675781e+00 3.909509181976318359e-01 3.682951296365977178e-13 -2.081668171172168513e-13 4.803849782157240678e-14 -1.120898214740720378e-13
1.599000000000000000e+03 8.933135986328125000e+00 1.130765438079833984e+00 2.722181475459800604e-13 -4.323464600653609269e-13 -4.803849782157240678e-14 -3.042437992078345088e-13
1.600000000000000000e+03 9.709038734436035156e+00 1.130428314208984375e+00 6.004811990527325616e-13 4.403528865333516951e-13 3.122502256758252770e-13 -3.763015561045884860e-13
1.601000000000000000e+03 8.156541824340820312e+00 1.130950927734375000e+00 2.161732300326804634e-13 1.841475648182988589e-13 1.200962343895356499e-13 -2.081668171172168513e-13
1.602000000000000000e+03 1.164488434791564941e+00 1.131385684013366699e+00 1.601283260719080226e-13 -1.601283260719080226e-13 0.000000000000000000e+00 -1.441154866884536423e-13
1.603000000000000000e+03 5.826203823089599609e+00 1.132004499435424805e+00 1.601283260719080226e-13 -1.601283260719080226e-13 0.000000000000000000e+00 1.120898214740720378e-13
1.604000000000000000e+03 3.472993135452270508e+00 3.917265534400939941e-01 3.522823038056704936e-13 -3.202566521438160452e-14 9.607699564314481355e-14 -1.601283260719080226e-14
1.605000000000000000e+03 5.768161010742187500e+01 3.396916198730468750e+01 -8.584804958924885376e-14 -2.197958205414976551e-13 -9.169315968397123706e-14 -1.405949500972534377e-14
1.606000000000000000e+03 5.661249923706054688e+01 3.465427017211914062e+01 9.588252365471880423e-14 -4.658438111442789881e-15 2.736722625590586738e-14 -9.290769651011665520e-14
1.607000000000000000e+03 5.564853668212890625e+01 3.400071334838867188e+01 -4.154941907023868009e-14 -1.321842619085925041e-13 -5.212010564890207087e-14 6.001541494674023092e-14
1.608000000000000000e+03 5.811587142944335938e+01 3.345887374877929688e+01 -8.619231766033089159e-14 -4.029471526410810522e-13 -1.467418444785553722e-13 -1.586348782368907084e-13
1.609000000000000000e+03 5.732149505615234375e+01 3.459194183349609375e+01 5.956076831823559070e-14 1.399034154584560818e-13 5.983925242250207055e-14 5.432793429537008389e-14
1.610000000000000000e+03 5.760569763183593750e+01 3.355183410644531250e+01 -1.078992309996168464e-13 -3.207482294088209729e-13 -1.285942381225313458e-13 -1.372121884971218286e-14
1.611000000000000000e+03 5.709801864624023438e+01 3.364136123657226562e+01 -1.214653106828417206e-13 -2.350603435855025403e-13 -1.069576962805032783e-13 -1.492624790043126093e-13
1.612000000000000000e+03 5.615872192382812500e+01 3.383953857421875000e+01 -1.591380259719551299e-14 -9.832210051555559382e-14 -3.427077008679238479e-14 -8.118989692790928858e-14
1.613000000000000000e+03 5.824289321899414062e+01 3.419312286376953125e+01 -1.523566700318418343e-13 -2.482995092086687228e-13 -1.201968483511423047e-13 -1.151758538802533094e-13
1.614000000000000000e+03 5.817047882080078125e+01 3.383736801147460938e+01 -1.152653276645376756e-13 -3.239051279795013283e-13 -1.317511366932117012e-13 -2.272304929938281925e-13
1.615000000000000000e+03 5.659939193725585938e+01 3.370362472534179688e+01 -2.240235788216783652e-14 -3.298576418519355569e-13 -1.056780056800550593e-13 -4.508563593535845626e-14
1.616000000000000000e+03 5.586623382568359375e+01 3.471669006347656250e+01 1.845151635648800692e-13 -8.105039398962829433e-14 3.103943087257553246e-14 3.227443201472661449e-14
1.617000000000000000e+03 5.783316040039062500e+01 3.438870620727539062e+01 -1.248921349368894984e-13 -2.365290038483514046e-13 -1.084263429908249865e-13 -2.058013590273966020e-13
1.618000000000000000e+03 5.823065185546875000e+01 3.455633926391601562e+01 -1.197190269012007868e-13 -9.705910662856365168e-14 -6.503344141418204716e-14 -7.733700832512901968e-14
1.619000000000000000e+03 5.717266082763671875e+01 3.409342575073242188e+01 -9.942668568888382574e-14 -1.798642886106233130e-13 -8.378729296747849942e-14 -9.471433647144714141e-14
1.620000000000000000e+03 5.659407806396484375e+01 3.412570571899414062e+01 6.545475560214633615e-14 2.805203714716791863e-14 2.805203714716791863e-14 -5.454413437295906053e-14
1.621000000000000000e+03 6.030538940429687500e+01 3.361909484863281250e+01 -6.339491377595901644e-14 -7.292019906738472779e-14 -4.089453385300312327e-14 -6.348234959897228885e-15
1.622000000000000000e+03 5.926757431030273438e+01 3.329380416870117188e+01 3.264648954274217141e-14 1.399135205615168256e-14 1.399135205615168256e-14 2.219447634574725492e-13
1.623000000000000000e+03 5.941461563110351562e+01 3.439571380615234375e+01 -2.710365840184053576e-13 -2.465664289766095890e-14 -8.870797163235827343e-14 1.294700295324108241e-13
1.624000000000000000e+03 5.871822738647460938e+01 3.373794555664062500e+01 -1.571715305646870231e-13 -3.418649098616693971e-13 -1.497109321279069261e-13 1.541135281727962908e-14
1.625000000000000000e+03 5.867284011840820312e+01 3.337319946289062500e+01 1.292911497264778720e-13 -3.609140642054330106e-14 2.795992231415401347e-14 -1.546474265919778324e-13
1.626000000000000000e+03 6.084519577026367188e+01 3.375273513793945312e+01 -1.501120598266722506e-13 -5.289600476924595507e-14 -6.090242107284135620e-14 3.012374421088037657e-14
1.627000000000000000e+03 6.062648010253906250e+01 3.421650695800781250e+01 -2.858800910300433873e-14 -1.225200378028286699e-14 -1.225200378028286699e-14 5.610625963933975335e-14
1.628000000000000000e+03 6.119981765747070312e+01 3.408632659912109375e+01 -2.500700282969964966e-14 3.503366216919823195e-14 3.007997378333101060e-15 -7.510610650117779952e-14
1.629000000000000000e+03 6.106985473632812500e+01 3.320307159423828125e+01 -1.288415581906024454e-13 8.203503252136173929e-14 -1.404195888661833799e-14 -7.721989416170985110e-15
1.630000000000000000e+03 6.002620315551757812e+01 3.428788757324218750e+01 -4.445186894356384366e-14 -6.480174740992189486e-14 -3.277608558367207936e-14 2.419643803895643597e-14
1.631000000000000000e+03 5.876851654052734375e+01 3.410644912719726562e+01 -2.054915482566088691e-13 -2.710716037485766394e-13 -1.429689428910502214e-13 -2.396595359774496281e-14
1.632000000000000000e+03 5.881992721557617188e+01 3.447537231445312500e+01 -3.587425766605339961e-13 -1.537468205048755920e-13 -1.537468205048755920e-13 -4.331912161880530077e-14
1.633000000000000000e+03 5.992116165161132812e+01 3.390660095214843750e+01 -1.973142786312886976e-13 -4.505708414877240831e-13 -1.943655333251984030e-13 1.000442675751223032e-13
1.634000000000000000e+03 5.929770278930664062e+01 3.365453720092773438e+01 -1.094959829728812950e-13 -5.501872828855836062e-13 -1.979049790799131125e-13 7.241826767163256351e-14
1.635000000000000000e+03 5.985481262207031250e+01 3.322290039062500000e+01 -1.928614467563635748e-13 -7.231681616384766365e-13 -2.748089028472427975e-13 1.074737765146063784e-13
1.636000000000000000e+03 6.043753814697265625e+01 3.318613815307617188e+01 -6.925775057620153774e-14 -2.126856904569734974e-13 -8.458302959944707933e-14 1.851895745856157321e-14
1.637000000000000000e+03 5.935250091552734375e+01 3.402221298217773438e+01 -1.209240091957011765e-13 -2.348283785306992666e-13 -1.067257176731728485e-13 1.350580617395097383e-13
1.638000000000000000e+03 5.983745956420898438e+01 3.357640457153320312e+01 3.642542200483177284e-14 -7.589100111142152438e-14 -1.183967407079010437e-14 1.864617401453605439e-13
1.639000000000000000e+03 6.330806350708007812e+01 3.389487075805664062e+01 -2.162436150824655068e-15 -9.242865533273109113e-14 -2.837732829209967111e-14 -1.189827578054809712e-16
1.640000000000000000e+03 6.260075378417968750e+01 3.391135787963867188e+01 -6.134289684013843197e-15 -9.413087984858764523e-14 -3.007954941982443620e-14 -3.937908349014793141e-14
1.641000000000000000e+03 6.172068405151367188e+01 3.319697189331054688e+01 3.899661084501293562e-14 1.082147270555465501e-13 4.416340340304691914e-14 2.085347512888451743e-14
1.642000000000000000e+03 6.417461395263671875e+01 3.281431579589843750e+01 1.502670058696475852e-13 -2.710175088364331908e-14 3.694957615698810094e-14 2.101588624263059368e-13
1.643000000000000000e+03 6.320570373535156250e+01 3.338335418701171875e+01 -2.466702243939661310e-14 -1.478244339003093044e-13 -5.174743486903270184e-14 -3.642346366465772090e-14
1.644000000000000000e+03 6.383275222778320312e+01 3.372370910644531250e+01 8.663347952431524335e-14 -8.622313441301789755e-15 2.340335092604686751e-14 1.470974356860763055e-13
1.645000000000000000e+03 6.263431549072265625e+01 3.337655639648437500e+01 9.124381209358461975e-14 -9.814835711741479174e-14 -2.071364438885293577e-15 3.822474021336619288e-14
1.646000000000000000e+03 6.223461151123046875e+01 3.306608581542968750e+01 5.697711115307084462e-15 -4.330907241991907575e-14 -1.128340889960336574e-14 1.213672717013947189e-13
1.647000000000000000e+03 6.425111389160156250e+01 3.355496215820312500e+01 2.464219420964669505e-13 2.886132088528170492e-13 1.605105479952906311e-13 1.337867804821618600e-13
1.648000000000000000e+03 6.420417785644531250e+01 3.319490432739257812e+01 -9.947863252547303747e-14 -3.171393811625400350e-13 -1.249854034287775639e-13 9.552176893435140870e-14
1.649000000000000000e+03 6.267730331420898438e+01 3.295805358886718750e+01 7.505872686624018297e-14 -5.933387190858868676e-14 4.717457673141575020e-15 1.864968682957490742e-13
1.650000000000000000e+03 6.185705184936523438e+01 3.392813491821289062e+01 -1.252531607078000153e-13 -1.451818266301474480e-13 -8.113049620138423901e-14 -4.145443957179716088e-14
1.651000000000000000e+03 6.367114639282226562e+01 3.287343597412109375e+01 -3.193271181874991760e-14 -2.881911289470684423e-13 -9.603715798956954930e-14 1.134814423963022290e-13
1.652000000000000000e+03 6.421114349365234375e+01 3.391784286499023438e+01 2.603093521985622161e-13 2.030630573629857438e-13 1.390117269342225348e-13 1.697473338648815278e-14
1.653000000000000000e+03 6.316877746582031250e+01 3.292873382568359375e+01 1.906531031138636312e-13 -5.554437525158092970e-14 4.053261700343209484e-14 1.386242466303033716e-13
1.654000000000000000e+03 6.371665573120117188e+01 3.329353332519531250e+01 1.125517254808687528e-13 -4.326544344687190125e-14 2.078588528782541328e-14 1.158425433486418021e-13
1.655000000000000000e+03 6.579209899902343750e+01 3.304207229614257812e+01 1.509838125834592204e-13 -2.679455066839902394e-14 3.725677806629829059e-14 -1.624627353220137183e-13
1.656000000000000000e+03 6.520304107666015625e+01 3.275822448730468750e+01 1.128805978811014965e-13 2.313811848283359174e-13 1.032785375233366554e-13 -7.520647651729564509e-14
1.657000000000000000e+03 6.527038574218750000e+01 3.316007614135742188e+01 7.854037109263425909e-14 1.251620606202569208e-13 6.111073019149371177e-14 -1.261318523584908924e-13
1.658000000000000000e+03 6.468869781494140625e+01 3.277901077270507812e+01 -1.380581575709943776e-13 -2.421715714247263396e-13 -1.140689241197270776e-13 1.217234456675833632e-14
1.659000000000000000e+03 6.611505889892578125e+01 3.271570587158203125e+01 3.013208443609222131e-13 -9.961724777322530922e-14 6.051107829868271337e-14 -2.840590718374003121e-13
1.660000000000000000e+03 6.638887786865234375e+01 3.371172332763671875e+01 2.823218818014811005e-13 1.667460386347435763e-13 1.347203734203619718e-13 -1.185709753851512532e-14
1.661000000000000000e+03 6.657286834716796875e+01 3.281771850585937500e+01 5.321000665905670224e-14 -1.601995039445316960e-13 -3.209684986326885592e-14 -3.528314725348251357e-14
1.662000000000000000e+03 6.715573883056640625e+01 3.284706878662109375e+01 2.718606318796029653e-13 2.766400118963535659e-13 1.645501904222815281e-13 -2.362217409526690126e-13
1.663000000000000000e+03 6.711808776855468750e+01 3.358992767333984375e+01 9.548052859421549132e-14 -3.250873691334338345e-13 -6.888205419464457635e-14 -1.288188983651974984e-13
1.664000000000000000e+03 6.472205352783203125e+01 3.315577697753906250e+01 2.306335732202985378e-13 3.733486501726612783e-13 1.811946724388988073e-13 3.186418007705346667e-14
1.665000000000000000e+03 6.472689056396484375e+01 3.351884841918945312e+01 1.674545512019356974e-14 -8.432527408546580672e-14 -2.027394535076849219e-14 4.319683039001251390e-14
1.666000000000000000e+03 6.614317321777343750e+01 3.332160186767578125e+01 2.797750095831497141e-13 -2.117908035363311181e-13 2.039526249167193661e-14 -1.156463163079490819e-13
1.667000000000000000e+03 6.520865631103515625e+01 3.361383438110351562e+01 2.896731520016931904e-13 5.551920820865210993e-14 1.035577060302245167e-13 -1.343931476521786905e-13
1.668000000000000000e+03 6.480337524414062500e+01 3.387746047973632812e+01 4.756981484069222610e-13 1.581196789170527528e-13 1.901453441314343573e-13 1.487965973307955880e-13
1.669000000000000000e+03 6.568726348876953125e+01 3.270902633666992188e+01 -7.495840428396738364e-14 -2.151288316324523331e-13 -8.702617077492591502e-14 8.298412277436481577e-14
1.670000000000000000e+03 6.574227142333984375e+01 3.375740432739257812e+01 2.594127441069710160e-13 -3.692080820759391369e-13 -3.293859732493228942e-14 -1.000494785218138116e-13
1.671000000000000000e+03 6.976425933837890625e+01 3.305995178222656250e+01 -5.381146781424303582e-14 4.344474270352033374e-13 1.141907884439144483e-13 4.159952953939824449e-14
1.672000000000000000e+03 6.787223052978515625e+01 3.355271911621093750e+01 1.003758165994683704e-13 2.260220005947943811e-13 9.791934651353154107e-14 6.235959556892545219e-14
1.673000000000000000e+03 6.778909301757812500e+01 3.281352615356445312e+01 -3.401689737184132589e-14 -1.747069963741257337e-13 -6.261716812379011787e-14 -4.054812787076221559e-14
1.674000000000000000e+03 7.025724792480468750e+01 3.261145019531250000e+01 -3.342562094081277801e-14 2.601804405602536896e-13 6.802644249770048446e-14 -4.604944423285302346e-14
1.675000000000000000e+03 6.985187530517578125e+01 3.349503326416015625e+01 3.486052321376859053e-13 -5.139865312878133530e-13 -4.961438229114829845e-14 -2.507646867933033263e-13
1.676000000000000000e+03 6.931961059570312500e+01 3.362705230712890625e+01 1.851243361080182059e-13 4.453465862145483678e-13 1.891412780520226877e-13 4.636807431068756813e-14
1.677000000000000000e+03 6.924748992919921875e+01 3.265468215942382812e+01 1.040980249591462459e-13 9.036438860642731496e-14 5.833872339204571045e-14 -6.364654354766574595e-14
1.678000000000000000e+03 6.830986785888671875e+01 3.272277450561523438e+01 1.482531952019458532e-14 9.785560897831654947e-14 3.380427854955334044e-14 2.467919802979362531e-13
1.679000000000000000e+03 7.028129577636718750e+01 3.335634231567382812e+01 3.607857217732650390e-14 1.069641405071659890e-13 4.291281346653456896e-14 -1.091275439696164085e-13
1.680000000000000000e+03 7.025877380371093750e+01 3.299449157714843750e+01 1.968578024116179881e-13 -8.306513571594564826e-13 -1.901380664243515484e-13 -3.295496742248410493e-13
1.681000000000000000e+03 6.868450164794921875e+01 3.306598281860351562e+01 1.094653610377721575e-13 4.691372615904521037e-14 4.691372615904521037e-14 -2.228155573729632272e-14
1.682000000000000000e+03 6.975075531005859375e+01 3.263521194458007812e+01 1.088364424625676286e-13 -7.768728694200477403e-13 -2.004109362187603272e-13 -2.019462884677442061e-13
1.683000000000000000e+03 7.021891021728515625e+01 3.371395874023437500e+01 -1.374302418827993977e-13 -2.419024724455154374e-13 -1.137998115879890193e-13 1.178451731814397774e-13
1.684000000000000000e+03 6.875742340087890625e+01 3.264810943603515625e+01 1.379891752077699874e-13 -1.238655716623987546e-13 4.237079030732296414e-15 -7.085700299072628106e-14
1.685000000000000000e+03 6.861414337158203125e+01 3.359234619140625000e+01 9.131690087253729882e-14 -5.098755619104000658e-13 -1.255676064428751237e-13 -2.114724140158535937e-14
1.686000000000000000e+03 6.925114440917968750e+01 3.311365509033203125e+01 -2.353625886580053977e-14 -8.793550197901123244e-13 -2.708673671643346825e-13 -7.634155487672503182e-14
1.687000000000000000e+03 7.128096771240234375e+01 3.262051773071289062e+01 -1.516192905818072867e-13 -2.479834913804435104e-13 -1.198808305229170923e-13 1.622012528630645267e-13
1.688000000000000000e+03 7.175613403320312500e+01 3.365035629272460938e+01 -3.959657309069580799e-13 1.276815702862602042e-13 -8.048525360722022515e-14 5.771157342163504844e-14
1.689000000000000000e+03 7.132259368896484375e+01 3.302615356445312500e+01 4.305760866667000808e-14 -7.593128599839293891e-13 -2.148765784444964244e-13 -1.402598333701335354e-13
1.690000000000000000e+03 7.077104949951171875e+01 3.260962677001953125e+01 -4.482809726181168075e-14 -9.342309911786195187e-13 -2.937177411010960526e-13 -2.467432996203916540e-13
1.691000000000000000e+03 7.184645843505859375e+01 3.293964385986328125e+01 -2.763224761850868738e-13 -1.033442862535816076e-12 -3.929296124582926097e-13 2.718134419800455337e-13
1.692000000000000000e+03 7.240319824218750000e+01 3.364366912841796875e+01 -6.145948414906440838e-14 -3.465964223525047627e-13 -1.224167658518335311e-13 1.040339486107523526e-13
1.693000000000000000e+03 7.263333892822265625e+01 3.276287078857421875e+01 -2.431548343749534435e-13 -1.042092098919346344e-13 -1.042092098919346344e-13 -7.800261359134502692e-14
1.694000000000000000e+03 7.320965576171875000e+01 3.282846450805664062e+01 -2.360612248210325337e-13 -3.254267379659489534e-14 -8.058117161816730212e-14 1.829213863713263777e-13
1.695000000000000000e+03 7.313585662841796875e+01 3.356770706176757812e+01 -6.522029010608276778e-14 1.550522405781296076e-13 2.694958649686676755e-14 -2.122690654434052082e-14
1.696000000000000000e+03 7.077950286865234375e+01 3.298786544799804688e+01 -2.014995294100443979e-13 5.144959013269083045e-15 -5.890637099197765236e-14 5.982585574940829654e-14
1.697000000000000000e+03 7.081330871582031250e+01 3.371309280395507812e+01 -1.160534342237173888e-13 -3.986235729117092522e-15 -3.601190051998222341e-14 -1.162317583760369422e-13
1.698000000000000000e+03 7.123318481445312500e+01 3.347529602050781250e+01 -5.163937633485262899e-15 -3.682206991574565880e-13 -1.120153909949309079e-13 -3.490633346606153431e-13
1.699000000000000000e+03 7.076051330566406250e+01 3.335062408447265625e+01 -7.773000450760070290e-14 -3.993204421640084156e-13 -1.431151340014827356e-13 2.167660988856498494e-13
1.700000000000000000e+03 7.176268768310546875e+01 3.260101318359375000e+01 2.131239249750921383e-13 -9.151821011091354485e-13 -2.106174392876858370e-13 -1.246973173590210093e-13
1.701000000000000000e+03 7.218553161621093750e+01 3.263341140747070312e+01 -1.545693233779774078e-13 -2.049304905730065657e-14 -5.251871257761636658e-14 4.653704721926943400e-13
1.702000000000000000e+03 7.217972564697265625e+01 3.323892211914062500e+01 -7.782414036122675682e-14 -2.506701985739712146e-13 -9.854830574631753826e-14 2.902376418627977683e-13
1.703000000000000000e+03 7.539413452148437500e+01 3.360384368896484375e+01 -2.015468548348733901e-13 -1.321281679986935353e-13 -1.001025095605755089e-13 -3.912673543450193026e-14
1.704000000000000000e+03 7.464365386962890625e+01 3.358711624145507812e+01 -7.860615505944981707e-14 1.493154422804385262e-13 2.121278650510979163e-14 1.807026716574202524e-14
1.705000000000000000e+03 7.614562988281250000e+01 3.361807250976562500e+01 -1.841366279288839114e-13 -3.316474834558560958e-14 -6.519041355996721410e-14 3.213521706764768671e-14
1.706000000000000000e+03 7.389421081542968750e+01 3.356774520874023438e+01 -1.720453206982552885e-13 -3.482393952196349840e-13 -1.560854174858725130e-13 2.079224142306160955e-14
1.707000000000000000e+03 7.390705871582031250e+01 3.282784652709960938e+01 -1.235328435681901094e-13 -7.191696816245905094e-15 -3.921736118359456236e-14 -5.008323535624428779e-14
1.708000000000000000e+03 7.616179656982421875e+01 3.287825012207031250e+01 -1.835623057093276056e-14 8.363494223345355194e-14 1.958361349875623741e-14 1.021879995444056888e-13
1.709000000000000000e+03 7.540918731689453125e+01 3.286399459838867188e+01 7.936176943477285528e-15 1.406540628325764208e-13 4.457707396569518532e-14 -8.718417968903852122e-14
1.710000000000000000e+03 7.465760803222656250e+01 3.284724426269531250e+01 -2.259401297782445694e-13 -5.108053533647329003e-14 -8.310620393898668357e-14 -2.494724296120496426e-14
1.711000000000000000e+03 7.791894531250000000e+01 3.320077514648437500e+01 -4.320654924604930974e-15 -1.851709313904466650e-15 -1.851709313904466650e-15 -1.563436812196221382e-14
1.712000000000000000e+03 7.689591217041015625e+01 3.289778518676757812e+01 -7.831322396123496787e-14 -3.356280978508187351e-14 -3.356280978508187351e-14 1.580706458738020959e-13
1.713000000000000000e+03 7.971415710449218750e+01 3.287440490722656250e+01 4.868339482629394088e-14 1.123662117128929050e-13 4.831488128412969596e-14 -1.024237931881305519e-13
1.714000000000000000e+03 7.934711456298828125e+01 3.323092269897460938e+01 2.506762701061371335e-13 1.531836316863779968e-13 1.211579800245235483e-13 2.009360864816626263e-14
1.715000000000000000e+03 7.857886505126953125e+01 3.280835723876953125e+01 3.325932465634423574e-14 6.000494561951216776e-14 2.797928040513056325e-14 1.937970556329781519e-14
1.716000000000000000e+03 7.749169921875000000e+01 3.282704544067382812e+01 -9.245643801340103218e-14 3.721343437394775133e-13 8.390337036257022874e-14 2.745538883318788398e-14
1.717000000000000000e+03 7.695323944091796875e+01 3.364056396484375000e+01 -8.047703399950006942e-14 -8.024110483050364562e-14 -4.821543961612204110e-14 6.130810919699469785e-14
1.718000000000000000e+03 7.954392242431640625e+01 3.376447296142578125e+01 -8.196921467322829113e-14 -8.088061470568064237e-14 -4.885494949129903786e-14 2.950743626219456961e-14
1.719000000000000000e+03 7.800419616699218750e+01 3.277279281616210938e+01 -5.152325912921237872e-14 6.942050287481876802e-14 5.369172022539085362e-15 -7.768186593114234650e-15
1.720000000000000000e+03 7.781758880615234375e+01 3.371946334838867188e+01 -3.520917967784705817e-15 1.357438873762426002e-13 3.966688834496599758e-14 1.094855221159827044e-14
1.721000000000000000e+03 7.915351104736328125e+01 3.279653549194335938e+01 -9.382600050361882688e-15 3.619864824555563132e-13 1.057811607405034771e-13 1.684380580976516106e-13
1.722000000000000000e+03 7.866880035400390625e+01 3.379548263549804688e+01 -1.409294434081241609e-14 -5.179078262714138792e-14 -1.976511741275978340e-14 -1.811495831810505663e-14
1.723000000000000000e+03 7.862108612060546875e+01 3.329306030273437500e+01 -5.695010435458058851e-14 4.331023116099091963e-13 1.128456594660931511e-13 -2.998545761191163950e-14
1.724000000000000000e+03 5.308624267578125000e+01 3.460066223144531250e+01 -7.203111940462872398e-14 -2.138742741936150438e-13 -8.577162011235220374e-14 -6.777053690367601524e-14
1.725000000000000000e+03 5.327998733520507812e+01 3.467850112915039062e+01 -2.298686956926643266e-13 -1.900170559093750100e-13 -1.259657254806118010e-13 4.791313355724698131e-14
1.726000000000000000e+03 5.508545303344726562e+01 3.411100387573242188e+01 -7.590901242001193983e-14 -2.155362341512909174e-13 -8.743357329376449938e-14 -7.453567216284939095e-15
1.727000000000000000e+03 5.510965347290039062e+01 3.487637710571289062e+01 8.950113328416720027e-14 1.756104755969850606e-13 7.953347995384024705e-14 6.159027281238405038e-15
1.728000000000000000e+03 5.422518539428710938e+01 3.418298339843750000e+01 -1.159819988530777501e-13 -3.955624381919795735e-15 -3.598128874926845300e-14 -4.450533366319453510e-14
1.729000000000000000e+03 5.404612731933593750e+01 3.452577972412109375e+01 1.215260615798846935e-14 -1.206068529551948543e-13 -3.253627361564544185e-14 -6.804810621235946044e-14
1.730000000000000000e+03 5.324757385253906250e+01 3.442309188842773438e+01 1.316778717314059932e-13 -1.716065169739960927e-13 -1.197859340337044040e-14 -9.994843934966763516e-15
1.731000000000000000e+03 5.351270294189453125e+01 3.437265014648437500e+01 3.549461072283044416e-14 -7.628991974826040967e-14 -1.223859355466193691e-14 -3.975141291573955696e-15
1.732000000000000000e+03 5.461697387695312500e+01 3.417975997924804688e+01 -1.519124995068288353e-13 -6.510535112327214824e-14 -6.510535112327214824e-14 1.279166456460457957e-14
1.733000000000000000e+03 5.444944000244140625e+01 3.481800842285156250e+01 4.233742144436588098e-15 -3.249875005608207634e-14 -8.479502839361767463e-15 -2.564717847277318830e-14
1.734000000000000000e+03 5.387840270996093750e+01 3.425326538085937500e+01 -5.384177804122758371e-14 -1.145769406001723167e-13 -5.052561694767268574e-14 1.008377341587922416e-13
1.735000000000000000e+03 5.390481185913085938e+01 3.525425338745117188e+01 1.440175561272238891e-13 6.172181364096085421e-14 6.172181364096085421e-14 6.340147997536613178e-14
1.736000000000000000e+03 5.312667465209960938e+01 3.445650100708007812e+01 -3.400030569047050866e-14 -1.457156030765845850e-14 -1.457156030765845850e-14 -1.071236537517929188e-13
1.737000000000000000e+03 5.362375259399414062e+01 3.473118591308593750e+01 -2.410003620278988734e-13 -2.862896822820176768e-13 -1.581870078719641026e-13 2.372708353035567208e-14
1.738000000000000000e+03 2.922490501403808594e+01 9.725081443786621094e+00 -2.131552482534816023e-14 3.661572320302550199e-14 4.590060106226265604e-15 -1.133221324395826402e-14
1.739000000000000000e+03 2.862623786926269531e+01 9.189352035522460938e+00 2.043151211368263165e-14 8.756362334435413564e-15 8.756362334435413564e-15 6.260061371186897983e-14
1.740000000000000000e+03 2.921542549133300781e+01 8.196246147155761719e+00 7.129188325837379492e-14 1.678065103321788043e-13 7.172951468903399075e-14 1.296230646690571531e-13
1.741000000000000000e+03 2.845257949829101562e+01 6.617847919464111328e+00 2.614109016058074886e-13 4.322898918170114957e-13 2.081102353163402641e-13 4.046380065866536646e-14
1.742000000000000000e+03 2.711460113525390625e+01 5.775645256042480469e+00 2.372850180232255468e-13 1.474445159065432276e-13 1.154188642446887791e-13 8.113989487896697272e-14
1.743000000000000000e+03 2.873178863525390625e+01 8.171271324157714844e+00 -1.164063013732799523e-13 1.331153882868502114e-13 5.012724888224951575e-15 2.365237014221015927e-14
1.744000000000000000e+03 2.949687957763671875e+01 9.067468643188476562e+00 -9.405078441309527859e-14 -8.605842546829250983e-14 -5.403276364204269433e-14 9.269067311650294738e-14
1.745000000000000000e+03 2.969707489013671875e+01 8.362298965454101562e+00 -7.598735280323759556e-14 1.961887412509771833e-13 3.606041517906916072e-14 1.273483543010739405e-13
1.746000000000000000e+03 2.982328605651855469e+01 7.573419570922851562e+00 1.133613127955908351e-13 -4.291847842288580572e-14 2.113285031181150880e-14 1.777524660665288914e-13
1.747000000000000000e+03 2.577345275878906250e+01 4.941269397735595703e+00 3.793193515365389512e-13 1.168144899386935887e-13 1.488401551530751932e-13 1.911616074852864888e-13
1.748000000000000000e+03 2.510284996032714844e+01 4.524842262268066406e+00 3.779422250421021756e-13 1.619752373676827673e-13 1.619752373676827673e-13 2.365421769047471034e-13
1.749000000000000000e+03 2.376163864135742188e+01 3.692141294479370117e+00 5.650580372530689122e-13 4.251715353485036042e-13 2.970688744909771861e-13 1.802792127820335155e-13
1.750000000000000000e+03 2.309105110168457031e+01 3.275784969329833984e+00 6.181075616618070256e-13 8.189945303969242696e-14 2.100021138972188450e-13 3.683580404676561892e-13
1.751000000000000000e+03 2.242045783996582031e+01 2.859448671340942383e+00 6.748536733776344665e-13 1.977211119439867271e-13 2.617724559252770922e-13 3.973007090419394816e-13
1.752000000000000000e+03 2.107924842834472656e+01 2.026777982711791992e+00 5.922117722427511222e-13 4.368088464719310782e-13 3.087061856144046601e-13 4.044225620624536388e-13
1.753000000000000000e+03 1.992287826538085938e+01 4.378504455089569092e-01 -4.128669994318649727e-14 4.398151764659075091e-13 1.195585514271457761e-13 3.522845264201240889e-13
1.754000000000000000e+03 1.973801803588867188e+01 1.194092512130737305e+00 2.140920090949044452e-13 2.747575116642669846e-13 1.466548508067405665e-13 1.698708719261726729e-13
1.755000000000000000e+03 1.906754302978515625e+01 7.776524424552917480e-01 -9.967559140263218542e-14 3.032838948851938367e-15 -2.899282647728790296e-14 1.785557107985419334e-13
1.756000000000000000e+03 1.772632217407226562e+01 -5.512776225805282593e-02 -3.507156045613746276e-13 -1.960576341032693737e-13 -1.640319688888877692e-13 -1.901022199900237464e-13
1.757000000000000000e+03 1.705577850341796875e+01 -4.716037809848785400e-01 -3.088295407165791984e-13 9.639922730507108350e-14 -6.372909199057336105e-14 -2.154478310166518806e-13
1.758000000000000000e+03 1.657439804077148438e+01 -1.641760945320129395e+00 -1.264683209501946126e-13 -8.449761818517774470e-15 -4.047542533883348448e-14 3.357401772503994242e-14
1.759000000000000000e+03 1.638522911071777344e+01 -8.881940841674804688e-01 -4.714077435699626228e-13 -3.850356990707515248e-13 -2.569330382132251067e-13 -1.814201729382486361e-13
1.760000000000000000e+03 2.995883941650390625e+01 6.720715045928955078e+00 7.877485691748856156e-14 3.376065296463795495e-14 3.376065296463795495e-14 8.242243828638154413e-15
1.761000000000000000e+03 2.928707122802734375e+01 6.308274745941162109e+00 2.423425230022729915e-13 -3.339176672797691814e-14 6.268522891516789541e-14 8.840402910582911833e-14
1.762000000000000000e+03 2.862623405456542969e+01 5.854650497436523438e+00 2.334634222056486408e-13 -3.719709273670296357e-14 5.887989613017827195e-14 1.030883074759104956e-13
1.763000000000000000e+03 2.778472709655761719e+01 6.195693492889404297e+00 1.808622560528147516e-13 -1.512423405914883889e-13 8.885974468991319347e-15 1.772227926476882542e-13
1.764000000000000000e+03 2.728997802734375000e+01 5.013517856597900391e+00 2.959567270074958678e-13 -1.476671026125545017e-13 4.448688528560333644e-14 6.923227860141170642e-14
1.765000000000000000e+03 2.662030601501464844e+01 4.596273899078369141e+00 3.282817268891735640e-13 9.494121932856688928e-14 1.269668777666849158e-13 7.195324658358995262e-14
1.766000000000000000e+03 2.595055580139160156e+01 4.180212020874023438e+00 2.904307382697174367e-13 -5.853347998354199722e-14 6.956918087398442085e-14 1.463898446907307971e-13
1.767000000000000000e+03 2.528081321716308594e+01 3.764320135116577148e+00 4.042445089606772068e-13 -1.012580454597469815e-13 9.089593905027906762e-14 1.203147959949815715e-13
1.768000000000000000e+03 2.461105918884277344e+01 3.348496198654174805e+00 4.381220321432455211e-13 1.420156310258380294e-13 1.740412962402196340e-13 2.362428015798695435e-13
1.769000000000000000e+03 2.327160072326660156e+01 2.516867637634277344e+00 5.600226771033944839e-13 1.485078336346812300e-13 2.125591505109172830e-13 1.525508506409339882e-13
1.770000000000000000e+03 2.260186958312988281e+01 2.101066589355468750e+00 3.924152127375568622e-13 1.681779444439451821e-13 1.681779444439451821e-13 3.422001451734019151e-13
1.771000000000000000e+03 2.174984550476074219e+01 2.443107604980468750e+00 6.144576492582431992e-13 2.633389925392470854e-13 2.633389925392470854e-13 4.876439963635847974e-13
1.772000000000000000e+03 2.126238441467285156e+01 1.269465804100036621e+00 2.246751911036057314e-13 2.335422165985340248e-13 1.374652209553892113e-13 5.294811897954554425e-13
1.773000000000000000e+03 2.059263229370117188e+01 8.536567687988281250e-01 1.691662624868014997e-13 3.927564653713466747e-13 1.685768224232025991e-13 3.127607764788487010e-13
1.774000000000000000e+03 1.925326347351074219e+01 2.194539085030555725e-02 -1.302469010465781563e-13 6.761951025155421569e-13 1.637844590854364846e-13 1.092609482706771717e-13
1.775000000000000000e+03 1.839691352844238281e+01 3.612676560878753662e-01 -3.152183375432215939e-13 1.394121227965214316e-13 -5.274186510163640651e-14 -7.834488944093512264e-14
1.776000000000000000e+03 1.791376686096191406e+01 -8.097647428512573242e-01 3.053459923601196946e-14 2.418409981823355093e-13 8.171267888669106472e-14 -8.549167064108697395e-15
1.777000000000000000e+03 1.724408531188964844e+01 -1.225705742835998535e+00 -1.266034260934134625e-13 -2.830133588420380431e-13 -1.228850327701300205e-13 -1.151624978647410036e-14
1.778000000000000000e+03 2.894283485412597656e+01 8.677308082580566406e+00 -7.686184994677366933e-14 2.424789359643624020e-14 -1.578418792154076544e-14 2.084067984918329397e-14
1.779000000000000000e+03 1.858349609375000000e+01 -3.939043283462524414e-01 -9.372294878118997419e-14 5.133491965932449053e-14 -1.271640992240577125e-14 1.224929988170864181e-13
1.780000000000000000e+03 2.795924377441406250e+01 5.433031082153320312e+00 2.343558832239300838e-13 1.461891859736580424e-13 1.141635207592764378e-13 3.662944428973807440e-15
1.781000000000000000e+03 2.644406509399414062e+01 5.357866287231445312e+00 2.841092975030407031e-13 3.025922543672780740e-14 9.431055247735922742e-14 2.167966462818596285e-13
1.782000000000000000e+03 2.193211936950683594e+01 1.685260415077209473e+00 3.718054510104540356e-13 2.050961397243034057e-13 1.730704745099218012e-13 3.042398147648506246e-13
1.783000000000000000e+03 2.040863609313964844e+01 1.610433936119079590e+00 3.325655180928810406e-13 1.425280791826633031e-13 1.425280791826633031e-13 4.116331841358400467e-13
1.784000000000000000e+03 2.443223381042480469e+01 4.108483791351318359e+00 3.730907455808812889e-13 2.056469821905618223e-13 1.736213169761802178e-13 2.080501027533487868e-13
1.785000000000000000e+03 2.394132614135742188e+01 2.932688951492309570e+00 5.076373891556296147e-13 -5.694681786674524182e-14 1.352071666432808072e-13 4.609910069235285957e-14
1.786000000000000000e+03 2.903768730163574219e+01 7.003347396850585938e+00 9.806246797656320568e-14 -1.409770195547055405e-13 -1.287436632047564769e-14 7.505503380259015422e-14
1.787000000000000000e+03 2.883978843688964844e+01 7.574357986450195312e+00 9.243122353662716617e-14 8.536433278999444596e-14 5.333866757561284144e-14 1.453651381124604347e-13
1.788000000000000000e+03 2.928537940979003906e+01 7.542893886566162109e+00 -1.843886541120099559e-14 3.784857965775413613e-14 5.822914019856057985e-15 1.166164604118891113e-13
1.789000000000000000e+03 5.304083633422851562e+01 3.417004394531250000e+01 2.187237614333439883e-14 -3.108827756857779345e-13 -8.670311918510670290e-14 1.019418246648792770e-13
1.790000000000000000e+03 5.419687271118164062e+01 3.374602127075195312e+01 -1.732114478973992289e-13 -2.572372653428245393e-13 -1.291346180378252773e-13 2.150109788563031588e-14
1.791000000000000000e+03 5.371935653686523438e+01 3.324738693237304688e+01 -3.845897192833631906e-14 9.789495874091419525e-14 1.783079570496018396e-14 2.309643192574106080e-14
1.792000000000000000e+03 5.752986145019531250e+01 3.311315155029296875e+01 -1.358552891494654857e-13 -3.784803416853610436e-13 -1.543006851846898120e-13 -1.209888986957244339e-13
1.793000000000000000e+03 6.361072921752929688e+01 3.243396377563476562e+01 2.753105902975061525e-13 2.094921458528631319e-13 1.454408154240999229e-13 1.464566179920287481e-13
1.794000000000000000e+03 5.980703353881835938e+01 3.281359100341796875e+01 1.215385637861861670e-14 -4.054215459441817826e-14 -8.516489380036573742e-15 1.318891962873505741e-13
1.795000000000000000e+03 5.081445693969726562e+01 3.133112144470214844e+01 1.115956014662716766e-13 1.850795314532402425e-13 8.900253581009542891e-14 1.097865356025802541e-13
1.796000000000000000e+03 4.735033798217773438e+01 2.796993255615234375e+01 -1.166059012991686392e-14 -6.218608256374630328e-14 -2.215400104576929763e-14 2.633677340612133183e-14
1.797000000000000000e+03 4.548727035522460938e+01 2.519508171081542969e+01 8.328823470748342173e-14 2.186987570207410414e-13 9.059609616321462333e-14 2.985817905312541931e-14
1.798000000000000000e+03 4.759919357299804688e+01 2.063520240783691406e+01 9.741487063080582487e-15 4.174923329546302228e-15 4.174923329546302228e-15 -2.114779536113286368e-14
1.799000000000000000e+03 4.739430999755859375e+01 1.272884941101074219e+01 3.040982450661783298e-14 -3.072238644041824784e-13 -8.304420790351124682e-14 -1.651313431155244926e-14
1.800000000000000000e+03 4.997345733642578125e+01 7.207513809204101562e+00 -1.930264081169072443e-14 -1.226499370815536949e-13 -4.258577065746789458e-14 -1.485423519213477372e-13
1.801000000000000000e+03 4.875462722778320312e+01 -7.906519412994384766e+00 -5.785953313686142963e-15 3.177769462500701358e-13 9.359729652566248226e-14 4.500078356283430947e-14
1.802000000000000000e+03 4.666780471801757812e+01 -1.296450424194335938e+01 -3.521350081642747598e-14 7.641039493841428332e-14 1.235906874481581055e-14 1.264642145344663238e-13
1.803000000000000000e+03 4.775120544433593750e+01 -1.901125907897949219e+01 -4.084404391308318893e-14 7.399730649190403020e-14 9.945978604239662929e-15 5.573958585273694477e-14
1.804000000000000000e+03 4.931262969970703125e+01 -2.879366111755371094e+01 -6.075894809113658104e-15 3.176526966811032970e-13 9.347304018043206542e-14 3.948242150971295605e-14
1.805000000000000000e+03 4.620601654052734375e+01 -3.062562942504882812e+01 -7.764838441280327852e-14 3.784806669460127893e-13 9.024968679284192663e-14 -5.960489534665575073e-15
1.806000000000000000e+03 4.384436035156250000e+01 -4.012905502319335938e+01 2.182015825620206573e-13 2.307677974492522432e-13 1.346908153586345858e-13 8.640334406067803896e-14
1.807000000000000000e+03 4.386801147460937500e+01 -3.846422576904296875e+01 8.426627993475543921e-14 3.563707488829503944e-13 1.321911059348063189e-13 1.832455899259538556e-13
1.808000000000000000e+03 4.219434738159179688e+01 -3.912305450439453125e+01 7.629301650071557139e-14 -3.592941306344681063e-14 1.210908136999380713e-14 1.473293871883524231e-13
1.809000000000000000e+03 4.033301925659179688e+01 -3.904880905151367188e+01 6.192025651984359169e-14 -1.107155952204466609e-13 -1.463859957730184735e-14 -1.172340355218640107e-13
1.810000000000000000e+03 3.818303680419921875e+01 -3.788497161865234375e+01 6.226519544101985493e-14 1.181869814688429887e-13 5.413565442821156870e-14 -8.865156940246650408e-15
1.811000000000000000e+03 3.877107238769531250e+01 -3.843659591674804688e+01 1.560861493223389407e-13 1.126450143015475525e-13 8.061934908716594794e-14 -6.473994788609022111e-14
1.812000000000000000e+03 3.622840499877929688e+01 -3.611610031127929688e+01 -6.413406098375448380e-15 4.300234484905934851e-14 1.097668217577658575e-14 2.084578915192113191e-14
1.813000000000000000e+03 3.261322021484375000e+01 -3.197462844848632812e+01 -1.523881254473710700e-13 -2.940639539598249863e-13 -1.339356278879169637e-13 1.429821837100817006e-13
1.814000000000000000e+03 3.172953414916992188e+01 -3.061321258544921875e+01 -9.162519376028355200e-14 -3.595245845824934783e-13 -1.353449280818222467e-13 1.616685572306680863e-13
1.815000000000000000e+03 2.965406990051269531e+01 -2.633333015441894531e+01 -9.599034756077248765e-14 -4.071463218652260352e-13 -1.509410001501731990e-13 1.546956329310719691e-13
1.816000000000000000e+03 2.857185935974121094e+01 -2.421998977661132812e+01 -6.654407385363325655e-14 -2.572736403257114279e-13 -9.714531425380340535e-14 2.025192893159027951e-13
1.817000000000000000e+03 2.718258476257324219e+01 -2.136367225646972656e+01 -1.045252751540048930e-13 -1.362984432349417796e-13 -7.224711280617857057e-14 6.219260132930837237e-14
1.818000000000000000e+03 2.613050651550292969e+01 -1.922534179687500000e+01 -4.714920809464548390e-14 -6.595775087128025183e-14 -3.393208904503043633e-14 5.719640120685140494e-14
1.819000000000000000e+03 2.687400436401367188e+01 -2.249336051940917969e+01 -1.650754050596878186e-14 -2.815803417256096397e-13 -8.942637076811074670e-14 -8.213573457439490855e-15
1.820000000000000000e+03 2.700940895080566406e+01 -3.104049491882324219e+01 -1.060032680258666052e-14 -3.247996489819104937e-13 -1.006199924812392621e-13 -6.649371689788604115e-16
1.821000000000000000e+03 2.524915313720703125e+01 -3.970128631591796875e+01 1.345591525573133773e-13 -2.268455063549057460e-13 -2.768590546165135280e-14 2.778219955522701068e-14
1.822000000000000000e+03 2.363101196289062500e+01 -3.710219192504882812e+01 3.237375170998986473e-14 -2.348963309018597956e-13 -6.075677206349508475e-14 -1.230672210867549479e-14
1.823000000000000000e+03 2.736886405944824219e+01 -3.775569915771484375e+01 7.404041708078748507e-14 -1.970231432429220275e-13 -3.689481717101400493e-14 -1.345044698043045342e-14
1.824000000000000000e+03 3.127317619323730469e+01 -3.482336425781250000e+01 -3.700255298564117390e-14 -1.759865582255659699e-13 -6.389673675149393217e-14 3.019083938469828421e-14
1.825000000000000000e+03 4.617480850219726562e+01 2.687589454650878906e+01 1.255288004754296152e-15 9.775874906673212572e-14 2.970420879210532161e-14 1.546225822686019165e-15
1.826000000000000000e+03 4.560319519042968750e+01 2.631569290161132812e+01 9.440147638204929303e-14 1.148030645157713248e-13 6.276136023646711193e-14 2.773706963979730156e-14
1.827000000000000000e+03 4.255544281005859375e+01 2.242820167541503906e+01 8.891991791048613897e-15 4.956180187391454051e-14 1.753613835359883050e-14 1.060669428806435000e-13
1.828000000000000000e+03 4.129820251464843750e+01 2.023459815979003906e+01 8.600523179920493977e-14 8.261033729913686008e-14 5.058466869662346654e-14 1.065834296905612821e-13
1.829000000000000000e+03 4.128209686279296875e+01 1.201827812194824219e+01 4.000609793528703273e-14 1.543983175903221317e-13 5.832132194717731810e-14 -7.627759372481196509e-14
1.830000000000000000e+03 4.092721176147460938e+01 4.872507095336914062e+00 4.472262471921957527e-14 1.106687373578045530e-13 4.661740692904134398e-14 -1.027955254554943632e-13
1.831000000000000000e+03 3.972130203247070312e+01 -5.092091560363769531e+00 -5.198667424278699545e-14 -6.803094871297987734e-14 -3.600528688673006183e-14 -9.581055295925650084e-14
1.832000000000000000e+03 4.215133285522460938e+01 -1.429531860351562500e+01 -1.099190386605851388e-13 1.358956350228091026e-13 7.792979247480368021e-15 -5.307629996723376917e-15
1.833000000000000000e+03 3.974221038818359375e+01 -1.633237457275390625e+01 -1.159224761538082960e-13 4.078284205569909782e-13 8.757178874196566709e-14 3.476634195917656378e-14
1.834000000000000000e+03 3.776656341552734375e+01 -2.333485794067382812e+01 -1.200371318186080338e-13 -2.856900845993153026e-14 -4.458184106712233252e-14 -9.936448636550104796e-14
1.835000000000000000e+03 3.941913223266601562e+01 -2.602800178527832031e+01 4.848850609765788244e-14 7.796947088618486066e-14 3.793739275633964403e-14 1.752704630194300284e-14
1.836000000000000000e+03 3.983240127563476562e+01 -2.670207786560058594e+01 4.268280675190534723e-14 -1.602057957052639009e-14 7.998668493226866044e-15 -7.980451016817088905e-14
1.837000000000000000e+03 4.153328704833984375e+01 -2.937839317321777344e+01 -3.888329816546104434e-14 3.480554603210728182e-14 -1.223325110610536722e-15 -8.593246150464042832e-14
1.838000000000000000e+03 4.394622802734375000e+01 -3.353185272216796875e+01 7.327159576775085781e-14 7.634172699381991389e-13 2.510066536131477788e-13 -2.149393944078648033e-13
1.839000000000000000e+03 4.450614547729492188e+01 -3.769353866577148438e+01 1.478139442442905072e-13 6.581111523795701856e-13 2.417775452501907951e-13 1.656887382286628685e-13
1.840000000000000000e+03 4.032568359375000000e+01 2.137461280822753906e+01 -2.593621491349656222e-14 6.041085143113295378e-15 -5.968538888763332689e-15 -1.475172929773713171e-14
1.841000000000000000e+03 3.866208648681640625e+01 1.965647888183593750e+01 -4.018762641324604909e-15 1.069361748673794410e-13 3.087522506542081380e-14 -5.526000257426513795e-14
1.842000000000000000e+03 3.494924926757812500e+01 1.545527648925781250e+01 -5.369075545486393097e-14 -1.030744838982113054e-13 -4.702957316117528652e-14 -9.696229415082427416e-14
1.843000000000000000e+03 3.586814880371093750e+01 1.448103332519531250e+01 5.893591550117788236e-14 2.525824974251422023e-14 2.525824974251422023e-14 -1.184440322514121458e-13
1.844000000000000000e+03 3.386546707153320312e+01 6.334207057952880859e+00 1.430600565311204719e-13 -7.594138940738778820e-14 2.013560115355934182e-14 -3.839919511918268857e-14
1.845000000000000000e+03 3.163420867919921875e+01 -5.259448528289794922e+00 -1.918637537528470466e-14 7.613058268648650873e-14 1.708326032988805726e-14 -4.933952009976427799e-14
1.846000000000000000e+03 3.362981796264648438e+01 -1.071377086639404297e+01 -1.040060981674466312e-13 -1.818268842782022610e-13 -8.574989541132102544e-14 1.612772415615637556e-14
1.847000000000000000e+03 3.218443679809570312e+01 -1.373067283630371094e+01 -9.530165556454611719e-14 -2.352850986958587853e-13 -9.917602492286875515e-14 1.254086488518615927e-13
1.848000000000000000e+03 3.386952590942382812e+01 -1.643291091918945312e+01 -3.870416086151212687e-14 8.635213583681883298e-14 1.429439249259201183e-14 -3.010668835545446398e-14
1.849000000000000000e+03 3.545831680297851562e+01 -1.918640327453613281e+01 -3.621615891532257211e-16 -6.878163674468168454e-14 -2.074313892310927776e-14 -4.579834300970538064e-14
1.850000000000000000e+03 3.489417266845703125e+01 -1.669179534912109375e+01 -6.569562466729114703e-14 2.005994789765555564e-13 4.047115629277932281e-14 2.443320068837295800e-14
1.851000000000000000e+03 3.441675949096679688e+01 1.486140441894531250e+01 -2.193693360644233259e-13 -9.973430095027227549e-14 -9.573109449254046943e-14 -6.071565200203767748e-15
1.852000000000000000e+03 3.109214973449707031e+01 1.130397415161132812e+01 7.828856513807450068e-14 -1.219870762020867916e-14 1.982695759417292536e-14 7.229245956204277679e-14
1.853000000000000000e+03 3.279505538940429688e+01 1.309132862091064453e+01 2.313716658720746736e-15 -1.044614478332974924e-14 -2.439728267976111302e-15 -6.642591614562307067e-14
1.854000000000000000e+03 3.168393898010253906e+01 1.190193748474121094e+01 8.761182968344827238e-14 1.290498198754097547e-13 6.499849622291012374e-14 -1.491101045533651387e-14
1.855000000000000000e+03 3.224283218383789062e+01 1.250305175781250000e+01 -7.222286055883278544e-14 1.520511418596354192e-13 2.394848269617489561e-14 7.160643063740257386e-14
1.856000000000000000e+03 3.164729881286621094e+01 7.805340290069580078e+00 -1.810073155272297341e-14 -7.757456379738417174e-15 -7.757456379738417174e-15 -1.327453941310941660e-14
1.857000000000000000e+03 2.895033073425292969e+01 5.179342746734619141e+00 2.657226923306194033e-13 -4.624716543966470028e-14 6.584265603440733750e-14 1.035749380685034582e-13
1.858000000000000000e+03 2.247765731811523438e+01 1.782733201980590820e-02 -1.801564133334723761e-13 7.148069029044856748e-14 -3.260271488002806917e-14 2.968620358215212640e-13
1.859000000000000000e+03 2.298196983337402344e+01 1.443124055862426758e+00 3.450227300041963652e-13 -6.945012869918193443e-14 8.267177768099889801e-14 1.845999752798227478e-13
1.860000000000000000e+03 2.351962661743164062e+01 -2.454459190368652344e+00 -5.777871128591349770e-13 -4.420645707131631852e-13 -3.059555104927003111e-13 3.903117249976634229e-13
1.861000000000000000e+03 2.575863075256347656e+01 -4.717728137969970703e+00 -9.076266349822628698e-14 -1.189624435201860897e-13 -6.291753278315007081e-14 1.621691198211774876e-13
1.862000000000000000e+03 2.735653686523437500e+01 -6.485338687896728516e+00 -8.746305681659252707e-14 -6.035964236024080054e-14 -4.434680975304999828e-14 5.283250101512440566e-14
1.863000000000000000e+03 2.629141998291015625e+01 -5.308841228485107422e+00 -1.195867542361575553e-13 -4.160087801585027334e-14 -4.835629103085506419e-14 1.439175384768121013e-13
1.864000000000000000e+03 3.032370567321777344e+01 6.042780876159667969e+00 2.135366400845759016e-13 1.717041324389694673e-14 6.921211921726705407e-14 -5.715308224786292551e-15
1.865000000000000000e+03 2.963012123107910156e+01 5.601577281951904297e+00 1.182216894908896809e-13 4.915487199946052405e-15 3.694114987322881516e-14 -7.483168815505814031e-14
1.866000000000000000e+03 1.993158340454101562e+01 -9.726521372795104980e-01 3.189072270148862742e-13 1.280448295136460413e-12 4.798066241193388315e-13 5.951282760867371291e-13
1.867000000000000000e+03 1.907809257507324219e+01 -3.131389856338500977e+00 1.034894419509393981e-13 6.848659009697777300e-13 2.365066150734895789e-13 3.185223894537625444e-13
1.868000000000000000e+03 1.825621414184570312e+01 -1.541832327842712402e+00 1.136952758638365771e-14 1.764387111890738935e-13 5.634247341140645460e-14 2.792040416140645354e-13
1.869000000000000000e+03 1.542795181274414062e+01 -2.491963148117065430e+00 7.690010873093525157e-14 -2.872994539753620513e-13 -6.311980425095439773e-14 -8.140124181264460357e-14
1.870000000000000000e+03 1.207124614715576172e+01 -2.143336534500122070e+00 -1.251239780189483675e-13 -1.451264645567149070e-13 -8.107513412795169794e-14 -1.673409132617320605e-13
1.871000000000000000e+03 1.108077335357666016e+01 -2.009611606597900391e+00 -1.008697926617799223e-13 1.397738804038983762e-13 1.167122632263553617e-14 -1.333973215092779108e-13
1.872000000000000000e+03 1.162868022918701172e+01 -6.569849491119384766e+00 -1.516778646041758161e-13 -3.395104835289541878e-13 -1.473565057951917168e-13 -1.966825004728542381e-13
1.873000000000000000e+03 6.291466712951660156e+00 -1.694440460205078125e+01 -5.271220539595534993e-14 -2.513456836324839960e-13 -9.121737111310312951e-14 -9.198826596279463530e-14
1.874000000000000000e+03 6.693924903869628906e+00 -2.320985412597656250e+01 1.101633636201547473e-13 -3.428100902105879477e-14 2.276470671854196465e-14 -2.124783334033538557e-14
1.875000000000000000e+03 6.570826053619384766e+00 -3.430463027954101562e+01 3.426865250442424904e-14 1.519394148257607879e-13 5.586241918261597439e-14 -1.693561571091805468e-14
1.876000000000000000e+03 5.582597255706787109e+00 -3.959293746948242188e+01 -1.508339690669581457e-14 5.072437153468001281e-14 1.069229255780184892e-14 -2.161800029081267088e-14
1.877000000000000000e+03 8.038840293884277344e+00 -3.623610687255859375e+01 1.770729321905282344e-14 7.588840072027345368e-15 7.588840072027345368e-15 2.048423144431973930e-14
1.878000000000000000e+03 1.773724555969238281e+01 -3.807242202758789062e+01 6.969883790128653112e-14 -1.416951273111241583e-13 -2.159888614532493034e-14 4.015898822929938120e-15
1.879000000000000000e+03 1.755155754089355469e+01 -4.099974060058593750e+01 8.145974129611377457e-14 -1.480924757824020332e-13 -1.998982170113919321e-14 2.760310968512313945e-15
1.880000000000000000e+03 1.942325019836425781e+01 -3.099663162231445312e+01 6.299768158171811447e-15 -8.880199906576707880e-14 -2.475066863700386977e-14 -2.873795765159087301e-14
1.881000000000000000e+03 1.742916297912597656e+01 -2.189421844482421875e+01 5.276761490323293724e-14 -4.601173093790947299e-14 2.026765401355276087e-15 1.883413672416900386e-13
1.882000000000000000e+03 2.034194564819335938e+01 -1.642050552368164062e+01 7.232339320527650384e-14 -3.006986478391870943e-13 -6.851257164678867251e-14 4.056563434771606746e-14
1.883000000000000000e+03 2.173496055603027344e+01 -1.169601726531982422e+01 4.604854637792893390e-14 -2.090196505460939491e-13 -4.889133125044950456e-14 1.373196126036244080e-13
1.884000000000000000e+03 1.950743865966796875e+01 -8.379019737243652344e+00 -6.598468651900293858e-14 -7.403010360762171671e-14 -4.200443839324011219e-14 1.267526800749832483e-13
1.885000000000000000e+03 2.028827476501464844e+01 -8.846443176269531250e+00 -1.121725189947783696e-13 -2.768286901794203558e-13 -1.167003641075123332e-13 2.145094675888928326e-14
1.886000000000000000e+03 2.002640914916992188e+01 -8.094114303588867188e+00 3.475918283670637043e-14 6.064774198252451121e-14 2.862207676814290669e-14 7.858666652539939013e-14
1.887000000000000000e+03 1.903540992736816406e+01 -4.362485408782958984e+00 -3.618622159459305293e-15 5.474605686318911868e-13 1.631525725067847765e-13 4.254851137218407242e-14
1.888000000000000000e+03 6.148080348968505859e+00 -1.868085145950317383e+00 -1.059630847828488612e-14 -5.029222548938623583e-14 -1.826656027500463131e-14 -1.142108597366325862e-13
1.889000000000000000e+03 1.069251060485839844e+00 -1.313895797729492188e+01 -5.569769499129753609e-14 -4.674591537966697741e-14 -3.073308277247617515e-14 4.405878805779743501e-14
1.890000000000000000e+03 1.100443124771118164e+00 -1.795310783386230469e+01 8.037404156937752453e-14 -7.993135504608811504e-14 1.328048664319032585e-16 -5.824191091430633294e-14
1.891000000000000000e+03 1.190385103225708008e+00 -2.678822326660156250e+01 -1.042019084679293023e-15 1.825572164141156528e-13 5.445455894472102376e-14 -4.126678450453065417e-15
1.892000000000000000e+03 1.210624814033508301e+00 -3.487573623657226562e+01 3.738674341359320141e-14 2.676531142987298439e-13 9.151195561963101910e-14 1.095657378301535811e-13
1.893000000000000000e+03 2.682065725326538086e+00 -3.953624725341796875e+01 -7.557463769375383222e-14 1.620524054573094230e-13 2.594332829618760383e-14 -4.784636025594903030e-14
1.894000000000000000e+03 4.045218825340270996e-01 -3.646174240112304688e+01 5.457610309045433233e-15 3.225956285955733360e-13 9.841596531863852637e-14 -8.469563754758685503e-14
1.895000000000000000e+03 4.297230148315429688e+01 -3.890129089355468750e+01 2.255913554918831387e-13 5.093106112633721816e-14 8.295672634071882268e-14 1.881948305418150447e-14
1.896000000000000000e+03 4.599520492553710938e+01 -3.641452789306640625e+01 1.863782565780791600e-13 5.831368374287215772e-13 2.308545336230510836e-13 3.415954110829073909e-14
1.897000000000000000e+03 4.801858520507812500e+01 -3.693706893920898438e+01 1.363855588795009899e-13 4.587717467204044386e-13 1.785471998114879222e-13 -2.318649524495671604e-14
1.898000000000000000e+03 5.775593566894531250e+01 -4.080492019653320312e+01 7.958080537866923931e-14 3.200494882137083774e-13 1.198890840119551382e-13 4.843128393987317093e-14
1.899000000000000000e+03 6.366631698608398438e+01 -3.799048233032226562e+01 4.518126256697167775e-15 2.650042999711305081e-13 8.085672837656807110e-14 -8.147692928867945883e-15
1.900000000000000000e+03 7.061784362792968750e+01 -3.332017517089843750e+01 1.133030445521162645e-15 1.377384263503284023e-13 4.166143748344716680e-14 -6.189293038993222071e-15
1.901000000000000000e+03 7.860624694824218750e+01 -3.780735397338867188e+01 -6.439004873997483669e-14 1.096571089682397970e-13 1.358011840729266700e-14 -3.091748862135701437e-14
1.902000000000000000e+03 7.958486175537109375e+01 -3.406300354003906250e+01 5.678882250515979169e-14 -2.141288279230556951e-14 1.061278242207603500e-14 -2.472687209338370745e-14
1.903000000000000000e+03 6.676042175292968750e+01 -1.986701393127441406e+01 6.950147922457627914e-14 1.670391933496565007e-13 7.096220448277526516e-14 7.263634138610086666e-14
1.904000000000000000e+03 5.351340103149414062e+01 -1.373172855377197266e+01 -2.135194385394830613e-14 8.235106390211410776e-14 1.829973516741679324e-14 -5.628301508664099173e-14
1.905000000000000000e+03 4.735960388183593750e+01 -1.356956672668457031e+01 -7.022775237860642839e-14 1.529061843504389562e-13 2.480353026917611614e-14 5.756072701812442460e-14
1.906000000000000000e+03 7.877281188964843750e+01 -3.078725433349609375e+01 -1.459751509122822477e-14 3.949486950590580525e-14 7.469206832623042497e-15 7.761533657533320474e-14
1.907000000000000000e+03 7.962092590332031250e+01 -2.607233047485351562e+01 -7.927747949212568535e-14 1.177488536768757019e-14 -2.025077899966108708e-14 5.442835513346476473e-14
1.908000000000000000e+03 7.304436492919921875e+01 -1.661970520019531250e+01 -6.129327595602238055e-14 4.083654801031316728e-13 1.041216605665064299e-13 1.550994512299942469e-15
1.909000000000000000e+03 6.657023620605468750e+01 -9.788149833679199219e+00 1.076807066636206039e-14 2.562451119347830542e-13 8.010395325568422931e-14 1.189305544237878598e-13
1.910000000000000000e+03 6.077666091918945312e+01 -4.814618110656738281e+00 5.246136844708725044e-14 2.626759215956092630e-13 9.454118938450120635e-14 6.141977524449712678e-14
1.911000000000000000e+03 4.983910751342773438e+01 -7.374035835266113281e+00 -3.725547363555951896e-14 5.330447454959807985e-13 1.487367900284558564e-13 1.555844008857033833e-14
1.912000000000000000e+03 7.887715911865234375e+01 -2.436678314208984375e+01 -4.934287943243308855e-15 4.363625414238909983e-14 1.161058977504044257e-14 -5.890374180170937501e-14
1.913000000000000000e+03 7.963549041748046875e+01 -1.887883377075195312e+01 -5.930238261174156089e-14 2.948413269174970930e-13 7.066168396935301743e-14 2.479442805312492143e-14
1.914000000000000000e+03 7.320828247070312500e+01 -9.545237541198730469e+00 -9.827831907657791355e-14 3.467637960628822125e-13 7.454564174063857407e-14 1.351739222941669705e-13
1.915000000000000000e+03 6.681912231445312500e+01 -5.281642436981201172e+00 1.451093612674439481e-13 3.824463803373673310e-13 1.582667238366960993e-13 -1.242619288716051429e-13
1.916000000000000000e+03 6.006862258911132812e+01 -2.719513773918151855e-01 -1.407374786372220243e-13 7.693678186941957375e-14 -1.914020869152755627e-14 -1.370196545200791371e-13
1.917000000000000000e+03 4.919811248779296875e+01 7.553659915924072266e+00 -5.031966596874548614e-14 -2.045693665462741673e-13 -7.646671246501132724e-14 -1.878921551765749820e-13
1.918000000000000000e+03 7.890865325927734375e+01 -1.717180252075195312e+01 5.580632527271700560e-14 6.186793156774672564e-13 2.023456949955607098e-13 -4.219106346844275768e-14
1.919000000000000000e+03 7.964043426513671875e+01 -1.088933277130126953e+01 4.705297837557381735e-14 4.776750284381237055e-13 1.574184033993619725e-13 1.424750583082969729e-14
1.920000000000000000e+03 7.390818023681640625e+01 -4.598251342773437500e+00 1.373043931156281428e-13 2.647240066044886930e-13 1.206085199160350507e-13 -5.653778226838435117e-14
1.921000000000000000e+03 6.626396179199218750e+01 3.115409851074218750e+00 1.256643579342422989e-13 2.368599565615026048e-13 1.087572889277126087e-13 -2.771253278938123898e-14
1.922000000000000000e+03 5.424583435058593750e+01 1.218884468078613281e+01 1.698787866020318171e-13 -1.869670562847699363e-14 4.535462310622032089e-14 1.105883640955054870e-13
1.923000000000000000e+03 7.892010498046875000e+01 -1.157849025726318359e+01 -2.410107568162275782e-14 3.556785671109813363e-13 9.947324539592850012e-14 7.723894901489128384e-14
1.924000000000000000e+03 7.964134216308593750e+01 -3.699052810668945312e+00 -5.078800336018318706e-13 5.684281916148135883e-14 -1.353111687366764793e-13 2.549834970174292420e-14
1.925000000000000000e+03 7.332217407226562500e+01 4.151828289031982422e+00 3.134654536808556546e-13 2.258442320960882266e-13 1.617929016673250175e-13 -3.049117693900392501e-14
1.926000000000000000e+03 6.765611267089843750e+01 9.147936820983886719e+00 1.487802191017274789e-14 2.008178237415669809e-13 6.470875674484052875e-14 -9.092006932488044813e-14
1.927000000000000000e+03 5.353427124023437500e+01 1.984488296508789062e+01 -7.740472352706431747e-14 4.014605488322775528e-13 9.721674962444304402e-14 -1.119651043429183146e-13
1.928000000000000000e+03 4.868665313720703125e+01 2.161018753051757812e+01 7.273497667874273542e-14 1.684249799089460042e-13 7.234799104206476872e-14 1.285816766239235645e-15
1.929000000000000000e+03 7.892316436767578125e+01 -4.387700080871582031e+00 -4.022067509774907013e-13 4.223880089009729444e-13 6.054383983901661520e-15 -1.944747836347352626e-14
1.930000000000000000e+03 7.964218902587890625e+01 3.491072893142700195e+00 -7.478382062914290529e-13 -9.174734268754120015e-14 -2.518756687594492227e-13 1.891339461348312545e-13
1.931000000000000000e+03 7.343709564208984375e+01 1.145400714874267578e+01 -4.287203391232195793e-14 -1.837372857755713990e-14 -1.837372857755713990e-14 -2.438662742880112755e-14
1.932000000000000000e+03 6.751355743408203125e+01 1.491811561584472656e+01 -5.243194591063142507e-14 2.328011440848494484e-14 -8.745549958863712420e-15 -1.920429689838271115e-13
1.933000000000000000e+03 5.622089385986328125e+01 2.809879493713378906e+01 -3.017176894611062199e-13 -6.068115573822779885e-14 -1.087196535598002056e-13 5.935149019389157621e-14
1.934000000000000000e+03 4.675890350341796875e+01 2.742593193054199219e+01 6.497706290121280093e-14 1.651001655268019563e-13 6.902316988365714279e-14 1.555970386172764175e-14
1.935000000000000000e+03 7.820899963378906250e+01 2.913537025451660156e+00 2.865894099726012945e-13 5.803335242915430570e-13 2.600768721477270118e-13 -4.520435946137740801e-13
1.936000000000000000e+03 7.821841430664062500e+01 1.010430240631103516e+01 -2.452671041524440154e-13 3.213837480647505074e-14 -6.393861406040618478e-14 2.974110554728771894e-14
1.937000000000000000e+03 7.288074493408203125e+01 1.835004997253417969e+01 -9.168343574573675769e-14 6.458048969860486280e-15 -2.556761497397169736e-14 -9.919716686523222249e-14
1.938000000000000000e+03 6.498849487304687500e+01 2.773235511779785156e+01 -1.888223294897999754e-14 -1.682207026671225791e-13 -5.613088119305054136e-14 2.196853403401213822e-13
1.939000000000000000e+03 5.194942855834960938e+01 2.504333496093750000e+01 -4.954807655203723182e-14 7.026700727351398168e-14 6.215678962333140781e-15 -2.591782413414577685e-14
1.940000000000000000e+03 7.964413452148437500e+01 1.147992801666259766e+01 -7.535480215075524013e-14 2.422107653332616906e-13 5.005679437576279756e-14 1.538866165165563363e-15
1.941000000000000000e+03 7.894132995605468750e+01 1.718243026733398438e+01 3.702499258247983482e-14 2.903735466051188263e-13 9.821956209509277724e-14 5.426289995271284597e-15
1.942000000000000000e+03 6.881799316406250000e+01 2.719392776489257812e+01 2.520532881803566605e-14 2.681513594070955575e-13 8.800700782279208267e-14 -4.092663640170406125e-14
1.943000000000000000e+03 6.215051651000976562e+01 2.791628074645996094e+01 9.481298531661616624e-14 -3.228143867126630207e-14 1.875946399360495925e-14 1.026127831793219314e-13
1.944000000000000000e+03 7.964768981933593750e+01 1.787097549438476562e+01 3.137577410340305906e-14 1.049486561023604825e-13 4.089732906172906246e-14 -1.822541946124001631e-15
1.945000000000000000e+03 7.898831176757812500e+01 2.516422080993652344e+01 -1.577715924214444926e-14 3.898930942100760355e-14 6.963645053658946288e-15 -7.649997036665232009e-14
1.946000000000000000e+03 6.972726440429687500e+01 3.218298339843750000e+01 8.114101973872092644e-14 3.477472419722259234e-14 3.477472419722259234e-14 -3.002899849353229955e-14
1.947000000000000000e+03 6.916512298583984375e+01 3.171698379516601562e+01 -3.998915388821015771e-14 -3.373948527247289109e-13 -1.132152030003212573e-13 -5.828740674796925592e-14
1.948000000000000000e+03 6.769049072265625000e+01 3.221802902221679688e+01 1.887310430550084850e-13 3.553904403836433135e-13 1.632364355448265303e-13 2.456080281374502933e-14
1.949000000000000000e+03 7.969645690917968750e+01 2.903839111328125000e+01 -1.886546169662436240e-14 1.291676455465046169e-13 3.309065667962338142e-14 1.311606293680992602e-14
1.950000000000000000e+03 7.966668701171875000e+01 2.585483169555664062e+01 -1.076237962139604820e-13 4.537741168063325059e-14 -1.867391535999816943e-14 3.945885027685676338e-14
1.951000000000000000e+03 7.541609954833984375e+01 3.219787216186523438e+01 -1.298105774347885211e-13 8.161974243171832288e-14 -1.445725151736059616e-14 6.304500107731647596e-15
1.952000000000000000e+03 7.282329559326171875e+01 3.159890556335449219e+01 -5.493231009092791953e-15 -9.385613624181624037e-14 -2.980481258931660937e-14 7.679002155284650466e-14
1.953000000000000000e+03 5.701350784301757812e+01 3.319010162353515625e+01 -3.205823193713763786e-14 -3.339958789139868545e-13 -1.098162359658427789e-13 -1.391453006418727489e-13
1.954000000000000000e+03 2.090621566772460938e+01 -6.594195365905761719e-01 -4.548980007783309798e-13 -1.195248022463953758e-14 -1.400551359999682721e-13 4.245237516554978274e-13
1.955000000000000000e+03 2.174252128601074219e+01 5.925346612930297852e-01 1.219366133672211694e-13 -4.496221984681171568e-14 2.309231703968329941e-14 3.676507611804352704e-13
1.956000000000000000e+03 2.234675216674804688e+01 1.018043518066406250e+00 9.942809515170805690e-14 1.019453008880948086e-13 6.041201610143542844e-14 3.407546597319899284e-13
1.957000000000000000e+03 2.894090270996093750e+01 -8.287009239196777344e+00 -5.418631038658916488e-14 -7.683709625592310966e-14 -3.930702131512732456e-14 -1.811434337218535001e-14
1.958000000000000000e+03 3.132293128967285156e+01 -1.240179824829101562e+01 3.106508241835018169e-14 -1.010637632067011571e-13 -2.099960355887893482e-14 3.513664104679362077e-14
1.959000000000000000e+03 3.740856933593750000e+01 -3.750536727905273438e+01 -8.946366224064656453e-15 -7.532001281354561151e-14 -2.527991515123909072e-14 2.576037468529483211e-15
1.960000000000000000e+03 2.418044662475585938e+01 -1.578744983673095703e+01 -6.078376192132639577e-14 -1.175520862291626334e-13 -5.350075241226763534e-14 9.049863316417175452e-14
1.961000000000000000e+03 2.355044364929199219e+01 -1.619656944274902344e+01 3.884636414082896783e-14 -2.006685697599971951e-13 -4.854665999168457369e-14 1.410925412961838710e-13
1.962000000000000000e+03 2.040985107421875000e+01 -4.829721450805664062e-01 -2.507127535092412707e-13 6.245668587347152911e-13 1.121562288571367749e-13 4.490491908436949897e-13
1.963000000000000000e+03 2.132332992553710938e+01 9.832565486431121826e-02 -9.955252767979150263e-14 -4.266536803758727570e-14 -4.266536803758727570e-14 4.132183690271767906e-13
1.964000000000000000e+03 7.421189117431640625e+01 2.438510322570800781e+01 1.376800556158672140e-14 2.346553127589162679e-13 7.452700023953540143e-14 1.176963393282118298e-13
1.965000000000000000e+03 4.186547851562500000e+01 2.078778839111328125e+01 6.778645434682081805e-14 2.905133951328423003e-14 2.905133951328423003e-14 -8.994779747417691596e-14
1.966000000000000000e+03 5.302276229858398438e+01 1.903933143615722656e+01 -2.179069760326361391e-15 4.108246403657089818e-13 1.225936805413288533e-13 -6.797260508357300113e-14
1.967000000000000000e+03 6.649064636230468750e+01 1.677598571777343750e+01 9.776610808897787108e-14 4.536582969092567419e-13 1.654273235323494573e-13 -2.347148964445579244e-14
1.968000000000000000e+03 7.350255584716796875e+01 1.608335304260253906e+01 -6.178231889844912339e-14 -2.647813642875449652e-14 -2.647813642875449652e-14 -4.824519080136140115e-14
1.969000000000000000e+03 3.387218093872070312e+01 1.315666103363037109e+01 -3.701201603772789894e-14 2.128924478112664831e-13 5.276413190375382756e-14 -1.030538298468254566e-13
1.970000000000000000e+03 3.955627441406250000e+01 1.210273075103759766e+01 6.341623190117551268e-14 2.717838534251320465e-14 2.717838534251320465e-14 5.703143137597826290e-15
1.971000000000000000e+03 5.200964736938476562e+01 1.116440296173095703e+01 2.213685913179594400e-13 -4.238059217258859090e-14 5.369640008242443363e-14 2.348017046161572814e-15
1.972000000000000000e+03 6.703321838378906250e+01 9.585040092468261719e+00 2.141063476686355660e-14 1.407099670070952047e-13 4.863618120981398618e-14 -1.359591692701167531e-13
1.973000000000000000e+03 7.345474243164062500e+01 1.222709178924560547e+01 6.057827172832250251e-14 1.632149683418113173e-13 6.713797269866650375e-14 -1.188915231455783816e-13
1.974000000000000000e+03 3.299205017089843750e+01 5.681564331054687500e+00 1.089434261119376357e-13 1.610674077836063423e-13 8.100325152391590899e-14 -1.343465405112889699e-13
1.975000000000000000e+03 4.035868453979492188e+01 5.864866256713867188e+00 7.888229457651829701e-14 3.380669767565069872e-14 3.380669767565069872e-14 -2.237332667493364263e-14
1.976000000000000000e+03 6.011257553100585938e+01 4.314425468444824219e+00 -9.373334356951867896e-14 5.579515714330745765e-15 -2.644614907653438513e-14 -1.404749255286275034e-13
1.977000000000000000e+03 6.683576202392578125e+01 1.321460604667663574e+00 -2.698526691273690770e-14 2.274809809651220233e-14 -1.271150814274001062e-15 -1.318872447234401002e-13
1.978000000000000000e+03 7.325271606445312500e+01 4.953040122985839844e+00 1.017313200368276382e-13 -2.151811181292533938e-15 2.987385255078141288e-14 1.265964008021489354e-14
1.979000000000000000e+03 3.371348190307617188e+01 -6.752940654754638672e+00 2.307720597190428269e-14 9.890231130816121152e-15 9.890231130816121152e-15 4.046036170489951400e-14
1.980000000000000000e+03 3.907595443725585938e+01 -4.346015930175781250e+00 -8.105007550524012672e-14 -2.406150094707432130e-13 -9.649952955855314873e-14 -1.954890717077543971e-14
1.981000000000000000e+03 5.506396102905273438e+01 -7.679653167724609375e+00 -1.278672805658798151e-13 -5.480026358368160488e-14 -5.480026358368160488e-14 -1.326792950680222294e-13
1.982000000000000000e+03 6.674762725830078125e+01 -6.172806739807128906e+00 3.488517263486334320e-15 1.387479269931296555e-13 4.267093134998484194e-14 5.948984794362788264e-14
1.983000000000000000e+03 7.314518737792968750e+01 -2.112751483917236328e+00 3.401271506196096306e-13 2.830216258836032450e-13 1.869446437929855875e-13 6.764486855452252548e-15
1.984000000000000000e+03 6.078646183013916016e+00 -8.399098396301269531e+00 8.115883453566757888e-14 -1.482214416308191840e-13 -2.011878077329276593e-14 9.380258343075903449e-14
1.985000000000000000e+03 2.011030769348144531e+01 -1.743155860900878906e+01 1.416772210346192024e-14 -3.713734506548271863e-13 -1.071617160243107381e-13 1.122312827525270840e-13
1.986000000000000000e+03 6.196311473846435547e+00 -1.611087226867675781e+01 1.405164894353492719e-14 -8.547975966378268398e-14 -2.142843431721715847e-14 8.819539472652501710e-14
1.987000000000000000e+03 3.520969748497009277e-01 -9.132437705993652344e+00 -3.787424475605594143e-14 1.667719781717202920e-13 3.866932070232566299e-14 4.246522431654645158e-14
1.988000000000000000e+03 2.095095443725585938e+01 -2.723329925537109375e+01 -2.601318818554534951e-14 -1.026504049947071784e-13 -3.859907795407575837e-14 1.581186557012524696e-14
1.989000000000000000e+03 6.086030006408691406e+00 -2.504642677307128906e+01 -5.777850935325887227e-14 -1.848905414620488630e-13 -7.280071321171324716e-14 2.903953526213129410e-14
1.990000000000000000e+03 2.722528839111328125e+01 -2.320808982849121094e+01 -8.808103172611853049e-14 -3.351301712268411892e-13 -1.269633676621514939e-13 1.672331706708413135e-13
1.991000000000000000e+03 3.638882339000701904e-01 -1.636058616638183594e+01 -2.966810147162976530e-14 -1.271490050969376409e-14 -1.271490050969376409e-14 -6.339976558068088908e-14
1.992000000000000000e+03 1.991015434265136719e+01 -3.295905303955078125e+01 2.822757964328868885e-14 -1.937817311128964270e-13 -4.966624781257457377e-14 -2.426621153095356170e-14
1.993000000000000000e+03 7.677434444427490234e+00 -3.277111816406250000e+01 1.350002805399798389e-14 -6.284069673043873872e-14 -1.480220060293222645e-14 -7.517708786215770989e-15
1.994000000000000000e+03 3.214979553222656250e+01 -3.131100654602050781e+01 -1.138912369361838595e-13 -2.318143235962438764e-13 -1.037116695149810364e-13 1.480342134681580935e-13
1.995000000000000000e+03 2.577120590209960938e+01 -2.962564277648925781e+01 -9.590134133867500577e-15 -3.929931196005459482e-13 -1.207749720545658878e-13 -4.739997050461422501e-14
1.996000000000000000e+03 3.763778805732727051e-01 -2.279089546203613281e+01 -7.559985894679127627e-15 1.111373769705978343e-13 3.107321732277561199e-14 1.805551015773496082e-14
1.997000000000000000e+03 4.184120595455169678e-01 -3.003914260864257812e+01 -1.170022873074952341e-13 2.014863834587030111e-13 2.534522647367008080e-14 -4.505929998696242555e-14
1.998000000000000000e+03 6.735793304443359375e+01 -4.130122756958007812e+01 2.584404925850582180e-14 1.940798189476941604e-13 6.597715809016774235e-14 4.592261290746295355e-14
1.999000000000000000e+03 7.230713653564453125e+01 -3.222691345214843750e+01 -6.801773499900271025e-14 1.660049051346867977e-14 -1.542517300684703024e-14 -4.171861220738683207e-14
2.000000000000000000e+03 6.666584014892578125e+01 -2.276261138916015625e+01 1.939379341527654871e-15 2.181481720524985901e-13 6.602626567231775767e-14 2.607104731210639625e-14
2.001000000000000000e+03 5.424721908569335938e+01 -2.207283210754394531e+01 -1.674291740948359586e-14 1.758282647083830863e-13 4.772560385085666823e-14 1.076750400132034727e-14
2.002000000000000000e+03 4.662819290161132812e+01 -1.893547439575195312e+01 2.270312403514478800e-14 2.384846606220264453e-13 7.835633455011842274e-14 -8.752599814083709961e-15
2.003000000000000000e+03 6.265719604492187500e+01 -4.094080352783203125e+01 2.555392014528048983e-14 2.854573673792548671e-13 9.330338964549239611e-14 -3.754902137375996929e-14
2.004000000000000000e+03 6.641878509521484375e+01 -3.345348358154296875e+01 -2.940577536786510848e-14 1.704013178390612060e-13 4.229866375779836596e-14 7.270625040336955308e-15
2.005000000000000000e+03 5.380456542968750000e+01 -2.779677009582519531e+01 4.348502149185452803e-14 3.846440310359411363e-13 1.284387093208883002e-13 -2.699504506108001134e-14
2.006000000000000000e+03 4.659753036499023438e+01 -2.652300453186035156e+01 -3.728023240860776216e-15 3.186589176123327816e-13 9.447926788792512798e-14 -7.490346911514025874e-14
2.007000000000000000e+03 4.769604110717773438e+01 -3.231830215454101562e+01 6.889503751566009027e-14 4.412849751410374832e-13 1.530540017641301986e-13 -5.292262532071226322e-14
2.008000000000000000e+03 6.610224151611328125e+01 -3.059413337707519531e+01 -2.079218213075530175e-14 1.283419171719396568e-13 3.226491814066305419e-14 3.616047009893062769e-14
2.009000000000000000e+03 5.449375534057617188e+01 -3.204867935180664062e+01 4.257479311047147885e-14 3.270652520516448281e-13 1.108920084664372085e-13 1.794511127152162433e-14
2.010000000000000000e+03 7.283735656738281250e+01 -2.275589752197265625e+01 5.924824704201664405e-14 1.626449490496270633e-13 6.656796018274582782e-14 4.637311246265783671e-14
2.011000000000000000e+03 6.231224060058593750e+01 -2.836463546752929688e+01 3.495916731555311074e-14 2.723315821982763563e-13 9.218722383770930340e-14 4.308308402959162842e-14
2.012000000000000000e+03 5.329245758056640625e+01 -2.609376144409179688e+01 -9.197860470499825275e-15 2.934392366680388387e-13 8.527241277455840929e-14 3.329617736581337584e-14
2.013000000000000000e+03 7.313043975830078125e+01 -1.571832847595214844e+01 2.343081512232864094e-14 1.472946249561971066e-13 5.121763270118408207e-14 -1.921217769292396516e-13
2.014000000000000000e+03 6.360472488403320312e+01 -2.247565650939941406e+01 3.853058686996077564e-14 2.681433363110191648e-13 9.200217085565676189e-14 1.251343999123313844e-13
2.015000000000000000e+03 5.504027938842773438e+01 -2.370793151855468750e+01 1.784660642195363273e-14 3.279051834746693483e-13 1.037255405265252728e-13 3.189558678818823524e-15
2.016000000000000000e+03 3.979138565063476562e+01 -1.794122886657714844e+01 -1.363350350582631654e-15 -5.842930149553505949e-16 -5.842930149553505949e-16 5.626508509321351270e-14
2.017000000000000000e+03 7.330545043945312500e+01 -1.281499958038330078e+01 -1.270756096920580558e-13 2.200447127027188587e-13 2.789073158082459869e-14 1.982114288239661404e-13
2.018000000000000000e+03 6.649446105957031250e+01 -1.299552917480468750e+01 1.003161651511909336e-13 6.586811445667001275e-14 4.985528523761099950e-14 4.381296130881234471e-15
2.019000000000000000e+03 5.511174011230468750e+01 -1.454744148254394531e+01 1.136970834321460178e-13 1.459480865155515783e-13 7.789355640532014124e-14 -2.835939999273808659e-14
2.020000000000000000e+03 4.027791213989257812e+01 -1.387972927093505859e+01 -5.660807922674288006e-14 1.129922435998131913e-13 1.691524795666837777e-14 1.017736852367175093e-13
2.021000000000000000e+03 3.385124588012695312e+01 -1.243925762176513672e+01 4.650137612076171365e-15 -1.981674915309261653e-13 -5.805520452394075104e-14 5.449836748875301617e-14
2.022000000000000000e+03 5.280793762207031250e+01 3.410953140258789062e+01 -1.303360089126293087e-13 -1.473601920825781675e-13 -8.330885487755138041e-14 -3.008669973315197810e-13
2.023000000000000000e+03 5.502394104003906250e+01 3.351351928710937500e+01 -5.371679324766252817e-14 2.057332575784373563e-13 4.560494167092470075e-14 6.021987091251552668e-15
2.024000000000000000e+03 5.135596084594726562e+01 3.192056655883789062e+01 -1.252042631898209191e-13 -2.137872940743273942e-13 -1.016974658239917784e-13 2.919229934823450168e-14
2.025000000000000000e+03 4.911562347412109375e+01 2.962154960632324219e+01 4.130501618363792427e-14 1.949870793256300305e-13 7.088763170209899656e-14 -1.009400218575026709e-13
2.026000000000000000e+03 4.853376770019531250e+01 2.906305885314941406e+01 -2.232619098548483533e-14 4.762031765551295870e-14 7.588238678634794815e-15 7.251392140830009714e-14
2.027000000000000000e+03 4.651720046997070312e+01 2.520607376098632812e+01 1.216884801475207056e-15 4.627247139599686976e-14 1.424680618161526524e-14 -1.901934047808615663e-14
2.028000000000000000e+03 4.504226684570312500e+01 2.574557685852050781e+01 -2.579671366928146248e-14 -1.677460321797448473e-14 -1.277139506617678416e-14 9.498834146548854052e-14
2.029000000000000000e+03 4.447657012939453125e+01 2.517475509643554688e+01 1.403598103629638549e-13 1.344994943327723624e-13 8.245779682973172764e-14 2.727169449198273837e-14
2.030000000000000000e+03 4.270248031616210938e+01 2.353200149536132812e+01 -3.315218176478014478e-14 -2.770340473882515302e-15 -1.077675614220320599e-14 1.367832713414229850e-13
2.031000000000000000e+03 4.389380264282226562e+01 2.461615371704101562e+01 -8.585130219576631028e-14 3.183300926459450841e-14 -1.620548855697789836e-14 1.414459369943055211e-13
2.032000000000000000e+03 4.211155319213867188e+01 2.298959541320800781e+01 2.481665927985855780e-14 1.478885509062846659e-13 5.181156542753521943e-14 1.175413644861162885e-14
2.033000000000000000e+03 4.092377090454101562e+01 2.190787887573242188e+01 -2.354244728851317969e-14 -3.868396420791779533e-14 -1.866792344892929251e-14 -4.161410867048638551e-14
2.034000000000000000e+03 3.974513626098632812e+01 2.082736778259277344e+01 -5.006095838973149970e-14 8.434436959622870766e-14 1.028502471720187800e-14 -2.810941727659729307e-15
2.035000000000000000e+03 3.919174957275390625e+01 2.025410270690917969e+01 -5.967053701193616999e-14 -8.276177323757877291e-14 -4.272969510773355628e-14 -1.400723138281385893e-14
2.036000000000000000e+03 3.814824676513671875e+01 1.904407119750976562e+01 6.508353155455087746e-14 7.793304169318934771e-14 4.290497332957478316e-14 -3.111939755905991645e-14
2.037000000000000000e+03 3.915407180786132812e+01 1.907800102233886719e+01 7.498956154389918582e-14 7.788932801684744778e-14 4.586366619059763228e-14 -5.428795772839146994e-14
2.038000000000000000e+03 3.763665390014648438e+01 1.842779159545898438e+01 -3.929595567670439438e-14 -4.257603316670625915e-14 -2.456159563658365935e-14 -2.571408560527680548e-14
2.039000000000000000e+03 3.711256027221679688e+01 1.781749153137207031e+01 -1.437529972446102700e-13 -1.416725894584636158e-13 -8.562767194516401892e-14 -5.292624384546293359e-14
2.040000000000000000e+03 3.603267669677734375e+01 1.662894439697265625e+01 -4.184487093850455808e-14 -7.512220012717563122e-14 -3.509012199733041459e-14 -1.542481284843785772e-13
2.041000000000000000e+03 3.657542037963867188e+01 1.721875572204589844e+01 -1.458636271663149575e-13 -3.963750985422342943e-14 -5.565034246141423169e-14 -1.262079362459450627e-13
2.042000000000000000e+03 3.388835906982421875e+01 1.426336574554443359e+01 -8.732094416980104232e-16 1.025654035443843148e-13 3.050765681202570467e-14 -1.250643468994616647e-13
2.043000000000000000e+03 3.334843826293945312e+01 1.367266273498535156e+01 -1.050412063103092764e-13 -2.065756962189857493e-13 -9.348506804828307648e-14 2.008017470562280943e-14
2.044000000000000000e+03 3.035616874694824219e+01 8.706583976745605469e+00 -1.212581365883386858e-14 -5.196777100850312123e-15 -5.196777100850312123e-15 1.358306642076229087e-13
2.045000000000000000e+03 3.013662910461425781e+01 9.481811523437500000e+00 5.731215080019254685e-15 4.820718273895220618e-14 1.618151921863649617e-14 3.886254247012152496e-14
2.046000000000000000e+03 2.982847404479980469e+01 1.022073745727539062e+01 4.697617959231216445e-14 -7.136924785964421369e-14 -7.317920819012793676e-15 6.921331183965678813e-14
2.047000000000000000e+03 3.056086540222167969e+01 7.935151576995849609e+00 2.446300777778683683e-14 1.934879394292071675e-13 6.538528534794432745e-14 2.635921977922357079e-14
2.048000000000000000e+03 3.078519248962402344e+01 7.211716175079345703e+00 8.357696452227988959e-14 -9.932250741263512483e-15 2.209341277905219753e-14 1.043592092624980039e-13
2.049000000000000000e+03 2.827619361877441406e+01 4.762958049774169922e+00 2.613961022461530614e-13 -1.281655852411120455e-13 3.996915713439137818e-14 1.144709632259436477e-14
2.050000000000000000e+03 2.760557174682617188e+01 4.349049568176269531e+00 2.878185428704937987e-13 -4.821525665700543417e-14 7.188098450879379375e-14 -9.562294532583504036e-14
2.051000000000000000e+03 2.940484809875488281e+01 4.617838382720947266e+00 1.419506060005432113e-13 -6.497913643786767945e-14 2.309144290168173297e-14 -8.475812825030348829e-14
2.052000000000000000e+03 2.693727684020996094e+01 3.936907529830932617e+00 2.268673530286813289e-13 -2.344655231686226804e-13 -2.279446552707784998e-15 1.082491708033136990e-13
2.053000000000000000e+03 2.627105140686035156e+01 3.525312423706054688e+00 2.834101497321134255e-13 -1.530442032869963609e-13 3.910978461116147720e-14 6.434838827149708118e-14
2.054000000000000000e+03 2.607704162597656250e+01 2.570754051208496094e+00 2.632546687152820253e-13 -2.303086920393132564e-13 9.883791986351093961e-15 4.018484221594842420e-14
2.055000000000000000e+03 2.560694122314453125e+01 3.113273620605468750e+00 3.188551311004983457e-13 -1.035402842565653903e-13 6.459445473080624445e-14 8.315171332517676261e-14
2.056000000000000000e+03 2.428396034240722656e+01 2.283680438995361328e+00 4.068239072441831583e-13 -2.145299590099528086e-13 5.768818853602725172e-14 3.844243445707412610e-14
2.057000000000000000e+03 2.362966156005859375e+01 1.865020155906677246e+00 3.107683110414177774e-13 -5.553624034715549940e-14 7.656962357997093571e-14 2.753683952139585750e-14
2.058000000000000000e+03 2.014153480529785156e+01 -1.375963091850280762e-01 -1.137948649155770542e-13 6.603704670767041041e-13 1.639726901351071242e-13 2.838289499262902638e-13
2.059000000000000000e+03 1.854002571105957031e+01 -2.231214523315429688e+00 2.307055642445515753e-13 6.936361207632302239e-13 2.773025136338508334e-13 3.082252877407987146e-13
2.060000000000000000e+03 1.757262992858886719e+01 -1.896257638931274414e+00 6.089303594778577855e-14 8.328570038490523686e-14 4.325362225506002023e-14 7.688652232246129259e-14
2.061000000000000000e+03 1.798273849487304688e+01 -2.437985420227050781e+00 2.052074195247818866e-13 -2.323106171406991161e-13 -8.130958098929042671e-15 1.835839829765137377e-13
2.062000000000000000e+03 1.698802757263183594e+01 -2.300837516784667969e+00 2.613325510581864658e-14 -2.404302614205516830e-13 -6.428909596518928016e-14 1.465736034064399340e-13
2.063000000000000000e+03 1.256827354431152344e+01 -2.216778278350830078e+00 -1.659214554487233040e-14 2.673947760260808604e-13 7.524079151605481131e-14 -7.684402837356343885e-14
2.064000000000000000e+03 1.310803413391113281e+01 -2.275338172912597656e+00 -1.601333743882736582e-14 -9.836475709477932039e-14 -3.431342666601611135e-14 -3.492541135853913237e-14
2.065000000000000000e+03 1.368902111053466797e+01 -2.321585178375244141e+00 -2.536353763192382427e-14 2.178846567144759883e-13 5.775633741883154371e-14 6.013119926843221025e-15
2.066000000000000000e+03 1.599857807159423828e+01 -2.574193239212036133e+00 -1.011466843441055641e-13 -2.263523705492778704e-13 -9.824971646801503034e-14 1.454704005908816211e-13
2.067000000000000000e+03 1.485094356536865234e+01 -2.426894426345825195e+00 -9.619356092921416135e-14 1.875289338962651819e-13 2.740061290655484288e-14 -2.975519339926645246e-14
2.068000000000000000e+03 1.157727432250976562e+01 -2.071526288986206055e+00 -6.991499393316225053e-14 6.153832597579483865e-14 -2.512999582528923671e-15 -1.324270825376477889e-13
2.069000000000000000e+03 1.160994338989257812e+01 -2.618375778198242188e+00 -6.630917467670069398e-14 2.003365328446735094e-13 4.020820677276548682e-14 -1.424283325827946367e-13
2.070000000000000000e+03 1.004914283752441406e+01 -1.916468381881713867e+00 -5.986607287374393072e-14 1.115959606082413125e-13 1.551896665916239343e-14 1.231679841261603195e-14
2.071000000000000000e+03 9.393136978149414062e+00 -1.879299283027648926e+00 -7.772696874151774349e-14 1.954431896270675262e-13 3.531486355515950359e-14 8.381053893968294644e-15
2.072000000000000000e+03 8.601529121398925781e+00 -1.856107115745544434e+00 -5.949791169728574358e-14 1.575046923397646625e-13 2.940203487037003349e-14 2.915270902827983568e-14
2.073000000000000000e+03 7.789113044738769531e+00 -1.846486330032348633e+00 1.852897955239348610e-14 7.940991478749478971e-15 7.940991478749478971e-15 -5.192127652299538543e-14
2.074000000000000000e+03 3.682053089141845703e+00 -1.894768118858337402e+00 -2.523246987124806197e-15 -2.755870889565442683e-13 -8.343309767025464119e-14 -7.929099242049147001e-16
2.075000000000000000e+03 5.324949741363525391e+00 -1.885700702667236328e+00 -2.434826911826824293e-15 -1.611718164528166963e-13 -4.908199497874465855e-14 -6.474753052503404160e-14
2.076000000000000000e+03 1.087833642959594727e+00 -6.706905841827392578e+00 2.336463643815966246e-14 -3.573753299583939946e-14 -3.711869052007215827e-15 -3.324249580574818730e-14
2.077000000000000000e+03 1.109219670295715332e+00 -5.892738342285156250e+00 -6.005925228989242998e-15 -4.832491693048876491e-14 -1.629925341017305490e-14 -2.192276443930066265e-14
2.078000000000000000e+03 1.801878690719604492e+00 -6.729323387145996094e+00 -5.338697894679243772e-15 -2.288013443936314992e-15 -2.288013443936314992e-15 1.449312132979774237e-13
2.079000000000000000e+03 3.977805078029632568e-01 -2.695118188858032227e+00 7.516651011471239818e-14 -1.353673083863545998e-14 1.848893352871319729e-14 3.912129070671697961e-14
2.080000000000000000e+03 4.065065383911132812e-01 -1.897868275642395020e+00 -1.067082891232501440e-13 -1.143585416250522679e-13 -6.632005057974343920e-14 9.385529090293488058e-15
2.081000000000000000e+03 4.480977356433868408e-01 -4.204393386840820312e+01 -3.745957130639812616e-14 2.584515988810626164e-13 6.629760759477298926e-14 -2.465832341102831143e-14
2.082000000000000000e+03 5.539116859436035156e-01 -4.118727111816406250e+01 -8.816452206966349237e-14 1.452190012121365448e-13 1.711634204867602121e-14 1.329546875020312310e-14
2.083000000000000000e+03 5.427243113517761230e-01 -4.038969421386718750e+01 2.253913744011681874e-13 9.659630815497463607e-14 9.659630815497463607e-14 -4.436787800354705449e-15
2.084000000000000000e+03 4.669516384601593018e-01 -3.881850051879882812e+01 3.996485081888753732e-14 2.916334979497642310e-13 9.947949988721102588e-14 1.172769207999834959e-14
2.085000000000000000e+03 5.125172734260559082e-01 -3.959729766845703125e+01 -1.748837890908766513e-13 1.538045542705604452e-13 -6.323772224864051064e-15 -1.108716661231759493e-13
2.086000000000000000e+03 4.090782105922698975e-01 -3.725506973266601562e+01 7.591876346330073133e-14 1.697894618955461676e-13 7.371246625240135408e-14 -4.329011243442773549e-14
2.087000000000000000e+03 3.998843133449554443e-01 -3.566370391845703125e+01 -1.304625048129722659e-14 8.591064871218273558e-14 2.185931828341952654e-14 -5.207176378453637344e-14
2.088000000000000000e+03 3.981324732303619385e-01 -3.486520385742187500e+01 6.840853567207511032e-14 2.580726973268332447e-13 9.794436447866164408e-14 -8.448803316034661504e-14
2.089000000000000000e+03 3.988675177097320557e-01 -3.406514358520507812e+01 -1.429623699153795280e-13 3.023231350592764377e-14 -3.381901353470377625e-14 -2.174568881354536215e-14
2.090000000000000000e+03 4.032495617866516113e-01 -3.326319122314453125e+01 3.018071903504448983e-14 1.959383854168231243e-13 6.783573133556028423e-14 -6.211804887742283787e-14
2.091000000000000000e+03 4.101578593254089355e-01 -3.245982360839843750e+01 -1.501279395768509006e-15 1.823603930622280656e-13 5.425773220470164748e-14 -5.281030875190634299e-14
2.092000000000000000e+03 1.218200683593750000e+00 -3.329024124145507812e+01 1.879844614390349666e-14 1.910602752397405624e-13 6.295761438221414430e-14 6.991378775824536040e-14
2.093000000000000000e+03 4.166062176227569580e-01 -3.165508460998535156e+01 -4.081880910751858882e-14 2.798873871383278367e-13 7.172057679737456337e-14 1.842621582116669987e-14
2.094000000000000000e+03 4.127627313137054443e-01 -2.923016166687011719e+01 1.000279300036356622e-13 3.402502888813496718e-13 1.320834582116056644e-13 -1.016076074867493587e-14
2.095000000000000000e+03 4.071103334426879883e-01 -2.842349815368652344e+01 -1.266000921717330696e-13 -8.506234352144165928e-15 -4.053189871949282319e-14 8.086277110961378328e-15
2.096000000000000000e+03 4.015857279300689697e-01 -2.761805725097656250e+01 4.768977774531960034e-14 2.491932170594485241e-13 8.906489776380407952e-14 7.750955232461650968e-14
2.097000000000000000e+03 3.959013521671295166e-01 -2.681237792968750000e+01 -3.731070357185228836e-14 2.356399038568046667e-13 5.949876550649657592e-14 5.027162903624080026e-14
2.098000000000000000e+03 3.904046118259429932e-01 -2.600681304931640625e+01 1.262836254160458124e-14 2.112914200156842948e-13 6.717593332723065247e-14 1.670659155450764793e-14
2.099000000000000000e+03 3.857714831829071045e-01 -2.520226669311523438e+01 9.935800148125686904e-14 8.833295287715911548e-14 5.630728766277751096e-14 2.481781632686450717e-14
2.100000000000000000e+03 1.171642899513244629e+00 -2.598020172119140625e+01 6.309783560443441019e-14 1.871702527125526649e-13 7.508042446221704913e-14 -1.287497398191200793e-13
2.101000000000000000e+03 3.819437623023986816e-01 -2.439830780029296875e+01 -2.182717507713712035e-14 8.214739652401270575e-14 1.809606609524949672e-14 -1.757844087305060476e-14
2.102000000000000000e+03 3.742175102233886719e-01 -2.198631668090820312e+01 -2.825430861497224555e-14 2.852721856481943430e-13 7.710536175471391362e-14 8.761304941089231857e-14
2.103000000000000000e+03 3.720688223838806152e-01 -2.118285369873046875e+01 5.288351272733984865e-14 4.553983533046694621e-14 2.952700272327614395e-14 -9.155031096554858833e-15
2.104000000000000000e+03 3.703089058399200439e-01 -2.037990760803222656e+01 -9.347413793513170699e-14 2.856607772593403038e-14 -1.947241840157248188e-14 -3.055652383681869977e-14
2.105000000000000000e+03 3.690474331378936768e-01 -1.957634162902832031e+01 -3.352564536748814383e-14 1.457601807265326843e-13 3.367036264059243555e-14 2.994989578065411495e-14
2.106000000000000000e+03 3.678506910800933838e-01 -1.877243804931640625e+01 1.051319540321463131e-13 4.505655221208153260e-14 4.505655221208153260e-14 -8.599611094842890546e-14
2.107000000000000000e+03 1.104414463043212891e+00 -1.875703620910644531e+01 -9.395052281719468157e-14 1.656147549829178889e-13 2.149926998853014110e-14 -5.809268403779085932e-14
2.108000000000000000e+03 3.665350973606109619e-01 -1.796855735778808594e+01 -1.497356248323852834e-13 4.454014756435963410e-15 -4.358448010052112798e-14 3.470670067529449399e-15
2.109000000000000000e+03 3.620845973491668701e-01 -1.555580806732177734e+01 1.830674690615416433e-14 -1.502972551102599308e-14 9.831063550109803324e-16 -3.045513060490057100e-14
2.110000000000000000e+03 3.600337803363800049e-01 -1.475272464752197266e+01 1.363718809914687274e-15 9.208634560182310524e-14 2.803502025525757974e-14 -2.670545804894092212e-14
2.111000000000000000e+03 3.582603633403778076e-01 -1.395045661926269531e+01 -2.753877245058149181e-14 1.107314398187579998e-14 -4.939688201798528647e-15 2.226598049546221064e-15
2.112000000000000000e+03 3.569523096084594727e-01 -1.314743709564208984e+01 8.293609261812370792e-14 -1.020691049177313917e-14 2.181875387557551810e-14 -5.720100228982089030e-14
2.113000000000000000e+03 3.553433120250701904e-01 -1.234413909912109375e+01 -1.204740923991740043e-13 -5.880802792570258633e-15 -3.790646588936949501e-14 -3.572852395341240272e-14
2.114000000000000000e+03 3.533986508846282959e-01 -1.154162693023681641e+01 7.814238758016914255e-14 1.061411988709974955e-14 2.662695164725760455e-14 -3.934251199561727974e-14
2.115000000000000000e+03 1.064244866371154785e+00 -1.233636093139648438e+01 -7.745148652201633288e-14 3.543292978361138601e-14 -1.260556803796102077e-14 5.490032527980664989e-14
2.116000000000000000e+03 3.518057763576507568e-01 -1.073894786834716797e+01 -7.834232801330262563e-14 -1.479526543597328714e-13 -6.788849132377886009e-14 7.917895431376695964e-15
2.117000000000000000e+03 3.544789850711822510e-01 -8.326650619506835938e+00 9.389492357453690929e-14 8.599163183820382472e-14 5.396596662382222021e-14 -8.618983754786133100e-15
2.118000000000000000e+03 3.582959771156311035e-01 -7.521361351013183594e+00 -9.875162075871288248e-14 -1.566994960438411466e-13 -7.663533300788713531e-14 -1.967987667562932051e-15
2.119000000000000000e+03 3.639981746673583984e-01 -6.714970111846923828e+00 -5.187752218907201729e-14 -6.798417216550070585e-14 -3.595850695111910134e-14 7.621847082509361493e-14
2.120000000000000000e+03 3.706981539726257324e-01 -5.907812118530273438e+00 9.515017219225915812e-14 8.652959262740039792e-14 5.450393080115058242e-14 2.161112577141275498e-14
2.121000000000000000e+03 3.774608373641967773e-01 -5.101639747619628906e+00 -5.352631247848398111e-14 -6.869079415515455533e-14 -3.666513232890473983e-14 2.613816281471503800e-14
2.122000000000000000e+03 3.839710056781768799e-01 -4.297164440155029297e+00 2.692360122011090012e-14 1.030405822515303993e-13 3.898925521089897928e-14 5.740211501655337334e-14
2.123000000000000000e+03 3.904916942119598389e-01 -3.494951725006103516e+00 -8.350532586373290989e-14 5.571390042564440537e-14 -8.337427462019961905e-15 -3.726397784634995214e-15
2.124000000000000000e+03 7.956964874267578125e+01 -4.205740737915039062e+01 1.329422022363887027e-14 -8.580437657048842204e-14 -2.175304614172521300e-14 2.656159966724514626e-14
2.125000000000000000e+03 7.947991943359375000e+01 -4.120989990234375000e+01 1.612967042611092913e-15 9.219316662086723957e-14 2.814184127430171406e-14 9.313278873958590748e-15
2.126000000000000000e+03 7.248373413085937500e+01 -3.679436492919921875e+01 1.301044724564973457e-14 7.420232912272103909e-14 2.616383299521452682e-14 -2.690244233708848770e-14
2.127000000000000000e+03 3.464278411865234375e+01 -4.077913284301757812e+01 6.000477621292271690e-14 -6.578556601376239765e-14 -1.734237173185964719e-15 -7.110904272637948165e-15
2.128000000000000000e+03 1.314885902404785156e+01 -4.062967681884765625e+01 6.498024774509447710e-14 -4.077774495023570034e-14 7.260752024303759183e-15 -3.505876780223837579e-15
2.129000000000000000e+03 1.652555584907531738e+00 -4.014941787719726562e+01 -3.682556036911470432e-14 1.443459338602154363e-13 3.225611238614339848e-14 1.396376800470787265e-15
2.130000000000000000e+03 1.550382971763610840e+00 -4.195250701904296875e+01 -1.437737101647859530e-15 5.657251400735356650e-14 1.654043248937656085e-14 5.623701188024266343e-15
2.131000000000000000e+03 7.971436309814453125e+01 3.219550704956054688e+01 -1.608502285359303396e-13 6.831703578498091178e-14 -2.775995816409800726e-14 6.195583190362827231e-14
2.132000000000000000e+03 7.856227111816406250e+01 3.219157409667968750e+01 1.046353521676982729e-14 -8.701752426260034312e-14 -2.296619722196892310e-14 2.067838494835758101e-14
2.133000000000000000e+03 7.798067474365234375e+01 3.219101715087890625e+01 -3.099660149863056602e-14 3.527233301443832847e-13 9.651802198185760462e-14 -3.304631281076872429e-14
2.134000000000000000e+03 7.680364227294921875e+01 3.219506835937500000e+01 -1.169521158519634674e-13 -4.371386692431306412e-15 -3.639704978923054279e-14 9.844227077384845592e-14
2.135000000000000000e+03 7.970572662353515625e+01 2.982937622070312500e+01 9.280712998235504663e-14 2.227782845351522489e-13 9.467562367762583087e-14 -9.375345213168649605e-15
2.136000000000000000e+03 7.968673706054687500e+01 2.824461936950683594e+01 3.177374745147280855e-14 -7.788457785607924566e-14 -1.383324912138193113e-14 7.937361942570494294e-15
2.137000000000000000e+03 7.903617858886718750e+01 2.754354286193847656e+01 1.766562936244327892e-14 -1.754328155184961546e-13 -4.733015466096973656e-14 -4.824949372873345299e-14
2.138000000000000000e+03 7.967164611816406250e+01 2.665170860290527344e+01 1.505468079571799928e-14 -8.504989383118291557e-14 -2.099856340241970654e-14 -6.045734252850890056e-14
2.139000000000000000e+03 7.966320800781250000e+01 2.505782127380371094e+01 2.671426041532878881e-14 1.029508645217572238e-13 3.889953748112580378e-14 9.641807887034517521e-14
2.140000000000000000e+03 7.966007995605468750e+01 2.426078033447265625e+01 -8.133917123826980844e-14 -2.636143798910584035e-13 -1.034860673716775370e-13 6.638655960676184686e-14
2.141000000000000000e+03 7.965724945068359375e+01 2.346313858032226562e+01 -3.115944866493788878e-14 -1.335404954883523052e-14 -1.335404954883523052e-14 1.162817587309133635e-14
2.142000000000000000e+03 7.965484619140625000e+01 2.266480827331542969e+01 3.445584678576744941e-14 -1.224860599231825109e-13 -2.640906258597180284e-14 -4.154799944301908188e-14
2.143000000000000000e+03 7.965296173095703125e+01 2.186608505249023438e+01 -1.130483239571850040e-13 4.305261794854478574e-14 -2.099871078615252878e-14 3.378051419318517379e-14
2.144000000000000000e+03 7.965147399902343750e+01 2.106713294982910156e+01 6.562337614502214422e-14 -6.337759364625356051e-14 6.737360413558196766e-16 -1.653300401042914064e-14
2.145000000000000000e+03 7.895397186279296875e+01 2.117848968505859375e+01 -6.849191759540282365e-14 -2.123574753543078231e-13 -8.425481449678140500e-14 -6.251628988790391972e-14
2.146000000000000000e+03 7.964905548095703125e+01 1.946899414062500000e+01 9.506764916033996066e-15 -4.167661970199375288e-14 -9.650957028710990121e-15 1.360600712229254744e-14
2.147000000000000000e+03 7.964740753173828125e+01 1.707219886779785156e+01 7.838487617230910365e-14 2.623482485940298314e-13 1.022199428509125430e-13 -2.396921763920720726e-15
2.148000000000000000e+03 7.964694976806640625e+01 1.627346992492675781e+01 -6.817799363262322387e-14 1.537846591606953361e-13 2.568199660910302357e-14 2.191495310146108350e-14
2.149000000000000000e+03 7.964646911621093750e+01 1.547460365295410156e+01 2.837342516427872330e-14 1.216003887210062584e-14 1.216003887210062584e-14 4.757792196243698646e-14
2.150000000000000000e+03 7.964596557617187500e+01 1.467567920684814453e+01 -7.098580620881755898e-14 -3.042248934324517928e-14 -3.042248934324517928e-14 -5.149203749477658520e-14
2.151000000000000000e+03 7.964543914794921875e+01 1.387667083740234375e+01 2.759948946630657457e-14 5.757930075659181690e-14 2.555363723627610689e-14 -2.334917131060869344e-14
2.152000000000000000e+03 7.893683624267578125e+01 1.478601074218750000e+01 -3.577293897303462922e-14 1.676725300487139081e-13 3.956987935558285707e-14 2.154897727000681246e-14
2.153000000000000000e+03 7.964416503906250000e+01 9.882232666015625000e+00 -1.053604631925247892e-13 -2.281582854504055069e-13 -1.000556245928790888e-13 -2.803410884780633411e-14
2.154000000000000000e+03 7.964411163330078125e+01 9.083446502685546875e+00 7.611779587711475781e-14 -1.961328370764583995e-13 -3.600451100455037690e-14 -1.327733496064853469e-13
2.155000000000000000e+03 7.964365386962890625e+01 8.284548759460449219e+00 -2.319246953774029008e-13 -2.366491605541171106e-13 -1.405721513584451410e-13 1.450018761745691664e-14
2.156000000000000000e+03 7.964315795898437500e+01 7.485525131225585938e+00 2.503581922937841986e-13 -2.129602646571554514e-13 1.121938083208746592e-14 -5.169538977662160861e-14
2.157000000000000000e+03 7.964280700683593750e+01 6.686586856842041016e+00 -3.232205627277939808e-13 -4.702119769939283600e-14 -1.110725281281560450e-13 4.077159887917042314e-14
2.158000000000000000e+03 7.964258575439453125e+01 5.887688636779785156e+00 4.820554762655082648e-13 1.608442518714545133e-13 1.928699170858361178e-13 -5.997422881671293782e-14
2.159000000000000000e+03 7.892679595947265625e+01 5.998239517211914062e+00 -3.279673082591527677e-13 -4.905552689320885618e-14 -1.131068505457084872e-13 1.200993650233087018e-13
2.160000000000000000e+03 7.964229583740234375e+01 4.289895534515380859e+00 6.339968155501252145e-13 3.632148022018194533e-13 2.991634717730562443e-13 -1.323179711415142790e-13
2.161000000000000000e+03 7.964241027832031250e+01 1.893145918846130371e+00 -1.181328364123490626e-12 -4.877408156175877529e-14 -3.690307337055748205e-13 3.134697362794369724e-13
2.162000000000000000e+03 7.964209747314453125e+01 1.094138741493225098e+00 2.173958062179348616e-12 1.343454861246762277e-12 1.055223833659746369e-12 -1.221601162240681937e-12
2.163000000000000000e+03 7.964170074462890625e+01 2.950623333454132080e-01 3.269339876946220080e-12 1.218141798368932438e-12 1.346244513436567480e-12 1.116447971398482064e-12
2.164000000000000000e+03 7.964144134521484375e+01 -5.038972496986389160e-01 -1.644525769901872270e-12 7.296936085964336738e-14 -4.714669410085803314e-13 1.299088332566700199e-13
2.165000000000000000e+03 7.964134979248046875e+01 -1.302763819694519043e+00 1.183152209018045742e-12 4.155633628009913760e-13 4.796146661247002729e-13 2.323310272465961557e-13
2.166000000000000000e+03 7.892280578613281250e+01 -1.193270683288574219e+00 -6.536251574706941625e-13 3.603882058229868068e-13 -8.797108684956492231e-14 -1.930534725136379137e-13
2.167000000000000000e+03 7.964136505126953125e+01 -2.900349378585815430e+00 5.857641303431970758e-13 2.510417817635363091e-13 2.510417817635363091e-13 -3.947310075916136973e-14
2.168000000000000000e+03 7.964151763916015625e+01 -5.296899795532226562e+00 -3.715074038332377704e-13 3.440429636059755270e-13 -8.239329188266652365e-15 5.478722266442567768e-14
2.169000000000000000e+03 7.964113616943359375e+01 -6.095871925354003906e+00 3.263709289803851110e-13 5.516318196500946680e-13 2.634008191681330713e-13 2.556284787254455015e-14
2.170000000000000000e+03 7.964077758789062500e+01 -6.894928932189941406e+00 -3.034291296954289008e-13 2.817174933004290560e-13 -6.513496593620700034e-15 7.290114421420329505e-14
2.171000000000000000e+03 7.964059448242187500e+01 -7.693933963775634766e+00 1.734805197715558189e-13 2.573525973489226848e-13 1.292499364913962667e-13 8.301523937671514974e-14
2.172000000000000000e+03 7.964057159423828125e+01 -8.492817878723144531e+00 -1.501882656868708255e-13 1.643883461429837545e-13 4.260023459207520902e-15 -2.054091319508410257e-14
2.173000000000000000e+03 7.892036437988281250e+01 -8.383366584777832031e+00 3.926572337675099389e-14 2.913338515743435497e-13 9.917987384058107869e-14 1.002803187168631316e-13
2.174000000000000000e+03 7.964051818847656250e+01 -1.009055137634277344e+01 -8.439300283992826057e-14 3.755901026390034980e-13 8.735912926209621343e-14 -7.057557121180335624e-14
2.175000000000000000e+03 7.964045715332031250e+01 -1.248700141906738281e+01 -5.791923879524749075e-14 4.326869537576299996e-13 1.124303151663411104e-13 3.645184265652252897e-14
2.176000000000000000e+03 7.963992309570312500e+01 -1.328588390350341797e+01 1.618080804977398146e-13 2.523501156301288795e-13 1.242474547726024614e-13 -7.961184066585663688e-14
2.177000000000000000e+03 7.963927459716796875e+01 -1.408477210998535156e+01 -1.425996636311016585e-13 3.963953460178054611e-13 7.613870742651657197e-14 -2.819298342959103421e-14
2.178000000000000000e+03 7.963852691650390625e+01 -1.488378429412841797e+01 -1.403906965723525357e-13 -1.441649568007050825e-14 -4.644215920038621825e-14 -6.769611320079846339e-14
2.179000000000000000e+03 7.963784790039062500e+01 -1.568286991119384766e+01 -2.409320335741097635e-14 1.269271824146447902e-13 3.085019354776355471e-14 -5.148428206111152483e-14
2.180000000000000000e+03 7.963731384277343750e+01 -1.648191833496093750e+01 -3.899075276514972488e-14 3.035463319502745838e-13 7.936666867333977415e-14 -8.458881822260861522e-15
2.181000000000000000e+03 7.818308258056640625e+01 -1.626085662841796875e+01 -6.116595673965469215e-14 3.397936229262987773e-13 8.358829443498236311e-14 7.567938687020898253e-15
2.182000000000000000e+03 7.963619995117187500e+01 -1.807986450195312500e+01 5.076273196279526556e-14 4.792649567139650735e-13 1.590083045701490283e-13 5.786793570369819228e-14
2.183000000000000000e+03 7.963471984863281250e+01 -2.047678565979003906e+01 -1.532372996939160292e-13 3.918363571976668513e-13 7.157971860637796224e-14 6.052732777874283987e-14
2.184000000000000000e+03 7.963373565673828125e+01 -2.127576065063476562e+01 1.276490679380081622e-14 4.172292123339610415e-13 1.289982389570537569e-13 -1.346268448893590992e-15
2.185000000000000000e+03 7.963243103027343750e+01 -2.207479095458984375e+01 2.306533056998377740e-14 3.301417841362896954e-13 1.059621344118820419e-13 -4.252908043637405877e-14
2.186000000000000000e+03 7.963089752197265625e+01 -2.287389183044433594e+01 -6.464422638678690713e-14 3.383029262542941451e-13 8.209761131550488700e-14 4.070741072242749226e-14
2.187000000000000000e+03 7.962921142578125000e+01 -2.367308807373046875e+01 9.393780377045871099e-14 1.317609487228726950e-13 6.770962507037306399e-14 9.715791810405854934e-14
2.188000000000000000e+03 7.888412475585937500e+01 -2.356612777709960938e+01 -9.537600472852431066e-14 3.251321466831574858e-13 6.892684529689538375e-14 -1.389653010583835266e-14
2.189000000000000000e+03 7.962432861328125000e+01 -2.527213859558105469e+01 2.010909241044207124e-14 5.436913058979274405e-14 2.234346706947703404e-14 5.558582226775597712e-14
2.190000000000000000e+03 7.961640167236328125e+01 -2.767143058776855469e+01 -4.038474537963222810e-14 -1.730774777783296997e-14 -1.730774777783296997e-14 5.171851038794986199e-14
2.191000000000000000e+03 7.961261749267578125e+01 -2.847144126892089844e+01 9.057695152454078164e-15 1.868856631948023761e-13 5.878300911353953606e-14 3.673992195001550554e-14
2.192000000000000000e+03 7.960759735107421875e+01 -2.927298736572265625e+01 5.007754668297052791e-14 -1.157910437454487407e-13 -1.971404810230392712e-14 -2.879463432015755275e-14
2.193000000000000000e+03 7.960158538818359375e+01 -3.007464027404785156e+01 -3.987218202632612785e-14 -1.708807825329203972e-14 -1.708807825329203972e-14 6.627710939744943519e-14
2.194000000000000000e+03 7.959519195556640625e+01 -3.087330818176269531e+01 4.896558215860581653e-14 1.124871476889700850e-13 4.843581726020687594e-14 1.051756151924454832e-14
2.195000000000000000e+03 7.958897399902343750e+01 -3.166936302185058594e+01 -7.063078420743718056e-14 1.548061300731071871e-14 -1.654505051300499130e-14 -7.997952750386436160e-15
2.196000000000000000e+03 7.875024414062500000e+01 -3.157822036743164062e+01 1.173466909038488326e-14 -4.072180350626723733e-14 -8.696140832984474572e-15 2.496482058892638550e-14
2.197000000000000000e+03 7.958367919921875000e+01 -3.326362228393554688e+01 -3.736649932615382363e-14 -1.532670610435507563e-13 -5.719006540040594277e-14 2.565442907480168511e-14
2.198000000000000000e+03 7.958252716064453125e+01 -3.565394210815429688e+01 -1.435202630838908894e-14 8.535103098459076443e-14 2.129970055582755539e-14 -7.974819264157384513e-14
2.199000000000000000e+03 7.957160186767578125e+01 -3.644091415405273438e+01 1.221416359980381783e-13 2.353502050363165399e-13 1.072475577313172779e-13 -5.369714547141801742e-14
2.200000000000000000e+03 7.955715942382812500e+01 -3.722366333007812500e+01 -8.873648614949464219e-14 1.449738766534647283e-13 1.687121579593831022e-14 -2.366518575070211683e-14
2.201000000000000000e+03 7.954124450683593750e+01 -3.801089096069335938e+01 7.180376220905851370e-14 7.652398544477287401e-14 4.449832361852305851e-14 -6.188078478450154130e-14
2.202000000000000000e+03 7.952154541015625000e+01 -3.880046463012695312e+01 -1.135823206321884271e-13 -4.867813644575738619e-14 -4.867813644575738619e-14 3.361323196236602751e-14
2.203000000000000000e+03 7.947877502441406250e+01 -4.040158081054687500e+01 -1.659015988788572950e-15 9.079089341229237831e-14 2.673956298352916927e-14 -4.075829368563495259e-14
2.204000000000000000e+03 7.913070678710937500e+01 3.066093444824218750e+01 4.971587377888830872e-14 1.585596481586473705e-13 6.248265929176613498e-14 7.069501640989336866e-14
2.205000000000000000e+03 7.736198425292968750e+01 3.150361061096191406e+01 2.084545880907170273e-14 2.834394502958248463e-13 9.128547933832595329e-14 -3.109287187528370078e-14
2.206000000000000000e+03 7.739550018310546875e+01 3.219153213500976562e+01 -1.091610729218005227e-13 -1.032367461882685491e-15 -3.305803235862693479e-14 4.930392777532065229e-14
2.207000000000000000e+03 7.971236419677734375e+01 3.061892509460449219e+01 -8.243638044869334991e-15 2.709726974053916493e-13 7.881871967162917825e-14 8.447526667976559822e-14
2.208000000000000000e+03 7.468260955810546875e+01 3.219022369384765625e+01 -5.076531710735028569e-14 -2.175656471658810737e-14 -2.175656471658810737e-14 -1.206130058025237095e-13
2.209000000000000000e+03 7.395713806152343750e+01 3.217557907104492188e+01 -2.400857019701357897e-13 3.435896993352408058e-14 -6.171801893335715494e-14 6.380839460322709766e-14
2.210000000000000000e+03 7.332875823974609375e+01 3.216222000122070312e+01 -1.511562820440473520e-13 -6.478126276512549686e-14 -6.478126276512549686e-14 9.192137068875227968e-14
2.211000000000000000e+03 7.074525451660156250e+01 3.216880798339843750e+01 3.238800303932741834e-15 -2.273666823392195280e-13 -6.723836304357508342e-14 6.095884024339207063e-14
2.212000000000000000e+03 7.125368499755859375e+01 3.216555786132812500e+01 5.034129580208657195e-14 -7.104403328649089300e-13 -1.980297165398575698e-13 -1.617464571567611697e-13
2.213000000000000000e+03 7.176457214355468750e+01 3.216176223754882812e+01 -3.554004218198937581e-14 -2.439862006008153283e-13 -8.385786775264372772e-14 2.862257143538410320e-13
2.214000000000000000e+03 7.227912902832031250e+01 3.215813446044921875e+01 2.781753607572056558e-15 -1.818116105800973714e-13 -5.370895988696632040e-14 -4.892320679432057839e-14
2.215000000000000000e+03 6.921756744384765625e+01 3.219187545776367188e+01 5.161268209151990971e-14 -4.353897613534191136e-13 -1.151331227621302244e-13 -2.864980117294607664e-13
2.216000000000000000e+03 7.023695373535156250e+01 3.217425918579101562e+01 -1.897059712010346066e-14 -5.113906802363399340e-13 -1.591083899831965964e-13 -2.750136815325709971e-13
2.217000000000000000e+03 6.865270233154296875e+01 3.173272132873535156e+01 1.581169785760169061e-14 -2.677292523962926385e-13 -7.557526788626658942e-14 3.176503656464324532e-14
2.218000000000000000e+03 6.819919586181640625e+01 3.220908355712890625e+01 4.028572045183462236e-14 -3.029913288581792541e-13 -7.881168591003517854e-14 4.748207849038926787e-14
2.219000000000000000e+03 6.412120819091796875e+01 3.239500808715820312e+01 8.301471082815606306e-14 -1.474260573645566619e-13 -1.932340497735971635e-14 2.137963471624676481e-13
2.220000000000000000e+03 6.463146972656250000e+01 3.236206817626953125e+01 1.822332839100312962e-13 5.356094799451038835e-13 2.153528278012878383e-13 -2.724516203194294467e-15
2.221000000000000000e+03 6.514132690429687500e+01 3.233512496948242188e+01 -5.063218046870085476e-14 -2.169950518912926868e-14 -2.169950518912926868e-14 1.644493054101317520e-13
2.222000000000000000e+03 6.718032073974609375e+01 3.223444366455078125e+01 -1.901859339502667834e-13 -1.272592057774413199e-13 -9.523354056305971538e-14 -2.499688823986989661e-13
2.223000000000000000e+03 6.310049057006835938e+01 3.247342681884765625e+01 -5.148097270338660228e-15 -3.224629764597697346e-13 -9.828331995909850294e-14 1.590250012836053051e-13
2.224000000000000000e+03 6.258935928344726562e+01 3.251351928710937500e+01 1.506557736636465750e-13 -7.268608593702721721e-14 2.339090631798580733e-14 1.656402608390256104e-13
2.225000000000000000e+03 6.155876922607421875e+01 3.260205459594726562e+01 -2.594201370105346516e-14 2.633877003218459967e-13 7.123370225929279154e-14 2.381568520951754531e-13
2.226000000000000000e+03 5.805293655395507812e+01 3.303768539428710938e+01 -5.640753570615095192e-14 -3.444312977191055225e-13 -1.202516547709614469e-13 -8.048073383941367620e-14
2.227000000000000000e+03 5.861304092407226562e+01 3.296377944946289062e+01 -6.704588327664101621e-14 -5.319943704312768418e-13 -1.797120801781335042e-13 -1.140719463332828809e-13
2.228000000000000000e+03 5.920833206176757812e+01 3.288917922973632812e+01 -1.590868143599641349e-14 -6.015803632151983660e-13 -1.852467018757103512e-13 1.791604245602457235e-13
2.229000000000000000e+03 6.040646743774414062e+01 3.273865890502929688e+01 1.088377367289110331e-14 -8.683742472922334477e-14 -2.278609430046013573e-14 -3.418063900494094920e-14
2.230000000000000000e+03 5.692450332641601562e+01 3.272494506835937500e+01 -8.664232932454815628e-14 -2.658871658001854543e-13 -1.057588465045410098e-13 -4.734940941392672131e-14
2.231000000000000000e+03 5.650101089477539062e+01 3.326651000976562500e+01 -1.468506577190914486e-13 -2.459397973903626466e-13 -1.178371365328362286e-13 -5.554093290968328822e-14
2.232000000000000000e+03 5.599156570434570312e+01 3.334259796142578125e+01 -1.258221906655018762e-13 8.332905491927750097e-14 -1.274794072386731258e-14 -2.396926422601930624e-15
2.233000000000000000e+03 5.548534393310546875e+01 3.341901016235351562e+01 4.645126311050330747e-14 1.114095794785274762e-13 4.735825243789605621e-14 1.375817489720088799e-14
2.234000000000000000e+03 5.375092315673828125e+01 3.383656692504882812e+01 2.419426285834788692e-14 1.476218100667989197e-13 5.154482458804947320e-14 -1.535498108057396088e-14
2.235000000000000000e+03 2.315276336669921875e+01 -5.264197587966918945e-01 -1.614987169603482320e-13 -1.035269417935802405e-13 -7.950769627092582614e-14 1.609170967049183831e-13
2.236000000000000000e+03 2.409321784973144531e+01 -3.010446786880493164e+00 -4.094986611087592099e-13 -3.470654753173763041e-13 -2.269692409278406542e-13 3.833083210644933070e-13
2.237000000000000000e+03 2.464837074279785156e+01 -3.578903675079345703e+00 -3.574026654056677854e-13 -1.846263484976684577e-13 -1.626087095920117354e-13 3.467526829906142360e-13
2.238000000000000000e+03 2.787881660461425781e+01 -6.036676883697509766e+00 5.169424607038457849e-16 4.597249637179265380e-14 1.394683115741104928e-14 -5.348989683801562423e-14
2.239000000000000000e+03 2.681650733947753906e+01 -5.903877258300781250e+00 -6.751659642608917600e-14 4.022688554331833866e-14 -8.186913095424661752e-15 8.672156417456611255e-14
2.240000000000000000e+03 2.942992210388183594e+01 -7.922307014465332031e+00 -1.177847064639506083e-15 4.524615884325851323e-14 1.322049278184396146e-14 -2.484453005195501329e-14
2.241000000000000000e+03 2.844929313659667969e+01 -7.650507450103759766e+00 -3.840315669227699694e-15 2.408905967223300831e-14 6.074622989143355772e-15 9.314268208440983771e-15
2.242000000000000000e+03 3.014001655578613281e+01 -1.035071659088134766e+01 6.104976414808213625e-14 6.047740026869988239e-14 3.645814796978188999e-14 -7.963988762080612127e-14
2.243000000000000000e+03 3.207971191406250000e+01 -1.088742923736572266e+01 -4.558909537854746730e-14 1.177146623449268348e-13 2.163767008991381025e-14 1.173246341659023306e-13
2.244000000000000000e+03 3.091587257385253906e+01 -1.172610950469970703e+01 -9.700030898949704716e-14 4.179387616694806018e-15 -2.784627590362090399e-14 2.192778226248019713e-14
2.245000000000000000e+03 3.150446891784667969e+01 -1.130513668060302734e+01 -1.813531590795936649e-14 -5.352322589042418644e-14 -2.149756237010847643e-14 2.571284893717381420e-14
2.246000000000000000e+03 3.274507904052734375e+01 -1.330707073211669922e+01 2.713699253644678150e-14 -1.713736574524005185e-13 -4.327099998300588946e-14 8.005914860090626584e-14
2.247000000000000000e+03 3.261472702026367188e+01 -1.439948844909667969e+01 -5.026519836210524561e-14 -2.045460290945114168e-13 -7.644336823698499872e-14 6.799253407475600031e-14
2.248000000000000000e+03 3.304090499877929688e+01 -1.507340526580810547e+01 2.663635032484033827e-14 -5.149197650840438290e-14 -7.456687685662623938e-15 4.614270933660929996e-14
2.249000000000000000e+03 3.346147918701171875e+01 -1.575059318542480469e+01 -4.169194422207547768e-14 -7.505666010584888248e-14 -3.502458197600366585e-14 6.868623372976653818e-14
2.250000000000000000e+03 3.465535736083984375e+01 -1.781482315063476562e+01 -6.425697647582939709e-14 1.211518813873033174e-13 1.706846944056310267e-14 2.426577657953514662e-15
2.251000000000000000e+03 3.624380111694335938e+01 -2.056830215454101562e+01 -3.896964131597235870e-14 1.205515721969252496e-13 2.447457824784633057e-14 -1.731453115648776131e-13
2.252000000000000000e+03 3.663191604614257812e+01 -2.126115989685058594e+01 1.142469772215035095e-13 9.471393667189603738e-14 6.268827145751443286e-14 -3.896307850469703238e-14
2.253000000000000000e+03 3.700858688354492188e+01 -2.195836448669433594e+01 -3.847711876219829519e-14 1.093249161988538165e-13 2.125433855337029859e-14 -6.043499441122854310e-14
2.254000000000000000e+03 3.737516403198242188e+01 -2.265558433532714844e+01 5.970643765637259626e-14 8.277716213216448904e-14 4.274508061418748339e-14 1.096972922112575410e-13
2.255000000000000000e+03 3.901481246948242188e+01 -2.534904289245605469e+01 -1.154992171781971111e-13 6.487770932463166051e-14 -1.518645371132235078e-14 -6.861647887249425204e-14
2.256000000000000000e+03 4.025145721435546875e+01 -2.737398338317871094e+01 1.041282335421771232e-13 2.733811170062966367e-13 1.132528112631793482e-13 -8.490475304160499670e-15
2.257000000000000000e+03 4.043830490112304688e+01 -2.621350288391113281e+01 7.869583213164152435e-14 3.372678519927493901e-14 3.372678519927493901e-14 -2.495137648198756525e-14
2.258000000000000000e+03 4.171885299682617188e+01 -2.821103286743164062e+01 -4.167889991468776145e-14 1.651414058669378737e-13 3.703875178567503368e-14 -6.686999180294597722e-14
2.259000000000000000e+03 4.067204666137695312e+01 -2.804552078247070312e+01 -3.979092446163012831e-14 5.822220723388730340e-15 -1.019061103676912466e-14 -7.004658219558410059e-14
2.260000000000000000e+03 4.196640014648437500e+01 -3.004774856567382812e+01 1.645003984375101314e-13 2.535039777921965776e-13 1.254013033821430034e-13 -2.633041727088513556e-14
2.261000000000000000e+03 4.237982940673828125e+01 -3.073001289367675781e+01 -3.847229406253073469e-14 2.008288826037263330e-13 4.870697622354550060e-14 -2.244367885984033251e-13
2.262000000000000000e+03 4.318080902099609375e+01 -3.210787200927734375e+01 5.380260784961475584e-14 3.661903679591516081e-13 1.259978991800803083e-13 -1.675029608289371752e-13
2.263000000000000000e+03 4.358595275878906250e+01 -3.280501174926757812e+01 1.733320653890882412e-13 5.089191871740506024e-13 2.046753744136889375e-13 -1.900970700297044402e-13
2.264000000000000000e+03 4.421947097778320312e+01 -3.429256820678710938e+01 1.106912142240928931e-13 7.565787731554640683e-13 2.601810097663942445e-13 -1.862186349132349816e-13
2.265000000000000000e+03 4.442801284790039062e+01 -3.507842636108398438e+01 -2.960994757760307405e-14 7.422006802551561755e-13 2.137772245466504351e-13 -1.261028499503769051e-13
2.266000000000000000e+03 4.458797073364257812e+01 -3.589387512207031250e+01 4.170806834125941054e-14 8.413919517710755080e-13 2.649300050172609389e-13 -4.599605744025347942e-14
2.267000000000000000e+03 4.165283584594726562e+01 -3.955081176757812500e+01 2.024213994122545102e-13 -9.625176903334947687e-14 3.185088843604515219e-14 1.144755117928704033e-14
2.268000000000000000e+03 3.949532699584960938e+01 -3.891725921630859375e+01 1.190930085668076566e-13 9.679080724845495753e-14 6.476514203407335302e-14 -4.512675091461818000e-14
2.269000000000000000e+03 3.512156295776367188e+01 -3.665679931640625000e+01 1.109154407858900515e-13 7.041066406136831102e-14 5.439783145417750876e-14 -1.472808691411336968e-14
2.270000000000000000e+03 3.521288681030273438e+01 -3.489068222045898438e+01 -4.544948402004922450e-14 -1.567311954048591915e-13 -6.065420653797795603e-14 8.907192474913450120e-14
2.271000000000000000e+03 3.470548629760742188e+01 -3.431668472290039062e+01 -3.949643482279233120e-15 -1.389455499441194508e-13 -4.286855768910642628e-14 5.720047374126180362e-14
2.272000000000000000e+03 3.365840911865234375e+01 -3.317215347290039062e+01 -9.438678544261211445e-14 -1.319533810559617160e-13 -6.790205062719850693e-14 1.257780365320274041e-13
2.273000000000000000e+03 3.312135696411132812e+01 -3.259061431884765625e+01 -1.628586317452968002e-13 -2.070493977006718223e-13 -1.109724088337905867e-13 1.105893059961428337e-13
2.274000000000000000e+03 3.135647010803222656e+01 -2.989775276184082031e+01 -3.076072315161097748e-14 -2.419378987515014012e-13 -8.180959300838411274e-14 1.023391915373587924e-13
2.275000000000000000e+03 3.101640129089355469e+01 -2.917612457275390625e+01 -9.347613015662364910e-14 -3.145668946678836786e-13 -1.224129033815940515e-13 7.076185747382710001e-14
2.276000000000000000e+03 3.067681884765625000e+01 -2.846124649047851562e+01 -3.883453956088529779e-14 -2.911490764190977076e-13 -9.899508513280808053e-14 1.806979587661017295e-13
2.277000000000000000e+03 2.969437026977539062e+01 -2.811055755615234375e+01 -6.147258944282432691e-14 -3.008510866646385562e-13 -1.086971021546125071e-13 1.502154385038187434e-13
2.278000000000000000e+03 3.033394241333007812e+01 -2.775111007690429688e+01 -1.414802926506461556e-13 -2.893891452426106126e-13 -1.292608327232297460e-13 1.171606214822595859e-13
2.279000000000000000e+03 2.999733924865722656e+01 -2.704027748107910156e+01 -1.300203298975829980e-13 -3.302286829404144086e-13 -1.380747052066519376e-13 2.076004163497832677e-13
2.280000000000000000e+03 2.830972290039062500e+01 -2.533406829833984375e+01 -1.018242564918003801e-13 -2.723937069827597757e-13 -1.122653944633789092e-13 1.457691253944556897e-13
2.281000000000000000e+03 2.822122192382812500e+01 -2.350626754760742188e+01 -7.366209150896224633e-14 -3.060751522024340865e-13 -1.139211744686716155e-13 1.758634741739345531e-13
2.282000000000000000e+03 2.757931327819824219e+01 -2.392214775085449219e+01 -8.459835073139701511e-14 -1.963847514512354064e-13 -8.429492997716336866e-14 1.236673524002140923e-13
2.283000000000000000e+03 2.788255882263183594e+01 -2.278849601745605469e+01 -9.325221530295108030e-14 -2.687199692364555803e-13 -1.085916567170747138e-13 1.148938393426626736e-13
2.284000000000000000e+03 2.753650665283203125e+01 -2.207529258728027344e+01 -1.194663535849030400e-13 -9.695081516032308389e-14 -6.492514994594147937e-14 1.379810165864220339e-13
2.285000000000000000e+03 2.683328628540039062e+01 -2.064884567260742188e+01 -1.273335396948264628e-14 -1.884609411887880337e-13 -6.035828710752519366e-14 1.241072132215914614e-13
2.286000000000000000e+03 2.547315597534179688e+01 -1.962792968750000000e+01 -1.672476583223711510e-13 6.557527822614525603e-14 -3.050171402886776850e-14 1.297323386955165359e-13
2.287000000000000000e+03 2.538232040405273438e+01 -1.782540130615234375e+01 -2.567764963601771450e-14 -5.675565608307710230e-14 -2.472999086869549779e-14 4.020728181278708513e-14
2.288000000000000000e+03 2.500423812866210938e+01 -1.713278579711914062e+01 -8.328986778700572802e-14 -2.186994481996260009e-13 -9.059679411836316087e-14 -3.437213621365620142e-14
2.289000000000000000e+03 2.460225677490234375e+01 -1.645525932312011719e+01 6.809263304033072450e-14 -1.656839304696542531e-14 1.545727216741617921e-14 9.718799793808144405e-14
2.290000000000000000e+03 2.332756614685058594e+01 -1.445030498504638672e+01 -2.479537842409174075e-14 -1.936303900421446067e-13 -6.552772918461818863e-14 1.313769785234869536e-13
2.291000000000000000e+03 2.291111755371093750e+01 -1.377183914184570312e+01 -4.859338910531869893e-14 -1.123276344443431551e-13 -4.827630740371173512e-14 1.184785234330243409e-13
2.292000000000000000e+03 2.250813674926757812e+01 -1.308488082885742188e+01 -6.404583487900142313e-14 -7.319916428636524808e-14 -4.117349907198364356e-14 1.537069083124009694e-13
2.293000000000000000e+03 2.113553810119628906e+01 -1.207679271697998047e+01 -1.161058825038113751e-13 -2.556389345001464086e-13 -1.115234410354291883e-13 1.330745274174746640e-13
2.294000000000000000e+03 2.096638870239257812e+01 -1.029806137084960938e+01 -4.300316816508407969e-14 -1.556827719040657088e-13 -5.960578303718447324e-14 1.260390039949446650e-13
2.295000000000000000e+03 2.060757064819335938e+01 -9.581498146057128906e+00 -4.231047817334666894e-14 -1.096349573626032026e-13 -4.558363032197178255e-14 1.566981272385983837e-13
2.296000000000000000e+03 1.959039497375488281e+01 -6.579993724822998047e+00 -2.711803763315312477e-14 7.987988254794936571e-14 1.582855381325205119e-14 -1.723508251535391805e-14
2.297000000000000000e+03 1.939265823364257812e+01 -5.825209617614746094e+00 -8.752220004510161133e-14 5.399238388738118732e-14 -1.005894400028317995e-14 3.004911383196369468e-14
2.298000000000000000e+03 1.862491035461425781e+01 -3.775104522705078125e+00 2.862851015278389255e-13 6.917210402558604532e-13 2.934018316930880887e-13 2.005024022245366355e-13
2.299000000000000000e+03 1.922227478027343750e+01 -5.077339649200439453e+00 5.819292530490072224e-14 3.909474198364459863e-13 1.347420981213931501e-13 2.172514784105797174e-15
2.300000000000000000e+03 1.953018379211425781e+01 -1.639045834541320801e+00 2.889413426403197871e-13 1.176103810694717478e-12 4.395135514215220418e-13 4.415046073961287343e-13
2.301000000000000000e+03 5.187059402465820312e+01 3.252128219604492188e+01 1.873479500604912501e-14 1.052499626623577822e-13 3.719542916399455612e-14 -8.906558894268903903e-14
2.302000000000000000e+03 5.163525390625000000e+01 3.034818649291992188e+01 1.921420379573379744e-13 8.234659156815260506e-14 8.234659156815260506e-14 4.248708454284919056e-14
2.303000000000000000e+03 5.317327880859375000e+01 3.389793395996093750e+01 -2.336117681678989699e-13 -3.746250271802198384e-13 -1.824710358939302113e-13 5.665748835262211791e-14
2.304000000000000000e+03 5.236087417602539062e+01 3.311895370483398438e+01 -1.422334065847088991e-13 -2.496798340995143306e-13 -1.175739735605196845e-13 -9.505829961066816769e-14
2.305000000000000000e+03 5.321566009521484375e+01 3.300996017456054688e+01 -2.289022378761107479e-13 -2.353538100085400542e-13 -1.392768143653952406e-13 3.934261702770273927e-14
2.306000000000000000e+03 5.461125564575195312e+01 3.363520812988281250e+01 5.504041436488714412e-14 6.933969593165070777e-14 3.731403410540089227e-14 3.120117011978784660e-14
2.307000000000000000e+03 5.305653381347656250e+01 3.200013732910156250e+01 -1.295431725214721275e-13 8.173434260135004070e-14 -1.434264965366298383e-14 2.671101627914080484e-14
2.308000000000000000e+03 5.414950180053710938e+01 3.327804183959960938e+01 1.161982243416551444e-15 1.835017868993121803e-13 5.539912942991755129e-14 -3.543769349690674419e-14
2.309000000000000000e+03 1.057438373565673828e+01 -1.961027026176452637e+00 -4.120193142692412866e-15 4.099927320387608543e-13 1.217617586618535697e-13 -1.061754190020665692e-14
2.310000000000000000e+03 9.982924461364746094e+00 -2.674813985824584961e+00 -4.557466532525804304e-14 1.634717887314188212e-13 3.536913803828777014e-14 -6.071761203627762393e-14
2.311000000000000000e+03 1.211283493041992188e+01 -2.668473005294799805e+00 -1.587800664603136735e-13 6.920425197525295613e-14 -2.687274366789185742e-14 -1.579667928582051406e-13
2.312000000000000000e+03 1.110423946380615234e+01 -2.595551013946533203e+00 -1.959302572886612720e-14 1.746067889883337609e-13 4.650412813080734287e-14 5.087284624593832461e-14
2.313000000000000000e+03 1.262369346618652344e+01 -2.727313041687011719e+00 -6.208004843831016820e-15 -2.314153100917148986e-13 -7.128699757233403211e-14 -1.815868012596325021e-13
2.314000000000000000e+03 7.070301818847656250e+01 3.166450309753417969e+01 5.852888567683608989e-14 -6.611804203096594001e-13 -1.807954556464624885e-13 -1.516560314829273892e-13
2.315000000000000000e+03 7.121881866455078125e+01 3.164771842956542969e+01 -1.300034027911650680e-13 -2.387195259176411177e-13 -1.106168786126418557e-13 1.444535273733074665e-13
2.316000000000000000e+03 7.227640533447265625e+01 3.161095619201660156e+01 -3.404679424674761368e-14 -6.034243065075259316e-14 -2.831676882450277766e-14 1.685961483269271532e-13
2.317000000000000000e+03 7.279840087890625000e+01 3.215730667114257812e+01 -2.359551627435091392e-13 -2.383764843502667041e-13 -1.422994887071218906e-13 1.134991894306131011e-13
2.318000000000000000e+03 6.870812988281250000e+01 3.220048904418945312e+01 4.017847252818507187e-14 -1.657844461754390264e-13 -3.768179209417618636e-14 1.295160945722143020e-13
2.319000000000000000e+03 6.911196899414062500e+01 3.123461341857910156e+01 3.020730909332469682e-14 1.959497830921613781e-13 6.784712901089853809e-14 -1.084295413872338187e-13
2.320000000000000000e+03 6.967806243896484375e+01 3.169935417175292969e+01 -1.816266727945256565e-13 -5.811004346982506785e-13 -2.288181308925801849e-13 -1.741257284844019426e-13
2.321000000000000000e+03 6.763056182861328125e+01 3.176254463195800781e+01 2.065848035172346275e-13 -2.965553404379135324e-15 6.108577321273581107e-14 -7.138276989361418134e-15
2.322000000000000000e+03 6.667008972167968750e+01 3.225836563110351562e+01 1.477455446397338279e-13 -2.818237857709141037e-14 3.586894846354000965e-14 -1.887483902897682531e-13
2.323000000000000000e+03 6.100233078002929688e+01 3.266423797607421875e+01 -2.280398702443793557e-14 2.647325446965970164e-13 7.257857373909812337e-14 1.718398948797553866e-14
2.324000000000000000e+03 6.249269104003906250e+01 3.204290008544921875e+01 6.687573129819657236e-14 -5.203503643594342698e-13 -1.360423953393821717e-13 1.243071672072521006e-13
2.325000000000000000e+03 6.301159286499023438e+01 3.200630187988281250e+01 7.784276830980277340e-14 -1.038916606281407862e-13 -7.814668373127761636e-15 1.936039490616631165e-13
2.326000000000000000e+03 6.352733230590820312e+01 3.197163009643554688e+01 -9.249836106209243652e-15 -4.157227676254010573e-13 -1.274917806959666167e-13 7.643783202964174461e-14
2.327000000000000000e+03 6.196794891357421875e+01 3.208435821533203125e+01 -6.029564732700984364e-14 -1.630938358540903743e-13 -6.701684698720913880e-14 4.516412742926190216e-13
2.328000000000000000e+03 6.207625198364257812e+01 3.255554199218750000e+01 -4.243764661784974607e-15 -9.332065556508922777e-14 -2.926932513632601873e-14 2.595648305667164202e-13
2.329000000000000000e+03 6.143350601196289062e+01 3.213551712036132812e+01 6.523892483092236239e-14 4.854690325954702512e-13 1.652123804516542060e-13 1.463846134152485545e-13
2.330000000000000000e+03 6.565074157714843750e+01 3.230902481079101562e+01 1.455671520822487963e-13 1.081368745632985129e-13 7.611120934891690837e-14 -8.812936681422064988e-14
2.331000000000000000e+03 6.814151763916015625e+01 3.174729537963867188e+01 1.267897326842279404e-13 -3.716344181177444472e-14 2.688788522885697529e-14 -1.615762950139213588e-14
2.332000000000000000e+03 6.404274749755859375e+01 3.193795585632324219e+01 1.431151882115913598e-13 2.443388644624705508e-13 1.162362171574712888e-13 1.133816890201699845e-13
2.333000000000000000e+03 6.506877136230468750e+01 3.187880706787109375e+01 9.704195590544764660e-14 -4.161538091397316147e-15 2.786412627595134112e-14 6.260092541999356941e-14
2.334000000000000000e+03 6.616035461425781250e+01 3.228337860107421875e+01 1.015050944772749597e-13 -1.852525565674417729e-13 -2.512423896586322286e-14 -1.203653469212737082e-13
2.335000000000000000e+03 6.558024597167968750e+01 3.185236358642578125e+01 -5.123357047311961898e-14 -1.134591417128669177e-13 -4.940781467223549772e-14 4.064270079338905273e-14
2.336000000000000000e+03 6.711717987060546875e+01 3.178134918212890625e+01 1.642272608052067207e-13 5.736435632064385004e-13 2.213612458482408507e-13 -2.908814682178739730e-13
2.337000000000000000e+03 5.542611694335937500e+01 3.294359588623046875e+01 -1.208234494442031459e-13 -2.347852814943429678e-13 -1.066826138605529717e-13 -1.016162929625905043e-13
2.338000000000000000e+03 5.634421539306640625e+01 3.230260848999023438e+01 -1.370121328675075190e-13 -3.332251737996755336e-13 -1.410711960659130626e-13 8.828513956135250473e-14
2.339000000000000000e+03 5.591888046264648438e+01 3.287002944946289062e+01 -6.866628440979280490e-14 1.632254003995897013e-14 -1.570312348035673988e-14 5.312319933449029252e-14
2.340000000000000000e+03 5.494462585449218750e+01 3.302397537231445312e+01 -1.803101803065851327e-13 -6.262871623217980410e-13 -2.419792068542730989e-13 1.835782909151081888e-13
2.341000000000000000e+03 7.614418029785156250e+01 3.219911956787109375e+01 4.107772675070349433e-15 -1.354923660247531192e-13 -3.941538054600367269e-14 8.908556536771708445e-14
2.342000000000000000e+03 7.732049560546875000e+01 3.081052780151367188e+01 4.286978080468226149e-14 -7.312913160228626253e-14 -9.077806255720737016e-15 -4.548774958047438477e-14
2.343000000000000000e+03 7.911202239990234375e+01 2.989146614074707031e+01 -1.455273584743867893e-14 3.951406327249058770e-14 7.488398058108983180e-15 9.390203187503026738e-14
2.344000000000000000e+03 7.914048004150390625e+01 3.219317626953125000e+01 -9.339850805733726502e-14 -8.577887749064427858e-14 -5.375321566439446308e-14 -3.021185935431734693e-14
2.345000000000000000e+03 7.914141845703125000e+01 3.142713546752929688e+01 1.808526642517200439e-14 1.907546250947897426e-13 6.265196423726332453e-14 -5.677305075168191661e-14
2.346000000000000000e+03 1.537131214141845703e+01 -3.117393255233764648e+00 2.781309974065932118e-15 1.191989973759811135e-15 1.191989973759811135e-15 1.213384996862423848e-13
2.347000000000000000e+03 1.692566871643066406e+01 -5.333140373229980469e+00 5.979333646049730944e-14 -2.012523177621905468e-14 1.190043259112960258e-14 3.116656780745297173e-13
2.348000000000000000e+03 1.427085399627685547e+01 -2.371666431427001953e+00 -2.568082600956991812e-14 -1.940098608025145333e-13 -6.590720672125169322e-14 -2.321615664470366713e-13
2.349000000000000000e+03 1.427521991729736328e+01 -2.923048257827758789e+00 -4.229277518474905406e-14 1.191273642231482910e-13 2.305037874439884449e-14 -9.137550877622371837e-14
2.350000000000000000e+03 1.315969467163085938e+01 -2.786257505416870117e+00 1.709863397788072281e-14 5.307893339266678279e-14 2.105327156641696729e-14 -2.844907198273211035e-14
2.351000000000000000e+03 1.482722759246826172e+01 -3.009394407272338867e+00 -5.208271337944552978e-15 -3.682396998005293964e-13 -1.120343916380037164e-13 -1.715028401412521664e-13
2.352000000000000000e+03 5.970225524902343750e+01 3.234925842285156250e+01 -1.621189551419092989e-14 -3.272045991358635275e-13 -1.030249494114558739e-13 1.024546387399377645e-13
2.353000000000000000e+03 5.853450012207031250e+01 3.250075149536132812e+01 -7.469264600270045240e-14 -3.980187219306680069e-13 -1.418134137681423268e-13 -7.188029332990883424e-14
2.354000000000000000e+03 5.744279479980468750e+01 3.264895248413085938e+01 1.139947917961833812e-13 -1.341488904552448624e-13 -6.046229174201970744e-15 -1.369521222772604463e-13
2.355000000000000000e+03 5.797570037841796875e+01 3.257411956787109375e+01 -7.105947774643794901e-14 -1.677069128101088547e-13 -7.162991716696404110e-14 -5.689992612278524375e-14
2.356000000000000000e+03 7.674651336669921875e+01 3.153547477722167969e+01 1.840134820438473449e-15 4.653957815371582984e-14 1.451391463340011984e-14 7.946142116695142921e-14
2.357000000000000000e+03 7.339544677734375000e+01 3.159637069702148438e+01 -1.491496406632111804e-13 2.758062434850532679e-14 -3.647070438619198773e-14 1.308414368603877387e-13
2.358000000000000000e+03 7.540652465820312500e+01 3.159599876403808594e+01 2.798942447170688075e-14 -1.710083219778543717e-13 -4.290567128472332070e-14 -9.012078193079697819e-14
2.359000000000000000e+03 7.908699035644531250e+01 2.911655426025390625e+01 3.398294151505179550e-14 1.456411827618388222e-14 1.456411827618388222e-14 3.280652455966460990e-14
2.360000000000000000e+03 2.161128425598144531e+01 -9.281094670295715332e-01 -8.055016614653964790e-13 -3.223395129373779477e-13 -3.383523387683051720e-13 3.494065117532613174e-13
2.361000000000000000e+03 2.072341346740722656e+01 2.174122482538223267e-01 -7.924472303398946704e-14 -7.971296962349522230e-14 -4.768730779724540680e-14 5.840751601988991570e-13
2.362000000000000000e+03 1.662222290039062500e+01 -2.839564085006713867e+00 1.130506888731737380e-13 -4.305160150900808058e-14 2.099972553162333944e-14 8.134569678009545557e-14
2.363000000000000000e+03 4.465550231933593750e+01 -3.675529098510742188e+01 8.427292744932549096e-14 8.138830863597956711e-13 2.694468183728898625e-13 6.375387278647823286e-14
2.364000000000000000e+03 2.983261108398437500e+01 4.050946235656738281e+00 1.322089546130708615e-13 -3.484091473985283238e-14 2.921041230077858764e-14 -2.105593802613492382e-14
2.365000000000000000e+03 3.115393257141113281e+01 6.617153167724609375e+00 5.365486836295466078e-14 1.716855282073159739e-13 6.760211964870754819e-14 6.110413942813112606e-15
2.366000000000000000e+03 1.892548942565917969e+01 -1.112002372741699219e+00 2.965399735661844449e-13 7.247103308086200180e-13 3.063750967334522013e-13 1.903663180867140592e-13
2.367000000000000000e+03 2.291673469543457031e+01 -1.924190640449523926e+00 -6.774268646037029384e-13 -5.190805467750192470e-13 -3.589522071505840684e-13 4.518831326922462255e-13
2.368000000000000000e+03 2.823751831054687500e+01 2.252250909805297852e+00 1.339364410395463278e-13 8.027680896329630889e-14 6.426397635610550663e-14 -3.899697676324614948e-14
2.369000000000000000e+03 2.672930145263671875e+01 2.975659847259521484e+00 1.473176778048895796e-13 -2.685582333773750552e-13 -3.637216396124021145e-14 1.297631435897422802e-13
2.370000000000000000e+03 2.417158317565917969e+01 1.323506236076354980e+00 1.517957173803249904e-13 -2.952334015281221635e-13 -4.303130659959186755e-14 2.957603576652680089e-14
2.371000000000000000e+03 2.494369888305664062e+01 2.699658393859863281e+00 3.636837738515280583e-13 -5.001478831784256229e-14 9.410069837061108000e-14 1.630856501276881088e-13
2.372000000000000000e+03 2.200701713562011719e+01 -4.400424361228942871e-01 -2.430219111886067207e-13 -1.499032018306700742e-13 -1.178775366162884697e-13 3.093715062775503899e-13
2.373000000000000000e+03 2.416660499572753906e+01 3.524809777736663818e-01 -7.591000175449433285e-14 -3.356328886691684055e-13 -1.234628718704833261e-13 5.339950148188464529e-14
2.374000000000000000e+03 2.738803100585937500e+01 3.379942178726196289e+00 1.674247898523009703e-13 -1.570012566134981746e-13 3.127058446981533651e-15 -9.206465478210981712e-14
2.375000000000000000e+03 2.805250930786132812e+01 3.786399841308593750e+00 2.479376838386559978e-13 -2.254353794568439429e-13 6.750690806323848131e-15 -1.429587818838149588e-14
2.376000000000000000e+03 2.542966270446777344e+01 2.161839008331298828e+00 2.104238685423157063e-13 -2.419571297875358629e-14 5.586844666906863599e-14 1.075390522616535838e-13
2.377000000000000000e+03 1.721515655517578125e+01 -3.244379997253417969e+00 1.691113307061061638e-14 7.247628942851948308e-15 7.247628942851948308e-15 2.004211683767631591e-13
2.378000000000000000e+03 1.756495475769042969e+01 -2.826969861984252930e+00 1.889254133994808238e-13 4.469756270837621503e-13 1.907703053687093142e-13 2.392996553950837990e-13
2.379000000000000000e+03 1.928212165832519531e+01 -2.393280029296875000e+00 1.477164744689840603e-13 8.410731963323647697e-13 2.966369012404046490e-13 3.500648393123945157e-13
2.380000000000000000e+03 4.101431274414062500e+01 -3.917675018310546875e+01 3.174502964642909875e-14 1.508578553960707169e-13 5.478086652918948141e-14 -1.659390567933672483e-14
2.381000000000000000e+03 4.443745422363281250e+01 -3.112147140502929688e+01 -5.889054841652294203e-14 5.237725943067761403e-13 1.394646117341968861e-13 -1.099557321278601951e-13
2.382000000000000000e+03 4.380538558959960938e+01 -3.163163375854492188e+01 8.083402111731807782e-14 5.836545439660834056e-13 1.993465613935041514e-13 -8.371967263323329411e-14
2.383000000000000000e+03 4.334033966064453125e+01 -3.951031494140625000e+01 6.951552641897354445e-14 3.042980635265674083e-13 1.121440790165413592e-13 8.027686994966851119e-14
2.384000000000000000e+03 3.946840667724609375e+01 -3.995146942138671875e+01 2.775711890965881085e-14 5.764686010446481990e-14 2.562119319601732087e-14 -5.946254637767198203e-14
2.385000000000000000e+03 4.569972610473632812e+01 -3.544935607910156250e+01 1.563382534324961326e-13 7.075153722439775361e-13 2.591560863476893850e-13 -2.162159679270671264e-14
2.386000000000000000e+03 2.936886405944824219e+01 -8.964695930480957031e+00 3.292874463768982740e-14 1.411231852541496370e-14 1.411231852541496370e-14 -5.620379971838082231e-15
2.387000000000000000e+03 2.893555641174316406e+01 -6.234127521514892578e+00 -6.504717012419114486e-14 1.787359119758726023e-14 -1.415207316976139704e-14 1.067420925141091687e-14
2.388000000000000000e+03 2.040342712402343750e+01 -1.063521575927734375e+01 -8.092220063525903950e-14 -6.899415392301599947e-14 -4.497490840036158510e-14 1.491191474771100256e-13
2.389000000000000000e+03 1.981769180297851562e+01 -1.096712017059326172e+01 -5.789519661207262469e-14 -2.481222760347852330e-14 -2.481222760347852330e-14 2.792074873440939659e-14
2.390000000000000000e+03 2.787084388732910156e+01 -5.002929687500000000e+00 4.899047137472793689e-15 9.360149103281728555e-14 2.955016060405407652e-14 -8.520289508651135435e-14
2.391000000000000000e+03 2.790873908996582031e+01 -7.059035301208496094e+00 -8.108041283727898674e-14 -1.090940421224866064e-13 -5.705233784318239354e-14 1.924274202979268933e-14
2.392000000000000000e+03 3.798746871948242188e+01 -2.221912002563476562e+01 -8.682185287552102171e-14 -1.287112641945239999e-13 -6.465993376576079088e-14 -6.737979721697581748e-14
2.393000000000000000e+03 4.498876571655273438e+01 -3.382775878906250000e+01 5.223779918285716140e-14 7.086518871712854661e-13 2.282668954030342423e-13 -1.120793318180532405e-13
2.394000000000000000e+03 1.590600872039794922e+01 -3.259758472442626953e+00 1.478119791278528772e-13 -1.654067507961265449e-13 -5.278430653449153048e-15 1.518533969359012192e-13
2.395000000000000000e+03 4.340169906616210938e+01 -3.093597221374511719e+01 -1.986457771549227785e-14 3.117432527399710551e-13 8.756360301556340153e-14 -1.843606647553008848e-13
2.396000000000000000e+03 4.277787399291992188e+01 -3.141948890686035156e+01 1.461063529276801498e-13 4.057491376305982778e-13 1.655566417464726658e-13 -8.851486167291144902e-14
2.397000000000000000e+03 2.937675666809082031e+01 -2.914164161682128906e+01 -7.586385539952791857e-14 -2.612678140240937141e-13 -1.011395015047128476e-13 1.025556660536226794e-13
2.398000000000000000e+03 2.228531074523925781e+01 -1.417639374732971191e+00 -5.393159877020714532e-13 -3.340750527776326084e-13 -2.620173229859329433e-13 5.154770382244378002e-13
2.399000000000000000e+03 3.158755874633789062e+01 -3.381211853027343750e+01 -7.451920753642066186e-14 -2.745419451673225542e-13 -1.047183444558702492e-13 7.019458934465552802e-14
2.400000000000000000e+03 3.292659759521484375e+01 -3.372218322753906250e+01 2.498977248548660268e-14 -2.066071109769335168e-13 -5.448520120862089533e-14 4.672636585924434816e-14
2.401000000000000000e+03 3.818724822998046875e+01 -2.400004768371582031e+01 1.098832328838388050e-13 4.302570127436011749e-13 1.620420784316164986e-13 -8.666252936627427683e-14
2.402000000000000000e+03 3.837656021118164062e+01 -2.288593292236328125e+01 1.018963965938521343e-13 3.181755802838387437e-13 1.260215889975491166e-13 -1.128410380543329317e-13
2.403000000000000000e+03 2.488422393798828125e+01 -1.155958294868469238e+00 -1.861888600110730985e-13 -1.116880364777396439e-14 -5.920729808121458215e-14 8.270456802045300648e-14
2.404000000000000000e+03 3.034118461608886719e+01 -2.952083396911621094e+01 -2.169819398212691902e-14 -1.465520684407889407e-13 -5.047507957390770517e-14 2.119066098808797260e-13
2.405000000000000000e+03 3.065613937377929688e+01 -3.025582504272460938e+01 -6.876569219648256959e-14 -3.382899158282243190e-13 -1.221166857955438556e-13 1.807299969402986761e-13
2.406000000000000000e+03 2.575547599792480469e+01 -1.852516937255859375e+01 -2.191833615105241717e-14 -9.393572515160614894e-15 -9.393572515160614894e-15 3.091668224599122827e-14
2.407000000000000000e+03 3.722046661376953125e+01 -2.085261917114257812e+01 -5.032130921266315948e-14 1.614375137477114253e-13 3.333486305458037424e-14 -9.944261668455578462e-15
2.408000000000000000e+03 4.109843444824218750e+01 -2.871364021301269531e+01 1.821721484600302698e-13 1.181058560412867608e-13 9.008340406090054042e-14 -4.674340138587952664e-14
2.409000000000000000e+03 3.175016021728515625e+01 -1.306678390502929688e+01 -5.613550260481076082e-14 -8.696562485985617763e-14 -4.293034027227915495e-14 9.111633702315463657e-14
2.410000000000000000e+03 3.232178878784179688e+01 -1.264203262329101562e+01 -3.544898275202774951e-14 -1.519242021140281007e-14 -1.519242021140281007e-14 1.233919921534570863e-13
2.411000000000000000e+03 1.980362319946289062e+01 -7.336191177368164062e+00 4.733106268028919317e-14 -2.546620818952641252e-14 6.559456601338718371e-15 1.021324629821860133e-14
2.412000000000000000e+03 1.927566146850585938e+01 -7.634372711181640625e+00 8.513299115144035145e-14 8.223651794259101422e-14 5.021085272820940970e-14 1.601071705770173992e-13
2.413000000000000000e+03 3.237446594238281250e+01 -3.314944839477539062e+01 -1.320768174732991906e-13 -2.796402161480554538e-13 -1.235151168626699714e-13 1.096561941726567624e-13
2.414000000000000000e+03 2.583091163635253906e+01 -2.033730888366699219e+01 -1.499548505116618524e-14 -6.426636329495086924e-15 -6.426636329495086924e-15 7.948412164993784446e-14
2.415000000000000000e+03 2.975898361206054688e+01 -9.657526969909667969e+00 2.974384993403682287e-14 9.281152777741719095e-14 3.676661365224938305e-14 -5.510325743330983517e-14
2.416000000000000000e+03 2.988513946533203125e+01 -8.596717834472656250e+00 3.416746933667703934e-14 1.061451003047525488e-13 4.209376987598933972e-14 -5.593691403626109560e-14
2.417000000000000000e+03 1.527984333038330078e+01 -3.708655595779418945e+00 3.704429815741365484e-14 -3.043805171017849309e-13 -8.020086737737727733e-14 -2.067049568348685445e-14
2.418000000000000000e+03 3.002460670471191406e+01 -2.880782127380371094e+01 -1.115842986586235153e-13 -1.507614698229367556e-13 -7.870373325497351247e-14 1.886889353531345792e-13
2.419000000000000000e+03 3.140046691894531250e+01 -3.177800369262695312e+01 -9.105339908704185303e-14 -1.762757284974950100e-13 -8.019873963061377453e-14 7.556828833478121399e-14
2.420000000000000000e+03 2.396328163146972656e+01 -2.030254602432250977e+00 -5.302446307552111104e-13 -2.272477047033163999e-13 -2.272477047033163999e-13 2.606560258432144561e-13
2.421000000000000000e+03 3.672052383422851562e+01 -3.688259887695312500e+01 1.574498046047825839e-14 6.747849010785809953e-15 6.747849010785809953e-15 1.929016740450945760e-14
2.422000000000000000e+03 3.788135147094726562e+01 -3.990904617309570312e+01 8.434423407095714698e-14 1.390871603003732138e-13 6.702941695614639261e-14 -1.516760214604825907e-14
2.423000000000000000e+03 2.520517730712890625e+01 -4.145112991333007812e+00 -3.102034688146071417e-13 -2.301651165666218635e-13 -1.621105729038632703e-13 1.461278878933311431e-13
2.424000000000000000e+03 2.513311576843261719e+01 -3.131557703018188477e+00 -3.940040297061714325e-13 -7.735697797389348707e-14 -1.414083016263931181e-13 1.168161162419523169e-13
2.425000000000000000e+03 2.692777252197265625e+01 -2.436750602722167969e+01 -6.515606467989015771e-14 -2.109278192646141248e-13 -8.282516518335128475e-14 7.318836292222186124e-14
2.426000000000000000e+03 2.434438514709472656e+01 -1.754456138610839844e+01 2.981882590239598452e-14 2.421723269781152904e-14 1.621081808828202242e-14 4.064234165141941690e-14
2.427000000000000000e+03 2.510190010070800781e+01 -1.892456436157226562e+01 -5.570839555852019967e-15 -1.167648741367752208e-13 -3.670071448895299848e-14 9.799750393764058987e-14
2.428000000000000000e+03 4.535126876831054688e+01 -3.460643768310546875e+01 2.041330835920660003e-13 6.822479321939856067e-13 2.659142979595519041e-13 -3.854228608902825204e-14
2.429000000000000000e+03 2.455738639831542969e+01 -2.577797889709472656e+00 -4.005162087400426785e-13 -2.174007501798413955e-13 -1.853750849654597910e-13 3.370640897469578956e-13
2.430000000000000000e+03 2.191509628295898438e+01 -1.347072696685791016e+01 1.262248074481884738e-14 -2.004696322138732612e-13 -5.635414552541961886e-14 -6.528199476222434905e-14
2.431000000000000000e+03 2.270230865478515625e+01 -9.683587551116943359e-01 -5.675871014507172241e-13 -2.890025729580109060e-13 -2.569768941911021454e-13 3.401466662587143697e-13
2.432000000000000000e+03 2.375220489501953125e+01 -1.512133693695068359e+01 -6.826390310226554403e-14 -1.665088016468765919e-13 -7.043181277999535639e-14 5.892978975890333926e-14
2.433000000000000000e+03 2.314236640930175781e+01 -1.552276611328125000e+01 3.450032279176187822e-14 -7.671604508336510309e-14 -1.266471719570073581e-14 7.117905846979952211e-14
2.434000000000000000e+03 4.299328613281250000e+01 -3.024661636352539062e+01 8.760031681162919193e-14 4.035505924652321719e-13 1.473452707501793357e-13 -6.420418260629293106e-14
2.435000000000000000e+03 3.030690765380859375e+01 -9.275356292724609375e+00 1.367074500341824636e-14 5.858890473741263510e-15 5.858890473741263510e-15 1.810213762741541554e-14
2.436000000000000000e+03 3.052440071105957031e+01 -1.104068470001220703e+01 1.059165911443740726e-13 7.970603750585489311e-14 5.568678859506868972e-14 4.557553268699603144e-14
2.437000000000000000e+03 3.860755157470703125e+01 -2.467021369934082031e+01 4.857558447276741354e-14 1.237577477563450712e-13 5.169999763585467201e-14 8.904118761754453715e-14
2.438000000000000000e+03 3.919243240356445312e+01 -2.421376800537109375e+01 -8.442862735162388194e-15 -3.618369743641023512e-15 -3.618369743641023512e-15 -9.238875669278362457e-14
2.439000000000000000e+03 4.001824569702148438e+01 -2.554913330078125000e+01 -3.209637213668660449e-14 -5.950653788082058138e-14 -2.748087266643897686e-14 -9.557125598726179394e-14
2.440000000000000000e+03 2.929791831970214844e+01 -2.563036155700683594e+01 -8.779629990683310292e-14 -3.121326710552735362e-13 -1.199786933215110651e-13 1.670913028165715852e-13
2.441000000000000000e+03 2.935844421386718750e+01 -2.741833114624023438e+01 -1.401062696849281197e-13 -3.803021808058970610e-13 -1.561225378577529854e-13 1.324828105293135438e-13
2.442000000000000000e+03 2.151999664306640625e+01 -1.277681159973144531e+01 -1.794484022097850295e-14 -3.508227508410705076e-13 -1.106302820619992078e-13 1.452963996947248537e-13
2.443000000000000000e+03 2.134620285034179688e+01 -1.100117778778076172e+01 -1.362480549389755158e-13 -2.871467712044217802e-13 -1.270184451325137576e-13 1.801613057957757169e-13
2.444000000000000000e+03 2.648835945129394531e+01 -1.993344116210937500e+01 -1.554067340309508993e-13 -2.953576239920346902e-13 -1.352293114726538237e-13 1.952651161965003601e-14
2.445000000000000000e+03 2.867062568664550781e+01 -2.603199386596679688e+01 1.136042706439835751e-14 -3.840142993091072432e-13 -1.117961653156543389e-13 1.908815851691877952e-13
2.446000000000000000e+03 3.585482406616210938e+01 -1.987549018859863281e+01 5.910492229107763840e-14 7.108162935207454347e-14 3.905596413769293895e-14 -1.858612039501526120e-14
2.447000000000000000e+03 3.780973815917968750e+01 -2.042235946655273438e+01 7.594500115587488054e-14 2.155516569271945237e-13 8.744899606966810568e-14 -2.897441536914638349e-14
2.448000000000000000e+03 2.076139068603515625e+01 -1.136419582366943359e+01 -3.147329808881813018e-14 -2.308055547899090509e-13 -7.868365518599179653e-14 1.084867127230416950e-13
2.449000000000000000e+03 3.760552978515625000e+01 -2.153973197937011719e+01 1.243546116402101821e-15 4.628389617638943576e-14 1.425823265607372575e-14 5.717410729967967176e-14
2.450000000000000000e+03 3.683132171630859375e+01 -2.016281509399414062e+01 4.214660779123906298e-14 1.553156746009892730e-13 5.923868573410803751e-14 -3.723490089933660652e-14
2.451000000000000000e+03 2.901898956298828125e+01 -2.672572326660156250e+01 -7.841038880468040317e-14 -1.708572926152271410e-13 -7.478030374834590543e-14 1.842763409313358247e-13
2.452000000000000000e+03 2.617874336242675781e+01 -2.105327606201171875e+01 -8.435922316599175907e-14 -1.734067940238268046e-13 -7.732980515694556911e-14 3.769583251230987364e-14
2.453000000000000000e+03 3.426332092285156250e+01 -1.712352371215820312e+01 4.051890184595015321e-14 -6.269891696759552491e-14 -6.654004112977137883e-15 2.508082344511875644e-14
2.454000000000000000e+03 3.450789642333984375e+01 -1.598519229888916016e+01 -7.769705153782072160e-14 1.039541106732759512e-13 7.877117571229979437e-15 6.100810283257143349e-15
2.455000000000000000e+03 3.505517578125000000e+01 -1.850113868713378906e+01 7.398626118227183412e-14 2.027065886293314551e-14 2.827707516652854663e-14 -2.887991359728711571e-14
2.456000000000000000e+03 3.527253723144531250e+01 -1.739529228210449219e+01 -2.624370227290997656e-15 -4.687567743905454720e-14 -1.485001391873883719e-14 2.475593040567221348e-14
2.457000000000000000e+03 4.356953048706054688e+01 -2.669118118286132812e+01 -1.017192582876587370e-13 2.881004083302857177e-13 5.591434569041445202e-14 2.733334154988390635e-14
2.458000000000000000e+03 4.421032714843750000e+01 -3.234414672851562500e+01 -1.326623679616042994e-14 3.603220694904651911e-13 1.041167477754123549e-13 -1.319298945264002487e-13
2.459000000000000000e+03 3.317898559570312500e+01 -1.397135734558105469e+01 -1.065749525848251611e-13 -1.829278238217255104e-13 -8.685083495484427485e-14 7.037658623183437601e-14
2.460000000000000000e+03 2.734277725219726562e+01 -5.443969726562500000e+00 -2.330306086983924274e-13 -5.411931008046134972e-14 -8.614497868297474326e-14 7.934345319432142829e-14
2.461000000000000000e+03 2.625821304321289062e+01 -4.270149230957031250e+00 -1.551418363351583785e-13 -6.648935552524062875e-14 -6.648935552524062875e-14 1.961718548021407216e-13
2.462000000000000000e+03 3.643971633911132812e+01 -1.947134780883789062e+01 -4.672191385407357955e-14 2.572727052013376592e-14 -6.298393423698417717e-15 -1.057382805445816754e-13
2.463000000000000000e+03 3.565679168701171875e+01 -1.808988952636718750e+01 -4.358501542534379269e-14 2.707165580302737379e-14 -4.954007717288336221e-15 1.194170596555046288e-14
2.464000000000000000e+03 4.129066467285156250e+01 -2.754387855529785156e+01 1.197931321196901711e-13 2.800946594886527530e-13 1.199663334167447304e-13 1.607214016009165386e-14
2.465000000000000000e+03 2.841264915466308594e+01 -6.640442848205566406e+00 -1.115726163802149840e-13 -4.781683607553953441e-14 -4.781683607553953441e-14 -9.276739566679934740e-15
2.466000000000000000e+03 2.292094230651855469e+01 -1.658640670776367188e+01 -4.225271391447571467e-14 2.764264240683739215e-14 -4.383021113478317854e-15 1.101816798606061742e-13
2.467000000000000000e+03 2.395252418518066406e+01 -1.686956787109375000e+01 2.428630823466011723e-14 2.184615539141919471e-14 1.383973908782379358e-14 2.643433296692018764e-14
2.468000000000000000e+03 2.273181533813476562e+01 -1.484463405609130859e+01 -7.162526865014950950e-14 -1.908248678430396472e-13 -7.873503959270403141e-14 8.536715849190648631e-14
2.469000000000000000e+03 1.859103584289550781e+01 -5.506268978118896484e+00 -4.621760737793731422e-14 1.631962523018087863e-13 3.509359144428236821e-14 5.921277330218563395e-14
2.470000000000000000e+03 1.905391693115234375e+01 -6.903477191925048828e+00 -4.831053769917617591e-14 7.079737864750315635e-14 6.746052453904683582e-15 3.671020803422582468e-14
2.471000000000000000e+03 3.960465240478515625e+01 -2.488246726989746094e+01 -2.486070838124757043e-14 -5.640553670839543177e-14 -2.437987488214561627e-14 -4.930857290400339488e-14
2.472000000000000000e+03 3.573025512695312500e+01 -3.547642135620117188e+01 -1.223709345931234954e-14 -1.424973149460190269e-13 -4.642032269100600239e-14 -8.999138070744493872e-15
2.473000000000000000e+03 3.691823196411132812e+01 -3.895602035522460938e+01 8.741825216181456359e-14 8.321591164631506055e-14 5.119024982006524505e-14 -3.197364045076124539e-14
2.474000000000000000e+03 2.212040710449218750e+01 -1.239058971405029297e+01 -9.251133930091026691e-14 -2.226515141961343813e-13 -9.454885333860796326e-14 1.531799962209683813e-14
2.475000000000000000e+03 2.569904708862304688e+01 -3.694209098815917969e+00 -3.361593772441273664e-13 2.219392746839743413e-13 -3.426603347855133874e-14 2.749589022178061670e-13
2.476000000000000000e+03 4.214772415161132812e+01 -2.888252639770507812e+01 7.175258109025361986e-14 3.052567964026420277e-13 1.131028118926159787e-13 2.530037607911296560e-14
2.477000000000000000e+03 3.419750976562500000e+01 -3.374275970458984375e+01 -5.158567868116144262e-14 -1.593609955368585629e-13 -6.328399989371374934e-14 7.536222893563676584e-14
2.478000000000000000e+03 3.381615447998046875e+01 -3.484490966796875000e+01 -8.061842751531933526e-14 -2.633054906921172833e-13 -1.031771781727364168e-13 9.848501544449869693e-14
2.479000000000000000e+03 3.362962341308593750e+01 -3.624941635131835938e+01 2.776437967608267471e-14 1.189902058720652966e-14 1.189902058720652966e-14 3.505707754799212983e-14
2.480000000000000000e+03 3.474967193603515625e+01 -3.597785949707031250e+01 -4.406595734466299541e-15 -2.306432768297422831e-13 -7.051496431036141654e-14 8.321419725162981784e-14
2.481000000000000000e+03 4.233278274536132812e+01 -2.770985412597656250e+01 1.650625030538352411e-13 2.994958068439773635e-13 1.393674943245964970e-13 1.590450895169823881e-14
2.482000000000000000e+03 3.408356475830078125e+01 -1.529930782318115234e+01 -7.030061076459745428e-14 1.986259057619801927e-13 3.849758985446753712e-14 -4.790630308356032263e-14
2.483000000000000000e+03 3.362824249267578125e+01 -1.463420963287353516e+01 -3.081660360920723818e-14 -2.819939377493585475e-13 -9.384316647332788253e-14 1.617884835434721391e-13
2.484000000000000000e+03 2.893508338928222656e+01 -2.492668533325195312e+01 -2.937279190489902603e-14 -4.243468911761111295e-13 -1.361159042466766889e-13 1.541278904634499347e-13
2.485000000000000000e+03 3.346189880371093750e+01 -3.425083541870117188e+01 3.013029346962854682e-14 -1.815285524979157183e-13 -4.541947533679389915e-14 1.056480884763580375e-13
2.486000000000000000e+03 7.890156555175781250e+01 -2.036837768554687500e+01 3.360196303603575629e-14 4.719103254870182784e-13 1.516536868957293893e-13 -2.774221790605071319e-14
2.487000000000000000e+03 7.963510894775390625e+01 -1.967781448364257812e+01 3.116660439927629311e-14 3.793646982924031574e-13 1.231593901298774774e-13 -4.118734297847356784e-14
2.488000000000000000e+03 7.891966247558593750e+01 -1.237689685821533203e+01 7.640108541104924812e-16 4.120859740681243055e-13 1.238550006912170209e-13 -1.444232374751136527e-13
2.489000000000000000e+03 7.964053344726562500e+01 -1.168810272216796875e+01 5.398646482114577427e-14 3.891446355690914016e-13 1.329393274065657216e-13 -2.037950259665532310e-14
2.490000000000000000e+03 7.892299652099609375e+01 -5.186708450317382812e+00 2.582207180284318282e-13 4.766736051015074693e-13 2.204682969389817893e-13 5.009221729361697240e-14
2.491000000000000000e+03 7.964149475097656250e+01 -4.497905254364013672e+00 4.550174256476302581e-13 4.237622080495440091e-13 2.636338955301631426e-13 -1.189365802161746269e-14
2.492000000000000000e+03 7.892559051513671875e+01 2.003067016601562500e+00 5.185060822539278025e-13 8.627301889378713451e-13 4.143708759365288818e-13 -6.976409467479571802e-13
2.493000000000000000e+03 7.964231872558593750e+01 2.692159891128540039e+00 9.265977742034525733e-13 2.598604653940989051e-13 3.559374745897708747e-13 -2.755364838201435074e-13
2.494000000000000000e+03 7.901572418212890625e+01 2.675108718872070312e+01 -8.546999506796673640e-14 9.120951572955029313e-15 -2.290471279439362795e-14 4.855032933841207932e-14
2.495000000000000000e+03 7.967848205566406250e+01 2.744841384887695312e+01 -6.007983688457660398e-14 -2.574850224798964221e-14 -2.574850224798964221e-14 -8.918961320089190820e-15
2.496000000000000000e+03 7.964399719238281250e+01 1.068110847473144531e+01 1.216400027578834475e-13 6.380478116067411082e-15 3.840614078935017384e-14 -4.554826500235802100e-14
2.497000000000000000e+03 7.893080139160156250e+01 9.193988800048828125e+00 -1.831805377956047254e-13 1.299595281785631898e-14 -5.105537506980804829e-14 8.907194507792523530e-14
2.498000000000000000e+03 7.892977905273437500e+01 8.395188331604003906e+00 1.351607356852441155e-13 -7.932681746723735383e-14 1.675017817590745972e-14 -1.366777784700401455e-13
2.499000000000000000e+03 7.821604156494140625e+01 8.507424354553222656e+00 -1.560537587824359362e-13 -1.126311297374761600e-13 -8.060546452309455545e-14 8.564480911575286792e-14
2.500000000000000000e+03 7.892852783203125000e+01 7.596090793609619141e+00 -2.165556687964975691e-13 -2.758133619499419931e-13 -1.477107146449427311e-13 7.440760247529043525e-14
2.501000000000000000e+03 7.892578887939453125e+01 4.400285720825195312e+00 -3.830240703599219199e-13 1.103525230179355776e-13 -8.180146149209047146e-14 1.361622809946047563e-13
2.502000000000000000e+03 7.892619323730468750e+01 5.199271678924560547e+00 3.425152685348348269e-13 3.755470056026471992e-13 2.154186795307391766e-13 -1.234159394689418598e-13
2.503000000000000000e+03 7.964242553710937500e+01 5.088780403137207031e+00 -4.725880060549303430e-13 1.177189178384538404e-13 -1.064607251096902352e-13 6.549810336025502222e-14
2.504000000000000000e+03 7.892555999755859375e+01 3.601350545883178711e+00 4.903465871189394143e-13 3.931523075845211324e-13 2.650496738320490264e-13 -3.011127046488593084e-13
2.505000000000000000e+03 7.892486572265625000e+01 1.203907847404479980e+00 1.160774601438596676e-12 8.571626481518324070e-14 3.739472381920905253e-13 -5.211764179946509756e-13
2.506000000000000000e+03 7.820716857910156250e+01 1.314921855926513672e+00 8.679542002655582511e-13 5.972777441631393208e-15 2.621780830630582315e-13 -2.094801247612756989e-13
2.507000000000000000e+03 7.892384338378906250e+01 4.046381115913391113e-01 1.436779297966928048e-12 -3.450073885434556953e-13 3.275315674060308435e-13 1.801665641763122716e-13
2.508000000000000000e+03 7.820401000976562500e+01 -1.880739808082580566e+00 -2.316641615953546340e-13 3.124738965840090366e-13 2.424292320710175197e-14 -2.680814012619159303e-13
2.509000000000000000e+03 7.892269897460937500e+01 -1.991957783699035645e+00 8.339621853335754675e-13 4.031633154492203497e-13 3.711376637873659012e-13 3.129861279003998131e-13
2.510000000000000000e+03 7.964134216308593750e+01 -2.101585626602172852e+00 -7.473029356788729594e-13 3.202405788466089476e-13 -1.281187070496792035e-13 8.898607965399617237e-15
2.511000000000000000e+03 7.892288208007812500e+01 -3.588991403579711914e+00 4.614831195133561881e-13 1.977784797914383663e-13 1.977784797914383663e-13 7.900575132264650580e-14
2.512000000000000000e+03 7.892275238037109375e+01 -2.790517568588256836e+00 -4.874544778238343312e-13 3.401023223898597125e-13 -4.420563985392880757e-14 -1.563019462122450243e-13
2.513000000000000000e+03 7.820303344726562500e+01 -5.873816013336181641e+00 2.238383903143542630e-13 4.390628485784198176e-13 1.988703797993485178e-13 6.196622669195697708e-14
2.514000000000000000e+03 7.892120361328125000e+01 -6.785082817077636719e+00 2.141772409381889619e-13 3.662959421456973841e-13 1.741419508594077570e-13 2.775359525259823296e-14
2.515000000000000000e+03 7.892024230957031250e+01 -9.981475830078125000e+00 5.519137257674680552e-14 2.066572417748838153e-13 7.855458769362097526e-14 1.399629381577255360e-13
2.516000000000000000e+03 7.892032623291015625e+01 -9.182486534118652344e+00 -9.256724347542905074e-14 2.348340163819961912e-13 4.268003187197014214e-14 4.372781162772371166e-14
2.517000000000000000e+03 7.964055633544921875e+01 -9.291663169860839844e+00 1.380400920522953379e-13 3.794166857865738374e-13 1.552370292859026057e-13 -4.507990999263501719e-14
2.518000000000000000e+03 7.892007446289062500e+01 -1.078011417388916016e+01 -1.857546472053880210e-14 4.495485743643418131e-13 1.292919357730529240e-13 5.952042075082607936e-15
2.519000000000000000e+03 7.891828155517578125e+01 -1.317544841766357422e+01 3.684351069133291745e-14 1.072919761390712934e-13 4.324064571030808435e-14 -2.231774098480302643e-14
2.520000000000000000e+03 7.819342803955078125e+01 -1.386102771759033203e+01 -4.989252758223587658e-14 1.844967592330021278e-13 4.038126915641669645e-14 7.233163314178739367e-14
2.521000000000000000e+03 7.891436767578125000e+01 -1.477331447601318359e+01 -1.880016595959960179e-13 4.684392522318059360e-13 8.413127643549025980e-14 6.664062883335666876e-14
2.522000000000000000e+03 7.890687561035156250e+01 -1.797104263305664062e+01 4.107192626908069688e-14 1.548551055181174307e-13 5.877810987497261719e-14 9.263583281536591496e-14
2.523000000000000000e+03 7.891040039062500000e+01 -1.637242698669433594e+01 -1.273424860568153627e-13 1.741793964919399751e-13 1.405107211409784701e-14 6.602903716412117374e-14
2.524000000000000000e+03 7.963679504394531250e+01 -1.728090476989746094e+01 1.913107259415847139e-14 4.657085264300753202e-13 1.454518742862592751e-13 1.299928589250376465e-13
2.525000000000000000e+03 7.890334320068359375e+01 -1.956945800781250000e+01 -1.549044197763065761e-14 3.136178925063071166e-13 8.943822922937230691e-14 7.691042898036459796e-14
2.526000000000000000e+03 7.890505218505859375e+01 -1.877033996582031250e+01 -1.259169956751562611e-14 3.148601984605953197e-13 9.068054873618766609e-14 2.609856402443089946e-14
2.527000000000000000e+03 7.889871978759765625e+01 -2.116724014282226562e+01 5.684571940229275755e-15 2.311909886622276478e-13 7.106266936658320321e-14 -6.369001327851883665e-14
2.528000000000000000e+03 7.789645385742187500e+01 3.002881050109863281e+01 -1.537052582922197180e-14 -1.438402213093867288e-13 -4.776322227811012622e-14 -3.377738017128033288e-14
2.529000000000000000e+03 7.964449310302734375e+01 1.227870559692382812e+01 1.093179705286863312e-13 4.685055782997077367e-14 4.685055782997077367e-14 -7.335770852530051900e-14
2.530000000000000000e+03 7.893124389648437500e+01 1.079134559631347656e+01 -9.319076814482546434e-14 5.156299513883397245e-14 -1.248833190179744757e-14 1.581273631999502438e-14
2.531000000000000000e+03 7.964813995361328125e+01 1.866992759704589844e+01 -2.800659044141593640e-14 -5.775377599119904670e-14 -2.572810908275154768e-14 -1.860259687990525185e-14
2.532000000000000000e+03 7.893843078613281250e+01 1.558510684967041016e+01 -5.105652025835273611e-14 2.386958327120405204e-14 -8.156081943177552473e-15 -3.676012537987341511e-14
2.533000000000000000e+03 7.896996307373046875e+01 2.357456970214843750e+01 8.626975680050066875e-14 -5.452914527792444843e-14 9.522182609739918840e-15 -3.811980977186033015e-14
2.534000000000000000e+03 7.897811126708984375e+01 2.437018203735351562e+01 -5.781359006980235637e-14 -3.450338972865729659e-13 -1.208542407859017342e-13 -1.371966115612218221e-14
2.535000000000000000e+03 7.896340179443359375e+01 2.277687644958496094e+01 -8.558629607975654086e-14 5.482205604734856352e-14 -9.229270993282856494e-15 3.963409800551188911e-14
2.536000000000000000e+03 7.894736480712890625e+01 1.957946777343750000e+01 -3.335163430693600939e-14 7.720834063230930244e-14 1.315701105057904066e-14 -3.223372022314978380e-14
2.537000000000000000e+03 7.965019989013671875e+01 2.026810836791992188e+01 -9.033369890868239716e-14 -1.302163400978412211e-13 -6.616500966907801207e-14 2.679434992159052467e-15
2.538000000000000000e+03 7.894449615478515625e+01 1.877994537353515625e+01 -4.149604921829808113e-14 2.796692727662780653e-14 -4.058736667204377105e-15 6.503453239261811070e-14
2.539000000000000000e+03 7.824990844726562500e+01 1.968972587585449219e+01 -6.845094152954644962e-14 1.765431469633385597e-13 3.242766366301670644e-14 5.113046623464803653e-14
2.540000000000000000e+03 7.893988800048828125e+01 1.638394737243652344e+01 -8.001890606558221403e-15 8.807251396280094125e-14 2.402118692216952123e-14 -3.367599710375757116e-14
2.541000000000000000e+03 7.893257141113281250e+01 1.238889789581298828e+01 -7.273389247657024992e-14 1.060811798104209502e-13 1.000418670837497845e-14 3.422987194796715815e-14
2.542000000000000000e+03 7.893381500244140625e+01 1.318788337707519531e+01 2.507567687293123931e-14 1.022486132221112065e-13 3.819728956961157551e-14 -4.781622959994930033e-14
2.543000000000000000e+03 7.964493560791015625e+01 1.307763195037841797e+01 -7.192572817719955491e-14 6.067658853657620366e-14 -3.374741680428768563e-15 2.006253778559508039e-14
2.544000000000000000e+03 7.971572113037109375e+01 3.140743827819824219e+01 1.025725321736684070e-13 4.395965809791436973e-14 4.395965809791436973e-14 1.022463363975489870e-13
2.545000000000000000e+03 7.796385192871093750e+01 3.147594451904296875e+01 -2.796009383832583246e-15 -4.694923716832589966e-14 -1.492357364801018965e-14 4.263875765051633460e-15
2.546000000000000000e+03 7.771395111083984375e+01 -3.610797119140625000e+01 3.929330615764538293e-14 -7.466190887111048835e-14 -1.061058013641317382e-14 -1.992135263988083910e-14
2.547000000000000000e+03 7.958552551269531250e+01 -3.486016464233398438e+01 1.137256386068638547e-13 4.873955649882869001e-14 4.873955649882869001e-14 -7.368874932987823367e-14
2.548000000000000000e+03 7.884281158447265625e+01 -2.757461357116699219e+01 -5.118438157580666725e-14 2.381478532171438234e-14 -8.210878198601327671e-15 1.268730925846990251e-14
2.549000000000000000e+03 7.961850738525390625e+01 -2.687220573425292969e+01 3.765313188737288985e-14 1.533899011496933640e-13 5.731291228281212846e-14 8.043093507837870138e-14
2.550000000000000000e+03 7.889464569091796875e+01 -2.196635055541992188e+01 4.688477457290805839e-14 3.403501167963812746e-13 1.161704738482371990e-13 7.591117404809333280e-14
2.551000000000000000e+03 7.886860656738281250e+01 -2.516799354553222656e+01 -3.329902000838436127e-14 7.723089203749700093e-14 1.317956076170084465e-14 -5.749466945966690348e-15
2.552000000000000000e+03 7.813362121582031250e+01 -2.345769309997558594e+01 -2.184123751812743625e-14 1.507677853005914836e-13 3.867796721465123488e-14 5.329258135998568222e-15
2.553000000000000000e+03 7.962708282470703125e+01 -2.447247886657714844e+01 -1.942171162121805045e-14 3.742735694934815061e-14 5.401693852548914224e-15 4.701891748669882742e-14
2.554000000000000000e+03 7.884867858886718750e+01 -2.677416610717773438e+01 -8.380890416609474564e-15 8.791008692483545661e-14 2.385875819013814209e-14 -1.732297234802691877e-14
2.555000000000000000e+03 7.885795593261718750e+01 -2.597106742858886719e+01 -1.176690970545622369e-14 8.645893652707223320e-14 2.240760779237491868e-14 -4.880252831625936372e-14
2.556000000000000000e+03 7.883470916748046875e+01 -2.837593841552734375e+01 1.835557666149748024e-15 7.866675560814465236e-16 7.866675560814465236e-16 -2.704141333867860625e-14
2.557000000000000000e+03 7.805252838134765625e+01 -2.828594779968261719e+01 -5.539624951789688667e-14 1.135115967692244821e-13 1.743460451421145752e-14 5.404187094029157257e-14
2.558000000000000000e+03 7.882096862792968750e+01 -2.918195343017578125e+01 -7.123789676644759483e-14 1.522042312063903724e-14 -1.680524209374256728e-14 4.427588599031050121e-14
2.559000000000000000e+03 7.704079437255859375e+01 -3.055520820617675781e+01 -4.833449179092452752e-14 2.503616617407361522e-14 -6.989497346242094789e-15 -1.228801708010127808e-14
2.560000000000000000e+03 7.873915863037109375e+01 -3.317105484008789062e+01 -1.306114724974058797e-14 -1.657259534682334334e-13 -5.363613199416139565e-14 -3.344317485161167613e-14
2.561000000000000000e+03 7.958457946777343750e+01 -3.246578216552734375e+01 -1.182808348369811333e-15 -1.377597580280720546e-13 -4.168277254932260811e-14 4.216129195441266353e-14
2.562000000000000000e+03 7.874652862548828125e+01 -3.397209548950195312e+01 6.863953172118672508e-14 -1.535868464743253559e-13 -2.548419578119430484e-14 -1.689230691632494230e-14
2.563000000000000000e+03 7.873455810546875000e+01 -3.553837966918945312e+01 6.095873859943840012e-14 1.176270723619171621e-13 5.357574532128574207e-14 -9.845902508554514598e-15
2.564000000000000000e+03 7.855249023437500000e+01 -3.857659530639648438e+01 -2.868375431923017582e-14 1.249598162575069060e-13 2.888281722623030345e-14 -6.937060924609370072e-14
2.565000000000000000e+03 7.864361572265625000e+01 -3.704283905029296875e+01 7.273150045552720377e-14 -1.458030676987180640e-14 1.744535675044390360e-14 3.471732246845306291e-14
2.566000000000000000e+03 7.736689758300781250e+01 -3.985348510742187500e+01 -4.124492766635970420e-14 1.653274007496277620e-13 3.722473989210134393e-14 -2.284094984819021873e-14
2.567000000000000000e+03 7.850336456298828125e+01 -3.936782836914062500e+01 -5.233813870578890581e-14 -2.243063014788129056e-14 -2.243063014788129056e-14 -8.063361989826128839e-14
2.568000000000000000e+03 7.949993896484375000e+01 -3.959674453735351562e+01 1.275137764475409163e-13 1.919016025730621577e-13 9.582461370618092222e-14 2.390554659607857513e-14
2.569000000000000000e+03 7.841564941406250000e+01 -4.018329238891601562e+01 1.357928933144389450e-13 1.244600397135725567e-14 4.447166918573886019e-14 -9.820015487620528671e-15
2.570000000000000000e+03 7.851958465576171875e+01 -4.198319244384765625e+01 1.099885580426980883e-14 -8.678810030663883235e-14 -2.273677326600741233e-14 -5.266462924937397039e-14
2.571000000000000000e+03 3.234224700927734375e+01 8.301894187927246094e+00 1.052765391681108331e-13 -9.213432832421916685e-14 3.942663930793857685e-15 4.355823224355161172e-14
2.572000000000000000e+03 3.275647735595703125e+01 9.212920188903808594e+00 -1.667123470522335893e-14 3.860613543259228120e-14 6.580469794694203053e-15 3.380053805205826545e-14
2.573000000000000000e+03 3.046270561218261719e+01 1.073958301544189453e+01 1.061303822602610580e-13 -4.601745010436933403e-14 1.803388032439387501e-14 1.053328139195440407e-15
2.574000000000000000e+03 3.221121978759765625e+01 1.132960700988769531e+01 3.790508353159957600e-14 -1.234930753713165200e-14 7.666733221856850827e-15 6.347135002911924451e-14
2.575000000000000000e+03 5.348583221435546875e+01 3.241437149047851562e+01 -4.088158780143728854e-15 -4.750301714484539417e-14 -1.547735193046378965e-14 5.387441252661939739e-14
2.576000000000000000e+03 5.025536727905273438e+01 3.075400352478027344e+01 8.878348631367188881e-14 7.236327829269681433e-14 4.834402938191061094e-14 9.034190496387539682e-14
2.577000000000000000e+03 5.120947647094726562e+01 3.083902931213378906e+01 6.629543241416444022e-14 1.656651703839384648e-13 6.958818151705722932e-14 -3.856324846040690146e-14
2.578000000000000000e+03 3.862556838989257812e+01 1.848215675354003906e+01 -4.878807115791562732e-14 -2.090917432143006571e-14 -2.090917432143006571e-14 -1.027393027965874117e-13
2.579000000000000000e+03 3.334320068359375000e+01 1.254865169525146484e+01 -7.408725461463885886e-14 -1.690045266277209746e-13 -7.292753098457616101e-14 -7.208122309752471035e-14
2.580000000000000000e+03 4.814136123657226562e+01 2.578450202941894531e+01 4.101397566296134667e-14 -2.817353047092439194e-14 3.852133896424265319e-15 -3.083352393936159008e-14
2.581000000000000000e+03 4.314277648925781250e+01 2.297118949890136719e+01 6.937759557384265419e-14 7.548420845630496312e-14 4.345853985379156958e-14 -2.337334393685743666e-14
2.582000000000000000e+03 4.152193832397460938e+01 2.244539642333984375e+01 -7.006979767460244646e-14 -1.558450227591781645e-13 -6.777444680776054109e-14 2.090730407268252822e-14
2.583000000000000000e+03 3.701663208007812500e+01 1.669223213195800781e+01 -1.792896614592059956e-13 -3.055931701266556555e-13 -1.454648440547476329e-13 -1.080861067965718791e-13
2.584000000000000000e+03 4.329941940307617188e+01 2.407175254821777344e+01 1.636261791207807570e-13 5.296890381281844917e-14 6.497852657414565636e-14 -8.875599501233580324e-14
2.585000000000000000e+03 4.373532104492187500e+01 2.351861000061035156e+01 -2.401513741286023101e-14 8.120969717008430511e-14 1.715836674132109607e-14 1.178783497679178338e-13
2.586000000000000000e+03 5.288723754882812500e+01 3.358906936645507812e+01 -6.153326749503383597e-15 1.231779706446084477e-13 3.510739130505903527e-14 -1.233148782739390548e-13
2.587000000000000000e+03 4.720657348632812500e+01 2.685953330993652344e+01 1.179313401490980628e-13 5.054200534113616194e-14 5.054200534113616194e-14 3.915341612530749346e-15
2.588000000000000000e+03 3.809931945800781250e+01 1.788306617736816406e+01 -5.607353367438963621e-14 2.171943418031226786e-14 -1.030622934000344215e-14 -7.575415446846311962e-14
2.589000000000000000e+03 3.756206130981445312e+01 1.728398704528808594e+01 -7.942948463670815307e-14 1.489625886834031188e-13 2.085992951994259520e-14 -6.743748354881562435e-14
2.590000000000000000e+03 4.023845672607421875e+01 2.023668479919433594e+01 7.300064009231957418e-14 -1.974687503358135698e-13 -3.734043442830091430e-14 8.104911327581204583e-14
2.591000000000000000e+03 4.794340133666992188e+01 2.851342964172363281e+01 3.752739831668246151e-14 1.133039381718756178e-13 4.524940128538060269e-14 -1.978927987461315957e-14
2.592000000000000000e+03 4.837862396240234375e+01 2.796829223632812500e+01 -2.365712030297836138e-14 -5.588971397230829696e-14 -2.386405045199258695e-14 4.843554620966375457e-14
2.593000000000000000e+03 4.196937942504882812e+01 2.188465118408203125e+01 2.141490381291771827e-14 5.492876525804366028e-14 2.290310004366205576e-14 1.518162901165479028e-14
2.594000000000000000e+03 4.662634277343750000e+01 2.630655097961425781e+01 6.780002042650404293e-14 7.480809998154300255e-14 4.278243476716139804e-14 -5.833882503599938096e-14
2.595000000000000000e+03 3.548939895629882812e+01 1.604276084899902344e+01 -2.301773951562252618e-13 -1.958682239837361561e-13 -1.278136803209775629e-13 -6.594842673259687649e-14
2.596000000000000000e+03 4.137937927246093750e+01 2.133808898925781250e+01 4.309603346928925216e-14 -2.102850093490746253e-13 -5.015669344156196974e-14 4.205427442372476621e-14
2.597000000000000000e+03 4.968812561035156250e+01 3.018551635742187500e+01 -7.225115654146876260e-15 -1.003172425770998410e-13 -3.226270907873661498e-14 8.988946062103361778e-14
2.598000000000000000e+03 3.647140121459960938e+01 1.611137771606445312e+01 -1.490455843597068841e-13 -6.387667901130295034e-14 -6.387667901130295034e-14 -6.341730255082084211e-14
2.599000000000000000e+03 3.488740158081054688e+01 1.436722373962402344e+01 6.779140779549636120e-14 -1.669748764439055871e-14 1.532817756999104580e-14 -9.233758912650588679e-14
2.600000000000000000e+03 5.066521835327148438e+01 3.024985694885253906e+01 5.409918118950279853e-14 6.893631173711389781e-14 3.691064991086408231e-14 9.675508278687156016e-14
2.601000000000000000e+03 4.779182052612304688e+01 2.741243362426757812e+01 1.715784158089379841e-14 9.885525693387534063e-14 3.480392989324392061e-14 5.378181170845200507e-16
2.602000000000000000e+03 3.087972450256347656e+01 1.000390911102294922e+01 3.777575854121278942e-14 -7.531228787306665229e-14 -1.126095829133639051e-14 8.335816574760873676e-14
2.603000000000000000e+03 4.605462265014648438e+01 2.575222587585449219e+01 -6.167869627581382130e-14 -1.179356227476793806e-13 -5.388429570704796057e-14 1.533124213519421186e-14
2.604000000000000000e+03 4.491284942626953125e+01 2.463390350341796875e+01 -5.199859707855254698e-14 -2.228511327567479078e-14 -2.228511327567479078e-14 5.292524773471696253e-14
2.605000000000000000e+03 3.593159866333007812e+01 1.553605747222900391e+01 -2.219924446361393883e-14 -1.925177546676856699e-13 -6.441510058642282988e-14 -9.660508341630819062e-14
2.606000000000000000e+03 3.540251922607421875e+01 1.495739841461181641e+01 -1.924979002154020291e-13 -1.282500445903486663e-13 -9.622438615223063985e-14 -2.911749617459657991e-14
2.607000000000000000e+03 4.896511840820312500e+01 2.853157424926757812e+01 2.251030545503181907e-14 5.539822141059809468e-14 2.337255789028238467e-14 -4.235023112362720776e-14
2.608000000000000000e+03 4.954337692260742188e+01 2.910045433044433594e+01 -4.345316627677418830e-14 -1.862278506317011084e-14 -1.862278506317011084e-14 5.763174480152106691e-15
2.609000000000000000e+03 4.206610918045043945e-01 -3.804207229614257812e+01 -1.040117563475342899e-13 3.671820605812697869e-13 7.895109398062608030e-14 -3.007579536980220514e-14
2.610000000000000000e+03 1.251362204551696777e+00 -3.723492813110351562e+01 4.785040907343690586e-14 2.492620638974013536e-13 8.913374460175690905e-14 -4.926997191853112190e-14
2.611000000000000000e+03 1.222047209739685059e+00 -3.566440963745117188e+01 4.731330802268179578e-15 1.392805548628903156e-13 4.320356599600908010e-14 -4.227210419270426012e-14
2.612000000000000000e+03 1.773257493972778320e+00 -7.542442321777343750e+00 4.977211676658599426e-14 4.420638185479060234e-14 2.819354924759980008e-14 2.959651363505962085e-14
2.613000000000000000e+03 1.086595177650451660e+00 -1.553834629058837891e+01 -4.397499955865503962e-14 1.412818972056084643e-13 2.919206895527284851e-14 -6.792666879277750591e-14
2.614000000000000000e+03 1.121974587440490723e+00 -2.196490097045898438e+01 -3.651097910876803521e-14 9.872980796625518973e-14 1.866565001249886196e-14 -4.836721436774285565e-14
2.615000000000000000e+03 1.247855782508850098e+00 -2.921902656555175781e+01 -5.986094324221535867e-14 2.946019621828666057e-13 7.042229890593179609e-14 -2.285442275424924563e-14
2.616000000000000000e+03 1.576233863830566406e+00 -3.938029479980468750e+01 6.844665893096513187e-14 3.953418809769099207e-13 1.391365592618570846e-13 7.676681962635531487e-14
2.617000000000000000e+03 1.435726165771484375e+00 -3.864010238647460938e+01 -8.319671449159848908e-14 2.846009018730999429e-13 6.042125892495586736e-14 -8.292265528744846570e-14
2.618000000000000000e+03 1.245516538619995117e+00 -3.796725082397460938e+01 9.256995398086026450e-14 3.599294798838081899e-13 1.357498369356641144e-13 -6.687676806652401162e-14
2.619000000000000000e+03 2.132642030715942383e+00 -3.004502487182617188e+01 -2.034426263791775519e-14 1.056584019495238058e-13 2.559424230170158354e-14 4.411479048813810033e-14
2.620000000000000000e+03 1.260296940803527832e+00 -3.168136596679687500e+01 -1.090870185252879737e-14 2.240795846401508196e-13 6.395126534450637501e-14 9.168866702121900025e-14
2.621000000000000000e+03 1.240221977233886719e+00 -3.248908996582031250e+01 -2.151627841011100745e-14 2.652844307074464503e-13 7.313044619742040120e-14 1.334318669009987302e-13
2.622000000000000000e+03 4.202183187007904053e-01 -3.084812545776367188e+01 8.352900212867456209e-14 3.789302584818882158e-13 1.387377761502897600e-13 -4.248438758994513287e-14
2.623000000000000000e+03 1.269826173782348633e+00 -3.086406898498535156e+01 1.819705275135294342e-14 2.594289529294496743e-13 8.328780102661442752e-14 8.104172037224841030e-14
2.624000000000000000e+03 1.265045046806335449e+00 -3.004082870483398438e+01 -6.209553135355302955e-14 8.776500034536616202e-14 7.700840697543939739e-15 3.235769196530992320e-14
2.625000000000000000e+03 1.229308247566223145e+00 -2.840606498718261719e+01 -2.219627476610086525e-14 2.192420507293735277e-13 5.911373143372908312e-14 -2.323743241827280065e-14
2.626000000000000000e+03 1.988344311714172363e+00 -2.675728416442871094e+01 4.937965590893697576e-14 1.126646044795516499e-13 4.861327743892022990e-14 -4.030641516080193942e-14
2.627000000000000000e+03 1.145046353340148926e+00 -2.437379264831542969e+01 -5.250956800991780915e-14 1.147487459869298010e-13 1.867175373191677645e-14 -4.863930506732346004e-14
2.628000000000000000e+03 3.788250982761383057e-01 -2.359490966796875000e+01 1.738979308316991601e-14 7.452768464215678290e-15 7.452768464215678290e-15 3.796845176044956471e-14
2.629000000000000000e+03 1.135187625885009766e+00 -2.357243919372558594e+01 4.492824027309966217e-14 8.788138267231890288e-14 3.984288823887828512e-14 -3.040725630272175795e-14
2.630000000000000000e+03 1.127686858177185059e+00 -2.276993942260742188e+01 -1.101150031210642102e-14 2.011600521573120304e-13 5.704456546885838808e-14 4.757572306490591429e-14
2.631000000000000000e+03 1.116226792335510254e+00 -2.116291999816894531e+01 -4.575287766922855881e-14 -1.111102719162856967e-13 -4.705894487565427664e-14 -2.589511348676399455e-14
2.632000000000000000e+03 1.107692599296569824e+00 -1.956095504760742188e+01 -6.789287556631384835e-14 1.665400266694441744e-14 -1.537166085337129257e-14 -6.664979711797774931e-14
2.633000000000000000e+03 3.652839958667755127e-01 -1.716496849060058594e+01 4.031949334950754582e-14 -2.572259083250677536e-13 -6.507192381504170453e-14 5.596612650854600191e-14
2.634000000000000000e+03 1.096399426460266113e+00 -1.714994621276855469e+01 -7.376088265566640989e-14 -1.917401242119975979e-13 -7.965030273792556015e-14 -2.061448207231128538e-13
2.635000000000000000e+03 1.080142855644226074e+00 -1.473698329925537109e+01 1.686835282457659069e-14 -6.139712897161933580e-14 -1.335863284411282353e-14 -5.787327539939768339e-14
2.636000000000000000e+03 1.776352524757385254e+00 -1.315762329101562500e+01 -6.518870594154554943e-14 6.356387990827730428e-14 -4.874464970794053012e-16 -6.342819878265432143e-14
2.637000000000000000e+03 1.053076744079589844e+00 -1.073687267303466797e+01 2.992861153675550889e-14 -7.867534748684512635e-14 -1.462402214027960085e-14 2.161398027244500197e-14
2.638000000000000000e+03 3.511295914649963379e-01 -9.936507225036621094e+00 2.555120625171748705e-14 5.670146630324356118e-14 2.467580108886195667e-14 2.905029596869321273e-14
2.639000000000000000e+03 1.051008224487304688e+00 -9.937430381774902344e+00 -1.541035840059955253e-14 8.489746178199503168e-14 2.084612965916592814e-14 9.611673842902998532e-14
2.640000000000000000e+03 1.053063154220581055e+00 -9.134538650512695312e+00 8.204459382927034583e-14 3.516196733191652435e-14 3.516196733191652435e-14 -4.627013612616128965e-15
2.641000000000000000e+03 1.059598922729492188e+00 -8.325413703918457031e+00 1.717205818188051458e-14 -8.414244371786686050e-14 -2.009111498316954597e-14 5.082805853181930622e-14
2.642000000000000000e+03 4.471541881561279297e+00 -2.708482980728149414e+00 -2.700686794695778686e-14 -2.403291053578587855e-13 -8.020079283847791896e-14 -5.743264886023599636e-14
2.643000000000000000e+03 1.840673208236694336e+00 -5.908640384674072266e+00 7.612915289487154347e-14 -1.312416904211514967e-14 1.890149447820056033e-14 4.092118150952374356e-14
2.644000000000000000e+03 2.859206438064575195e+00 -1.891050696372985840e+00 -7.802700136396237274e-14 1.038127036049295293e-13 7.735711349916504775e-15 3.846682222969147191e-14
2.645000000000000000e+03 2.638846158981323242e+00 -5.137267589569091797e+00 6.021389170694085857e-14 -1.994499502350460113e-14 1.208066934384405614e-14 -1.622490594026075594e-14
2.646000000000000000e+03 1.221258997917175293e+00 -1.891767740249633789e+00 -3.682699354886145859e-15 -1.159556662928135085e-13 -3.589151003312307520e-14 -8.005181668371483261e-14
2.647000000000000000e+03 1.197758555412292480e+00 -2.679742097854614258e+00 -1.249856998903091029e-14 -5.110747776045955482e-14 -1.908181424014384481e-14 -6.028008224957109862e-14
2.648000000000000000e+03 1.067741012573242188e+01 -3.221534252166748047e+00 5.902179108950231234e-14 2.540497922708800926e-13 9.392147975149922612e-14 -8.323346216898216965e-14
2.649000000000000000e+03 6.970483779907226562e+00 -1.852192878723144531e+00 2.067821554176813015e-14 -1.283907604798101287e-13 -3.231376144853352617e-14 5.747285920830805250e-14
2.650000000000000000e+03 1.013686847686767578e+01 -3.365570068359375000e+00 -8.766863510102293477e-14 2.254956882026884490e-13 4.134811321999422307e-14 -7.867618774352880262e-14
2.651000000000000000e+03 7.740404605865478516e+00 -2.531460762023925781e+00 -6.889589810113450064e-14 -2.952681298789595898e-14 -2.952681298789595898e-14 7.267207940021142010e-14
2.652000000000000000e+03 6.941100597381591797e+00 -2.548330545425415039e+00 -3.666455295836881789e-14 -6.146432917752270297e-14 -2.943866396314109846e-14 -1.070413492543741130e-13
2.653000000000000000e+03 4.503935813903808594e+00 -1.895235896110534668e+00 -4.160564172914563152e-14 5.079543421082285959e-14 2.756937236283400067e-15 1.981373964503102200e-15
2.654000000000000000e+03 2.818994283676147461e+00 -2.680730104446411133e+00 -5.789707363708374022e-14 -2.535677830900473495e-13 -9.343945701813932692e-14 6.538012183509786523e-14
2.655000000000000000e+03 2.038868427276611328e+00 -1.889569044113159180e+00 -3.359968621147353673e-14 -1.287772378967197429e-13 -4.871307486076573157e-14 -5.301061256217419818e-15
2.656000000000000000e+03 1.154615879058837891e+00 -4.274129390716552734e+00 -6.667474732047207198e-14 -2.857489025671726413e-14 -2.857489025671726413e-14 -4.510935370491452392e-15
2.657000000000000000e+03 1.176216602325439453e+00 -3.473985671997070312e+00 1.124036946148748023e-14 1.420701528425868942e-13 4.599315381131029168e-14 -8.926554292834967819e-14
2.658000000000000000e+03 1.953234100341796875e+01 -5.905264019966125488e-01 3.298841505950528274e-13 7.933299199860965878e-13 3.369642347268719806e-13 2.260197779803407858e-13
2.659000000000000000e+03 7.855693054199218750e+01 3.144965362548828125e+01 -4.700968143944196653e-14 1.628567886016035748e-13 3.475413452034073480e-14 8.615545478646638444e-14
2.660000000000000000e+03 3.279339599609375000e+01 1.194340229034423828e+01 7.752139045708733578e-14 1.422393832491847254e-13 6.592823346713433397e-14 -8.216004103184931795e-14
2.661000000000000000e+03 3.566735982894897461e+00 -4.181832885742187500e+01 1.368109320493485215e-14 5.161427451346074780e-14 1.958860929907914328e-14 -2.125983579719797900e-14
2.662000000000000000e+03 5.337783050537109375e+01 3.401562500000000000e+01 -7.973488744803837458e-15 -3.694247869851646771e-13 -1.132194855989025750e-13 1.170241881913794413e-13
2.663000000000000000e+03 5.452541732788085938e+01 3.317640686035156250e+01 -1.295884379621733973e-13 8.171494893498970624e-14 -1.436204670815510731e-14 -5.022101966467530307e-15
2.664000000000000000e+03 5.271142959594726562e+01 3.254195785522460938e+01 -3.008227771294754230e-15 1.359636009464967876e-13 3.988661207961555211e-14 -6.606131250754335160e-14
2.665000000000000000e+03 5.223082733154296875e+01 3.200712585449218750e+01 -4.783433238809801924e-14 2.525052141390347199e-14 -6.775143376961658900e-15 -1.022871362805523321e-13
2.666000000000000000e+03 5.641689682006835938e+01 3.279828643798828125e+01 -1.231095981451060806e-13 1.759934835669427211e-13 1.586516765943006557e-14 -1.065490808104842257e-13
2.667000000000000000e+03 1.128556823730468750e+01 -3.724916696548461914e+00 2.339737595563693567e-14 1.930312463691019609e-13 6.492858551157554281e-14 -8.164394724521906177e-14
2.668000000000000000e+03 8.524365425109863281e+00 -2.564573526382446289e+00 -2.980788901298103699e-14 -1.277480945598716625e-14 -1.277480945598716625e-14 -9.781750604821726203e-14
2.669000000000000000e+03 1.166737079620361328e+01 -3.158573627471923828e+00 -9.220660395154248179e-14 9.773573009935754285e-14 1.658737314948926286e-15 -4.357725321541515429e-14
2.670000000000000000e+03 1.216108226776123047e+01 -3.189729213714599609e+00 -5.846850916835580336e-14 -2.995636236898663318e-13 -1.074096391798402828e-13 -2.091760602620021392e-13
2.671000000000000000e+03 1.371764087677001953e+01 -2.849743604660034180e+00 -1.722907705175788506e-14 -1.446367304354032046e-13 -4.855974495665375812e-14 -1.000566952425244183e-13
2.672000000000000000e+03 9.288906097412109375e+00 -2.655620098114013672e+00 -6.103236947947732194e-14 2.483489759327883739e-13 5.619497787023516877e-14 1.057350414905913749e-13
2.673000000000000000e+03 1.040872287750244141e+01 -3.942204952239990234e+00 -3.241673693799712597e-14 -1.389288701713221191e-14 -1.389288701713221191e-14 -7.884592636989498637e-14
2.674000000000000000e+03 7.019082641601562500e+01 3.168091011047363281e+01 1.071071298330578819e-14 -2.699153834467837854e-13 -7.776139893675773629e-14 -5.185862657808466836e-14
2.675000000000000000e+03 7.113930511474609375e+01 3.057451629638671875e+01 1.899759714233013874e-14 -1.291110230880465615e-13 -3.303402744490174792e-14 -1.035192846157370616e-13
2.676000000000000000e+03 7.171527862548828125e+01 3.109379768371582031e+01 -2.622451409674264600e-13 -3.868964610492797718e-13 -1.947424833155173007e-13 1.280157756059288610e-13
2.677000000000000000e+03 7.174288177490234375e+01 3.162829017639160156e+01 1.404012268859528012e-13 -2.600846784033689074e-13 -3.590503545522483186e-14 -2.585377150267440666e-14
2.678000000000000000e+03 7.283404541015625000e+01 3.104524803161621094e+01 -9.081354646143374731e-14 -1.304219861449074092e-13 -6.637066249240777815e-14 9.712362343409011722e-14
2.679000000000000000e+03 7.117955017089843750e+01 3.112130355834960938e+01 1.225670735423897012e-14 -4.065056668015043506e-13 -1.182746934245970660e-13 -4.227046433691837579e-14
2.680000000000000000e+03 6.859796142578125000e+01 3.125969696044921875e+01 5.233903994884478439e-14 6.818196452307995203e-14 3.615630269683013653e-14 6.671487635338119171e-14
2.681000000000000000e+03 6.905077362060546875e+01 3.073718452453613281e+01 -3.582661375683623972e-14 2.591514242783476973e-13 6.699744654458522630e-14 -1.541701743481768694e-13
2.682000000000000000e+03 6.660398101806640625e+01 3.180341529846191406e+01 -8.223677544060697953e-14 -1.267462290720569595e-13 -6.269489864329375051e-14 -1.384077992190937967e-13
2.683000000000000000e+03 6.757109069824218750e+01 3.130167198181152344e+01 9.864587716557765562e-14 -3.694817347042744782e-13 -8.125075455110361555e-14 -3.916096234183458202e-14
2.684000000000000000e+03 6.337499237060546875e+01 3.105048561096191406e+01 3.181115242642355845e-14 -1.693704448609348323e-13 -4.126778739154020326e-14 -1.720902473257776566e-13
2.685000000000000000e+03 6.293121719360351562e+01 3.154244804382324219e+01 1.692836951346088359e-13 -4.764612098959175590e-13 -9.215326120465619497e-14 1.018164028023134382e-13
2.686000000000000000e+03 6.087524795532226562e+01 3.220098876953125000e+01 -2.973887954470233463e-14 7.875666264978153919e-14 1.470533560915011917e-14 -1.827393454384342725e-14
2.687000000000000000e+03 6.240571594238281250e+01 3.157738494873046875e+01 1.088035640316870056e-13 3.211358045804302286e-13 1.289818132941406015e-13 2.726536715586674875e-13
2.688000000000000000e+03 6.285170364379882812e+01 3.108144187927246094e+01 1.672578769278468269e-13 3.919385974625322344e-13 1.677589409618610028e-13 3.677633013659392658e-13
2.689000000000000000e+03 6.455641937255859375e+01 3.190703392028808594e+01 -1.098611761458923031e-13 -1.843362024437841806e-13 -8.825921357690294511e-14 6.550738006509335132e-14
2.690000000000000000e+03 6.609187316894531250e+01 3.182721710205078125e+01 1.730080380173137922e-13 7.414630297545785065e-14 7.414630297545785065e-14 -5.524034463362526015e-14
2.691000000000000000e+03 6.705596160888671875e+01 3.132423782348632812e+01 2.775954820015153618e-14 -2.626087552710237860e-13 -7.045475720847058088e-14 -3.892235654872483464e-13
2.692000000000000000e+03 6.602720642089843750e+01 3.137044525146484375e+01 -5.141649232027686867e-15 1.808002261360214247e-13 5.269757544289037365e-14 -4.867443321771199038e-14
2.693000000000000000e+03 6.448465728759765625e+01 3.144978904724121094e+01 1.677316732772229924e-13 1.633868957013132062e-13 9.933557204881357516e-14 7.604360256719885913e-14
2.694000000000000000e+03 6.499918365478515625e+01 3.142150115966796875e+01 -4.728740321405591751e-14 -2.032698282698058856e-13 -7.516716741227946752e-14 1.615274347653919418e-13
2.695000000000000000e+03 6.654113769531250000e+01 3.134724044799804688e+01 1.645266225775571245e-13 4.365190121261713907e-13 1.803136904111185546e-13 -2.126638166781436023e-13
2.696000000000000000e+03 6.029249954223632812e+01 3.227433013916015625e+01 -1.361041508175005882e-14 1.314198180618272871e-13 3.534281903055068452e-14 8.586278796253107859e-14
2.697000000000000000e+03 6.132575988769531250e+01 3.167012596130371094e+01 1.358762735437007638e-14 -1.771805223154884756e-13 -4.907786823422563560e-14 7.655310304936768784e-14
2.698000000000000000e+03 7.014066314697265625e+01 3.117362594604492188e+01 5.957517465460249184e-14 -3.862263156864664815e-13 -9.799534230955919689e-14 -5.609293072888175968e-14
2.699000000000000000e+03 5.684960174560546875e+01 3.224312591552734375e+01 -1.426095163183441206e-13 -1.526202666850273726e-13 -8.856892948000058552e-14 -2.607077287343148586e-14
2.700000000000000000e+03 5.585273742675781250e+01 3.236182785034179688e+01 -1.910790048322702495e-13 -3.563966884199271101e-13 -1.642427106861646391e-13 -8.835593796321580817e-14
2.701000000000000000e+03 5.736716842651367188e+01 3.217650985717773438e+01 -2.860907311833665867e-14 -1.495138783830576856e-13 -5.343688612804466109e-14 -8.778578992202357156e-14
2.702000000000000000e+03 5.790100860595703125e+01 3.210450744628906250e+01 -6.052854750618688606e-14 -5.749521952286285043e-13 -1.906442262085764061e-13 -1.889106580855396539e-14
2.703000000000000000e+03 5.537246322631835938e+01 3.243415069580078125e+01 -9.507551132015637507e-14 -3.610033008204921456e-13 -1.368236443198209140e-13 4.381427336284764162e-14
2.704000000000000000e+03 6.396952438354492188e+01 3.147934532165527344e+01 8.645701206821607143e-14 -5.444889060023799798e-14 9.602437287426369289e-15 1.364364892765534965e-13
2.705000000000000000e+03 5.428240966796875000e+01 3.287139892578125000e+01 -1.932242343558043807e-13 -1.971877522377596392e-13 -1.171235959780692060e-13 -8.775802757014436462e-14
2.706000000000000000e+03 7.609508514404296875e+01 3.156987190246582031e+01 -7.237115908723806834e-14 1.062366340731646375e-13 1.015964266518456019e-14 1.423325297683283863e-13
2.707000000000000000e+03 7.906034851074218750e+01 2.833361053466796875e+01 -8.368674507444173044e-15 -3.586574667899938840e-15 -3.586574667899938840e-15 -1.809469729000673377e-14
2.708000000000000000e+03 5.911455535888671875e+01 3.242575836181640625e+01 1.028560239367190543e-13 -5.964321376193681967e-13 -1.480728381705528895e-13 1.414933030767159816e-13
2.709000000000000000e+03 6.076485443115234375e+01 3.173441505432128906e+01 4.043850147859677502e-14 3.375874341356166486e-13 1.134077776349454170e-13 -5.187133207229348286e-14
2.710000000000000000e+03 1.425203132629394531e+01 -3.474653005599975586e+00 -3.446451023875196640e-14 -1.062723991923295030e-13 -4.222107215169808303e-14 -8.351887161462540066e-14
2.711000000000000000e+03 1.883041572570800781e+01 -6.189888477325439453e+00 4.041714693096354685e-15 1.847359613373067422e-13 5.663330047978032411e-14 6.819750249546438492e-14
2.712000000000000000e+03 1.370435142517089844e+01 -3.920110464096069336e+00 6.790388699462815425e-14 -1.996530789001929596e-13 -3.952475621641672598e-14 -1.134198597129050523e-13
2.713000000000000000e+03 1.318884468078613281e+01 -3.306172609329223633e+00 6.495685608322310234e-14 -2.009160931159756358e-13 -4.078777043219940224e-14 -1.292745665154365273e-14
2.714000000000000000e+03 1.266695690155029297e+01 -3.242536783218383789e+00 -1.838800108271837486e-14 3.787037550955288379e-14 5.844712836270121031e-15 -1.827245494669116344e-13
2.715000000000000000e+03 1.807275009155273438e+01 -3.301448822021484375e+00 1.629833285476597893e-13 4.697452279586733503e-14 6.298735540305813729e-14 1.953304190486018777e-13
2.716000000000000000e+03 5.960661697387695312e+01 3.188020896911621094e+01 -7.517608836327994981e-15 -1.862256280172475131e-13 -5.812297393598467310e-14 6.161508748960681237e-14
2.717000000000000000e+03 6.018851852416992188e+01 3.180573272705078125e+01 -4.718382124900208363e-14 -2.032254301908426042e-13 -7.512277610957976415e-14 5.201668631417410982e-14
2.718000000000000000e+03 5.845638275146484375e+01 3.203041076660156250e+01 -6.098634509725531228e-14 -3.921445958753044803e-13 -1.359392741602516441e-13 -1.119072011706440106e-13
2.719000000000000000e+03 6.187125778198242188e+01 3.161846923828125000e+01 9.418468338139723839e-14 4.036486382229427516e-14 4.036486382229427516e-14 3.793643459266970996e-13
2.720000000000000000e+03 7.470858001708984375e+01 3.160771751403808594e+01 -2.190327997100838253e-13 1.348835458473210402e-13 -2.524477853052108783e-14 6.610817714644903753e-14
2.721000000000000000e+03 7.402491760253906250e+01 3.160404968261718750e+01 5.164311175015002045e-16 1.832251256099481918e-13 5.512246475242177368e-14 -3.689962154189083132e-14
2.722000000000000000e+03 3.190857696533203125e+01 -1.197545146942138672e+01 -8.709471945728131104e-14 5.417558694947692544e-14 -9.875740091154494582e-15 1.011578245214278526e-13
2.723000000000000000e+03 3.137506484985351562e+01 8.435942649841308594e+00 1.232071763406297760e-14 -8.622159111898800021e-14 -2.217026238429068569e-14 1.104639451199491973e-13
2.724000000000000000e+03 3.116520500183105469e+01 9.210234642028808594e+00 8.708694708295730558e-14 8.307392859556450571e-14 5.104826338118290119e-14 6.684956390935704526e-15
2.725000000000000000e+03 3.898757553100585938e+01 -2.242149162292480469e+01 -1.092169499912649944e-13 -4.680726428197071187e-14 -4.680726428197071187e-14 3.266806855410642196e-14
2.726000000000000000e+03 1.831267547607421875e+01 -4.880269527435302734e+00 2.864249703843531336e-14 5.155358019821865145e-13 1.632534846239888648e-13 2.253199661355828609e-13
2.727000000000000000e+03 7.669403839111328125e+01 3.086467361450195312e+01 -1.158448879358398020e-13 4.185408665697068487e-14 -2.219724038366073515e-14 1.058994675263123797e-13
2.728000000000000000e+03 2.677187347412109375e+01 -3.820396184921264648e+00 -1.820187880627321952e-13 1.964976440024454596e-13 4.343655680771147873e-15 7.644108463615920113e-14
2.729000000000000000e+03 7.839539337158203125e+01 2.764775276184082031e+01 -5.170319942039529326e-14 1.150943354294095555e-13 1.901733978626474197e-14 7.468227662536016526e-15
2.730000000000000000e+03 7.342938232421875000e+01 3.102894783020019531e+01 1.948857428449193678e-15 -2.736704634610787057e-13 -8.151648572731623466e-14 6.670426472461798983e-14
2.731000000000000000e+03 7.471687316894531250e+01 3.100167465209960938e+01 8.177075824181839758e-14 2.180484119001027676e-13 8.994575104257634957e-14 1.618471388810036049e-13
2.732000000000000000e+03 2.444764518737792969e+01 -1.931553840637207031e+01 -9.382481635155856536e-14 5.540312064916501356e-15 -2.648535145539920865e-14 9.797138144154726724e-14
2.733000000000000000e+03 2.481483650207519531e+01 -2.002156448364257812e+01 -2.744324407479015182e-14 1.712424012268939921e-13 4.313974714563115209e-14 1.140665388749476095e-13
2.734000000000000000e+03 3.167771148681640625e+01 -1.021807575225830078e+01 -9.978927000041729056e-14 -4.276682903214118481e-14 -4.276682903214118481e-14 -4.487312553328771936e-14
2.735000000000000000e+03 2.472548675537109375e+01 -1.822844696044921875e+01 -1.013730132416778076e-14 1.853091586971090943e-14 2.518084533069528050e-15 5.753026771334115996e-14
2.736000000000000000e+03 2.369451904296875000e+01 -1.793796348571777344e+01 -4.687114073058905317e-14 2.566331783855017173e-14 -6.362346952314959156e-15 9.937866230890629593e-14
2.737000000000000000e+03 2.680533981323242188e+01 -4.855519771575927734e+00 -1.114340553425713365e-13 -4.775745228967342992e-14 -4.775745228967342992e-14 2.092674686695380343e-14
2.738000000000000000e+03 2.562106895446777344e+01 -2.682003259658813477e+00 -4.633634513410977984e-13 1.216723119826235155e-13 -1.025073377417841380e-13 2.186406031267143502e-13
2.739000000000000000e+03 4.257450866699218750e+01 -2.956136703491210938e+01 -5.119384801602518131e-14 2.983164117207476318e-13 7.413676877260355624e-14 -1.417883280403764434e-13
2.740000000000000000e+03 2.875137138366699219e+01 -2.947530364990234375e+01 -3.860123958215715134e-14 -3.711132421334306652e-13 -1.229143468863685973e-13 1.984146218636170800e-13
2.741000000000000000e+03 3.248244094848632812e+01 -1.155541419982910156e+01 -2.163768364244096631e-14 3.647765683262305103e-14 4.451992041757920140e-15 6.262910366504987822e-15
2.742000000000000000e+03 2.052062225341796875e+01 -1.245803070068359375e+01 -1.305260746356637011e-14 -1.885977675029557044e-13 -6.049511342169286432e-14 5.266287419710725948e-14
2.743000000000000000e+03 3.938658523559570312e+01 -2.307698440551757812e+01 8.364536412683656885e-14 2.188518057099145264e-13 9.074915162865168639e-14 -9.665028787063725813e-14
2.744000000000000000e+03 2.330987167358398438e+01 -1.726198959350585938e+01 -4.614958046787742685e-14 -1.570312348035673988e-13 -6.095424593668616331e-14 3.304454759410664633e-14
2.745000000000000000e+03 4.208190155029296875e+01 -2.587491416931152344e+01 -7.405814039817583405e-15 4.257702927745223020e-14 1.055136406307062569e-14 -6.462402634506078658e-14
2.746000000000000000e+03 4.276179122924804688e+01 -2.838434600830078125e+01 -2.156105595983465878e-14 2.195142938948846378e-13 5.938596782297661525e-14 -1.809498866934058925e-13
2.747000000000000000e+03 3.589476394653320312e+01 -1.699220466613769531e+01 -2.947350412232756234e-14 3.311944563543466058e-14 1.093782538635424198e-15 2.814154650683606956e-14
2.748000000000000000e+03 4.709031677246093750e+01 2.575683593750000000e+01 -2.293136383904603726e-14 -5.557867669781293984e-14 -2.355301148343133533e-14 -4.135799978855457526e-14
2.749000000000000000e+03 2.840727806091308594e+01 -5.610191345214843750e+00 -1.487468053460241912e-13 -1.094995811688412313e-13 -7.747391595445962675e-14 1.228003125347456453e-14
2.750000000000000000e+03 3.535685348510742188e+01 -3.752971267700195312e+01 -4.947519444912368280e-14 -6.695460022998131477e-14 -3.492893840373149927e-14 5.651627864295240625e-15
2.751000000000000000e+03 3.070943832397460938e+01 -9.953814506530761719e+00 -3.613898256712468060e-14 1.217647131127735927e-13 2.568771746962877911e-14 2.668349279055272361e-14
2.752000000000000000e+03 3.127223396301269531e+01 -9.547802925109863281e+00 3.009188221953645881e-14 1.289652131424403117e-14 1.289652131424403117e-14 1.836151775058952190e-14
2.753000000000000000e+03 3.625855636596679688e+01 -1.768763542175292969e+01 -4.770275259600564172e-15 -2.044403591932426011e-15 -2.044403591932426011e-15 -5.438155232796422836e-15
2.754000000000000000e+03 3.878028106689453125e+01 -2.354802703857421875e+01 -9.598288011830949373e-14 -4.113552150276054975e-14 -4.113552150276054975e-14 4.321556337067399001e-14
2.755000000000000000e+03 3.110573768615722656e+01 -1.063096237182617188e+01 1.623978830914401400e-14 9.846180674174392911e-14 3.441047970111250909e-14 1.648885834728414101e-14
2.756000000000000000e+03 4.062005233764648438e+01 -2.505706024169921875e+01 4.821017445932190837e-14 -2.508944454645591071e-14 6.936218973859799297e-15 1.947518481117821443e-14
2.757000000000000000e+03 4.020545578002929688e+01 -2.439533996582031250e+01 3.176505901101634756e-15 9.286325777357190558e-14 2.881192734480869655e-14 2.840140223901005921e-15
2.758000000000000000e+03 2.794202232360839844e+01 -2.463139152526855469e+01 -3.152583446033863090e-14 -3.223299719582600753e-13 -1.061567419255796119e-13 1.504285655458750814e-13
2.759000000000000000e+03 2.804938507080078125e+01 -2.644225883483886719e+01 -9.975180912129202188e-15 -9.577697657322734037e-14 -3.172564614446413134e-14 8.402549896103714278e-14
2.760000000000000000e+03 4.766903686523437500e+01 2.631216049194335938e+01 1.941847426129364451e-14 2.828279060604343975e-13 9.067390799788119238e-14 -4.668391595605975164e-14
2.761000000000000000e+03 2.955050277709960938e+01 3.055204391479492188e+00 1.909470845329330757e-13 2.190873079743055341e-13 1.230103123311607205e-13 -3.423510661158118973e-14
2.762000000000000000e+03 2.356955146789550781e+01 8.931173682212829590e-01 9.333962910310772410e-14 7.145647870068425056e-14 4.943883301876395020e-14 7.869387379146747241e-14
2.763000000000000000e+03 2.530616188049316406e+01 1.207070589065551758e+00 1.500379681607100224e-13 -3.217216532243327709e-13 -5.150510551908682455e-14 7.399773339650944637e-14
2.764000000000000000e+03 2.872395896911621094e+01 4.198299407958984375e+00 1.590121534878613518e-13 -5.766704659366378438e-14 3.040352935775383902e-14 5.095405976492106692e-14
2.765000000000000000e+03 3.023247718811035156e+01 3.470220804214477539e+00 8.379825018568418105e-14 -2.127515015288433675e-14 1.875692967102677439e-14 -1.728067558839918583e-13
2.766000000000000000e+03 2.717312240600585938e+01 2.420505523681640625e+00 1.906043140161017835e-13 4.737434945202567693e-14 7.139359497468009130e-14 -1.144723150905274656e-13
2.767000000000000000e+03 2.591270828247070312e+01 1.619987607002258301e+00 1.641260369798780427e-13 -7.835085255288379291e-14 2.573255431165873824e-14 1.372387175690298333e-14
2.768000000000000000e+03 2.299625778198242188e+01 4.558495581150054932e-01 8.217602623762990111e-14 -9.059681444715389498e-14 -2.526236378153903436e-15 1.691464486920993271e-13
2.769000000000000000e+03 2.479269027709960938e+01 1.746162056922912598e+00 3.030432079321326855e-13 -1.274734305741972995e-13 5.267092778636975337e-14 4.867163800898605119e-14
2.770000000000000000e+03 2.847946929931640625e+01 3.219859838485717773e+00 2.062222869683369431e-13 8.838097625713664529e-14 8.838097625713664529e-14 4.578677931590946493e-14
2.771000000000000000e+03 2.653600311279296875e+01 2.023233652114868164e+00 9.703150690701031755e-14 -3.358604084950644886e-13 -7.164866708828446229e-14 5.996535868768929078e-14
2.772000000000000000e+03 2.472341728210449219e+01 7.846280336380004883e-01 6.845462781693290033e-14 -1.400837860423762016e-13 -2.148874645119345367e-14 6.553371940162117104e-14
2.773000000000000000e+03 3.083507919311523438e+01 5.522154331207275391e+00 6.819918300883173745e-14 1.779048371293445729e-14 2.579690001652985842e-14 -6.648238952628240939e-14
2.774000000000000000e+03 3.010058593750000000e+01 5.051557540893554688e+00 1.473017671380083549e-13 -2.342518269204257875e-13 -2.608501827353840868e-14 -5.775466622282661097e-15
2.775000000000000000e+03 3.741576385498046875e+01 -1.974318504333496094e+01 -4.167313670251464319e-14 -1.785991669768678680e-14 -1.785991669768678680e-14 1.744945469584271991e-14
2.776000000000000000e+03 1.646348762512207031e+01 -3.485845088958740234e+00 -5.735196558387823523e-15 -1.397107933899868759e-13 -4.363379435871027334e-14 2.125600856352910517e-13
2.777000000000000000e+03 2.006948089599609375e+01 -9.890707969665527344e+00 -6.239466950920535826e-14 -1.296802021235471392e-13 -5.762245877932031801e-14 5.938688261855964989e-14
2.778000000000000000e+03 4.180352020263671875e+01 1.864191436767578125e+01 1.803885410186015226e-15 7.730936942830187505e-16 7.730936942830187505e-16 -1.497470225077235373e-13
2.779000000000000000e+03 4.360612106323242188e+01 2.243435096740722656e+01 3.648644564648376165e-14 1.528898942127973615e-13 5.681290195778433694e-14 8.256652875510486767e-14
2.780000000000000000e+03 4.432691192626953125e+01 2.407279968261718750e+01 -3.466032731549821555e-14 7.664746929595539493e-14 1.259614310235692217e-14 4.297327129017779190e-14
2.781000000000000000e+03 4.594474792480468750e+01 2.465631866455078125e+01 -7.501342754422102299e-14 1.051042323378485743e-13 9.027241776901444303e-15 8.957293457304005280e-14
2.782000000000000000e+03 4.190221405029296875e+01 -2.704179573059082031e+01 -8.053674812821560308e-15 -9.495347081311597548e-14 -3.090214377248455546e-14 -5.733134371974438204e-14
2.783000000000000000e+03 4.086342620849609375e+01 -2.687817955017089844e+01 -6.698089890892766629e-14 1.704484907979596925e-14 -1.498081613458563527e-14 -8.228277271777467705e-14
2.784000000000000000e+03 4.402714157104492188e+01 -3.043171691894531250e+01 4.123301838312130874e-14 4.751807671302121783e-13 1.549241420914504452e-13 -6.902273620278814859e-14
2.785000000000000000e+03 3.438282394409179688e+01 1.376515769958496094e+01 -1.635552180885915807e-13 2.140680278981017814e-14 -4.264452425082124187e-14 -5.594712247734140442e-14
2.786000000000000000e+03 2.768739700317382812e+01 -2.575819015502929688e+01 -6.471374407483396207e-14 -5.767458450926798985e-13 -1.924378760726278004e-13 1.313966567929175655e-13
2.787000000000000000e+03 3.185133171081542969e+01 -3.251070022583007812e+01 -5.757152838226781144e-14 -3.220546930266660057e-13 -1.138878623569219983e-13 6.913377883404139834e-14
2.788000000000000000e+03 3.288969802856445312e+01 -3.489324569702148438e+01 -7.218771207965352099e-14 -2.482545961336735107e-13 -9.613269652975625634e-14 -9.251044822224975539e-15
2.789000000000000000e+03 2.334698104858398438e+01 -1.493847250938415527e+00 -4.167145686677364846e-13 -1.785919502561572614e-13 -1.785919502561572614e-13 2.346725515734587875e-13
2.790000000000000000e+03 2.666863822937011719e+01 -2.554900360107421875e+01 -3.181186732223104108e-14 -3.338903047274410785e-13 -1.097106482267698468e-13 7.766089339536833003e-14
2.791000000000000000e+03 1.850850296020507812e+01 -7.250490665435791016e+00 3.048943882739615918e-14 1.503197523053390050e-13 5.424275666219419145e-14 1.285955527176654845e-13
2.792000000000000000e+03 3.604710388183593750e+01 -1.878083801269531250e+01 -5.258116262275153163e-15 2.265012721651415983e-13 6.637294609323357575e-14 2.066749718685357423e-14
2.793000000000000000e+03 2.229505157470703125e+01 -1.696025085449218750e+01 -8.215365101529523151e-14 -1.724615594647996297e-13 -7.638455704539123814e-14 -3.723545994108179436e-14
2.794000000000000000e+03 3.663578414916992188e+01 -1.837407112121582031e+01 1.795698328531034060e-14 -8.380604966506249864e-14 -1.975471923629928961e-14 -1.299726521070479479e-13
2.795000000000000000e+03 4.419199752807617188e+01 2.298525428771972656e+01 1.910566499387263140e-14 -3.756280768200948028e-14 -5.537142467627875764e-15 5.735054087446095350e-14
2.796000000000000000e+03 7.744435882568359375e+01 -1.855182075500488281e+01 -1.400995628780517602e-14 4.972561533540809098e-13 1.449738631009375722e-13 -3.027381134407952645e-14
2.797000000000000000e+03 7.748200225830078125e+01 -1.136083602905273438e+01 -4.767140051849597104e-14 -1.119324969625808130e-13 -4.788116992194939303e-14 2.050089427645812590e-13
2.798000000000000000e+03 7.819598388671875000e+01 -1.306292438507080078e+01 -4.113226211997951520e-14 3.712549473573745207e-13 9.903680658765803835e-14 -7.998532798548715905e-14
2.799000000000000000e+03 7.748877716064453125e+01 -6.563335895538330078e+00 1.105861414810518917e-13 2.761488141021090081e-13 1.160204880302009856e-13 1.813714922607040370e-13
2.800000000000000000e+03 7.820463562011718750e+01 -4.276124000549316406e+00 2.904685227154285565e-13 2.617393606539619721e-13 1.656623650108171586e-13 2.115865127419805369e-13
2.801000000000000000e+03 7.894261932373046875e+01 1.798091888427734375e+01 2.257774621829220646e-14 5.542712556289020043e-14 2.340146204257449042e-14 4.264144782715681425e-14
2.802000000000000000e+03 7.823160552978515625e+01 1.569656276702880859e+01 -4.001172223405680128e-14 2.573578015193506152e-13 6.520383056185172221e-14 5.305609738440880685e-14
2.803000000000000000e+03 7.900045776367187500e+01 2.595773506164550781e+01 9.447193935886548377e-15 1.413016432376748566e-13 4.522465098266183203e-14 6.294931345933105216e-14
2.804000000000000000e+03 7.757132720947265625e+01 2.058898735046386719e+01 -4.923715786215449031e-14 2.076531085753660633e-13 4.752478250345804067e-14 1.341631477138130468e-13
2.805000000000000000e+03 7.892752838134765625e+01 6.797151088714599609e+00 3.300105414633103251e-13 4.993119294221214088e-14 1.139825267591071389e-13 -1.078249157169565431e-13
2.806000000000000000e+03 7.892311859130859375e+01 -3.944183588027954102e-01 1.159120976285121785e-12 1.228781291127967190e-12 7.163707019079701421e-13 8.614137506600394456e-13
2.807000000000000000e+03 7.820446777343750000e+01 -3.477697372436523438e+00 -3.267920059991241688e-13 4.547086177638520743e-13 3.837497675315479362e-14 -4.173222572091510318e-14
2.808000000000000000e+03 7.892059326171875000e+01 -7.584336280822753906e+00 -1.305231286550731507e-13 3.558200554944906946e-13 6.758908211758341000e-14 6.631148538258080372e-14
2.809000000000000000e+03 7.819803619384765625e+01 -1.226539421081542969e+01 -9.036439707675678751e-15 1.791310291288442103e-13 5.102837843571315923e-14 1.261531484608507600e-14
2.810000000000000000e+03 7.891223907470703125e+01 -1.557287502288818359e+01 -1.308809831346291475e-13 3.099157486630838010e-13 5.371042355989917583e-14 1.233031824430033674e-13
2.811000000000000000e+03 7.817966461181640625e+01 -1.706113815307617188e+01 -1.670484603136159363e-15 9.078597384493472533e-14 2.673464680430330531e-14 4.278225180804479111e-14
2.812000000000000000e+03 7.853781890869140625e+01 3.070686149597167969e+01 5.284982453296165061e-14 2.056537177965583885e-13 7.755106371529554843e-14 -5.180991794845280982e-15
2.813000000000000000e+03 7.850915527343750000e+01 2.995794677734375000e+01 6.471678577014755226e-15 2.773576563257500356e-15 2.773576563257500356e-15 8.723645178627947860e-14
2.814000000000000000e+03 7.816032409667968750e+01 -2.105646324157714844e+01 6.038321020496520419e-14 4.605125417285471645e-13 1.562687289681854996e-13 3.020435803053646284e-14
2.815000000000000000e+03 7.820089721679687500e+01 -7.472924709320068359e+00 6.099819000598971641e-14 3.692741913034064405e-13 1.290817225243351407e-13 9.510456793837898659e-14
2.816000000000000000e+03 7.892211151123046875e+01 -5.985743045806884766e+00 -2.809686619649476302e-13 6.573510182364405985e-13 1.129147028156897437e-13 -2.777492693034188526e-14
2.817000000000000000e+03 7.892562866210937500e+01 2.802313566207885742e+00 -4.031510097545626392e-13 -3.552615761791798332e-14 -1.316031430966674298e-13 1.846125520250235796e-13
2.818000000000000000e+03 7.820483398437500000e+01 -2.834875881671905518e-01 8.081818634458892703e-13 -1.111458337475432212e-13 2.091108048437456679e-13 2.367818126899207121e-13
2.819000000000000000e+03 7.893116760253906250e+01 9.992552757263183594e+00 1.695153349287603639e-13 -1.103543661616288030e-13 1.774829130776582609e-14 -6.405132365249963100e-14
2.820000000000000000e+03 7.821286773681640625e+01 6.909825325012207031e+00 -2.038056003258667537e-13 -2.932245375328323966e-13 -1.491090372918515983e-13 5.580336404553340457e-14
2.821000000000000000e+03 7.821449279785156250e+01 7.708546161651611328e+00 2.521516524224554079e-13 6.231404552515390494e-14 9.433970396327193142e-14 -1.275467497461116317e-13
2.822000000000000000e+03 7.821044921875000000e+01 5.311999797821044922e+00 -2.062489176841986183e-13 3.109502206842030582e-15 -6.094182504554762625e-14 1.338803471296473591e-13
2.823000000000000000e+03 7.821168518066406250e+01 6.111065387725830078e+00 2.700886389539469690e-13 2.987560828067448160e-13 1.706534083966912418e-13 -1.120813308158087607e-13
2.824000000000000000e+03 7.749350738525390625e+01 6.237820982933044434e-01 7.873092911121759574e-13 -3.030950056909231805e-13 1.452642802053649707e-13 1.073427100244800370e-13
2.825000000000000000e+03 7.820938873291015625e+01 3.712985754013061523e+00 -1.360203589302264038e-13 -5.829444050956325563e-14 -5.829444050956325563e-14 2.003034206326994443e-14
2.826000000000000000e+03 7.820820617675781250e+01 2.114148139953613281e+00 3.890835678817261556e-13 -3.912917150125823362e-14 1.049863185753271977e-13 -3.912720299668881463e-13
2.827000000000000000e+03 7.820593261718750000e+01 5.155899524688720703e-01 9.316512405294075094e-13 2.849017137658560461e-13 3.649658971306007915e-13 -8.956670718681183918e-14
2.828000000000000000e+03 7.820439910888671875e+01 -1.082231044769287109e+00 7.659429731091127458e-13 9.230235933216368593e-13 5.066899590872031567e-13 6.632856156679745041e-13
2.829000000000000000e+03 7.820400238037109375e+01 -5.074815750122070312e+00 -2.445204141162532485e-13 6.043452413853622751e-13 1.079474441149745612e-13 -4.046695162122915246e-14
2.830000000000000000e+03 7.820199584960937500e+01 -6.673337459564208984e+00 -2.202805808853430802e-13 3.631035359538681284e-13 4.284688381005208324e-14 -1.259164620443994909e-13
2.831000000000000000e+03 7.819889831542968750e+01 -1.146784114837646484e+01 -9.111937278923759598e-14 3.727073716926904146e-13 8.447639831578312997e-14 -1.253666360176777794e-13
2.832000000000000000e+03 7.820032501220703125e+01 -8.272437095642089844e+00 -1.922230956222584219e-13 3.751281511983617367e-13 5.487151938333642565e-14 -3.444652264708407408e-14
2.833000000000000000e+03 7.748612213134765625e+01 -8.163499832153320312e+00 5.529603196770954687e-14 3.439549534946240161e-13 1.197752969939527845e-13 8.294831699761848198e-14
2.834000000000000000e+03 7.818676757812500000e+01 -1.546054649353027344e+01 -1.847858075321867632e-13 4.240665164943063781e-13 7.178421268863588445e-14 4.041485231870943495e-14
2.835000000000000000e+03 7.891647338867187500e+01 -1.397410488128662109e+01 3.179176553632680202e-14 5.937599316298974861e-14 2.735032625454224958e-14 8.057689748991545692e-15
2.836000000000000000e+03 7.819047546386718750e+01 -1.466044712066650391e+01 8.604225052713174171e-14 4.257583055642527592e-13 1.535401715707998549e-13 2.031898005969492993e-13
2.837000000000000000e+03 7.816539001464843750e+01 -2.025806617736816406e+01 -5.385237696449657677e-15 1.578203578022838172e-13 4.573053632821177938e-14 -3.213702294189123287e-14
2.838000000000000000e+03 7.816944885253906250e+01 -1.945947456359863281e+01 -5.659634951448930251e-14 3.875029637445681630e-13 9.927198359139730033e-14 -6.659911320751289374e-15
2.839000000000000000e+03 7.746070861816406250e+01 -1.615077781677246094e+01 -7.115833665577789291e-14 3.355111598702525955e-13 7.930584493146333736e-14 -1.448577789295822649e-14
2.840000000000000000e+03 7.895804595947265625e+01 2.197783851623535156e+01 5.233631250275462554e-14 2.242984918350392209e-14 2.242984918350392209e-14 -4.220942375460744189e-14
2.841000000000000000e+03 7.895061492919921875e+01 2.037912368774414062e+01 7.373800598982696575e-14 1.231039060837005317e-13 5.905256887867374460e-14 -7.442841915700215694e-14
2.842000000000000000e+03 7.824037933349609375e+01 1.809140968322753906e+01 2.245313242515804830e-14 2.383775143423305654e-13 7.824919504668612080e-14 8.016167346884192635e-14
2.843000000000000000e+03 7.824443054199218750e+01 1.889034080505371094e+01 2.979806343079288711e-14 1.271479666345443071e-13 4.708381037485387388e-14 7.981783230236530469e-14
2.844000000000000000e+03 7.893168640136718750e+01 1.159013652801513672e+01 1.525040266596097704e-13 1.111098179066259684e-13 7.908415269224436384e-14 -4.766567457577253197e-14
2.845000000000000000e+03 7.751098632812500000e+01 1.021408367156982422e+01 2.265918030465441380e-13 5.135982242797376696e-14 8.338548764235537147e-14 -1.219180057474358869e-13
2.846000000000000000e+03 7.893528747558593750e+01 1.398689746856689453e+01 -1.322621347296312755e-13 -1.024347165250183433e-13 -7.040905808690031686e-14 -3.608186713549132313e-15
2.847000000000000000e+03 7.822299957275390625e+01 1.330025100708007812e+01 -6.554592345232521100e-14 4.053531395633615253e-14 -7.503183018203306992e-15 9.269247560261470453e-14
2.848000000000000000e+03 7.833318328857421875e+01 2.607105255126953125e+01 -7.964676214020603717e-15 -4.916438079132640082e-14 -1.713871727101069081e-14 -3.581172969388708716e-14
2.849000000000000000e+03 7.735683441162109375e+01 -2.415299797058105469e+01 -6.515231740613150468e-14 2.008323249456239745e-13 4.070400226184774095e-14 -7.749864931651945232e-14
2.850000000000000000e+03 7.888956451416015625e+01 -2.276604843139648438e+01 -1.152639859643492248e-13 2.251068390935265229e-13 3.295285797163226282e-14 -6.877987576318434285e-15
2.851000000000000000e+03 7.793448638916015625e+01 3.075793457031250000e+01 3.785799527599581493e-14 2.449796008413551718e-13 8.485127476944714919e-14 5.602715353832977974e-14
2.852000000000000000e+03 7.664194488525390625e+01 3.017886924743652344e+01 -6.506686872241249087e-14 -1.193876947172892167e-13 -5.533637106478958567e-14 3.823813688645996689e-14
2.853000000000000000e+03 7.822576904296875000e+01 1.409901809692382812e+01 -5.379060285165332064e-15 1.806984873146608161e-13 5.259582645713439808e-14 1.966586039793462998e-14
2.854000000000000000e+03 7.821727752685546875e+01 9.306021690368652344e+00 1.794858613948444037e-13 -1.457938350395929922e-14 4.947194523073801531e-14 -1.056124182248832644e-13
2.855000000000000000e+03 7.822100067138671875e+01 1.250114059448242188e+01 8.717244997678494367e-14 8.311056785273093772e-14 5.108490602648112222e-14 -3.404671293158467726e-14
2.856000000000000000e+03 7.682247924804687500e+01 1.271358013153076172e+01 1.040160253935884516e-13 4.105858990473276737e-13 1.543805773322748376e-13 -1.004564067022019336e-13
2.857000000000000000e+03 7.751982879638671875e+01 -3.833240890502929688e+01 1.467439180152102507e-14 6.289024815785311529e-15 6.289024815785311529e-15 -1.185980126768276105e-14
2.858000000000000000e+03 7.696343231201171875e+01 -4.066292953491210938e+01 1.639338485922778310e-13 2.075102107290324738e-13 1.114332150858876602e-13 -1.089788778289120172e-14
2.859000000000000000e+03 7.868759918212890625e+01 -3.629391479492187500e+01 -5.255396270074930154e-14 -2.252312614572146016e-14 -2.252312614572146016e-14 3.451781910432036304e-14
2.860000000000000000e+03 7.763236236572265625e+01 -3.683882904052734375e+01 2.238339112041291823e-14 3.246835512580280303e-14 1.645552421267789528e-14 6.206513642327375624e-15
2.861000000000000000e+03 7.879876708984375000e+01 -2.998917770385742188e+01 3.754371894751015737e-14 6.184111653751572790e-14 2.981544793500233437e-14 -6.568299625308053266e-15
2.862000000000000000e+03 7.784169006347656250e+01 -3.229129409790039062e+01 4.067137794085129432e-14 -1.655732029346573819e-13 -3.747054885339454189e-14 -8.242241287539312650e-15
2.863000000000000000e+03 7.662378692626953125e+01 -2.323707962036132812e+01 -4.789576938182826815e-14 1.624770332381633708e-13 3.437437915690053081e-14 1.835807710275777493e-14
2.864000000000000000e+03 7.826523590087890625e+01 2.208954238891601562e+01 3.502845122250672349e-14 -7.863280441003633187e-15 8.149551319154221818e-15 -1.607086452847308888e-14
2.865000000000000000e+03 7.825505065917968750e+01 2.048944091796875000e+01 -2.426944550274617862e-14 3.534975792445459175e-14 3.324093980622408115e-15 5.022266714375771268e-14
2.866000000000000000e+03 7.814427947998046875e+01 -2.265613365173339844e+01 2.572970150469238576e-14 2.626572462131882002e-13 8.651608075782579732e-14 7.495431142076625086e-14
2.867000000000000000e+03 7.874591827392578125e+01 -3.476219177246093750e+01 3.903650270869682415e-14 1.997337299892987250e-13 7.163106913177230695e-14 1.841276493796430158e-14
2.868000000000000000e+03 7.873693847656250000e+01 -3.237281417846679688e+01 -1.091812865160537993e-13 -1.382938766758198823e-13 -7.424254624705667327e-14 -6.277033370351032399e-15
2.869000000000000000e+03 7.831008911132812500e+01 2.527974700927734375e+01 5.913432195764388791e-15 -4.321662046779216337e-14 -1.119095610044350611e-14 4.058274102511881531e-14
2.870000000000000000e+03 7.829223632812500000e+01 2.448586654663085938e+01 6.661001367451110933e-14 -1.087056944568294548e-13 -1.262870389588232473e-14 3.267950349889435502e-14
2.871000000000000000e+03 7.825952911376953125e+01 2.128930664062500000e+01 -3.770465859562026345e-14 -1.615913891410414305e-14 -1.615913891410414305e-14 5.398997831381098511e-14
2.872000000000000000e+03 7.754194641113281250e+01 1.740026473999023438e+01 -6.761555697938279041e-14 -1.204800013010140503e-13 -5.642866748411905220e-14 -9.482351732428232621e-15
2.873000000000000000e+03 7.823461914062500000e+01 1.649513053894042969e+01 -2.625057086307926169e-14 -5.700119060569538987e-14 -2.497552877944557437e-14 -1.109660340638295509e-14
2.874000000000000000e+03 7.799277496337890625e+01 -2.989721870422363281e+01 -1.581484204390189857e-14 1.075995846241961651e-13 2.753542158824215380e-14 2.516187433377562593e-14
2.875000000000000000e+03 7.815338134765625000e+01 -2.185554313659667969e+01 -1.201747170742964443e-13 1.315003471781886479e-13 3.397686108903993051e-15 -8.019659833132311566e-14
2.876000000000000000e+03 7.805570220947265625e+01 -2.748415184020996094e+01 5.181181614928760670e-14 2.280843428622419955e-13 8.396884262126119713e-14 -6.979220803712826715e-14
2.877000000000000000e+03 7.806456756591796875e+01 -2.667920303344726562e+01 -5.120314843778603353e-14 6.955768833095607451e-14 5.506363407907022625e-15 -4.707174184942139461e-14
2.878000000000000000e+03 7.808371734619140625e+01 -2.586968231201171875e+01 -5.501026676822846906e-14 1.594279721260638549e-13 3.132531126853743686e-14 -6.318175285258478824e-14
2.879000000000000000e+03 7.803929138183593750e+01 -2.909112739562988281e+01 -1.262746722777933345e-14 6.321465161225614526e-14 1.517615548474963300e-14 -5.779974531627948484e-15
2.880000000000000000e+03 7.787498474121093750e+01 -3.542035675048828125e+01 1.064984350165019966e-14 3.248208722394368975e-13 1.006412089625020878e-13 6.867206329207544736e-16
2.881000000000000000e+03 7.792115783691406250e+01 -3.069247817993164062e+01 4.891730805687589945e-14 4.384003671697132842e-14 2.782720241571463166e-14 -3.302117287289421665e-14
2.882000000000000000e+03 7.787499237060546875e+01 -3.468334197998046875e+01 -2.579201263642420111e-14 -1.105371897529641712e-14 -1.105371897529641712e-14 -2.499965397184927135e-14
2.883000000000000000e+03 7.785962677001953125e+01 -3.310202026367187500e+01 -1.727366147796956242e-14 -1.446558394986932616e-13 -4.857885063181202612e-14 -4.252642752918325830e-14
2.884000000000000000e+03 3.406909561157226562e+01 -3.719942474365234375e+01 2.490490994856708884e-14 4.927589437289832397e-14 2.225424231287916055e-14 9.098686973123271127e-14
2.885000000000000000e+03 3.200020599365234375e+01 7.268836498260498047e+00 4.451796800663578024e-14 5.339233897128266293e-14 2.937309344862824856e-14 3.561866716828530899e-14
2.886000000000000000e+03 2.838947296142578125e+01 -2.712283134460449219e+01 -6.038822464001294965e-14 -2.546354240743481379e-13 -9.450709122617653724e-14 1.188666136006655272e-13
2.887000000000000000e+03 2.872056388854980469e+01 -2.780548858642578125e+01 -9.545593075742722644e-14 -3.154153912880708344e-13 -1.232614000017812073e-13 1.798848206892647572e-13
2.888000000000000000e+03 3.638542938232421875e+01 1.503803825378417969e+01 -1.306631533656496535e-13 -1.475003929760076993e-13 -8.344906254724449024e-14 -6.581439901528693404e-14
2.889000000000000000e+03 3.554545211791992188e+01 -1.627456665039062500e+01 -2.233640789689461670e-14 8.192915340295495175e-14 1.787782297419174271e-14 -8.106025345313433439e-14
2.890000000000000000e+03 3.209045410156250000e+01 8.855645179748535156e+00 9.198012767023741598e-14 8.517099921384954642e-14 5.314533738759973092e-14 3.385267801215945116e-14
2.891000000000000000e+03 1.207472920417785645e+00 -3.408558654785156250e+01 -8.477117255769120452e-14 1.924242422303087952e-13 3.229592293466435060e-14 2.432564952692829047e-14
2.892000000000000000e+03 2.095654726028442383e+00 -3.254771804809570312e+01 -1.557781173207404418e-14 2.220785404530301044e-13 6.195022115738565982e-14 -3.784349746007061033e-14
2.893000000000000000e+03 1.238386154174804688e+00 -3.645374679565429688e+01 6.653913395748486947e-14 7.426772006624907108e-14 4.224205823999925558e-14 2.857223396139467464e-14
2.894000000000000000e+03 3.003791809082031250e+00 -3.569576644897460938e+01 -5.125445830559891003e-14 6.953569935564535287e-14 5.484372738530406480e-15 -8.578229950375118595e-14
2.895000000000000000e+03 1.073881149291992188e+00 -1.393986606597900391e+01 6.918893761956659838e-14 9.827882729634626613e-14 5.024032947477385935e-14 -6.511416704218717100e-14
2.896000000000000000e+03 1.747977375984191895e+00 -1.076024818420410156e+01 -3.342754201153715077e-14 7.717580779087115928e-14 1.312448075023973926e-14 -4.424653460462224519e-14
2.897000000000000000e+03 1.841315746307373047e+00 -1.876370811462402344e+01 4.661729850882409543e-14 1.997884246007688297e-14 1.997884246007688297e-14 -7.929492837083912393e-14
2.898000000000000000e+03 1.819333910942077637e+00 -1.635190963745117188e+01 -1.655792371973736216e-14 1.301565870056101137e-13 3.407960152686066724e-14 -1.766335965295781629e-13
2.899000000000000000e+03 1.210810303688049316e+00 -2.759758186340332031e+01 -6.640333001208453476e-15 1.344069847824050368e-13 3.832999591552380125e-14 -5.797818551211281202e-14
2.900000000000000000e+03 1.924866437911987305e+00 -2.515161132812500000e+01 -5.515500437012349488e-14 2.508678215249610099e-13 5.871385056746211695e-14 -5.579028585682779817e-14
2.901000000000000000e+03 1.070769906044006348e+00 -7.517606258392333984e+00 2.188242915386888650e-15 9.243971419489044328e-14 2.838838715425902326e-14 4.698186826558592433e-14
2.902000000000000000e+03 3.597219705581665039e+00 -3.529230356216430664e+00 6.347307120006806525e-14 -6.429915194033908321e-14 -2.478244232516303627e-16 1.369745195224517445e-14
2.903000000000000000e+03 1.132144093513488770e+00 -5.081083774566650391e+00 2.405741621538948216e-14 -3.544062761903603309e-14 -3.414963039929139015e-15 -4.761937575487561192e-14
2.904000000000000000e+03 1.872867703437805176e+00 -2.276151275634765625e+01 5.076095658173782055e-14 6.750564598414707240e-14 3.547998076976546789e-14 -1.266388795044537385e-13
2.905000000000000000e+03 1.156968712806701660e+00 -2.517637062072753906e+01 3.185165754196125909e-14 1.365071013311684039e-14 1.365071013311684039e-14 -2.877348221339871837e-14
2.906000000000000000e+03 1.111177682876586914e+00 -2.036340904235839844e+01 1.328394571398867560e-14 5.693119773216492527e-15 5.693119773216492527e-15 1.062365408995404395e-14
2.907000000000000000e+03 1.846250414848327637e+00 -1.956785964965820312e+01 -5.347714729809355250e-14 -2.291877692944983835e-14 -2.291877692944983835e-14 7.759286648530844266e-14
2.908000000000000000e+03 1.746335625648498535e+00 -9.163387298583984375e+00 4.192121571210648268e-14 1.094681325295755736e-13 4.541680548894415359e-14 9.765244304371992201e-14
2.909000000000000000e+03 1.057929515838623047e+00 -1.153712940216064453e+01 -1.359258978159486042e-13 3.324794392166492696e-14 -3.080338650709828208e-14 -1.231599627241498213e-14
2.910000000000000000e+03 1.092009782791137695e+00 -1.634525108337402344e+01 1.842357646650305547e-14 -8.360608212687470342e-14 -1.955475000404559988e-14 8.258358948097022697e-16
2.911000000000000000e+03 1.798392295837402344e+00 -1.474510097503662109e+01 -2.577531084077024082e-14 8.045533640352320326e-14 1.640400766882588873e-14 5.459473950935982145e-14
2.912000000000000000e+03 1.858186006546020508e+00 -2.116169166564941406e+01 -4.755566871284672148e-14 -2.038100015090606870e-14 -2.038100015090606870e-14 -6.830521798130081979e-14
2.913000000000000000e+03 2.072928905487060547e+00 -2.838166618347167969e+01 -1.228141784640921982e-14 1.319893765680882347e-13 3.591238770120699919e-14 -9.147135902453501499e-14
2.914000000000000000e+03 2.035018444061279297e+00 -3.811540603637695312e+01 2.114258780257314424e-14 2.835667898409832688e-13 9.141281888348437579e-14 -5.730322222589553927e-14
2.915000000000000000e+03 2.131851434707641602e+00 -3.173233985900878906e+01 -2.091636901928404374e-14 2.655415221475970755e-13 7.338755119009818251e-14 3.705338173874000995e-14
2.916000000000000000e+03 3.038491010665893555e+00 -3.093354988098144531e+01 -4.535978323093499409e-14 2.093148381400802838e-13 4.918651545630405020e-14 2.133473383852599325e-14
2.917000000000000000e+03 2.106424093246459961e+00 -2.920351600646972656e+01 -2.024771443445792102e-14 8.282430459787687438e-14 1.877297755724545436e-14 5.163608052965486250e-14
2.918000000000000000e+03 2.032485961914062500e+00 -2.756924247741699219e+01 -7.453136415327965558e-14 1.053108338380792652e-13 9.233839041967398936e-15 2.267181727389779543e-15
2.919000000000000000e+03 1.903588294982910156e+00 -2.435523796081542969e+01 3.659094240712063018e-14 -7.582006718428666026e-14 -1.176873675552345122e-14 2.801165400437462261e-14
2.920000000000000000e+03 2.622595310211181641e+00 -2.355731964111328125e+01 9.187525143884017753e-14 -5.212678704479001279e-14 1.192453999584140723e-14 -2.299275001079945091e-14
2.921000000000000000e+03 1.865360736846923828e+00 -2.195982170104980469e+01 -3.336838385407237114e-16 -9.164490591103205408e-14 -2.759357717633473955e-14 1.127741190633680529e-14
2.922000000000000000e+03 1.851305246353149414e+00 -2.036683082580566406e+01 -1.488953817012361736e-14 -1.436340738188157662e-13 -4.755708495193453067e-14 -6.079883910778752232e-14
2.923000000000000000e+03 2.557496786117553711e+00 -1.719477844238281250e+01 -1.557161992122961525e-14 1.763302503142438749e-13 4.822758606858566777e-14 -6.046259413278187722e-14
2.924000000000000000e+03 1.809921026229858398e+00 -1.554394817352294922e+01 5.867997602583552297e-14 1.166504637025236879e-13 5.259912988562868985e-14 -1.176031978912658524e-14
2.925000000000000000e+03 1.786351919174194336e+00 -1.395437717437744141e+01 -9.989317722612287009e-14 -2.258151619253384590e-13 -9.771250106781204092e-14 5.949848090342629847e-14
2.926000000000000000e+03 1.756125330924987793e+00 -1.155694580078125000e+01 -7.519002374932817756e-14 1.352665368766197557e-14 -1.849901152671962895e-14 2.613060728082552964e-14
2.927000000000000000e+03 2.429058551788330078e+00 -1.002445316314697266e+01 -1.223495470112053243e-14 -9.674544694006359524e-14 -3.269411989943217522e-14 -2.313164477942431657e-14
2.928000000000000000e+03 1.755602121353149414e+00 -8.352586746215820312e+00 -5.681018806422133416e-14 -1.387245895413669050e-13 -5.866043328167647175e-14 9.460332094524820379e-14
2.929000000000000000e+03 2.004722833633422852e+00 -2.674909353256225586e+00 -8.907247362648432198e-14 -3.817391823653093486e-14 -3.817391823653093486e-14 -3.029838207581347920e-14
2.930000000000000000e+03 2.048907518386840820e+00 -3.334119033813476562e+01 -1.176181954566299370e-13 2.698488405384474875e-13 4.566919420217162295e-14 4.201883795334343530e-14
2.931000000000000000e+03 2.039974689483642578e+00 -3.411993408203125000e+01 7.376864994779273182e-15 9.466341285065821287e-14 3.061208242189500384e-14 8.218516741719666951e-14
2.932000000000000000e+03 2.109855890274047852e+00 -3.647063827514648438e+01 -6.915112606880116641e-14 1.611475099953622869e-14 -1.591091252077948132e-14 -3.495525402333679588e-14
2.933000000000000000e+03 4.460952758789062500e+01 -3.307743072509765625e+01 1.258754520972252267e-13 5.572070582715582532e-13 2.049247544658877596e-13 -1.134779390680323852e-13
2.934000000000000000e+03 4.485388565063476562e+01 -3.181934165954589844e+01 7.542376418518889625e-14 5.355849227658970868e-13 1.833026054076994371e-13 -2.342508917960520187e-14
2.935000000000000000e+03 5.010875320434570312e+01 2.967127227783203125e+01 1.629867708895574308e-13 2.410052680427293703e-14 5.612619201865454155e-14 4.929887268269143863e-14
2.936000000000000000e+03 5.110444259643554688e+01 2.975365447998046875e+01 1.052514873216628399e-13 -1.836469615702079894e-13 -2.351864396862943934e-14 -1.108543019477572361e-14
2.937000000000000000e+03 2.232109832763671875e+01 -1.416035938262939453e+01 -7.551342770485344746e-14 -2.039289554280412919e-13 -8.383271426224206402e-14 1.645341306776015866e-13
2.938000000000000000e+03 3.372771835327148438e+01 -1.352512645721435547e+01 -6.012139570910068898e-14 1.998463785950199689e-14 -1.204102735487960762e-14 1.907486213252596041e-13
2.939000000000000000e+03 3.330014419555664062e+01 -1.287632179260253906e+01 -6.375349331571786293e-14 -2.732292643276446747e-14 -2.732292643276446747e-14 1.770949923166065254e-13
2.940000000000000000e+03 3.692368316650390625e+01 1.559464263916015625e+01 -8.585310468187806743e-14 -8.254513609098901306e-14 -5.051947426473919756e-14 -4.780664118698638165e-15
2.941000000000000000e+03 2.212986183166503906e+01 -1.523232841491699219e+01 1.083170012017298234e-13 -1.365822196010627043e-13 -8.479565519799864282e-15 5.625611670836798417e-14
2.942000000000000000e+03 4.999726867675781250e+01 2.859117507934570312e+01 -2.279147295967520054e-14 3.598317593867493558e-14 3.957510300776857434e-15 3.098799903201825134e-14
2.943000000000000000e+03 3.100222015380859375e+01 -3.101155281066894531e+01 -2.627603097940783144e-14 -2.171404196857004698e-13 -7.302493977351040555e-14 1.342673666476432159e-13
2.944000000000000000e+03 1.976858520507812500e+01 -9.134758949279785156e+00 -5.264879312139210399e-14 -6.831471830283722402e-14 -3.628905308845561950e-14 1.671177844546345437e-13
2.945000000000000000e+03 1.952284622192382812e+01 -1.207951164245605469e+01 -1.517094962025580807e-13 -4.214288084627114406e-14 -5.815571684159373533e-14 1.714518148765095673e-13
2.946000000000000000e+03 3.857787322998046875e+01 1.733071327209472656e+01 -9.690153139532003967e-14 4.221720629332681440e-15 -2.780394289098302857e-14 -6.899055572705606321e-14
2.947000000000000000e+03 4.079919433593750000e+01 2.079117393493652344e+01 5.185822847259945884e-15 1.394753453357044926e-13 4.339834969255967900e-14 -2.783583029331536396e-14
2.948000000000000000e+03 4.244678878784179688e+01 2.134085655212402344e+01 -8.318396833980820637e-14 -3.565027166161326144e-14 -3.565027166161326144e-14 1.024001033706617436e-13
2.949000000000000000e+03 3.702278900146484375e+01 -1.905857467651367188e+01 -3.112931462080636980e-14 2.154136108855828069e-13 5.528528820180657333e-14 5.708733555049704672e-15
2.950000000000000000e+03 3.221760177612304688e+01 -3.434355163574218750e+01 -1.541976893664354781e-14 -2.239254788538591612e-13 -7.180357247367832874e-14 5.948580251427179610e-14
2.951000000000000000e+03 4.825219345092773438e+01 2.687261772155761719e+01 2.818797915893865580e-14 1.950843593655562924e-13 6.698169850802987435e-14 1.309025553697298200e-14
2.952000000000000000e+03 4.883731460571289062e+01 2.743893241882324219e+01 -5.034848965290760273e-15 1.808460065727546251e-13 5.274334571522820703e-14 5.044110847052512420e-15
2.953000000000000000e+03 2.304948806762695312e+01 -1.831236839294433594e+01 3.319495692861648695e-14 2.788672172685229683e-15 1.079508847628063081e-14 3.111078831618402374e-14
2.954000000000000000e+03 5.677036666870117188e+01 3.066341400146484375e+01 -7.299761787876377084e-14 -2.600394400677219497e-13 -9.991112077207750519e-14 -1.991827198105167521e-15
2.955000000000000000e+03 2.015768623352050781e+01 -1.172270870208740234e+01 -4.468891958418243215e-14 -2.936580828765550377e-13 -1.015040983665289887e-13 8.042779089207849341e-14
2.956000000000000000e+03 3.969212722778320312e+01 1.966525650024414062e+01 -8.157427370310971204e-14 -1.264623036281373181e-13 -6.241097319937410903e-14 -1.049077240822173657e-14
2.957000000000000000e+03 4.942204284667968750e+01 2.801361846923828125e+01 -8.685776537841870953e-15 -4.947342584432981583e-14 -1.744776062994821131e-14 -9.556420528500884914e-15
2.958000000000000000e+03 2.090534019470214844e+01 -1.316858386993408203e+01 -1.821788467965771569e-14 -2.823133708144270893e-13 -9.015937275187388411e-14 1.641559338547843305e-13
2.959000000000000000e+03 2.130953216552734375e+01 -1.386300086975097656e+01 -9.737616800137988138e-14 -3.162383278420416444e-13 -1.240843501082791733e-13 2.365931073017996100e-13
2.960000000000000000e+03 3.747395324707031250e+01 1.616150283813476562e+01 -1.620560510871144055e-13 -1.152035416932331580e-13 -8.317787647885155344e-14 -9.000622241874672858e-14
2.961000000000000000e+03 3.802921295166015625e+01 1.674221038818359375e+01 -1.077648576928644242e-13 -1.376868318794452484e-13 -7.363550822694561737e-14 -7.318092936107675750e-14
2.962000000000000000e+03 3.158749008178710938e+01 1.065123939514160156e+01 7.097463892644095829e-14 3.041770191302729798e-14 3.041770191302729798e-14 -4.880611634782393293e-14
2.963000000000000000e+03 7.694622516632080078e+00 -3.195204019546508789e+00 -5.670731760684319389e-14 -2.430313539119027116e-14 -2.430313539119027116e-14 4.478401766723656696e-14
2.964000000000000000e+03 6.125635147094726562e+00 -2.603299856185913086e+00 7.345866130008607553e-14 -2.887743484007027073e-13 -6.459471222882220975e-14 -9.905776726497079326e-15
2.965000000000000000e+03 6.943974971771240234e+00 -3.219221353530883789e+00 -2.453371470009183680e-14 -1.477672964458193183e-13 -5.169030419080629379e-14 -9.022840254894332057e-14
2.966000000000000000e+03 5.298585891723632812e+00 -2.673192739486694336e+00 -6.745842220327175065e-14 2.227194665672949103e-13 4.657831127632787449e-14 -6.954411547500927160e-15
2.967000000000000000e+03 6.162219047546386719e+00 -3.318820476531982422e+00 -6.301782826036855800e-14 6.449425412127784973e-14 4.429278747398177670e-16 7.164385085894637434e-15
2.968000000000000000e+03 3.643848657608032227e+00 -2.698221445083618164e+00 -3.268291873573768436e-14 7.749492914781511144e-14 1.344360380124958593e-14 -3.061738146001302674e-14
2.969000000000000000e+03 4.457795143127441406e+00 -3.591423511505126953e+00 -4.727608092464996928e-15 2.724795757948206276e-13 8.032559128479457855e-14 -6.912030084578468792e-14
2.970000000000000000e+03 3.198103904724121094e+00 -6.887470245361328125e+00 -5.967416231295041840e-14 -4.845011517635652853e-14 -3.243728256916572628e-14 3.956609820050631388e-14
2.971000000000000000e+03 2.464993953704833984e+00 -7.602365016937255859e+00 -2.819716269015278692e-14 -5.783544351984151732e-14 -2.580978338765759633e-14 7.616882114185735686e-14
2.972000000000000000e+03 1.885770678520202637e+00 -5.088809967041015625e+00 -4.129508218123252583e-14 -2.007016921363666273e-13 -7.259903127884020924e-14 1.269046852195657160e-13
2.973000000000000000e+03 5.330892086029052734e+00 -3.506949424743652344e+00 3.048428886707685304e-14 -2.156900553345122984e-13 -5.556172926260427580e-14 -1.225248658906280194e-14
2.974000000000000000e+03 2.363980865478515625e+01 -8.708614110946655273e-02 -1.810715477296859222e-13 5.965075709855188757e-14 -3.642623515646113697e-14 1.515635083800329075e-13
2.975000000000000000e+03 2.656188201904296875e+01 -2.364572525024414062e+01 -9.194783199802450402e-14 -3.139119010304308732e-13 -1.217579232966684022e-13 5.106896147828200727e-14
2.976000000000000000e+03 3.022281837463378906e+01 -3.136548995971679688e+01 -4.222818722845501915e-14 -3.383544258574872066e-13 -1.141747829093431310e-13 6.258012906707258183e-14
2.977000000000000000e+03 5.173270416259765625e+01 3.143069648742675781e+01 4.228527724909995900e-14 1.096241559984598157e-13 4.557282895782839571e-14 -7.368583553653967888e-15
2.978000000000000000e+03 3.859519577026367188e+01 -2.176291465759277344e+01 5.109476887811895129e-14 1.133996528949153537e-13 4.934832924241572272e-14 -5.897559730069085182e-14
2.979000000000000000e+03 3.820322799682617188e+01 -2.109580993652343750e+01 -2.395132025654819752e-14 3.548609634764464393e-14 3.460433039087170738e-15 -4.782869368976814736e-15
2.980000000000000000e+03 4.478047561645507812e+01 2.354305648803710938e+01 -6.074177619219689461e-14 2.484734965522983341e-13 5.631951881853586306e-14 1.938567883964185251e-14
2.981000000000000000e+03 2.426717376708984375e+01 -6.218617558479309082e-01 -2.131006417334380121e-13 1.730531456981286359e-16 -6.387827820950736646e-14 1.099071056604242203e-13
2.982000000000000000e+03 4.361142730712890625e+01 -2.974564933776855469e+01 -1.005334867004020749e-13 3.229218108191656000e-13 6.671649588037634193e-14 -1.392777901473504776e-13
2.983000000000000000e+03 3.059773063659667969e+01 -3.220358657836914062e+01 -7.804997289749190936e-14 -2.164537808973382438e-13 -8.835112681607540375e-14 8.712736071893670275e-14
2.984000000000000000e+03 2.893501472473144531e+01 -7.266690254211425781e+00 -4.338460404189163622e-14 7.290849646018546237e-14 8.857167725488147847e-15 4.479004176555743955e-14
2.985000000000000000e+03 2.946960830688476562e+01 -5.835181236267089844e+00 -2.018527082677315510e-13 -2.402029042249814728e-13 -1.326166823925611915e-13 -7.808260060662014501e-14
2.986000000000000000e+03 2.596182632446289062e+01 -1.252669930458068848e+00 -2.608378194424859631e-13 1.455614464683160914e-13 -3.458291189225096152e-14 -3.722398433871239309e-14
2.987000000000000000e+03 5.389223861694335938e+01 3.269276428222656250e+01 -1.272280485175095177e-13 -2.375301019243158951e-13 -1.094274478430530551e-13 1.570019071348016659e-13
2.988000000000000000e+03 1.803205108642578125e+01 -5.941555976867675781e+00 -5.731652403129922080e-14 1.126886195576722038e-13 1.661162899672507381e-14 1.143575522905698749e-13
2.989000000000000000e+03 3.099220466613769531e+01 -3.312018966674804688e+01 -7.054286896377576221e-14 -3.047383580288137717e-13 -1.125843667425241446e-13 4.756807266332631345e-14
2.990000000000000000e+03 5.213903045654296875e+01 3.093593215942382812e+01 5.855901294470403085e-14 -6.640518077907428540e-14 -2.353849715036365926e-15 -1.334688653001347980e-13
2.991000000000000000e+03 5.302231597900390625e+01 3.100441551208496094e+01 -6.868825983257637047e-14 6.206406916176021582e-14 -1.987257031838256943e-15 -2.360409095828255865e-14
2.992000000000000000e+03 4.676895523071289062e+01 -3.477431869506835938e+01 1.477249990085652276e-13 5.208202033708808631e-13 2.005635647795919740e-13 2.396729868606520264e-14
2.993000000000000000e+03 2.965972709655761719e+01 -2.982930755615234375e+01 -7.286572468448090922e-14 -3.514848188976987808e-13 -1.273051623970275492e-13 9.829013010399442751e-14
2.994000000000000000e+03 2.991562271118164062e+01 -3.057268333435058594e+01 -6.801789085306500504e-14 -3.951581087086736277e-13 -1.389528005461479476e-13 1.982767248998040799e-13
2.995000000000000000e+03 3.443528747558593750e+01 1.265439224243164062e+01 -1.006838113316171901e-13 -2.318728705135580936e-13 -9.976700319829986952e-14 -3.136306183293066652e-14
2.996000000000000000e+03 1.921838951110839844e+01 -9.434347152709960938e+00 -1.040915942850106912e-13 -2.276144767457410900e-13 -9.951182266447824998e-14 1.372673405063834506e-13
2.997000000000000000e+03 1.562702751159667969e+01 -4.435584545135498047e+00 2.870145798545414850e-13 -1.514994455841661702e-13 4.065454231399166785e-14 9.249799683792511718e-14
2.998000000000000000e+03 1.759583854675292969e+01 -3.720848798751831055e+00 2.217136793169344200e-13 3.695258346276403261e-13 1.773718568938778550e-13 2.208127344166532779e-13
2.999000000000000000e+03 3.085410499572753906e+01 -8.877130508422851562e+00 -1.211239767338889717e-13 3.959162099727298045e-14 -2.445970604335843956e-14 4.352513019597291366e-14
3.000000000000000000e+03 3.041369247436523438e+01 -8.206742286682128906e+00 5.681827129963698195e-15 4.818601707966621572e-14 1.616035355935050571e-14 1.600329840433650785e-14
3.001000000000000000e+03 1.873015594482421875e+01 -7.952243804931640625e+00 -1.955364716714827478e-14 -5.413108383842818450e-14 -2.210541862404657998e-14 5.945402861435439279e-14
3.002000000000000000e+03 1.896277618408203125e+01 -8.681344032287597656e+00 -2.025814310410451596e-14 -8.682061451335213592e-15 -8.682061451335213592e-15 1.395352881633157849e-13
3.003000000000000000e+03 2.516700363159179688e+01 -2.073603439331054688e+01 -1.593138022491693423e-14 3.892321374606745599e-14 6.897550225751745978e-15 8.907251428406579019e-14
3.004000000000000000e+03 2.626339340209960938e+01 -2.484755706787109375e+01 -6.320614740146571209e-14 -1.185902504668989721e-13 -5.453891665000397404e-14 5.427858276773125934e-14
3.005000000000000000e+03 1.843412399291992188e+01 -2.816213607788085938e+00 1.433332619260596630e-13 7.248172873529357130e-13 2.604451756257203376e-13 2.699374469609938654e-13
3.006000000000000000e+03 3.965418624877929688e+01 1.851265144348144531e+01 -5.686543494117304864e-14 -2.437089972103650970e-14 -2.437089972103650970e-14 -1.330004899616210601e-13
3.007000000000000000e+03 4.074887847900390625e+01 1.967541313171386719e+01 1.517861086385713376e-13 6.505118844849291926e-14 6.505118844849291926e-14 -7.319342479111465294e-14
3.008000000000000000e+03 4.048134613037109375e+01 -3.967670440673828125e+01 1.947874641531482931e-13 1.749822346481383351e-13 1.109309109956387041e-13 -1.353175655294941437e-13
3.009000000000000000e+03 4.623116683959960938e+01 -3.397351455688476562e+01 9.439035653351773858e-14 5.894644039376728539e-13 2.051564213650935997e-13 -8.719769833487669985e-14
3.010000000000000000e+03 4.574486923217773438e+01 -3.324040222167968750e+01 1.617924950915103355e-13 5.268491263914210077e-13 2.065924878001321185e-13 -4.499591820558528077e-14
3.011000000000000000e+03 3.519535827636718750e+01 -1.550972461700439453e+01 -8.853186670636052635e-15 8.770767315549599097e-14 2.365634611486457095e-14 -7.926163658788024091e-14
3.012000000000000000e+03 4.244655990600585938e+01 -3.977018356323242188e+01 1.623875865589333167e-13 2.384373182565385080e-14 5.586939534596956081e-14 8.289297525297667502e-14
3.013000000000000000e+03 3.491193771362304688e+01 1.328709220886230469e+01 -3.486262588835685461e-14 3.080982395749741476e-14 -1.215841151005071352e-15 -3.873916026289267456e-14
3.014000000000000000e+03 1.970334291458129883e+00 -3.470452308654785156e+00 2.163376018582928439e-14 -3.647933734599040356e-14 -4.453672978641746300e-15 4.593017521761603994e-14
3.015000000000000000e+03 3.756386184692382812e+01 -4.150594329833984375e+01 6.151380267790593215e-14 1.407404330881420473e-13 6.067627005218803604e-14 2.188719752584545458e-14
3.016000000000000000e+03 3.801686477661132812e+01 -3.881786727905273438e+01 3.454257957143450075e-14 1.480396243146251539e-14 1.480396243146251539e-14 3.035799286650944784e-14
3.017000000000000000e+03 4.610930252075195312e+01 -3.759449005126953125e+01 5.254899908767839134e-14 5.029059850850114977e-13 1.666364935577410722e-13 -3.357935742073943353e-14
3.018000000000000000e+03 4.510226821899414062e+01 -4.083963012695312500e+01 -1.033611943864615190e-14 3.158268731175833954e-13 9.164723016943931988e-14 -7.866479684445412679e-15
3.019000000000000000e+03 3.288804626464843750e+01 -1.221947097778320312e+01 -9.731664530211042718e-14 -8.745808303912624981e-14 -5.543241782474464530e-14 3.226598201404480559e-14
3.020000000000000000e+03 3.419138336181640625e+01 -1.416134071350097656e+01 -6.735688666981848316e-14 -2.118710344970950454e-13 -8.376837363956862736e-14 -3.180299719320739404e-14
3.021000000000000000e+03 1.578257942199707031e+01 -3.869600057601928711e+00 -1.175605701111623325e-13 -7.325857856541745372e-14 -5.724574595822665146e-14 2.005241811356764381e-13
3.022000000000000000e+03 1.630289459228515625e+01 -4.091927528381347656e+00 1.072189144651729265e-13 -9.130188467244837458e-14 4.775110547179965345e-15 4.482962192111673849e-14
3.023000000000000000e+03 1.794229507446289062e+01 -4.298861503601074219e+00 1.617508176823736349e-14 7.555859827786462479e-14 2.752010384442400703e-14 2.725744163798587971e-13
3.024000000000000000e+03 3.292503738403320312e+01 8.690507888793945312e+00 -3.656118105748590308e-14 -1.529219188344671521e-13 -5.684492996758591654e-14 2.631660428109778606e-16
3.025000000000000000e+03 3.391644287109375000e+01 1.201681613922119141e+01 2.550704534197943685e-14 1.939353896657919352e-13 6.583272880826551710e-14 -2.088511519759625457e-13
3.026000000000000000e+03 1.799581527709960938e+00 -4.095448684692382812e+01 6.758816732200037536e-14 -3.966006464754291694e-14 8.378431479963595330e-15 -1.106459962172366696e-13
3.027000000000000000e+03 5.447027587890625000e+01 3.245963668823242188e+01 -2.685570949650939454e-13 -2.065977868382501415e-13 -1.425464699620140885e-13 1.481545599093039844e-13
3.028000000000000000e+03 5.261091232299804688e+01 3.149431991577148438e+01 2.135020066014285678e-14 -1.281027557252165106e-13 -3.202576685833527503e-14 -1.045950842213858034e-14
3.029000000000000000e+03 7.226538848876953125e+01 3.106737709045410156e+01 -8.128700756124609961e-14 -5.838486703650669352e-13 -1.995407013450148370e-13 5.255861799382741117e-14
3.030000000000000000e+03 7.283506011962890625e+01 3.048521995544433594e+01 1.001999861121455337e-13 -4.145666286387711397e-13 -9.430999682374582860e-14 7.733971205429665541e-14
3.031000000000000000e+03 1.173920154571533203e+01 -3.705809593200683594e+00 2.443702588916275842e-14 1.477258528177760599e-13 5.164886395089482440e-14 -1.218667229846773226e-13
3.032000000000000000e+03 6.276686477661132812e+01 3.062399864196777344e+01 -1.495242596188592343e-13 -1.555837164830820019e-13 -9.153239283058237086e-14 2.889392013410291282e-13
3.033000000000000000e+03 9.111307144165039062e+00 -3.398684024810791016e+00 2.990192999891699843e-14 -7.868678581976484843e-14 -1.463545539100163939e-14 -1.771934819195814664e-14
3.034000000000000000e+03 1.117913436889648438e+01 -3.162550926208496094e+00 -1.646479854582397206e-13 -2.481247493709912155e-14 -5.683813676334893705e-14 -1.398326848192285587e-13
3.035000000000000000e+03 8.418556213378906250e+00 -3.248695611953735352e+00 -3.025114135427921236e-14 1.929144913476524281e-13 4.879900804733057484e-14 -1.010914171383631155e-13
3.036000000000000000e+03 1.084085941314697266e+01 -3.794547319412231445e+00 -2.082231956301860976e-13 2.513886044859872659e-14 -5.492529919922349568e-14 -1.078639402189024432e-13
3.037000000000000000e+03 5.490091323852539062e+01 3.249317550659179688e+01 -1.315640711608764835e-13 -1.063365500796227547e-14 -4.265932022234387999e-14 1.129878932385960932e-13
3.038000000000000000e+03 7.065697479248046875e+01 3.114563751220703125e+01 1.070792353440389033e-13 -4.561079636265612247e-14 1.844053237204119206e-14 -8.889701583365827720e-14
3.039000000000000000e+03 7.225139617919921875e+01 3.051617622375488281e+01 -1.238395779153134146e-13 -7.323154635593877998e-15 -3.934881730887664075e-14 1.695556164275999894e-14
3.040000000000000000e+03 5.730977249145507812e+01 3.168958473205566406e+01 -1.734184491971810238e-13 -3.945788465929689348e-13 -1.703991900922977032e-13 4.691196094238313241e-14
3.041000000000000000e+03 5.783804702758789062e+01 3.162674903869628906e+01 -3.426119861448841120e-14 -2.891890557316784127e-13 -9.703507799791594168e-14 -1.702268697095082883e-13
3.042000000000000000e+03 6.853641510009765625e+01 3.077553176879882812e+01 6.144741647066487636e-15 -1.346193799879949471e-13 -3.854239450924550059e-14 -5.451736135556224661e-14
3.043000000000000000e+03 6.808464050292968750e+01 3.128092956542968750e+01 -1.868950584842533208e-14 -3.282664396385415184e-13 -1.040867831378702868e-13 -9.864932628373887513e-14
3.044000000000000000e+03 6.962605285644531250e+01 3.120538711547851562e+01 1.766947658608970795e-14 7.572632943614581585e-15 7.572632943614581585e-15 -9.656270466389116347e-14
3.045000000000000000e+03 6.897096252441406250e+01 3.022126579284667969e+01 -1.164531660121856382e-13 -2.786632415704287657e-13 -1.185349290510478992e-13 -1.362194726592033667e-13
3.046000000000000000e+03 6.345149612426757812e+01 3.151027679443359375e+01 8.765243305480785452e-14 3.578219805958765543e-13 1.336423240952053226e-13 1.809038487586567268e-13
3.047000000000000000e+03 6.178194046020507812e+01 3.115670776367187500e+01 1.490644088199266637e-13 -1.648699894055832837e-13 -4.741674768620049094e-15 3.649915114069257616e-13
3.048000000000000000e+03 6.551345062255859375e+01 3.139501190185546875e+01 6.118269411069243713e-14 7.197210492512762237e-14 3.994643971074601785e-14 -2.426591337535612819e-14
3.049000000000000000e+03 6.647448730468750000e+01 3.089075279235839844e+01 -1.323961014605690156e-13 -2.397449914374322200e-13 -1.116423238036422239e-13 -2.170829569705587381e-13
3.050000000000000000e+03 6.544367218017578125e+01 3.093857383728027344e+01 -8.665890745339181744e-15 8.778794477384138650e-14 2.373661603914407198e-14 1.920314154544265628e-14
3.051000000000000000e+03 6.492613220214843750e+01 3.096489906311035156e+01 1.595460146375932142e-13 1.598787562843290155e-13 9.582743263182938454e-14 2.394240675943765106e-13
3.052000000000000000e+03 6.956502532958984375e+01 3.069204521179199219e+01 -2.999962677905330943e-14 3.289396546487556583e-14 8.683021563180926342e-16 2.491664304895245541e-15
3.053000000000000000e+03 5.679734802246093750e+01 3.173982429504394531e+01 -8.245535059858005722e-14 -1.725908505738685261e-13 -7.651386170698729061e-14 -6.825028281247369488e-14
3.054000000000000000e+03 5.629195404052734375e+01 3.177673339843750000e+01 -1.479561780167934493e-13 -3.836664330420652691e-13 -1.594867900939211935e-13 -2.559180115274759665e-14
3.055000000000000000e+03 6.389432525634765625e+01 3.102107429504394531e+01 1.554042810235356509e-13 1.123527811584812408e-13 8.032712272036321433e-14 3.024405812596109300e-13
3.056000000000000000e+03 6.440972900390625000e+01 3.099275016784667969e+01 -2.960097919275754552e-14 -2.414408733705797339e-13 -8.131255407493528931e-14 -3.921863512114723282e-14
3.057000000000000000e+03 6.750470733642578125e+01 3.083604240417480469e+01 8.211649676209686888e-14 -2.850638562007512533e-13 -6.088420647634359972e-14 -5.127462107787535139e-14
3.058000000000000000e+03 6.698912811279296875e+01 3.086491012573242188e+01 2.504522739373016282e-13 -2.991616354056265970e-14 6.616082871445036484e-14 -1.904580686955606450e-13
3.059000000000000000e+03 7.604880523681640625e+01 3.092050552368164062e+01 -2.601813994015499815e-14 -1.941544256096883192e-13 -6.605177152842547916e-14 6.483585912077372004e-14
3.060000000000000000e+03 5.530865859985351562e+01 3.191303634643554688e+01 -2.983910861453775709e-13 -3.108856759265893333e-13 -1.827830286215900712e-13 1.217959516878683313e-13
3.061000000000000000e+03 6.123067092895507812e+01 3.120896530151367188e+01 1.329922618835714318e-14 -2.230550813497877982e-13 -6.292675527787977563e-14 -1.792827733872789236e-14
3.062000000000000000e+03 5.902781677246093750e+01 3.195595359802246094e+01 8.344507810426060601e-14 -2.844944603248161785e-13 -6.031481737667210297e-14 1.580126410575741214e-13
3.063000000000000000e+03 1.477173995971679688e+01 -3.580969810485839844e+00 -7.329652225332265736e-15 -9.464317892761420214e-14 -3.059184849885099311e-14 -1.806278955888366428e-14
3.064000000000000000e+03 1.774668884277343750e+01 -6.950435161590576172e+00 -8.380226850998595545e-14 9.835691526375364008e-15 -2.218997284097329326e-14 1.740499020949637377e-13
3.065000000000000000e+03 1.372245597839355469e+01 -3.383646249771118164e+00 2.885092812983207355e-14 5.811563524252966184e-14 2.608996833408216282e-14 -1.439191647800708296e-13
3.066000000000000000e+03 5.257677078247070312e+01 3.045241546630859375e+01 -1.082773803885890562e-13 4.509730466123983150e-14 -1.895402237939158852e-14 -1.455713398131400216e-13
3.067000000000000000e+03 5.488092422485351562e+01 3.196142196655273438e+01 -2.747529580151425455e-13 -1.635022141548841956e-13 -1.314765489405025911e-13 2.752364579739624562e-13
3.068000000000000000e+03 1.420582294464111328e+01 -4.023189544677734375e+00 -4.343299672823416890e-14 -6.436509176121693598e-14 -3.233942654683533147e-14 -7.880141987071445642e-14
3.069000000000000000e+03 7.538578796386718750e+01 3.096836662292480469e+01 -1.036200612076695893e-13 1.342352509699315955e-15 -3.068331111649551246e-14 2.519594877517777193e-14
3.070000000000000000e+03 7.843304443359375000e+01 2.842967987060546875e+01 8.047026451218561305e-15 -1.109286477236036406e-13 -3.086448468764962927e-14 3.695486164257896777e-14
3.071000000000000000e+03 5.838788604736328125e+01 3.155690956115722656e+01 -1.156036834456478785e-14 -5.539658358769128377e-13 -1.696578533043335835e-13 1.076893972216594331e-13
3.072000000000000000e+03 6.232223510742187500e+01 3.111553764343261719e+01 -4.174869881767330482e-14 -1.789230046132621321e-14 -1.789230046132621321e-14 2.170239492673212145e-13
3.073000000000000000e+03 5.895358657836914062e+01 3.148680114746093750e+01 -1.449198664446160051e-14 -3.264675042888992573e-13 -1.022878410119644477e-13 -1.498125997984999652e-14
3.074000000000000000e+03 6.009666442871093750e+01 3.134052085876464844e+01 -6.009231622098850159e-15 4.317556308677285293e-14 1.114989956645714292e-14 -1.150134810523964490e-13
3.075000000000000000e+03 1.220999240875244141e+01 -3.721615314483642578e+00 1.022359958193289065e-13 1.810682680181141535e-13 8.499127915123291799e-14 -2.064055171354869933e-13
3.076000000000000000e+03 1.269748592376708984e+01 -3.768728017807006836e+00 -7.190948547340300645e-14 -2.138221511741728031e-13 -8.571949031664638508e-14 -5.892119745668639164e-14
3.077000000000000000e+03 4.020185470581054688e+01 1.910075187683105469e+01 -3.616655348955780808e-15 3.187066496129764559e-13 9.452699988856880231e-14 -5.061335600848107519e-14
3.078000000000000000e+03 3.960311889648437500e+01 -2.193435478210449219e+01 5.723264066446673293e-14 2.452827505450456969e-14 2.452827505450456969e-14 -9.747211311738127049e-14
3.079000000000000000e+03 2.379082489013671875e+01 -1.969065284729003906e+01 6.247107865731127418e-14 6.108653215425655092e-14 3.706728324347034753e-14 1.100331983730842844e-13
3.080000000000000000e+03 3.305338668823242188e+01 -1.113551807403564453e+01 -4.039252791835160061e-14 2.114436555532284157e-13 5.131533964571576012e-14 -1.007783601138050305e-15
3.081000000000000000e+03 2.945035743713378906e+01 -6.876959323883056641e+00 -1.055449808497546660e-13 1.377702341315636958e-13 9.667574968103172239e-15 -5.247071969082493792e-14
3.082000000000000000e+03 2.998223114013671875e+01 -6.482762336730957031e+00 -8.962237927430307532e-15 3.762083960329176691e-14 8.597580079241964185e-15 -1.043797955512480724e-13
3.083000000000000000e+03 2.252836799621582031e+01 -1.591044235229492188e+01 -3.393760831171474535e-14 -1.517975334189639036e-13 -5.572054116395087908e-14 8.177054817764747852e-14
3.084000000000000000e+03 2.191574096679687500e+01 -1.628778076171875000e+01 -4.044212000334744539e-14 -1.317097066176955988e-13 -5.164555035800516558e-14 4.544360222326349064e-14
3.085000000000000000e+03 3.224743270874023438e+01 -9.802379608154296875e+00 2.869751691055716369e-14 5.804988515703199403e-14 2.602422163671628402e-14 8.725215916525336235e-14
3.086000000000000000e+03 2.414882278442382812e+01 -2.040036582946777344e+01 -1.895863430438279873e-13 3.312608298560934528e-14 -4.693807666221287700e-14 2.208375660345349850e-14
3.087000000000000000e+03 7.405851745605468750e+01 3.101869583129882812e+01 -1.097999322756740281e-13 3.647014331156772649e-13 7.647044618624282419e-14 -8.377991361644201995e-14
3.088000000000000000e+03 2.776438331604003906e+01 -2.752147865295410156e+01 -2.320828601455778017e-14 -1.929502022567086694e-13 -6.484754817544582939e-14 6.918765012948677184e-14
3.089000000000000000e+03 4.294510650634765625e+01 -2.720538520812988281e+01 -9.417714817629846413e-14 -4.036163493269934177e-14 -4.036163493269934177e-14 -1.324171485352423905e-13
3.090000000000000000e+03 4.756253051757812500e+01 2.522700691223144531e+01 1.548500741424107402e-14 -3.911451783127073423e-14 -7.088852616889129710e-15 -6.746045508234516097e-14
3.091000000000000000e+03 4.861270523071289062e+01 2.527479553222656250e+01 1.056935029948580240e-13 1.425179825499320319e-13 7.446344566343701676e-14 5.878828104660324683e-14
3.092000000000000000e+03 4.536614227294921875e+01 2.410214042663574219e+01 -1.016577603075562858e-14 8.714513485830188699e-14 2.309380781767046698e-14 -2.766982030598299364e-14
3.093000000000000000e+03 4.698607635498046875e+01 2.467872619628906250e+01 -6.616227205859248617e-14 -7.410620782386662109e-14 -4.208054599761680559e-14 -2.472102417791586376e-14
3.094000000000000000e+03 4.181981277465820312e+01 1.970927047729492188e+01 4.969984452739446834e-14 1.585527770273792436e-13 6.247578816049800809e-14 -1.256921270623850839e-13
3.095000000000000000e+03 4.302627944946289062e+01 2.188916397094726562e+01 1.126383142709347709e-15 9.198463388551680886e-14 2.793330515081949433e-14 3.933186987366797671e-14
3.096000000000000000e+03 2.620236587524414062e+01 -3.242660522460937500e+00 -3.442919235298325109e-13 -1.018027283024129648e-13 -1.338283867405309913e-13 9.280848523507065351e-14
3.097000000000000000e+03 2.610870933532714844e+01 -2.234414100646972656e+00 -3.840282584120779941e-13 -1.017409050616587679e-14 -1.182607072165720030e-13 5.692742420038490736e-14
3.098000000000000000e+03 4.104255676269531250e+01 -2.571687507629394531e+01 -1.327139353274331413e-14 8.581415471883152568e-14 2.176282937226600017e-14 -8.965944713014081802e-14
3.099000000000000000e+03 4.227791976928710938e+01 -2.470733642578125000e+01 -3.982511409951310088e-14 6.299625263713609646e-14 6.951341900100077575e-15 -9.735733168269884025e-15
3.100000000000000000e+03 1.986647796630859375e+01 -1.285397243499755859e+01 -9.813651729087807113e-15 7.231886835527227136e-15 -7.745295210077331963e-16 1.846451594053610812e-13
3.101000000000000000e+03 3.686711883544921875e+01 -1.729242324829101562e+01 3.908127432918984470e-15 1.618032286930179420e-13 4.971340721894590420e-14 1.342228948768135234e-15
3.102000000000000000e+03 4.337629318237304688e+01 -2.787771034240722656e+01 -8.455988145954804018e-16 2.283923375943908152e-13 6.826402507500994865e-14 -3.267926632966912381e-14
3.103000000000000000e+03 3.183453750610351562e+01 -9.135285377502441406e+00 -3.261833077944364945e-14 1.232735566186402010e-13 2.719656944582485997e-14 1.744424713728300047e-14
3.104000000000000000e+03 3.265175247192382812e+01 -1.046970748901367188e+01 -3.526361806185061842e-14 -1.523658315401993368e-13 -5.628883250892273427e-14 -1.090158711458504015e-13
3.105000000000000000e+03 2.839426612854003906e+01 -2.888500785827636719e+01 -6.326390149594129930e-14 -1.758036804241219775e-13 -7.172027186551355182e-14 6.523318533567176725e-14
3.106000000000000000e+03 4.147146224975585938e+01 -2.637788581848144531e+01 1.438625287690856180e-13 1.074063188106870459e-13 7.538065359630544138e-14 -5.753765384064121746e-14
3.107000000000000000e+03 4.528831481933593750e+01 -3.252793884277343750e+01 2.625233946787312866e-14 5.145114477696222099e-13 1.622291304114245603e-13 -6.007280312298260427e-14
3.108000000000000000e+03 4.550870513916015625e+01 -3.123921012878417969e+01 4.593746308909421594e-14 5.229478959242750413e-13 1.706656192236588598e-13 -3.541629066839552253e-14
3.109000000000000000e+03 2.267258453369140625e+01 -1.763557815551757812e+01 1.584727662951816024e-14 -2.791517288592421098e-13 -7.899133821001602662e-14 3.371206715478344829e-14
3.110000000000000000e+03 7.770482635498046875e+01 2.698118591308593750e+01 1.790100626595809291e-14 -3.807908781588813241e-14 -6.053425142605369652e-15 7.758538040812060915e-15
3.111000000000000000e+03 2.407302665710449219e+01 -1.862023353576660156e+01 2.530478742670226600e-14 -8.065699123134192905e-14 -1.660566080257872001e-14 1.165647846258430209e-13
3.112000000000000000e+03 4.466596603393554688e+01 2.247730255126953125e+01 -7.391918294911287157e-14 1.513241436454024202e-13 2.322148956413958021e-14 -3.818660340194901526e-14
3.113000000000000000e+03 2.914906120300292969e+01 3.629864215850830078e+00 9.203510349664600909e-14 -1.435601854407608791e-13 -1.545752288916856648e-14 -1.135318849023771171e-13
3.114000000000000000e+03 3.060460090637207031e+01 2.877330064773559570e+00 5.792543230015781419e-14 1.163270868520527301e-13 5.227575642328952110e-14 -8.762286821681689042e-14
3.115000000000000000e+03 2.730622863769531250e+01 -2.507020568847656250e+01 -1.379742267703168435e-13 -1.963846565835453140e-13 -1.003076677166640784e-13 4.668309941629859849e-14
3.116000000000000000e+03 2.743884468078613281e+01 -2.686374282836914062e+01 -6.805133849008618285e-14 -3.494215008482959295e-13 -1.252418443476246979e-13 8.683983707905712501e-14
3.117000000000000000e+03 2.896814918518066406e+01 -3.006250381469726562e+01 -7.037482440330408706e-14 -3.504172863336152410e-13 -1.262376298329440094e-13 2.131737982750264715e-13
3.118000000000000000e+03 3.425738906860351562e+01 -1.306293487548828125e+01 -4.522120186450061252e-14 -2.938861990136459879e-13 -1.017322212798835168e-13 2.277505237895972867e-14
3.119000000000000000e+03 2.025941085815429688e+01 -1.358349132537841797e+01 -1.384012669010045715e-13 -3.566960095346960458e-13 -1.485291788649520384e-13 1.217749452707764246e-13
3.120000000000000000e+03 2.527973747253417969e+01 2.479370981454849243e-01 2.500356895813148073e-14 -1.722879786969847005e-13 -4.418532461572186043e-14 8.813963285354137200e-14
3.121000000000000000e+03 2.639301872253417969e+01 1.076200723648071289e+00 5.721056359772949684e-14 -4.982647934114077526e-14 2.215226208712858455e-15 3.018230806885353890e-14
3.122000000000000000e+03 2.582256126403808594e+01 6.678324341773986816e-01 1.819314284726841757e-14 -3.124595851153322279e-13 -8.827992861466099628e-14 -8.848621163050351957e-15
3.123000000000000000e+03 2.839603233337402344e+01 -2.458972930908203125e+00 -1.979432785216561630e-13 -3.908188673401070956e-14 -7.110754856026052506e-14 -6.706839063611545748e-15
3.124000000000000000e+03 2.760202407836914062e+01 1.861961841583251953e+00 1.882447106180129559e-13 -2.052671184069043697e-13 -5.106722251964129419e-15 -9.254354688169666443e-14
3.125000000000000000e+03 2.782234573364257812e+01 2.817778825759887695e+00 1.979277202204809960e-13 -9.817763057607190036e-14 2.992502689332272869e-14 -9.773901658719288954e-14
3.126000000000000000e+03 2.502709770202636719e+01 -2.135491132736206055e+00 -3.076196253021939997e-13 5.415865560789425923e-15 -9.066112796477301949e-14 1.343260084326475257e-13
3.127000000000000000e+03 2.379629516601562500e+01 -1.059873580932617188e+00 -3.655920780953197946e-13 -1.109313717815620104e-13 -1.429570302196800369e-13 1.557285252357445970e-13
3.128000000000000000e+03 2.888549613952636719e+01 2.649653196334838867e+00 8.568926140482477360e-14 -1.348420886667506258e-13 -1.474584919501729235e-14 -1.189815254784218346e-13
3.129000000000000000e+03 2.863831710815429688e+01 1.685994267463684082e+00 8.767789655926821329e-15 -1.334952249654533518e-13 -3.741822932230853826e-14 -5.809282633932599804e-14
3.130000000000000000e+03 3.749289321899414062e+01 -1.690000534057617188e+01 -5.972362395487238601e-15 1.346932683660498342e-13 3.861626933477323165e-14 -9.369772583408663563e-15
3.131000000000000000e+03 3.622789764404296875e+01 -1.590975570678710938e+01 4.723031658154276669e-14 1.574944059716532063e-13 6.141741710477197080e-14 5.417235128361841401e-14
3.132000000000000000e+03 3.537702178955078125e+01 1.390110301971435547e+01 -7.018684407538583470e-14 -3.008007458025173386e-14 -3.008007458025173386e-14 -8.219201144341048426e-14
3.133000000000000000e+03 3.684627914428710938e+01 1.454471778869628906e+01 6.760472173392151340e-14 -1.677749837658819992e-14 1.524816683779340459e-14 -5.602476829355031163e-14
3.134000000000000000e+03 3.760675430297851562e+01 -1.863604164123535156e+01 -2.023279649019087828e-15 -1.230485694212564082e-14 -4.298441062046713321e-15 7.790538776152738931e-14
3.135000000000000000e+03 3.839759826660156250e+01 -1.997036933898925781e+01 3.030091978652345308e-14 1.548371357141414308e-15 9.554787448978578623e-15 -3.855432750940641917e-14
3.136000000000000000e+03 2.905085182189941406e+01 -2.847948646545410156e+01 -3.404991471612529852e-14 -1.975966184295310790e-13 -6.949395757200466095e-14 1.528308322994512136e-13
3.137000000000000000e+03 2.840747261047363281e+01 -4.580528736114501953e+00 -1.368104712634252151e-13 -3.254071884455263242e-14 -5.080535466070110195e-14 -2.789164934102294872e-15
3.138000000000000000e+03 7.406466674804687500e+01 3.042364501953125000e+01 6.898110283936470521e-14 -1.076895191944038377e-13 -1.161252439829197139e-14 -5.702593752028237151e-14
3.139000000000000000e+03 7.535476684570312500e+01 3.032458496093750000e+01 -2.133218426935475781e-14 -1.463952114914846003e-13 -5.031821923647157579e-14 2.483662384642534166e-14
3.140000000000000000e+03 4.237629318237304688e+01 2.026652145385742188e+01 -5.109461980032023454e-15 1.808140226086663027e-13 5.271136852740346268e-14 9.002645634179073930e-14
3.141000000000000000e+03 3.911491394042968750e+01 1.792088890075683594e+01 -4.787360761179630664e-14 -1.120191585974802950e-13 -4.796783155684887501e-14 -4.608923445258324147e-14
3.142000000000000000e+03 4.235161590576171875e+01 1.921612930297851562e+01 1.320822384841616182e-13 -8.064617631467138614e-14 1.543081763440753290e-14 1.502603786838682676e-13
3.143000000000000000e+03 4.351930618286132812e+01 2.138016128540039062e+01 4.144954033323024201e-14 1.550169362448880483e-13 5.893994060174323479e-14 1.087019607355979578e-13
3.144000000000000000e+03 3.140516662597656250e+01 -8.468939781188964844e+00 -3.118649950914140212e-14 -3.052224949564100176e-14 -1.851262334618200556e-14 -2.715416898818855942e-16
3.145000000000000000e+03 4.318845367431640625e+01 -2.906357192993164062e+01 1.285992610279085638e-14 2.342661383891025961e-13 7.413781909345815158e-14 -1.782369587479629841e-14
3.146000000000000000e+03 4.380715942382812500e+01 -2.855043411254882812e+01 -9.967935222891799452e-14 2.775369181435421995e-13 5.335727180726633490e-14 -1.208854929135236289e-13
3.147000000000000000e+03 1.774066162109375000e+01 -5.356165409088134766e+00 -1.032688847358697454e-14 -5.017675795801652960e-14 -1.815109443770081959e-14 1.454348252070969405e-13
3.148000000000000000e+03 7.750369262695312500e+01 7.021483898162841797e+00 1.850955640928658719e-13 3.080814141125098882e-13 1.479530880406018656e-13 -1.450314071312422404e-13
3.149000000000000000e+03 7.749166870117187500e+01 -1.746456474065780640e-01 6.756927374389209984e-13 2.895825940152363387e-13 2.895825940152363387e-13 4.628977119691159159e-14
3.150000000000000000e+03 7.748714447021484375e+01 -7.363054275512695312e+00 -1.699823279095041828e-13 4.304108610318768680e-13 7.812856400246995237e-14 -9.410337499472440359e-14
3.151000000000000000e+03 7.676730346679687500e+01 -1.365137386322021484e+01 -1.410791785044079871e-13 -1.471155452504886024e-14 -4.673721804536457025e-14 1.850164173342744300e-13
3.152000000000000000e+03 7.667917633056640625e+01 -2.163282394409179688e+01 6.949638347436559727e-14 2.127879578268931926e-13 8.468530374563035257e-14 -8.438812393015207580e-14
3.153000000000000000e+03 7.748100280761718750e+01 -1.215762233734130859e+01 -1.190784667051691947e-13 4.522267976758698182e-13 9.994450064646290266e-14 -4.871650703826800599e-14
3.154000000000000000e+03 7.750850677490234375e+01 8.617103576660156250e+00 1.496344010070566055e-13 1.837808063284013249e-14 5.040374584722173701e-14 -1.781895892774207346e-13
3.155000000000000000e+03 7.749504089355468750e+01 1.422732591629028320e+00 5.925599095603362176e-13 2.519949614916087294e-14 1.853278137507394230e-13 -2.377858381117509134e-13
3.156000000000000000e+03 7.748967742919921875e+01 -5.763987541198730469e+00 -1.278846413531667392e-13 4.027017976894475826e-13 8.244514554563153741e-14 -8.705204932553042840e-14
3.157000000000000000e+03 7.747599792480468750e+01 -1.375062751770019531e+01 4.855628906222896057e-14 5.698212084473408545e-13 1.855132529798159124e-13 -2.852450873701457834e-14
3.158000000000000000e+03 7.746682739257812500e+01 -1.534974288940429688e+01 6.119424086382940775e-14 3.922336901888284766e-13 1.360283820263027965e-13 1.100211840577604294e-13
3.159000000000000000e+03 7.738008117675781250e+01 -2.334892654418945312e+01 -1.362293507574342463e-14 2.229163441292911219e-13 6.278802483364667730e-14 7.156833448356686445e-14
3.160000000000000000e+03 7.588269805908203125e+01 -3.600624847412109375e+01 8.267259760889184017e-14 1.498084832183763093e-13 6.974432695868587606e-14 2.614049384938588183e-14
3.161000000000000000e+03 7.721031188964843750e+01 -2.978113365173339844e+01 2.026374029781997238e-14 8.684460248641837771e-15 8.684460248641837771e-15 -1.081955078779733501e-14
3.162000000000000000e+03 7.741297912597656250e+01 -2.174439620971679688e+01 -1.799065792716138257e-14 1.295425626577501044e-13 3.346557040273707984e-14 1.107722786652769187e-13
3.163000000000000000e+03 7.726852416992187500e+01 -2.822050857543945312e+01 -5.674463110223564033e-14 -2.431912737323443235e-14 -2.431912737323443235e-14 -1.081731207971774189e-13
3.164000000000000000e+03 7.820956420898437500e+01 4.512548923492431641e+00 3.123844499047789824e-13 3.626337782575844715e-13 2.025054657382036050e-13 -2.436693696209607518e-13
3.165000000000000000e+03 7.749645996093750000e+01 2.221832036972045898e+00 4.401295950959283054e-13 2.801288660671946706e-13 2.160775356384314616e-13 -2.176344635106478020e-13
3.166000000000000000e+03 7.750189971923828125e+01 6.223095417022705078e+00 -1.481897829273826073e-13 -2.922646662444766674e-13 -1.321363266200414888e-13 6.656452461711176438e-14
3.167000000000000000e+03 7.820392608642578125e+01 -2.679240703582763672e+00 5.537440623225309277e-13 3.745717386434421758e-13 2.784947294477702062e-13 3.485760942043003574e-13
3.168000000000000000e+03 7.749037933349609375e+01 -3.368173599243164062e+00 3.646869319116202712e-13 4.308000896117991640e-13 2.386460983255095369e-13 3.205052868070212835e-13
3.169000000000000000e+03 7.749081420898437500e+01 -9.729430675506591797e-01 5.186714230852318419e-13 1.765368043806295195e-13 2.085624695950111240e-13 -4.287251502703599837e-14
3.170000000000000000e+03 7.679911804199218750e+01 5.528073787689208984e+00 -3.799434725171302318e-14 -3.594154054237241880e-13 -1.192229230921257321e-13 1.136793025165172555e-13
3.171000000000000000e+03 7.749923706054687500e+01 4.622791290283203125e+00 -7.366816981739174319e-14 -1.688249149853215947e-13 -7.274792611844035917e-14 -8.760178726082562539e-14
3.172000000000000000e+03 7.749739074707031250e+01 3.021951198577880859e+00 2.411767075112536407e-13 1.948633447526951223e-13 1.308120143239319133e-13 -2.128169873400614920e-13
3.173000000000000000e+03 7.749045562744140625e+01 -1.771438241004943848e+00 4.210397492893785953e-13 7.752079143538703754e-13 3.588743072244909849e-13 5.053476625875574779e-13
3.174000000000000000e+03 7.749031066894531250e+01 -4.965238571166992188e+00 2.441118596326063983e-13 3.333741160731207298e-13 1.732457900012127072e-13 2.343429270079688820e-13
3.175000000000000000e+03 7.819928741455078125e+01 -1.067000389099121094e+01 1.222607762642671791e-13 2.354012709586406071e-13 1.072986101011141891e-13 5.532286935961035212e-14
3.176000000000000000e+03 7.748258209228515625e+01 -1.056266498565673828e+01 -1.942871023094473910e-15 5.481787441509455849e-13 1.638707615783663307e-13 -7.454036303131128527e-14
3.177000000000000000e+03 7.822000122070312500e+01 1.170193386077880859e+01 -7.837539617956343352e-14 5.791244220287872224e-14 -6.138886108302118658e-15 -3.543492539323511714e-14
3.178000000000000000e+03 7.750630187988281250e+01 7.819268703460693359e+00 -1.682729070017277562e-13 -1.636188607561164798e-13 -9.956753032735327080e-14 8.487860513452325645e-15
3.179000000000000000e+03 7.751273345947265625e+01 1.101258850097656250e+01 -4.144420063753075090e-14 1.194910462893813974e-13 2.341405403436837285e-14 5.059443329243941412e-14
3.180000000000000000e+03 7.822861480712890625e+01 1.489776897430419922e+01 -2.697001862562043578e-14 1.714452147957845618e-13 4.334255732638993275e-14 -2.774685795253577225e-14
3.181000000000000000e+03 7.752288818359375000e+01 1.420902919769287109e+01 1.134563448100750840e-14 2.336171620737070853e-13 7.348883600179906272e-14 -1.492438679963955378e-14
3.182000000000000000e+03 7.751575469970703125e+01 1.261148166656494141e+01 -4.851654966447557782e-14 1.164600371434537651e-13 2.038304658250663509e-14 -4.061893982515267509e-14
3.183000000000000000e+03 7.751458740234375000e+01 1.181152248382568359e+01 7.774047383482876605e-14 3.331734641323115531e-14 3.331734641323115531e-14 4.105145856494324397e-14
3.184000000000000000e+03 7.821928405761718750e+01 1.090289306640625000e+01 1.823909269059106886e-13 7.816754107057080625e-14 7.816754107057080625e-14 -2.443628219423506914e-14
3.185000000000000000e+03 7.752755737304687500e+01 1.500669860839843750e+01 -1.834240699323357038e-14 3.123956171871555831e-13 8.821596068648435152e-14 5.024770204954676078e-14
3.186000000000000000e+03 7.756464385986328125e+01 1.979134178161621094e+01 6.594793206535567998e-14 -1.547403969282684644e-13 -2.663774115293972983e-14 -1.555923121734307385e-14
3.187000000000000000e+03 7.753785705566406250e+01 1.660176467895507812e+01 -8.782188030184018279e-14 8.113001000447251504e-15 -2.391266336690140576e-14 4.636404921012221569e-14
3.188000000000000000e+03 7.755646514892578125e+01 1.899402046203613281e+01 9.080149148852842411e-14 3.591715683551321980e-13 1.349919118544609664e-13 -1.228529979840648628e-14
3.189000000000000000e+03 7.754827117919921875e+01 1.819718551635742188e+01 -3.684991426041415996e-14 1.672109716313596728e-13 3.910831755009683275e-14 -1.856323695291223902e-14
3.190000000000000000e+03 7.751850128173828125e+01 1.341082477569580078e+01 2.059215530026119872e-14 8.825209172388243095e-15 8.825209172388243095e-15 -9.983949566605768156e-14
3.191000000000000000e+03 7.674677276611328125e+01 -1.604865264892578125e+01 6.815590301335883172e-14 4.409681983712915310e-13 1.527372385469114024e-13 1.255738270528397593e-13
3.192000000000000000e+03 7.817647552490234375e+01 -1.786107254028320312e+01 1.207105043769503630e-14 5.541846820854290367e-13 1.698767266179040947e-13 -8.653249964447537468e-14
3.193000000000000000e+03 7.743909454345703125e+01 -1.935016822814941406e+01 -1.148949201567033701e-14 -5.067501661890939924e-14 -1.864935309859368923e-14 -5.347997638813738186e-14
3.194000000000000000e+03 7.677553558349609375e+01 -9.667156219482421875e+00 -1.150823549954035907e-13 5.454413505058541833e-13 1.291076891663661685e-13 2.012944830623048659e-14
3.195000000000000000e+03 7.819999694824218750e+01 -9.871662139892578125e+00 2.014243840350957854e-14 2.373872311830366177e-13 7.725889833486501712e-14 -8.188861779423114995e-14
3.196000000000000000e+03 7.748442077636718750e+01 -9.764636993408203125e+00 5.653507853921671544e-14 3.902369150477619231e-13 1.340315933327090869e-13 2.905995553242370077e-14
3.197000000000000000e+03 7.820036315917968750e+01 -9.072326660156250000e+00 3.534222610748760651e-14 3.354033088591445999e-13 1.112236591347369463e-13 6.660727606402558343e-14
3.198000000000000000e+03 7.687194061279296875e+01 1.828996086120605469e+01 3.806009733721069099e-14 1.993152686083007885e-13 7.121260775077437044e-14 2.525304853670160520e-15
3.199000000000000000e+03 7.827202606201171875e+01 2.289033317565917969e+01 6.161406427380652917e-14 -1.934492130828587009e-14 1.268074305906278718e-14 -1.692361155998956673e-14
3.200000000000000000e+03 7.823738861083984375e+01 1.729336357116699219e+01 -2.673444012826417526e-14 -1.145761731883221043e-14 -1.145761731883221043e-14 2.673551416604129372e-14
3.201000000000000000e+03 7.744962310791015625e+01 -1.775294876098632812e+01 7.040439601755862919e-14 7.592425901306251723e-14 4.389859718681270173e-14 4.696212223351953208e-14
3.202000000000000000e+03 7.817319488525390625e+01 -1.866052627563476562e+01 -2.506407590968564442e-14 3.500920324581331677e-14 2.983538031431712256e-15 6.659406912631199438e-16
3.203000000000000000e+03 7.745503997802734375e+01 -1.695249748229980469e+01 -1.784899844299667887e-14 3.583580101499533876e-13 1.021527087636912856e-13 -2.541655681222425994e-14
3.204000000000000000e+03 7.836148834228515625e+01 2.686054229736328125e+01 -2.221113172399570568e-14 -5.527000433930631673e-14 -2.324434081899060672e-14 7.719375811308937241e-14
3.205000000000000000e+03 7.828022766113281250e+01 2.368939018249511719e+01 -1.165656333528561697e-14 6.363075485352892580e-14 1.559225703195651902e-14 8.963107491453958797e-14
3.206000000000000000e+03 7.757636260986328125e+01 2.138798713684082031e+01 2.012739340430044765e-14 8.626025139676658099e-15 8.626025139676658099e-15 5.890694019811820725e-14
3.207000000000000000e+03 7.732893371582031250e+01 -2.495775032043457031e+01 -1.530809035305349952e-13 2.088995887080183356e-13 1.674560589205818101e-14 -7.895948299493568689e-14
3.208000000000000000e+03 7.728777313232421875e+01 -2.900937461853027344e+01 -2.332042004776356710e-15 2.277552875028926449e-13 6.762697498351177838e-14 2.090859325682824926e-14
3.209000000000000000e+03 7.759996032714843750e+01 2.460364723205566406e+01 -3.421515051534387841e-14 -1.061655307394403225e-13 -4.211420369880890247e-14 1.356628161587949966e-13
3.210000000000000000e+03 7.780264282226562500e+01 2.853012847900390625e+01 -9.177908270614071329e-14 -6.220936580540042948e-14 -4.619653319820962722e-14 6.266512374113186734e-14
3.211000000000000000e+03 7.762424468994140625e+01 2.540385246276855469e+01 1.098202136325630851e-13 -9.018704023606299858e-14 5.889951595433552331e-15 2.889410986948309779e-14
3.212000000000000000e+03 7.758123016357421875e+01 2.218956947326660156e+01 3.929856453818193762e-14 6.259319370325103216e-14 3.056752848886942764e-14 1.033457716105579127e-13
3.213000000000000000e+03 7.810382843017578125e+01 -2.506292533874511719e+01 -1.084634430339147249e-13 -6.935980788195031388e-14 -5.334697527475951162e-14 -1.075323776420292199e-13
3.214000000000000000e+03 7.811988830566406250e+01 -2.426014137268066406e+01 -1.984419302058365586e-14 4.261293466527316109e-13 1.218855474448971021e-13 -9.817743406442813736e-14
3.215000000000000000e+03 7.729522705078125000e+01 -2.576940727233886719e+01 -5.908979767077146561e-14 1.119286480448684895e-13 1.585165578985546497e-14 -6.053825111563063133e-14
3.216000000000000000e+03 7.788822174072265625e+01 -3.390613174438476562e+01 -5.244084653284117326e-14 2.327630106615640598e-14 -8.749364148225198534e-15 2.168619660746200911e-14
3.217000000000000000e+03 7.695530700683593750e+01 -3.464345932006835938e+01 6.415503436656144753e-14 1.189969075967439727e-13 5.494558394424434167e-14 -7.411606898143855565e-15
3.218000000000000000e+03 7.847267913818359375e+01 2.920000648498535156e+01 2.965658521167889583e-14 -3.304098327946460023e-14 -1.015319970907127035e-15 -7.024860548273488201e-15
3.219000000000000000e+03 7.785138702392578125e+01 2.928699874877929688e+01 5.944710581407648339e-15 9.404963244828701274e-14 2.999830201952380371e-14 -4.203149431964130905e-15
3.220000000000000000e+03 7.703751373291015625e+01 -3.389649581909179688e+01 -1.240122218646886806e-14 -2.819028478262108200e-14 -1.217745217543027975e-14 -3.114615702392957430e-14
3.221000000000000000e+03 7.687471771240234375e+01 -3.223483657836914062e+01 -1.235476242931196969e-14 1.758057539607768560e-14 1.567744165315422631e-15 -4.489416583169751618e-14
3.222000000000000000e+03 7.692711639404296875e+01 -3.309813690185546875e+01 -1.208223211963174032e-14 4.057285106842667410e-14 8.547185007012122332e-15 5.061229891136290182e-14
3.223000000000000000e+03 7.727411651611328125e+01 3.010224914550781250e+01 2.026475843142257205e-14 1.916886923714403168e-13 6.358603829017747677e-14 1.335875854380219607e-13
3.224000000000000000e+03 7.786370849609375000e+01 -3.148464012145996094e+01 -1.324380482261829431e-14 -2.855139017462864082e-14 -1.253855926150373307e-14 -1.775305089177556641e-16
3.225000000000000000e+03 7.564191436767578125e+01 -3.969309234619140625e+01 -6.911092249699268830e-14 1.076338792941645972e-13 1.155688788618451993e-14 5.007045193500432589e-14
3.226000000000000000e+03 7.661605072021484375e+01 -3.916369247436523438e+01 2.605670873837527546e-14 5.691810683796511006e-14 2.489244501171529456e-14 3.059904616132028653e-15
3.227000000000000000e+03 3.469712829589843750e+01 -1.365129947662353516e+01 -1.028512398946329620e-13 -4.407910329600438215e-14 -4.407910329600438215e-14 8.538965568698556052e-14
3.228000000000000000e+03 3.267144775390625000e+01 7.835021018981933594e+00 2.250316496728646531e-14 -7.041994754247021815e-14 -1.437503511136830475e-14 -2.046162244089162752e-14
3.229000000000000000e+03 3.738835525512695312e+01 1.507398700714111328e+01 -1.006447597246169778e-13 4.836843070705511283e-14 -1.568289972170809621e-14 -3.820536348766480350e-14
3.230000000000000000e+03 4.325466632843017578e+00 -4.509697914123535156e+00 -1.420536932983558487e-14 -9.758991168342182054e-14 -3.353858464279040053e-14 -9.175954673824524011e-14
3.231000000000000000e+03 3.042632818222045898e+00 -3.734037017822265625e+01 1.009170977578181805e-14 2.102042904973330795e-13 6.608879703261585914e-14 2.496380584345557485e-14
3.232000000000000000e+03 2.121435642242431641e+00 -3.728695678710937500e+01 5.175093819730254563e-14 2.966846603461026355e-13 1.045306826123401645e-13 5.558519461634206169e-15
3.233000000000000000e+03 2.512202739715576172e+00 -1.478899574279785156e+01 -3.410107550613945826e-14 3.113620269273344177e-14 -8.894624157690443449e-16 -4.811843825003542588e-15
3.234000000000000000e+03 2.595970869064331055e+00 -2.118842506408691406e+01 5.211820490696843222e-14 -2.521693249178669216e-13 -6.001533363157729450e-14 -3.058968009450602210e-14
3.235000000000000000e+03 2.951697349548339844e+00 -2.833878135681152344e+01 -1.474574776282185865e-16 1.600651306377792737e-13 4.797529899931186892e-14 7.372034704694260809e-14
3.236000000000000000e+03 2.722850799560546875e+00 -2.591133308410644531e+01 1.139554928555625707e-14 1.650121283103961334e-13 5.292230344819230659e-14 -3.414825524130152279e-14
3.237000000000000000e+03 2.460285902023315430e+00 -1.240730381011962891e+01 -4.737665676977399765e-14 2.770768911617565999e-13 6.891006726827617057e-14 -1.760631333921295477e-14
3.238000000000000000e+03 3.034266710281372070e+00 -3.650027847290039062e+01 -4.614871310613943844e-14 2.597292870956235261e-14 -6.052734810753357397e-15 7.547607694001132184e-14
3.239000000000000000e+03 2.086031198501586914e+00 -3.567812347412109375e+01 4.091921300495432456e-14 2.462915396801712564e-13 8.616322716079038990e-14 1.029892588311903667e-13
3.240000000000000000e+03 2.057443380355834961e+00 -3.489414215087890625e+01 -6.713905012457541122e-14 1.999808603219896397e-13 3.985254441447698415e-14 -7.202590506980542651e-15
3.241000000000000000e+03 2.431405305862426758e+00 -9.223709106445312500e+00 -9.277641656768760570e-15 -4.972708171884637762e-14 -1.770141650446477311e-14 -6.000081209872956678e-14
3.242000000000000000e+03 3.124896764755249023e+00 -8.512604713439941406e+00 -2.426725846367636802e-14 -1.040025338528045851e-14 -1.040025338528045851e-14 -1.053852473765614500e-14
3.243000000000000000e+03 1.766659975051879883e+00 -1.235554218292236328e+01 2.142575599903794037e-14 1.921862598534482269e-13 6.408360577218538690e-14 -3.801164366449595600e-14
3.244000000000000000e+03 2.442637681961059570e+00 -8.414517402648925781e+00 -7.673280786539126569e-15 8.821335182500680827e-14 2.416201970217770473e-14 -5.523437135728122283e-14
3.245000000000000000e+03 1.744246959686279297e+00 -9.964695930480957031e+00 -5.926589920863742367e-14 -2.541544177805249438e-13 -9.402609170861692123e-14 -7.594317156470881125e-14
3.246000000000000000e+03 1.834757328033447266e+00 -1.795965957641601562e+01 -9.168998161635313893e-14 -8.504665477719261513e-14 -5.302099295094279963e-14 -1.358214620416839380e-13
3.247000000000000000e+03 2.544671058654785156e+00 -1.638978767395019531e+01 -1.715591203983995311e-14 -7.597895701266441093e-14 -2.794046088515789866e-14 8.863365634969797013e-14
3.248000000000000000e+03 3.308787584304809570e+00 -1.806212997436523438e+01 -1.583949985062282906e-13 2.361832619399411443e-14 -4.043300254070320010e-14 3.470170995716927165e-14
3.249000000000000000e+03 2.606743335723876953e+00 -2.276937675476074219e+01 3.765562216423781750e-14 1.613812233261686935e-14 1.613812233261686935e-14 5.867206134997637879e-14
3.250000000000000000e+03 2.493120193481445312e+00 -1.400447082519531250e+01 -8.512074644315484329e-14 -1.508576927657448441e-13 -7.079352972979083281e-14 -1.480692535271201093e-14
3.251000000000000000e+03 3.508443355560302734e+00 -4.379892349243164062e+00 5.752292901988614870e-14 2.076564831546279244e-13 7.955382229710150632e-14 -6.426980394278261621e-14
3.252000000000000000e+03 2.476086616516113281e+00 -1.321072578430175781e+01 -2.880833931324412733e-14 -8.097285320550484666e-14 -3.293435877206422890e-14 1.460556529235892964e-14
3.253000000000000000e+03 2.529969930648803711e+00 -1.558347988128662109e+01 -1.106181237510743195e-14 1.782630168695523154e-13 5.016036278828947537e-14 -6.135672211190351666e-14
3.254000000000000000e+03 2.590388298034667969e+00 -2.039813232421875000e+01 1.165600090540864012e-14 4.995428898958492389e-15 4.995428898958492389e-15 -9.930602753961334517e-14
3.255000000000000000e+03 1.827336549758911133e+00 -1.715744972229003906e+01 -2.405844112525565986e-14 -1.018126555285547852e-13 -3.776132848792336516e-14 2.137824930915823568e-14
3.256000000000000000e+03 2.773986339569091797e+00 -3.486774206161499023e+00 -3.358143095739431205e-14 3.135890798335733143e-14 -6.667569133869178689e-16 2.643727894751073809e-14
3.257000000000000000e+03 2.684588670730590820e+00 -2.512697410583496094e+01 1.552331397106088140e-13 8.940396166445818693e-14 7.339112905726738467e-14 1.157511180004469620e-13
3.258000000000000000e+03 1.951416254043579102e+00 -2.595033454895019531e+01 2.058525875800465421e-14 1.003241543659494361e-13 3.627282393718622711e-14 4.057496526266302084e-14
3.259000000000000000e+03 2.600645780563354492e+00 -2.197858428955078125e+01 -1.188228491023467920e-14 -1.423452555913279349e-13 -4.626826333631491039e-14 -3.413467560909114185e-14
3.260000000000000000e+03 1.885452151298522949e+00 -2.355924987792968750e+01 -3.332969954173391203e-14 2.144705853884820712e-13 5.434226609283762666e-14 2.739831744726778373e-14
3.261000000000000000e+03 2.504192352294921875e+00 -6.787840843200683594e+00 1.340858983090234546e-13 1.718427510748535281e-13 9.177859481516309481e-14 -5.668342788959883360e-14
3.262000000000000000e+03 2.714459896087646484e+00 -4.308879852294921875e+00 3.915060143482376742e-14 -7.472306464990224883e-14 -1.067173930333672333e-14 7.484698218195376396e-14
3.263000000000000000e+03 1.930951237678527832e+00 -4.275434017181396484e+00 4.885784973211043658e-14 6.669002779484053955e-14 3.466436258045893504e-14 2.667838899352904282e-15
3.264000000000000000e+03 2.867714405059814453e+00 -2.751842880249023438e+01 3.445146593136425017e-14 3.764038912371439616e-14 2.162755651652359390e-14 -3.726356788240348106e-14
3.265000000000000000e+03 3.015472650527954102e+00 -3.004985427856445312e+01 -4.358486295941328692e-14 2.787019475879864983e-13 7.053512369450606889e-14 1.059771540001027551e-14
3.266000000000000000e+03 2.782019615173339844e+00 -2.670841789245605469e+01 2.282437510747834658e-14 2.156611477940884036e-13 7.154565432937118330e-14 6.415771776693834916e-14
3.267000000000000000e+03 3.002160549163818359e+00 -3.266519546508789062e+01 -8.937487794118126327e-14 2.819531175375644683e-13 5.777347458942039271e-14 4.459582388701560651e-14
3.268000000000000000e+03 2.996651411056518555e+00 -2.917930793762207031e+01 -4.958850374054378507e-14 -2.125221588880447932e-14 -2.125221588880447932e-14 2.036031391226822418e-14
3.269000000000000000e+03 2.142953395843505859e+00 -3.089370918273925781e+01 -6.372902422793758070e-14 2.471932435219731383e-13 5.503926917634245630e-14 -1.409786899036775260e-14
3.270000000000000000e+03 2.877190589904785156e+00 -3.342773437500000000e+01 -3.725828917307619226e-14 6.907636694087650187e-15 -9.105195066070204818e-15 -1.785812098783860769e-14
3.271000000000000000e+03 2.953087568283081055e+00 -3.490547943115234375e+01 4.182178420849419487e-14 1.094255166079333152e-13 4.537418956730189523e-14 4.332485094966052885e-14
3.272000000000000000e+03 2.913904666900634766e+00 -3.414929962158203125e+01 -1.378069750326837983e-14 3.372260966565815421e-13 9.703362110124666429e-14 -4.585483671915545345e-14
3.273000000000000000e+03 1.950369262695312500e+01 -1.020078372955322266e+01 -4.861929137284573543e-14 -1.580896871744563725e-13 -6.201269153131155898e-14 1.119897563898152038e-13
3.274000000000000000e+03 1.920771789550781250e+01 -1.129113006591796875e+01 -1.823897478360481106e-13 -6.672929624227524892e-14 -7.473570915773886103e-14 2.012959975572145566e-13
3.275000000000000000e+03 1.828183555603027344e+01 -6.577742099761962891e+00 -6.540035575814187596e-14 -2.802872341232769127e-14 -2.802872341232769127e-14 1.487116051978351443e-15
3.276000000000000000e+03 5.157335662841796875e+01 2.926739120483398438e+01 -6.361841061887211525e-16 -4.602359956356640025e-14 -1.399793519621774299e-14 4.602423822640862999e-15
3.277000000000000000e+03 5.055701446533203125e+01 2.916806983947753906e+01 1.372459681710583301e-14 5.163291940269570945e-14 1.960725418831410494e-14 1.078227134312936819e-13
3.278000000000000000e+03 3.253856277465820312e+01 9.772270202636718750e+00 2.127613440516904625e-14 1.006202432029916494e-13 3.656891277422844033e-14 -8.632216103488139780e-15
3.279000000000000000e+03 2.167448234558105469e+01 -1.732278060913085938e+01 2.517892680106974951e-14 1.079096850802518590e-14 1.079096850802518590e-14 6.764512181737375451e-14
3.280000000000000000e+03 4.640901184082031250e+01 2.413483810424804688e+01 -6.297551896465320570e-15 -2.698950843022028361e-15 -2.698950843022028361e-15 -3.170900364111647884e-14
3.281000000000000000e+03 4.524707031250000000e+01 2.303301620483398438e+01 5.890382311687231143e-14 7.099544205562552390e-14 3.896978022937570840e-14 5.284317701839159886e-14
3.282000000000000000e+03 3.794834136962890625e+01 1.562407493591308594e+01 -1.156893269469447608e-14 -1.422109635997384491e-13 -4.613396795659363558e-14 3.494316855724537152e-14
3.283000000000000000e+03 4.872385406494140625e+01 2.635208511352539062e+01 -4.213123615494964716e-16 1.828232389696621274e-13 5.472057472400392031e-14 1.994367873430456795e-14
3.284000000000000000e+03 5.209169769287109375e+01 2.986521339416503906e+01 1.395480817489511138e-13 1.055572729918852204e-13 7.353160777750361587e-14 -6.446434369384440588e-14
3.285000000000000000e+03 2.172217369079589844e+01 -1.455039310455322266e+01 -2.243139586566560845e-14 -1.011153509013207330e-13 -3.706402386068931298e-14 -1.638438022137211209e-14
3.286000000000000000e+03 2.769945907592773438e+01 -2.938439941406250000e+01 5.992108258147041400e-14 -3.403271317103245819e-13 -8.412180999527174574e-14 4.083783007938213139e-14
3.287000000000000000e+03 2.563617229461669922e+00 -5.965369701385498047e+00 -2.713966746649421058e-14 -8.025770667626982990e-14 -3.221921224282921214e-14 2.005962907445420912e-14
3.288000000000000000e+03 5.582390785217285156e+00 -4.243576049804687500e+00 -7.834487250027617755e-15 1.796461606860463855e-13 5.154349982851996748e-14 -5.579477851958003498e-14
3.289000000000000000e+03 6.978900432586669922e+00 -3.857064723968505859e+00 3.232545727946921355e-14 1.511066120320203598e-13 5.502961977700733531e-14 -5.934999263964083061e-14
3.290000000000000000e+03 7.652141571044921875e+00 -3.837205886840820312e+00 2.445154742201048614e-14 5.623018394765484651e-14 2.420451873327324199e-14 -4.037081338171578937e-14
3.291000000000000000e+03 2.552499580383300781e+01 -2.334922790527343750e+01 -1.428379306110325042e-13 -4.272238487458557277e-13 -1.710185405833300476e-13 2.770328827179490555e-14
3.292000000000000000e+03 2.603108406066894531e+01 -2.610597991943359375e+01 -6.164171820546848757e-14 -2.641787850488682560e-14 -2.641787850488682560e-14 -3.723761818103139831e-15
3.293000000000000000e+03 3.920247268676757812e+01 -2.128461837768554688e+01 2.994314831619628720e-15 6.990970167130780566e-14 2.187120554380129339e-14 -3.204151150675883797e-15
3.294000000000000000e+03 3.880009460449218750e+01 -2.062932205200195312e+01 -2.217153970997514517e-14 1.163130193288647307e-13 2.824244507151300182e-14 -1.878505963520508970e-14
3.295000000000000000e+03 2.994541549682617188e+01 -7.537699222564697266e+00 7.831558210096012385e-14 1.708166621388132467e-13 7.473967327193201116e-14 -6.151530700842025579e-14
3.296000000000000000e+03 2.894343185424804688e+01 -5.200910091400146484e+00 1.079132256779713819e-14 2.083595476059033058e-13 6.574526079800024903e-14 -1.244949544116583789e-14
3.297000000000000000e+03 4.930936431884765625e+01 2.692797851562500000e+01 -4.197310410342233386e-15 -9.330074690269696269e-14 -2.924941647393375366e-14 4.821495341921031713e-15
3.298000000000000000e+03 4.989537429809570312e+01 2.751146507263183594e+01 -1.376635469437252277e-14 8.560203056378473674e-14 2.155070352315331672e-14 2.973872707877182886e-14
3.299000000000000000e+03 2.707903861999511719e+01 -2.620538330078125000e+01 -1.519785409716603586e-13 -1.108846087866099950e-13 -7.885895034849196850e-14 3.982032666929521958e-14
3.300000000000000000e+03 2.069182205200195312e+01 -1.427350044250488281e+01 3.187504581570084483e-14 -2.150940151901883923e-13 -5.496568911828036974e-14 1.746612430424468454e-13
3.301000000000000000e+03 2.152817535400390625e+01 -1.561833858489990234e+01 -2.525523769335378393e-14 -2.167029441091025688e-13 -7.258745742064892648e-14 8.879228698599386099e-15
3.302000000000000000e+03 4.508740997314453125e+01 -3.056544303894042969e+01 7.540387585158736528e-14 4.440744918055711254e-13 1.558435048761366848e-13 -7.612485674376306966e-14
3.303000000000000000e+03 4.466766357421875000e+01 -2.989446449279785156e+01 -1.087197280986995640e-13 4.109153067723830821e-13 9.065867495735777104e-14 -1.331147242130195640e-13
3.304000000000000000e+03 3.394670867919921875e+01 1.079264450073242188e+01 -3.986588348933034487e-14 2.866557021591852050e-14 -3.360094151430136761e-15 -1.332939428321314179e-13
3.305000000000000000e+03 3.633625793457031250e+01 1.403079414367675781e+01 -1.104510092327787296e-13 -1.585196749798005456e-15 -3.361086027011371546e-14 -1.103346336820895668e-13
3.306000000000000000e+03 3.907659912109375000e+01 1.677795791625976562e+01 -4.261952661448187296e-14 -1.555183526446082820e-13 -5.944136377772704649e-14 -1.078570081012621140e-13
3.307000000000000000e+03 4.294661712646484375e+01 2.082498168945312500e+01 -8.407140814677832585e-15 1.794007379717771355e-13 5.129807711425071748e-14 -1.227407407075652504e-14
3.308000000000000000e+03 2.549756240844726562e+01 -1.691350102424621582e+00 -2.383128145776874929e-13 -2.206989745037052364e-14 -7.811480818740654253e-14 1.156914055657973228e-13
3.309000000000000000e+03 3.851514816284179688e+01 1.619395637512207031e+01 -1.591008547780978222e-13 -1.139370309254442160e-13 -8.191136571106261144e-14 -7.850037758499670004e-14
3.310000000000000000e+03 1.751509666442871094e+01 -6.349534034729003906e+00 -1.108122111865422754e-13 -9.324189505352173390e-14 -6.121622983914012939e-14 1.681856964894784534e-13
3.311000000000000000e+03 4.582906723022460938e+01 2.358716392517089844e+01 -4.579962711165341815e-14 2.612253675090409066e-14 -5.903127192928092973e-15 6.088459272336754768e-14
3.312000000000000000e+03 3.472622680664062500e+01 -1.479327678680419922e+01 -7.131982179310603076e-14 6.093626173315006000e-14 -3.115069542646096284e-15 -1.147357541955848145e-14
3.313000000000000000e+03 3.053361892700195312e+01 4.486457347869873047e+00 5.121107327804054477e-14 -2.380334529472876576e-14 8.222318225586944251e-15 -1.057499560467266286e-13
3.314000000000000000e+03 3.127766418457031250e+01 4.942473888397216797e+00 1.051910227217560390e-13 -9.217098113391275493e-14 3.906014085715584991e-15 2.658923157605047605e-14
3.315000000000000000e+03 1.704743766784667969e+01 -3.767327547073364258e+00 2.686936773337728068e-13 -2.209841535563868142e-14 7.397857689937434311e-14 1.191285568455380250e-13
3.316000000000000000e+03 3.212192535400390625e+01 1.019004344940185547e+01 1.973450733611190749e-14 4.706000874903602804e-14 2.003835499495097011e-14 3.317685075233597902e-14
3.317000000000000000e+03 5.380978393554687500e+01 3.192726707458496094e+01 -1.520960278295763191e-13 2.631788287733166642e-14 -3.773344416329975359e-14 1.002408673103118153e-13
3.318000000000000000e+03 1.795902633666992188e+01 -7.593993663787841797e+00 -7.520973590007667964e-14 1.507710514596360962e-13 2.266839568430736168e-14 4.648317931195584951e-14
3.319000000000000000e+03 1.839607810974121094e+01 -8.987226486206054688e+00 -1.379580518291560753e-14 -5.912487754028200246e-15 -5.912487754028200246e-15 1.411078827569245409e-13
3.320000000000000000e+03 2.476236724853515625e+01 -1.827868074178695679e-01 -1.289100255577949050e-13 -1.467490544230024008e-13 -8.269772399423919174e-14 7.658467366137775012e-14
3.321000000000000000e+03 2.441907501220703125e+01 -1.595487594604492188e+00 -3.636487270163024643e-13 -2.187570057824578251e-13 -1.747217144186172244e-13 2.292060584298954984e-13
3.322000000000000000e+03 2.937259864807128906e+01 -3.167508125305175781e+01 -1.067561447907041175e-14 -3.362696406050691422e-13 -1.040835779651978765e-13 1.365249330687740015e-13
3.323000000000000000e+03 1.059171485900878906e+01 -4.464745044708251953e+00 -2.397503548500542342e-14 -1.246523907314986412e-13 -4.458822769554462995e-14 -1.416770075823164943e-13
3.324000000000000000e+03 8.871530532836914062e+00 -4.048030376434326172e+00 2.642970139076460112e-14 5.707796567203451965e-14 2.505229876358702062e-14 -2.674209052984377610e-14
3.325000000000000000e+03 2.977205467224121094e+01 -3.251523971557617188e+01 -1.034796688847939780e-14 -3.246914727101507525e-13 -1.005118365382702550e-13 6.352075576686669334e-14
3.326000000000000000e+03 1.405866146087646484e+01 -5.113376617431640625e+00 1.505360336980909181e-14 -8.505035461710622191e-14 -2.099902418834301288e-14 -3.962587162152815534e-14
3.327000000000000000e+03 1.817063140869140625e+01 -8.272759437561035156e+00 -5.453627390720854062e-14 2.237825979481845168e-14 -9.647403725497258331e-15 2.083747399888452589e-13
3.328000000000000000e+03 1.864330673217773438e+01 -9.734786033630371094e+00 -1.903146287481408128e-13 -9.300114796112132765e-14 -8.499472826939413750e-14 1.908296518851257395e-13
3.329000000000000000e+03 4.768309020996093750e+01 -3.387369155883789062e+01 9.254530871022695337e-14 4.514208017808440943e-13 1.631898419564639657e-13 -9.015130899821602317e-14
3.330000000000000000e+03 4.645222473144531250e+01 -3.255565261840820312e+01 4.598286066693525742e-14 4.772164109191623371e-13 1.569597858804006041e-13 -7.515892747576857769e-14
3.331000000000000000e+03 3.052459335327148438e+01 -6.083500862121582031e+00 -1.586503958804844072e-13 -3.367981552828379355e-14 -5.769906443906999693e-14 9.424794996629355659e-15
3.332000000000000000e+03 3.273923492431640625e+01 1.079696846008300781e+01 7.561370962954477859e-14 1.239077742319627529e-13 5.985644380319954383e-14 -2.617992153901467500e-14
3.333000000000000000e+03 3.323879241943359375e+01 1.021055603027343750e+01 -2.739327251903393712e-14 -1.032418711611159112e-13 -3.919054412048449121e-14 -5.103800750625754612e-14
3.334000000000000000e+03 4.734157180786132812e+01 -3.090201187133789062e+01 5.219136483668868065e-14 4.341262592466588188e-13 1.458952858697515342e-13 -2.375457483169175765e-14
3.335000000000000000e+03 3.095384788513183594e+01 -7.803917884826660156e+00 2.302300941580716354e-14 2.529189151948690872e-13 8.278257636676333853e-14 -1.814581911650531981e-14
3.336000000000000000e+03 3.047852134704589844e+01 -7.141010284423828125e+00 -8.753748051947007891e-14 7.114243954142382420e-14 -4.918510684051276630e-15 3.783926568346612784e-14
3.337000000000000000e+03 9.664527893066406250e+00 -3.748632907867431641e+00 3.039548932101850121e-14 -3.272430815367231849e-14 -6.986456392082333443e-16 -5.662525366678140826e-15
3.338000000000000000e+03 1.737187767028808594e+01 -4.808185100555419922e+00 1.092881956265244481e-13 1.383396977701345509e-13 7.428836734137134190e-14 1.804584042960910573e-13
3.339000000000000000e+03 3.596440124511718750e+01 -1.515800285339355469e+01 -2.980531064468959490e-14 -3.564917729504540889e-14 -1.963634638192050114e-14 -3.863629319364632331e-14
3.340000000000000000e+03 1.469247150421142578e+01 -4.139161586761474609e+00 -3.252192826565074302e-14 -5.968892101502337733e-14 -2.766325410657587830e-14 9.430475199573642997e-14
3.341000000000000000e+03 2.482513999938964844e+01 -2.186020660400390625e+01 2.579936657647226295e-14 -2.748865588278470717e-13 -7.472615462609383252e-14 8.821782415896831098e-14
3.342000000000000000e+03 2.620485877990722656e+01 -2.291821098327636719e+01 -1.278727286817965547e-13 -2.835573301770283328e-13 -1.234290176576474662e-13 1.646776383876571992e-13
3.343000000000000000e+03 2.585323143005371094e+01 -2.218885993957519531e+01 -1.641788037443601966e-14 -2.815419338636493407e-13 -8.938794257735971360e-14 4.375532664598232035e-14
3.344000000000000000e+03 4.600493621826171875e+01 -3.908739852905273438e+01 8.680497320294813801e-14 5.633380589266379079e-13 1.950429021849858779e-13 1.081980828581330031e-14
3.345000000000000000e+03 4.737298583984375000e+01 -3.572142791748046875e+01 1.126534371971750492e-13 5.172272657914811500e-13 1.889642142847286488e-13 -8.500130124506483087e-14
3.346000000000000000e+03 3.524504852294921875e+01 -3.895911026000976562e+01 3.709784080407549367e-14 8.452549912166956725e-14 3.648700130009716047e-14 5.068852848848399983e-14
3.347000000000000000e+03 7.753164672851562500e+01 -3.912836837768554688e+01 4.038912284590363833e-15 1.730962332053642781e-15 1.730962332053642781e-15 -4.407169345178180153e-14
3.348000000000000000e+03 7.168731689453125000e+01 3.054626083374023438e+01 -1.295563404956701428e-14 -5.130336259984158431e-14 -1.927769907952587430e-14 1.172917963926031759e-13
3.349000000000000000e+03 7.343965911865234375e+01 3.045524024963378906e+01 -1.207890260252267312e-13 2.227389686538724933e-13 3.058498414384644426e-14 -4.894994931853129116e-14
3.350000000000000000e+03 5.445971298217773438e+01 3.199585723876953125e+01 -9.367055471120461219e-14 5.606424680515594006e-15 -2.641924053386601051e-14 1.504618336119114413e-14
3.351000000000000000e+03 1.139375305175781250e+01 -4.285173892974853516e+00 -6.590558041799296496e-14 -2.824524875056841355e-14 -2.824524875056841355e-14 -3.020144423719790805e-14
3.352000000000000000e+03 6.160467529296875000e+01 3.025202369689941406e+01 2.435405664028694739e-13 -1.701311617627321304e-13 2.202282444135981315e-14 2.748797283541604131e-13
3.353000000000000000e+03 6.066823959350585938e+01 3.127128982543945312e+01 -3.443691729346221031e-14 -3.807662735458294812e-13 -1.245609518307766450e-13 1.305446839495148781e-14
3.354000000000000000e+03 6.169469833374023438e+01 3.070108795166015625e+01 2.266142629721735330e-14 -6.308012380669414387e-13 -1.824419386181261316e-13 2.155809439383787884e-13
3.355000000000000000e+03 5.779738235473632812e+01 3.113666534423828125e+01 1.582154038044878558e-14 -1.304721847054934880e-13 -3.439519245048046348e-14 1.258415419802148480e-14
3.356000000000000000e+03 7.060581970214843750e+01 3.060497283935546875e+01 -5.190257403552001048e-14 -4.340024975686695985e-13 -1.457715241917623139e-13 -4.460808892409184878e-14
3.357000000000000000e+03 7.166320037841796875e+01 2.998047256469726562e+01 -7.587278651492376791e-14 -2.155207029551700626e-13 -8.741804887390722256e-14 5.175536987368258013e-14
3.358000000000000000e+03 5.578073120117187500e+01 3.180792617797851562e+01 -1.389529902815281326e-13 -3.798079201405152316e-13 -1.556282771923711561e-13 -1.081953401654497937e-13
3.359000000000000000e+03 5.677157592773437500e+01 3.121312332153320312e+01 -7.673257239023192899e-14 -2.158891826160164173e-13 -8.778652853475357731e-14 -2.667833266583805041e-14
3.360000000000000000e+03 6.802072143554687500e+01 3.080662727355957031e+01 9.349163424769019182e-14 -9.718500282957995284e-14 -1.108012056874586003e-15 -8.507354976733383367e-15
3.361000000000000000e+03 6.845664978027343750e+01 3.027881813049316406e+01 -4.024300627437048250e-14 -1.544998531237753991e-13 -5.842285748063058559e-14 6.009004193752512379e-14
3.362000000000000000e+03 6.886113739013671875e+01 2.969040298461914062e+01 1.170666211539050927e-13 -8.708143798066836361e-14 8.995552580278766419e-15 -2.907991840492459013e-14
3.363000000000000000e+03 7.008229827880859375e+01 3.064556503295898438e+01 8.979195018814570273e-14 3.848226533438581232e-14 3.848226533438581232e-14 -1.788089262159259230e-13
3.364000000000000000e+03 6.595977783203125000e+01 3.091438865661621094e+01 4.189272152376084801e-14 6.370497526849913661e-14 3.167930666598574307e-14 -5.294560363050537788e-14
3.365000000000000000e+03 6.223637390136718750e+01 3.065840721130371094e+01 -7.174845434573459690e-14 -1.222512352851493067e-13 -5.819990485638609767e-14 2.285894726544029920e-13
3.366000000000000000e+03 6.588078308105468750e+01 3.046076393127441406e+01 -8.021187880569158324e-14 -3.437652045619118968e-14 -3.437652045619118968e-14 -9.349159359010872361e-14
3.367000000000000000e+03 6.536354064941406250e+01 3.048525619506835938e+01 1.108199496795483907e-13 1.389961550805202117e-13 7.494483142802058073e-14 8.193962273018301490e-14
3.368000000000000000e+03 6.948762512207031250e+01 3.015340042114257812e+01 2.111517781639999508e-14 9.049362042318990357e-15 9.049362042318990357e-15 1.183601488845796579e-14
3.369000000000000000e+03 6.484299468994140625e+01 3.051139068603515625e+01 1.464013731267802833e-17 -1.829975244688891722e-13 -5.489486361136275416e-14 6.589307821169149149e-14
3.370000000000000000e+03 6.793983459472656250e+01 3.032482910156250000e+01 -3.393141819493621092e-14 -3.805496228467125652e-13 -1.243443146841868852e-13 -1.800303883834480922e-13
3.371000000000000000e+03 7.001217651367187500e+01 3.008709526062011719e+01 -3.819630023512918249e-14 -1.636984344193133378e-14 -1.636984344193133378e-14 -1.136599833890562794e-13
3.372000000000000000e+03 5.627345275878906250e+01 3.123027038574218750e+01 -8.616136368830643044e-14 -2.656810318621416478e-13 -1.055527193427607813e-13 -9.230475135320673208e-14
3.373000000000000000e+03 6.639433288574218750e+01 3.043490028381347656e+01 1.357736758309316394e-13 -1.248150752674800912e-13 3.287576907958617532e-15 -7.630068045482232830e-14
3.374000000000000000e+03 6.690695953369140625e+01 3.040356445312500000e+01 -4.866242229051992441e-14 -2.953610121238237074e-13 -1.032070343900612364e-13 -2.517818039563662902e-13
3.375000000000000000e+03 6.329081344604492188e+01 3.059347534179687500e+01 2.474309446838952181e-14 1.060418334359550935e-14 1.060418334359550935e-14 6.206239542465644132e-14
3.376000000000000000e+03 6.380978012084960938e+01 3.056527519226074219e+01 -1.728209114986063721e-14 -4.649160830622056650e-13 -1.446594580234439320e-13 1.286920060534352261e-13
3.377000000000000000e+03 7.600117492675781250e+01 3.025603103637695312e+01 -1.168632519314011242e-13 -5.008425179578099296e-14 -5.008425179578099296e-14 4.639360388371781274e-14
3.378000000000000000e+03 1.609605026245117188e+01 -6.173908233642578125e+00 -5.977251575537908829e-16 1.827476294206584195e-13 5.464497195126379048e-14 2.671188736782376116e-13
3.379000000000000000e+03 1.686626625061035156e+01 -4.380408287048339844e+00 8.530832697152199162e-14 2.195645060079978728e-13 9.146185192673503273e-14 2.158008743490674730e-13
3.380000000000000000e+03 5.421447372436523438e+01 3.153414726257324219e+01 -5.792502572434313213e-14 -9.917030575640889412e-14 -4.712859808897289227e-14 1.187294755783732669e-13
3.381000000000000000e+03 5.258053207397460938e+01 2.939336013793945312e+01 6.110568738084223329e-16 2.618815173464667141e-16 2.618815173464667141e-16 -5.634138243297039106e-14
3.382000000000000000e+03 6.114247512817382812e+01 3.075536346435546875e+01 1.299552913197610238e-13 -3.103124582379962471e-13 -5.410715007547056699e-14 1.537698869060952211e-13
3.383000000000000000e+03 1.319769382476806641e+01 -3.834494829177856445e+00 1.032233787378114553e-13 -4.726330682077242717e-14 1.678802360799078186e-14 -2.018187117533605524e-14
3.384000000000000000e+03 1.366762828826904297e+01 -4.460315704345703125e+00 -6.916046037187990880e-15 -4.871496882643579218e-14 -1.668930361205418766e-14 -1.629660490755358015e-13
3.385000000000000000e+03 1.319119167327880859e+01 -4.372208118438720703e+00 -9.449894276922395087e-15 -2.328046880707007604e-13 -7.267637555131989391e-14 1.170870244835385543e-14
3.386000000000000000e+03 5.952419662475585938e+01 3.141444587707519531e+01 -6.924640033470833012e-14 -1.669298786656156497e-13 -7.085288302247083614e-14 1.898107457884781746e-13
3.387000000000000000e+03 6.058244323730468750e+01 3.081780242919921875e+01 2.114701270268960070e-14 -1.739407906988302277e-13 -4.583813322943559865e-14 -3.836058058118325953e-14
3.388000000000000000e+03 1.181281471252441406e+01 -4.262380123138427734e+00 3.793406222279104012e-14 -1.667463367903410099e-13 -3.864368270907816982e-14 -1.290915210014689785e-13
3.389000000000000000e+03 5.945723724365234375e+01 3.095599746704101562e+01 7.344610488367597778e-14 7.722784949515046349e-14 4.520218428076885897e-14 6.524314644313147782e-14
3.390000000000000000e+03 5.834035491943359375e+01 3.108022308349609375e+01 -2.186238284862269260e-14 -3.296262460032728381e-13 -1.054465827263380284e-13 3.165853741811906763e-14
3.391000000000000000e+03 5.889730072021484375e+01 3.102066612243652344e+01 -6.029810711068867013e-14 -4.376005851083886178e-13 -1.493696117314813332e-13 6.802116294134024840e-15
3.392000000000000000e+03 1.414063358306884766e+01 -4.568731307983398438e+00 3.319474686444556788e-14 -1.230265211536393788e-13 -2.694953398082403778e-14 -4.285319928770681130e-14
3.393000000000000000e+03 4.017086029052734375e+01 1.796726417541503906e+01 -1.178656239449182852e-13 -9.626478623568288095e-14 -6.423912779756485447e-14 -2.781890149283153951e-14
3.394000000000000000e+03 8.292576789855957031e+00 -3.894510507583618164e+00 -2.942177412617284771e-14 -5.836027868648743788e-14 -2.633461516617172787e-14 -1.968461201332094568e-14
3.395000000000000000e+03 8.189815521240234375e+00 -4.509216785430908203e+00 8.411019547949899478e-14 1.275491214383639438e-13 6.349779778586431278e-14 2.757390737723360019e-14
3.396000000000000000e+03 7.658754730224609375e+01 2.947521781921386719e+01 -8.987267581615082657e-14 9.873598791863835711e-14 2.658993969559438064e-15 -3.546065147790912475e-14
3.397000000000000000e+03 7.470651245117187500e+01 3.038106727600097656e+01 -9.432421342473254477e-14 5.326285473870179255e-15 -2.669937804644553075e-14 2.017833735388011029e-13
3.398000000000000000e+03 2.240864372253417969e+01 -1.866738700866699219e+01 -4.699477027143850183e-14 -6.589156710491358981e-14 -3.386590189053198530e-14 3.404070577392274977e-14
3.399000000000000000e+03 2.729724884033203125e+01 -3.372857332229614258e+00 -8.124035976277491078e-14 1.195921616944928267e-13 1.150553905485606973e-14 -1.369983465592580080e-15
3.400000000000000000e+03 3.516079330444335938e+01 -1.314852142333984375e+01 -1.375143082087484925e-13 -3.334403879309139063e-13 -1.412864101971514352e-13 -2.339408438560390546e-14
3.401000000000000000e+03 3.345311355590820312e+01 -1.179482364654541016e+01 4.396823684760416129e-14 -2.041923487933194892e-13 -4.806723256727506166e-14 6.249421282116668364e-14
3.402000000000000000e+03 4.346092987060546875e+01 2.034197807312011719e+01 4.016454053026863313e-14 -1.257583447100696361e-13 -2.567813922106122748e-14 1.400094639834523202e-13
3.403000000000000000e+03 2.277314376831054688e+01 -1.934649276733398438e+01 1.351852386543422879e-14 5.154460097135139807e-14 1.951893745103568806e-14 1.581368499689594920e-14
3.404000000000000000e+03 2.342234802246093750e+01 -1.899460411071777344e+01 -5.739683630722608454e-14 -1.275382794166390887e-13 -5.548053268428047857e-14 7.861066127472920995e-14
3.405000000000000000e+03 2.204081344604492188e+01 -1.799323463439941406e+01 -2.949928441711019422e-14 -1.956463420091369976e-13 -6.754368792787415754e-14 3.039373765688357931e-14
3.406000000000000000e+03 3.402489852905273438e+01 -1.136803722381591797e+01 3.510575695498730810e-15 9.300643344671219448e-14 2.895510301794898544e-14 3.343055406069758706e-14
3.407000000000000000e+03 3.322840118408203125e+01 -1.004975795745849609e+01 3.382220176671724143e-14 2.432499731155890466e-13 8.312165381994460200e-14 6.052536266230520989e-14
3.408000000000000000e+03 4.791264724731445312e+01 2.366429328918457031e+01 -3.787272348488267271e-14 -1.623116720780685973e-14 -1.623116720780685973e-14 -4.833869985060648689e-14
3.409000000000000000e+03 4.849639511108398438e+01 2.421122932434082031e+01 8.070500105879230279e-14 -1.541348022522995298e-13 -2.202894171330488371e-14 -3.223077593662512785e-14
3.410000000000000000e+03 9.358418464660644531e+00 -4.324200630187988281e+00 -1.818294795871526481e-14 -1.907964888511748391e-13 -6.269382799364842107e-14 2.725579907169456417e-14
3.411000000000000000e+03 2.712780380249023438e+01 -2.791804885864257812e+01 -5.511454922952968224e-15 -3.454941682138473746e-13 -1.053016858822489188e-13 1.072926131078476286e-13
3.412000000000000000e+03 4.400073242187500000e+01 -2.735659980773925781e+01 -6.875409123323697469e-14 3.079472169886104949e-13 7.175793433848026703e-14 -6.667748493095759788e-14
3.413000000000000000e+03 4.270708847045898438e+01 -2.536656761169433594e+01 8.024577367610891132e-14 1.723443877031400479e-14 2.924406322570710648e-14 -3.127645102000801980e-14
3.414000000000000000e+03 3.653150177001953125e+01 -1.661164665222167969e+01 -8.927322721124716920e-14 8.755515301488159263e-14 -5.154214542283730785e-16 -3.275895180121501937e-14
3.415000000000000000e+03 3.693052291870117188e+01 -1.558650970458984375e+01 -3.391204485736661056e-14 1.227191091801582701e-13 2.664212031327703456e-14 -4.610536534803075237e-14
3.416000000000000000e+03 3.898670578002929688e+01 -1.950135421752929688e+01 8.253912554519529654e-14 4.013815104939033596e-13 1.451761887788505234e-13 -1.989191655089785765e-14
3.417000000000000000e+03 4.578117752075195312e+01 -2.996509170532226562e+01 9.697321918177796013e-15 4.616654823187682499e-13 1.414088437274793608e-13 -4.170371120377873442e-14
3.418000000000000000e+03 2.681962394714355469e+01 -2.729090118408203125e+01 -5.450549272990531935e-14 -2.063632874608686829e-13 -7.826063337960584287e-14 1.343833762800991649e-13
3.419000000000000000e+03 4.103728866577148438e+01 -2.272384262084960938e+01 1.799073077199484644e-14 -2.210444284209134302e-13 -6.091610912526898569e-14 -5.396198091028891509e-16
3.420000000000000000e+03 4.165269470214843750e+01 -2.521483039855957031e+01 9.626080179269899673e-14 -5.024726836867776658e-14 1.380405867195365344e-14 -6.884721742358990149e-14
3.421000000000000000e+03 3.282043075561523438e+01 -9.383127212524414062e+00 5.745783623195555023e-14 7.037573242262354367e-14 3.835007059637372817e-14 -8.347701463450388215e-14
3.422000000000000000e+03 1.913284683227539062e+01 -1.327302551269531250e+01 -6.920223264870670188e-14 -1.669109457851786216e-13 -7.083395014203380802e-14 5.911402958932651663e-14
3.423000000000000000e+03 3.722823715209960938e+01 -1.796466827392578125e+01 -8.053276919094587601e-16 1.712209204713516231e-13 5.112467591742060613e-14 9.364012251147565968e-14
3.424000000000000000e+03 3.718858337402343750e+01 -1.624624252319335938e+01 2.688095480528254061e-14 1.945242063131416566e-13 6.642154545561523848e-14 3.040813044072332438e-14
3.425000000000000000e+03 4.423904037475585938e+01 -2.922216796875000000e+01 2.562917394044635089e-14 4.227424616962127679e-13 1.345114883193054833e-13 -7.266616880430547959e-15
3.426000000000000000e+03 4.443515014648437500e+01 -2.801799392700195312e+01 -1.730003300174937780e-14 3.414366771085919350e-13 9.724099509552525111e-14 -3.682649549348847307e-14
3.427000000000000000e+03 2.313092803955078125e+01 -2.004029846191406250e+01 4.749594611380171527e-14 6.610635433154654628e-14 3.408068911716494176e-14 1.088212907372071436e-13
3.428000000000000000e+03 4.251395797729492188e+01 -2.653785705566406250e+01 1.252125573364404332e-13 5.366252554079783965e-14 5.366252554079783965e-14 -6.138404400665015137e-14
3.429000000000000000e+03 3.001177406311035156e+01 -5.439131259918212891e+00 -7.510757017411065495e-14 9.934501816024135512e-14 7.271235751091925659e-15 -5.654698782245511091e-14
3.430000000000000000e+03 4.000410079956054688e+01 -2.258316421508789062e+01 -9.773313479040715568e-14 -8.763657659803525402e-14 -5.561091477178543852e-14 3.550841735987068926e-14
3.431000000000000000e+03 3.979409408569335938e+01 -2.373422241210937500e+01 7.110828039672695278e-14 -1.527597154131997426e-14 1.674969197899573575e-14 1.899760391859371678e-14
3.432000000000000000e+03 2.732753944396972656e+01 -4.408297061920166016e+00 -1.766554703084080580e-13 6.154335396336974018e-14 -3.453363490351149534e-14 6.383549288127565724e-14
3.433000000000000000e+03 4.919365310668945312e+01 2.584931945800781250e+01 -3.694731881418366823e-15 -4.733440676636495315e-14 -1.530874155198334863e-14 2.358290158207404508e-14
3.434000000000000000e+03 4.745242691040039062e+01 2.416697311401367188e+01 4.917030324569360289e-14 -1.324022441435025038e-14 1.077902364940300575e-14 -1.483726878338809119e-13
3.435000000000000000e+03 3.240044784545898438e+01 -8.717061042785644531e+00 -3.199106222442037184e-14 3.204049506722213281e-14 1.482983464255481417e-17 4.839989289884792656e-14
3.436000000000000000e+03 4.514962005615234375e+01 2.199355697631835938e+01 5.812856435343655148e-14 2.851207768148067423e-13 1.029747982847148413e-13 1.576524419908201247e-13
3.437000000000000000e+03 4.409010314941406250e+01 2.192729759216308594e+01 1.418184688607715405e-13 1.065302970078459144e-13 7.450463179346430986e-14 1.458147432008630173e-13
3.438000000000000000e+03 3.129379653930664062e+01 3.277216672897338867e+00 1.166987784618350732e-13 5.001376510204227910e-14 5.001376510204227910e-14 -9.028992424596829491e-14
3.439000000000000000e+03 1.891447830200195312e+01 -1.050634288787841797e+01 -9.307709632330393723e-14 -5.576973344939561983e-15 -2.959622225572576537e-14 1.600094026461135188e-13
3.440000000000000000e+03 1.884727859497070312e+01 -1.241128635406494141e+01 -7.448264959441716626e-14 -2.606758938480252530e-13 -1.005475609998536524e-13 7.631806834716356458e-14
3.441000000000000000e+03 3.678155136108398438e+01 1.357851409912109375e+01 -3.497926910145734980e-14 -1.522439672160119661e-13 -5.616696818473536357e-14 -2.211446959460446580e-15
3.442000000000000000e+03 3.730177307128906250e+01 1.403594017028808594e+01 -1.234948016244630242e-13 -1.444282383576342421e-13 -8.037690792887103308e-14 -5.117122207193812444e-14
3.443000000000000000e+03 2.825041770935058594e+01 -2.999658966064453125e+01 -1.079152229816610076e-13 -4.580079262898884007e-13 -1.697769393604539601e-13 1.378398399110372652e-14
3.444000000000000000e+03 2.927399253845214844e+01 2.078461885452270508e+00 7.736429633855776422e-14 1.246580285827955659e-13 6.060669815403235683e-14 -3.061946854919506134e-14
3.445000000000000000e+03 2.802306938171386719e+01 1.299973011016845703e+00 2.728005470717213832e-14 1.375065561632152211e-13 4.943598359992938673e-14 -4.236973998646836881e-14
3.446000000000000000e+03 2.634470558166503906e+01 1.289144754409790039e-01 -1.425204423336108583e-14 -5.185896877939535909e-14 -1.983330356501375458e-14 -8.266515727148315840e-14
3.447000000000000000e+03 2.743661117553710938e+01 9.172068834304809570e-01 3.362240363511889707e-14 1.440960083187985824e-14 1.440960083187985824e-14 -1.508074806526316092e-13
3.448000000000000000e+03 2.698628616333007812e+01 1.472526073455810547e+00 9.227020596148591269e-14 1.482028746686153697e-13 7.214192486665674253e-14 -1.850789080369910633e-13
3.449000000000000000e+03 2.535787010192871094e+01 -7.178031206130981445e-01 -5.766995361073876114e-14 1.531638687136526594e-14 -1.270607019121863801e-14 5.028108192393215825e-14
3.450000000000000000e+03 2.651296615600585938e+01 -2.667587280273437500e+01 1.583309899204701776e-14 -1.590615795543995348e-13 -4.296854145820032389e-14 2.026103318052054764e-14
3.451000000000000000e+03 7.613428497314453125e+01 -3.028775787353515625e+01 -1.570823977111639267e-15 3.364000159163105241e-14 9.620753527877796279e-15 -1.677622342259599275e-13
3.452000000000000000e+03 3.785924530029296875e+01 1.453677558898925781e+01 -7.409338543911108549e-15 -4.892637808567509849e-14 -1.690071456535938849e-14 7.293476125781392372e-14
3.453000000000000000e+03 4.290217971801757812e+01 1.977976799011230469e+01 2.077547694696955244e-14 -1.755297296401892027e-13 -4.642627902669109463e-14 3.322192645765706387e-14
3.454000000000000000e+03 7.547533416748046875e+01 -2.968312454223632812e+01 4.503634200596004500e-14 1.108031852034563336e-13 4.675185816282491358e-14 6.468571660164226453e-15
3.455000000000000000e+03 7.690631866455078125e+01 -3.137175941467285156e+01 -1.169548365217900482e-14 -1.422652008134170365e-13 -4.618820517027222294e-14 -4.328997013289259677e-14
3.456000000000000000e+03 3.335519027709960938e+01 1.138935089111328125e+01 3.678990705829887631e-14 -8.431309713981607890e-14 -1.425695702445516078e-14 -8.326270852258496613e-14
3.457000000000000000e+03 7.704263305664062500e+01 2.711411285400390625e+01 -4.603804994564655861e-14 -4.260606895501589664e-14 -2.659323634782509438e-14 1.422648891052924469e-13
3.458000000000000000e+03 7.766043853759765625e+01 2.619590187072753906e+01 2.660145256741346109e-14 -8.010127663157090572e-14 -1.604994620280769668e-14 1.420488618224247102e-13
3.459000000000000000e+03 7.689813232421875000e+01 2.388819313049316406e+01 1.138966714995734431e-13 2.089411814138603107e-13 9.685135316352469492e-14 7.571805731238293036e-14
3.460000000000000000e+03 7.739844512939453125e+01 -2.254570198059082031e+01 -1.744399472146471869e-14 1.297768451946970658e-13 3.369985632781583029e-14 -7.778384192172818623e-14
3.461000000000000000e+03 7.653867340087890625e+01 -2.484981346130371094e+01 -7.784273442848488322e-14 1.496426273910403393e-13 2.153996653351392121e-14 1.938938714988493184e-14
3.462000000000000000e+03 7.742385101318359375e+01 -2.094562721252441406e+01 -1.576736584720829504e-14 3.134991994734742660e-13 8.931954974906661238e-14 -6.701426523078590769e-14
3.463000000000000000e+03 7.665576934814453125e+01 -2.243290710449218750e+01 -8.960854722627441260e-15 1.334124867871655518e-13 3.733548775588894919e-14 1.314192624082138883e-13
3.464000000000000000e+03 7.775330352783203125e+01 2.775986099243164062e+01 -4.013684255289341751e-15 4.403079870108836391e-14 1.200513433373970665e-14 1.001101193045736415e-13
3.465000000000000000e+03 7.697904968261718750e+01 2.633172035217285156e+01 7.058921860664951753e-14 -1.527512789650450897e-13 -2.464861641345277715e-14 -1.202404942648484243e-14
3.466000000000000000e+03 7.747257232666015625e+01 -1.455005073547363281e+01 -4.048632834693054183e-14 3.029053516259011536e-13 7.872570867775707804e-14 -5.054400772702347111e-14
3.467000000000000000e+03 7.602642059326171875e+01 -1.676148033142089844e+01 1.424764643829894151e-14 4.636156367664179268e-13 1.433589846226018816e-13 1.075010984093530131e-13
3.468000000000000000e+03 7.619350433349609375e+01 1.757214736938476562e+01 4.825063214101456277e-14 1.579316918128709224e-13 6.185469616972610885e-14 -3.703522474048266677e-14
3.469000000000000000e+03 7.678134155273437500e+01 -8.062712669372558594e+00 -9.802382972164125352e-14 3.697483400184886637e-13 8.151734631279064502e-14 -5.787036838232270664e-14
3.470000000000000000e+03 7.677930450439453125e+01 -8.866397857666015625e+00 -6.853849763123823213e-14 2.451320396668066337e-13 5.297806532117595169e-14 2.420090495190707625e-13
3.471000000000000000e+03 7.748593139648437500e+01 -8.964917182922363281e+00 -5.789074460690185608e-14 3.183217849467984140e-13 7.812931616772711418e-14 -2.217155224606276454e-13
3.472000000000000000e+03 7.613552093505859375e+01 1.200531101226806641e+01 1.051125264844680884e-13 1.365501272167571334e-13 7.249879678799392435e-14 -1.068149475119684055e-13
3.473000000000000000e+03 7.678556060791015625e+01 -8.706973195075988770e-01 4.591437906958928394e-13 7.000363288177380294e-13 3.477540521171218479e-13 5.067615164305872000e-13
3.474000000000000000e+03 7.680100250244140625e+01 6.328629493713378906e+00 2.413673373582309045e-13 3.779488386753543372e-13 1.857948473890647101e-13 -2.482734883565290707e-13
3.475000000000000000e+03 7.679690551757812500e+01 4.725851058959960938e+00 2.048028088265374524e-13 2.936519029241718703e-13 1.495364162357182281e-13 -1.882096366777330498e-13
3.476000000000000000e+03 7.750048065185546875e+01 5.423429489135742188e+00 2.714055380177021748e-13 2.535694907084690142e-13 1.574925086178513567e-13 -2.579341633942439094e-13
3.477000000000000000e+03 7.743251800537109375e+01 -2.014811134338378906e+01 -4.253009348777897491e-14 3.935313446640220647e-13 1.053003780633783582e-13 -1.771113874863335796e-14
3.478000000000000000e+03 7.750997924804687500e+01 9.415344238281250000e+00 -1.708838555684530358e-13 1.555187998780044323e-13 -4.609517723574117765e-15 -5.361519672783705837e-14
3.479000000000000000e+03 7.680609893798828125e+01 7.922563552856445312e+00 1.244686455683166604e-13 2.363475084046773311e-13 1.082448407708873350e-13 -1.489845708824502624e-13
3.480000000000000000e+03 7.680319976806640625e+01 7.126325130462646484e+00 -9.559279095291278727e-14 -1.553457070011671215e-13 -7.528155074147668824e-14 -9.388392569874975946e-14
3.481000000000000000e+03 7.678991699218750000e+01 7.228500843048095703e-01 5.612818152964105245e-13 1.947984010425632406e-13 2.268240662569448451e-13 -9.422198671239431778e-14
3.482000000000000000e+03 7.678739929199218750e+01 -7.382439821958541870e-02 6.096422195192574556e-13 -2.419851970712760814e-13 1.102970999581308342e-13 4.136641116453398936e-13
3.483000000000000000e+03 7.678353118896484375e+01 -6.461229801177978516e+00 -1.735544352546650182e-13 1.543742754071472656e-13 -5.754049394211336113e-15 -8.634702653408099504e-14
3.484000000000000000e+03 7.749045562744140625e+01 -4.166491985321044922e+00 -2.857720299547644727e-13 3.807867107567808329e-13 2.850441033924212830e-14 -1.076745847329943235e-15
3.485000000000000000e+03 7.678266143798828125e+01 -7.261104106903076172e+00 7.871093642315696304e-14 2.167370558199543940e-13 8.863439496242797588e-14 1.318395669329050501e-13
3.486000000000000000e+03 7.675550079345703125e+01 -1.524784088134765625e+01 -7.244450536420671272e-14 2.434580586175433270e-13 5.130406394312191087e-14 7.759807743199995111e-15
3.487000000000000000e+03 7.747853851318359375e+01 -1.295312595367431641e+01 -7.902974607197632562e-14 1.491339061791829845e-13 2.103124701572246097e-14 1.554815710859067113e-13
3.488000000000000000e+03 7.606196594238281250e+01 -1.436736297607421875e+01 1.897817467684959764e-14 1.911372942515685014e-13 6.303464017030566136e-14 1.643094162248268097e-14
3.489000000000000000e+03 7.749826812744140625e+01 3.822386264801025391e+00 2.158271526992230904e-13 4.585049245657557559e-13 2.022996299557572319e-13 -3.912542490512593840e-13
3.490000000000000000e+03 7.679481506347656250e+01 3.923824071884155273e+00 1.269192541862584900e-13 -3.710793404867497591e-14 2.694339638008823312e-14 -2.417937879539873436e-14
3.491000000000000000e+03 7.681948852539062500e+01 1.191405582427978516e+01 -7.287143029841361419e-14 1.452033514314030743e-14 -1.750533007124129709e-14 -2.714663685358421896e-14
3.492000000000000000e+03 7.678327178955078125e+01 -2.466509819030761719e+00 3.004155897570054412e-13 6.777609072930457224e-13 2.934529518255207803e-13 4.294700988068111958e-13
3.493000000000000000e+03 7.749027252197265625e+01 -2.570013761520385742e+00 -8.831021173659123202e-14 3.739112968900726308e-13 8.568033028942892426e-14 -8.141537032220480530e-14
3.494000000000000000e+03 7.608264923095703125e+01 -1.574353337287902832e+00 2.945582959403697521e-13 6.752506540030900339e-13 2.909426714305107797e-13 2.888666682156898480e-13
3.495000000000000000e+03 7.678443145751953125e+01 -1.668489098548889160e+00 2.928943437612019363e-13 1.712770956964135283e-13 1.392514304820319238e-13 7.536912717195920486e-14
3.496000000000000000e+03 7.614166259765625000e+01 1.280260276794433594e+01 -3.677188219718130480e-14 -1.575937832651568699e-14 -1.575937832651568699e-14 5.793852319435762940e-15
3.497000000000000000e+03 7.688459777832031250e+01 1.908164596557617188e+01 6.369040630180636264e-14 1.645487403018758288e-13 6.847174465873101523e-14 6.762757807097022345e-14
3.498000000000000000e+03 7.689465332031250000e+01 1.987390899658203125e+01 -1.010489096369381057e-13 4.819522263373697546e-14 -1.585610610096033907e-14 9.446526812737290890e-14
3.499000000000000000e+03 7.677083587646484375e+01 -1.126530170440673828e+01 -1.047900102194715410e-13 3.668485328879589336e-13 7.861755951105164897e-14 -4.202501112946302464e-14
3.500000000000000000e+03 7.673824310302734375e+01 -1.685106086730957031e+01 2.922940955571960708e-14 2.412816311764959254e-13 8.115331188085148084e-14 3.590104254191147509e-15
3.501000000000000000e+03 7.673004913330078125e+01 -1.765069389343261719e+01 -1.381089507487094289e-14 4.515905336309467000e-13 1.313338950396578109e-13 -4.385509357464172087e-14
3.502000000000000000e+03 7.724784088134765625e+01 -2.741103172302246094e+01 2.941242627056694925e-14 2.642355464207296611e-13 8.809438774163083630e-14 2.424989428825765486e-14
3.503000000000000000e+03 7.661751556396484375e+01 -2.897255325317382812e+01 -4.700813899244501645e-15 1.809891619171041799e-13 5.288650444770955084e-14 -7.451402369478346555e-14
3.504000000000000000e+03 7.726259613037109375e+01 -2.658965492248535156e+01 -8.406383567222987241e-15 1.794010632324288812e-13 5.129840237490246313e-14 -1.912421332135160607e-14
3.505000000000000000e+03 7.651793670654296875e+01 -2.960302162170410156e+01 7.102089370162462112e-14 3.964451108975225457e-13 1.402398027349968657e-13 -5.885772419575094339e-14
3.506000000000000000e+03 7.648781585693359375e+01 -2.566591262817382812e+01 -9.110863241146641145e-14 9.820628739474340785e-14 2.129296622038041008e-15 4.171016220670502317e-14
3.507000000000000000e+03 7.710795593261718750e+01 2.788113212585449219e+01 -1.978321681277671329e-14 -5.422947179744945501e-14 -2.220380658306785049e-14 5.399947185908381131e-14
3.508000000000000000e+03 7.753290557861328125e+01 1.580386447906494141e+01 -2.397447644326023558e-14 8.122711894374343156e-14 1.717579359717790605e-14 -1.288782990917225479e-14
3.509000000000000000e+03 7.682612609863281250e+01 1.351264858245849609e+01 -1.041267766455078458e-13 -2.175028650838305849e-14 -3.776311742150796624e-14 -3.462649004332130076e-14
3.510000000000000000e+03 2.807759475708007812e+01 -2.819798660278320312e+01 -2.257359745091655490e-14 -4.214329352072304635e-13 -1.332019618303231789e-13 3.859956923318516586e-14
3.511000000000000000e+03 7.609954071044921875e+01 4.817317962646484375e+00 5.505939129103742946e-14 -9.078049184770009550e-14 -1.071633050581197871e-14 1.938887215385300122e-14
3.512000000000000000e+03 7.683819580078125000e+01 1.510560894012451172e+01 -1.060323466669458453e-14 6.408218275683399967e-14 1.604368324119569839e-14 -1.780513907698785120e-14
3.513000000000000000e+03 7.678236389160156250e+01 -3.264438390731811523e+00 3.218770600532314119e-14 4.713042022624902572e-13 1.510475772237285241e-13 -3.272486380728571731e-14
3.514000000000000000e+03 7.681561279296875000e+01 1.111560821533203125e+01 8.234844826437298648e-14 -5.620970607912202655e-14 7.841623502608235236e-15 -1.491746044182326592e-13
3.515000000000000000e+03 7.681327056884765625e+01 1.031613159179687500e+01 -7.912889636065012500e-14 1.948423654406575278e-13 3.471403936874950524e-14 -4.628999820174145574e-14
3.516000000000000000e+03 7.684619903564453125e+01 1.590045070648193359e+01 -2.888023885793886136e-14 1.248756008537590945e-13 2.879860859874606993e-14 5.928814568196411061e-14
3.517000000000000000e+03 7.676985931396484375e+01 -1.206169700622558594e+01 -1.472690106798721366e-13 -2.003681373380014619e-13 -1.042911416948566483e-13 2.198627022630128547e-13
3.518000000000000000e+03 7.677224731445312500e+01 -1.046575260162353516e+01 3.751700352835375674e-15 3.447399971826664578e-13 1.045475080748044239e-13 1.458740626122251305e-13
3.519000000000000000e+03 7.681155395507812500e+01 9.516800880432128906e+00 1.241844084162724293e-13 7.470937320934283032e-15 3.949660084124999304e-14 -1.717642141799841093e-13
3.520000000000000000e+03 7.686088562011718750e+01 1.749553108215332031e+01 -9.510747495545396335e-14 9.649250257322272706e-14 4.155078300504199632e-16 3.689063282825456869e-14
3.521000000000000000e+03 7.685379791259765625e+01 1.669708633422851562e+01 -5.418094019770357261e-14 -3.449286244319981756e-16 -1.635776136397169844e-14 7.270466645175818754e-15
3.522000000000000000e+03 7.626210784912109375e+01 -3.417649459838867188e+01 1.103993012594806436e-14 1.877351898070533931e-13 5.963253572579055306e-14 3.317419784514517855e-14
3.523000000000000000e+03 7.758490753173828125e+01 2.299404907226562500e+01 1.438510633311115838e-14 -1.671042861375870991e-14 -6.975967477217365036e-16 1.474729897660981282e-13
3.524000000000000000e+03 7.690827178955078125e+01 2.146141242980957031e+01 -2.634325320816782723e-14 1.488383526669634360e-13 3.674853119289139824e-14 1.166445412481564858e-13
3.525000000000000000e+03 7.671833038330078125e+01 -1.924468994140625000e+01 6.704734017331029361e-14 5.777459673866891521e-13 1.934379848141098979e-13 7.188309192676656245e-14
3.526000000000000000e+03 7.672351837158203125e+01 -1.844781112670898438e+01 4.997586545985033268e-14 -2.433272055797196937e-14 7.692943809376687897e-15 7.172314500127063841e-14
3.527000000000000000e+03 7.758879089355468750e+01 2.379901885986328125e+01 6.236553835208338836e-14 7.247903720340037603e-14 4.045337198901877152e-14 -2.791463654466200955e-14
3.528000000000000000e+03 7.690256500244140625e+01 2.066639328002929688e+01 9.119518562614864488e-14 -5.241824769380842852e-14 1.163308104088888600e-14 5.966618665071907190e-15
3.529000000000000000e+03 7.629574584960937500e+01 2.647796821594238281e+01 -6.298330743260320899e-15 8.880261570575267993e-14 2.475128527698947090e-14 1.651518006552665785e-13
3.530000000000000000e+03 3.941141605377197266e+00 -3.096457099914550781e+01 -4.362112274581934901e-14 2.786863892868113313e-13 7.051958572212163601e-14 -2.223355946237310504e-14
3.531000000000000000e+03 7.692639160156250000e+01 2.553156089782714844e+01 2.001022333670676029e-14 5.432675861363929493e-14 2.230109509332358492e-14 1.259363571542645999e-13
3.532000000000000000e+03 7.689888763427734375e+01 2.471277618408203125e+01 2.467138635314086725e-14 -2.181812944288680223e-13 -5.805297513322357772e-14 1.031391362290093316e-13
3.533000000000000000e+03 7.644166564941406250e+01 -2.649839973449707031e+01 3.374914009281887450e-14 1.517167603571137335e-13 5.563977149023249802e-14 -6.203159053043069693e-14
3.534000000000000000e+03 7.595054626464843750e+01 2.957383537292480469e+01 -4.456244740076199806e-14 -6.484914059738666747e-14 -3.282347538300506296e-14 6.841213386803504659e-14
3.535000000000000000e+03 3.440727710723876953e+00 -2.509830665588378906e+01 5.934475458789501001e-15 9.404524142948844645e-14 2.999391438885702643e-14 -7.503226555696795863e-14
3.536000000000000000e+03 3.324609041213989258e+00 -2.279814529418945312e+01 8.941893720696564296e-14 -7.428545863023047063e-15 2.459711850432561020e-14 -6.341843418683837386e-14
3.537000000000000000e+03 7.700140380859375000e+01 -3.550930023193359375e+01 4.980702468840823849e-14 -1.159069720627417532e-13 -1.982998488992641223e-14 -1.084140372961672760e-13
3.538000000000000000e+03 7.667946624755859375e+01 -3.710071563720703125e+01 -1.163036274275455750e-13 -1.870972588012900784e-13 -9.102026315814526480e-14 -6.262774587123542958e-14
3.539000000000000000e+03 7.589529418945312500e+01 2.887240028381347656e+01 -1.052892717673739598e-13 1.378798198661476682e-13 9.777165784884828126e-15 -6.931321429358774933e-14
3.540000000000000000e+03 6.286088466644287109e+00 -3.968676090240478516e+00 -8.650614675542039889e-14 1.001787831834098641e-13 4.101789657847418683e-15 1.183173948965669971e-15
3.541000000000000000e+03 3.329053163528442383e+00 -2.202815055847167969e+01 9.050803184175448823e-14 -1.899655834112362607e-13 -2.983726411559181613e-14 7.194678795736713858e-16
3.542000000000000000e+03 4.113396167755126953e+00 -5.390288829803466797e+00 2.133244176737072312e-14 1.006443734775930299e-13 3.659304304882982084e-14 -1.109111175297272656e-13
3.543000000000000000e+03 2.569097757339477539e+00 -1.799551391601562500e+01 -8.061092619153845118e-14 1.120340833180109158e-14 -2.082225688258051294e-14 5.130655421998683852e-14
3.544000000000000000e+03 3.271338224411010742e+00 -1.646268272399902344e+01 1.402960575811558128e-14 2.347674192635512691e-13 7.463911352043398062e-14 -6.214176579994595828e-14
3.545000000000000000e+03 3.123326539993286133e+00 -1.170136547088623047e+01 -5.165742914805745989e-14 -2.213889844831975345e-14 -2.213889844831975345e-14 -8.455520626119567007e-14
3.546000000000000000e+03 2.444786787033081055e+00 -1.161086845397949219e+01 -6.060007774451661722e-14 8.840591290710381189e-14 8.341750718182747854e-15 -4.372559240140190540e-14
3.547000000000000000e+03 3.150624752044677734e+00 -7.700109958648681641e+00 4.410419241190205453e-14 1.561546437945857124e-13 6.007764815144089887e-14 -9.952811280211984468e-14
3.548000000000000000e+03 3.110546350479125977e+00 -9.319638252258300781e+00 1.316898301425553294e-14 -1.087335245713444420e-13 -2.866936153539043075e-14 -5.625784804371217196e-14
3.549000000000000000e+03 3.248399972915649414e+00 -1.566032409667968750e+01 -1.569373666123526773e-14 -1.897296881235577271e-13 -6.162702726603130898e-14 4.014406604986760219e-14
3.550000000000000000e+03 3.938213825225830078e+00 -2.915940666198730469e+01 1.574656949428730746e-14 3.041296869291804095e-13 9.596288336449071421e-14 1.574682699230327276e-14
3.551000000000000000e+03 2.433583498001098633e+00 -1.081925106048583984e+01 -6.105568660244933832e-14 1.958422505654415502e-14 -1.244143846377155499e-14 3.675540232415952513e-14
3.552000000000000000e+03 3.810767889022827148e+00 -8.645659446716308594e+00 5.028494439417163786e-14 -6.995120628572326638e-14 -5.899878398058899104e-15 -1.273503871801473508e-13
3.553000000000000000e+03 3.144155979156494141e+00 -1.249349689483642578e+01 4.644735998268235966e-14 1.990601117914016921e-14 1.990601117914016921e-14 6.650665532615535058e-14
3.554000000000000000e+03 2.578443288803100586e+00 -1.879984283447265625e+01 -1.278960966267454064e-14 1.317715874566902090e-13 3.569459181354539545e-14 -9.405113677880133638e-14
3.555000000000000000e+03 4.697097301483154297e+00 -1.589309883117675781e+01 4.030661760167633320e-15 1.847312179528021181e-13 5.662856387153927806e-14 2.203221193810764311e-13
3.556000000000000000e+03 2.584995031356811523e+00 -1.960317993164062500e+01 -1.101672396429213829e-13 -4.360976098467805873e-13 -1.638794487482733708e-13 -2.010606714756765778e-13
3.557000000000000000e+03 2.650254964828491211e+00 -2.434407997131347656e+01 -5.656013716192828666e-14 1.130127892309817916e-13 1.693579528190287259e-14 5.651153525844778217e-15
3.558000000000000000e+03 3.336029529571533203e+00 -2.356484413146972656e+01 1.587621466312815616e-14 5.255504012665820901e-14 2.052937660634249900e-14 -8.993665390872283838e-15
3.559000000000000000e+03 3.481562376022338867e+00 -2.585716056823730469e+01 8.281120608038053388e-14 1.727433707144829245e-13 7.666637507133811091e-14 5.465630864022984203e-14
3.560000000000000000e+03 3.320530176162719727e+00 -1.886540794372558594e+01 -1.541698050418118665e-14 2.678984150402546893e-13 7.574443053022864025e-14 5.985319797294566535e-14
3.561000000000000000e+03 3.386271953582763672e+00 -5.232789993286132812e+00 -1.487069338111310368e-14 -1.893769429467395682e-13 -6.127429564174030618e-14 4.666632308174527982e-15
3.562000000000000000e+03 3.048001527786254883e+00 -3.181362915039062500e+01 -7.037985239087898859e-14 2.443429031155630593e-13 5.218891182927343220e-14 -1.146065732007990612e-14
3.563000000000000000e+03 3.886819124221801758e+00 -3.006377220153808594e+01 1.659627567752314237e-14 1.672410040315375213e-13 5.515118594559727250e-14 2.401769714642683351e-14
3.564000000000000000e+03 3.247112655639648438e+01 6.767113208770751953e+00 1.159652479295128491e-13 -6.181854480353729531e-14 1.624400992135312943e-14 8.357427921607885665e-16
3.565000000000000000e+03 3.320574569702148438e+01 8.316101074218750000e+00 9.348566266541204900e-15 -1.904350022943410159e-13 -5.432593190948277473e-14 3.821888552163477115e-14
3.566000000000000000e+03 3.166857957839965820e+00 -1.329884147644042969e+01 3.390924964864067137e-14 2.890382161044313669e-13 9.688424514693247391e-14 -4.069043957029630509e-14
3.567000000000000000e+03 3.332268476486206055e+00 -2.124896621704101562e+01 3.862258904759269598e-15 -1.813485478322288125e-13 -5.324588358657060538e-14 7.491366061556162248e-15
3.568000000000000000e+03 3.331293582916259766e+00 -2.046164512634277344e+01 5.370786213226667882e-14 -3.887408786800577998e-13 -1.005099053031505152e-13 -1.362283343178975412e-14
3.569000000000000000e+03 3.221569299697875977e+00 -1.487235355377197266e+01 2.934346762426508215e-14 1.257577195997545624e-14 1.257577195997545624e-14 -7.922533614389271062e-14
3.570000000000000000e+03 3.192797183990478516e+00 -1.409252071380615234e+01 1.586710228268159439e-14 5.255113361070547218e-14 2.052547178445565668e-14 -8.236965966343812867e-15
3.571000000000000000e+03 3.557432889938354492e+00 -2.662215614318847656e+01 -3.402671278963410872e-14 3.116807146034093756e-14 -8.575917423374172267e-16 -2.965342069658795376e-15
3.572000000000000000e+03 3.902609109878540039e+00 -2.825714302062988281e+01 -4.254283625143746861e-14 -1.554854877662548152e-13 -5.940849889937357964e-14 -2.539860987813783583e-14
3.573000000000000000e+03 3.712357282638549805e+00 -2.741020965576171875e+01 1.243705388242338783e-13 2.820564148995480247e-13 1.219280888276400021e-13 7.941346554960967974e-14
3.574000000000000000e+03 4.009437084197998047e+00 -3.190276145935058594e+01 -5.829843850507429592e-14 1.808942264643759179e-13 3.677873638779048659e-14 4.417231080152024536e-15
3.575000000000000000e+03 3.799829101562500000e+01 -1.930633163452148438e+01 -3.288192489153034595e-16 2.858024960358113153e-13 8.564210538658523220e-14 -1.378215185883881547e-14
3.576000000000000000e+03 3.819891357421875000e+01 -1.820418167114257812e+01 -2.577331692521240419e-14 1.262071366468428546e-13 3.013014777996161908e-14 -1.494587094331371185e-14
3.577000000000000000e+03 2.671176338195800781e+01 -2.793128967285156250e+00 -2.063933740711551557e-13 -1.124957840369002898e-14 -6.529288421779425033e-14 1.100977016260835939e-13
3.578000000000000000e+03 2.584106063842773438e+01 -2.883961200714111328e-01 -3.380387875000223641e-14 -1.517402197816208886e-13 -5.566323091473965312e-14 -3.821545673226428574e-14
3.579000000000000000e+03 3.843869018554687500e+01 1.507235908508300781e+01 1.633338793797489675e-16 -1.371828404995653616e-13 -4.110585502081591514e-14 -1.120283404346285316e-13
3.580000000000000000e+03 5.047283554077148438e+01 2.809591865539550781e+01 -9.935289217851903110e-14 3.171138465073121068e-15 -2.885452632579200982e-14 1.078617379332395820e-13
3.581000000000000000e+03 4.123197174072265625e+01 -2.455517005920410156e+01 -7.614410302639058187e-15 -3.263318731382201625e-15 -3.263318731382201625e-15 -6.920902246481189235e-14
3.582000000000000000e+03 3.736362695693969727e+00 -3.531463241577148438e+01 -9.445527991485888619e-14 3.255267691688878973e-13 6.932144067757148309e-14 4.467468604253677089e-14
3.583000000000000000e+03 3.997189521789550781e+00 -3.289881896972656250e+01 2.497906260090151931e-14 2.394600631065030294e-13 7.933173703459500681e-14 -7.186347803183994187e-15
3.584000000000000000e+03 3.587244796752929688e+01 1.349079990386962891e+01 7.453490136286738954e-14 -1.053093159550377855e-13 -9.232323700024760993e-15 -5.297884459148742564e-14
3.585000000000000000e+03 3.425502395629882812e+01 9.474306106567382812e+00 1.079410744272112088e-13 9.201140690291362279e-14 5.998574168853201827e-14 -2.273954679068990181e-13
3.586000000000000000e+03 2.008374404907226562e+01 -1.472211074829101562e+01 -8.508797643249146891e-14 -8.221722592018435027e-14 -5.019156070580274576e-14 1.740279876585523744e-13
3.587000000000000000e+03 5.103254699707031250e+01 2.867821121215820312e+01 4.162407655420967412e-14 -1.651649059490264970e-13 -3.706224847963186797e-14 3.146473966791907273e-14
3.588000000000000000e+03 5.207185745239257812e+01 2.878503417968750000e+01 -2.413302068219550650e-14 -2.848484252290783836e-13 -9.269443394278875648e-14 -3.567619425793103205e-14
3.589000000000000000e+03 5.152986145019531250e+01 2.819108390808105469e+01 -6.500273816390997328e-14 4.362754325555953661e-14 -6.412558218395246826e-15 -1.388626406651763054e-14
3.590000000000000000e+03 3.962439727783203125e+01 1.736981582641601562e+01 -3.860430245329442289e-14 2.920624828680988549e-14 -2.819415868780534955e-15 -2.066223033598754699e-13
3.591000000000000000e+03 4.015848922729492188e+01 1.683414649963378906e+01 -8.208051480249750620e-14 -8.092831282500642653e-14 -4.890264761062482202e-14 1.485211286638213335e-14
3.592000000000000000e+03 5.058228015899658203e+00 -4.829486846923828125e+00 -3.889618323065467675e-14 2.578359075723624105e-13 6.568191628607278343e-14 3.204579410534015571e-14
3.593000000000000000e+03 3.902416992187500000e+01 1.563544654846191406e+01 -1.689269926198611049e-13 -7.239728158333139096e-14 -7.239728158333139096e-14 -6.700525280022712193e-14
3.594000000000000000e+03 4.458496093750000000e+01 2.144661331176757812e+01 7.764839965939632910e-16 -5.386089811594595503e-15 -1.382881765676013345e-15 -2.022873242610995215e-14
3.595000000000000000e+03 2.588731002807617188e+01 -2.409944725036621094e+01 -1.043499732152411430e-13 -1.819742680110245092e-13 -8.589727236787969566e-14 1.487781523413361784e-13
3.596000000000000000e+03 2.557362174987792969e+01 -2.536802101135253906e+01 -1.511307355303581623e-13 -3.392759977040998853e-13 -1.471220199703374143e-13 1.230375800157987309e-13
3.597000000000000000e+03 2.112139320373535156e+01 -1.494944286346435547e+01 -3.653877195383334331e-14 3.009147564372177674e-14 -1.934189147143354146e-15 2.410281718136231266e-13
3.598000000000000000e+03 2.053145980834960938e+01 -1.536942481994628906e+01 7.970603750585489311e-14 -1.488440582808961410e-13 -2.074140758776508997e-14 6.986329104206184804e-14
3.599000000000000000e+03 7.018927574157714844e+00 -4.480017662048339844e+00 -3.612662266235834585e-14 2.132719050191092536e-13 5.314358572346480902e-14 2.797392038064033803e-14
3.600000000000000000e+03 6.446771621704101562e+00 -4.530808448791503906e+00 1.303411182153671466e-13 2.846152133417767516e-13 1.244869008223958851e-13 -1.373352657724896675e-13
3.601000000000000000e+03 4.800741195678710938e+00 -5.621836662292480469e+00 -3.592107487111403930e-14 -6.114569571155636929e-14 -2.912003049717476477e-14 -7.660034038277016566e-14
3.602000000000000000e+03 5.652298927307128906e+00 -5.238376140594482422e+00 -8.093517718001097538e-14 5.681539562278105360e-14 -7.235933958949208183e-15 -1.241741762582695974e-13
3.603000000000000000e+03 7.616746902465820312e+00 -4.467878818511962891e+00 -1.315228799486515068e-14 -5.636695096951620937e-15 -5.636695096951620937e-15 -9.345127482181941891e-14
3.604000000000000000e+03 1.857199287414550781e+01 -1.159153270721435547e+01 -4.524226587983293246e-14 -1.566423856944054727e-13 -6.056539682752423714e-14 1.304864555165888285e-13
3.605000000000000000e+03 4.977957534790039062e+01 2.643435287475585938e+01 4.137461857497970463e-14 -5.143494493303280360e-15 1.086933769037104827e-14 -6.954109326145346825e-14
3.606000000000000000e+03 5.037050247192382812e+01 2.702318382263183594e+01 6.096801530427672922e-14 5.472349190547426412e-14 3.470745284055165580e-14 3.895516965218940057e-16
3.607000000000000000e+03 5.095891952514648438e+01 2.760844612121582031e+01 2.092698403617903463e-14 1.633781543212975418e-13 5.529154269308909908e-14 4.153475523585581364e-14
3.608000000000000000e+03 7.405228424072265625e+01 2.981731986999511719e+01 -4.257264842304903096e-14 7.325647792370826306e-14 9.205149189010948529e-15 -3.086988071104011279e-15
3.609000000000000000e+03 2.813542556762695312e+01 -3.091795921325683594e+01 -3.080144468406670159e-15 -2.529502757427082305e-13 -7.680913061613656168e-14 1.012228359941955147e-13
3.610000000000000000e+03 2.909331703186035156e+01 -3.081639289855957031e+01 -5.863090910126697586e-14 -3.682596491205031297e-13 -1.280671667889046739e-13 9.862111669846351791e-14
3.611000000000000000e+03 3.211495590209960938e+01 5.415797233581542969e+00 9.845062590684017234e-14 4.219312345257048014e-14 4.219312345257048014e-14 -3.845859245757594913e-14
3.612000000000000000e+03 3.168398857116699219e+01 6.082840919494628906e+00 1.679482833187584401e-13 6.054010103558743472e-14 6.854651395105104683e-14 -1.593180035325877236e-14
3.613000000000000000e+03 3.981054306030273438e+01 -2.078641128540039062e+01 4.782372753559839540e-14 2.835638353900632458e-13 9.941627057176438687e-14 -8.610724844737224770e-14
3.614000000000000000e+03 3.939747619628906250e+01 -2.014429092407226562e+01 -3.256912155333996362e-14 -1.395819579846436023e-14 -1.395819579846436023e-14 7.568697459135048655e-14
3.615000000000000000e+03 2.453148460388183594e+01 -2.493541145324707031e+01 -5.229178906291515050e-14 -2.511655163364712173e-13 -9.103719026456319474e-14 3.488972967211957134e-15
3.616000000000000000e+03 1.740043830871582031e+01 -7.916709423065185547e+00 -8.647809980047091449e-14 5.443985445275668911e-14 -9.611472587874730911e-15 1.671356466854262424e-13
3.617000000000000000e+03 4.803277587890625000e+01 2.471435928344726562e+01 3.212892107175074549e-15 -6.724946933957948181e-14 -1.921097321207296954e-14 -5.028977248197098737e-14
3.618000000000000000e+03 5.627896118164062500e+01 3.065709114074707031e+01 -5.226581225648875562e-14 -1.596524832909312908e-13 -6.357548764778647721e-14 -5.848255636275306868e-14
3.619000000000000000e+03 3.960098648071289062e+01 1.622550010681152344e+01 -8.812063221046856354e-14 -8.351693360324208282e-14 -5.149126838886047830e-14 -1.834179645188518948e-13
3.620000000000000000e+03 4.040966415405273438e+01 -2.323564910888671875e+01 4.274312227401343145e-14 1.555713294732613550e-13 5.949433383011654142e-14 -4.444287345366400299e-14
3.621000000000000000e+03 3.196245384216308594e+01 -8.053263664245605469e+00 -4.022856266855390217e-14 7.426108610420617540e-14 1.020975652247591361e-14 -1.583800670094340918e-14
3.622000000000000000e+03 4.533251953125000000e+01 -2.932226181030273438e+01 8.417602010389602096e-14 4.478339899437189242e-13 1.596030030142844836e-13 -4.951920628106301625e-14
3.623000000000000000e+03 4.487689590454101562e+01 -2.867411422729492188e+01 -1.311465855618337839e-13 3.040830391307092206e-13 5.188093742591534663e-14 -1.237226873685923212e-13
3.624000000000000000e+03 1.780771255493164062e+01 -9.284399986267089844e+00 -9.775186438293684277e-14 3.857294021138938517e-15 -2.816837034620971875e-14 1.160548978966502442e-13
3.625000000000000000e+03 3.565854644775390625e+01 -1.271989917755126953e+01 -4.303976337653725448e-14 3.018110392681572218e-13 7.763138276748599020e-14 5.687627188070022016e-15
3.626000000000000000e+03 3.590845870971679688e+01 -1.438405704498291016e+01 9.280430936264068981e-15 9.547922755160850872e-14 3.142789712284529968e-14 -2.877406158393464031e-14
3.627000000000000000e+03 1.459718894958496094e+01 -4.689385890960693359e+00 7.059560184694002594e-14 -1.549569188783773976e-14 1.652997163247797024e-14 -5.588562026207421693e-15
3.628000000000000000e+03 1.620879554748535156e+01 -5.429936885833740234e+00 -8.439859156331424445e-15 8.788481823795296632e-14 2.383348611512386278e-14 3.743661468064846121e-13
3.629000000000000000e+03 4.572002792358398438e+01 2.254277992248535156e+01 1.487458295640689543e-14 5.212577060525330763e-14 2.010010539087170311e-14 4.826843677356584816e-14
3.630000000000000000e+03 4.629483032226562500e+01 2.308829498291015625e+01 5.097497809058645912e-14 1.476615325238933574e-13 5.959094979621215593e-14 3.504413827268987314e-14
3.631000000000000000e+03 1.724696540832519531e+01 -5.807045459747314453e+00 2.282042285174645802e-14 2.842858869318842796e-13 9.213188886933107447e-14 2.390183320363781228e-13
3.632000000000000000e+03 4.701288986206054688e+01 -3.319598770141601562e+01 9.888952449878946060e-14 4.541397639890032423e-13 1.659087906120959577e-13 5.000539302839161759e-14
3.633000000000000000e+03 4.711706542968750000e+01 -3.178363418579101562e+01 8.349306082665666762e-14 5.175974124131677012e-13 1.803271480705845309e-13 -3.483265023938647217e-15
3.634000000000000000e+03 1.070918750762939453e+01 -5.345313549041748047e+00 5.755640376196163865e-14 -4.328424554542187330e-13 -1.125858168629298439e-13 -2.450930625987057798e-13
3.635000000000000000e+03 5.531646347045898438e+01 3.113025856018066406e+01 -1.322570796370020618e-13 -5.668160507469634235e-14 -5.668160507469634235e-14 1.251470257854431570e-14
3.636000000000000000e+03 2.786113166809082031e+01 -3.971561193466186523e+00 -9.943934713737938302e-15 2.647723179756682893e-14 4.959989040445372463e-15 -6.626209997362408899e-14
3.637000000000000000e+03 2.540183639526367188e+01 -2.680654907226562500e+01 -3.575664883539303451e-14 -3.355809282800520377e-13 -1.114012717793808060e-13 8.977184501410967465e-14
3.638000000000000000e+03 1.650012016296386719e+01 -7.051028728485107422e+00 -8.951503817702932686e-14 -1.756164387089337309e-13 -7.953944306578891732e-14 1.840997108449107800e-13
3.639000000000000000e+03 2.550903511047363281e+01 -2.145957374572753906e+01 -1.442086467601244593e-13 -1.075546512204102190e-13 -7.552898600602861445e-14 1.230169395169400381e-13
3.640000000000000000e+03 2.280343437194824219e+01 -2.106083106994628906e+01 -4.211715814972892546e-14 -6.380115755372575692e-14 -3.177549572747594142e-14 9.620162468287202229e-14
3.641000000000000000e+03 2.998291587829589844e+01 -3.340760421752929688e+01 -8.540940849531553081e-14 -2.653587798714246437e-13 -1.052304537995166211e-13 4.601305569743897872e-14
3.642000000000000000e+03 2.948696899414062500e+01 -4.804351329803466797e+00 -1.761760767653164361e-13 -8.265262118386379475e-14 -7.764860802950135366e-14 -8.987777156636150844e-14
3.643000000000000000e+03 2.893683052062988281e+01 -3.614014434814453125e+01 6.433297904812063095e-14 -2.240589441412921268e-13 -4.791778885032509094e-14 3.871999360136220425e-15
3.644000000000000000e+03 1.759429359436035156e+01 -8.581015586853027344e+00 -1.518142572374744925e-13 -6.506325019766182050e-14 -6.506325019766182050e-14 3.219631186006724488e-14
3.645000000000000000e+03 1.804558181762695312e+01 -1.002522563934326172e+01 -6.284348855103288889e-14 -7.268387009883719996e-14 -4.065820827258738446e-14 1.171885803457825559e-13
3.646000000000000000e+03 2.845506286621093750e+01 -3.201759719848632812e+01 4.055695056594081638e-14 -2.799996291682343985e-13 -7.183279849849039111e-14 1.325967313785215637e-14
3.647000000000000000e+03 2.906210136413574219e+01 -3.295542144775390625e+01 -1.482419127230884259e-14 -2.265296647095335625e-13 -7.240615848861861603e-14 1.046106289700338143e-13
3.648000000000000000e+03 2.449029159545898438e+01 -2.112276458740234375e+01 -1.849663814040142240e-13 -1.707731991842237340e-13 -1.067218755317241030e-13 4.946796078775413108e-14
3.649000000000000000e+03 2.347558021545410156e+01 -2.075072860717773438e+01 6.855203660586714487e-14 -1.993752927510750173e-13 -3.924697684356236171e-14 5.037302904442250706e-14
3.650000000000000000e+03 3.102409553527832031e+01 -6.734939575195312500e+00 5.331910196156421436e-15 -5.204414712232409423e-14 -1.401367137431183338e-14 -6.416981339742514057e-14
3.651000000000000000e+03 7.598729610443115234e+00 -5.082981109619140625e+00 -8.673430355009281723e-14 -3.717184437861120738e-14 -3.717184437861120738e-14 2.183393440005620967e-14
3.652000000000000000e+03 3.056050300598144531e+01 -5.040777206420898438e+00 -9.598545509846914681e-14 -1.326385155138096184e-13 -6.858719186130998735e-14 -3.792746553019782363e-14
3.653000000000000000e+03 3.554863739013671875e+01 -1.357724857330322266e+01 8.055136961095110681e-14 3.452201361147516634e-14 3.452201361147516634e-14 -1.738023109763495166e-13
3.654000000000000000e+03 3.662596130371093750e+01 -1.425240039825439453e+01 5.859643147218193682e-14 1.623656043598861731e-13 6.628860871674135957e-14 9.195991068785235034e-15
3.655000000000000000e+03 4.249675369262695312e+01 -2.353138923645019531e+01 -4.688010572730279268e-15 -2.009147327810623454e-15 -2.009147327810623454e-15 5.444424547155525540e-14
3.656000000000000000e+03 4.063022994995117188e+01 -2.207200241088867188e+01 6.431621457202857384e-14 1.190659848276584554e-13 5.501466117515882437e-14 -5.745286245448927298e-14
3.657000000000000000e+03 7.484683990478515625e+01 -3.816884613037109375e+01 5.869428071824875359e-14 1.395320626618526405e-13 5.946790640216220725e-14 4.852766951300713227e-14
3.658000000000000000e+03 7.446279907226562500e+01 -4.065190124511718750e+01 7.862275690521600136e-14 2.853256910254065026e-13 1.091845323463076778e-13 -3.136116617319471139e-15
3.659000000000000000e+03 3.313085174560546875e+01 -3.834179687500000000e+01 6.246131406149532661e-14 -1.047648431765427213e-13 -1.269105992036034455e-14 2.840224291921020910e-14
3.660000000000000000e+03 7.665647888183593750e+01 -4.181872940063476562e+01 -7.285025447473225668e-14 1.289067865038046046e-13 1.681695994753488327e-14 -1.014356428577977906e-14
3.661000000000000000e+03 4.854290771484375000e+01 -3.463011932373046875e+01 9.861490964102603840e-14 4.997730202772887598e-13 1.795163816859998707e-13 -1.052558546235388831e-14
3.662000000000000000e+03 5.062942504882812500e+01 -3.378790664672851562e+01 1.016371774069380063e-13 3.352210815790040987e-13 1.310574776957826315e-13 -5.995468607255388660e-15
3.663000000000000000e+03 3.147328376770019531e+00 -3.842216491699218750e+01 2.757841698064478209e-14 2.634495269507319826e-13 8.730838860042389182e-14 2.073196994666678256e-14
3.664000000000000000e+03 4.594986915588378906e+00 -3.615037918090820312e+01 2.040272824006903601e-14 4.305723936030500520e-14 1.903798875545290731e-14 -1.335422319058941765e-14
3.665000000000000000e+03 3.220425415039062500e+01 -4.161882019042968750e+01 9.015443285572549703e-14 -1.558039179443138078e-13 -1.969484755945556664e-14 2.235037377612894560e-14
3.666000000000000000e+03 6.203878402709960938e+01 2.974777603149414062e+01 1.442384352148134985e-13 -2.584401605481428943e-13 -3.426051759999881874e-14 2.499396631501504817e-13
3.667000000000000000e+03 1.147627925872802734e+01 -4.843928813934326172e+00 2.517346513262585378e-14 1.078862815599192226e-14 1.078862815599192226e-14 -3.055579200035227205e-14
3.668000000000000000e+03 1.098981094360351562e+01 -4.347168445587158203e+00 1.185175614874973971e-14 2.795850302574759416e-13 8.743103219492273648e-14 -1.542969446871947370e-13
3.669000000000000000e+03 5.726989364624023438e+01 3.065808486938476562e+01 -1.455707299494179985e-13 -2.911421917353024247e-13 -1.310138792159215582e-13 1.258911865812534225e-14
3.670000000000000000e+03 6.214313125610351562e+01 3.020490837097167969e+01 -3.688392093918052561e-14 -4.733168609653837233e-13 -1.530602359266219903e-13 1.729746852479827068e-13
3.671000000000000000e+03 7.223870849609375000e+01 2.995193862915039062e+01 6.272685550232776075e-14 2.688293855644501018e-14 2.688293855644501018e-14 5.570248919777899543e-14
3.672000000000000000e+03 7.109919738769531250e+01 3.000609588623046875e+01 -8.084143434967244746e-14 -1.718991702454042425e-13 -7.582218137852300699e-14 -1.072990776633010734e-13
3.673000000000000000e+03 5.577498626708984375e+01 3.123041534423828125e+01 -6.930503534344906180e-14 1.604879254393353633e-14 -1.597687267044806819e-14 6.881318702790101272e-14
3.674000000000000000e+03 5.580144882202148438e+01 3.064959716796875000e+01 -2.038000573422599215e-13 -1.788447862027808810e-13 -1.147934557740176720e-13 1.267960888194641367e-13
3.675000000000000000e+03 1.002337265014648438e+01 -4.192951202392578125e+00 -8.229551209330138173e-14 -2.182733025357305734e-13 -9.017064167820415532e-14 -1.227320518435923158e-13
3.676000000000000000e+03 6.834790802001953125e+01 2.977332878112792969e+01 -6.958725316894703861e-14 -2.585778542240485534e-13 -9.844952815214053077e-14 -6.852366439026591483e-14
3.677000000000000000e+03 6.992395782470703125e+01 2.948927497863769531e+01 2.164551361500538507e-14 1.007785434964381110e-13 3.672721984393848005e-14 2.035276515464229385e-14
3.678000000000000000e+03 6.432505035400390625e+01 3.053836059570312500e+01 4.053956606173136912e-14 1.088759955130726154e-13 4.482466847244119534e-14 1.371700333614028766e-13
3.679000000000000000e+03 6.578350067138671875e+01 3.000975036621093750e+01 2.591795322196693840e-13 2.025788391202265615e-13 1.385275086914633524e-13 2.898391907881457674e-14
3.680000000000000000e+03 6.742206573486328125e+01 3.036618804931640625e+01 -8.554370387503680562e-15 -5.984284790795657560e-13 -1.820948583976592094e-13 3.914381839498215498e-14
3.681000000000000000e+03 7.054847717285156250e+01 3.003662300109863281e+01 5.694455459471017833e-14 1.159067010121986319e-13 5.185537735969900086e-14 5.945581754793899387e-15
3.682000000000000000e+03 6.267249298095703125e+01 3.016848373413085938e+01 -1.177290009186579556e-13 4.104661014835316035e-14 -2.300471858634415417e-14 2.308432308154029222e-13
3.683000000000000000e+03 6.783306884765625000e+01 2.983867645263671875e+01 9.321670090553860200e-14 -5.800933514874808891e-15 2.622473127599032200e-14 1.154677346576135633e-14
3.684000000000000000e+03 6.474633789062500000e+01 3.006263542175292969e+01 9.116469921631106810e-14 2.220743798271931913e-13 9.397172574593035121e-14 -7.309249912138340854e-14
3.685000000000000000e+03 7.106501770019531250e+01 2.941247177124023438e+01 2.449773104642657962e-14 1.935028201040245310e-13 6.540016602276169100e-14 4.456840373644709030e-14
3.686000000000000000e+03 6.938325500488281250e+01 2.958994102478027344e+01 2.223514510805036509e-14 -3.622160216079986506e-14 -4.195936522901786911e-15 -1.629445412149391204e-13
3.687000000000000000e+03 6.371271896362304688e+01 3.011318397521972656e+01 8.724071405607006224e-14 3.738887793662028225e-14 3.738887793662028225e-14 7.049743411648504154e-14
3.688000000000000000e+03 5.778686141967773438e+01 3.063652038574218750e+01 1.590000443048474044e-14 -2.219404537538369193e-13 -6.181213445819247476e-14 7.939616574869495791e-14
3.689000000000000000e+03 5.503960800170898438e+01 3.152888298034667969e+01 -2.989922626974936271e-14 -1.729422676030253903e-13 -6.085245290521693051e-14 1.779737788349874950e-13
3.690000000000000000e+03 6.629377746582031250e+01 2.997968482971191406e+01 -1.381562914201314718e-13 -1.507117320482739831e-13 -8.666040839577435206e-14 -1.891966401254552288e-13
3.691000000000000000e+03 6.680298614501953125e+01 2.994075775146484375e+01 2.045389953329174171e-13 8.765956846035552474e-14 8.765956846035552474e-14 1.679922350113585185e-15
3.692000000000000000e+03 6.105666351318359375e+01 3.031107139587402344e+01 8.125148299943825425e-15 -4.540272780136078712e-13 -1.337706394223189821e-13 1.590624198110832110e-13
3.693000000000000000e+03 1.580191612243652344e+01 -6.904708385467529297e+00 -1.500519950263165536e-13 -6.430800174057199614e-14 -6.430800174057199614e-14 1.124080212591693773e-13
3.694000000000000000e+03 1.317269897460937500e+01 -4.917356967926025391e+00 2.047212564943758084e-14 1.460266098578938410e-13 4.994962099101260544e-14 7.370306757481862037e-14
3.695000000000000000e+03 1.225553703308105469e+01 -4.269525527954101562e+00 -2.396555888039154231e-14 -1.027095380588208956e-14 -1.027095380588208956e-14 -2.526510088380479191e-13
3.696000000000000000e+03 5.310549545288085938e+01 2.893373107910156250e+01 3.198393359513627965e-14 -3.179869833159348902e-13 -8.580091389980004646e-14 1.075213628255831250e-14
3.697000000000000000e+03 1.271824073791503906e+01 -4.307784557342529297e+00 1.037592727666167280e-13 3.189739596586027570e-13 1.268199683723131299e-13 -6.355172329141831056e-14
3.698000000000000000e+03 1.361714172363281250e+01 -5.006272792816162109e+00 3.388473312701534290e-14 1.060239271594501376e-13 4.197260011881871755e-14 -1.980671350673354758e-13
3.699000000000000000e+03 5.385036087036132812e+01 3.105988693237304688e+01 -1.340886494720361366e-13 -1.032175172698164556e-13 -7.119185205543485107e-14 3.315559700162347412e-14
3.700000000000000000e+03 5.304724884033203125e+01 2.998982810974121094e+01 6.380352924597806896e-14 -1.840657820931755617e-14 1.361908531099815384e-14 -4.258632207591655713e-15
3.701000000000000000e+03 1.897822570800781250e+01 -1.469890689849853516e+01 -1.248239115151858480e-13 -2.136242842776941986e-13 -1.015344628036221608e-13 1.185575211138170659e-13
3.702000000000000000e+03 2.141603469848632812e+01 -1.833888626098632812e+01 7.082600666705445719e-15 -4.271554965751440947e-14 -1.068988444313280495e-14 7.254766720091870846e-14
3.703000000000000000e+03 6.001849365234375000e+01 3.088576507568359375e+01 -8.158051294779918722e-15 4.225464176146366546e-14 1.022897739411500820e-14 4.665761134788276934e-15
3.704000000000000000e+03 1.608649063110351562e+01 -4.650238513946533203e+00 3.367638335078151912e-14 6.018368312390998121e-14 2.815801960359427120e-14 2.392307543470223452e-13
3.705000000000000000e+03 1.527724838256835938e+01 -5.480912208557128906e+00 -6.218446981301473109e-14 -1.181523818670135451e-13 -5.410105482638212504e-14 3.409374833233252966e-13
3.706000000000000000e+03 7.223020935058593750e+01 2.937557601928710938e+01 -1.231307942975781722e-13 -7.019391680049540810e-15 -3.904505435333230356e-14 1.717290182669597987e-13
3.707000000000000000e+03 6.050503158569335938e+01 3.037610244750976562e+01 -8.253228151898148179e-14 -2.183747703065480605e-13 -9.027211622528522050e-14 -6.948627328910716994e-14
3.708000000000000000e+03 5.995441055297851562e+01 3.044177246093750000e+01 -1.074020667052918293e-14 -2.333576853887769920e-13 -7.322936609313254741e-14 5.858035393981010294e-15
3.709000000000000000e+03 1.229347705841064453e+01 -4.821829795837402344e+00 7.761406941404411231e-14 -1.248777540115110149e-14 1.953788896619755577e-14 -1.458956788930390602e-13
3.710000000000000000e+03 5.832096481323242188e+01 3.060039138793945312e+01 1.469853224051777263e-14 -2.682063284572405726e-13 -7.605233717095094548e-14 2.910941209214798486e-14
3.711000000000000000e+03 5.886359024047851562e+01 3.055623626708984375e+01 -9.979625717519919129e-16 -4.276982488179650486e-16 -4.276982488179650486e-16 -8.891249790186819130e-15
3.712000000000000000e+03 2.177198600769042969e+01 -1.900500488281250000e+01 2.356642679124994894e-14 -1.271529539645377405e-13 -3.107595493326113789e-14 8.782670500150774329e-14
3.713000000000000000e+03 4.022215270996093750e+01 -2.142759132385253906e+01 1.664200190414771852e-14 5.288323490053314924e-14 2.085757138021743923e-14 1.489327866761869235e-14
3.714000000000000000e+03 3.999983215332031250e+01 -1.964732170104980469e+01 1.087219642656803154e-13 3.668517583894220779e-13 1.426721154412780024e-13 -7.454612285535261451e-14
3.715000000000000000e+03 2.130768203735351562e+01 -1.666089248657226562e+01 -2.073340312641353683e-14 -2.833914472446380506e-13 -9.123744918208484544e-14 7.527328539397738077e-15
3.716000000000000000e+03 2.070547294616699219e+01 -1.703835487365722656e+01 -2.133768828944601625e-14 -5.489567337486032927e-14 -2.287000816047872476e-14 2.130940281001858505e-13
3.717000000000000000e+03 3.480894470214843750e+01 -9.874401092529296875e+00 -5.321185657901350563e-14 -9.143150781843259467e-14 -4.339300999686018789e-14 -1.950207133098996043e-14
3.718000000000000000e+03 3.421586608886718750e+01 -1.029194259643554688e+01 -9.493489029838500515e-14 1.880683651346581886e-13 2.794004075681606053e-14 1.766582079188935839e-13
3.719000000000000000e+03 3.064986610412597656e+01 1.309799313545227051e+00 1.236425512755184863e-13 -1.563676014300525996e-14 3.240173429043535780e-14 -8.295757337366607698e-14
3.720000000000000000e+03 3.505280685424804688e+01 1.217415523529052734e+01 2.180007341095677176e-14 1.809089445088674086e-13 6.081270334306818071e-14 -1.085037550259404515e-13
3.721000000000000000e+03 3.548693084716796875e+01 1.285686492919921875e+01 -9.808558858789145907e-14 -1.792895259339344349e-13 -8.321253706705319941e-14 -2.294539409278435749e-15
3.722000000000000000e+03 4.289263534545898438e+01 1.875475883483886719e+01 1.308929161347900660e-14 -6.355286847996299837e-14 -1.513907407638473424e-14 3.014882316238268190e-14
3.723000000000000000e+03 4.508331680297851562e+01 2.098537063598632812e+01 -6.389355190761225600e-14 -1.531980651277992100e-13 -6.512748240011800860e-14 1.481112731375675007e-13
3.724000000000000000e+03 4.954420471191406250e+01 2.427266883850097656e+01 3.657930078629356707e-14 1.414919478240003747e-13 5.342137526071454035e-14 -1.473260498785402411e-14
3.725000000000000000e+03 3.381167984008789062e+01 -9.628449440002441406e+00 -1.001161569554216701e-13 9.434592457323656700e-14 -1.731070434633536111e-15 4.848072017080672091e-14
3.726000000000000000e+03 3.762802505493164062e+01 -1.525924873352050781e+01 -7.020354078884211146e-14 1.529165655862405049e-13 2.481390642277998132e-14 1.088206131108493402e-13
3.727000000000000000e+03 4.733264923095703125e+01 2.313020515441894531e+01 6.107683532107638369e-14 2.617578632416617951e-14 2.617578632416617951e-14 -1.106761776952132348e-13
3.728000000000000000e+03 4.465758132934570312e+01 -2.681862831115722656e+01 -9.634856795856169831e-14 1.874624994081461327e-13 2.733417841843579360e-14 -9.822554553583218162e-14
3.729000000000000000e+03 4.422914886474609375e+01 -2.615961074829101562e+01 -4.118268768539545821e-14 1.653540721230709054e-13 3.725141465367627636e-14 -1.106544597704456345e-13
3.730000000000000000e+03 4.907759857177734375e+01 2.477553939819335938e+01 2.836325738077988268e-14 -3.359526808762065830e-14 -1.569603084997290600e-15 9.368881674154741490e-14
3.731000000000000000e+03 2.247141838073730469e+01 -2.035932540893554688e+01 6.308256190632952065e-14 -7.590424870671658164e-14 -3.846505786006234121e-15 -5.425943982312331215e-14
3.732000000000000000e+03 4.379766464233398438e+01 -2.550162887573242188e+01 -6.695741237936619905e-14 1.705491521934113935e-14 -1.497074830097457065e-14 3.829841852725016094e-14
3.733000000000000000e+03 4.314012908935546875e+01 -2.602685165405273438e+01 -3.509197149377074436e-16 1.027892438591575253e-13 3.073149712679891510e-14 -6.847278142705845450e-14
3.734000000000000000e+03 1.503331947326660156e+01 -4.821049213409423828e+00 4.118937924567876718e-14 6.340353995949385424e-14 3.137787474511224972e-14 8.274168161606990091e-14
3.735000000000000000e+03 2.093215370178222656e+01 -1.601111984252929688e+01 -5.029464461548359411e-14 -1.130567468528125008e-13 -4.900541642404929177e-14 2.110272270513038895e-13
3.736000000000000000e+03 2.840638160705566406e+01 -3.549296140670776367e+00 -1.654997346849443329e-13 2.468387839504697367e-14 -4.224475519290331327e-14 2.844087609193447774e-14
3.737000000000000000e+03 2.614912033081054688e+01 -2.732631492614746094e+01 -4.688720047526899470e-14 -1.115964146179010408e-13 -4.754508418913783174e-14 -4.965390484846718411e-14
3.738000000000000000e+03 3.783248901367187500e+01 -1.755155563354492188e+01 -1.570489716734829039e-14 -5.248161931079020626e-14 -2.045595409640860174e-14 1.312442992826290400e-14
3.739000000000000000e+03 3.785992050170898438e+01 -1.588331985473632812e+01 -5.837604027556994590e-14 2.952383346480069726e-13 7.105869169986289702e-14 6.157332368310949183e-15
3.740000000000000000e+03 4.292301559448242188e+01 -2.419182014465332031e+01 1.215827297781219007e-13 9.785783159277014476e-14 6.583216637838854024e-14 6.340297075335329935e-14
3.741000000000000000e+03 3.297344589233398438e+01 -8.292592048645019531e+00 -7.059101431649769665e-14 6.124860682651597776e-14 -2.802722966972520831e-15 -2.123780447023989465e-14
3.742000000000000000e+03 4.654128646850585938e+01 -2.930625724792480469e+01 5.124774641652486695e-14 4.794727982704305447e-13 1.592161732316688116e-13 -2.619643190522255582e-14
3.743000000000000000e+03 2.213460540771484375e+01 -2.133499145507812500e+01 1.028721514440347762e-14 -1.557195128051858113e-13 -4.362968794298198449e-14 1.944009731837115229e-14
3.744000000000000000e+03 1.830746269226074219e+01 -1.353140926361083984e+01 -1.652274102042702864e-13 -2.538155503915145994e-13 -1.257128895339881813e-13 1.236983334772928655e-13
3.745000000000000000e+03 1.956235694885253906e+01 -1.405628871917724609e+01 5.124320293179579489e-14 -2.525443233442753455e-13 -6.039033205798571835e-14 2.046534464247504181e-13
3.746000000000000000e+03 2.676482963562011719e+01 -2.859976768493652344e+01 1.706876420802874716e-14 -4.044433516391110484e-13 -1.162123782622037638e-13 9.985107291238075333e-15
3.747000000000000000e+03 7.475375366210937500e+01 -3.227315139770507812e+01 -1.173223166837586429e-13 -4.530044857297983035e-15 -3.655570922464664030e-14 -4.863695370386188210e-14
3.748000000000000000e+03 3.715920257568359375e+01 1.306835937500000000e+01 4.540149790952137387e-14 -1.635460159226526100e-13 -3.544335506512619194e-14 -1.312431337652936181e-13
3.749000000000000000e+03 3.832372283935546875e+01 1.397141456604003906e+01 -2.182162531726671018e-14 -1.008540242964338363e-13 -3.680269386767062723e-14 -1.077594163532112626e-13
3.750000000000000000e+03 5.343359375000000000e+01 3.150272369384765625e+01 -1.210426480184254028e-13 -9.762636798147164563e-14 -6.560070276709004111e-14 1.891506428482875313e-13
3.751000000000000000e+03 5.346681976318359375e+01 3.054785346984863281e+01 -1.343463914334902531e-13 8.189962414034777233e-15 -3.784692963757288475e-14 1.492519622432394999e-13
3.752000000000000000e+03 3.478391265869140625e+01 -1.260284042358398438e+01 -6.896832280625653233e-14 -2.955785505134693458e-14 -2.955785505134693458e-14 9.830488880606738644e-14
3.753000000000000000e+03 3.673595428466796875e+01 -1.491983699798583984e+01 -5.048731072966605726e-14 -6.738836919040203099e-14 -3.536270397602042648e-14 3.638199631969193937e-14
3.754000000000000000e+03 4.127056503295898438e+01 1.914295959472656250e+01 7.735279024300226181e-14 -5.835070382605167527e-14 5.700627449744481018e-15 6.517950377560657871e-14
3.755000000000000000e+03 3.095603942871093750e+01 2.278495550155639648e+00 1.326728305125687846e-13 5.685978353734896795e-14 5.685978353734896795e-14 -1.318494873827832925e-13
3.756000000000000000e+03 2.992990112304687500e+01 2.475548505783081055e+00 1.798254199627397076e-13 -1.516867008518815729e-13 8.441614208598135355e-15 -1.847983436198061269e-13
3.757000000000000000e+03 3.347024154663085938e+01 8.824147224426269531e+00 4.335847815766652458e-14 -1.186706440579887722e-13 -2.259364841484395869e-14 -7.299696058119670150e-14
3.758000000000000000e+03 3.772980117797851562e+01 1.348616695404052734e+01 -4.204557708942235905e-14 5.060689145302763037e-14 2.568393631455223591e-15 7.728513602743916633e-14
3.759000000000000000e+03 2.965263938903808594e+01 1.509130716323852539e+00 3.845523820710482210e-14 -1.665229775902818399e-13 -3.842032350901899984e-14 -2.997096657225001293e-14
3.760000000000000000e+03 2.903607177734375000e+01 1.123775839805603027e+00 -6.310602133083667575e-14 -2.704543674517806418e-14 -2.704543674517806418e-14 -6.815318573166403993e-14
3.761000000000000000e+03 2.687415313720703125e+01 -4.048703610897064209e-01 -1.392672191761687439e-13 -7.970199207649880657e-14 -6.569076608630569636e-14 -1.245913094916062391e-13
3.762000000000000000e+03 2.687759971618652344e+01 5.301960706710815430e-01 6.893033507263807147e-14 7.529252151220952594e-14 4.326685629782792142e-14 -1.531160045758692134e-13
3.763000000000000000e+03 2.783495712280273438e+01 -2.923442840576171875e+00 2.445513079489384546e-15 9.254997755583221908e-14 2.849864712706901004e-14 -8.051056972794776168e-14
3.764000000000000000e+03 2.737156486511230469e+01 -1.990570873022079468e-02 3.403541012393651588e-14 7.438018232472191904e-15 1.244202799870284398e-14 -1.673752553655455388e-13
3.765000000000000000e+03 3.858502578735351562e+01 -1.885513305664062500e+01 3.754973965769924094e-14 6.184369151767538098e-14 2.981802969142556547e-14 7.167222815674528791e-14
3.766000000000000000e+03 3.813768005371093750e+01 -1.650989723205566406e+01 2.420745624353431991e-14 1.018765218127777594e-13 3.782519138401455039e-14 3.930913550936367129e-14
3.767000000000000000e+03 7.647717285156250000e+01 -2.823006248474121094e+01 -1.726417576775149832e-15 1.365129526347680367e-13 4.043596037975501212e-14 -4.441151968208843781e-14
3.768000000000000000e+03 7.577803802490234375e+01 -2.850290679931640625e+01 3.016906047355848164e-14 1.959333980868296909e-13 6.783073722930327287e-14 -4.699802965421953638e-14
3.769000000000000000e+03 4.690192699432373047e+00 -3.009230232238769531e+01 -4.297511104573922824e-14 3.018387406336642265e-13 7.765909090925657288e-14 -1.322826125981640955e-13
3.770000000000000000e+03 4.965298080444335938e+01 2.535904312133789062e+01 8.018299837032200061e-14 8.011508665674293983e-14 4.808942483049312433e-14 -4.959497846039259694e-14
3.771000000000000000e+03 7.595500183105468750e+01 -3.322314071655273438e+01 -6.220262342314028525e-14 -2.665826814938349054e-14 -2.665826814938349054e-14 -1.576879767170233371e-13
3.772000000000000000e+03 7.585761260986328125e+01 -3.119673919677734375e+01 -5.565371026441251479e-14 6.765030565901095083e-14 3.598978618379530814e-15 -7.183418085626031013e-14
3.773000000000000000e+03 7.546796417236328125e+01 2.484411621093750000e+01 -3.609497412331713617e-14 -1.298466407095508202e-13 -4.978248444986038690e-14 4.461238846333211161e-14
3.774000000000000000e+03 7.572486877441406250e+01 -2.472713851928710938e+01 -7.305691696133514990e-14 2.889465468107477175e-13 6.476688353381290786e-14 -5.211067986626502502e-14
3.775000000000000000e+03 7.691064453125000000e+01 2.226279449462890625e+01 7.773400927937532123e-14 1.476919443948315758e-13 6.762778813514114251e-14 4.361012487003219917e-14
3.776000000000000000e+03 7.595879364013671875e+01 -2.151696777343750000e+01 -4.208269322613809524e-16 2.285744022442054435e-13 6.844606939603384288e-14 1.424847110957638829e-13
3.777000000000000000e+03 7.500733184814453125e+01 -2.376063919067382812e+01 -3.187263346586706458e-14 1.693440987481434346e-13 4.124143789061701648e-14 1.254749613672362374e-13
3.778000000000000000e+03 7.640393829345703125e+01 -2.736908912658691406e+01 4.605002699152073442e-14 2.027395178821889132e-13 7.463686380092607320e-14 -1.158389654814726000e-13
3.779000000000000000e+03 7.658373260498046875e+01 -2.404250526428222656e+01 -2.143527326123328969e-14 3.568210451502379366e-13 1.006157302114486785e-13 7.091442504828654458e-14
3.780000000000000000e+03 7.586780548095703125e+01 -2.311269760131835938e+01 -4.920895166501092211e-14 1.619142509954804576e-13 3.381158674982225054e-14 5.508588648162754398e-14
3.781000000000000000e+03 7.605124664306640625e+01 -1.516333198547363281e+01 4.613614652533397364e-14 4.772821135708149587e-13 1.570254749795260696e-13 6.196417348409283266e-14
3.782000000000000000e+03 7.669654846191406250e+01 -2.083622932434082031e+01 1.022377644241227734e-13 3.640728126960701694e-13 1.398931697479260938e-13 9.379435027051172269e-14
3.783000000000000000e+03 7.592126464843750000e+01 -2.231066894531250000e+01 -5.758260842025084494e-15 8.903407254078760102e-14 2.498274380609028650e-14 -2.244486368952695182e-14
3.784000000000000000e+03 7.554834747314453125e+01 1.840783309936523438e+01 3.663518124388982777e-14 6.145173887979471505e-14 2.942607705354489955e-14 -5.683114196527051104e-15
3.785000000000000000e+03 7.608177947998046875e+01 -7.977288722991943359e+00 2.447060905145549692e-14 1.934912055882517801e-13 6.538854473072536200e-14 3.103744203921537936e-13
3.786000000000000000e+03 7.531345367431640625e+01 -1.669046974182128906e+01 2.298893158627322852e-14 2.386071483624629952e-13 7.847882229055497261e-14 -2.438707805032906684e-14
3.787000000000000000e+03 7.607695770263671875e+01 -8.782686233520507812e+00 -1.966393593907846821e-14 5.863349085769020697e-13 1.700013014475226791e-13 -6.153601526991472892e-14
3.788000000000000000e+03 7.601774597167968750e+01 -1.755985641479492188e+01 1.720729814061808249e-14 9.887645308634743224e-14 3.482512604571601222e-14 4.295851597623662199e-14
3.789000000000000000e+03 7.676332855224609375e+01 -1.444976139068603516e+01 1.281497152318122890e-14 4.630015988660307613e-13 1.427449738272690283e-13 1.011495507035990726e-13
3.790000000000000000e+03 7.603840637207031250e+01 -1.596150493621826172e+01 -4.276080832195210124e-14 1.646777332553472917e-13 3.657507578595266262e-14 -4.535503307016679198e-14
3.791000000000000000e+03 7.608638763427734375e+01 -7.795006632804870605e-01 4.463976118005558158e-13 -2.204452711953436284e-13 6.778570218156365623e-14 7.721368541020647708e-15
3.792000000000000000e+03 7.683178710937500000e+01 1.430959510803222656e+01 4.745264917766986446e-14 2.033406402241963451e-13 7.523798614293350506e-14 -7.639068278766578124e-14
3.793000000000000000e+03 7.622318267822265625e+01 1.914619827270507812e+01 -2.532326545044661856e-15 1.819185129143044422e-13 5.381585544490981310e-14 -8.765124720868169850e-14
3.794000000000000000e+03 7.610587310791015625e+01 6.422094821929931641e+00 4.878045463765391665e-14 -1.163469413043363709e-13 -2.026994396712566288e-14 -3.925843550527281789e-14
3.795000000000000000e+03 7.610314178466796875e+01 5.621666431427001953e+00 6.780094199835065560e-14 2.578122990700565387e-13 9.768396622188493805e-14 -3.072736834940081874e-13
3.796000000000000000e+03 7.678327941894531250e+01 -5.661897659301757812e+00 2.043231442329027092e-13 4.078237042775406662e-13 1.836440477768694346e-13 2.239282977795076235e-13
3.797000000000000000e+03 7.545178985595703125e+01 1.128544044494628906e+01 9.353595778775411484e-14 2.230906296285181667e-13 9.498797554725532666e-14 -2.998381436799396615e-14
3.798000000000000000e+03 7.679166412353515625e+01 1.520755171775817871e+00 5.608333350677618956e-13 1.031042926816910787e-13 1.991812883248358923e-13 -9.222583498757694342e-14
3.799000000000000000e+03 7.680892181396484375e+01 8.719142913818359375e+00 -1.394369916838528178e-13 7.749413632497648141e-14 -1.858285593003654312e-14 1.021554768673629127e-14
3.800000000000000000e+03 7.621590423583984375e+01 2.565698242187500000e+01 -3.733783911935052713e-14 -2.447566888746921521e-13 -8.462835602652055145e-14 -8.664251736586244673e-15
3.801000000000000000e+03 7.676858520507812500e+01 -1.285503578186035156e+01 1.110671189757548791e-14 6.452732770854952005e-13 1.969140047417342054e-13 -5.632353714283763746e-14
3.802000000000000000e+03 7.611432647705078125e+01 8.808944702148437500e+00 7.189181297799149273e-14 1.223126688907477666e-13 5.826134523824813560e-14 -1.060089990507877278e-13
3.803000000000000000e+03 7.679376983642578125e+01 3.121368169784545898e+00 3.440616660934509019e-13 4.448361709367965044e-13 2.366693538195796531e-13 -2.180249931331770807e-13
3.804000000000000000e+03 7.609521484375000000e+01 1.603548288345336914e+00 4.247182304201874148e-13 1.820221084318854321e-13 1.820221084318854321e-13 -1.135053151728876442e-13
3.805000000000000000e+03 7.678289794921875000e+01 -4.862982749938964844e+00 -1.703766115820556926e-13 2.929890488209685451e-13 3.678373049404749795e-14 -4.834267412919500406e-14
3.806000000000000000e+03 7.608247375488281250e+01 -7.174894809722900391e+00 -4.171806333003701128e-14 3.710039003443355021e-13 9.878575279835544176e-14 2.893374423515102101e-14
3.807000000000000000e+03 7.540041351318359375e+01 4.893886089324951172e+00 2.006504906887709994e-13 3.376232941224716066e-13 1.614821286671092038e-13 -2.708972098291323460e-13
3.808000000000000000e+03 7.537136840820312500e+01 -2.286462068557739258e+00 1.731333582359259604e-13 6.689623356127827325e-13 2.526287013783490298e-13 1.984600770396985348e-13
3.809000000000000000e+03 7.678234863281250000e+01 -4.063448429107666016e+00 2.207135434703980104e-13 3.690972224038024940e-13 1.769432311175128669e-13 3.132824132490857894e-13
3.810000000000000000e+03 7.620856475830078125e+01 1.836173057556152344e+01 3.461345928846074060e-15 1.844872318064114114e-13 5.638457094888499332e-14 1.665118882349363866e-14
3.811000000000000000e+03 7.536038208007812500e+01 -9.531306266784667969e+00 -3.926504236226140143e-14 4.864325630661581190e-13 1.341502592604876254e-13 -8.912161508995222747e-14
3.812000000000000000e+03 7.606338500976562500e+01 -2.918493461608886719e+01 -5.871522276083666891e-15 -4.826731530194368347e-14 -1.624165178162797346e-14 -5.908244542478929828e-14
3.813000000000000000e+03 7.679310607910156250e+01 2.319827795028686523e+00 4.158367443787835960e-13 4.096290296437370138e-14 1.370399019956503039e-13 -2.834824660170182087e-13
3.814000000000000000e+03 7.607669830322265625e+01 -4.771464347839355469e+00 1.563937374786730783e-13 2.957806254696299098e-13 1.356523129502490432e-13 3.586677125005238720e-13
3.815000000000000000e+03 7.606154632568359375e+01 -1.198693084716796875e+01 3.056357115093985555e-14 5.621100373359722013e-13 1.778020818684472593e-13 -6.228493469682266914e-14
3.816000000000000000e+03 7.609004211425781250e+01 1.361007988452911377e-02 4.160220074250070565e-13 4.985517749502010876e-13 2.743721320020570120e-13 -7.209814342767906226e-14
3.817000000000000000e+03 7.614733123779296875e+01 1.359891700744628906e+01 3.339641185665966072e-14 2.430675018899597362e-13 8.293916904178813554e-14 -2.069796157383452240e-14
3.818000000000000000e+03 7.607918548583984375e+01 -2.371246576309204102e+00 1.748493927769545486e-13 1.664373527237097972e-13 1.023860222949465881e-13 7.348763660314575064e-14
3.819000000000000000e+03 7.607711029052734375e+01 -3.169515848159790039e+00 2.496132369810694085e-13 7.017394478003868841e-13 2.854058135659531814e-13 3.256028801613963797e-13
3.820000000000000000e+03 7.609737396240234375e+01 4.012390136718750000e+00 3.208686842701841124e-13 3.433944209714490103e-13 1.992789207304682120e-13 -1.629474821133319873e-13
3.821000000000000000e+03 7.609679412841796875e+01 3.207323312759399414e+00 2.710680258814074373e-13 -1.354582136563198258e-13 4.068294163464721003e-14 -1.597057447226546412e-13
3.822000000000000000e+03 7.607653045654296875e+01 -3.969791889190673828e+00 1.117732818735513167e-14 2.564205087412368966e-13 8.027935006213807179e-14 -2.319521121398396279e-14
3.823000000000000000e+03 7.670986175537109375e+01 -2.004074668884277344e+01 7.446084357822305155e-14 9.036316040865379623e-15 2.504914780102323463e-14 1.017704326302000528e-13
3.824000000000000000e+03 7.606970977783203125e+01 -9.586877822875976562e+00 -2.047236451272870655e-14 2.199808667472866186e-13 5.985255422790575208e-14 1.575129187237483963e-13
3.825000000000000000e+03 7.606419372558593750e+01 -1.038801860809326172e+01 -6.015291888726570502e-14 5.232315774227058736e-13 1.389235948501266193e-13 -3.057819771587304281e-14
3.826000000000000000e+03 7.610759735107421875e+01 7.217808246612548828e+00 1.382281740241672607e-13 2.422444298107173655e-13 1.141417825057181035e-13 -1.338640027818971401e-13
3.827000000000000000e+03 7.623484802246093750e+01 1.993083381652832031e+01 9.509523024716845518e-14 4.075509867735790936e-14 4.075509867735790936e-14 -1.142495149322134834e-14
3.828000000000000000e+03 7.612963104248046875e+01 1.120698833465576172e+01 -1.243717992092593927e-13 -5.330220111316764930e-14 -5.330220111316764930e-14 3.116330097078200134e-14
3.829000000000000000e+03 7.612512969970703125e+01 1.040715122222900391e+01 7.389386682838533504e-14 1.231706929375256387e-13 5.911936928502600774e-14 -1.819380014483548691e-13
3.830000000000000000e+03 7.617049407958984375e+01 1.598104476928710938e+01 -5.320841084898407514e-14 -6.855455059965459563e-14 -3.652888877340478013e-14 -5.930714632503691908e-14
3.831000000000000000e+03 7.606135559082031250e+01 -1.118877887725830078e+01 -7.693583319251864894e-14 1.500313003173492366e-13 2.192863776575692397e-14 1.274067114830079728e-13
3.832000000000000000e+03 7.618110656738281250e+01 1.677635002136230469e+01 -7.829872953344155229e-14 1.036962467390774301e-13 7.619255331097352785e-15 -3.147150237896995106e-14
3.833000000000000000e+03 7.489148712158203125e+01 -3.343515777587890625e+01 9.886305641325365823e-14 2.482491480177567711e-13 1.041336613293031288e-13 -1.196497734874332752e-14
3.834000000000000000e+03 7.460497283935546875e+01 -3.000090789794921875e+01 -1.224996531079200479e-13 1.305039518291473133e-13 2.401290124587947966e-15 1.661942678203749690e-14
3.835000000000000000e+03 7.564393615722656250e+01 -2.554864883422851562e+01 -1.568336558982908607e-14 3.902950621655250363e-14 7.003842272720319992e-15 -1.565712959132083137e-14
3.836000000000000000e+03 7.601382446289062500e+01 -1.835431480407714844e+01 -5.656563948795365060e-14 2.502632703935830927e-13 5.810929265982062164e-14 -2.855832229226897001e-14
3.837000000000000000e+03 7.601128387451171875e+01 -1.914685058593750000e+01 1.325605207200264424e-13 2.855663839076982846e-13 1.254380713883174181e-13 -3.181905693788733558e-14
3.838000000000000000e+03 7.690686798095703125e+01 2.307140541076660156e+01 -6.631579508621643360e-14 -9.704747856026374464e-14 -4.900898412682312688e-14 3.797284616737992002e-14
3.839000000000000000e+03 7.625585174560546875e+01 2.229915618896484375e+01 -5.874485197333162434e-14 6.632553257697806903e-14 2.274204901071938574e-15 1.113113033278552433e-13
3.840000000000000000e+03 7.621723937988281250e+01 2.393777084350585938e+01 -2.193205977886383135e-14 -1.695277761486896351e-13 -5.743794789835401926e-14 1.283258845323140274e-13
3.841000000000000000e+03 7.559223175048828125e+01 -2.638430404663085938e+01 -7.215805915023604244e-14 8.345249133661497565e-14 3.388329994726858863e-15 -1.014659954364297012e-13
3.842000000000000000e+03 4.238081932067871094e+00 -2.580769920349121094e+01 6.488772548923294262e-15 9.428279690174359851e-14 3.023147324924396750e-14 -8.143851126232379278e-14
3.843000000000000000e+03 4.057764053344726562e+00 -2.212042236328125000e+01 7.688532970007155853e-14 3.295085558574495366e-14 3.295085558574495366e-14 2.983820601622916291e-14
3.844000000000000000e+03 7.618982696533203125e+01 2.479896926879882812e+01 9.712715047928248413e-15 1.185399705911499568e-13 3.847580416706415651e-14 1.467288611575398583e-13
3.845000000000000000e+03 3.892163038253784180e+00 -7.028672218322753906e+00 4.157946163481189561e-14 2.465745164471899731e-13 8.644619037528195049e-14 -1.297368110294780386e-13
3.846000000000000000e+03 3.327552318572998047e+00 -1.966762924194335938e+01 -7.131924581070189784e-14 -2.135691797022776228e-13 -8.546653239727836082e-14 -9.175012603780587778e-15
3.847000000000000000e+03 3.968563795089721680e+00 -1.576834011077880859e+01 -2.816908863014899039e-14 -1.207246667678284549e-14 -1.207246667678284549e-14 -9.629561145869935945e-14
3.848000000000000000e+03 3.979164361953735352e+00 -6.223472118377685547e+00 6.552648997541635559e-15 -4.294266968385938854e-14 -1.091700616354367853e-14 -6.380859111487086066e-14
3.849000000000000000e+03 3.277183055877685547e+00 -6.069870471954345703e+00 6.114139956044789548e-14 9.482987854171620601e-14 4.679138410827558825e-14 -5.697730427658281860e-14
3.850000000000000000e+03 3.105417490005493164e+00 -1.011925315856933594e+01 -3.156551625985160037e-14 7.797382124740195875e-14 1.392249081863874971e-14 -8.824908983911736171e-14
3.851000000000000000e+03 3.840474605560302734e+00 -7.834022521972656250e+00 -6.792984855446149856e-15 4.283967047747326562e-14 1.081400526309166110e-14 -2.333677413639267950e-14
3.852000000000000000e+03 4.077047348022460938e+00 -1.896427536010742188e+01 -7.096715115518723027e-14 -1.219163929967043147e-13 -5.786506256794110570e-14 1.313084298411315576e-13
3.853000000000000000e+03 4.037676334381103516e+00 -1.736339759826660156e+01 -1.633283352314718329e-13 1.358814184218223864e-13 -8.234075889927781194e-15 3.297348152983201053e-14
3.854000000000000000e+03 3.291745424270629883e+00 -1.726453971862792969e+01 -5.565570248590445690e-14 1.134004050601725155e-13 1.732341111109359649e-14 7.304017281403382689e-14
3.855000000000000000e+03 3.792980432510375977e+00 -1.182210731506347656e+01 -5.310857276955710526e-14 -2.743910242249125719e-13 -9.824988587460448120e-14 3.711781722910353909e-14
3.856000000000000000e+03 3.778633117675781250e+00 -1.025117874145507812e+01 6.539849906192149454e-14 1.195298200695749102e-13 5.547849641707527923e-14 -9.248062249811103697e-14
3.857000000000000000e+03 5.599289417266845703e+00 -2.437837600708007812e+01 8.279256457927736124e-14 1.269844282893520249e-13 6.293309786058881583e-14 -5.091173522261266404e-14
3.858000000000000000e+03 3.242287063598632812e+01 4.682980537414550781e+00 1.648653137837144400e-13 1.392829807652512519e-13 9.124448971994242319e-14 -1.083454886138118800e-13
3.859000000000000000e+03 3.093006706237792969e+01 3.892051219940185547e+00 5.538005424794538445e-14 -5.632985262049236552e-14 -2.849398188135377017e-16 -3.164858986318651313e-14
3.860000000000000000e+03 3.109260320663452148e+00 -1.091413211822509766e+01 -5.051542544725132200e-14 -1.131513638211525952e-13 -4.910003678052117515e-14 -2.062391869697005609e-13
3.861000000000000000e+03 5.232652187347412109e+00 -9.012985229492187500e+00 2.182262989834215378e-14 -1.736512409561408177e-13 -4.554858348674618862e-14 -4.428634854127498632e-14
3.862000000000000000e+03 3.816785335540771484e+00 -1.261344242095947266e+01 1.980596303554228027e-14 7.711469266966086700e-14 2.907619823622024924e-14 -8.461798156698258078e-14
3.863000000000000000e+03 3.379592895507812500e+00 -2.433390617370605469e+01 9.890001415480825786e-14 -9.486712766260466112e-14 1.209867874661034026e-15 -4.324903472461769094e-14
3.864000000000000000e+03 4.076664447784423828e+00 -2.430058860778808594e+01 -1.854219665450244220e-14 -3.082212965215512523e-14 -1.480929704496432298e-14 -1.311100382077421290e-15
3.865000000000000000e+03 4.227394580841064453e+00 -2.506208992004394531e+01 -2.086927906961438817e-14 1.393149816699985194e-14 -2.081334228432713505e-15 -4.908448525560958620e-14
3.866000000000000000e+03 6.649417877197265625e+00 -3.035188293457031250e+01 -9.124880958797342012e-15 1.324594273377716416e-14 1.236318278384062469e-15 -9.160678942840561056e-14
3.867000000000000000e+03 3.661120176315307617e+00 -3.378458786010742188e+01 -6.087152131092551932e-14 2.941688505200129589e-13 6.998920079560530527e-14 2.474407025034475877e-14
3.868000000000000000e+03 5.143472194671630859e+00 -3.303406906127929688e+01 -1.348171520167834592e-14 2.687278025971517881e-13 7.657383163965289508e-14 -9.320529475987087559e-15
3.869000000000000000e+03 4.402366638183593750e+01 2.089966392517089844e+01 1.055002168525581707e-13 1.595917544167449464e-13 7.952759138079093515e-14 1.081908949365426031e-13
3.870000000000000000e+03 4.398470687866210938e+01 1.988720130920410156e+01 6.351927176514310380e-14 1.006594049242750047e-14 2.207556410078765491e-14 5.309478646130759427e-14
3.871000000000000000e+03 4.282890319824218750e+00 -2.647616958618164062e+01 1.605951428697988126e-13 1.603283884777859103e-13 9.627705804902270126e-14 -4.839538668356853368e-14
3.872000000000000000e+03 6.099905490875244141e+00 -3.176057243347167969e+01 1.604677152332138756e-14 5.262813568187446611e-14 2.060247216155875610e-14 -7.092067276330549230e-14
3.873000000000000000e+03 4.072516441345214844e+00 -2.134574508666992188e+01 -1.412253480155003463e-15 -3.666128544407148970e-13 -1.104075259493984829e-13 3.391729646163958722e-14
3.874000000000000000e+03 3.927784681320190430e+00 -1.498692893981933594e+01 -2.280075474671121316e-14 -1.012736511947671947e-13 -3.722232076600398565e-14 1.204765860641707209e-13
3.875000000000000000e+03 3.884807586669921875e+00 -1.421017360687255859e+01 -2.086665665560968885e-14 1.283099874179599587e-13 3.223300193921051215e-14 4.723743165829970281e-14
3.876000000000000000e+03 4.080361843109130859e+00 -1.976258850097656250e+01 -6.611036587958474264e-14 -7.408396135053993414e-14 -4.205829613615832963e-14 6.773861392595989517e-14
3.877000000000000000e+03 5.380158901214599609e+00 -2.872521209716796875e+01 -1.042308871591207664e-13 3.825321407292109344e-14 -1.979329989298082848e-14 -1.043147230921082080e-13
3.878000000000000000e+03 4.547931194305419922e+00 -2.717359924316406250e+01 3.727035431037688251e-14 -7.552889113833852197e-14 -1.147756070957531294e-14 -8.311070337800249841e-14
3.879000000000000000e+03 3.307737731933593750e+01 7.434818267822265625e+00 1.282788708156096247e-13 -1.337460009279492490e-13 -1.640137847855761138e-15 -9.116798570414641478e-15
3.880000000000000000e+03 3.352084350585937500e+01 7.100739479064941406e+00 7.466458549522381194e-14 -2.518957739334852508e-14 1.484250243056258606e-14 -9.855955434385707536e-14
3.881000000000000000e+03 4.077540397644042969e+00 -2.055539703369140625e+01 6.664636494047547488e-15 -1.801475228756579949e-13 -5.204486540626336588e-14 1.188268098284081531e-13
3.882000000000000000e+03 4.352452278137207031e+00 -3.453374481201171875e+01 1.064889228365043308e-14 1.189411796050782177e-13 3.887702334538778448e-14 -3.249310542852157369e-14
3.883000000000000000e+03 5.025408744812011719e+00 -3.191019630432128906e+01 -1.603205178476400233e-14 1.075064923151611285e-13 2.744233266733890619e-14 -6.090326810578861050e-14
3.884000000000000000e+03 2.520268058776855469e+01 -2.455072593688964844e+01 -7.200759221748578853e-14 -8.804908164334809828e-14 -4.801700012537109263e-14 2.099147712478297706e-14
3.885000000000000000e+03 7.716844940185546875e+01 2.863600540161132812e+01 -7.103526615667363209e-15 1.342084809171500970e-13 3.813148527400528343e-14 4.017599919197908931e-14
3.886000000000000000e+03 7.531488037109375000e+01 2.966604042053222656e+01 -4.933637930159585905e-14 -2.114416328385503724e-14 -2.114416328385503724e-14 7.746646884078736695e-14
3.887000000000000000e+03 4.835389709472656250e+01 -3.285539627075195312e+01 9.342068676802817162e-14 6.004865658534863648e-13 2.081721703654434985e-13 1.455770793083906167e-14
3.888000000000000000e+03 4.702037048339843750e+01 -3.001953315734863281e+01 6.494387276220758842e-14 3.480897211097233601e-13 1.239100781615792846e-13 -5.159238040584011864e-14
3.889000000000000000e+03 7.527137756347656250e+01 -3.465496444702148438e+01 -7.247956575195946272e-14 -8.825135311115242520e-14 -4.821927498130720857e-14 -7.390385504089935775e-14
3.890000000000000000e+03 7.432951354980468750e+01 -3.651924896240234375e+01 -5.969739812075949836e-14 7.735503318624659119e-14 5.297291959602138181e-15 -4.294253754671961687e-14
3.891000000000000000e+03 7.584202575683593750e+01 -3.222427749633789062e+01 2.701176379739291672e-14 1.488293131313503381e-13 5.275232426446910261e-14 -7.897174464388014015e-15
3.892000000000000000e+03 4.185773849487304688e+01 -2.404627799987792969e+01 5.615598724960715882e-14 1.191376933664235836e-15 1.720420985849239331e-14 6.589264453082249728e-14
3.893000000000000000e+03 5.189262866973876953e+00 -3.521986770629882812e+01 -5.109466321075878132e-16 1.141583979040114438e-13 3.409423486805743253e-14 -3.826612624316903799e-14
3.894000000000000000e+03 1.830309295654296875e+01 -1.079678726196289062e+01 -8.609881199921759487e-14 8.851458723423653863e-15 -2.317420649095795065e-14 1.266776126270657832e-13
3.895000000000000000e+03 1.791209411621093750e+01 -1.184918403625488281e+01 -1.116512549190380732e-13 -1.164769642498716951e-13 -6.843846642829928828e-14 1.111760694356284107e-13
3.896000000000000000e+03 4.687274551391601562e+01 2.362798690795898438e+01 -5.406360241758632890e-14 -1.173237786626256038e-14 -1.973879332282501425e-14 -6.487222055113345265e-14
3.897000000000000000e+03 4.778806686401367188e+01 2.263429069519042969e+01 -2.324482701590233069e-14 -5.571301612324747188e-14 -2.368735260293176187e-14 7.963041440432402918e-15
3.898000000000000000e+03 3.313117980957031250e+01 6.440859317779541016e+00 7.917826144081610562e-14 1.368731788065763455e-13 6.481543546234952435e-14 -1.040848586790141250e-13
3.899000000000000000e+03 3.893845748901367188e+01 1.449583530426025391e+01 9.417557947128014917e-15 4.406817657098480168e-14 1.604572120246679223e-14 -1.005807308100681308e-13
3.900000000000000000e+03 4.144459533691406250e+01 -2.338308334350585938e+01 7.335245692102754234e-14 3.143676725186894672e-14 3.143676725186894672e-14 -8.479307344157541171e-14
3.901000000000000000e+03 4.081890106201171875e+01 -2.389381980895996094e+01 6.167319394978845737e-14 2.643137004567069209e-14 2.643137004567069209e-14 3.525781758022782097e-14
3.902000000000000000e+03 4.563538360595703125e+01 2.152701377868652344e+01 2.304323656258759623e-14 -1.871867088686519215e-14 1.297369978002429081e-15 1.343046225447952491e-13
3.903000000000000000e+03 7.343504333496093750e+01 2.987117195129394531e+01 9.866495234754982246e-14 -2.322207096755457556e-13 -4.006672855365149555e-14 -1.402754458814173266e-13
3.904000000000000000e+03 7.468081665039062500e+01 2.974828720092773438e+01 1.692083159785667812e-14 -3.130048574929295002e-13 -8.882520776852184663e-14 1.258861179360970528e-13
3.905000000000000000e+03 3.880443954467773438e+01 -1.776870155334472656e+01 -1.181807473063511971e-14 -9.656678397456514018e-14 -3.251545693393372016e-14 5.831357667790762478e-14
3.906000000000000000e+03 5.260263442993164062e+01 2.829277610778808594e+01 -1.793392874255197306e-14 -1.697913118155029710e-14 -1.047391729960432324e-14 -5.782477768096969117e-14
3.907000000000000000e+03 3.918186950683593750e+01 -1.839762115478515625e+01 -7.204421114586148644e-14 1.978786600721760269e-13 3.775033400026800434e-14 -2.051582238512053569e-14
3.908000000000000000e+03 3.845342254638671875e+01 -1.713834190368652344e+01 -8.072209079553610556e-14 1.941595620174804693e-13 3.403124272183602472e-14 -4.424697506175481743e-14
3.909000000000000000e+03 5.335511207580566406e+00 -7.379811763763427734e+00 8.009396165503841758e-15 1.864363969195786952e-13 5.833373606205227713e-14 -1.518777372746735188e-13
3.910000000000000000e+03 2.516802597045898438e+01 -2.260518264770507812e+01 -7.213087955702454646e-14 -7.666417956193882777e-14 -4.463851773568901227e-14 1.502072527774164779e-13
3.911000000000000000e+03 3.252987670898437500e+01 -7.628902435302734375e+00 -2.921516584967857877e-14 -5.827173325031326234e-14 -2.624607142406344684e-14 2.046560688387551175e-14
3.912000000000000000e+03 3.440905380249023438e+01 -1.200150299072265625e+01 -4.216604211518086565e-14 -2.010749558392990743e-13 -7.297230175803623431e-14 9.465353898759206949e-16
3.913000000000000000e+03 6.200694561004638672e+00 -5.537662506103515625e+00 8.073731705979594886e-14 1.261036088918976450e-13 6.205227846313443596e-14 -2.599227324801174632e-14
3.914000000000000000e+03 5.984529972076416016e+00 -4.760159492492675781e+00 7.594614634441956835e-14 2.613030776997538052e-13 1.011747719566365167e-13 3.414121809157573406e-14
3.915000000000000000e+03 6.444583415985107422e+00 -5.060254096984863281e+00 4.514824522268770512e-14 6.510019438668926406e-14 3.307453256043944856e-14 -1.781593264842812330e-13
3.916000000000000000e+03 2.895285415649414062e+01 -4.177287578582763672e+00 7.243128487396596760e-14 9.394953348271228855e-14 4.991424550700347684e-14 -4.220774662937187838e-14
3.917000000000000000e+03 2.658507156372070312e+01 -1.790853857994079590e+00 -1.261667094583363014e-13 1.746832930041297693e-13 1.455497540255121930e-14 -1.937842654354746119e-14
3.918000000000000000e+03 5.204226303100585938e+01 2.768535614013671875e+01 1.246566055674441786e-13 2.197048458148307543e-14 4.398812856933748128e-14 -3.453511212897150684e-14
3.919000000000000000e+03 7.017561912536621094e+00 -5.122721195220947266e+00 -1.345135754084875179e-13 -1.189772547383017784e-14 -4.392338814711294059e-14 4.314139038954882543e-14
3.920000000000000000e+03 3.533760452270507812e+01 -1.216800594329833984e+01 -1.093106182827041639e-13 -1.383493065118882037e-13 -7.429797608312499468e-14 -6.772109050834709820e-14
3.921000000000000000e+03 3.958204650878906250e+01 -1.902309989929199219e+01 1.237249777456816968e-13 7.274039430147337393e-15 3.929970295046304740e-14 7.975518574558637663e-14
3.922000000000000000e+03 1.996000480651855469e+01 -1.582207965850830078e+01 6.217894038193505502e-14 1.181500101747612330e-13 5.409868652226160202e-14 1.002560596932537684e-13
3.923000000000000000e+03 5.023304367065429688e+01 2.595371818542480469e+01 -3.608501640398921462e-14 -3.834048218341080949e-14 -2.232764957622000723e-14 -5.742879316626009478e-14
3.924000000000000000e+03 5.082843399047851562e+01 2.654120254516601562e+01 6.210124967297994333e-15 -4.880833557414573920e-14 -1.277946305499938137e-14 5.215622313377299424e-15
3.925000000000000000e+03 4.551357269287109375e+01 -2.811341285705566406e+01 -5.457850358182685102e-14 3.883677505023969134e-13 1.001367771254896288e-13 -7.675952328454766632e-15
3.926000000000000000e+03 7.582823181152343750e+01 2.815554046630859375e+01 5.057771625019240325e-14 -1.613276298575300194e-13 -3.322497577626717935e-14 -9.397676050976883078e-14
3.927000000000000000e+03 2.482056236267089844e+01 -2.591117286682128906e+01 -1.554105829486632229e-13 -8.948001167059446703e-14 -7.346717906340366477e-14 -2.199564993034600069e-14
3.928000000000000000e+03 4.013441085815429688e+01 1.444689559936523438e+01 3.249221434986106216e-14 1.054271348498690697e-13 4.137580442110586065e-14 6.387509336562569029e-14
3.929000000000000000e+03 4.184852600097656250e+01 1.653028106689453125e+01 -4.651747398192428162e-14 -9.714078770973327837e-14 -4.309747681343137349e-14 -8.792538095173108026e-14
3.930000000000000000e+03 2.483661842346191406e+01 -2.378147125244140625e+01 -1.003363109828084299e-13 -2.260050734883764512e-13 -9.790241263085003309e-14 8.899723677197740601e-14
3.931000000000000000e+03 2.287676811218261719e+01 -2.599767494201660156e+01 -3.935328625470635444e-14 -2.913713920745658603e-13 -9.921740078827623321e-14 8.721426629932499397e-14
3.932000000000000000e+03 3.600699615478515625e+01 -1.372358322143554688e+01 -1.882897829352022517e-14 -8.069561762780261965e-15 -8.069561762780261965e-15 -3.752600918264896446e-14
3.933000000000000000e+03 4.508191299438476562e+01 -2.747398567199707031e+01 -2.598219694407120917e-14 2.176195150731946582e-13 5.749119577755021360e-14 -1.148584536942581780e-13
3.934000000000000000e+03 3.956215667724609375e+01 1.505786514282226562e+01 -8.532546414211084063e-14 6.637157728799081280e-14 -5.686166056236008348e-15 -2.110848252917171819e-13
3.935000000000000000e+03 4.016099929809570312e+01 1.567456340789794922e+01 -6.324429098914646774e-14 1.864625295800673849e-14 -1.337941140934191878e-14 9.424695046741579652e-14
3.936000000000000000e+03 1.701062011718750000e+01 -6.722256660461425781e+00 1.409998420104363603e-13 1.467755631661196714e-14 4.670322153099357165e-14 1.868230776243956504e-13
3.937000000000000000e+03 4.619366073608398438e+01 2.206611633300781250e+01 4.543097465608582353e-14 1.567232671764728913e-13 6.064627153332807774e-14 2.995619431764989793e-14
3.938000000000000000e+03 7.402743530273437500e+01 2.919914436340332031e+01 1.012963720065443440e-13 -4.598477089563790532e-13 -1.075653983744449815e-13 1.678444912895336871e-14
3.939000000000000000e+03 7.563162231445312500e+01 2.664355850219726562e+01 7.176740077869878109e-14 -1.979972853423730972e-13 -3.786896604672865263e-14 -2.188893055525553688e-14
3.940000000000000000e+03 1.767165946960449219e+01 -1.106280899047851562e+01 -4.738073269231618534e-14 -1.118079289092258066e-13 -4.775659848046259759e-14 1.219663476118015843e-13
3.941000000000000000e+03 2.341307830810546875e+01 -2.258252143859863281e+01 -8.476239052009407193e-14 -2.650814951658114760e-13 -1.049531623176398754e-13 -3.113659910415275678e-14
3.942000000000000000e+03 9.253006935119628906e+00 -5.937858104705810547e+00 1.206944954542472567e-14 -4.057832628939772590e-14 -8.552663616114963147e-15 1.211824541945015141e-14
3.943000000000000000e+03 1.651509475708007812e+01 -5.789586067199707031e+00 1.178379767895199048e-13 2.335057874055385119e-13 1.054031265480120938e-13 3.374624662827105381e-14
3.944000000000000000e+03 2.741544723510742188e+01 -3.247550201416015625e+01 -2.327879981335080617e-14 -2.387313708263755219e-13 -7.860305153073107731e-14 -3.367111141771780836e-14
3.945000000000000000e+03 1.653320884704589844e+01 -4.944167137145996094e+00 -4.788283688278958949e-14 -2.052121459686275656e-14 -2.052121459686275656e-14 2.335664722340115990e-14
3.946000000000000000e+03 1.396230602264404297e+01 -5.655746459960937500e+00 1.644233658731550363e-13 2.471621133670956483e-14 5.674187316295938033e-14 -1.243555768342535783e-13
3.947000000000000000e+03 4.042401504516601562e+01 -2.027412033081054688e+01 8.567146693666885526e-14 1.167805002005861681e-13 6.073558946355014920e-14 8.564161071934403568e-14
3.948000000000000000e+03 1.681734848022460938e+01 -8.210535049438476562e+00 -1.478083470505750507e-13 -1.090973828204305773e-13 -7.707171760604897282e-14 2.332763160157319549e-13
3.949000000000000000e+03 1.742602348327636719e+01 -1.029900932312011719e+01 -9.387252124714792756e-14 5.519867230668624308e-15 -2.650579713668003295e-14 1.340589016749285656e-13
3.950000000000000000e+03 1.544866371154785156e+01 -4.968577384948730469e+00 3.549911016184625900e-14 1.067158039995581842e-13 4.266447357079497515e-14 5.324243446840938587e-14
3.951000000000000000e+03 1.489520740509033203e+01 -5.361053466796875000e+00 7.582458017582963117e-14 3.249624622668999263e-14 3.249624622668999263e-14 -3.500696369070077640e-14
3.952000000000000000e+03 1.813260459899902344e+01 -1.266362953186035156e+01 -4.850737460359091924e-14 -2.495436312015958391e-13 -8.941529835342423849e-14 1.356533158372585923e-13
3.953000000000000000e+03 3.150446128845214844e+01 -7.391822338104248047e+00 -5.857365645029616319e-14 6.925833333486924870e-14 3.205403912404872907e-15 -8.515289981383261653e-14
3.954000000000000000e+03 3.452191162109375000e+01 1.149483394622802734e+01 -1.023485360048329018e-13 -1.353655550281537834e-13 -7.131422459939057434e-14 -3.705952103354170912e-14
3.955000000000000000e+03 4.072113037109375000e+01 1.856139945983886719e+01 2.712839515203215035e-14 -1.256263973056781502e-13 -2.954939827440154765e-14 -7.261132342097076364e-14
3.956000000000000000e+03 4.070808410644531250e+01 1.744810485839843750e+01 -1.105878287706828222e-13 -3.219004652676299427e-13 -1.297464875338674717e-13 -1.075759422405724031e-13
3.957000000000000000e+03 1.698880958557128906e+01 -8.870372772216796875e+00 -5.784950426676593871e-14 1.124602052649838202e-13 1.638321131590490115e-14 1.777614107344518968e-13
3.958000000000000000e+03 1.719241714477539062e+01 -9.566699981689453125e+00 -1.574619070115329533e-13 -6.748367056136350683e-14 -6.748367056136350683e-14 1.269066096784218778e-13
3.959000000000000000e+03 1.108984088897705078e+01 -4.877516746520996094e+00 5.562367108797108828e-14 -1.591650802042904322e-13 -3.106242273489580319e-14 1.393251968873424063e-14
3.960000000000000000e+03 8.694606781005859375e+00 -4.605982780456542969e+00 1.456030832198713237e-14 -3.951081744223670922e-14 -7.485152227855104701e-15 -3.208464242443302694e-14
3.961000000000000000e+03 5.366856765747070312e+01 2.849902153015136719e+01 -2.754101878195761022e-14 -2.405580346465790997e-13 -8.042971535093465518e-14 9.962602303455886377e-14
3.962000000000000000e+03 2.833076858520507812e+01 -3.374747848510742188e+01 2.891112167919575315e-14 -3.050067251715582461e-13 -8.282868206414828460e-14 2.288288475534288463e-14
3.963000000000000000e+03 3.101038360595703125e+01 -3.732887268066406250e+01 5.251544641857175399e-14 -1.547783033467239888e-13 -3.067885911132474386e-14 2.931033847163207195e-14
3.964000000000000000e+03 2.979430007934570312e+01 -3.464286804199218750e+01 1.064271571939905472e-14 -1.555671552948972858e-13 -4.347733382082524800e-14 2.223380001973012526e-14
3.965000000000000000e+03 3.158003997802734375e+01 -6.319589614868164062e+00 -1.569789084962178172e-13 -1.130276292482176870e-13 -8.100196403383608246e-14 -6.657750793812727830e-14
3.966000000000000000e+03 3.206602478027343750e+01 -6.970529556274414062e+00 -4.689102228792700611e-14 7.140574481527550699e-14 7.354417774644086969e-15 -1.002427409471911418e-14
3.967000000000000000e+03 3.264111709594726562e+01 -6.538751125335693359e+00 -3.752485382970890959e-14 -1.533349320995483489e-13 -5.725793645640353535e-14 -2.752804223720567434e-14
3.968000000000000000e+03 4.852914047241210938e+01 -3.180307006835937500e+01 7.630096505789260575e-14 4.673344502180432070e-13 1.630906239051543860e-13 2.809135133438177973e-14
3.969000000000000000e+03 4.835877609252929688e+01 -3.061436080932617188e+01 1.629662760803656657e-14 3.272409199086417919e-13 1.030612634079705603e-13 -5.165544878502677933e-15
3.970000000000000000e+03 2.966257476806640625e+01 -3.913778686523437500e+01 1.166922325912186920e-13 -1.901815158264139050e-13 -2.204678530937174280e-14 1.518701444713343313e-14
3.971000000000000000e+03 3.217993927001953125e+01 -3.588169097900390625e+01 6.414141322973665113e-15 -1.630982675304704088e-13 -4.700523959866656498e-14 5.721551027014146196e-14
3.972000000000000000e+03 7.834154510498046875e+01 -4.102994537353515625e+01 -9.230793111489072472e-15 1.332967888628341924e-13 3.721979999595295685e-14 -9.007945349923454637e-14
3.973000000000000000e+03 5.103214263916015625e+01 -3.193334770202636719e+01 4.257684970646741229e-14 4.071302756730732497e-13 1.349121416796203454e-13 6.458385665457019864e-14
3.974000000000000000e+03 4.964096069335937500e+01 -3.559531402587890625e+01 8.543826182563080129e-14 3.339975594273542070e-13 1.258307423101373557e-13 2.996258772233577339e-14
3.975000000000000000e+03 6.851613044738769531e+00 -4.144317245483398438e+01 1.633842021365409375e-14 1.328172868995253220e-13 4.474671433623948757e-14 1.798731553515151710e-14
3.976000000000000000e+03 3.879379034042358398e+00 -3.697143173217773438e+01 3.128104871484571614e-14 2.650363923554360790e-13 8.889522690007367611e-14 -3.508565982776427894e-14
3.977000000000000000e+03 4.966172790527343750e+01 -3.179676628112792969e+01 8.227991313454474653e-14 3.783949336592234980e-13 1.382024513276250421e-13 -3.517121142598638416e-15
3.978000000000000000e+03 4.933105850219726562e+01 -3.325946426391601562e+01 1.047632439783383052e-13 4.337815913760256770e-13 1.615634573825727727e-13 4.013464026723055633e-14
3.979000000000000000e+03 4.602088451385498047e+00 -3.811426162719726562e+01 4.769255262525480543e-14 8.906609038619381358e-14 4.102759256462140680e-14 3.105677471920351151e-14
3.980000000000000000e+03 5.770433902740478516e+00 -3.706360244750976562e+01 1.373426485116579360e-14 1.088257495186414903e-13 3.676800278628288010e-14 -3.355639605160526395e-14
3.981000000000000000e+03 4.865255355834960938e+01 -3.864788436889648438e+01 6.676487162605992953e-14 3.145569471129511241e-13 1.143965429111978849e-13 -2.984572893935020198e-15
3.982000000000000000e+03 5.107637023925781250e+01 -3.689237594604492188e+01 9.709719600613578305e-14 3.733074504901068291e-13 1.411213946264991415e-13 -4.481172919713893865e-14
3.983000000000000000e+03 6.139129257202148438e+01 2.933761024475097656e+01 -2.647198866362332481e-14 -3.316017707817586757e-13 -1.074221278336146002e-13 1.791888035521105316e-13
3.984000000000000000e+03 5.730087280273437500e+01 3.012693023681640625e+01 -2.061480157313898970e-14 -1.918387052945308424e-13 -6.373605121326800238e-14 -1.129323143247290551e-13
3.985000000000000000e+03 5.781132888793945312e+01 3.013537406921386719e+01 -9.303044852483274840e-14 -1.771230460478195878e-13 -8.104604362841119625e-14 2.194788811414258300e-13
3.986000000000000000e+03 6.319566726684570312e+01 3.013866043090820312e+01 2.352690592799695779e-14 1.008295992543668113e-14 1.008295992543668113e-14 2.085269755263893798e-13
3.987000000000000000e+03 6.096937942504882812e+01 2.987308311462402344e+01 -4.456602865606298924e-14 -3.851073106242441924e-13 -1.289020024617185123e-13 1.065562094397683179e-13
3.988000000000000000e+03 6.871066284179687500e+01 2.915640640258789062e+01 4.183041716829261070e-14 -2.782362624261132400e-14 4.202037277704386009e-15 -8.726617247833273749e-14
3.989000000000000000e+03 7.282190704345703125e+01 2.933380508422851562e+01 1.786087553898307867e-14 -3.583529415047970179e-13 -1.021476130134806037e-13 3.585303440852699586e-14
3.990000000000000000e+03 7.048649597167968750e+01 2.943023109436035156e+01 -5.514711679931866284e-14 6.786741714405117309e-14 3.816090526936226704e-15 -1.206134123783383916e-13
3.991000000000000000e+03 6.731620788574218750e+01 2.989355659484863281e+01 2.099656847042233321e-13 8.998529731681775834e-14 8.998529731681775834e-14 -2.122864126781649763e-14
3.992000000000000000e+03 6.769560241699218750e+01 2.934933853149414062e+01 1.741324234328170406e-13 1.661300762755002491e-13 1.020787526230006181e-13 -9.313178077037867486e-14
3.993000000000000000e+03 6.526750946044921875e+01 3.003614616394042969e+01 7.428209929756166008e-14 2.148389837341654895e-13 8.673632287663907148e-14 1.193359511686073460e-13
3.994000000000000000e+03 6.566560363769531250e+01 2.956131744384765625e+01 6.413902883199013027e-14 -4.757723078355202695e-13 -1.234899769247954637e-13 1.812482455787467472e-13
3.995000000000000000e+03 6.422772216796875000e+01 3.008855438232421875e+01 -7.129744826483725567e-15 -3.690632055606407613e-13 -1.128578838455879252e-13 7.949486202770902898e-14
3.996000000000000000e+03 6.802328491210937500e+01 2.875692558288574219e+01 7.530696172989431725e-14 1.237763147185488855e-13 5.972498428978567642e-14 -3.436072159765900247e-14
3.997000000000000000e+03 6.515410614013671875e+01 2.959212684631347656e+01 -1.795774053276518595e-14 -5.344712167417928206e-14 -2.142145984792946656e-14 5.625657834132423776e-15
3.998000000000000000e+03 1.019273567199707031e+01 -4.652705192565917969e+00 7.137662043441711512e-14 -6.091192139437776043e-14 3.139409457901922232e-15 -1.692843117745944370e-14
3.999000000000000000e+03 6.923333740234375000e+01 2.901550102233886719e+01 4.735719534077788284e-14 -4.833048363101812017e-14 -2.919860212039502093e-16 -3.140881516460955480e-14
4.000000000000000000e+03 7.283004760742187500e+01 2.991523361206054688e+01 -5.864284887769147248e-14 2.493730319897552450e-13 5.721905425599277395e-14 1.171264149037176683e-13
4.001000000000000000e+03 6.256844329833984375e+01 2.971027755737304688e+01 7.502289398443953705e-14 1.236545723671059194e-13 5.960324193834271034e-14 1.502610021001174467e-14
4.002000000000000000e+03 6.412015533447265625e+01 2.964502525329589844e+01 1.985358627715552715e-13 2.223396434412189260e-13 1.262626477980741124e-13 8.262777262532314260e-14
4.003000000000000000e+03 6.718417358398437500e+01 2.941845130920410156e+01 1.530506136323411814e-13 -2.590877612820320641e-14 3.814255430056000262e-14 1.467336858572074187e-14
4.004000000000000000e+03 6.617090606689453125e+01 2.952484893798828125e+01 5.713954835543169630e-14 2.989940651836053842e-13 1.068400874498429132e-13 -2.661654804978624833e-13
4.005000000000000000e+03 6.667547607421875000e+01 2.947697639465332031e+01 -9.939918083502058410e-14 -4.259964844527570904e-14 -4.259964844527570904e-14 -3.958039611665596647e-14
4.006000000000000000e+03 6.309212875366210938e+01 2.968449401855468750e+01 4.589964815019699496e-14 6.542222953697177101e-14 3.339656093445837748e-14 3.577070822706474029e-13
4.007000000000000000e+03 6.360706329345703125e+01 2.966490554809570312e+01 -5.829493517680445214e-14 -2.079873410000890321e-13 -7.988468014256261407e-14 7.180592383713990667e-14
4.008000000000000000e+03 6.820371246337890625e+01 2.926501655578613281e+01 1.095527206278201771e-13 -9.030168106327618460e-14 5.775310768220366306e-15 -5.605290333992631047e-14
4.009000000000000000e+03 5.463253021240234375e+01 3.116567611694335938e+01 -9.811478073138563127e-14 -2.708039413372442805e-13 -1.106756152653362579e-13 1.020155639651354473e-13
4.010000000000000000e+03 5.629223632812500000e+01 3.005398750305175781e+01 -1.637359410382177582e-13 -1.159234925933450011e-13 -8.389783415522697463e-14 6.164473703089250189e-15
4.011000000000000000e+03 1.598854541778564453e+01 -7.307835578918457031e+00 -2.005120787289260686e-14 -5.434432268883356010e-14 -2.231865916851785009e-14 3.107039907475350748e-13
4.012000000000000000e+03 6.043359375000000000e+01 2.994190788269042969e+01 -1.013656525253661678e-13 -7.754576061141937871e-13 -2.630469897891424269e-13 3.162001774780973107e-14
4.013000000000000000e+03 5.498938369750976562e+01 3.082024002075195312e+01 -3.268968212441492049e-13 -2.316005189278297349e-13 -1.675492020515936820e-13 1.766257767214091112e-13
4.014000000000000000e+03 1.272891807556152344e+01 -4.852660655975341797e+00 3.017754435555818071e-14 -1.700705548612901907e-13 -4.196790416815913971e-14 -2.010171136533969727e-14
4.015000000000000000e+03 1.313720703125000000e+01 -5.465605258941650391e+00 -6.854099129623494879e-15 -9.443936924797766141e-14 -3.038803881921445238e-14 1.041595398799076422e-14
4.016000000000000000e+03 1.192336940765380859e+01 -5.377748489379882812e+00 9.556876232226507728e-15 -8.740609554495556988e-14 -2.335476511619236084e-14 -1.565741893777561344e-13
4.017000000000000000e+03 6.150650405883789062e+01 2.980305862426757812e+01 -2.435099444677603364e-14 -4.679456149826732858e-13 -1.476889899439115528e-13 1.362038737004467315e-13
4.018000000000000000e+03 3.663017654418945312e+01 1.276440048217773438e+01 3.681837752972198785e-14 3.865477884068720116e-14 2.264194623349639890e-14 2.015543697111814303e-14
4.019000000000000000e+03 9.093791961669921875e+00 -4.879050254821777344e+00 -1.020434906414064216e-14 -5.012424191528676298e-14 -1.809857670090515847e-14 1.129273540997899339e-13
4.020000000000000000e+03 8.145563125610351562e+00 -5.097556591033935547e+00 -4.841754167733691716e-14 -2.952560613535271106e-13 -1.031020836197646395e-13 -2.525041468775211795e-14
4.021000000000000000e+03 5.940820312500000000e+01 3.050353813171386719e+01 -9.964326862536496132e-14 -4.087118555921864793e-13 -1.525065338771336432e-13 -2.171289508595946466e-14
4.022000000000000000e+03 2.113630867004394531e+01 -1.932988166809082031e+01 1.018919242598906316e-13 -2.495845598336071669e-14 2.308004014414579558e-14 1.092667080947185010e-13
4.023000000000000000e+03 2.106178474426269531e+01 -1.768006896972656250e+01 -1.352764302214436859e-14 -1.888013535658941700e-13 -6.069869948463132991e-14 5.406668900564612357e-14
4.024000000000000000e+03 5.885420989990234375e+01 3.008945846557617188e+01 -5.781855368287326657e-15 -1.854817298016508964e-13 -5.737907572038805637e-14 6.411422093103094633e-14
4.025000000000000000e+03 1.232101249694824219e+01 -5.355195999145507812e+00 -2.635527429975526026e-14 8.020678305548090137e-14 1.615545262671769233e-14 -1.175771177468198925e-13
4.026000000000000000e+03 1.272534465789794922e+01 -5.383314132690429688e+00 8.026547905059383536e-14 -1.028533540888693087e-13 -6.776363951438652347e-15 -3.450964015418167552e-14
4.027000000000000000e+03 3.461053085327148438e+01 -1.094316577911376953e+01 -4.626482099441726892e-14 2.592316891204295148e-14 -6.102495455305705779e-15 2.682537589141550244e-14
4.028000000000000000e+03 3.439821243286132812e+01 -9.209875106811523438e+00 -3.502863418162333042e-14 -1.501227324418076547e-14 -1.501227324418076547e-14 3.397444746865672938e-14
4.029000000000000000e+03 1.562834739685058594e+01 -5.598135948181152344e+00 -2.369742043654282648e-13 -1.005847389699745381e-14 -7.410979924356297932e-14 1.383576955261978103e-13
4.030000000000000000e+03 1.448834037780761719e+01 -5.235328674316406250e+00 1.463143842195258060e-13 -1.202976249430748323e-13 7.805024903023271426e-15 2.683566903579053670e-14
4.031000000000000000e+03 5.990433120727539062e+01 3.000271797180175781e+01 -7.331274801646026074e-14 -1.686725981326145374e-13 -7.259560248946972383e-14 1.005562481697606925e-13
4.032000000000000000e+03 2.180910110473632812e+01 -2.065559387207031250e+01 -1.024295733409626152e-13 -4.389839051077357168e-14 -4.389839051077357168e-14 1.027130922090675746e-13
4.033000000000000000e+03 2.212548828125000000e+01 -1.967557907104492188e+01 -7.265060033873494555e-15 3.119961496729668771e-14 7.180366056510484318e-15 9.507334291581140406e-14
4.034000000000000000e+03 2.079921531677246094e+01 -1.867713928222656250e+01 -4.820368618694594043e-14 -2.494134727307889543e-13 -8.928514665888093171e-14 8.566974576572003452e-14
4.035000000000000000e+03 3.517842483520507812e+01 1.100637626647949219e+01 -1.505815600249399422e-13 2.696694050789011365e-14 -3.708438653274130636e-14 -6.726087379118131371e-14
4.036000000000000000e+03 4.895528030395507812e+01 2.370509529113769531e+01 -1.389626667859175657e-14 -5.170649268449421798e-14 -1.968082747011261346e-14 7.839517778701361045e-15
4.037000000000000000e+03 3.622134017944335938e+01 -1.237362957000732422e+01 -7.726800563311389536e-14 1.498889310195747337e-13 2.178627863237778822e-14 -8.417728048892153536e-14
4.038000000000000000e+03 3.559176635742187500e+01 -1.115676498413085938e+01 -5.576125973179128781e-14 -9.252410578149128373e-14 -4.448561134805066597e-14 -7.793222176529640555e-14
4.039000000000000000e+03 3.743975448608398438e+01 -1.463671779632568359e+01 -5.580024357615571973e-14 1.133384564585421250e-13 1.726146250946320598e-14 7.733997632857619875e-14
4.040000000000000000e+03 3.879759216308593750e+01 -1.612624931335449219e+01 -1.285322759683737992e-13 3.109223219600193433e-13 5.471701718562545225e-14 -1.155657465340062529e-13
4.041000000000000000e+03 2.950382041931152344e+01 -3.791675806045532227e+00 -1.404318962549069849e-13 -1.443414784669128786e-14 -4.645981136700699787e-14 -5.255517226379798068e-14
4.042000000000000000e+03 2.789817428588867188e+01 3.518541455268859863e-01 -1.351743559750359647e-13 1.050558836972192989e-13 -9.035542699784536447e-15 -4.042136430800792601e-14
4.043000000000000000e+03 3.398205184936523438e+01 -8.537370681762695312e+00 -2.366530602938062694e-14 3.560867556763949726e-14 3.583010776774366371e-15 -1.527601389296733697e-14
4.044000000000000000e+03 3.339881515502929688e+01 -8.960541725158691406e+00 -4.983681991936085576e-14 1.616451520162695554e-13 3.354250132313850441e-14 1.045502795666078399e-13
4.045000000000000000e+03 4.612873840332031250e+01 -2.759213829040527344e+01 -5.722845970983908570e-14 3.872320487267183475e-13 9.900107534981106294e-14 1.340278099541710572e-16
4.046000000000000000e+03 4.494846725463867188e+01 -2.560440444946289062e+01 -1.334943576037153634e-13 1.257919278723623746e-13 -2.310728114724596750e-15 -6.500771194137625053e-14
4.047000000000000000e+03 2.415595245361328125e+01 -2.422952651977539062e+01 -4.004226624213479135e-14 -2.001647681154974934e-13 -7.206210725797107530e-14 3.187911496197945449e-14
4.048000000000000000e+03 4.344411087036132812e+01 1.832146453857421875e+01 4.367334402108347113e-14 -1.242545698493593975e-13 -2.417436605441688341e-14 6.389630307062493797e-14
4.049000000000000000e+03 4.451364135742187500e+01 1.945036506652832031e+01 7.725965050012217894e-14 1.510629457895235062e-13 6.849677617638827432e-14 -1.509317420800597095e-15
4.050000000000000000e+03 7.516540527343750000e+01 -2.891845321655273438e+01 -3.158137610475598989e-14 1.694689175232508282e-13 4.136626344198798821e-14 -1.335706989891854990e-13
4.051000000000000000e+03 4.208265686035156250e+01 -2.286533927917480469e+01 1.620520801966576774e-13 1.152018476273386494e-13 8.317617563669346681e-14 4.086464036622862450e-14
4.052000000000000000e+03 4.335949707031250000e+01 -2.484671211242675781e+01 6.189283298114328646e-14 1.180274004615802785e-13 5.397606664468528048e-14 -2.004802980527450873e-14
4.053000000000000000e+03 2.147413444519042969e+01 -1.998895645141601562e+01 2.602716761730683448e-14 -4.603418747540707900e-14 -6.002105533913599730e-15 9.885143512121732923e-14
4.054000000000000000e+03 5.058380126953125000e+01 2.439788436889648438e+01 -1.392479051309054514e-14 1.312850788368416510e-13 3.520808658182862649e-14 -1.290235550777812934e-13
4.055000000000000000e+03 2.446236991882324219e+01 -2.302545928955078125e+01 -6.223411949625098916e-14 -4.384302979259374622e-13 -1.501993245490301776e-13 -1.172386010294497113e-14
4.056000000000000000e+03 2.380214691162109375e+01 -2.148161315917968750e+01 -5.719535766226038764e-14 -3.595003323351476932e-14 -2.794361862398526269e-14 3.455035194575850621e-14
4.057000000000000000e+03 3.853548812866210938e+01 -1.552044868469238281e+01 -5.183979872973309977e-14 1.150357885120953383e-13 1.895879625708231375e-14 1.361534735460192061e-14
4.058000000000000000e+03 5.373683452606201172e+00 -2.990949249267578125e+01 -1.300414108535742630e-14 1.316796471124634382e-13 3.560265146931862468e-14 -6.104350288053603246e-14
4.059000000000000000e+03 4.660003280639648438e+01 -2.806351852416992188e+01 6.434815110227184998e-14 3.020834721690485170e-13 1.099294876590224679e-13 -4.059362709255692758e-14
4.060000000000000000e+03 2.723147010803222656e+01 -3.474358749389648438e+01 2.692903408943458921e-14 -2.915590132605144769e-13 -7.938899646182939751e-14 -1.388281494835641103e-14
4.061000000000000000e+03 3.876582336425781250e+01 1.337772560119628906e+01 -2.011514191975136145e-14 -2.005851268502972795e-14 -1.205209638143432682e-14 -1.066822547185833359e-13
4.062000000000000000e+03 1.476336956024169922e+01 -5.906555652618408203e+00 -3.100027084535807165e-14 -5.903678018453692444e-14 -2.701111497015531993e-14 -3.070001799434715628e-14
4.063000000000000000e+03 4.675931167602539062e+01 2.259997367858886719e+01 2.623916132927974626e-14 1.828114076134548793e-13 6.271517322391922944e-14 1.432764594731003160e-15
4.064000000000000000e+03 3.029365921020507812e+01 1.893186688423156738e+00 6.720346528614820625e-14 2.880148512263494553e-14 2.880148512263494553e-14 -1.040986687041861591e-13
4.065000000000000000e+03 2.844812583923339844e+01 7.368600368499755859e-01 2.360451616882208031e-14 -1.728875696034234966e-13 -4.478491891029244554e-14 -7.616506709183512580e-14
4.066000000000000000e+03 3.058705329895019531e+01 -4.023830890655517578e+00 -1.846644039939226989e-13 1.664916272068380637e-14 -5.040457255137825721e-14 -1.084752066274861926e-13
4.067000000000000000e+03 3.002783393859863281e+01 9.418695569038391113e-01 3.646490051643740127e-14 8.425423851437727207e-14 3.621574069280486530e-14 -1.854862698982481795e-13
4.068000000000000000e+03 4.131754684448242188e+01 1.586893367767333984e+01 -4.938581553252940903e-14 -2.527795410055960756e-13 -9.064960154042678298e-14 3.693051452754309016e-14
4.069000000000000000e+03 1.904328346252441406e+01 -1.576304912567138672e+01 -2.594206858878844724e-13 -2.026821906923187422e-13 -1.386308602635555332e-13 2.619619473599732462e-13
4.070000000000000000e+03 1.974781799316406250e+01 -1.685823631286621094e+01 -5.154488218628988649e-14 8.084896955477122171e-14 8.791226210544400566e-15 1.422533965622641006e-13
4.071000000000000000e+03 4.846062183380126953e+00 -3.093180656433105469e+01 -1.609996392185953674e-15 9.081189982938428495e-14 2.676057109468697043e-14 -4.772157197402773776e-14
4.072000000000000000e+03 5.751779079437255859e+00 -3.073777770996093750e+01 4.279146413837912888e-14 2.013429977213918032e-13 7.324033686386538511e-14 -4.074547299494531150e-14
4.073000000000000000e+03 4.558163070678710938e+01 2.053596305847167969e+01 2.427622854258779106e-14 8.617910394635372451e-14 3.313659974668245467e-14 2.633964484781252391e-14
4.074000000000000000e+03 4.453421401977539062e+01 2.044173049926757812e+01 6.509034847571038007e-14 -3.501169352267824442e-14 9.023596147096461795e-15 6.858933146653475171e-15
4.075000000000000000e+03 4.852188110351562500e+00 -2.797248840332031250e+01 4.842015731507803844e-14 2.952571997658082203e-13 1.031032017032550152e-13 -3.008608173791366136e-14
4.076000000000000000e+03 7.520148468017578125e+01 -2.216835784912109375e+01 -7.147714630459725549e-14 1.511788808830800968e-14 -1.690777712607359484e-14 2.010817998655128891e-13
4.077000000000000000e+03 7.478910064697265625e+01 2.608612060546875000e+01 2.423339578051103560e-14 -3.536520780541251019e-14 -3.339543861580326553e-15 -1.308695312491822693e-13
4.078000000000000000e+03 3.655794906616210938e+01 -1.360089302062988281e+01 -6.167793733429308145e-14 1.108194414597800381e-13 1.474245089883290810e-14 1.871379536522079640e-15
4.079000000000000000e+03 7.438866424560546875e+01 -2.276865577697753906e+01 -6.666726632548192200e-14 2.001830640271581863e-13 4.005473795525016367e-14 1.410298473055598967e-13
4.080000000000000000e+03 7.579920196533203125e+01 -2.391746520996093750e+01 -6.201846490788004429e-14 3.394282467941711623e-13 8.322293185538190419e-14 -1.055922385119478779e-13
4.081000000000000000e+03 3.163320159912109375e+01 2.657320976257324219e+00 4.119867966743961940e-14 1.091584776128501355e-13 4.510714718408692647e-14 -1.202838691280114225e-13
4.082000000000000000e+03 2.641509819030761719e+01 -8.224037289619445801e-01 -1.023779382124979931e-13 -4.387625923392771132e-14 -4.387625923392771132e-14 -8.503143528919634986e-14
4.083000000000000000e+03 7.489630126953125000e+01 -2.456674766540527344e+01 -3.200273433843353610e-14 3.203549079656975440e-14 9.827306859727056996e-18 -4.927749272406979283e-15
4.084000000000000000e+03 7.638398742675781250e+01 2.725943183898925781e+01 2.178350883464026666e-14 -2.651699118529776689e-13 -7.301592056668804176e-14 -6.963707225877274754e-14
4.085000000000000000e+03 1.824688529968261719e+01 -1.442556667327880859e+01 -1.184439509362492093e-13 6.361567766706779925e-14 -1.644848367482031753e-14 8.449314246308445298e-14
4.086000000000000000e+03 7.598596191406250000e+01 -2.072795867919921875e+01 1.474330233635148812e-13 1.743462992519987514e-14 4.946029344551558515e-14 -2.965959726083933212e-14
4.087000000000000000e+03 7.511748504638671875e+01 -2.296158599853515625e+01 2.365485194874561437e-14 1.473906446110978541e-13 5.131364896795304054e-14 8.071022555801096732e-14
4.088000000000000000e+03 2.722189521789550781e+01 -2.338017463684082031e+00 -1.208530888210934684e-13 -6.323191753185297692e-14 -5.522550122825757579e-14 1.184521620736398925e-14
4.089000000000000000e+03 7.459158325195312500e+01 -1.664380455017089844e+01 6.349314249278620315e-14 5.075962978932924141e-13 1.713268334710763008e-13 9.334457577551968921e-14
4.090000000000000000e+03 7.535235595703125000e+01 -1.510089683532714844e+01 3.633299546369327809e-15 4.730807759423250047e-14 1.528241237985089596e-14 2.109651090430840481e-14
4.091000000000000000e+03 7.486571502685546875e+01 1.765411758422851562e+01 2.154865709155275033e-14 1.464879785398678913e-13 5.041099306111844480e-14 6.942635671951724249e-15
4.092000000000000000e+03 7.537097167968750000e+01 -8.721830368041992188e+00 2.655622778429365949e-14 1.943850354117759860e-13 6.628238133051314596e-14 1.743126178338841314e-13
4.093000000000000000e+03 7.551443481445312500e+01 1.683565330505371094e+01 -9.276909481489153952e-14 -1.312600879767658602e-13 -6.720875077173907308e-14 5.202140598175621078e-14
4.094000000000000000e+03 7.608089447021484375e+01 -6.373594760894775391e+00 8.692435063840237008e-14 2.888835004544176854e-13 1.127423621041095947e-13 2.966891597851184503e-13
4.095000000000000000e+03 7.537718200683593750e+01 -7.110210418701171875e+00 6.383099344225984240e-14 2.561108877058293487e-13 9.598256163392132612e-14 2.786499329887615062e-13
4.096000000000000000e+03 7.555905151367187500e+01 -2.723715400695800781e+01 5.737646008264693509e-14 2.304691810658954232e-13 8.635369437744178089e-14 -2.267755549859896969e-14
4.097000000000000000e+03 7.530950164794921875e+01 -1.748845481872558594e+01 1.238677349845460421e-14 2.798143119119023137e-13 8.766032740187626460e-14 -6.035116948966941577e-15
4.098000000000000000e+03 7.537788391113281250e+01 -1.490661025047302246e+00 3.435166918714510631e-13 1.472214413095543351e-13 1.472214413095543351e-13 -1.021937204049314443e-14
4.099000000000000000e+03 6.040340900421142578e+00 -6.705924987792968750e+00 -6.327651212246002133e-14 2.016362337514676639e-13 4.150791784395500839e-14 -4.622486136809760005e-14
4.100000000000000000e+03 7.553087615966796875e+01 1.762603569030761719e+01 1.074148314918069516e-14 2.791091739239720537e-13 8.695520296647316072e-14 3.161939771969234092e-14
4.101000000000000000e+03 7.609321594238281250e+01 8.073594570159912109e-01 4.237518539187967725e-13 -1.386486953892929197e-13 8.553094755885115585e-14 1.239341067922269946e-13
4.102000000000000000e+03 7.539195251464843750e+01 8.714997768402099609e-02 3.909597526361580089e-13 -1.527024627622289299e-13 7.147718696217872369e-14 1.298499610787040570e-13
4.103000000000000000e+03 7.540200042724609375e+01 5.701319694519042969e+00 7.481238935638789833e-14 -5.943944609513446276e-14 4.611883063079325398e-15 -6.876891092168213593e-14
4.104000000000000000e+03 7.606618499755859375e+01 -1.357334613800048828e+01 6.379310735259505205e-14 4.848494110538947854e-13 1.645927453575515842e-13 -5.458858666203096621e-14
4.105000000000000000e+03 7.532990264892578125e+01 -1.589423084259033203e+01 -1.064937085726563176e-14 4.529454610859018349e-13 1.326888360471401018e-13 1.230384202724824072e-13
4.106000000000000000e+03 7.611017608642578125e+01 8.012608528137207031e+00 -1.420787180397495297e-13 3.061102193664504145e-14 -3.344030849211816758e-14 -3.361764330995532790e-14
4.107000000000000000e+03 7.540386199951171875e+01 7.293524742126464844e+00 -7.039451114306417151e-15 -1.402697538200117777e-13 -4.419276156499875319e-14 -1.096502717182895603e-13
4.108000000000000000e+03 7.547054290771484375e+01 1.287525272369384766e+01 -1.257952685703063456e-14 -5.391225795870271953e-15 -5.391225795870271953e-15 -4.437156683203234697e-14
4.109000000000000000e+03 7.607822418212890625e+01 -5.572783946990966797e+00 -7.287565868688630766e-14 3.576506495475695324e-13 8.543249522532589402e-14 -7.572653441811905140e-14
4.110000000000000000e+03 7.537753295898437500e+01 -7.914329051971435547e+00 3.733096459995061123e-14 3.362556272919897671e-13 1.120759775675821135e-13 -8.723002788840750199e-14
4.111000000000000000e+03 7.600342559814453125e+01 -1.993813133239746094e+01 -1.129936954142847852e-14 2.696631167063007206e-13 7.750911864374751548e-14 -4.537295628733069297e-14
4.112000000000000000e+03 7.477789306640625000e+01 1.135182857513427734e+01 -5.035435705013323326e-14 1.842988245738877429e-13 4.018334127356588958e-14 4.325985302942002286e-14
4.113000000000000000e+03 7.611997985839843750e+01 9.607395172119140625e+00 -7.874839560821633722e-14 1.950054294473993477e-13 3.487711015175490314e-14 -4.645988251777456723e-14
4.114000000000000000e+03 7.609639739990234375e+01 2.403565168380737305e+00 4.203878456281173737e-13 2.487926314617694423e-13 2.007541404164606136e-13 -1.316935249002712527e-13
4.115000000000000000e+03 7.538502502441406250e+01 -7.002812623977661133e-01 2.621788691096332835e-13 6.156227871229047466e-13 2.633405104222885651e-13 2.282283011938255474e-14
4.116000000000000000e+03 7.469178771972656250e+01 4.950909137725830078e+00 1.654281908940874457e-13 2.271372211138083380e-15 5.030986749161164839e-14 -4.139807122322328170e-14
4.117000000000000000e+03 7.465092468261718750e+01 -2.214287757873535156e+00 2.698610649179422616e-13 1.385302191968945662e-13 1.225173933659673420e-13 6.727133634214579883e-14
4.118000000000000000e+03 7.540289306640625000e+01 6.500800609588623047e+00 1.353372709039790678e-13 2.410054848831638674e-13 1.129028240256374493e-13 -2.423823403270575216e-13
4.119000000000000000e+03 4.024779796600341797e+00 -2.286143302917480469e+01 -4.204610224984965672e-14 -2.010235511037961054e-13 -7.292089702253326533e-14 5.288710245297031237e-15
4.120000000000000000e+03 4.812674999237060547e+00 -2.147816658020019531e+01 7.695000913592389691e-14 -5.852332236443852365e-14 5.528007217291738135e-15 3.573416519284111637e-14
4.121000000000000000e+03 7.606427001953125000e+01 -1.278073215484619141e+01 -8.526644288634616098e-14 -3.654276317308080557e-14 -3.654276317308080557e-14 2.467400470138741975e-13
4.122000000000000000e+03 7.615361785888671875e+01 1.439400100708007812e+01 -1.052768983100804689e-13 4.638322942417984207e-14 -1.766810100458336696e-14 2.964863326637007246e-14
4.123000000000000000e+03 7.546111297607421875e+01 1.208207225799560547e+01 -8.935940942549850524e-15 1.791741126126733530e-13 5.107144836701514590e-14 9.977151618984284043e-14
4.124000000000000000e+03 7.464504241943359375e+01 -9.506728172302246094e+00 2.205191197628499945e-15 9.244697834944609616e-14 2.839565130881467614e-14 1.810011287985829886e-13
4.125000000000000000e+03 7.540146636962890625e+01 4.084724426269531250e+00 1.675833408674998193e-13 -4.255593815706559813e-14 3.750822149075662415e-14 -1.776387739162166302e-13
4.126000000000000000e+03 7.536815643310546875e+01 -5.500252246856689453e+00 8.137101967708657013e-14 4.466318265748669969e-13 1.584008531979597123e-13 3.534622410299864681e-13
4.127000000000000000e+03 7.624500274658203125e+01 2.071545982360839844e+01 -5.314613359857014996e-14 6.872498040490573890e-14 4.673654211307266132e-15 7.153679775287469234e-14
4.128000000000000000e+03 7.540232849121093750e+01 1.670059084892272949e+00 4.888167236434537433e-13 1.179909848211119217e-13 1.820423152498751307e-13 -1.475040962040530951e-14
4.129000000000000000e+03 7.536707305908203125e+01 -3.085914134979248047e+00 1.789721528529936156e-13 3.512080491881175437e-13 1.590540579018279166e-13 -4.161511494562772362e-14
4.130000000000000000e+03 7.536539459228515625e+01 -3.888418436050415039e+00 1.579802098600896487e-13 5.023398147105395672e-13 1.980960019501779024e-13 2.286305910217945048e-13
4.131000000000000000e+03 7.536905670166015625e+01 -1.431018829345703125e+01 -1.053256416680631649e-14 4.072445776871075340e-13 1.190136043102002494e-13 7.690631578837273108e-14
4.132000000000000000e+03 7.540366363525390625e+01 3.276614427566528320e+00 3.157129505743094811e-13 2.039319776415970953e-13 1.558934730437611105e-13 -1.275384691520192737e-13
4.133000000000000000e+03 7.540440368652343750e+01 2.470935583114624023e+00 3.549886350585201855e-13 1.292625132365970986e-13 1.452753526200514789e-13 -1.215226514252390477e-13
4.134000000000000000e+03 7.616117858886718750e+01 1.518780231475830078e+01 5.625039500080928137e-15 1.396635763853751322e-13 4.358658413036210766e-14 -1.173901877397562354e-13
4.135000000000000000e+03 7.624537658691406250e+01 2.310705947875976562e+01 1.794257965944887068e-13 7.689676803299128061e-14 7.689676803299128061e-14 1.310976744913275316e-13
4.136000000000000000e+03 7.541987609863281250e+01 8.885481834411621094e+00 -4.554469391145239687e-14 1.177336900930539554e-13 2.165669953210682536e-14 -5.453009734295716227e-14
4.137000000000000000e+03 7.535279083251953125e+01 -1.033721542358398438e+01 -6.446921498032406536e-15 1.802408320251275287e-13 5.213817116760111059e-14 1.797532663081607973e-13
4.138000000000000000e+03 7.535061645507812500e+01 -1.114092731475830078e+01 5.403334131851272176e-15 4.598252117612999790e-13 1.395685596174839338e-13 -7.071757459134464519e-14
4.139000000000000000e+03 3.790689706802368164e+00 -9.453846931457519531e+00 -1.130061552689388960e-13 4.307069024350740349e-14 -2.098063849118991103e-14 -1.114667779193896646e-13
4.140000000000000000e+03 4.511481285095214844e+00 -8.812524795532226562e+00 -1.088754127544049044e-13 4.484100604392783629e-14 -1.921032269076947824e-14 -3.013345459658769987e-14
4.141000000000000000e+03 3.608445739746093750e+01 1.265266799926757812e+01 -1.425398563287619269e-14 -6.108851167025428422e-15 -6.108851167025428422e-15 -2.610690255557684969e-13
4.142000000000000000e+03 7.535527038574218750e+01 -1.194262981414794922e+01 -7.261215690139086187e-14 1.976352431319258751e-13 3.750692722441321958e-14 9.389072229111852796e-14
4.143000000000000000e+03 7.549246215820312500e+01 1.525035190582275391e+01 -1.494736002723498491e-13 -1.098110589004691606e-13 -7.778540046235113414e-14 7.793584029004707592e-14
4.144000000000000000e+03 7.625330352783203125e+01 2.150256729125976562e+01 1.829306427473739727e-13 1.699007416960246486e-13 1.058494180435250176e-13 -7.059287778898165611e-14
4.145000000000000000e+03 7.556375122070312500e+01 1.918467521667480469e+01 9.087511559230376790e-14 2.219502793360250692e-13 9.384761847849865113e-14 8.367774111421241723e-14
4.146000000000000000e+03 7.544279479980468750e+01 1.048671627044677734e+01 -4.510449088876433699e-14 7.217140161322119218e-14 8.120073725556824912e-15 8.286694084830986684e-14
4.147000000000000000e+03 7.543240356445312500e+01 9.686723709106445312e+00 6.370479230938252968e-14 1.188039467150958650e-13 5.475262306259623402e-14 -6.940242380359257224e-14
4.148000000000000000e+03 4.979866027832031250e+00 -2.484364700317382812e+01 3.236372283989437382e-14 1.053720641557703841e-13 4.132073711513896408e-14 1.985512779241623525e-15
4.149000000000000000e+03 4.617655277252197266e+00 -2.361677360534667969e+01 3.499070743437707187e-14 1.522488596783153070e-13 5.617187081143407146e-14 7.478394599001909893e-15
4.150000000000000000e+03 7.358087921142578125e+01 -3.231494522094726562e+01 -2.615088186145100857e-14 5.741889982143616455e-14 9.380406235028494050e-15 -1.727640586471866635e-14
4.151000000000000000e+03 4.672688007354736328e+00 -6.413149356842041016e+00 -9.661495812640728126e-15 1.331122034429685352e-13 3.703521457608729972e-14 -9.370550667874011364e-14
4.152000000000000000e+03 7.531575012207031250e+01 -1.827940177917480469e+01 7.250150051716156008e-14 7.682302195647153220e-14 4.479735674208992768e-14 5.378756793260330848e-14
4.153000000000000000e+03 7.531809997558593750e+01 -1.984344291687011719e+01 1.239581896329833288e-13 1.446268370905792744e-13 8.057551343807964339e-14 4.775519918203373348e-14
4.154000000000000000e+03 4.005030155181884766e+00 -1.656544494628906250e+01 -6.461149025744142294e-14 1.806031114047999819e-14 -1.396535322686865907e-14 1.403032692196687359e-13
4.155000000000000000e+03 4.632615089416503906e+00 -1.511718368530273438e+01 -5.275414369123980485e-14 2.665559480752283756e-16 -1.574627642088755747e-14 4.136302438799768777e-14
4.156000000000000000e+03 7.491160583496093750e+01 -2.832256126403808594e+01 1.435150148677497017e-13 1.530083297476142468e-13 8.895700609511461576e-14 -7.272788193077653340e-14
4.157000000000000000e+03 7.364022827148437500e+01 -3.358873367309570312e+01 -8.338131346399130228e-14 3.289157683196430870e-14 -1.514692098960809807e-14 -6.655510561073829656e-14
4.158000000000000000e+03 4.008083820343017578e+00 -2.357896232604980469e+01 2.185918817915882828e-13 1.851841298578307815e-13 1.211327994290675725e-13 -4.694768540396652978e-14
4.159000000000000000e+03 4.725215911865234375e+00 -2.299436569213867188e+01 1.143042773063193684e-13 -8.826529866159602000e-14 7.811691899351110024e-15 6.465897153633271000e-14
4.160000000000000000e+03 4.062899112701416016e+00 -1.816074180603027344e+01 2.509181369760938099e-15 6.970178557594297608e-14 2.166329114250235832e-14 6.398802657441721164e-14
4.161000000000000000e+03 7.548814392089843750e+01 2.578588867187500000e+01 1.767634263516015131e-14 9.907747094538982280e-14 3.502614390475840278e-14 1.135435942858399605e-13
4.162000000000000000e+03 7.472834014892578125e+01 -2.540887451171875000e+01 -3.474668740666847500e-14 3.053652166198905782e-13 8.118555334295576853e-14 8.669608372944680869e-15
4.163000000000000000e+03 7.474584960937500000e+01 -2.711523437500000000e+01 5.991379809812402701e-14 2.544320819568984815e-13 9.430376266125403695e-14 -9.501811467358452917e-15
4.164000000000000000e+03 4.752988815307617188e+00 -1.668589782714843750e+01 -2.037832386560592401e-13 -6.446019662053464883e-14 -8.047302922772545108e-14 6.675094809847296334e-15
4.165000000000000000e+03 4.801381587982177734e+00 -1.748440361022949219e+01 1.842978352394053498e-14 -6.072794583823412640e-14 -1.268944801666171962e-14 9.752092932019743032e-14
4.166000000000000000e+03 7.557752990722656250e+01 1.996136093139648438e+01 -6.170059715969802849e-14 1.930783651178918231e-14 -1.271782785555947495e-14 1.124134287175046487e-13
4.167000000000000000e+03 7.561503601074218750e+01 2.229939079284667969e+01 9.894505597881145254e-14 -1.405987685217796601e-13 -1.249611444051682008e-14 9.101073573155454843e-14
4.168000000000000000e+03 3.778408765792846680e+00 -1.103866958618164062e+01 -3.546463592089300898e-14 -6.095007853458567215e-14 -2.892441670833585665e-14 4.205160796400680967e-14
4.169000000000000000e+03 4.549535751342773438e+00 -7.999481678009033203e+00 -1.495230865841064055e-16 -6.408132471245843106e-17 -6.408132471245843106e-17 -4.350000042249377308e-14
4.170000000000000000e+03 7.535179138183593750e+01 -2.794108963012695312e+01 -4.339947794044542173e-14 2.330304460680665546e-13 5.688928738896772974e-14 -1.532091375424857183e-13
4.171000000000000000e+03 4.690240859985351562e+00 -2.418923568725585938e+01 1.243954754742010449e-13 3.043686857455776829e-14 4.644970118174857054e-14 -1.466846426495613948e-14
4.172000000000000000e+03 6.409932613372802734e+00 -3.572291946411132812e+01 3.683628380622694376e-14 1.301643526036705412e-13 5.010018956771652987e-14 2.168351193653568661e-15
4.173000000000000000e+03 6.399028778076171875e+00 -3.296129226684570312e+01 2.040199470953671379e-14 1.002456106948164394e-13 3.619428026605323034e-14 -3.335898655291817672e-14
4.174000000000000000e+03 5.153491020202636719e+00 -1.061945152282714844e+01 9.230902039926089375e-14 -1.891937398846438301e-13 -2.906541381273580749e-14 -2.689789715829352112e-14
4.175000000000000000e+03 4.458717346191406250e+00 -1.041816520690917969e+01 3.637179465487520857e-14 1.528407527493294560e-13 5.676376727058000948e-14 3.365836526592752564e-14
4.176000000000000000e+03 7.556437683105468750e+01 2.392682647705078125e+01 1.144606057070646221e-13 1.405564439794712572e-13 7.650511355070804820e-14 8.301579503032854856e-14
4.177000000000000000e+03 3.039925765991210938e+01 3.729057908058166504e-01 1.427275080078966446e-14 9.761879211879140317e-14 3.356746169002819413e-14 -1.142291285432389669e-13
4.178000000000000000e+03 3.003538703918457031e+01 -4.414586067199707031e+00 3.984447727268733419e-14 2.915818899263539210e-13 9.942791219259144997e-14 -5.133421153978058593e-14
4.179000000000000000e+03 3.846781969070434570e+00 -1.341683864593505859e+01 1.075663470513459063e-13 1.833527091005954235e-13 8.727572023371418797e-14 1.331561034665588311e-14
4.180000000000000000e+03 4.477938652038574219e+00 -1.275610256195068359e+01 3.365445874997478881e-14 6.017429122259082552e-14 2.814862431414332650e-14 8.973250202777560691e-14
4.181000000000000000e+03 4.612004089355468750e+01 2.106789398193359375e+01 -1.321070260563300680e-13 1.063704585025672389e-13 -7.720967894436596424e-15 -2.301996179126294256e-14
4.182000000000000000e+03 5.580908775329589844e+00 -1.761985015869140625e+01 -6.083948313672857267e-14 -4.894953596645303107e-14 -3.293670674739401782e-14 7.790396474617600209e-14
4.183000000000000000e+03 4.450489044189453125e+00 -1.119575214385986328e+01 -9.367332281487623924e-15 -3.242712088430410589e-13 -1.000915658948969833e-13 -1.585143894942096787e-14
4.184000000000000000e+03 7.512195587158203125e+01 2.759671592712402344e+01 1.017045402431672463e-13 -1.394161343445596279e-13 -1.131347772219794615e-14 -1.401151736952696569e-13
4.185000000000000000e+03 4.565886020660400391e+00 -1.434244251251220703e+01 3.492746117827148777e-14 -5.365751110575009419e-14 -5.619015401760055553e-15 1.346071013983915488e-13
4.186000000000000000e+03 4.829467296600341797e+00 -2.067932510375976562e+01 -9.893342113424796747e-14 -4.240003666092576062e-14 -4.240003666092576062e-14 -6.197183150896895878e-15
4.187000000000000000e+03 4.852074146270751953e+00 -1.989139366149902344e+01 -2.307441415131013251e-15 9.051299206669360942e-14 2.646166502606218940e-14 7.011639803922858905e-14
4.188000000000000000e+03 1.952877807617187500e+01 -1.523516464233398438e+01 -2.736153059461029265e-16 -3.661248550428791715e-13 -1.099195401040899134e-13 2.161340632291994246e-13
4.189000000000000000e+03 3.909191894531250000e+01 -1.673143768310546875e+01 -2.592327563819430553e-14 -1.941137680282201128e-13 -6.601111394695727275e-14 5.953621791529237206e-14
4.190000000000000000e+03 3.942624282836914062e+01 1.388824272155761719e+01 -4.900393919858928027e-14 -4.387716386511537892e-14 -2.786433125792457666e-14 -2.094526402362031914e-13
4.191000000000000000e+03 7.526735687255859375e+01 2.899091911315917969e+01 5.556938644044745468e-14 -2.506902292091078843e-13 -5.853625825160899132e-14 5.091357497817410038e-14
4.192000000000000000e+03 7.464279174804687500e+01 2.910318183898925781e+01 2.081486567308277191e-14 8.920656233016646675e-15 8.920656233016646675e-15 1.420589042450473571e-13
4.193000000000000000e+03 5.718916416168212891e+00 -2.753108215332031250e+01 -3.198565137795331137e-14 1.692956620160876446e-13 4.119300115856122657e-14 -1.713818567313299401e-13
4.194000000000000000e+03 3.402623748779296875e+01 7.543673515319824219e+00 1.477931817726874097e-13 -2.816196000086489820e-14 3.588936873383241632e-14 -1.157691293090373774e-13
4.195000000000000000e+03 3.942360305786132812e+01 -1.733689308166503906e+01 -1.656354903494666742e-13 2.950209521124236289e-13 3.881564056176615984e-14 2.070353843875924471e-14
4.196000000000000000e+03 5.363462924957275391e+00 -6.598021030426025391e+00 1.442318385222202820e-14 -3.956958458811721258e-14 -7.543920220768555313e-15 3.347532144602587134e-14
4.197000000000000000e+03 5.443282604217529297e+00 -5.869367122650146484e+00 -6.703323876880440402e-14 2.457771670644898210e-13 5.362317916633198289e-14 2.113310357466273784e-15
4.198000000000000000e+03 2.391152572631835938e+01 -2.612929534912109375e+01 -2.169793648411095371e-14 -3.524312189740613777e-13 -1.122387501949900779e-13 -8.854818733718822221e-14
4.199000000000000000e+03 5.256590270996093750e+01 2.712602424621582031e+01 -7.698347032547223079e-14 -1.016193422812006197e-13 -5.358084445962821296e-14 -8.069192964635027443e-14
4.200000000000000000e+03 5.143790054321289062e+01 2.711421394348144531e+01 -9.490026359150124935e-14 1.709266002391032768e-13 2.280790031665425044e-14 -4.975200142815459914e-14
4.201000000000000000e+03 2.018817520141601562e+01 -1.900694465637207031e+01 5.578546793342381571e-14 -1.590957319228328282e-13 -3.099308122970177715e-14 1.846533180267090346e-13
4.202000000000000000e+03 4.018902587890625000e+01 -1.854217720031738281e+01 -7.873629997772954581e-14 1.950106200653001221e-13 3.488229399339209946e-14 -5.101461245625438234e-14
4.203000000000000000e+03 6.024038791656494141e+00 -6.041299343109130859e+00 -3.064074262869830034e-14 -1.046336479374083972e-13 -4.058231750864518816e-14 -5.598832215989585359e-14
4.204000000000000000e+03 5.066306686401367188e+01 2.548488616943359375e+01 6.917234847929462291e-15 2.088437929537168003e-13 6.472831304152673604e-14 -4.301342742814122377e-14
4.205000000000000000e+03 1.747079086303710938e+01 -1.360785007476806641e+01 -4.061772009770862890e-14 -6.315854414983002041e-14 -3.113287893544841589e-14 1.377932327701475446e-13
4.206000000000000000e+03 4.538312149047851562e+01 -2.627201271057128906e+01 -1.325105288354794936e-14 2.688266818352824661e-13 7.667268377272926094e-14 -6.674111404595534092e-14
4.207000000000000000e+03 5.188011550903320312e+01 2.659491729736328125e+01 -2.306814780156634520e-14 -7.851277137108092496e-14 -3.047427693764030721e-14 -2.541798660383922520e-14
4.208000000000000000e+03 6.544155120849609375e+00 -5.981128692626953125e+00 -3.754294645346226145e-14 2.126649144328432439e-13 5.253658836093522133e-14 -1.696155016569708684e-13
4.209000000000000000e+03 3.304042053222656250e+01 3.344232082366943359e+00 6.096957977413030791e-15 1.856167807347611221e-13 5.751411987723470398e-14 -4.902829986615231395e-14
4.210000000000000000e+03 3.165754318237304688e+01 4.308060646057128906e+00 9.824621991600876458e-14 1.107319463444604579e-13 6.269344852288805114e-14 -3.861459898580124617e-14
4.211000000000000000e+03 9.783404350280761719e+00 -4.631665706634521484e+00 2.080104040131768722e-14 1.004166300349988716e-13 3.636529960623566260e-14 3.290898230023920051e-16
4.212000000000000000e+03 5.318031692504882812e+01 2.777643585205078125e+01 4.054629489146435728e-14 -1.656268167320867901e-13 -3.752415587456037205e-14 6.370519210893363371e-14
4.213000000000000000e+03 4.881306457519531250e+01 2.264648437500000000e+01 -3.583504681685910354e-14 5.898741510437094382e-14 6.945710825066730987e-15 -5.737829136787889889e-15
4.214000000000000000e+03 1.738971519470214844e+01 -1.282971572875976562e+01 -1.145204672195129780e-13 -9.483115247926887648e-14 -6.280548726488727196e-14 1.071018206305444920e-13
4.215000000000000000e+03 4.059766006469726562e+01 1.373532962799072266e+01 -7.130572716486371920e-14 1.519135125582337514e-14 -1.683431395855822937e-14 -1.082121520753868971e-13
4.216000000000000000e+03 2.388954353332519531e+01 -2.744420623779296875e+01 -2.137041086626434439e-14 -1.235361232797618780e-13 -4.347196024380786672e-14 -1.097235976664674706e-14
4.217000000000000000e+03 4.600718307495117188e+01 -2.871457481384277344e+01 2.210910491143303069e-14 4.212338756883621249e-13 1.330028887589276843e-13 -8.013421604882373095e-14
4.218000000000000000e+03 4.235144805908203125e+01 1.817645072937011719e+01 1.785143484856616114e-13 3.289977611089373033e-14 6.342424144472474934e-14 1.159603825722638204e-13
4.219000000000000000e+03 4.072154235839843750e+01 1.632512855529785156e+01 -8.332425732466425261e-14 -7.002361066205456397e-14 -4.600436175126836058e-14 -6.414374511144044222e-14
4.220000000000000000e+03 2.896259307861328125e+01 -3.152129411697387695e+00 3.505161926768002312e-14 1.522749618456178955e-13 5.619797636686844899e-14 -4.529675720339569611e-14
4.221000000000000000e+03 2.803928947448730469e+01 -1.242470502853393555e+00 -1.219432270004733310e-13 2.679952613993119570e-13 4.381561167490430342e-14 -8.852880044709146579e-14
4.222000000000000000e+03 4.125702667236328125e+01 1.805327606201171875e+01 -8.197201327008601934e-14 1.062008554014726158e-14 -2.140557798016844843e-14 -2.082445239197979608e-14
4.223000000000000000e+03 4.722136306762695312e+01 2.211460304260253906e+01 -2.595646493016657078e-15 1.132649543275111859e-13 3.320079129155717457e-14 2.340220573750217969e-14
4.224000000000000000e+03 7.873364448547363281e+00 -6.160814762115478516e+00 3.845279536408494070e-14 1.647976968376010237e-14 1.647976968376010237e-14 -3.875811431915338404e-15
4.225000000000000000e+03 7.342160797119140625e+01 2.927445220947265625e+01 -1.779726404227063852e-13 -3.052304231847963178e-14 -6.254870753286123630e-14 -3.288404162686553445e-14
4.226000000000000000e+03 1.953750610351562500e+01 -1.785053062438964844e+01 1.070310696625262348e-13 9.162140582894343077e-14 5.959574061456182625e-14 7.185790455504700858e-14
4.227000000000000000e+03 1.957113647460937500e+01 -1.931061744689941406e+01 3.862178182519396263e-14 -1.207006499956420065e-13 -2.462366112876077096e-14 1.293954093178895093e-13
4.228000000000000000e+03 1.618669891357421875e+01 -8.463006973266601562e+00 4.091573678173879292e-14 1.753531503757409932e-14 1.753531503757409932e-14 1.648283560421598404e-13
4.229000000000000000e+03 1.666247558593750000e+01 -7.598594188690185547e+00 -2.663490528663232243e-14 8.008693805783978492e-14 1.603560932314247039e-14 3.169544704820226322e-13
4.230000000000000000e+03 2.270276832580566406e+01 -2.282005691528320312e+01 -6.909737674610019753e-14 -1.668660056051290974e-13 -7.078901673824786189e-14 1.000324158901243210e-13
4.231000000000000000e+03 4.126423645019531250e+01 -2.154949569702148438e+01 9.911947700331005806e-14 1.339816793751932855e-13 6.993034217016649845e-14 -1.063662707716760136e-13
4.232000000000000000e+03 4.084727859497070312e+01 -2.090719604492187500e+01 -3.052469233866088316e-14 3.529255880596604555e-13 9.672026634460761940e-14 -5.295774669483721553e-14
4.233000000000000000e+03 1.550361919403076172e+01 -8.644505500793457031e+00 -8.471337780563414910e-14 -2.650604887487195693e-13 -1.049321559005479687e-13 1.639924226146463604e-13
4.234000000000000000e+03 4.104859161376953125e+01 -1.975392341613769531e+01 4.151381996953147635e-14 3.837992207031404313e-13 1.275939125406147512e-13 -9.509588076847194649e-14
4.235000000000000000e+03 1.589537525177001953e+01 -5.816635131835937500e+00 1.578051349261557629e-14 -8.473882267536966828e-14 -2.068749224660645925e-14 -1.415012177525751258e-13
4.236000000000000000e+03 1.387065887451171875e+01 -6.185217380523681641e+00 7.386596217497098937e-14 -3.801017118242044912e-13 -9.187071811850647252e-14 7.952274635233264055e-14
4.237000000000000000e+03 1.723100090026855469e+01 -1.205960941314697266e+01 -1.203510490051240556e-13 -2.345828067386312998e-13 -1.064801594336320378e-13 9.067022171049474166e-14
4.238000000000000000e+03 1.436838340759277344e+01 -5.773621082305908203e+00 1.129191887021784024e-13 9.414488638540344234e-14 6.211922117102183782e-14 1.054529727428921149e-13
4.239000000000000000e+03 1.554739665985107422e+01 -6.008235931396484375e+00 -5.454038709920040751e-14 -2.337445185595244529e-14 -2.337445185595244529e-14 2.505472771526656706e-13
4.240000000000000000e+03 3.107574272155761719e+01 -5.676588058471679688e+00 1.080198891488873270e-13 4.629424014274130528e-14 4.629424014274130528e-14 -8.947570874322241519e-14
4.241000000000000000e+03 1.184258174896240234e+01 -7.100220680236816406e+00 4.724186926391036809e-15 -2.496055662506990735e-13 -7.346441434786382674e-14 -1.218356334873813007e-13
4.242000000000000000e+03 1.633698081970214844e+01 -9.136590003967285156e+00 -1.421758761069313870e-13 -2.896872737349898141e-13 -1.295589341105546355e-13 6.283105410736719576e-14
4.243000000000000000e+03 1.654369735717773438e+01 -9.837661743164062500e+00 -9.020089091881650090e-14 7.093424053705461169e-15 -2.493224031364319609e-14 9.653742920074509515e-14
4.244000000000000000e+03 5.446397781372070312e+01 2.976625251770019531e+01 -4.281042412387046914e-14 3.934112150633106708e-13 1.051802349101398082e-13 7.736399140669675267e-14
4.245000000000000000e+03 5.355398178100585938e+01 2.955509376525878906e+01 -1.396700815984100452e-13 1.860527384283175434e-13 1.391479975947768066e-14 1.155956027513310724e-13
4.246000000000000000e+03 1.678927421569824219e+01 -1.055868625640869141e+01 -7.234290206811766488e-14 -1.682569421247379071e-13 -7.217995325785667160e-14 4.660058146657708456e-14
4.247000000000000000e+03 3.348821258544921875e+01 9.499152183532714844e+00 1.691608821335205404e-14 1.902535475082484107e-13 6.215089342698557062e-14 -3.381854936064868089e-14
4.248000000000000000e+03 3.406539535522460938e+01 8.658467292785644531e+00 -2.817784017456002182e-14 -1.493290625702303753e-13 -5.325207031521735079e-14 -4.779974972692752067e-14
4.249000000000000000e+03 2.567602920532226562e+01 -3.118919372558593750e+01 -5.166536076457554916e-14 -2.165838309479278800e-13 -8.047475717493784986e-14 1.535109489341195815e-14
4.250000000000000000e+03 2.606839179992675781e+01 -3.300846099853515625e+01 2.426112086294056336e-14 -3.041401494801448946e-13 -8.396370621346904706e-14 -1.136937702627728326e-15
4.251000000000000000e+03 3.415273666381835938e+01 -7.433230400085449219e+00 2.091262005145949621e-14 1.004644501270690604e-13 3.641311969830585138e-14 2.359663029208314278e-14
4.252000000000000000e+03 3.588084793090820312e+01 1.074100112915039062e+01 7.727241698070319575e-14 1.246186449388800299e-13 6.056732128638039891e-14 6.195390744477211054e-14
4.253000000000000000e+03 3.811975479125976562e+01 1.289674472808837891e+01 -2.503412313060483785e-14 -1.479817516355369511e-13 -5.190476276865571559e-14 -6.348850752849882761e-14
4.254000000000000000e+03 4.126761627197265625e+01 1.696601867675781250e+01 -1.523515200715225282e-13 -1.081850199160204473e-13 -7.816096131863653484e-14 -4.776816895052209133e-14
4.255000000000000000e+03 3.111344146728515625e+01 -4.635533809661865234e+00 4.049331128654770628e-14 1.388802403157543552e-13 5.381206412543790285e-14 -7.907480822477025439e-14
4.256000000000000000e+03 2.702724266052246094e+01 -1.348694443702697754e+00 -1.251671157128861345e-13 1.293607419534242853e-13 1.258091472051471073e-15 -6.815539479359047914e-14
4.257000000000000000e+03 2.412412452697753906e+01 -2.224432182312011719e+01 -9.393736331332613876e-14 -1.317607725400196661e-13 -6.770943533499287903e-14 6.401757108361744164e-14
4.258000000000000000e+03 3.592604064941406250e+01 -1.321295547485351562e+01 -5.558345396363545410e-14 6.768041937435173572e-14 3.629089792621473937e-15 2.300892834009200805e-14
4.259000000000000000e+03 2.743731498718261719e+01 -2.855186080932617188e+01 -7.745623668278453500e-14 -2.619502650815647149e-13 -1.018219525621838484e-13 9.750106131538663345e-14
4.260000000000000000e+03 2.682689476013183594e+01 -2.969646263122558594e+01 -1.893700718154714413e-14 -2.368706088478472749e-13 -7.674228277593925229e-14 1.018958409402387355e-13
4.261000000000000000e+03 2.441277694702148438e+01 -3.377101516723632812e+01 -1.678866057676711709e-14 -2.130744040408638629e-13 -6.895892412867379861e-14 -1.992782566566375646e-14
4.262000000000000000e+03 7.387264251708984375e+01 -3.498031616210937500e+01 3.789484120920137700e-14 1.992444431013831729e-13 7.114178224385675486e-14 -2.252465249909241241e-14
4.263000000000000000e+03 5.298524856567382812e+00 -3.418679809570312500e+01 -1.340359081185424003e-14 2.230103444576456151e-13 6.288202516200117054e-14 -2.896940432223042705e-14
4.264000000000000000e+03 4.961691284179687500e+01 -3.031490707397460938e+01 3.579476192988768901e-14 4.728501119301287137e-13 1.525934597863126685e-13 2.571810731771036890e-14
4.265000000000000000e+03 5.225489044189453125e+01 -3.435364913940429688e+01 5.405409870791813565e-14 3.777359013686781841e-13 1.295369925690889601e-13 3.729022570331946840e-14
4.266000000000000000e+03 7.173212432861328125e+01 -4.131195068359375000e+01 4.685229594157853950e-14 1.802078722790839693e-13 6.811805080501193155e-14 -2.990428136237857637e-14
4.267000000000000000e+03 1.018860626220703125e+01 -3.653982162475585938e+01 6.723786837633388691e-14 2.881623027218074840e-14 2.881623027218074840e-14 -5.040248885032801163e-14
4.268000000000000000e+03 7.319258689880371094e+00 -3.814118194580078125e+01 4.318586300741146522e-14 7.569691537001946302e-14 3.566483385204245737e-14 5.831361055922551495e-14
4.269000000000000000e+03 7.164701080322265625e+01 2.939789390563964844e+01 7.293953174737285994e-15 4.887692830221439244e-14 1.685126478189868243e-14 -4.367689478319836116e-14
4.270000000000000000e+03 7.281100463867187500e+01 2.874474143981933594e+01 -6.098480688542309847e-14 1.111164993025139103e-13 1.503950704750088574e-14 1.350333148249227566e-14
4.271000000000000000e+03 5.572294235229492188e+01 2.935929489135742188e+01 -1.121545618962965785e-13 1.349375526680379744e-13 6.834899010291608026e-15 4.358594377345398341e-14
4.272000000000000000e+03 5.737869262695312500e+01 2.960066032409667969e+01 2.204361910021490623e-14 -1.278055759097382338e-13 -3.172858704285699827e-14 6.560293215780721443e-14
4.273000000000000000e+03 6.180987167358398438e+01 2.875979423522949219e+01 5.190184219905358276e-14 1.137455472692561198e-13 4.969421684049291077e-14 5.196238811412332015e-14
4.274000000000000000e+03 6.246340942382812500e+01 2.924529838562011719e+01 1.218279085469023415e-13 -2.680446739133229839e-13 -4.386503435331069733e-14 -1.409245983796658663e-14
4.275000000000000000e+03 9.539758682250976562e+00 -5.238525867462158203e+00 -1.653356432272374936e-15 -1.150859599676271050e-13 -3.502179354354130469e-14 -8.692388307621548571e-14
4.276000000000000000e+03 1.071545600891113281e+01 -4.927630901336669922e+00 1.921687770934168982e-13 -9.143852802749943831e-15 5.490747423788147619e-14 -2.638728265839246356e-13
4.277000000000000000e+03 6.980101776123046875e+01 2.883737373352050781e+01 -8.346596254860810804e-14 -1.289565141140720100e-14 -2.890848232453210875e-14 -6.303855685065376524e-14
4.278000000000000000e+03 6.552819824218750000e+01 2.911381149291992188e+01 1.367833933141673897e-13 3.788781083573916630e-13 1.546984518567204314e-13 4.371337141003892035e-14
4.279000000000000000e+03 6.463658905029296875e+01 2.962064552307128906e+01 -1.419924562044011518e-13 -2.438576955383214839e-13 -1.157550482333222219e-13 9.753820879232141805e-14
4.280000000000000000e+03 6.602606201171875000e+01 2.906810188293457031e+01 -6.998171302435157726e-14 -3.959997477501198127e-13 -1.397944395875941326e-13 6.775545971721488869e-14
4.281000000000000000e+03 6.752844238281250000e+01 2.885710906982421875e+01 8.297698059255356751e-14 -1.703177122990354175e-13 -2.620221883431819720e-14 -2.160437491882313821e-13
4.282000000000000000e+03 7.164951324462890625e+01 2.880234909057617188e+01 -4.855699379364107615e-14 2.536955563160747662e-13 6.154156502978513910e-14 -2.508784196011970558e-14
4.283000000000000000e+03 6.451934051513671875e+01 2.918740653991699219e+01 -7.919051292536519182e-14 -3.393879415784090137e-14 -3.393879415784090137e-14 -3.968136922023225710e-14
4.284000000000000000e+03 5.833143234252929688e+01 3.011933517456054688e+01 8.580844232863524268e-14 -1.919796922345354262e-13 -3.185137632702277066e-14 -1.228694338113733853e-13
4.285000000000000000e+03 6.299048614501953125e+01 2.923101806640625000e+01 5.294639645334400790e-14 -2.060634242450135045e-13 -4.593511172563263800e-14 2.715633707489617521e-13
4.286000000000000000e+03 6.350193023681640625e+01 2.922275161743164062e+01 -4.400856578028883304e-14 2.098939240729319478e-13 4.976560816541929222e-14 1.138534389379455836e-13
4.287000000000000000e+03 6.401012420654296875e+01 2.921084213256835938e+01 -1.644597679610962371e-13 -4.364903349787091491e-13 -1.802850268161834690e-13 1.896016980570958133e-13
4.288000000000000000e+03 6.851287841796875000e+01 2.862912178039550781e+01 2.458075721591644613e-14 3.341008635656013415e-14 1.739725205530343738e-14 -3.461823655428325486e-14
4.289000000000000000e+03 6.652483367919921875e+01 2.901019096374511719e+01 1.484484600132104926e-13 3.838774187848309483e-13 1.596977622841597166e-13 -2.629815039779243024e-13
4.290000000000000000e+03 6.087305831909179688e+01 2.943471908569335938e+01 1.795963415962206766e-13 -3.805396210816713864e-13 -6.028298249038249734e-14 1.501753501284910919e-13
4.291000000000000000e+03 5.474310302734375000e+01 3.033722114562988281e+01 -8.931215006923939881e-14 -2.212804321288092124e-13 -9.317777127128279435e-14 1.656455734296707893e-13
4.292000000000000000e+03 5.680185317993164062e+01 3.009416007995605469e+01 1.380215200078938401e-14 -1.313376355371528859e-13 -3.526064667027165034e-14 6.526747322937662132e-14
4.293000000000000000e+03 1.354971313476562500e+01 -5.560979843139648438e+00 9.596851443952406080e-14 4.112936526729990550e-14 4.112936526729990550e-14 4.253007654712002983e-14
4.294000000000000000e+03 5.394303512573242188e+01 3.013393211364746094e+01 -4.963313898873229768e-14 8.166828758399136134e-14 9.610545086797487452e-15 1.552459061911898308e-13
4.295000000000000000e+03 5.523793792724609375e+01 3.011611938476562500e+01 -4.771134320415669483e-14 1.625560715765375641e-13 3.445342088340651310e-14 1.738547321513891908e-13
4.296000000000000000e+03 5.576477050781250000e+01 3.003962707519531250e+01 4.853869110571680523e-14 2.080229570414551810e-14 2.080229570414551810e-14 7.738432697369443392e-14
4.297000000000000000e+03 6.192296981811523438e+01 2.927257919311523438e+01 -7.792085797127604185e-14 -4.451531916520312659e-13 -1.569222182751239814e-13 1.491579754674121627e-13
4.298000000000000000e+03 3.663575363159179688e+01 1.171771812438964844e+01 -3.539762883850161579e-14 -1.524232535977596004e-13 -5.634626811901015386e-14 -1.496393476794685706e-13
4.299000000000000000e+03 1.422606754302978516e+01 -6.285954475402832031e+00 1.103196784683728449e-13 -3.187277373452312990e-13 -6.252241563017846282e-14 -1.879190162853983104e-13
4.300000000000000000e+03 5.937894821166992188e+01 3.005253601074218750e+01 4.456290818668530440e-14 6.484933710903043047e-14 3.282367528278061497e-14 -7.850127205178900058e-14
4.301000000000000000e+03 3.770409011840820312e+01 -1.315987873077392578e+01 -1.502805312917493419e-13 2.709595717828409966e-14 -3.695536986234732035e-14 2.659650863462368475e-17
4.302000000000000000e+03 3.521153640747070312e+01 -1.052503204345703125e+01 -2.426459020401339857e-16 1.371488507614579411e-13 4.107186189457670555e-14 2.666251517258102360e-14
4.303000000000000000e+03 3.539906692504882812e+01 -9.464625358581542969e+00 -3.487958009982909668e-14 -1.494839171336474065e-14 -1.494839171336474065e-14 5.908550151966299180e-14
4.304000000000000000e+03 3.076705360412597656e+01 -1.974335759878158569e-01 -9.169160114334828915e-14 3.267111787271653744e-13 7.050587734090327241e-14 -1.541079275909490454e-13
4.305000000000000000e+03 2.049251174926757812e+01 -1.964436149597167969e+01 -3.302535382752186388e-14 -1.056556236814568117e-13 -4.160429325269360268e-14 1.079037507674233953e-13
4.306000000000000000e+03 2.046101570129394531e+01 -1.803948211669921875e+01 -1.456633580843979398e-14 -5.199366395866773793e-14 -1.996800043835202793e-14 1.624343156725674420e-13
4.307000000000000000e+03 1.235098266601562500e+01 -5.831839561462402344e+00 -1.171070906940590087e-14 -3.252755053154143816e-13 -1.010958691435338841e-13 -9.674439661920899991e-14
4.308000000000000000e+03 1.305275058746337891e+01 -6.014433860778808594e+00 5.740582163273055816e-14 7.035344529171538852e-14 3.832778007733378400e-14 -1.225823777336806919e-13
4.309000000000000000e+03 3.373504638671875000e+01 5.729232788085937500e+00 6.223698585574449771e-14 -1.907795515803615422e-14 1.294770836227955579e-14 -3.187313152124005011e-14
4.310000000000000000e+03 3.366170501708984375e+01 7.999782085418701172e+00 7.858285148900495676e-14 -7.498013576126213997e-14 1.080813405421776792e-15 -9.464504917636173964e-14
4.311000000000000000e+03 1.198684120178222656e+01 -5.915543556213378906e+00 -7.849387237196178702e-14 -1.708930712869191626e-13 -7.481608242003792708e-14 -2.023955818480221991e-13
4.312000000000000000e+03 3.593330001831054688e+01 -1.177146053314208984e+01 -1.032563655889093268e-13 3.103171203073379347e-13 6.211823183653944480e-14 5.696404312876060527e-14
4.313000000000000000e+03 3.582110595703125000e+01 -1.011275386810302734e+01 -7.476538919221065171e-14 -1.235442141384740511e-13 -5.949287693344726402e-14 -8.689740821441610530e-14
4.314000000000000000e+03 3.498103713989257812e+01 -8.800662994384765625e+00 5.759129474312493779e-16 -4.550412780954249392e-14 -1.347846513625973117e-14 -5.081473978575667960e-14
4.315000000000000000e+03 6.036487960815429688e+01 2.950768661499023438e+01 9.602441861404284462e-14 1.326552257797930512e-13 6.860388857476626412e-14 2.499719588223633937e-14
4.316000000000000000e+03 5.787004852294921875e+01 2.964470481872558594e+01 -8.027145571506966171e-14 -8.015299985146204231e-14 -4.812733802521222681e-14 7.651270974217902476e-14
4.317000000000000000e+03 5.886824798583984375e+01 2.961011123657226562e+01 -3.241022833683042392e-14 -4.713996120536689816e-13 -1.511429463573257803e-13 -8.154136816717477698e-14
4.318000000000000000e+03 3.897391510009765625e+01 -1.456907653808593750e+01 -1.000506372628856555e-13 1.401249450673491825e-13 1.202229268015223701e-14 2.767342527820650794e-14
4.319000000000000000e+03 4.836627960205078125e+01 2.316143417358398438e+01 -5.126092963731593288e-14 -1.592218110829657363e-13 -6.314482221608450074e-14 -3.073018591979656544e-14
4.320000000000000000e+03 5.003499221801757812e+01 2.374285316467285156e+01 2.978551040251457838e-14 -2.726686132198570534e-14 7.555951582630473801e-16 -5.027006371935427431e-14
4.321000000000000000e+03 7.398999023437500000e+01 2.857379531860351562e+01 5.811666692865941758e-15 -8.901118232242100081e-14 -2.495985528178958079e-14 6.967718773915471120e-14
4.322000000000000000e+03 2.080630493164062500e+01 -2.029685974121093750e+01 2.510083713959648105e-14 1.075750138924622124e-14 1.075750138924622124e-14 1.001887442908695747e-13
4.323000000000000000e+03 4.403623962402343750e+01 -2.430825233459472656e+01 1.060162767578705367e-13 -9.181730083272082732e-14 4.259694386907512606e-15 4.517780667254688021e-15
4.324000000000000000e+03 4.358086013793945312e+01 -2.366581344604492188e+01 -3.798356621636037045e-14 7.522322744086054613e-14 1.117189785913028435e-14 -1.553379651200292172e-14
4.325000000000000000e+03 7.340018463134765625e+01 -2.917005729675292969e+01 -2.069775150966360333e-14 8.263143180765528117e-14 1.858010476702386116e-14 6.541829252783293303e-14
4.326000000000000000e+03 5.010739135742187500e+01 2.487466621398925781e+01 4.677957985712265232e-15 -1.123725339668112111e-13 -3.230837093085719980e-14 -4.043606202370868263e-14
4.327000000000000000e+03 4.620589447021484375e+01 -2.573726844787597656e+01 -1.000124868989413218e-13 1.401413029676265576e-13 1.203864380416603402e-14 -1.865375089365583355e-14
4.328000000000000000e+03 3.946352005004882812e+01 -1.575008773803710938e+01 6.320212230090035965e-14 7.283756930931417628e-14 4.081190748306436078e-14 1.051677191513111786e-13
4.329000000000000000e+03 2.287481498718261719e+01 -2.717953872680664062e+01 4.340359452056907763e-15 -1.125172207467294017e-13 -3.245305771077539037e-14 2.320037811496221403e-14
4.330000000000000000e+03 8.678924560546875000e+00 -5.135440349578857422e+00 -2.492579778104637989e-14 3.506846505893501664e-14 3.042799844553412125e-15 -6.068997165714282160e-14
4.331000000000000000e+03 8.651021957397460938e+00 -5.770242691040039062e+00 6.959846788516868554e-14 -1.074249332067359064e-13 -1.134793841062404010e-14 -6.222880690560581018e-14
4.332000000000000000e+03 4.522515869140625000e+01 -2.436905097961425781e+01 -4.227265645818586992e-14 1.992001534426371401e-13 4.707825045058809665e-14 -5.727321693077200293e-14
4.333000000000000000e+03 4.449776458740234375e+01 -2.495181846618652344e+01 3.232478981750677716e-14 1.385348135036004735e-14 1.385348135036004735e-14 -7.654795986531195973e-14
4.334000000000000000e+03 7.449675750732421875e+01 -2.912780952453613281e+01 3.854622987443066806e-14 1.995236116082710343e-13 7.142095075074461619e-14 2.413021869720598928e-14
4.335000000000000000e+03 4.940704727172851562e+01 2.317906188964843750e+01 1.450542058700505371e-14 1.765434688358585164e-14 9.647929732957503252e-15 4.291047205571012126e-16
4.336000000000000000e+03 6.136669635772705078e+00 -2.819152832031250000e+01 -1.344411540914972752e-14 9.002928881996635768e-14 2.297555185383839960e-14 -3.911953226631847969e-14
4.337000000000000000e+03 3.219725418090820312e+01 -4.827817440032958984e+00 9.206329952939421024e-14 1.767085420047512234e-13 8.063155313786998790e-14 -1.059992209024446241e-13
4.338000000000000000e+03 3.355553054809570312e+01 -7.863568782806396484e+00 -1.357983211015649505e-14 2.277441541018339344e-14 2.758374651194890614e-15 3.580632562368360472e-14
4.339000000000000000e+03 4.400134277343750000e+01 1.790597343444824219e+01 -6.484296064500350010e-14 -1.664723995589353911e-13 -6.939461077168709857e-14 -5.603529521901878807e-14
4.340000000000000000e+03 5.410650634765625000e+01 2.915292358398437500e+01 5.621524906272885869e-14 -6.740964665803705902e-14 -3.358318982130928561e-15 8.817270779606575792e-14
4.341000000000000000e+03 4.556094741821289062e+01 1.956210899353027344e+01 1.381611703299076566e-13 5.831139065527735088e-13 2.163825217095516340e-13 6.859795934413548402e-14
4.342000000000000000e+03 4.504473495483398438e+01 1.902333641052246094e+01 6.936518823523127319e-14 1.040732306107142180e-13 5.203152294327821614e-14 -3.730578739262642440e-14
4.343000000000000000e+03 2.243759918212890625e+01 -2.204338836669921875e+01 5.710230601080681923e-14 -6.702948471878217296e-14 -2.978153442986016669e-15 4.691905569034933443e-14
4.344000000000000000e+03 3.830951690673828125e+01 -1.491828918457031250e+01 -6.527633658213669032e-14 3.380320112364443297e-13 8.182670307391864961e-14 -1.062321447985441897e-14
4.345000000000000000e+03 3.465404129028320312e+01 1.026603603363037109e+01 -9.269865047280018838e-15 -6.688035270995679182e-14 -2.284506473424798012e-14 -8.323633530473925624e-15
4.346000000000000000e+03 2.943617630004882812e+01 5.743764638900756836e-01 1.665550699745874108e-14 1.329531780893192239e-13 4.488260552603338949e-14 -7.105041110577053898e-14
4.347000000000000000e+03 3.129652023315429688e+01 1.678743600845336914e+00 4.342210727266426762e-14 9.867363274119328453e-14 4.262872200415726565e-14 -9.011460197841381081e-14
4.348000000000000000e+03 2.888185501098632812e+01 1.922089308500289917e-01 2.478494297818156777e-14 2.165013909252375135e-13 7.238589746052029317e-14 -1.419439652622367376e-13
4.349000000000000000e+03 5.162623596191406250e+01 2.556564903259277344e+01 5.570519631507842018e-14 1.954397201801155726e-13 7.534347223805276661e-14 -5.589325457002781994e-14
4.350000000000000000e+03 7.439664459228515625e+01 -2.851180458068847656e+01 -6.565315782344760542e-14 8.624030715899053123e-14 6.176144123036519940e-15 8.828072821376320434e-14
4.351000000000000000e+03 7.371656799316406250e+01 -2.251853752136230469e+01 -4.886294209418932943e-14 2.480968819870265490e-14 -7.215976168646002359e-15 2.493270279363239694e-15
4.352000000000000000e+03 7.418729400634765625e+01 -2.356692695617675781e+01 -6.488422809019372961e-14 1.094453236263719098e-13 1.336832883026004351e-14 -4.040972268718086291e-14
4.353000000000000000e+03 7.387074279785156250e+01 2.503283691406250000e+01 -2.415942100509552853e-14 -3.037007833260087220e-14 -1.635884895427597296e-14 -1.256439969562562001e-14
4.354000000000000000e+03 7.525762176513671875e+01 -2.139152717590332031e+01 2.571191211873415094e-14 -1.262334556545799402e-13 -3.015646339956691568e-14 1.144820085355758438e-14
4.355000000000000000e+03 3.849389648437500000e+01 1.229558277130126953e+01 5.713180308616200298e-14 1.159869590780168713e-13 5.193562864925366229e-14 -2.468013112128832065e-14
4.356000000000000000e+03 3.917786407470703125e+01 1.275602912902832031e+01 -3.570380753201152224e-14 -2.898073220205382716e-13 -9.765333751051222255e-14 -1.350927968666107426e-13
4.357000000000000000e+03 3.200313186645507812e+01 3.657916784286499023e+00 1.313991640104414382e-13 1.020648748351928037e-13 7.003920962081119916e-14 -1.178580209771837306e-13
4.358000000000000000e+03 4.013770294189453125e+01 -1.538193988800048828e+01 -1.504849440588443277e-13 3.472649956221679490e-13 5.903401546899708641e-14 6.395448406970594135e-14
4.359000000000000000e+03 4.343760299682617188e+01 1.932412338256835938e+01 1.252712126739718990e-13 1.955316605243423433e-14 4.344731497317455560e-14 9.583387685849209525e-14
4.360000000000000000e+03 5.522961616516113281e+00 -2.162498664855957031e+01 3.677998660842063394e-14 6.151380267790593215e-14 2.948813407539253861e-14 1.338364369416616961e-13
4.361000000000000000e+03 4.795873641967773438e+00 -2.226947402954101562e+01 1.398005653298686757e-13 1.416357757125100494e-14 4.618924193859966221e-14 2.192167007273281010e-14
4.362000000000000000e+03 7.479122161865234375e+01 2.469100189208984375e+01 9.179319088691018091e-14 1.308418434362024207e-13 6.679050623117563368e-14 7.966592202547292945e-14
4.363000000000000000e+03 7.461693572998046875e+01 -1.584681224822998047e+01 4.128772654711856949e-14 1.091966347530580472e-13 4.514530771242662721e-14 -7.342728719971977625e-14
4.364000000000000000e+03 7.407889556884765625e+01 -2.436520385742187500e+01 -6.111148913301445162e-14 8.818673466167228914e-14 8.122574166817119606e-15 1.376684004425129948e-13
4.365000000000000000e+03 7.388746643066406250e+01 -2.509842681884765625e+01 3.549273708595111765e-14 1.067130731653362363e-13 4.266174273657302729e-14 1.146316250472470544e-13
4.366000000000000000e+03 7.466631317138671875e+01 -2.628848648071289062e+01 -4.463547858147426384e-14 1.181233523538452457e-13 2.204636348696401016e-14 1.027962640682243689e-13
4.367000000000000000e+03 3.874501419067382812e+01 -1.396909999847412109e+01 -4.247740465032796842e-14 3.478029767401552563e-13 9.159767535389315429e-14 -6.465742654823691815e-14
4.368000000000000000e+03 7.389044189453125000e+01 -1.580515956878662109e+01 4.925328536947021218e-14 3.871161475144796471e-13 1.309108257994268110e-13 1.221923766597104999e-13
4.369000000000000000e+03 5.332641124725341797e+00 -1.523667335510253906e+01 -6.569495381719692162e-14 -1.654078214457718743e-13 -6.933083257889063877e-14 3.134223837495536680e-14
4.370000000000000000e+03 7.465685272216796875e+01 -8.691363334655761719e+00 3.227303610442953941e-14 3.798389012175940049e-13 1.236335795025411688e-13 2.143250219294634724e-15
4.371000000000000000e+03 7.488430786132812500e+01 1.842800712585449219e+01 9.121858406428359767e-14 3.135993797542119266e-13 1.214453884679222995e-13 9.945832406352966837e-14
4.372000000000000000e+03 7.529637908935546875e+01 -2.062002754211425781e+01 -1.126163845879303571e-14 5.441849770283779808e-13 1.598769944557987266e-13 1.258804529797458160e-13
4.373000000000000000e+03 7.450783538818359375e+01 -2.199984931945800781e+01 3.487082855541806525e-14 -3.080630707670041490e-14 1.219355702461466257e-15 1.972381269811987470e-14
4.374000000000000000e+03 4.607939147949218750e+01 2.008913040161132812e+01 -8.126152033986321771e-15 4.226831287323234987e-14 1.024264850588369261e-14 -4.990662644564292441e-15
4.375000000000000000e+03 4.504754257202148438e+01 1.999857330322265625e+01 7.074522174674302555e-14 1.818693985558908488e-13 7.578438338028473109e-14 9.061788185061800394e-14
4.376000000000000000e+03 7.537304687500000000e+01 -6.305545330047607422e+00 -4.602410778333475283e-14 3.691584527214936129e-13 9.694030517551355253e-14 -5.629630418655046445e-15
4.377000000000000000e+03 7.466439819335937500e+01 -7.879461288452148438e+00 -2.160695159304868579e-14 3.796229552498892046e-13 1.074048009276455662e-13 1.981356159870550915e-13
4.378000000000000000e+03 7.459918212890625000e+01 -1.744631385803222656e+01 5.226946466255731616e-14 2.054049882656630577e-13 7.730233418440021764e-14 1.858668451895813256e-14
4.379000000000000000e+03 4.480802059173583984e+00 -9.624145507812500000e+00 -5.505396943314205468e-15 -2.768651464774701809e-13 -8.471116196744413185e-14 -1.533565009465172324e-14
4.380000000000000000e+03 7.466139221191406250e+01 -1.419142127037048340e+00 2.157499168469606543e-13 6.186001689188758146e-13 2.503050121772237846e-13 9.780610837287900816e-14
4.381000000000000000e+03 7.462681579589843750e+01 -1.823434257507324219e+01 -3.712619269088598961e-14 2.585944696223418937e-13 6.644048511231584464e-14 -4.569486099453932276e-15
4.382000000000000000e+03 7.532213592529296875e+01 -1.906285285949707031e+01 -2.594050598240735250e-14 3.091392701722039948e-13 8.495963400032349733e-14 -4.588156399677311564e-15
4.383000000000000000e+03 7.468006896972656250e+01 5.763027191162109375e+00 8.172665154218897166e-14 8.077665326986643857e-14 4.875099144361662307e-14 -2.423300275722350960e-13
4.384000000000000000e+03 7.393782043457031250e+01 -8.691573143005371094e+00 -9.166295110094035969e-14 2.809725108826599538e-13 5.679286793451587823e-14 6.667110169066708947e-14
4.385000000000000000e+03 7.392565917968750000e+01 -1.357628464698791504e+00 3.574381730268166857e-13 1.989387387463237289e-13 1.669130735319421244e-13 5.066647175053749785e-14
4.386000000000000000e+03 7.539795684814453125e+01 8.762047886848449707e-01 2.986769902582619984e-13 3.650252233182264827e-14 1.005538493724540683e-13 -2.194524943710529641e-13
4.387000000000000000e+03 7.467280578613281250e+01 -6.328408122062683105e-01 3.869652536771239770e-13 2.115932076903956349e-13 1.795675424760140304e-13 7.196568102725564575e-14
4.388000000000000000e+03 7.484846496582031250e+01 1.686958885192871094e+01 1.410586836952162221e-14 2.119246482945244536e-13 6.780915482980723330e-14 3.411833464947271188e-14
4.389000000000000000e+03 7.550184631347656250e+01 1.604220771789550781e+01 2.851953157141651207e-14 1.494754976261516988e-13 5.339850875927046325e-14 5.972076945384013902e-14
4.390000000000000000e+03 7.479162597656250000e+01 1.214387130737304688e+01 -2.189059243389804982e-15 -9.381681866647059026e-16 -9.381681866647059026e-16 -8.092558876704805670e-14
4.391000000000000000e+03 7.537235260009765625e+01 -1.352596473693847656e+01 -1.495259536847537429e-13 -1.833160562909018354e-14 -5.035727084347178806e-14 2.402162399117030445e-13
4.392000000000000000e+03 7.466130065917968750e+01 -1.505918216705322266e+01 3.051540546942718701e-14 5.620894374946949767e-13 1.777814413695885665e-13 5.998335644375255016e-14
4.393000000000000000e+03 7.397267913818359375e+01 4.976926803588867188e+00 1.870261622438293414e-13 1.945314433626429973e-13 1.144672871029525640e-13 -2.250793816735083275e-13
4.394000000000000000e+03 7.412313079833984375e+01 1.219187068939208984e+01 -6.635763851381079603e-14 -2.843898551439620614e-14 -2.843898551439620614e-14 2.716523092084234536e-14
4.395000000000000000e+03 7.547866821289062500e+01 1.366618347167968750e+01 -1.896528622352417620e-14 1.291248602182729077e-13 3.304787473952346122e-14 6.587790615754027246e-14
4.396000000000000000e+03 7.470438385009765625e+01 4.136596202850341797e+00 2.476231838934722651e-13 2.891280151493674788e-13 1.610253542918410607e-13 -1.307742298782207935e-13
4.397000000000000000e+03 7.540929412841796875e+01 8.087230682373046875e+00 1.441331456313379999e-13 1.075222945618251047e-13 7.549662934744350018e-14 -6.995155865142932416e-14
4.398000000000000000e+03 7.467072296142578125e+01 6.564090251922607422e+00 1.225353606288445002e-14 -4.049943364069046037e-14 -8.473769273341803104e-15 -9.392874390605487900e-14
4.399000000000000000e+03 7.463781738281250000e+01 -1.031978416442871094e+01 -5.320470592687278483e-15 4.781047519691883352e-13 1.418352875469722219e-13 -6.356501154429483602e-14
4.400000000000000000e+03 7.438422393798828125e+01 2.545081710815429688e+01 -1.050223615212987627e-13 4.077344541099543751e-14 -1.927467347783828194e-14 7.983492203910910745e-14
4.401000000000000000e+03 7.536565399169921875e+01 -4.693703174591064453e+00 6.674401089863495062e-15 2.773661563013757325e-13 8.521216501508610541e-14 -9.732815139766592960e-14
4.402000000000000000e+03 5.576360225677490234e+00 -2.083684730529785156e+01 7.033915415182931397e-14 3.014535032729893926e-14 3.014535032729893926e-14 5.336779873273481134e-14
4.403000000000000000e+03 7.466447448730468750e+01 -7.070405006408691406e+00 -5.070376152900742117e-14 2.070245559183947481e-13 4.689624001088209260e-14 -1.790659498934407678e-13
4.404000000000000000e+03 5.548923492431640625e+00 -2.246377754211425781e+01 -3.003659807313506513e-14 -8.149925368903729317e-14 -3.346075586746488639e-14 1.329509351460748945e-14
4.405000000000000000e+03 7.468558502197265625e+01 1.495449393987655640e-01 2.194275712736129536e-13 1.397913360588753928e-13 1.077656708444937883e-13 -2.623877000005811477e-14
4.406000000000000000e+03 7.464336395263671875e+01 -3.016932725906372070e+00 1.343052730660987404e-13 6.523217296189320891e-13 2.359880953844983864e-13 1.714479930638515559e-13
4.407000000000000000e+03 7.464077758789062500e+01 -3.823815822601318359e+00 1.209910264424879367e-13 2.348570827832158203e-13 1.067544354782165583e-13 -4.467527557746805988e-14
4.408000000000000000e+03 7.471360015869140625e+01 3.326297760009765625e+00 2.133989328561430865e-13 1.372076280717338115e-13 1.051819696336157850e-13 -1.567656188238356063e-13
4.409000000000000000e+03 7.471577453613281250e+01 2.521586179733276367e+00 4.266107053122608628e-13 1.828331594195403698e-13 1.828331594195403698e-13 -2.553837878476426793e-14
4.410000000000000000e+03 7.464331817626953125e+01 -4.634373664855957031e+00 9.752734644180582890e-14 5.450578681974460604e-13 1.927755643917755668e-13 1.838503172401848018e-13
4.411000000000000000e+03 7.536489868164062500e+01 -1.273896884918212891e+01 4.247803145470893660e-14 4.757143572294009193e-13 1.554577186381120302e-13 -1.851161232765616282e-13
4.412000000000000000e+03 7.468818664550781250e+01 -1.428081035614013672e+01 -3.455441431577353784e-14 2.139457095642546824e-13 5.381738688047844887e-14 -1.059458137810543460e-14
4.413000000000000000e+03 7.469133758544921875e+01 8.151897430419921875e+00 -3.924302967002815667e-14 -1.311958083404646258e-13 -5.113165208077419255e-14 -9.876637268452226337e-14
4.414000000000000000e+03 7.548523712158203125e+01 1.445811557769775391e+01 5.774109082578096630e-14 2.992518884602224372e-13 1.070978903976692320e-13 -6.572362842356032145e-15
4.415000000000000000e+03 7.480416107177734375e+01 1.293072128295898438e+01 -4.437055716875921985e-14 1.182368954263587901e-13 2.215990147727987108e-14 9.277475299497919825e-14
4.416000000000000000e+03 7.483576202392578125e+01 1.608041954040527344e+01 -1.304117404343774211e-13 8.136210211421787686e-14 -1.471489352892693669e-14 8.928406245670844621e-14
4.417000000000000000e+03 4.838834285736083984e+00 -1.829032707214355469e+01 -2.628017635865169399e-14 1.161254218598386373e-14 -4.400289997690464902e-15 1.989479680173170117e-13
4.418000000000000000e+03 5.440025329589843750e+00 -1.601511955261230469e+01 -3.784472396377823455e-14 1.439091494625024947e-13 3.181932798843045695e-14 4.602232901414551880e-14
4.419000000000000000e+03 7.476368713378906250e+01 1.055582714080810547e+01 3.125662028464690212e-14 1.735240098311996437e-13 6.143418835712760595e-14 -1.229904036687684554e-13
4.420000000000000000e+03 7.474551391601562500e+01 9.757596015930175781e+00 -3.154589770624376989e-15 9.014993341670968219e-14 2.609860298794647315e-14 8.576045113590970853e-15
4.421000000000000000e+03 5.367235183715820312e+00 -2.678017807006835938e+01 2.497428533507900505e-14 1.937070566882664879e-13 6.560440260700364790e-14 -3.957180042630722983e-14
4.422000000000000000e+03 6.784914970397949219e+00 -2.658148384094238281e+01 1.346728853652071067e-14 2.864716927217236808e-14 1.263433751201451308e-14 -9.773152881593916153e-14
4.423000000000000000e+03 7.464022827148437500e+01 -1.112993621826171875e+01 -6.512282710703989896e-14 2.008449559009334306e-13 4.071663999342077511e-14 1.580782217364823383e-13
4.424000000000000000e+03 7.465294647216796875e+01 -1.193546104431152344e+01 2.558761003372458237e-14 4.227246536755296935e-13 1.344936802986224089e-13 3.652600039105464297e-15
4.425000000000000000e+03 7.471930694580078125e+01 8.954462051391601562e+00 1.097448548053117645e-13 1.156599365977409311e-13 6.762143877616852428e-14 -2.611453059548664302e-14
4.426000000000000000e+03 7.482727050781250000e+01 1.529136371612548828e+01 1.888756586841591062e-14 5.384562018267632921e-14 2.181995666236061920e-14 7.563264928624538475e-14
4.427000000000000000e+03 7.482114410400390625e+01 1.450153160095214844e+01 -6.939860792016519161e-15 -2.974225962967835292e-15 -2.974225962967835292e-15 5.328200107144152875e-14
4.428000000000000000e+03 7.559161376953125000e+01 2.073645591735839844e+01 1.084253943139240617e-13 1.379699306192083696e-13 7.391859341418158258e-14 -6.080729249660112024e-15
4.429000000000000000e+03 7.490093231201171875e+01 1.919760322570800781e+01 2.146669987764231874e-14 5.495096429752530098e-14 2.292529908314369647e-14 -6.580958109188295158e-14
4.430000000000000000e+03 7.457663726806640625e+01 -2.125541496276855469e+01 -1.606371218226647357e-14 3.362476584060219986e-13 9.605518962695069884e-14 1.130767029490498121e-13
4.431000000000000000e+03 4.512073993682861328e+00 -1.355100917816162109e+01 7.000110669071191172e-14 2.130042697128312068e-13 8.490160885530478874e-14 4.941379472484311308e-14
4.432000000000000000e+03 3.498672866821289062e+01 -1.157157230377197266e+01 -3.766370963481820155e-14 3.041150501998518552e-13 7.993540047544420157e-14 3.298493680341067769e-14
4.433000000000000000e+03 7.465373992919921875e+01 -1.900140380859375000e+01 5.915888167794952635e-14 -6.614808933892366016e-14 -2.096762933566950586e-15 -1.910809089623356771e-14
4.434000000000000000e+03 7.465655517578125000e+01 -1.976037979125976562e+01 3.004696236827766875e-14 6.533905361205682993e-13 2.050312502242801482e-13 1.054321425086532371e-13
4.435000000000000000e+03 3.616822814941406250e+01 1.127218246459960938e+01 -7.191601948555812612e-15 1.055763888314388554e-13 2.951543564134843922e-14 -4.155952247923352938e-14
4.436000000000000000e+03 3.745116043090820312e+01 1.245664882659912109e+01 -8.274119372509228243e-15 -2.642152582875770261e-14 -1.040869322156690036e-14 6.696126807334210063e-14
4.437000000000000000e+03 5.291691303253173828e+00 -8.190789222717285156e+00 -1.984894487541775249e-14 -5.425764072514334402e-14 -2.223197551076173950e-14 -1.109783380644213668e-13
4.438000000000000000e+03 4.858132839202880859e+00 -1.909890937805175781e+01 -6.809219258319815227e-14 -3.265635374963271609e-13 -1.183967203791103096e-13 1.524645481480041420e-13
4.439000000000000000e+03 7.495032501220703125e+01 2.383326721191406250e+01 -2.340074884083290230e-14 1.272239556543083849e-13 3.114696001116357138e-14 9.516747876943745799e-14
4.440000000000000000e+03 7.560821533203125000e+01 2.309496116638183594e+01 2.056825118345673511e-15 6.950791667497541182e-14 2.146942393560068857e-14 8.525333759258624244e-14
4.441000000000000000e+03 4.458658695220947266e+00 -1.197164344787597656e+01 -1.241135693568276577e-14 -9.682104971280372507e-14 -3.276972267217230506e-14 -1.197294623471109598e-15
4.442000000000000000e+03 5.962077617645263672e+00 -9.248058319091796875e+00 3.114686514347347890e-14 -1.696551427989023697e-13 -4.155248194137595164e-14 -3.590352434844693019e-14
4.443000000000000000e+03 7.476995849609375000e+01 -2.778196907043457031e+01 2.625339656499130203e-14 5.700240355687585803e-14 2.497674003656014802e-14 7.426988847059404208e-14
4.444000000000000000e+03 5.184237003326416016e+00 -9.828215599060058594e+00 5.416106541662919771e-14 -2.253906391765699707e-14 9.486599602658712937e-15 2.366424554413066456e-15
4.445000000000000000e+03 7.560556030273437500e+01 2.151372146606445312e+01 -3.376769011436374368e-14 1.227809764666257242e-13 2.670398759974448866e-14 1.166819326705800797e-13
4.446000000000000000e+03 7.491670989990234375e+01 1.996780204772949219e+01 9.722406121284374314e-14 1.789203008840944964e-13 8.284331201721326088e-14 -1.019653433816927399e-14
4.447000000000000000e+03 7.374383544921875000e+01 -2.644488716125488281e+01 3.118357216327569126e-14 2.421191231446323533e-13 8.199081062525148678e-14 2.990685973067001846e-14
4.448000000000000000e+03 4.862310886383056641e+00 -2.610008430480957031e+01 7.056428195668235093e-15 -8.847771419597666442e-14 -2.442638546127934990e-14 2.278186930011923128e-14
4.449000000000000000e+03 7.499215698242187500e+01 2.304221343994140625e+01 1.389597123349975427e-13 1.510560611057282232e-13 8.700473067696501417e-14 6.770303854217521455e-14
4.450000000000000000e+03 7.497951507568359375e+01 2.227408409118652344e+01 -3.008052520177967315e-14 3.285929471227855281e-14 8.336315096001980195e-16 1.778107148282456751e-13
4.451000000000000000e+03 7.495568847656250000e+01 2.150277328491210938e+01 9.858039813062310919e-14 -2.637768170934192552e-14 2.166081441816458675e-14 1.625807913860702336e-13
4.452000000000000000e+03 2.185160064697265625e+01 -2.939600563049316406e+01 -4.925035124734092329e-14 -4.398276854484725606e-14 -2.796993593765645381e-14 -2.860283556771307800e-14
4.453000000000000000e+03 2.494404411315917969e+01 -2.788085174560546875e+01 4.520569438530228079e-14 -2.322563528219662166e-13 -5.611519753099918073e-14 -1.817123010492294882e-14
4.454000000000000000e+03 7.574156951904296875e+01 2.741943550109863281e+01 -8.725713294271963960e-14 8.355035582927484300e-15 -2.367062878442117296e-14 1.950580945679278311e-13
4.455000000000000000e+03 7.452039337158203125e+01 2.778330421447753906e+01 -7.157678448424867335e-14 1.507518407523923687e-14 -1.695048113914236765e-14 1.299614441670898790e-13
4.456000000000000000e+03 5.222303867340087891e+00 -1.446415424346923828e+01 -5.968954358423960924e-15 4.319282561823789557e-14 1.116716125088923831e-14 2.138298761146517624e-14
4.457000000000000000e+03 5.154808044433593750e+00 -1.368430614471435547e+01 -3.826682673941641730e-15 -2.451548146886924073e-14 -8.502648861678438474e-15 8.195615003704984081e-14
4.458000000000000000e+03 5.430586814880371094e+00 -2.555478858947753906e+01 4.786957573496737617e-14 -7.098636186243095780e-14 -6.935036939381905921e-15 -6.437187480105854842e-14
4.459000000000000000e+03 5.517871856689453125e+00 -1.681380081176757812e+01 -4.379142380206250962e-14 -1.331451225314306264e-13 -5.308096288360840409e-14 1.791240495773588348e-13
4.460000000000000000e+03 5.650489807128906250e+00 -2.005879402160644531e+01 -6.003033627913906267e-14 -7.147823728303331903e-14 -3.945257206865171451e-14 -3.387023531109013830e-14
4.461000000000000000e+03 1.850000762939453125e+01 -1.611735725402832031e+01 -1.858849174845439434e-13 -3.541706587294884967e-13 -1.620166674431988696e-13 1.011461693480736335e-13
4.462000000000000000e+03 2.786215019226074219e+01 -5.928006768226623535e-01 -1.704270676406577367e-13 1.846172344231560014e-14 -4.558960359831581988e-14 -2.051873787252498499e-14
4.463000000000000000e+03 4.681207275390625000e+01 -2.732992935180664062e+01 -8.749552867165846792e-14 3.742604641997215875e-13 8.602947727028714686e-14 -8.968680968246892093e-14
4.464000000000000000e+03 7.459282684326171875e+01 2.844642829895019531e+01 1.108276610675001939e-13 -4.557628688513226667e-13 -1.034805650456521731e-13 -1.428043338962126096e-13
4.465000000000000000e+03 1.938687515258789062e+01 -1.630205154418945312e+01 4.836052619559133570e-14 -2.080287981806594466e-13 -4.790048227314679108e-14 6.803400480785357085e-14
4.466000000000000000e+03 4.041405868530273438e+01 -1.748907470703125000e+01 -1.262702372132815110e-13 2.661408148984384381e-13 4.196117533842615155e-14 8.680613872028355993e-14
4.467000000000000000e+03 3.986954879760742188e+01 1.323242282867431641e+01 1.259724001002361649e-14 -4.063597331890878017e-13 -1.181287462596533611e-13 -4.884539495965400935e-14
4.468000000000000000e+03 5.125082015991210938e+01 2.605843353271484375e+01 -3.689680282800060582e-16 -2.303360410391142032e-14 -7.020771496720618066e-15 -5.253621566643842944e-14
4.469000000000000000e+03 4.077885055541992188e+01 1.513361072540283203e+01 -7.582429557275935372e-14 7.535954722932575872e-15 -2.048650149261838083e-14 -5.502993826139550293e-14
4.470000000000000000e+03 4.061205291748046875e+01 -1.914390373229980469e+01 9.743829956212687882e-15 4.175927063588798574e-15 4.175927063588798574e-15 1.310022240425673390e-13
4.471000000000000000e+03 4.186387634277343750e+01 -1.811937522888183594e+01 3.250678331655383613e-14 2.426862150909508964e-13 8.255790257157002987e-14 8.384016137591432383e-14
4.472000000000000000e+03 2.954363822937011719e+01 -2.796769618988037109e+00 -2.076149582114217296e-13 9.974482448760896292e-14 -3.236103943951747219e-14 -2.852022613843326060e-14
4.473000000000000000e+03 2.882218170166015625e+01 -1.348049163818359375e+00 -9.536378034902953660e-14 1.878845522088404274e-13 2.775623121913008834e-14 8.120496733810683709e-14
4.474000000000000000e+03 4.070684814453125000e+01 -1.649443054199218750e+01 -2.294367495471461016e-13 2.219266030710834170e-13 -2.253044112225394829e-15 2.023591695956856312e-14
4.475000000000000000e+03 1.860704803466796875e+01 -1.541434764862060547e+01 -4.631457909787077554e-14 -5.416231563725934506e-14 -3.014307011460493069e-14 1.724674277090582075e-13
4.476000000000000000e+03 1.654266357421875000e+01 -1.222475051879882812e+01 -5.482767356985475404e-14 -6.220998541000134600e-16 -1.663493256716993413e-14 1.569502584538098877e-13
4.477000000000000000e+03 4.232816314697265625e+01 -2.167618751525878906e+01 6.194232003405367171e-14 2.654670882803241566e-14 2.654670882803241566e-14 -4.088350887216166130e-14
4.478000000000000000e+03 5.107006835937500000e+01 2.504437446594238281e+01 1.370124835391476822e-14 6.877951577418175977e-14 2.474422949253884257e-14 -2.470206758055631252e-14
4.479000000000000000e+03 4.148788070678710938e+01 -2.037887954711914062e+01 1.299393671003526429e-13 1.471902027344595965e-13 8.313887230569638742e-14 3.041743425061596562e-14
4.480000000000000000e+03 6.689828395843505859e+00 -6.658283710479736328e+00 1.274421784465754048e-13 5.461807696112257193e-14 5.461807696112257193e-14 -5.724763653576492306e-14
4.481000000000000000e+03 4.191577529907226562e+01 -2.101930999755859375e+01 -3.919789297833486952e-14 2.119556429241303830e-13 5.182732701661772745e-14 6.834168783187780094e-14
4.482000000000000000e+03 3.311058425903320312e+01 -7.195718765258789062e+00 -7.322405350248736844e-14 1.436921091282298418e-14 -1.765645260749272583e-14 1.612296383099280639e-14
4.483000000000000000e+03 4.666611099243164062e+01 2.159382820129394531e+01 -3.429563897412377105e-14 1.225547170257551555e-13 2.647772307667623642e-14 1.026867257674854428e-13
4.484000000000000000e+03 4.660356903076171875e+01 2.060760688781738281e+01 4.310331795263563914e-14 1.357096536926463703e-13 5.364389081595824504e-14 3.274841809948296489e-14
4.485000000000000000e+03 4.823940658569335938e+01 2.213164138793945312e+01 -5.183730506473638311e-14 6.594870413588710227e-16 -1.535334461291986557e-14 1.558268894778433444e-14
4.486000000000000000e+03 3.564555358886718750e+01 1.168032264709472656e+01 -5.320438236028693368e-14 -1.579101432946927730e-13 -6.333436108462570102e-14 -2.796115898225700475e-14
4.487000000000000000e+03 3.491347503662109375e+01 9.227028846740722656e+00 -4.213923521646616155e-14 1.191931752950181611e-13 2.311618134593924206e-14 7.315854058621493183e-14
4.488000000000000000e+03 2.381586074829101562e+01 -2.497968101501464844e+01 -7.233840940536542807e-14 -1.453795444488273358e-13 -6.531538818913690259e-14 4.385583557550351563e-14
4.489000000000000000e+03 7.340111732482910156e+00 -6.484352588653564453e+00 -3.134414589315258348e-14 -1.343320562478909214e-14 -1.343320562478909214e-14 8.884350368018253952e-14
4.490000000000000000e+03 7.095566749572753906e+00 -5.798269271850585938e+00 3.537584992736181322e-14 2.439158358798210191e-13 8.378750303164941848e-14 4.506314890467474910e-14
4.491000000000000000e+03 1.111365890502929688e+01 -5.404153347015380859e+00 1.731946393755939145e-14 -2.213321214673824588e-13 -6.120379539547443626e-14 -9.899755169275048505e-14
4.492000000000000000e+03 1.036523246765136719e+01 -5.106728553771972656e+00 -9.184341824661646642e-15 -9.543804142158121562e-14 -3.138671438094979560e-14 -7.232495174589945175e-14
4.493000000000000000e+03 3.006165122985839844e+01 -3.417325973510742188e+00 3.481301008643848671e-14 1.678996026412138409e-13 6.081378076897708818e-14 -9.993673504840247523e-14
4.494000000000000000e+03 3.714136886596679688e+01 -1.338949203491210938e+01 -3.658371213388286747e-14 2.130760032390682790e-13 5.294769071968741248e-14 1.283817209441970308e-13
4.495000000000000000e+03 1.702641677856445312e+01 -1.130235004425048828e+01 -6.705465176171099273e-14 -7.448866014021088278e-14 -4.246299492582927826e-14 1.150126136906584606e-13
4.496000000000000000e+03 1.664005661010742188e+01 -1.294251251220703125e+01 -1.433669264035153379e-13 3.005892586162468849e-14 -3.399240117900673153e-14 1.467678111205864000e-13
4.497000000000000000e+03 1.616026687622070312e+01 -1.081268405914306641e+01 -1.090746077985448037e-13 -2.387078775205504766e-14 -3.988362035924584992e-14 1.137811226530408004e-13
4.498000000000000000e+03 1.560873603820800781e+01 -6.479257583618164062e+00 -1.280552812225888015e-13 3.111267482796414852e-13 5.492144350524759411e-14 4.973644990324301018e-14
4.499000000000000000e+03 1.493104267120361328e+01 -7.246526241302490234e+00 6.974236861851182412e-14 -1.586136109336510475e-14 1.616430242695060526e-14 2.252202466407685066e-13
4.500000000000000000e+03 7.440222930908203125e+01 2.712700271606445312e+01 1.154736300069264532e-13 9.523964597654352437e-14 6.321398753842549789e-14 -8.568665254334723036e-14
4.501000000000000000e+03 4.150876617431640625e+01 1.476841926574707031e+01 -5.925591099612340096e-14 5.466877018894984730e-14 -1.376141712756474064e-15 1.569848343387168083e-14
4.502000000000000000e+03 4.181173324584960938e+01 1.758366394042968750e+01 -4.309968926348960172e-14 -3.994909058505774491e-13 -1.327771849716705144e-13 -1.900390652134764657e-13
4.503000000000000000e+03 1.508120918273925781e+01 -6.585732936859130859e+00 -5.505806314337613472e-14 -2.981020107411386233e-13 -1.059480194548489962e-13 1.328298229871446856e-13
4.504000000000000000e+03 1.515692901611328125e+01 -6.003648281097412109e+00 2.067234560344365785e-14 1.003614712494736716e-13 3.631014759697404060e-14 1.375044690740331865e-13
4.505000000000000000e+03 8.108117103576660156e+00 -5.662355422973632812e+00 -2.675144685577914710e-14 1.257879434293784904e-13 2.971094778623367683e-14 -6.393361995414917343e-14
4.506000000000000000e+03 7.722193241119384766e+00 -7.832813739776611328e+00 7.280100459104710264e-14 -3.742599153223717667e-14 1.061250374823638834e-14 1.233364945547529845e-13
4.507000000000000000e+03 7.520659637451171875e+01 2.830165100097656250e+01 -7.581627247668296099e-14 5.900920756803790246e-14 -5.042119472593517560e-15 2.144665738404438748e-13
4.508000000000000000e+03 1.562613487243652344e+01 -9.377333641052246094e+00 -3.168370107291609838e-14 -1.050806238355427025e-13 -4.102929679491128245e-14 1.473185180615732559e-13
4.509000000000000000e+03 1.586209583282470703e+01 -1.011326599121093750e+01 -1.187627876901228841e-13 -5.089833516138710101e-14 -5.089833516138710101e-14 1.558713011093337819e-13
4.510000000000000000e+03 4.803224563598632812e+01 -2.934693527221679688e+01 4.114421883706295691e-14 4.522672384169035276e-13 1.480234392090690188e-13 -3.397203850695473815e-14
4.511000000000000000e+03 5.040573883056640625e+01 -2.684973526000976562e+01 -2.584578398198179860e-14 3.091798735435635770e-13 8.500023059541950143e-14 5.661110482843047242e-14
4.512000000000000000e+03 4.600065231323242188e+00 -7.200607299804687500e+00 3.141051261863585242e-14 1.346164814412494429e-14 1.346164814412494429e-14 -1.681486269395748162e-14
4.513000000000000000e+03 3.214656066894531250e+01 -5.893669605255126953e+00 5.363942187012853136e-14 1.602411644130094515e-13 6.416417554612821594e-14 -1.418321010090246512e-14
4.514000000000000000e+03 3.323751831054687500e+01 -6.092327594757080078e+00 -6.394589176748899373e-14 1.098474677646739395e-13 1.377047296856207317e-14 -2.084997645929588354e-15
4.515000000000000000e+03 3.679632949829101562e+01 1.223713684082031250e+01 -5.364221030259089251e-14 -2.974952098902527986e-13 -1.053412253802267495e-13 -2.231145633914757842e-13
4.516000000000000000e+03 7.359548950195312500e+01 -3.115143966674804688e+01 -8.384087288359001744e-14 1.013210443822319673e-13 5.244052550735416388e-15 -7.523467255004384624e-14
4.517000000000000000e+03 7.247232055664062500e+01 -3.105223274230957031e+01 -2.144641682668736726e-14 1.051860489442897617e-13 2.512188929646753943e-14 4.915806192553988374e-14
4.518000000000000000e+03 4.215501022338867188e+01 -1.983927917480468750e+01 -2.520569981846656343e-14 4.009560966664743598e-13 1.127251165133034971e-13 9.077997685166816488e-14
4.519000000000000000e+03 2.311539268493652344e+01 -2.179180908203125000e+01 -4.239316214152584472e-14 2.758245055153960706e-14 -4.443212968776102945e-15 1.053343610252222007e-13
4.520000000000000000e+03 4.314412689208984375e+01 -2.301224136352539062e+01 8.971785174591989653e-14 8.420145819736796211e-14 5.217579298298635759e-14 2.944566384341720799e-14
4.521000000000000000e+03 7.544337749481201172e+00 -2.980962944030761719e+01 1.219164675356036731e-14 2.368391669848451953e-13 7.470924784846663669e-14 -3.019260121322857315e-14
4.522000000000000000e+03 2.355493164062500000e+01 -2.878365135192871094e+01 -1.698494521570025062e-14 -1.674075781428127629e-13 -5.531776005687251418e-14 -3.929112420077325585e-14
4.523000000000000000e+03 2.434132194519042969e+01 -3.075738525390625000e+01 -2.259153591467350647e-14 -1.583726639414750892e-13 -5.428926215913024156e-14 -4.351171658222019456e-14
4.524000000000000000e+03 4.775057601928710938e+01 -2.736969947814941406e+01 3.979622688787994023e-14 3.373121552040225790e-13 1.131325190321420815e-13 -4.527239653583266243e-14
4.525000000000000000e+03 7.473205566406250000e+01 -3.112139511108398438e+01 5.281929746554260563e-14 6.838779352926274702e-14 3.636212492674935348e-14 8.726684841062464643e-15
4.526000000000000000e+03 7.357386779785156250e+01 -3.007139396667480469e+01 5.681991539058760254e-14 1.158532905026765647e-13 5.180196007391335566e-14 9.148723453954892872e-16
4.527000000000000000e+03 7.309366607666015625e+01 -3.865130233764648438e+01 -3.438097923762553632e-14 8.248606062511570913e-14 1.443152543268658855e-14 -8.785841113878936626e-14
4.528000000000000000e+03 2.823921012878417969e+01 -4.129875564575195312e+01 1.230142425640359805e-13 -2.046286995101634365e-13 -2.448433437333280560e-14 -1.210799293265658536e-14
4.529000000000000000e+03 5.376726913452148438e+01 -3.770975494384765625e+01 5.727226147760750008e-14 3.962717198650878014e-13 1.360631984685667373e-13 -1.255249718865080258e-14
4.530000000000000000e+03 5.102141571044921875e+01 -3.016158103942871094e+01 6.104815817361414210e-14 3.921710775133674387e-13 1.359657693508417586e-13 5.649752109833545977e-14
4.531000000000000000e+03 5.688180541992187500e+01 2.952745056152343750e+01 -1.013693049314347283e-13 -1.806968339063477758e-13 -8.461984503946654024e-14 -9.659377383239645121e-15
4.532000000000000000e+03 6.235056686401367188e+01 2.831353759765625000e+01 4.769505941926220453e-16 -1.370484400877586273e-13 -4.097144783274560276e-14 -2.825250655237696203e-15
4.533000000000000000e+03 5.702613067626953125e+01 2.898175239562988281e+01 2.727752038459395345e-14 8.031678891840671186e-14 3.227829448496609410e-14 1.153327650396662740e-13
4.534000000000000000e+03 6.238208389282226562e+01 2.877742767333984375e+01 1.009654802797653461e-13 -4.142385761664313382e-13 -9.398193079887887103e-14 2.389164983473274217e-13
4.535000000000000000e+03 6.123877334594726562e+01 2.883056449890136719e+01 1.595653676463720805e-13 -3.662488606663572011e-13 -6.200504790599553617e-14 2.087377986388291862e-13
4.536000000000000000e+03 6.585840606689453125e+01 2.860384750366210938e+01 -2.397008542446166929e-14 3.099837552443529543e-13 8.580409874368172263e-14 1.134252671712403238e-14
4.537000000000000000e+03 6.502635192871093750e+01 2.915318679809570312e+01 -3.521219299755691534e-14 -6.098532594721317590e-13 -1.935196387902252124e-13 1.091111657405482993e-13
4.538000000000000000e+03 7.042757415771484375e+01 2.876215744018554688e+01 1.628267581072498577e-16 4.582073178456720630e-14 1.379506741721854904e-14 3.292925624558996900e-14
4.539000000000000000e+03 5.385162734985351562e+01 2.738612174987792969e+01 -6.202444834861944867e-14 -2.095856989478214749e-13 -8.148304486655863488e-14 1.172541356137023552e-14
4.540000000000000000e+03 6.488568878173828125e+01 2.871653175354003906e+01 8.177519669446201012e-14 3.504651335307397420e-14 3.504651335307397420e-14 -4.080522947530820788e-14
4.541000000000000000e+03 6.702652740478515625e+01 2.893906211853027344e+01 2.170070628184847528e-13 3.217577842617308503e-13 1.616294446372956717e-13 8.856088605513345868e-14
4.542000000000000000e+03 7.105708312988281250e+01 2.879316139221191406e+01 7.826721313154011428e-14 7.929404068031040143e-14 4.726837546592879691e-14 -7.657780930637320127e-14
4.543000000000000000e+03 6.290776824951171875e+01 2.877858352661132812e+01 -2.550040121554117412e-14 -3.311853829374156177e-13 -1.070057332130079641e-13 -5.787473907233053882e-14
4.544000000000000000e+03 6.900926208496093750e+01 2.845857238769531250e+01 5.977500920861756814e-15 2.543725999152104955e-14 9.424428231363194547e-15 2.234043638559175815e-14
4.545000000000000000e+03 6.952386474609375000e+01 2.821530723571777344e+01 9.615602720525542879e-14 1.498682227580802606e-13 7.380727973238521145e-14 -1.046402480181334027e-13
4.546000000000000000e+03 6.341186141967773438e+01 2.879202079772949219e+01 -1.234640238352915920e-13 -2.359169446169290252e-13 -1.078142905356661851e-13 4.469123638869976212e-13
4.547000000000000000e+03 6.390843200683593750e+01 2.879189300537109375e+01 -1.368465887482961385e-13 7.860431191575659171e-14 -1.747268372738822184e-14 4.496521495531320689e-14
4.548000000000000000e+03 6.635165405273437500e+01 2.853587341308593750e+01 -1.539518837932740691e-13 -7.064926443346719598e-13 -2.581333584383838087e-13 -1.032613664714299162e-13
4.549000000000000000e+03 6.684622192382812500e+01 2.845221138000488281e+01 -2.429492086566779896e-14 -6.966763320750968269e-13 -2.162913809644270713e-13 -2.225497482697194607e-13
4.550000000000000000e+03 6.781394195556640625e+01 2.824819374084472656e+01 6.070287366299539911e-14 -6.548638042426502270e-14 -1.435051054292997737e-15 -1.495242460663320783e-13
4.551000000000000000e+03 3.456981277465820312e+01 -8.120619773864746094e+00 -1.024542253878595044e-13 1.390948445832707048e-13 1.099218457277723396e-14 1.840828921587100986e-14
4.552000000000000000e+03 3.478211975097656250e+01 -7.012341022491455078e+00 -5.054668435113679470e-14 1.155899784525613039e-13 1.951298958568006836e-14 -4.322442333530226999e-14
4.553000000000000000e+03 3.622452545166015625e+01 -1.075327968597412109e+01 -6.421474934230992845e-15 4.299888895463455096e-14 1.097322374025294645e-14 5.074471896013895561e-15
4.554000000000000000e+03 5.751287460327148438e+01 2.909286308288574219e+01 -2.223089977891872654e-14 -1.239049010962056663e-13 -4.384074144838344400e-14 -1.825326016366684428e-14
4.555000000000000000e+03 5.836643600463867188e+01 2.963682746887207031e+01 -4.907544233186469929e-14 -2.955380352335362781e-13 -1.033840439472466510e-13 1.364853732420054366e-13
4.556000000000000000e+03 3.728184127807617188e+01 -1.401783466339111328e+01 -8.842689899540498444e-14 1.908575023284314609e-13 3.072918303278701635e-14 1.154535045040996910e-13
4.557000000000000000e+03 3.701554107666015625e+01 -1.273998260498046875e+01 -2.209610939314307632e-13 1.340571262938711206e-13 -2.607119130770742949e-14 8.325470575529930750e-14
4.558000000000000000e+03 5.506277465820312500e+01 2.945660018920898438e+01 -6.846967789833971474e-14 -5.221962185580908411e-14 -3.620678924861828185e-14 1.202154966285090554e-13
4.559000000000000000e+03 3.596673583984375000e+01 1.007724094390869141e+01 2.742457419808324616e-15 -4.457561029276232989e-14 -1.254994592541367263e-14 -1.262116767434401376e-13
4.560000000000000000e+03 3.473323822021484375e+01 7.702433586120605469e+00 8.615700655082575432e-14 -8.826518685324698243e-15 2.319914652905690627e-14 -8.321856116537407200e-14
4.561000000000000000e+03 1.213157081604003906e+01 -6.423199653625488281e+00 4.482307943863214628e-14 4.208536392102078805e-14 2.607253300789588030e-14 2.304860675147318849e-14
4.562000000000000000e+03 1.393062973022460938e+01 -6.689368247985839844e+00 -7.504491684106814886e-15 -9.471811085026010657e-14 -3.066678042149689754e-14 2.903598450001640408e-14
4.563000000000000000e+03 1.667336463928222656e+01 -1.366367149353027344e+01 -8.645085922088721619e-14 1.002024797771422504e-13 4.125485404546857734e-15 1.647766531510594379e-13
4.564000000000000000e+03 1.250190544128417969e+01 -6.210108280181884766e+00 -1.461597066859947509e-15 -6.263987580655658478e-16 -6.263987580655658478e-16 -1.483735145380374321e-13
4.565000000000000000e+03 1.152332115173339844e+01 -5.405295848846435547e+00 -1.203921538199884123e-13 -1.888494785898253703e-13 -9.277248972294413476e-14 1.917149978266502464e-14
4.566000000000000000e+03 3.232559204101562500e+01 3.014675617218017578e+00 1.528801228407178359e-13 1.976910354980956214e-14 5.179476707012527215e-14 -1.317773879383130065e-13
4.567000000000000000e+03 3.427957153320312500e+01 4.671714305877685547e+00 2.804295187177566900e-14 1.492712474893825858e-13 5.319426201063313930e-14 -8.207821087288097450e-14
4.568000000000000000e+03 1.983136367797851562e+01 -1.993730163574218750e+01 1.047939607811375351e-13 -9.234114666488435486e-14 3.735843472546301544e-15 9.759432980727469897e-14
4.569000000000000000e+03 1.988207244873046875e+01 -1.840142250061035156e+01 1.046766704348653376e-14 -2.700195481705053302e-13 -7.786556366047928113e-14 1.564634110207824280e-13
4.570000000000000000e+03 7.222908782958984375e+01 2.879034996032714844e+01 -1.032529605164613645e-14 -9.592702337763575615e-14 -3.187569633700433613e-14 5.609869055292308893e-14
4.571000000000000000e+03 3.596953582763671875e+01 -9.062389373779296875e+00 -8.443624217781969810e-14 1.582545672198371056e-13 2.214549852904475896e-14 -6.281514344048597098e-14
4.572000000000000000e+03 3.067069816589355469e+01 -2.091447353363037109e+00 -2.778455905020488226e-13 6.392711474111426040e-14 -6.417554611641215767e-14 -9.833908183208214804e-14
4.573000000000000000e+03 3.555241394042968750e+01 -8.410870552062988281e+00 -1.108476239400010832e-13 1.240599284543439373e-13 3.963694064808287454e-15 7.874832106931697884e-14
4.574000000000000000e+03 5.986799240112304688e+01 2.956162071228027344e+01 4.875811668476892624e-14 -2.536093622433621686e-13 -6.145537095707254149e-14 7.401960039907576339e-14
4.575000000000000000e+03 7.260719299316406250e+01 -3.002281761169433594e+01 -7.787678515296450610e-14 -5.625124118672358842e-14 -4.023840857953278616e-14 4.799657985507868596e-14
4.576000000000000000e+03 1.934046554565429688e+01 -1.874525451660156250e+01 1.180825727996326346e-13 -1.323969823748341601e-13 -4.294324058406583794e-15 1.593654949758743777e-13
4.577000000000000000e+03 2.010340690612792969e+01 -2.060883331298828125e+01 -4.060416418242077108e-14 -1.317791497668432954e-13 -5.171499689528465116e-14 6.852996631539348682e-14
4.578000000000000000e+03 5.634309387207031250e+01 2.944285392761230469e+01 7.374781801948795956e-14 7.735715415674651596e-14 4.533149233049670046e-14 1.006820969369319474e-13
4.579000000000000000e+03 1.284718513488769531e+01 -6.561877250671386719e+00 1.227794585835842445e-14 9.676387160073227078e-14 3.271254456010085077e-14 1.626271071476260988e-14
4.580000000000000000e+03 4.291040802001953125e+01 1.774201965332031250e+01 -9.485713267382706038e-14 -2.492616708741138276e-14 -3.593498992837153294e-14 -3.660230958927278289e-14
4.581000000000000000e+03 4.456405639648437500e+01 1.750149345397949219e+01 -1.725145905035613270e-14 -1.446463256246297013e-13 -4.856933675774846582e-14 -8.095315799541528967e-15
4.582000000000000000e+03 4.423088455200195312e+01 -2.312779617309570312e+01 7.626890655490492499e-14 2.156904754628541365e-13 8.758781460532771845e-14 1.577767529696756394e-15
4.583000000000000000e+03 3.987897872924804688e+01 -1.480782985687255859e+01 -5.150831492692397109e-15 1.350453494690373457e-13 3.896835382589253216e-14 1.387438883400371470e-13
4.584000000000000000e+03 3.920895004272460938e+01 -1.516159343719482422e+01 -1.482697563901305693e-13 4.854671894517770259e-13 1.011592339842520838e-13 -2.069996565378772607e-14
4.585000000000000000e+03 5.046446228027343750e+01 2.309776306152343750e+01 -1.044601146034385142e-13 1.839861271148157673e-13 2.385780273697363923e-14 -8.964222186812545456e-14
4.586000000000000000e+03 5.937195968627929688e+01 2.959778022766113281e+01 -1.217505778269498129e-13 -1.894316680513957740e-13 -9.335467240825096047e-14 7.004473227562729720e-14
4.587000000000000000e+03 6.047560119628906250e+01 2.866866683959960938e+01 1.874642070265677973e-13 -6.977849965590990355e-14 3.530571221119736813e-14 4.632138585463491109e-14
4.588000000000000000e+03 2.146478652954101562e+01 -2.159778976440429688e+01 -2.860911716404991589e-14 1.707427466557040474e-13 4.264008918630941836e-14 1.682010786078005915e-13
4.589000000000000000e+03 2.113419342041015625e+01 -2.094844818115234375e+01 1.821668189287261458e-14 -2.209475956143833186e-13 -6.081927631873887408e-14 1.088717027500959306e-14
4.590000000000000000e+03 4.925376892089843750e+01 2.210043907165527344e+01 -4.689995001519106643e-14 -6.585092985223611750e-14 -3.382526463785451298e-14 3.563983621570308846e-14
4.591000000000000000e+03 4.654735565185546875e+01 -2.438973045349121094e+01 -2.590434275775727740e-14 3.549057206973793566e-13 9.870041253485367649e-14 -4.527599134366080968e-14
4.592000000000000000e+03 4.594149780273437500e+01 -2.373954772949218750e+01 6.377012480763720112e-15 2.772387083360000615e-13 8.508471027344685633e-14 -3.887122286376498703e-14
4.593000000000000000e+03 4.573145675659179688e+01 -2.502313041687011719e+01 -6.419355064873899508e-14 1.823942642157228705e-14 -1.378623794577637021e-14 -1.697113201415466430e-15
4.594000000000000000e+03 5.839057922363281250e+01 2.915184974670410156e+01 -3.924357515924618844e-14 -1.681867434222012597e-14 -1.681867434222012597e-14 4.979153753800064086e-14
4.595000000000000000e+03 5.939697647094726562e+01 2.914793586730957031e+01 1.572734320163735044e-13 -3.901065939466291654e-13 -6.984994857907669830e-14 1.470196611208594156e-14
4.596000000000000000e+03 7.279998016357421875e+01 2.815367126464843750e+01 -1.054190914250019429e-13 1.378241867421720057e-13 9.721527578711482154e-15 -6.635423682949462276e-14
4.597000000000000000e+03 2.982964706420898438e+01 3.118716925382614136e-02 -2.022228142318366340e-14 2.200880536845639668e-13 5.995972761265594420e-14 -2.145884652696855577e-13
4.598000000000000000e+03 4.005859756469726562e+01 -1.691273117065429688e+01 6.566204150499840853e-14 2.814087565674184416e-14 2.814087565674184416e-14 6.014700998542565902e-14
4.599000000000000000e+03 1.903727149963378906e+01 -1.831518173217773438e+01 2.234795634409748183e-14 -1.762855269746288478e-13 -4.618127305263189375e-14 8.578363442767605873e-14
4.600000000000000000e+03 6.710593700408935547e+00 -2.453558158874511719e+01 2.353179669623440412e-14 1.930888446095152533e-13 6.498619730451599130e-14 -5.858167954637255592e-14
4.601000000000000000e+03 3.470075607299804688e+01 6.944301605224609375e+00 7.839341426441742700e-14 -1.036556704727721601e-13 -7.578675676660293764e-15 -1.779450339248894730e-13
4.602000000000000000e+03 3.405144119262695312e+01 6.959672927856445312e+00 1.276023964226144503e-13 -1.283170482846082705e-13 -2.143978032354562982e-16 -7.150850007617282067e-14
4.603000000000000000e+03 5.538964462280273438e+01 2.736672210693359375e+01 -8.666295627087969300e-14 5.436062976713409989e-14 -9.690698120530267384e-15 -5.803985628693650312e-14
4.604000000000000000e+03 4.735160827636718750e+01 -2.848575401306152344e+01 -4.503367893437387748e-14 3.781612067758899354e-13 9.993825970770753298e-14 -6.405216390918330727e-14
4.605000000000000000e+03 7.342920684814453125e+01 -2.322292137145996094e+01 1.746559575568559786e-14 9.898715012815820224e-14 3.493582647565857124e-14 1.641813312906748035e-13
4.606000000000000000e+03 8.409976959228515625e+00 -6.467903137207031250e+00 2.285761395087802621e-15 2.385508714934474195e-14 7.842254542153939689e-15 -4.262958597776346503e-14
4.607000000000000000e+03 3.100136947631835938e+01 7.278938293457031250e-01 2.381552901664207161e-14 1.474595050015778397e-13 5.138250935843302614e-14 -1.673229832683045815e-13
4.608000000000000000e+03 2.930531692504882812e+01 -2.834732830524444580e-01 5.587801136510903155e-14 1.154496149288058993e-13 5.139828788817447924e-14 -9.298531183313946125e-14
4.609000000000000000e+03 3.013360404968261719e+01 -2.461071491241455078e+00 4.595407171112397826e-14 2.598870825574334242e-13 9.175234357006178953e-14 -2.028550531761943998e-13
4.610000000000000000e+03 4.506970596313476562e+01 1.805805587768554688e+01 -6.274963052421353438e-14 -2.098964990530916008e-13 -8.179383819556518276e-14 -6.756970200375023161e-14
4.611000000000000000e+03 6.157315731048583984e+00 -2.175487136840820312e+01 -2.927145627122131055e-14 3.320603950769836221e-14 1.180374293316757695e-15 -6.842319273019439874e-14
4.612000000000000000e+03 5.442319869995117188e+00 -2.325253868103027344e+01 4.363852080255595234e-14 6.445316963520422715e-14 3.242750780895441165e-14 -6.347530059078523856e-14
4.613000000000000000e+03 6.303704261779785156e+00 -2.105784797668457031e+01 -4.722783646907320609e-14 1.170123432826450371e-13 2.093535272169790712e-14 5.224290848559499933e-14
4.614000000000000000e+03 6.827722167968750000e+01 2.811142539978027344e+01 -2.628929382129593928e-14 1.259860000612372799e-13 2.990901458248783340e-14 3.956417035351836309e-14
4.615000000000000000e+03 7.394795227050781250e+01 -2.882923889160156250e+01 1.195769557590237175e-13 1.885001079922690725e-13 9.242311912538783703e-14 -3.942198062672867820e-14
4.616000000000000000e+03 4.768091583251953125e+01 2.162479019165039062e+01 4.213122906104871390e-14 4.665058351551940041e-14 2.663454445059679210e-14 4.783219108880736037e-14
4.617000000000000000e+03 7.499761199951171875e+01 2.686467170715332031e+01 -1.030718004978344038e-13 1.577320825696198157e-15 -3.044834417692716955e-14 9.191952076879547628e-14
4.618000000000000000e+03 7.419352722167968750e+01 2.651128387451171875e+01 -2.056111493087611763e-13 -2.711228594062808916e-13 -1.430201985487544736e-13 2.067840798765374632e-13
4.619000000000000000e+03 7.384432983398437500e+01 -2.181449699401855469e+01 -1.163413712156752267e-13 1.331432116251016207e-13 5.040549497025781714e-15 1.233911925543548782e-13
4.620000000000000000e+03 3.195873832702636719e+01 2.036537170410156250e+00 1.000096815258200156e-13 2.487405626524358260e-13 1.046250691877186056e-13 -8.897038243941765567e-14
4.621000000000000000e+03 6.007408142089843750e+00 -1.529933929443359375e+01 -5.868992358076807747e-14 8.922454653370257005e-14 9.160387732913295028e-15 3.230602295552741088e-14
4.622000000000000000e+03 7.384460449218750000e+01 -1.662093734741210938e+01 5.761886058336038174e-14 4.756927206197962554e-14 3.155643945478882328e-14 -3.006815513261797135e-14
4.623000000000000000e+03 5.821748733520507812e+00 -1.454412269592285156e+01 6.713924663621917421e-14 5.898488416992454797e-15 2.191132102418325706e-14 5.089789470425452877e-14
4.624000000000000000e+03 7.287828826904296875e+01 -2.381209754943847656e+01 -5.131644502371192698e-15 1.579290490700754890e-13 4.583922081973987317e-14 4.039318860405045897e-14
4.625000000000000000e+03 7.326865386962890625e+01 -2.568214035034179688e+01 -3.708796101177871951e-14 1.671089617594559429e-13 3.900629751379773580e-14 1.024460599902479729e-13
4.626000000000000000e+03 7.419702148437500000e+01 1.765570449829101562e+01 3.455809043876462150e-14 2.435653675275650798e-13 8.343703467939347918e-14 7.163866532324328351e-14
4.627000000000000000e+03 7.421641540527343750e+01 1.842224311828613281e+01 -6.579802756248240292e-14 1.090536894728794115e-13 1.297669891193228148e-14 -1.622762661008733676e-14
4.628000000000000000e+03 7.394812011718750000e+01 -7.872691631317138672e+00 9.475742334340807316e-15 3.700686133402408817e-13 1.138633051777152017e-13 -1.389441540338223757e-13
4.629000000000000000e+03 7.398907470703125000e+01 -1.502527999877929688e+01 3.796029652723340031e-14 2.450234297141778983e-13 8.489512397106060981e-14 -2.521534921780168442e-14
4.630000000000000000e+03 7.423421478271484375e+01 1.918590354919433594e+01 7.906447442281375193e-14 3.083904659417768812e-13 1.162364882080144102e-13 1.203323871752301488e-13
4.631000000000000000e+03 7.322257995605468750e+01 -8.711053848266601562e+00 4.019039197581883438e-14 4.747339674149309019e-13 1.544773017185877007e-13 -1.221361963524509112e-14
4.632000000000000000e+03 7.316341400146484375e+01 -1.307362794876098633e+00 1.142898303123709991e-13 3.692380060558997368e-13 1.450583495552285052e-13 9.498882935646615899e-14
4.633000000000000000e+03 7.394338226318359375e+01 -5.730963945388793945e-01 2.245475262977955633e-13 4.164913043353674071e-13 1.923116478346961755e-13 6.136878386107241790e-14
4.634000000000000000e+03 7.392305755615234375e+01 5.794977664947509766e+00 1.258853589945763130e-13 -1.519283966211829040e-13 -7.812914167893997980e-15 -7.904139616313286126e-15
4.635000000000000000e+03 7.392639160156250000e+01 -9.513856887817382812e+00 2.528264937359282760e-14 4.225939531036365659e-13 1.343629797267292814e-13 -9.498258841771078931e-14
4.636000000000000000e+03 6.232346534729003906e+00 -2.245795059204101562e+01 4.416707274977442477e-14 1.333061130015175677e-13 5.324195674182713445e-14 7.066385237369798844e-14
4.637000000000000000e+03 5.997410774230957031e+00 -2.623106193542480469e+01 -8.016837519352060237e-14 -1.148240065583592401e-14 -2.749523326302672627e-14 -4.678720315364794102e-14
4.638000000000000000e+03 7.387879180908203125e+01 -1.744690895080566406e+01 -2.916453022009171669e-14 3.763839825747516965e-13 1.041658350287716361e-13 -5.178458234596748644e-14
4.639000000000000000e+03 7.277102661132812500e+01 1.149400329589843750e+01 3.100174256510392599e-15 5.045891005375779947e-13 1.523067831793803451e-13 -1.779432314387777159e-13
4.640000000000000000e+03 7.314316558837890625e+01 5.769939422607421875e+00 2.157259424264215686e-13 1.839558643216762657e-13 1.199045474454402127e-13 -7.626257074845946282e-14
4.641000000000000000e+03 7.395197296142578125e+01 -7.055562019348144531e+00 3.872406952390439194e-14 3.826036167574320412e-13 1.263983085949063612e-13 2.470987281975867145e-13
4.642000000000000000e+03 7.465901184082031250e+01 -6.259797573089599609e+00 6.038839404660240051e-14 3.003864247185655811e-13 1.082324469848031101e-13 1.390950885287595140e-13
4.643000000000000000e+03 7.390991973876953125e+01 -2.156407594680786133e+00 9.177692785432289835e-14 4.968424760151690656e-13 1.765858103188258643e-13 9.128194890500179737e-14
4.644000000000000000e+03 7.266365051269531250e+01 -2.498165130615234375e+01 4.783132711520116098e-14 2.206595366496810762e-13 8.054726319522281797e-14 9.687293895115252351e-15
4.645000000000000000e+03 7.398273468017578125e+01 -2.722895431518554688e+01 -4.842902273248091637e-17 1.829830368173593347e-13 5.488038273609649464e-14 1.322546401821139694e-13
4.646000000000000000e+03 4.557400512695312500e+01 1.859932136535644531e+01 6.153074333685101815e-15 2.637031887544791751e-15 2.637031887544791751e-15 1.510008210050400868e-13
4.647000000000000000e+03 7.410620117187500000e+01 1.140736675262451172e+01 5.297126195254360514e-14 1.142038666326200547e-13 5.015253959198863465e-14 -1.190559966151444327e-13
4.648000000000000000e+03 7.467269897460937500e+01 7.356576919555664062e+00 1.383087980082187141e-13 1.279016226696932934e-13 7.986312484812088663e-14 -6.057160388496171666e-14
4.649000000000000000e+03 7.388063049316406250e+01 6.609335899353027344e+00 1.537734918783187354e-13 1.345293505500971820e-13 8.649085272852477524e-14 -9.216232106906002697e-14
4.650000000000000000e+03 7.470987701416015625e+01 1.722935557365417480e+00 3.230392841245544044e-13 1.192559074021247618e-15 9.726955027024308809e-14 -8.910207234579317626e-14
4.651000000000000000e+03 4.397962570190429688e+01 1.889094924926757812e+01 3.763067534987528384e-14 -3.888608405682456373e-15 1.012261970209302198e-14 5.726761296079296848e-14
4.652000000000000000e+03 7.467132568359375000e+01 -1.273244285583496094e+01 -6.237731888631380117e-15 2.260814284263737428e-13 6.595310913072929826e-14 2.712292196394017196e-13
4.653000000000000000e+03 5.132324218750000000e+00 -2.385317802429199219e+01 3.423385977908283140e-14 1.467165419103549917e-14 1.467165419103549917e-14 -8.056344491264716412e-14
4.654000000000000000e+03 6.119617462158203125e+00 -2.378531074523925781e+01 -2.480491940320961319e-14 -1.021325764846009454e-13 -3.808124944396952538e-14 2.431627456626807987e-14
4.655000000000000000e+03 7.384739685058593750e+01 2.601361465454101562e+01 8.032966551327087174e-15 3.442699980819928333e-15 3.442699980819928333e-15 -4.521198953416627475e-14
4.656000000000000000e+03 7.396566009521484375e+01 2.046947628259658813e-01 2.915785288996192159e-13 -1.229061747124934878e-14 8.378637817189546477e-14 9.650200967102270933e-14
4.657000000000000000e+03 7.469873809814453125e+01 9.329965710639953613e-01 4.081121833705847468e-13 -9.960046974460609603e-14 9.255351476541995304e-14 1.359279713526034827e-13
4.658000000000000000e+03 7.389865112304687500e+01 -2.965870857238769531e+00 3.001754660808542141e-13 3.574013643630608028e-13 1.972730518436799363e-13 8.277546129000640240e-14
4.659000000000000000e+03 7.400867462158203125e+01 4.161414623260498047e+00 1.254475852623809784e-13 1.910160940012117781e-13 9.493910513433054255e-14 -1.007892703216821395e-13
4.660000000000000000e+03 7.402890014648437500e+01 3.354764938354492188e+00 3.329493798720495334e-13 2.113190129609740509e-13 1.632805219156652221e-13 -9.090106868180763966e-14
4.661000000000000000e+03 7.418074798583984375e+01 1.687718009948730469e+01 -1.404759673791526262e-14 2.684852936762210929e-13 7.633130916619504380e-14 8.720213678752031239e-14
4.662000000000000000e+03 7.390162658691406250e+01 -2.111386299133300781e+01 9.643081146960830186e-14 4.132748966179447536e-14 4.132748966179447536e-14 3.200658325614585964e-14
4.663000000000000000e+03 7.462662506103515625e+01 -2.051333618164062500e+01 1.042692746922903313e-13 -2.393959054429461997e-14 2.409890558321189230e-14 2.750757114493643241e-14
4.664000000000000000e+03 7.465028381347656250e+01 -5.447614192962646484e+00 3.429465302777316704e-14 3.578298139565727620e-13 1.176373451775014622e-13 -1.526553135202529665e-13
4.665000000000000000e+03 5.635315418243408203e+00 -1.843930625915527344e+01 -4.719799380427554258e-14 -2.489824481571173420e-13 -8.885413563773647549e-14 7.393743142692851822e-14
4.666000000000000000e+03 7.392850494384765625e+01 -5.419597625732421875e+00 6.640887384272431415e-14 3.487175825878097157e-13 1.245379396396656402e-13 1.431415478769099137e-13
4.667000000000000000e+03 7.389031219482421875e+01 7.416292190551757812e+00 2.498738724070713457e-15 9.257278645903588288e-14 2.852145603027267384e-14 -1.049698929124140423e-13
4.668000000000000000e+03 7.389669036865234375e+01 -3.780343055725097656e+00 3.681902127476190112e-14 4.732890511796594701e-13 1.530324261408977371e-13 1.911831153458831700e-13
4.669000000000000000e+03 7.403089141845703125e+01 2.556771039962768555e+00 2.304140493854245353e-13 9.874887637196377854e-14 9.874887637196377854e-14 -2.075389962967119639e-13
4.670000000000000000e+03 7.402877807617187500e+01 -1.427739715576171875e+01 6.021780838728896246e-14 3.460642688211945650e-13 1.218846258730504895e-13 1.312170451505181856e-13
4.671000000000000000e+03 7.468679809570312500e+01 -1.351215457916259766e+01 3.287877985819719073e-14 1.970947005863060708e-13 6.899204650504323078e-14 -2.399970142324264755e-13
4.672000000000000000e+03 7.399153137207031250e+01 9.828617572784423828e-01 2.712503344767108748e-13 -6.675365690983828260e-14 6.134899717142455744e-14 -1.348013904277009511e-13
4.673000000000000000e+03 7.481404113769531250e+01 1.371483135223388672e+01 2.759821552875390410e-14 2.405825376156772721e-13 8.045423187255998365e-14 -3.585924824222805340e-14
4.674000000000000000e+03 7.413789367675781250e+01 1.297018432617187500e+01 1.589584211058193280e-14 9.831440268013094674e-14 3.426307225136773771e-14 -3.775615819881332491e-14
4.675000000000000000e+03 3.114040374755859375e+01 -3.623618841171264648e+00 1.292563874943225555e-13 2.426885461256217402e-13 1.115834787307305731e-13 -7.779776714338104693e-14
4.676000000000000000e+03 7.392230224609375000e+01 -1.033723831176757812e+01 -4.701140599852257629e-14 2.086070031992459661e-13 4.847867712733794354e-14 2.316289792348574794e-13
4.677000000000000000e+03 7.393243408203125000e+01 -1.115580177307128906e+01 5.327596342059350010e-14 5.718439502304384359e-13 1.875359676578591817e-13 2.386982213449517776e-14
4.678000000000000000e+03 7.416953277587890625e+01 1.609359169006347656e+01 -2.491931459086809547e-14 -1.067970564820565002e-14 -1.067970564820565002e-14 2.390211103044451169e-14
4.679000000000000000e+03 7.408717346191406250e+01 1.061839675903320312e+01 1.555214493970634437e-14 1.896689999069528509e-13 6.156634582569001091e-14 -1.498372315166061203e-14
4.680000000000000000e+03 7.405934906005859375e+01 9.826821327209472656e+00 1.290460709075852072e-14 1.427833952417564833e-13 4.670639959861166979e-14 -1.994334195400473964e-13
4.681000000000000000e+03 7.394829559326171875e+01 8.221242904663085938e+00 1.335829098161531170e-13 1.030007649267458691e-13 7.097509971236426463e-14 -7.479368686891252338e-14
4.682000000000000000e+03 7.395543670654296875e+01 -1.196457004547119141e+01 -1.175520049139996970e-13 -2.750395770238344556e-14 -4.351678861550835331e-14 2.437759737995703890e-13
4.683000000000000000e+03 7.415702819824218750e+01 1.452518272399902344e+01 8.132900684290275684e-14 2.178590830957324864e-13 8.975642901446964639e-14 5.964214446754420584e-14
4.684000000000000000e+03 7.414913177490234375e+01 1.374594020843505859e+01 -2.071371215148871611e-15 9.061416845817724108e-14 2.656283802941403205e-14 1.704244248978623033e-13
4.685000000000000000e+03 7.400882720947265625e+01 -1.353309440612792969e+01 -1.830328152496035754e-13 -7.844263704304826890e-14 -7.844263704304826890e-14 3.529705553447642918e-13
4.686000000000000000e+03 7.394300842285156250e+01 -1.823872375488281250e+01 9.638003353848630106e-15 9.563247275242575673e-14 3.158114232366254770e-14 -3.990525358071872475e-14
4.687000000000000000e+03 7.400954437255859375e+01 -1.897684288024902344e+01 -1.315644777366911655e-13 3.553737707752413488e-13 6.714278384580690817e-14 6.537196321374991181e-14
4.688000000000000000e+03 5.137797355651855469e+00 -1.139037513732910156e+01 -5.693088009480970491e-14 -2.439894837005188860e-14 -2.439894837005188860e-14 1.088300524460135421e-13
4.689000000000000000e+03 5.896414279937744141e+00 -1.006221771240234375e+01 6.126391440593875748e-14 -2.024987843423156630e-13 -4.237046165853942947e-14 -1.511908579289542726e-14
4.690000000000000000e+03 7.396758270263671875e+01 -2.040642929077148438e+01 -3.709322616857885224e-14 4.416124041971281056e-13 1.213557520533120604e-13 6.508069230011168105e-14
4.691000000000000000e+03 5.130841255187988281e+00 -1.215170860290527344e+01 4.214567266686529423e-14 -1.649413705661142981e-13 -3.683870632045609106e-14 -1.105168355512416503e-15
4.692000000000000000e+03 7.374274253845214844e+00 -9.833991050720214844e+00 2.404515287237913440e-14 -1.726987286900308338e-13 -4.459607460876799379e-14 -6.944961370315000382e-14
4.693000000000000000e+03 5.671804904937744141e+00 -1.926184463500976562e+01 -9.678448499453665144e-14 4.271884885084396496e-15 -2.775377990578073439e-14 1.859513451963994146e-14
4.694000000000000000e+03 7.437399291992187500e+01 2.368464088439941406e+01 8.086791598773540590e-14 3.465768118457099312e-14 3.465768118457099312e-14 7.733198033755411815e-14
4.695000000000000000e+03 7.329151153564453125e+01 -2.752390289306640625e+01 5.950039180975530417e-14 3.457568161901319881e-13 1.215771596894607565e-13 -1.464912819683621831e-14
4.696000000000000000e+03 7.245399475097656250e+00 -2.535510253906250000e+01 -2.369515547044186848e-14 -5.590601427434525872e-14 -2.388035075402954871e-14 -6.754715059856253312e-14
4.697000000000000000e+03 5.131118774414062500e+00 -1.291318702697753906e+01 5.055511402302786950e-14 2.166647768044992900e-14 2.166647768044992900e-14 -7.142789642091210145e-14
4.698000000000000000e+03 6.682655811309814453e+00 -9.531387329101562500e+00 -1.384774524324124123e-14 -1.889385457982950545e-13 -6.083588494076863640e-14 7.995651361868746226e-15
4.699000000000000000e+03 7.493444824218750000e+01 2.073436737060546875e+01 -3.314989223472371641e-15 -1.386735507240971499e-13 -4.259656524534770339e-14 1.158051383736910522e-13
4.700000000000000000e+03 7.426685333251953125e+01 2.071311759948730469e+01 1.606153361352613551e-13 1.145860885560026632e-13 8.256043011788463670e-14 -7.241596374201603181e-15
4.701000000000000000e+03 3.778565597534179688e+01 1.182408809661865234e+01 -5.079283212560889438e-14 -1.590212065760016058e-13 -6.294421093285679225e-14 -6.772828690026697074e-14
4.702000000000000000e+03 7.438804626464843750e+01 2.297525405883789062e+01 2.025892068035009541e-14 1.916861851539164441e-13 6.358353107265360404e-14 6.872664736574593536e-14
4.703000000000000000e+03 5.864116668701171875e+00 -1.084976959228515625e+01 3.661908761789199607e-14 1.569389420936345703e-14 1.569389420936345703e-14 5.008712493153807954e-14
4.704000000000000000e+03 5.773174285888671875e+00 -1.381568527221679688e+01 4.378119842032325570e-14 1.876337220362359060e-14 1.876337220362359060e-14 -7.355671383406023334e-14
4.705000000000000000e+03 7.433638000488281250e+01 2.224131393432617188e+01 9.815671225040650816e-14 1.793200055675084337e-13 8.324301670062719816e-14 5.400118371267021225e-15
4.706000000000000000e+03 5.111751556396484375e+01 2.412381172180175781e+01 -6.213054430746073331e-14 1.106254709148588034e-13 1.454847865984577882e-14 3.505256540348210617e-15
4.707000000000000000e+03 6.498661041259765625e+00 -2.027987098693847656e+01 5.105489056696221883e-14 6.763161672406273195e-14 3.560595150968112743e-14 9.703712442951650807e-14
4.708000000000000000e+03 2.292026138305664062e+01 -2.373104667663574219e+01 -8.107154779045302323e-15 -1.864782877810181039e-13 -5.837563369975526384e-14 -6.084453145309420830e-14
4.709000000000000000e+03 7.165013313293457031e+00 -1.790292739868164062e+01 -1.230584644601462330e-13 -3.272450398768972368e-13 -1.350910485906076097e-13 3.257425796113211369e-14
4.710000000000000000e+03 7.393613433837890625e+01 2.795053291320800781e+01 6.681834989821777704e-14 -2.916202164731512836e-13 -6.744055997248005196e-14 -9.858961384908923598e-14
4.711000000000000000e+03 6.637521266937255859e+00 -2.748856735229492188e+01 -5.604166914194687668e-15 1.119755872226735338e-13 3.191142418671952252e-14 4.657264293184484871e-14
4.712000000000000000e+03 4.123543167114257812e+01 -1.863582992553710938e+01 -4.553367485984156568e-15 1.353013973645969537e-13 3.922441188584750715e-14 -1.173750766719772187e-13
4.713000000000000000e+03 2.372084617614746094e+01 -2.347117042541503906e+01 -1.229470626869233474e-13 -1.899444414688727933e-13 -9.386745260199155783e-14 8.615054877163588753e-14
4.714000000000000000e+03 4.301961898803710938e+01 -2.114680099487304688e+01 1.523409355478136384e-13 -2.621292702483738607e-14 3.783840170985992846e-14 6.167633813608866533e-14
4.715000000000000000e+03 4.167522811889648438e+01 -2.220292472839355469e+01 -8.430577877515180174e-14 -1.161952072102970246e-13 -6.015029647326100570e-14 5.070631279224455112e-14
4.716000000000000000e+03 3.263408279418945312e+01 2.371820688247680664e+00 1.725255680505577427e-13 2.340678378117549974e-13 1.219780298902101157e-13 -1.349317928439966452e-13
4.717000000000000000e+03 3.273652267456054688e+01 4.001170158386230469e+00 9.470940335156233236e-14 -7.378762856800891168e-14 6.276533620912152361e-15 -9.332722176449634310e-14
4.718000000000000000e+03 4.134793472290039062e+01 1.402538967132568359e+01 -3.717677749849601643e-14 6.942570450414785668e-15 -9.070261733259542963e-15 5.376226197627113901e-14
4.719000000000000000e+03 4.296263122558593750e+01 1.674153327941894531e+01 2.753848784751121437e-14 -1.854987517757589188e-13 -4.738808155016656365e-14 -4.538215167700608565e-14
4.720000000000000000e+03 4.142985153198242188e+01 -1.758266639709472656e+01 8.938576062048758653e-15 1.868346108250054649e-13 5.873195674374262487e-14 -9.395414134194535194e-14
4.721000000000000000e+03 4.080753326416015625e+01 -1.806181144714355469e+01 -1.504301376390251854e-14 2.223077407922935400e-13 6.217941472038551742e-14 7.438496975493980035e-14
4.722000000000000000e+03 5.166165161132812500e+01 2.420552635192871094e+01 -7.961837976020944008e-14 -7.987311306063490934e-14 -4.784744784625330483e-14 -7.442392310611813111e-15
4.723000000000000000e+03 4.247507095336914062e+01 -1.758897018432617188e+01 3.009326796543816684e-14 -1.014802594712614636e-13 -2.141609643530745233e-14 2.798294043449564908e-15
4.724000000000000000e+03 2.893992614746093750e+01 -6.924529075622558594e-01 -5.836681778084024108e-14 1.122384994732376906e-13 1.616150552415877156e-14 -1.564628282621147171e-13
4.725000000000000000e+03 2.971792602539062500e+01 -1.898108124732971191e+00 -1.155391158181445777e-13 7.629834264388790643e-14 -1.177223076643087521e-14 -1.298691785622113626e-13
4.726000000000000000e+03 2.838494682312011719e+01 -2.463642358779907227e-01 -8.480159289895889546e-15 1.336184987524649537e-13 3.754149972118835110e-14 -2.228662607651858696e-14
4.727000000000000000e+03 5.252957153320312500e+01 2.538678359985351562e+01 -1.183534149726489862e-15 4.524371938837042084e-14 1.321805586805471083e-14 2.737452090364762142e-14
4.728000000000000000e+03 5.224536514282226562e+01 2.601999092102050781e+01 -5.033464151125294217e-14 1.156808616996699013e-13 1.960386605652508774e-14 -3.954262522347200270e-14
4.729000000000000000e+03 1.810480690002441406e+01 -1.743743896484375000e+01 -4.401156935911979678e-15 -5.051466515047786654e-13 -1.528643476991081718e-13 1.438526760818431560e-13
4.730000000000000000e+03 5.672884368896484375e+01 2.830736732482910156e+01 3.465431338157271002e-14 -5.377457444719242752e-14 -5.736078319685915250e-15 3.710705313440983144e-14
4.731000000000000000e+03 5.294066238403320312e+01 2.642391204833984375e+01 -1.333980923092599122e-14 -1.429699051204783022e-13 -4.689291625359706672e-14 -6.765323978114023973e-14
4.732000000000000000e+03 4.983861923217773438e+01 2.259915351867675781e+01 2.668326070352517593e-14 5.718662983477187933e-14 2.516096800852206383e-14 -9.769001742526012277e-14
4.733000000000000000e+03 6.851365566253662109e+00 -7.438000202178955078e+00 -4.340808718332131444e-14 -3.846110441848432648e-13 -1.284057495748447408e-13 -2.947842707781700433e-14
4.734000000000000000e+03 3.018930816650390625e+01 -5.503415465354919434e-01 5.892317612565117768e-14 1.625056426229898321e-13 6.642864697984501854e-14 -1.240337178668241003e-13
4.735000000000000000e+03 2.957004165649414062e+01 -7.758131623268127441e-01 -1.381606824389300381e-13 1.695430227417402125e-13 9.414703446095767925e-15 -6.301003555725381844e-14
4.736000000000000000e+03 4.471648406982421875e+01 -2.374434852600097656e+01 -7.617785390120687672e-14 5.885424797253541174e-14 -5.197081185678376417e-15 -4.198098574499653513e-14
4.737000000000000000e+03 2.740294456481933594e+01 -9.127117395401000977e-01 -9.642097911115657394e-14 -1.328251744703301540e-13 -6.877384404156694497e-14 -2.084025091169880439e-13
4.738000000000000000e+03 4.028643417358398438e+01 1.253833484649658203e+01 -9.560914885319016232e-15 -4.984848525711044198e-14 -1.782282004272883746e-14 -1.194619354610501616e-13
4.739000000000000000e+03 4.273057937622070312e+01 -2.234444236755371094e+01 -1.321560540173830414e-14 -5.141478131372341498e-14 -1.938911609934181046e-14 6.401345111536199672e-14
4.740000000000000000e+03 4.438737869262695312e+01 -2.201996231079101562e+01 -1.383673889712461885e-14 1.313228090724441466e-13 3.524582359369470008e-14 2.087750079491691203e-15
4.741000000000000000e+03 4.347951889038085938e+01 1.732905387878417969e+01 5.322704218569188073e-14 -2.316780664882167606e-13 -5.353530796838382178e-14 8.376689980224040488e-15
4.742000000000000000e+03 2.336286926269531250e+01 -3.178330421447753906e+01 -9.719448959858920101e-15 -2.729523150470786197e-13 -8.480152344225722061e-14 2.115683150861417255e-14
4.743000000000000000e+03 1.155787372589111328e+01 -5.976250648498535156e+00 3.110250772209166570e-14 -1.696741434419751782e-13 -4.157149274884412715e-14 -1.381268824362028025e-13
4.744000000000000000e+03 1.107707023620605469e+01 -5.959391593933105469e+00 4.514445051508400586e-14 -3.466599565998124133e-13 -9.045465521355031124e-14 -8.017908168997389673e-14
4.745000000000000000e+03 4.607396316528320312e+01 1.912574005126953125e+01 -5.671124106345487581e-14 -7.005576403273233721e-14 -3.803010220648252171e-14 3.956071107096177653e-14
4.746000000000000000e+03 3.328787612915039062e+01 -3.907102108001708984e+00 -1.476122284300995791e-14 2.696091776482195668e-13 7.645438644156288266e-14 -1.074967887057173832e-13
4.747000000000000000e+03 5.536164093017578125e+01 3.065997695922851562e+01 -2.277208911889705423e-13 -2.348475146990436357e-13 -1.387705190558988222e-13 2.176432692651674577e-14
4.748000000000000000e+03 5.428784942626953125e+01 3.066965866088867188e+01 -1.324636963838258033e-14 -3.259336702442217071e-13 -1.017540069672868974e-13 1.030935048700748480e-13
4.749000000000000000e+03 4.237953186035156250e+01 1.714953804016113281e+01 -1.141315994756262123e-14 -3.980635807955545946e-13 -1.228430199359462072e-13 7.333628197986677422e-14
4.750000000000000000e+03 1.638545799255371094e+01 -1.151485061645507812e+01 -1.495835112675855672e-13 -4.123174783370042729e-14 -5.724458044089122954e-14 9.707521380708863945e-14
4.751000000000000000e+03 1.586525154113769531e+01 -1.233644294738769531e+01 -7.653427181288433023e-14 1.959543367412858172e-13 3.582602083377316171e-14 1.075076917138144406e-13
4.752000000000000000e+03 7.545527458190917969e+00 -7.195098400115966797e+00 -1.123000008414719308e-14 -9.631475440330730664e-14 -3.226342736267588662e-14 5.930011256344291937e-14
4.753000000000000000e+03 3.527172470092773438e+01 9.787391662597656250e+00 -1.622352154961176351e-13 1.053478339312812276e-14 -4.551012819094084338e-14 -8.438304850873212803e-14
4.754000000000000000e+03 1.460746097564697266e+01 -6.473675251007080078e+00 -4.134668342837925781e-14 7.378188907275831654e-14 9.730562032126896521e-15 -1.148110130729483591e-14
4.755000000000000000e+03 4.162255859375000000e+01 1.343918228149414062e+01 -1.991500158684232635e-14 2.087820069824122826e-13 5.666010060223145017e-14 -7.409444423029515336e-14
4.756000000000000000e+03 1.475097274780273438e+01 -7.982979774475097656e+00 4.291628376051946983e-15 -2.269154780526125292e-13 -6.678715198070450665e-14 4.119435048204620267e-15
4.757000000000000000e+03 1.549014091491699219e+01 -7.351251602172851562e+00 -7.578718875340603733e-14 -3.527368555664850414e-13 -1.285572126183409658e-13 4.023173141880958051e-15
4.758000000000000000e+03 6.848724365234375000e+00 -8.750794410705566406e+00 6.243587596802338546e-14 -1.104946144889033810e-13 -1.441762053982446196e-14 -8.196659903548716986e-14
4.759000000000000000e+03 1.370611858367919922e+01 -8.463662147521972656e+00 -2.866676622644004357e-14 3.918405923624031229e-14 3.155187987643375339e-15 1.706092915326664489e-14
4.760000000000000000e+03 1.338822364807128906e+01 -6.800295352935791016e+00 4.472614160001657513e-14 -2.324618633437608439e-13 -5.632071821718917515e-14 3.596723477860760965e-14
4.761000000000000000e+03 1.519647312164306641e+01 -1.237073040008544922e+01 -6.740032251935368368e-14 -2.888584960418147385e-14 -2.888584960418147385e-14 4.587269217368357410e-14
4.762000000000000000e+03 2.176655197143554688e+01 -2.225490951538085938e+01 -6.462720441267888472e-14 -7.344832072186599503e-14 -4.142265889561617953e-14 1.364153744392443413e-13
4.763000000000000000e+03 3.166706085205078125e+01 -4.218731880187988281e+00 -1.027916697615184616e-13 7.604266744282509038e-14 -8.024699509761885202e-15 -1.146121382072625219e-14
4.764000000000000000e+03 1.490255546569824219e+01 -9.488003730773925781e+00 -5.320946794610224850e-14 -2.058078506879043590e-13 -7.770519660664151895e-14 5.058927994398831895e-14
4.765000000000000000e+03 1.481786537170410156e+01 -1.012148571014404297e+01 -9.847428861925466848e-14 -1.565806403806824232e-13 -7.651647734472841189e-14 9.358223966799208982e-14
4.766000000000000000e+03 1.577243232727050781e+01 -1.169425582885742188e+01 -6.101606578930857117e-14 -2.614974175510400428e-14 -2.614974175510400428e-14 2.156838889346562871e-13
4.767000000000000000e+03 4.168836212158203125e+01 -1.922424888610839844e+01 9.424335904771943828e-15 9.554089832643219982e-14 3.148957128580077980e-14 1.075694505800646461e-13
4.768000000000000000e+03 2.128672599792480469e+01 -2.367823791503906250e+01 -7.535219328927769689e-14 -2.610485341347085209e-13 -1.009202216153276543e-13 -2.972116300357756369e-14
4.769000000000000000e+03 3.221489715576171875e+01 -3.785174369812011719e+00 1.242980361920806992e-14 9.682895761239929122e-14 3.277762718363608219e-14 -1.039390809206598709e-13
4.770000000000000000e+03 3.643568420410156250e+01 -1.297680664062500000e+01 -7.802425020094969077e-14 1.495648358851645043e-13 2.146217333357219176e-14 4.027659960105858805e-14
4.771000000000000000e+03 4.260607147216796875e+01 -2.047913360595703125e+01 6.344029441314111284e-14 2.559434326802889625e-13 9.581512016090809603e-14 3.682421866892625351e-14
4.772000000000000000e+03 3.477244949340820312e+01 8.489037513732910156e+00 3.861074329182534459e-14 -2.122072862483642686e-13 -5.207896017645624598e-14 -2.011354814255780776e-13
4.773000000000000000e+03 1.914853096008300781e+01 -1.734076690673828125e+01 -1.310157359121419396e-13 -5.479723120573043449e-13 -2.036964076145703073e-13 1.239403409547187862e-13
4.774000000000000000e+03 1.800577735900878906e+01 -1.527843475341796875e+01 -2.279760581702650057e-13 -3.035833032443563395e-13 -1.594678030033755411e-13 1.786427044703567391e-13
4.775000000000000000e+03 3.917660140991210938e+01 1.107683849334716797e+01 1.355448549624285737e-13 1.233970472460862999e-14 4.436536993899023451e-14 -2.301158463541459753e-14
4.776000000000000000e+03 9.290311813354492188e+00 -3.031739997863769531e+01 -8.424697266575572469e-15 1.107667898917787108e-13 3.070262685582469953e-14 1.061433333940245763e-14
4.777000000000000000e+03 7.222882080078125000e+01 -3.510251998901367188e+01 -2.320914321190040153e-14 1.616192802419286201e-13 4.152304246426118117e-14 -9.276399059435138511e-15
4.778000000000000000e+03 8.253248214721679688e+00 -3.096458435058593750e+01 7.085763995950261629e-14 1.892982434215442766e-14 2.693623895168393428e-14 -4.097162740373042067e-14
4.779000000000000000e+03 6.824784755706787109e+00 -2.887888908386230469e+01 -6.248251021396741822e-14 8.473971714216196882e-14 6.677162840788017709e-15 -5.359601990191122101e-14
4.780000000000000000e+03 7.030396270751953125e+01 -3.687044906616210938e+01 1.039124773098525079e-14 2.103326600345553632e-13 6.621717334610172090e-14 4.481975906947890942e-14
4.781000000000000000e+03 7.170935058593750000e+01 -2.979216384887695312e+01 -1.239188873042307293e-13 1.298957008578557892e-13 1.793043176702923368e-15 -8.907979537928038816e-15
4.782000000000000000e+03 2.593213081359863281e+01 -2.833471870422363281e+01 -8.025257026847767983e-14 -3.775260811432479269e-13 -1.373335988116494710e-13 5.380930957429343187e-14
4.783000000000000000e+03 8.953195571899414062e+00 -3.238434219360351562e+01 7.343537128216837129e-14 9.437986010123536329e-14 5.034456873739476257e-14 3.475875593210095427e-14
4.784000000000000000e+03 2.254218673706054688e+01 -3.466178131103515625e+01 7.264962286271381409e-14 -2.319323932128275478e-13 -4.778483178266047793e-14 -1.680158799360811223e-14
4.785000000000000000e+03 5.076431655883789062e+01 -2.847551918029785156e+01 -1.628044927874400943e-14 3.590302426019487125e-13 1.028249412156866105e-13 1.550432992983383912e-14
4.786000000000000000e+03 5.442596817016601562e+01 -3.466289901733398438e+01 7.775914921724982887e-14 2.735178349002470588e-13 1.053830959128754241e-13 -1.471828377829832203e-15
4.787000000000000000e+03 5.263422775268554688e+01 -3.207362747192382812e+01 7.725112596054101166e-14 2.733000999989576574e-13 1.051653677878496007e-13 1.060208693705105495e-14
4.788000000000000000e+03 5.256899261474609375e+01 -3.001910972595214844e+01 4.336051442487172392e-14 4.303416076181093564e-13 1.421106342412020718e-13 -1.902076539926167518e-16
4.789000000000000000e+03 5.529913711547851562e+01 2.830570793151855469e+01 -1.753682919367061110e-13 -7.515783649733251415e-14 -7.515783649733251415e-14 5.727756051572552298e-14
4.790000000000000000e+03 5.485311126708984375e+01 2.774628829956054688e+01 -1.782070720374520634e-13 -1.678763600571411829e-13 -1.038250296283779739e-13 1.185658694705452043e-13
4.791000000000000000e+03 6.286091613769531250e+01 2.831175231933593750e+01 -6.932749188094666781e-14 -1.669646273452438101e-13 -7.088763847836257459e-14 9.774191682800428826e-14
4.792000000000000000e+03 6.185002517700195312e+01 2.827014732360839844e+01 1.001750968960234134e-13 -5.060792280034420720e-13 -1.217712318783356618e-13 1.973787751080244290e-13
4.793000000000000000e+03 6.993998718261718750e+01 2.779852676391601562e+01 5.228811971618764487e-14 2.240919343805217873e-14 2.240919343805217873e-14 -6.621098661745497549e-14
4.794000000000000000e+03 7.224301910400390625e+01 2.819317817687988281e+01 1.479849906895272516e-14 2.350969625138782382e-13 7.496863644197021559e-14 5.532854786848874495e-14
4.795000000000000000e+03 6.914397430419921875e+01 2.768383026123046875e+01 -5.073024316707037962e-14 -4.461700648696054206e-14 -2.860417387976973980e-14 -7.173335683048273625e-14
4.796000000000000000e+03 6.872783660888671875e+01 2.793263435363769531e+01 6.675953193036043842e-14 2.344904869236441591e-13 9.037500701145409487e-14 -5.764648740996802800e-14
4.797000000000000000e+03 6.733699035644531250e+01 2.835907173156738281e+01 -1.601127067843606533e-14 1.761418159766658942e-13 4.803916528353484316e-14 1.465949621892378985e-13
4.798000000000000000e+03 6.615979003906250000e+01 2.805278015136718750e+01 2.150263609746252969e-13 3.209089081707833246e-13 1.607805820988753021e-13 5.135715596825581042e-14
4.799000000000000000e+03 6.537007904052734375e+01 2.866146659851074219e+01 -9.962281786188645349e-14 -3.172011806863717087e-13 -1.250472029526092377e-13 -7.298855123809636081e-14
4.800000000000000000e+03 6.440045928955078125e+01 2.876429367065429688e+01 5.952038178731050566e-14 -3.862498157685551048e-13 -9.801882883912066413e-14 1.151654184343431364e-13
4.801000000000000000e+03 6.567076110839843750e+01 2.813084030151367188e+01 -2.874470342198280626e-14 -3.097003176914109313e-13 -1.015335073504576580e-13 -7.185660351244002597e-14
4.802000000000000000e+03 7.050187683105468750e+01 2.807901763916015625e+01 -3.748299346145560207e-14 -8.469056212616690726e-14 -3.665206769272628951e-14 5.314110222286345941e-15
4.803000000000000000e+03 5.648939895629882812e+01 2.885191345214843750e+01 -1.108777444316054461e-13 -1.768083127450588866e-15 -3.379374823595307498e-14 -3.234463495242799816e-15
4.804000000000000000e+03 6.518993377685546875e+01 2.820067214965820312e+01 3.694331488944199715e-14 -2.991809816381418852e-14 2.107564932985047865e-15 1.614473257773724191e-14
4.805000000000000000e+03 7.019898223876953125e+01 2.724766731262207031e+01 3.912453992510264711e-14 -7.473423870854242757e-14 -1.068290912681216578e-14 1.823166759977543766e-14
4.806000000000000000e+03 6.336055755615234375e+01 2.838403892517089844e+01 2.554518384746250897e-14 -1.263049045777467350e-13 -3.022791909899728846e-14 1.266371312284506057e-13
4.807000000000000000e+03 6.382284164428710938e+01 2.839714622497558594e+01 -1.150920992624288042e-13 -3.695818336698492024e-13 -1.454021771691779708e-13 3.512370244911772188e-13
4.808000000000000000e+03 6.427411651611328125e+01 2.834902763366699219e+01 8.484158132439877098e-15 1.408889145756639372e-13 4.481192232065091263e-14 -1.336189595383882600e-13
4.809000000000000000e+03 6.075375747680664062e+01 2.900938606262207031e+01 -3.294026089764069687e-14 -1.513701002649886496e-13 -5.529310800997562503e-14 1.304734315379918463e-13
4.810000000000000000e+03 6.664854431152343750e+01 2.795654678344726562e+01 -3.609358498928363912e-14 1.904105941929329360e-13 4.629510072821571565e-14 -1.126346669470638939e-13
4.811000000000000000e+03 6.712910461425781250e+01 2.784833717346191406e+01 6.360821700086838337e-14 -3.616224073660356808e-13 -8.940425304379204241e-14 -1.402736162902512573e-13
4.812000000000000000e+03 5.426576614379882812e+01 2.811316871643066406e+01 8.372138872198443132e-15 -2.651987516307657833e-13 -7.704798713099869634e-14 6.890720090878266202e-14
4.813000000000000000e+03 3.618950653076171875e+01 9.355360984802246094e+00 -5.978529303563018260e-14 -9.424869196715535136e-14 -4.621019753371473360e-14 -1.677689020693207134e-14
4.814000000000000000e+03 5.472573089599609375e+01 2.877339172363281250e+01 -2.331814212205851611e-13 1.516953338116799888e-13 -2.444582486741883609e-14 1.212311365661120077e-13
4.815000000000000000e+03 1.402789306640625000e+01 -7.786349296569824219e+00 -2.506334915541690023e-14 1.265114044340237553e-13 3.043441895527430885e-14 1.110826654184687845e-13
4.816000000000000000e+03 1.346615886688232422e+01 -6.143001079559326172e+00 4.465814179501099990e-14 1.913920411045211267e-14 1.913920411045211267e-14 4.903362939745643800e-14
4.817000000000000000e+03 6.030067062377929688e+01 2.906127548217773438e+01 2.518579149488747726e-13 -1.665665896226700693e-13 2.558739488735597978e-14 1.121917161494949411e-13
4.818000000000000000e+03 6.137103271484375000e+01 2.796822166442871094e+01 1.589638116234956544e-13 -3.436311836208655324e-13 -5.540021702022182581e-14 1.377333712576991887e-13
4.819000000000000000e+03 3.610892868041992188e+01 -8.056891441345214844e+00 -6.633624584969494142e-14 1.545739718947919394e-13 2.647131950759499391e-14 1.876283010253734784e-14
4.820000000000000000e+03 5.772027206420898438e+01 2.861591148376464844e+01 -4.961862762027993701e-14 -2.957708134399689159e-13 -1.036168357062064449e-13 5.982414135472305383e-14
4.821000000000000000e+03 5.795410156250000000e+01 2.918958282470703125e+01 2.004969168391702167e-14 -1.286601169570369962e-13 -3.258312809015576073e-14 1.037761592154531898e-13
4.822000000000000000e+03 1.932999801635742188e+01 -2.093597221374511719e+01 2.341312907438997115e-14 -1.729696030502991810e-13 -4.486694219277276297e-14 1.317631035746905099e-13
4.823000000000000000e+03 1.917205810546875000e+01 -2.016405105590820312e+01 3.794738520401840301e-15 -1.127510560502802128e-13 -3.268689640245799055e-14 1.578167528300603029e-13
4.824000000000000000e+03 3.062444114685058594e+01 -3.039721250534057617e+00 -1.741137887079774460e-13 1.141024666244383479e-13 -1.800339391455629823e-14 -6.530415992038809958e-14
4.825000000000000000e+03 1.006402206420898438e+01 -5.557786464691162109e+00 -2.788741290573725634e-14 -2.407064890290466774e-13 -8.057816973340223288e-14 -6.044492841363394153e-14
4.826000000000000000e+03 9.055191040039062500e+00 -6.652424812316894531e+00 6.250575957430365426e-14 -2.019665630483696850e-13 -4.183824036459345141e-14 -3.149262060441089528e-14
4.827000000000000000e+03 4.512871170043945312e+01 1.710453414916992188e+01 -1.124000523732016088e-13 -2.197375040171450911e-13 -9.964126962760944117e-14 -7.530016513752554874e-14
4.828000000000000000e+03 7.336454010009765625e+01 2.807415580749511719e+01 5.330115079231305397e-14 1.600961930300209834e-13 6.401920416313974793e-14 7.450514678949624048e-14
4.829000000000000000e+03 7.385158538818359375e+01 2.735631370544433594e+01 -2.332142928752022060e-14 2.187598518131605996e-13 5.863152574125257699e-14 1.245793561626545864e-13
4.830000000000000000e+03 5.314361190795898438e+01 2.564945983886718750e+01 -2.082394925440912703e-14 1.283282968821478076e-13 3.225130462713478308e-14 -9.452296123547629381e-14
4.831000000000000000e+03 2.043853569030761719e+01 -2.126502609252929688e+01 2.265380638882385361e-14 -1.316670026046268260e-14 2.846131711453409215e-15 1.123694914244646736e-13
4.832000000000000000e+03 4.606358337402343750e+01 -2.134693145751953125e+01 -7.394620499419617826e-15 1.455214665132056884e-13 4.143805117833368468e-14 1.118434670235608080e-14
4.833000000000000000e+03 4.410509872436523438e+01 -2.138444519042968750e+01 -4.244004033295868672e-14 1.190642636567096346e-13 2.298726462543303206e-14 -4.085760660463462479e-14
4.834000000000000000e+03 7.339842224121093750e+01 2.867183303833007812e+01 -7.541391827421001226e-14 -3.068259351018259862e-13 -1.146719573680635151e-13 -7.696190147850334728e-14
4.835000000000000000e+03 5.081682205200195312e+01 2.238464546203613281e+01 -7.303471792185350919e-14 1.974541542640664837e-13 3.732583158029025017e-14 1.788182605190046653e-14
4.836000000000000000e+03 1.877781677246093750e+01 -1.892566299438476562e+01 2.763490941954543402e-15 -6.744207107925795364e-14 -1.940357325768554686e-14 1.103980595091799688e-13
4.837000000000000000e+03 6.093441772460937500e+01 2.834941864013671875e+01 1.733333935367495360e-13 -3.437276301803716960e-14 4.168819017205324662e-14 2.874189059497156418e-13
4.838000000000000000e+03 4.658171081542968750e+01 -2.301473999023437500e+01 4.444432018593791334e-14 3.049910042400572063e-13 1.048305932620403891e-13 -8.162185662595466962e-14
4.839000000000000000e+03 5.139113998413085938e+01 2.271940422058105469e+01 -1.918834557392001816e-14 2.662821135465676115e-13 7.412812903654156238e-14 -9.260372349040139894e-15
4.840000000000000000e+03 5.114095687866210938e+01 2.342174339294433594e+01 -1.466311067791631340e-13 -1.772192689906276764e-13 -9.715511273093724309e-14 -9.929584281545555946e-15
4.841000000000000000e+03 3.546372604370117188e+01 -6.632452487945556641e+00 -1.012728719244557207e-13 9.385018668239472617e-14 -2.226806631409482436e-15 -2.910442137402276253e-14
4.842000000000000000e+03 3.516716766357421875e+01 -7.725381374359130859e+00 -1.053927774994625408e-14 -3.883004351000127197e-14 -1.481079629328096309e-14 -1.171911502437445254e-14
4.843000000000000000e+03 3.272603988647460938e+01 -5.451633453369140625e+00 -1.632826496624287249e-13 6.727456861987252124e-14 -2.880242363514050330e-14 -3.878952653600230976e-15
4.844000000000000000e+03 5.870924377441406250e+01 2.786943054199218750e+01 1.193458445134312762e-13 -4.035367621112694037e-14 2.369765252357037416e-14 7.423517367228377184e-14
4.845000000000000000e+03 5.889863967895507812e+01 2.908993721008300781e+01 -5.946861790983790086e-14 -2.548654883872177729e-14 -2.548654883872177729e-14 -3.412255626168182732e-14
4.846000000000000000e+03 4.813501358032226562e+01 2.112374305725097656e+01 -3.988883469406914739e-14 -1.709521535290560446e-14 -1.709521535290560446e-14 -3.116308413034750424e-14
4.847000000000000000e+03 4.969229507446289062e+01 2.150676536560058594e+01 -5.897786057272591531e-14 3.407313764903358022e-13 8.452604799901938804e-14 -1.168576005275770435e-13
4.848000000000000000e+03 5.922216796875000000e+01 2.804564857482910156e+01 7.596369347895488844e-15 4.900653450753966744e-14 1.698087098722395744e-14 7.553693286913975430e-15
4.849000000000000000e+03 5.960233688354492188e+01 2.873712730407714844e+01 9.020889029797037051e-15 -3.049528132185314044e-13 -8.877957640958736296e-14 -5.314403295686095929e-14
4.850000000000000000e+03 3.453793334960937500e+01 6.232896804809570312e+00 4.978327049643543889e-14 -1.159171635631631170e-13 -1.984016622595240892e-14 -1.360129321453448781e-13
4.851000000000000000e+03 3.116389465332031250e+01 -1.690083503723144531e+00 -9.521161257412119605e-14 2.165441084908334424e-13 3.639975013026638950e-14 -7.060816503961370172e-14
4.852000000000000000e+03 3.698744964599609375e+01 -9.235522270202636719e+00 -1.237706768672519608e-13 -7.293628761118487597e-15 -3.931929312846714486e-14 -5.355478633803888167e-14
4.853000000000000000e+03 7.314111328125000000e+01 -2.224773597717285156e+01 -1.284799767660785297e-13 -1.008137936195710460e-13 -6.878812840518944149e-14 2.126564712084250131e-13
4.854000000000000000e+03 7.234402465820312500e+01 -2.319484138488769531e+01 6.033839199766008465e-14 8.876686413911497042e-14 4.473157616340615872e-14 1.053778443086024474e-13
4.855000000000000000e+03 7.335458374023437500e+01 -2.449804878234863281e+01 -3.780247057223740104e-14 2.954988955351095514e-14 -2.475774602079465307e-15 8.655335020750498654e-14
4.856000000000000000e+03 3.134724235534667969e+01 1.546808183193206787e-01 6.404125581888856639e-15 4.849557374056977233e-14 1.646991022025406232e-14 -1.634171313893983957e-13
4.857000000000000000e+03 7.140644836425781250e+01 2.569496726989746094e+01 1.029304273108058720e-13 -4.738885743234624859e-14 1.666247130235106594e-14 3.244296785430769714e-14
4.858000000000000000e+03 4.805212020874023438e+01 2.014260673522949219e+01 -1.962810339609100119e-13 1.046022196269334736e-13 -2.750364430019296147e-14 -2.082050183031380203e-14
4.859000000000000000e+03 4.658134841918945312e+01 1.868550109863281250e+01 2.464822042554993577e-15 3.536956494289318631e-14 1.135031603210698292e-14 9.127758499125754321e-14
4.860000000000000000e+03 7.222572326660156250e+01 -1.682876396179199219e+01 3.431916277313491748e-14 2.892139110664826429e-13 9.705991978019301580e-14 9.126853867938086728e-14
4.861000000000000000e+03 3.642375564575195312e+01 -9.692742347717285156e+00 6.729619845321360705e-14 2.575959736315913684e-13 9.746765433594692385e-14 1.378626894718223972e-13
4.862000000000000000e+03 3.657669067382812500e+01 -1.140450668334960938e+01 -8.267154051177366680e-14 -1.040570827746077620e-13 -5.601858834116714425e-14 -7.577411734096400897e-14
4.863000000000000000e+03 7.303149414062500000e+01 2.427793502807617188e+01 7.475801661743775028e-14 1.235410428471195310e-13 5.948971919461989999e-14 1.364816310504444671e-14
4.864000000000000000e+03 7.243818664550781250e+01 -1.768908500671386719e+01 -1.475463495955939286e-13 3.485243777606727988e-13 6.029341116002909229e-14 -9.915223346144627636e-14
4.865000000000000000e+03 6.439320087432861328e+00 -1.857963752746582031e+01 -9.062545771329824640e-14 -3.883948284516547389e-14 -3.883948284516547389e-14 2.017363970915463794e-14
4.866000000000000000e+03 7.569325447082519531e+00 -1.562169456481933594e+01 -9.958129969494383671e-14 -3.858098194219061750e-13 -1.456173370903077191e-13 6.592138944092051922e-14
4.867000000000000000e+03 3.162991523742675781e+01 1.079808115959167480e+00 1.219338893092627996e-13 1.437592856172106859e-13 7.970794841218389881e-14 -1.036394752028206578e-13
4.868000000000000000e+03 7.354800415039062500e+01 1.839491462707519531e+01 4.737378363401691106e-14 2.033068402214691095e-13 7.520418614020626946e-14 3.982179711849165304e-14
4.869000000000000000e+03 7.286186981201171875e+01 1.759401130676269531e+01 1.134015976825622496e-13 1.401025833975416690e-13 7.605125296877845997e-14 -5.663229081650719698e-14
4.870000000000000000e+03 7.352837371826171875e+01 1.763324737548828125e+01 -7.732766385765491024e-14 1.498633709533583880e-13 2.176071178989786442e-14 -1.854167318814103904e-14
4.871000000000000000e+03 3.227566528320312500e+01 1.411096215248107910e+00 1.099278952370816298e-13 2.301157582627194609e-13 1.020130906289294648e-13 -8.010953012060895162e-14
4.872000000000000000e+03 8.246931076049804688e+00 -7.156728267669677734e+00 -4.745453636707634704e-14 -2.033414533758257092e-13 -7.523879929456286919e-14 1.375078284067019971e-14
4.873000000000000000e+03 7.290308475494384766e+00 -2.262907028198242188e+01 -3.976823075490729109e-14 7.445837024201706900e-14 1.040704150731975447e-14 1.291711183815883596e-14
4.874000000000000000e+03 7.249273681640625000e+01 -9.584200859069824219e+00 5.743531193182216388e-14 4.363736748249497088e-13 1.481427014480424242e-13 -5.887313341912739362e-14
4.875000000000000000e+03 7.315535736083984375e+01 -1.751212310791015625e+01 5.980488998989785809e-14 2.086344606192641615e-13 8.053180653800132149e-14 1.282057955891841017e-13
4.876000000000000000e+03 7.324034881591796875e+01 -7.881214618682861328e+00 -6.989278811741703179e-14 1.759252194876576025e-13 3.180972941107217122e-14 1.235582410040805823e-13
4.877000000000000000e+03 7.394554901123046875e+01 -6.239126205444335938e+00 2.947860664880182224e-14 3.100148447416489761e-13 1.018480411769592808e-13 -8.826462781150179460e-14
4.878000000000000000e+03 4.378389358520507812e+01 -2.249902153015136719e+01 -1.608283310401779215e-14 1.303602001736028915e-13 3.428321130672165595e-14 1.227641166993271010e-15
4.879000000000000000e+03 4.485646820068359375e+01 -2.256326675415039062e+01 -5.505176460638035174e-14 1.594101776579079366e-13 3.130752357664509655e-14 -1.139965824238338768e-14
4.880000000000000000e+03 7.213176727294921875e+01 -2.427266120910644531e+01 -7.389916586650335795e-14 -6.598427994318825651e-14 -4.196503442053384214e-14 1.034170240220809445e-13
4.881000000000000000e+03 7.294450378417968750e+01 -2.685099411010742188e+01 4.841129142121912768e-15 2.422672522664481853e-13 7.413251327907655064e-14 9.538987574006854708e-14
4.882000000000000000e+03 7.253146362304687500e+01 -5.468175888061523438e+00 -8.832445374856636583e-15 3.850977425400720078e-13 1.128795882178283694e-13 1.175856693914553719e-13
4.883000000000000000e+03 7.260451507568359375e+01 1.854565620422363281e+00 1.307457153610844247e-13 1.704112518414666044e-13 9.034708880551259313e-14 1.106538770117779236e-13
4.884000000000000000e+03 7.320652008056640625e+01 -1.038298034667968750e+01 6.908936720255096087e-14 4.642437150849387795e-13 1.599999294296314267e-13 -6.985736858769464597e-14
4.885000000000000000e+03 7.537237167358398438e+00 -9.181921005249023438e+00 5.505761252184819543e-14 -2.051586304270200389e-13 -4.503030435511201635e-14 -2.332327581934523497e-14
4.886000000000000000e+03 7.338575744628906250e+01 2.562987899780273438e+01 -1.016046919993449094e-13 -1.293278906275979745e-13 -6.927977343283014955e-14 5.854834032956862666e-14
4.887000000000000000e+03 7.301935577392578125e+01 7.495460987091064453e+00 1.248799647675033486e-13 7.769036167160330714e-15 3.979469884044309347e-14 -6.448681378386916796e-14
4.888000000000000000e+03 7.351232910156250000e+01 1.686199378967285156e+01 8.528962448404661667e-14 1.738055364778126610e-13 7.772854761093142550e-14 -5.044156078611895799e-14
4.889000000000000000e+03 7.331678771972656250e+01 1.805573463439941406e+00 4.029268238503469490e-13 3.328112525152748802e-13 2.207214174886756863e-13 -2.403479433706057211e-13
4.890000000000000000e+03 7.324582672119140625e+01 -6.243878364562988281e+00 -6.843736528546785769e-15 3.173236142166996343e-13 9.314396449229198072e-14 1.692195916811606304e-13
4.891000000000000000e+03 7.335437774658203125e+01 3.361664056777954102e+00 1.511443693726771675e-13 6.477616023865123696e-14 6.477616023865123696e-14 -1.409036597252097400e-13
4.892000000000000000e+03 7.401217651367187500e+01 9.027684211730957031e+00 9.683410079645501933e-14 8.725127825098821788e-14 5.522561303660661336e-14 -1.459619643033593928e-13
4.893000000000000000e+03 7.325149536132812500e+01 -1.833091354370117188e+01 -6.715861997378877457e-14 5.202290963464417661e-13 1.359211544314439801e-13 5.713436451379449998e-14
4.894000000000000000e+03 7.325184631347656250e+01 -7.058709621429443359e+00 4.286898120558005343e-14 4.530064203530498324e-13 1.487626211452153235e-13 -1.171252493863822464e-13
4.895000000000000000e+03 7.313035583496093750e+01 -2.933677911758422852e+00 4.073423794993293046e-14 4.520915434548522516e-13 1.478477306944905867e-13 6.938433117983922038e-14
4.896000000000000000e+03 7.312879180908203125e+01 -3.762589216232299805e+00 2.516514828552335326e-13 3.366053909128335908e-13 1.764770648409255682e-13 -6.647755127408769282e-14
4.897000000000000000e+03 7.322483825683593750e+01 -1.121234989166259766e+01 -1.360348042301088786e-14 1.771737324993832852e-13 4.907107502998865611e-14 1.509567481867285510e-13
4.898000000000000000e+03 7.401580810546875000e+01 1.765843391418457031e+00 4.025963048180647430e-13 1.267903289954228074e-13 1.588159942098044120e-13 3.199121469035087761e-14
4.899000000000000000e+03 7.299845123291015625e+01 6.625925064086914062e+00 -1.193569965492148263e-14 -5.086624955334510811e-14 -1.884058433896350360e-14 -8.232383009879398750e-14
4.900000000000000000e+03 7.346970367431640625e+01 1.299696159362792969e+01 -7.605859166223347123e-14 -7.834748474988550981e-14 -4.632182292363569431e-14 1.569990475515717354e-14
4.901000000000000000e+03 7.234688568115234375e+01 -2.914298772811889648e+00 3.002984688173226946e-13 2.430767176084258629e-13 1.630125613487354297e-13 4.798034731567750455e-14
4.902000000000000000e+03 7.322314453125000000e+01 2.567503750324249268e-01 2.035611127359712724e-13 8.724047688684483104e-14 8.724047688684483104e-14 -2.038292291569633596e-14
4.903000000000000000e+03 7.316265106201171875e+01 -4.593845367431640625e+00 5.199603565092004998e-14 4.340425588389429379e-13 1.458115719095084972e-13 1.536365029338251920e-13
4.904000000000000000e+03 7.265304565429687500e+01 4.105076313018798828e+00 1.744484683660965652e-13 -1.539911183593908883e-13 6.137207712517134262e-15 -1.990772387975951740e-14
4.905000000000000000e+03 7.335047912597656250e+01 2.580855131149291992e+00 3.237781408000489636e-13 -2.136626209888869282e-14 9.072356445738102848e-14 -3.897389596246641705e-15
4.906000000000000000e+03 7.341525268554687500e+01 1.067841625213623047e+01 -2.422938253840694472e-14 2.412462048705099615e-13 6.510504619141113669e-14 -1.078348632718890976e-13
4.907000000000000000e+03 7.416265106201171875e+01 1.530908203125000000e+01 -2.811619989292243188e-15 1.360478705603532235e-13 3.997087491720840990e-14 2.441379558706783560e-15
4.908000000000000000e+03 7.424924468994140625e+01 1.995167541503906250e+01 -6.134842796528400255e-14 -2.550469330089150111e-13 -9.491860693700698848e-14 1.156306224815023542e-13
4.909000000000000000e+03 7.357419586181640625e+01 1.991338729858398438e+01 7.745552517510884138e-14 1.704480740577496434e-13 7.437107841460482982e-14 -4.896596501749797548e-14
4.910000000000000000e+03 7.319123840332031250e+01 8.325418472290039062e+00 1.511136322410872035e-13 2.935177329053267892e-13 1.333894068334187666e-13 -1.716688789277047433e-14
4.911000000000000000e+03 7.337909698486328125e+01 9.902573585510253906e+00 -1.794209922236118804e-14 -5.344041994950060603e-14 -2.141475642918489602e-14 1.761801255828043117e-14
4.912000000000000000e+03 7.330924224853515625e+01 9.121610641479492188e+00 -1.420641880365723295e-14 1.082889068129352927e-13 2.822474716511307047e-14 -2.262218495483695607e-14
4.913000000000000000e+03 7.398324584960937500e+01 -1.276020240783691406e+01 1.353472862215474026e-13 4.011381071061803638e-13 1.609456112220547519e-13 -1.215598666648096127e-13
4.914000000000000000e+03 4.452449035644531250e+01 1.847118377685546875e+01 1.418032764778295873e-13 -6.647199473795370461e-14 2.259938282789687031e-14 -1.710636569462326007e-14
4.915000000000000000e+03 7.293315887451171875e+01 -1.938950157165527344e+01 -5.853164425138706033e-16 9.125104914308596049e-14 2.719971871432275146e-14 -7.301322361378398407e-14
4.916000000000000000e+03 7.402285003662109375e+01 -1.969128608703613281e+01 1.699904187682163559e-13 2.710208800275632629e-14 5.912775152307203630e-14 -3.633720521744113197e-15
4.917000000000000000e+03 7.931746959686279297e+00 -2.481659126281738281e+01 -1.380036899643541370e-14 8.558745482082838474e-14 2.153612608613107021e-14 -4.776080654014455695e-14
4.918000000000000000e+03 5.847541809082031250e+00 -1.161950206756591797e+01 7.835600928946667709e-14 -5.792074990202539242e-14 6.130578409155448480e-15 -1.319336892340039480e-13
4.919000000000000000e+03 9.672229766845703125e+00 -6.846502304077148438e+00 4.053993282699753023e-15 1.161148000666800684e-13 3.605063703072605708e-14 -5.165564021447285881e-14
4.920000000000000000e+03 7.246117401123046875e+01 -2.618373107910156250e+01 3.164206770949265501e-14 2.080024249628137367e-13 7.189334441356012850e-14 -1.109128319244125083e-14
4.921000000000000000e+03 7.340467834472656250e+01 -1.431504535675048828e+01 8.894528654725640526e-15 -1.105654332195574185e-13 -3.050127018360340725e-14 -1.108913003468933040e-14
4.922000000000000000e+03 7.326170349121093750e+01 -1.202351570129394531e+01 9.469180539505017702e-14 2.693369344827084566e-13 1.092086219633275901e-13 -1.698573736091252284e-13
4.923000000000000000e+03 7.349656677246093750e+01 1.530477809906005859e+01 7.689149609992756984e-14 3.074591904857204572e-13 1.153052127519579861e-13 4.404811544266203083e-14
4.924000000000000000e+03 7.348160552978515625e+01 1.376308727264404297e+01 1.169045600341728219e-13 2.331057439089456729e-13 1.050030966039464109e-13 -2.023828966826041187e-13
4.925000000000000000e+03 7.339455413818359375e+01 -1.902670288085937500e+01 1.500182085761164741e-13 1.786708937268413622e-13 9.860673069088735088e-14 1.012227885603504685e-13
4.926000000000000000e+03 5.826506137847900391e+00 -1.237080192565917969e+01 -3.446651940090285360e-14 -1.062732597778039134e-13 -4.222193273717249340e-14 1.546654887225450831e-14
4.927000000000000000e+03 1.407470130920410156e+01 -8.977396011352539062e+00 -4.919312231329263374e-14 -2.498375042004480351e-13 -8.970919168106716857e-14 1.737427205144442821e-13
4.928000000000000000e+03 4.195703506469726562e+01 1.549224853515625000e+01 -1.065488639700497286e-13 -2.278832369117730905e-14 -3.880115629836811131e-14 -1.206757946608377763e-13
4.929000000000000000e+03 4.356257247924804688e+01 1.634773254394531250e+01 -4.673536473727597784e-14 -1.572822818166064174e-13 -6.120529294972518186e-14 1.021279821778950381e-13
4.930000000000000000e+03 5.793343544006347656e+00 -1.309802627563476562e+01 8.769622804631269086e-14 8.333504513628048338e-14 5.130938331003066788e-14 2.190365368194471113e-14
4.931000000000000000e+03 6.609982490539550781e+00 -1.031504726409912109e+01 -3.926967055028519893e-14 -6.258080669343038527e-14 -3.055514486718056977e-14 -2.830039567763235203e-14
4.932000000000000000e+03 7.227148437500000000e+01 -2.732716941833496094e+01 3.647082297080460334e-14 1.014133845260098421e-13 4.136526055497843912e-14 -3.668495289987049046e-14
4.933000000000000000e+03 7.417369079589843750e+01 -2.791323089599609375e+01 2.762974209505070916e-14 1.033432169591889938e-13 3.929188653042578472e-14 -3.031753857294858245e-14
4.934000000000000000e+03 7.338316345214843750e+01 2.325177764892578125e+01 6.699717549404210493e-14 2.117168745006947628e-13 8.361421364316834470e-14 -6.245319609772884140e-14
4.935000000000000000e+03 6.579461574554443359e+00 -1.186689472198486328e+01 5.035120947570123628e-14 6.733003911352231086e-14 3.530437389914070634e-14 1.071827698752476909e-13
4.936000000000000000e+03 6.482544898986816406e+00 -1.334002780914306641e+01 9.008170830094013731e-15 9.536254029279475630e-14 3.131121325216333628e-14 -1.146172966379113006e-14
4.937000000000000000e+03 7.673644065856933594e+00 -2.185014724731445312e+01 -2.274601608952785126e-14 1.732555071631836086e-13 4.515284630565719048e-14 -1.738950339790195504e-14
4.938000000000000000e+03 7.080426692962646484e+00 -1.708842658996582031e+01 -9.788218548406960040e-14 -1.792023560792666004e-13 -8.312536043612178682e-14 2.024356702233498506e-13
4.939000000000000000e+03 6.543768882751464844e+00 -1.943450355529785156e+01 1.388733302209706547e-14 -2.914294511009024591e-13 -8.326263398368560775e-14 1.377887197786045737e-13
4.940000000000000000e+03 7.429441070556640625e+01 2.147700309753417969e+01 2.601493815561437689e-14 -1.261035817868433329e-13 -3.002659291996209734e-14 7.972453670542292703e-14
4.941000000000000000e+03 7.574452877044677734e+00 -2.812317085266113281e+01 -1.205816723597388784e-13 1.313259397062171985e-13 3.223276731108412271e-15 -8.309887202179525034e-14
4.942000000000000000e+03 7.324038028717041016e+00 -2.398792076110839844e+01 -4.847997139368134811e-14 1.164757174173733367e-13 2.039872346829441768e-14 -1.470068539826969306e-14
4.943000000000000000e+03 3.810704040527343750e+01 -1.431630706787109375e+01 -5.236348870783433251e-14 1.148113451098636828e-13 1.873435793704834179e-14 5.630140247785998808e-14
4.944000000000000000e+03 7.358518218994140625e+01 2.067473030090332031e+01 1.506750995673711291e-14 1.437103474416501214e-13 4.763335857476888591e-14 -2.337910376089876591e-14
4.945000000000000000e+03 6.366191864013671875e+00 -1.775761222839355469e+01 -9.919877961596379468e-14 -2.255175619815183441e-13 -9.741490112399192602e-14 1.108110998793154778e-13
4.946000000000000000e+03 7.286959838867187500e+01 2.286220550537109375e+01 -4.281395116906283604e-14 7.315306536524388004e-14 9.101733242414776492e-15 4.059666285863988699e-14
4.947000000000000000e+03 7.362238311767578125e+01 2.144141197204589844e+01 -8.370836982558513273e-15 4.216344680623047847e-14 1.013778328591476846e-14 -1.393128217359830209e-14
4.948000000000000000e+03 3.285115051269531250e+01 1.266927272081375122e-01 2.844095063083383612e-14 8.081539994500563928e-14 3.277690551156502152e-14 -1.410235047228508565e-13
4.949000000000000000e+03 4.713595581054687500e+01 2.111823654174804688e+01 2.911345413337228238e-14 -2.183601640704056074e-14 2.183231021437984955e-15 3.296591244341534610e-14
4.950000000000000000e+03 4.657535934448242188e+01 1.963913345336914062e+01 1.897160542812387218e-13 1.270578287764292935e-13 9.503217033831126703e-14 1.380404850755828638e-13
4.951000000000000000e+03 1.893345642089843750e+01 -1.955705642700195312e+01 8.052140497340903869e-14 -1.828078297462856772e-13 -3.068592675423663374e-14 1.410715213265648083e-13
4.952000000000000000e+03 2.198878479003906250e+01 -2.295689201354980469e+01 -9.521711490014655999e-14 -1.780601761956074336e-13 -8.198318732872619807e-14 6.246035860833082376e-14
4.953000000000000000e+03 5.179275131225585938e+01 2.360910797119140625e+01 -5.867733328304008955e-14 1.578563668669374920e-13 2.975370939754286292e-14 3.651337790607465938e-14
4.954000000000000000e+03 5.219531250000000000e+01 2.446421051025390625e+01 -5.550657047707907576e-14 -4.666400390553569755e-14 -3.065117129834489529e-14 -9.136494627537145724e-15
4.955000000000000000e+03 4.110159301757812500e+01 -1.556309032440185547e+01 -9.539459201951885903e-14 1.421204056132815974e-13 1.401774221465633755e-14 9.696501143251906596e-15
4.956000000000000000e+03 4.137385940551757812e+01 -1.608968734741210938e+01 2.991905022884690235e-14 1.958262382546066549e-13 6.772359094960739290e-14 -3.433531399737316248e-14
4.957000000000000000e+03 7.299806213378906250e+01 -2.853056144714355469e+01 6.316272595149061489e-15 4.845792143199842417e-14 1.643225791168271416e-14 -9.200044290844436312e-14
4.958000000000000000e+03 3.168740653991699219e+01 -3.207199096679687500e+00 -1.101079473366135819e-13 1.458226985343036297e-13 1.071442468168065654e-14 -8.344531527348583722e-14
4.959000000000000000e+03 4.203132247924804688e+01 -1.710683441162109375e+01 -9.773400215214514408e-14 1.868687496409116022e-13 2.674042356900357964e-14 4.336311989821747814e-14
4.960000000000000000e+03 3.349287796020507812e+01 4.310335636138916016e+00 4.398070517258774459e-14 1.332262479589868542e-13 5.316208492303284294e-14 -5.683542625791772329e-14
4.961000000000000000e+03 5.453141021728515625e+01 2.713593292236328125e+01 -3.647147582144869959e-16 -1.374091541505445546e-13 -4.133216189553153008e-14 -3.400497453607577436e-14
4.962000000000000000e+03 1.784616279602050781e+01 -1.614041709899902344e+01 -8.320296220661743680e-14 -2.872886390586915084e-13 -1.111474803795926836e-13 8.432924497592253488e-14
4.963000000000000000e+03 1.874578666687011719e+01 -1.678938293457031250e+01 -5.540724061742045847e-14 -1.152478584570335030e-13 -5.119652802827029392e-14 1.724443206502571102e-13
4.964000000000000000e+03 5.747944641113281250e+01 2.797687721252441406e+01 7.326452240736657396e-16 3.139908254428736608e-16 3.139908254428736608e-16 1.448186866650005844e-13
4.965000000000000000e+03 5.368286895751953125e+01 2.657387542724609375e+01 -4.836819014969809261e-14 -2.072922555991767862e-14 -2.072922555991767862e-14 3.628487213382797227e-14
4.966000000000000000e+03 1.743304061889648438e+01 -1.439692211151123047e+01 -1.099957866218699565e-13 -1.157674759007243370e-13 -6.772897807915193025e-14 1.675240485611920183e-13
4.967000000000000000e+03 1.730369377136230469e+01 -1.520559692382812500e+01 -1.441407892566540228e-13 -2.447784271282504864e-13 -1.166757662707240684e-13 2.062153379100376688e-14
4.968000000000000000e+03 4.371192169189453125e+01 1.535742759704589844e+01 3.833630122878316226e-14 -1.379796071235978028e-13 -2.989299210725757106e-14 -3.551025372730033658e-14
4.969000000000000000e+03 1.663922309875488281e+01 -1.439839839935302734e+01 -1.137977787089156090e-13 -4.605290216015689442e-13 -1.722980346721345035e-13 1.029506815626406169e-13
4.970000000000000000e+03 1.589984989166259766e+01 -1.300360012054443359e+01 -1.201075863250947520e-14 -5.089841647655003742e-14 -1.887275295623432741e-14 9.561116817973641657e-14
4.971000000000000000e+03 4.405967330932617188e+01 1.693058204650878906e+01 -2.751620817049299506e-13 1.932623914960122924e-14 -7.675075310541179530e-14 -6.821256612939835540e-14
4.972000000000000000e+03 4.245212554931640625e+01 1.613528442382812500e+01 -2.896382745730570474e-14 -2.956967285502702658e-14 -1.756005009369981940e-14 1.000301051842442113e-13
4.973000000000000000e+03 4.899878311157226562e+01 2.006998825073242188e+01 -8.519453317725605990e-14 2.067674509257169668e-14 -1.935533642540530896e-14 -3.750057108917702331e-14
4.974000000000000000e+03 5.025934600830078125e+01 2.195507431030273438e+01 -4.990641214630726907e-14 1.158643900224173851e-13 1.978739268520667699e-14 -8.700666191208475397e-14
4.975000000000000000e+03 3.386652755737304688e+01 -5.619182109832763672e+00 4.266084826978072675e-14 -1.888942595276808106e-14 7.131426186884025353e-15 4.677966456041737775e-15
4.976000000000000000e+03 3.818783950805664062e+01 1.124743366241455078e+01 4.302290403275510489e-14 2.014421886676470708e-13 7.333952781012065270e-14 3.489615822867275785e-14
4.977000000000000000e+03 3.885929107666015625e+01 1.169489479064941406e+01 3.433625928614229827e-14 -1.225373020283596071e-13 -2.646031485554426604e-14 -1.280306020706376002e-13
4.978000000000000000e+03 1.589371490478515625e+01 -1.368707656860351562e+01 -4.451840168750477444e-14 -1.105812151374306607e-13 -4.652988470866745163e-14 6.390834449100310510e-14
4.979000000000000000e+03 4.202625274658203125e+01 1.390847682952880859e+01 3.152336027709970109e-15 4.710195043245227198e-14 1.507628521807066746e-14 -1.082243967836724052e-13
4.980000000000000000e+03 4.097995758056640625e+01 1.302337741851806641e+01 1.318220435152922532e-13 1.074421483043559028e-14 4.276987835075130029e-14 -3.093058375072156585e-14
4.981000000000000000e+03 4.335251617431640625e+01 -1.991314697265625000e+01 1.002325799399558792e-13 3.632134740541581586e-13 1.390338175534869269e-13 1.266378766174441894e-13
4.982000000000000000e+03 3.962790679931640625e+01 -1.421984481811523438e+01 -1.473243863058318337e-13 4.401214093695260399e-13 8.783910556385554624e-14 3.582644096211499984e-14
4.983000000000000000e+03 3.684659957885742188e+01 -1.207339572906494141e+01 -8.094610729316234488e-14 3.313164087699604909e-13 7.511108705490765480e-14 1.104790697402553701e-13
4.984000000000000000e+03 7.223011970520019531e+00 -8.159863471984863281e+00 6.378011725531596010e-14 9.310132824185898825e-14 4.706443364915248451e-14 -6.866566776980720377e-14
4.985000000000000000e+03 1.477172660827636719e+01 -8.748072624206542969e+00 -4.451670084534668781e-14 -6.482953686685541395e-14 -3.280387165247380943e-14 -1.432207691744007139e-14
4.986000000000000000e+03 1.432408714294433594e+01 -7.068537712097167969e+00 -4.278394248580751069e-14 -2.585284688150918386e-13 -9.039371627519304786e-14 -1.475042994919604361e-14
4.987000000000000000e+03 6.109085083007812500e+00 -7.520202159881591797e+00 -4.992194927165875470e-15 -7.076593678450107672e-14 -2.272743896292866994e-14 3.506629665459004563e-14
4.988000000000000000e+03 3.678543853759765625e+01 1.028353977203369141e+01 -1.748315136055039049e-14 -1.218701517740478080e-13 -4.180599212622558569e-14 -7.137688301463076396e-15
4.989000000000000000e+03 1.476319026947021484e+01 -1.092836189270019531e+01 -5.559780947802551998e-14 -6.957857955156715457e-14 -3.755291772531733907e-14 8.940083780694871307e-14
4.990000000000000000e+03 3.551600265502929688e+01 9.187759399414062500e+00 3.931711455972680680e-14 -2.890075738405314953e-14 3.124907406811981356e-15 -1.443905487796132148e-13
4.991000000000000000e+03 3.555228042602539062e+01 8.477956771850585938e+00 -6.743648574400375878e-15 1.343627086761861600e-13 3.828571980930492447e-14 -3.222089953246014271e-14
4.992000000000000000e+03 2.159219551086425781e+01 -2.507829856872558594e+01 -5.629717070125550560e-14 -2.300066333140587949e-13 -8.589113984934157453e-14 1.008547019227916397e-13
4.993000000000000000e+03 4.299023818969726562e+01 -1.809690093994140625e+01 1.772234499452553236e-14 2.363500291747283599e-13 7.622171665534749341e-14 6.261123211689575974e-14
4.994000000000000000e+03 4.234253692626953125e+01 -1.867715263366699219e+01 1.758784293876512750e-14 2.362924038292607554e-13 7.616407098108915474e-14 1.224440674177894317e-14
4.995000000000000000e+03 1.526250267028808594e+01 -1.049691295623779297e+01 -7.079057527887080981e-14 -3.033881942871539950e-14 -3.033881942871539950e-14 9.521057580579375679e-14
4.996000000000000000e+03 1.516694355010986328e+01 -1.300202846527099609e+01 -1.893502004225288554e-14 1.291378435392884216e-13 3.306084450801181907e-14 5.498369703873899617e-14
4.997000000000000000e+03 1.425255680084228516e+01 -9.580915451049804688e+00 -1.399216571600081505e-13 -5.996642256107104219e-14 -5.996642256107104219e-14 1.193874050320212557e-14
4.998000000000000000e+03 7.263377380371093750e+01 -2.791840934753417969e+01 -8.633166792092314325e-16 9.113190210059338159e-14 2.708057675402785608e-14 -2.234684842500247320e-14
4.999000000000000000e+03 7.180709838867187500e+01 -2.891497039794921875e+01 1.557219251550195915e-14 1.210511725580065701e-13 4.098700952205255876e-14 6.638429633472678337e-14
5.000000000000000000e+03 7.187634944915771484e+00 -3.144481086730957031e+01 6.394511249717751977e-14 1.646578923555908069e-13 6.858090348870957143e-14 -6.697349245283687469e-14
5.001000000000000000e+03 4.041011047363281250e+01 -1.594291877746582031e+01 -1.062231696374350831e-13 1.374795866341746442e-13 9.376924082582331621e-15 1.578132495017904591e-14
5.002000000000000000e+03 3.430613708496093750e+01 5.612028598785400391e+00 -8.624315827189098921e-15 2.250586056493780740e-13 6.493028635373362945e-14 -2.180295467823015199e-13
5.003000000000000000e+03 3.274813461303710938e+01 -3.335947275161743164e+00 -4.078534791797025494e-15 8.332022544783532214e-14 2.377250821325102570e-14 -3.900767309530407678e-14
5.004000000000000000e+03 3.331190109252929688e+01 -4.985589027404785156e+00 1.114421733063378217e-13 1.850137745914789966e-13 8.893678572459776110e-14 -3.812601682929780966e-14
5.005000000000000000e+03 3.578766250610351562e+01 -7.378181457519531250e+00 -9.309892944455236408e-14 -3.989954119052244175e-14 -3.989954119052244175e-14 1.202529693660955856e-13
5.006000000000000000e+03 3.849628448486328125e+01 -1.336070251464843750e+01 -8.681406694866986018e-14 -8.295697706247120995e-14 -5.093131184808960543e-14 -1.429966442565572260e-14
5.007000000000000000e+03 2.112617111206054688e+01 -2.246515846252441406e+01 -5.528592178245111954e-14 -2.066977638310804610e-13 -7.859510297355404296e-14 1.006965981409889410e-13
5.008000000000000000e+03 2.014565849304199219e+01 -2.228659057617187500e+01 1.022966010267049516e-14 -3.616234373580995420e-13 -1.054181359718374400e-13 1.002466068055624104e-13
5.009000000000000000e+03 7.219778442382812500e+01 -3.357689285278320312e+01 -8.133021471188554147e-15 2.023936844942203495e-13 5.827819780576670716e-14 8.759636963809498689e-15
5.010000000000000000e+03 4.382135391235351562e+01 -2.062657165527343750e+01 4.480971664685626243e-14 2.022079606620735825e-13 7.410529980454716448e-14 9.476266478328568277e-14
5.011000000000000000e+03 9.605090141296386719e+00 -3.952858734130859375e+01 2.198654432616301696e-14 -1.049545650042005285e-13 -2.489040705044420071e-14 -9.027643270518442842e-15
5.012000000000000000e+03 2.085384178161621094e+01 -3.048545455932617188e+01 -4.682273195062052265e-15 -2.536369009785433004e-13 -7.749575585197163163e-14 -2.558787007283938944e-15
5.013000000000000000e+03 2.210675048828125000e+01 -2.373031806945800781e+01 -1.792697799018680427e-14 -1.449358347097376432e-13 -4.885884584285640764e-14 1.897592461852851131e-13
5.014000000000000000e+03 2.293008804321289062e+01 -2.480610656738281250e+01 -4.974934513283200965e-14 -2.043249467190144664e-13 -7.622228586148804830e-14 -1.305351971805056299e-14
5.015000000000000000e+03 8.036593437194824219e+00 -3.437376403808593750e+01 5.935542042676683616e-14 1.400029926517352974e-14 2.200671556876893087e-14 -2.905229200183341749e-15
5.016000000000000000e+03 4.755820083618164062e+01 -2.618866920471191406e+01 -2.865937332287640804e-14 2.965363143838523063e-13 8.036308435117184290e-14 -9.867271794561024989e-14
5.017000000000000000e+03 7.065470123291015625e+01 -3.900502777099609375e+01 2.014651093791997721e-14 1.344493228772405957e-13 4.637875031395476133e-14 2.299237901036855353e-14
5.018000000000000000e+03 2.077708053588867188e+01 -2.840778160095214844e+01 -4.746904095926512968e-14 -8.897029434799114123e-14 -4.093179991455052347e-14 6.520307839659456040e-14
5.019000000000000000e+03 2.567053031921386719e+01 -3.590154647827148438e+01 7.824338778879974532e-14 -2.338242175835975045e-13 -4.667424961606568556e-14 8.096033236447853360e-15
5.020000000000000000e+03 5.225761413574218750e+01 -2.816485977172851562e+01 -8.804640671330066920e-15 2.936077487906973982e-13 8.544093167348054685e-14 4.666443758640469175e-14
5.021000000000000000e+03 6.296226882934570312e+01 2.786952209472656250e+01 7.036090595791480440e-14 3.015467446598231460e-14 3.015467446598231460e-14 6.439627612620305031e-14
5.022000000000000000e+03 5.723506546020507812e+01 2.846614646911621094e+01 -1.997687903770514750e-13 -1.771170964883980736e-13 -1.130657660596348646e-13 1.074909814478310077e-13
5.023000000000000000e+03 6.978425598144531250e+01 2.697846412658691406e+01 5.316822082970275309e-14 -1.602174203854320189e-13 -3.211475952790560084e-14 -2.012077977104828608e-13
5.024000000000000000e+03 7.228099060058593750e+01 2.757572174072265625e+01 1.374127404880432293e-14 1.431419680052517518e-13 4.706497236210693824e-14 1.467868795262949888e-14
5.025000000000000000e+03 6.844583129882812500e+01 2.743730545043945312e+01 1.017162902842115579e-13 -2.194752626166751597e-13 -3.532769102211272272e-14 -1.810538515173518853e-14
5.026000000000000000e+03 6.885511016845703125e+01 2.642447280883789062e+01 1.632518718732572927e-13 2.421413763942226183e-14 5.623980285380386634e-14 -1.582308502973139852e-13
5.027000000000000000e+03 6.803179931640625000e+01 2.760380744934082031e+01 4.326739162265058614e-14 -5.008325568503502190e-14 -2.044758498737325562e-15 -1.207339756599187797e-13
5.028000000000000000e+03 6.595598602294921875e+01 2.756399345397949219e+01 1.759943373761535534e-13 7.542614265370478632e-14 7.542614265370478632e-14 3.880850515621848962e-14
5.029000000000000000e+03 6.472476959228515625e+01 2.827543067932128906e+01 4.625029268530596316e-14 -2.546841318569470491e-13 -6.253015412318457811e-14 2.963334330523259563e-13
5.030000000000000000e+03 7.296723175048828125e+01 2.516995429992675781e+01 4.709932124218399463e-14 -7.131647431889848177e-14 -7.265145584201167239e-15 1.013393877277377064e-13
5.031000000000000000e+03 6.950019073486328125e+01 2.735568237304687500e+01 -6.077859163221635552e-14 -1.175498636147090381e-13 -5.349853657407761809e-14 -5.707806731598819017e-14
5.032000000000000000e+03 6.546955871582031250e+01 2.765112495422363281e+01 3.270031814772700329e-13 1.630196899780195219e-13 1.470068641470922977e-13 -8.089741306309058966e-14
5.033000000000000000e+03 6.643804931640625000e+01 2.745710945129394531e+01 -7.918517153559980620e-15 2.024856248384471202e-13 5.837013137372989990e-14 6.847148716071504992e-14
5.034000000000000000e+03 6.338312149047851562e+01 2.802528381347656250e+01 1.639894952687806495e-13 -1.127225821907253123e-13 1.538007527866931679e-14 3.084883422928980101e-13
5.035000000000000000e+03 6.990772247314453125e+01 2.651839447021484375e+01 -9.556315835228604283e-14 -1.324575350661674755e-13 -6.840621141366784452e-14 -8.351724531136667240e-14
5.036000000000000000e+03 6.574725341796875000e+01 2.707678413391113281e+01 3.622866709320632372e-13 2.696430860711640509e-13 1.895789298114736177e-13 -1.435847697250219879e-13
5.037000000000000000e+03 5.332156372070312500e+01 2.492085647583007812e+01 -4.196276776036698963e-14 1.650197583831850001e-13 3.691709413752679303e-14 -8.500539410826596365e-14
5.038000000000000000e+03 6.411357116699218750e+01 2.793733978271484375e+01 6.041207708780763075e-14 -2.028638487663186885e-13 -4.273553285880603292e-14 3.850057750907909249e-13
5.039000000000000000e+03 6.691046905517578125e+01 2.732474136352539062e+01 1.621067510912052589e-13 4.812328378671348883e-13 1.930018780427547598e-13 -5.094358704956121475e-14
5.040000000000000000e+03 6.759029388427734375e+01 2.772945976257324219e+01 -1.764360277886969919e-13 1.073883549359416767e-13 -2.071430422751884687e-14 5.309815765243766639e-14
5.041000000000000000e+03 7.174951171875000000e+01 2.756789779663085938e+01 1.076971391027973374e-14 4.615591373322404725e-15 4.615591373322404725e-15 8.745876066548405325e-15
5.042000000000000000e+03 7.110931396484375000e+01 2.816139793395996094e+01 -2.994008375099312114e-14 -1.043333645932113807e-13 -4.028203416444817164e-14 -1.443973250431912492e-13
5.043000000000000000e+03 3.752687072753906250e+01 1.070819568634033203e+01 -1.015450625739241011e-14 4.139901651199241750e-14 9.373352991676707491e-15 -7.251393496082725321e-14
5.044000000000000000e+03 5.796837997436523438e+01 2.815134239196777344e+01 -4.269136517280440468e-14 -1.829629960178272979e-14 -1.829629960178272979e-14 -1.197409989358525634e-14
5.045000000000000000e+03 6.252864837646484375e+01 2.759352302551269531e+01 8.050520292719395843e-14 5.165883522274990203e-14 3.964921246142269484e-14 8.749662642635810950e-14
5.046000000000000000e+03 7.281062316894531250e+01 1.376321029663085938e+01 -2.959484667421942439e-14 1.245693408450862516e-13 2.849234859007322707e-14 2.278143731331613159e-14
5.047000000000000000e+03 7.212470245361328125e+01 1.300346851348876953e+01 -8.975438935913265803e-14 -2.214699642210868347e-13 -9.336730336356041660e-14 -1.164711637682488976e-13
5.048000000000000000e+03 4.708198547363281250e+01 2.014153861999511719e+01 -8.626183534837794653e-14 -3.696935607037238336e-14 -3.696935607037238336e-14 5.152498368829298847e-14
5.049000000000000000e+03 7.282793426513671875e+01 1.528271675109863281e+01 1.381579770156965078e-14 9.742295132512263089e-14 3.337162428449121088e-14 -1.991668413308875230e-13
5.050000000000000000e+03 5.376262283325195312e+01 2.577604675292968750e+01 -8.029936036848400738e-14 7.996335933896717152e-14 -1.008013345590103233e-16 3.542829481932401048e-14
5.051000000000000000e+03 5.588505172729492188e+01 2.698274230957031250e+01 -9.772337697085478614e-14 3.869500189425346612e-15 -2.815616460143978428e-14 1.416800569009266098e-13
5.052000000000000000e+03 7.168393707275390625e+01 2.819275093078613281e+01 7.029229628918720607e-14 -1.528785236425134197e-13 -2.477586956125057971e-14 5.622585391522848253e-14
5.053000000000000000e+03 7.121272277832031250e+01 2.752663612365722656e+01 9.791961756407466244e-14 -3.785398288092467131e-15 2.824026650277266376e-14 -6.090452171455054686e-14
5.054000000000000000e+03 1.845549392700195312e+01 -2.101778030395507812e+01 7.860467105772622753e-14 -1.264406060321604519e-13 -1.435077947589073061e-14 9.609700594949074914e-14
5.055000000000000000e+03 3.688265609741210938e+01 -1.033420658111572266e+01 -1.717952223621171948e-13 2.931311335156727704e-14 -4.274463338079133312e-14 -1.589429161677198381e-15
5.056000000000000000e+03 3.696029281616210938e+01 -8.258940696716308594e+00 -1.288505299635797630e-13 4.628826347826547893e-14 -2.476867994559428521e-14 2.154046458888690674e-14
5.057000000000000000e+03 1.912123489379882812e+01 -2.456097984313964844e+01 -1.120859454513054021e-13 -1.852896769393222454e-13 -8.921268807244100985e-14 -1.221028063136701466e-15
5.058000000000000000e+03 1.937846565246582031e+01 -2.234923744201660156e+01 -5.878187747752200432e-14 -2.539469827998741547e-13 -9.381865672796613209e-14 1.221351985476390456e-13
5.059000000000000000e+03 3.757315826416015625e+01 -1.181919670104980469e+01 -3.651722004752340489e-14 7.585165812508745664e-14 1.180033277852193113e-14 -2.365573794520844236e-14
5.060000000000000000e+03 3.117226600646972656e+01 -2.644169569015502930e+00 5.833738169185725964e-14 1.622545820574236575e-13 6.617759319054242195e-14 -1.816267812147429050e-13
5.061000000000000000e+03 3.116581916809082031e+01 -7.548761367797851562e-01 -5.186366134192314792e-14 6.481904805786956394e-16 -1.536464233837034343e-14 -1.638241815425309222e-13
5.062000000000000000e+03 6.004091644287109375e+01 2.833994865417480469e+01 1.515097455048047825e-13 -2.038540777155040118e-13 -1.570329966320976878e-14 8.533547945967917547e-14
5.063000000000000000e+03 6.094489669799804688e+01 2.755973243713378906e+01 2.332389923559441414e-13 8.457673953278076889e-15 7.250900184094244416e-14 1.353530867031702001e-13
5.064000000000000000e+03 6.779552936553955078e+00 -1.477477073669433594e+01 3.919830971854491863e-14 -7.470262066268731904e-14 -1.065129446908884628e-14 1.471667297574252853e-13
5.065000000000000000e+03 1.148344326019287109e+01 -7.446606159210205078e+00 1.061539382465242001e-14 -6.407697181014249121e-14 -1.603847229450418993e-14 -9.186588664257533399e-14
5.066000000000000000e+03 4.561297607421875000e+01 1.764777946472167969e+01 1.329968443318160776e-13 -9.741080148452721521e-14 1.067581183774712200e-14 8.850941355699470936e-14
5.067000000000000000e+03 7.257302093505859375e+01 -7.071554183959960938e+00 -3.706959056121866825e-14 2.586187286459512569e-13 6.646473735966162977e-14 1.768108364797252308e-13
5.068000000000000000e+03 5.388994216918945312e+01 2.504475975036621094e+01 -3.127486198619897073e-14 1.467248089519201937e-13 3.463498408971636688e-14 1.943294497216453698e-14
5.069000000000000000e+03 5.926494598388671875e+01 2.692432212829589844e+01 1.297582782324932515e-13 -1.273931047457432797e-13 7.095541530194478513e-16 6.024078669708207712e-14
5.070000000000000000e+03 5.905712127685546875e+01 2.854769515991210938e+01 8.999113167975844596e-14 6.144310591999629922e-14 4.543026992467370795e-14 4.529906452114401683e-14
5.071000000000000000e+03 5.847517395019531250e+01 2.837008094787597656e+01 6.505157469551686722e-14 9.650566885335484790e-14 4.846717441991423014e-14 -7.677902198299346032e-15
5.072000000000000000e+03 5.166113281250000000e+01 2.208622360229492188e+01 -1.142414884480053017e-13 2.484205332761724172e-13 4.025371615895556587e-14 -1.134862704841015785e-14
5.073000000000000000e+03 1.512471103668212891e+01 -1.366167259216308594e+01 -2.689215258084524246e-15 -4.690347028411985530e-14 -1.487780506973825079e-14 1.408086022997370734e-13
5.074000000000000000e+03 1.655239105224609375e+01 -1.516574668884277344e+01 -3.994188944975336775e-14 -3.831255516832665631e-13 -1.269202299682137269e-13 1.688577527586207494e-13
5.075000000000000000e+03 4.307611083984375000e+01 1.575877857208251953e+01 -2.014777369463774392e-13 -1.778495021609663440e-13 -1.137981717322031350e-13 -5.900972934033341111e-14
5.076000000000000000e+03 4.464670944213867188e+01 1.654414367675781250e+01 -4.901680732312396760e-14 -1.754166609061261206e-13 -6.733003911352231086e-14 1.794525357305676305e-13
5.077000000000000000e+03 4.531216812133789062e+01 -2.071631622314453125e+01 7.356907373882656809e-14 2.631437819380910703e-13 1.010138560254489337e-13 4.955259970797556979e-14
5.078000000000000000e+03 4.912639236450195312e+01 2.105817604064941406e+01 -9.788141299002170448e-14 3.801773129028787265e-15 -2.822389166183634363e-14 -3.822691878210653094e-14
5.079000000000000000e+03 7.330054473876953125e+01 -2.027394866943359375e+01 1.842336911283756762e-13 7.895730103806355982e-14 7.895730103806355982e-14 -8.368066337788044456e-15
5.080000000000000000e+03 7.212420654296875000e+01 -2.146369171142578125e+01 1.062930803487696640e-13 2.743089230154011071e-13 1.141805969434930845e-13 1.290556610146140204e-13
5.081000000000000000e+03 4.093271255493164062e+01 1.118811511993408203e+01 -5.796783815762915348e-14 -1.964094170506594517e-13 -7.631317588486022374e-14 -1.210075198680368724e-13
5.082000000000000000e+03 5.275335311889648438e+01 2.472043609619140625e+01 -6.142051385722713253e-14 2.481826051094204733e-13 5.602863076378979124e-14 -3.057238029359130027e-14
5.083000000000000000e+03 5.198226165771484375e+01 2.295594787597656250e+01 -7.669591280427476288e-14 1.958850697749911496e-13 3.575674709121491601e-14 -5.498416460092588054e-14
5.084000000000000000e+03 3.636734008789062500e+01 8.568610191345214844e+00 4.647429901853683543e-14 1.991755623821124532e-14 1.991755623821124532e-14 -1.117340879650159657e-13
5.085000000000000000e+03 3.062735557556152344e+01 -1.138454794883728027e+00 -1.660943518139168518e-13 1.597160310907660974e-13 -1.913496979274878843e-15 -1.386970779112400853e-13
5.086000000000000000e+03 7.165699005126953125e+01 -2.355273056030273438e+01 -3.356742103244672593e-14 -1.438603637528724360e-14 -1.438603637528724360e-14 -3.101077744203581399e-14
5.087000000000000000e+03 7.318786621093750000e+01 -5.198789238929748535e-01 3.160927194902768411e-13 1.354683102890510971e-13 1.354683102890510971e-13 6.360979587028206539e-14
5.088000000000000000e+03 7.174211120605468750e+01 1.177538514137268066e+00 1.395683156719951246e-13 1.406404272961915211e-14 4.608970879103370388e-14 5.011975602879810421e-14
5.089000000000000000e+03 5.971014404296875000e+01 2.794080352783203125e+01 -6.120340914845048830e-14 -5.752414061581390126e-13 -1.909334506906140705e-13 1.653121406040500285e-13
5.090000000000000000e+03 4.536980438232421875e+01 -2.314900016784667969e+01 4.982265075221918582e-14 2.043563614769622339e-13 7.625370061943581579e-14 -9.109283694106601326e-15
5.091000000000000000e+03 4.544255447387695312e+01 -2.195653533935546875e+01 -4.427137638689931931e-14 1.861909606527822891e-13 4.257587731264396436e-14 -4.014826055702240548e-14
5.092000000000000000e+03 1.103595542907714844e+01 -6.572672843933105469e+00 1.351343760199255617e-13 -7.933811349862193718e-14 1.673888214452287637e-14 9.428216162703315778e-15
5.093000000000000000e+03 7.247676849365234375e+01 -1.423351955413818359e+01 -1.051447476177816420e-13 2.751946077701045157e-13 5.101495804569686210e-14 -3.147229858994037011e-14
5.094000000000000000e+03 7.199228668212890625e+01 -1.970959663391113281e+01 8.693338000962010093e-15 2.096049841939645608e-13 6.548949750551091853e-14 1.628441847513484309e-14
5.095000000000000000e+03 7.371939086914062500e+01 2.683921432495117188e+01 1.712131074394461494e-14 1.445905569753824782e-13 4.851355794410587563e-14 -1.647577338231495658e-13
5.096000000000000000e+03 7.183301544189453125e+01 2.692097091674804688e+01 -2.370281095421915285e-14 8.134354870454121866e-14 1.729222166390979865e-14 -1.427424123996365313e-13
5.097000000000000000e+03 3.649891281127929688e+01 -8.664643287658691406e+00 -1.946155266292510372e-14 3.741028415326329293e-14 5.384618938881688410e-15 3.960475678421900014e-14
5.098000000000000000e+03 7.944986820220947266e+00 -2.337401962280273438e+01 4.823216004650084099e-14 1.121728239266393812e-13 4.812149349787617214e-14 8.955846640326800209e-16
5.099000000000000000e+03 6.976731300354003906e+00 -1.625485610961914062e+01 -1.043373558124588429e-13 -1.590933873356348283e-13 -7.902921752341723893e-14 4.826913472871438571e-14
5.100000000000000000e+03 7.356443023681640625e+01 1.915283775329589844e+01 -2.891076592535790635e-14 3.336061963244048301e-14 1.334955900366536184e-15 -8.178368057646170919e-14
5.101000000000000000e+03 7.219736480712890625e+01 1.753838157653808594e+01 1.483023400535455477e-14 5.210676318591692113e-14 2.008109966560121112e-14 1.844378031987743867e-15
5.102000000000000000e+03 3.195160293579101562e+01 4.837335348129272461e-01 -6.667926708827862092e-14 1.544269676327300611e-13 2.632431016333543206e-14 6.701094486163267083e-14
5.103000000000000000e+03 7.254951477050781250e+01 -7.890853881835937500e+00 7.597661920172998906e-15 4.150146751865507744e-13 1.267837018096434898e-13 -1.098016873279407390e-13
5.104000000000000000e+03 7.178135681152343750e+01 -9.607092857360839844e+00 -2.943699022603732396e-14 2.847653211325573697e-13 7.659849723907694030e-14 6.421099952745243367e-14
5.105000000000000000e+03 7.189138793945312500e+01 -2.548368263244628906e+01 -4.974574016060849535e-14 1.555870880977285476e-15 -1.445696183209263519e-14 5.878198589773925287e-14
5.106000000000000000e+03 3.169169998168945312e+01 -3.977996110916137695e-01 -1.374465997830767727e-13 1.584113157489241974e-13 6.289417839072837524e-15 -6.883714111964936433e-14
5.107000000000000000e+03 7.733159542083740234e+00 -2.630940055847167969e+01 -8.989388552115007425e-14 9.872689417291663494e-14 2.649902764936557659e-15 -2.010419147780925786e-14
5.108000000000000000e+03 8.588896751403808594e+00 -2.420019149780273438e+01 6.547324124918721400e-15 1.229022309270910718e-13 3.883486820966883246e-14 -2.537938731243284673e-14
5.109000000000000000e+03 6.585962295532226562e+00 -1.109134769439697266e+01 4.902218767640492691e-14 -2.534961715365546819e-13 -6.134220057905578893e-14 -1.939024434722755319e-14
5.110000000000000000e+03 8.005745887756347656e+00 -1.008329296112060547e+01 -5.437576793996742874e-14 -5.265643606908176899e-13 -1.742820297800928842e-13 -6.319988528688666105e-15
5.111000000000000000e+03 7.265065002441406250e+01 2.461455917358398438e+01 -3.960209032450104361e-14 2.877862539745444648e-14 -3.247040240443631667e-15 4.010263936248328887e-15
5.112000000000000000e+03 7.216393280029296875e+01 7.779191493988037109e+00 2.165392295810572576e-13 3.673082075040384753e-13 1.751542297702760043e-13 -1.968000957509874471e-13
5.113000000000000000e+03 7.160086822509765625e+01 7.162667751312255859e+00 -2.339197188543345324e-14 -8.722985848181805113e-14 -3.318654758551614625e-14 -1.839239752252780358e-13
5.114000000000000000e+03 7.208748626708984375e+01 1.079502868652343750e+01 -3.937348290830068598e-14 3.033822921615775270e-13 7.920264243716987340e-14 -1.425002558444118939e-13
5.115000000000000000e+03 7.200441741943359375e+01 4.024947166442871094e+00 2.130312934519804080e-13 1.828010263776533306e-13 1.187496959488901216e-13 -2.263007896309218725e-13
5.116000000000000000e+03 7.155821228027343750e+01 -2.890671253204345703e+00 3.644188832532639644e-14 3.358745844384697365e-13 1.116949414903256610e-13 1.223591811639473947e-13
5.117000000000000000e+03 7.145794677734375000e+01 -1.726065063476562500e+01 -1.203473085076289806e-13 4.059320696421508945e-13 8.567543105086200539e-14 -3.031750807976248130e-14
5.118000000000000000e+03 7.274890899658203125e+01 1.073796653747558594e+01 -7.948765885952557841e-14 -7.981708691337172090e-14 -4.779142508712190540e-14 3.360999841408988421e-15
5.119000000000000000e+03 7.248625183105468750e+01 -1.044378757476806641e+01 -8.266325314141773073e-14 1.933276401380051857e-13 3.319931406609716307e-14 6.775196316520862294e-14
5.120000000000000000e+03 7.232949066162109375e+01 -3.773877143859863281e+00 7.597711895116886910e-15 4.150147022916050865e-13 1.267837289146978019e-13 1.393561508593668674e-13
5.121000000000000000e+03 7.269316864013671875e+01 3.351556062698364258e+00 2.952708336081272256e-13 2.180465416513552301e-13 1.539952112225920211e-13 -4.766428544173903492e-14
5.122000000000000000e+03 7.284588623046875000e+01 1.682679557800292969e+01 -2.560140311823767140e-14 -1.097203027083026514e-14 -1.097203027083026514e-14 -6.821410434123056921e-14
5.123000000000000000e+03 7.321472930908203125e+01 -5.422952175140380859e+00 1.700468650438213825e-13 2.558810368452624218e-13 1.277783624352088476e-13 -7.853238187787575653e-14
5.124000000000000000e+03 7.267221832275390625e+01 2.604179620742797852e+00 1.237997876955831966e-13 -3.844484341877611733e-14 2.560648531592119720e-14 -6.449455227687528325e-14
5.125000000000000000e+03 7.240859222412109375e+01 -4.639637947082519531e+00 2.512729336667102187e-13 2.449412471895034971e-13 1.488642515463586835e-13 -1.726478457268233735e-14
5.126000000000000000e+03 7.326855468750000000e+01 1.031015396118164062e+00 1.872269564861736568e-13 1.031156022656028182e-13 8.710276965841201591e-14 5.558909859119595676e-14
5.127000000000000000e+03 7.169708251953125000e+01 -2.676514434814453125e+01 -3.000343503918416477e-14 2.616470679440291436e-13 6.949309021026667255e-14 6.980647207196002957e-14
5.128000000000000000e+03 7.250846099853515625e+01 -1.129249286651611328e+01 1.115430921998054881e-13 3.909363067641780098e-13 1.507438108800523979e-13 -8.137320163395869721e-14
5.129000000000000000e+03 7.263769531250000000e+01 -2.004696846008300781e+01 -7.635323715513356313e-14 4.019111974652711528e-13 9.766739148117306590e-14 1.832377159076761797e-13
5.130000000000000000e+03 7.343495178222656250e+01 -1.962626266479492188e+01 -2.928943369849383582e-14 3.534549768754308152e-13 9.724966193664155711e-14 1.260373099290501564e-13
5.131000000000000000e+03 7.211446380615234375e+01 6.435774326324462891e+00 1.836230142547232158e-13 2.388239074817971597e-13 1.267340724551979658e-13 -1.254848547120601676e-13
5.132000000000000000e+03 7.270874023437500000e+01 9.988085746765136719e+00 -2.197113002058888320e-14 2.193385447227247376e-13 5.921022542708029301e-14 -1.379083343832840369e-13
5.133000000000000000e+03 7.262580108642578125e+01 9.247815132141113281e+00 1.104579345741554808e-13 1.388410057496375360e-13 7.478968209713790505e-14 -1.270845543599810612e-13
5.134000000000000000e+03 7.283541870117187500e+01 1.605360603332519531e+01 8.898046551962177086e-14 1.753873332373603877e-13 7.931033759421557416e-14 -1.212042076946528990e-13
5.135000000000000000e+03 3.293370437622070312e+01 1.715207099914550781e+00 7.178703839054792479e-14 3.052715686572421427e-13 1.131175841472160937e-13 -1.926487940527576992e-13
5.136000000000000000e+03 7.256346130371093750e+01 -1.211185264587402344e+01 -9.575312412543265927e-14 1.877176934944949083e-13 2.758936911665278019e-14 2.502674174668928497e-13
5.137000000000000000e+03 7.332870483398437500e+01 -1.360641956329345703e+01 1.558997478638343703e-13 3.870708278636697530e-13 1.628911713629985214e-13 -1.562105615216316523e-13
5.138000000000000000e+03 4.609798049926757812e+01 1.817422485351562500e+01 -1.284135558304866365e-13 -6.218296548250040745e-14 -5.717895910440154439e-14 1.042313598035053343e-14
5.139000000000000000e+03 4.615182876586914062e+01 1.723774719238281250e+01 -8.986648908750408116e-14 -1.128595033725830754e-13 -6.081779909327886258e-14 4.927870313415141923e-14
5.140000000000000000e+03 7.349053955078125000e+01 1.453018665313720703e+01 -7.368825466263703716e-14 -7.733162797184806037e-14 -4.530596614559824487e-14 -8.927360668200753913e-14
5.141000000000000000e+03 7.747135639190673828e+00 -1.637005805969238281e+01 -1.044269718982783479e-13 -1.362563084280135617e-13 -7.220498477551393068e-14 1.283339889435533565e-13
5.142000000000000000e+03 7.317910003662109375e+01 -2.098454856872558594e+01 -1.129134221018734952e-13 3.176161319628362234e-13 6.141081024778338726e-14 1.003853643548498209e-13
5.143000000000000000e+03 7.289986419677734375e+01 -1.466321945190429688e+01 -3.180805906210018574e-14 1.693717730085961271e-13 4.126911215106970898e-14 -2.594944929507764231e-13
5.144000000000000000e+03 7.099511718750000000e+01 -2.753288459777832031e+01 -3.158725620747582924e-15 1.073047629484430443e-13 3.124380975835262808e-14 -2.211460088471129022e-15
5.145000000000000000e+03 1.182305622100830078e+01 -8.715084075927734375e+00 -9.211736733648334674e-14 6.272077380576647487e-15 -2.575358613973906252e-14 -7.421830077597446618e-14
5.146000000000000000e+03 4.857748794555664062e+01 2.060553169250488281e+01 -9.289253631442669773e-15 -3.981108638687362242e-15 -3.981108638687362242e-15 6.488153367838851368e-15
5.147000000000000000e+03 5.012505722045898438e+01 2.086098670959472656e+01 -8.591658471907709371e-14 8.929556008193447608e-15 -2.309610835915520966e-14 -1.406038778245174981e-13
5.148000000000000000e+03 6.819487762451171875e+01 2.698567390441894531e+01 6.759720008134989522e-14 2.462872299765356265e-13 9.416533037261837213e-14 -1.739876959953173818e-13
5.149000000000000000e+03 8.406145095825195312e+00 -2.733085441589355469e+01 -2.470681435319272562e-14 -1.416292704994751364e-14 -1.166092216683218760e-14 -3.011772350069129300e-14
5.150000000000000000e+03 1.050705146789550781e+01 -2.340212440490722656e+01 -6.911092249699268830e-14 1.876980423301186085e-13 3.557613594993777606e-14 5.912935834457297771e-15
5.151000000000000000e+03 5.237852096557617188e+01 2.382974243164062500e+01 -1.380632126636235912e-13 -1.341899918819774301e-14 -4.544466270851345302e-14 -9.593470088426966913e-14
5.152000000000000000e+03 6.555831909179687500e+00 -1.263140583038330078e+01 6.166553677194527849e-14 -1.565757072607976141e-13 -2.847304979140298509e-14 -3.683298037773265199e-14
5.153000000000000000e+03 7.312638282775878906e+00 -1.055823326110839844e+01 5.506000115475945256e-14 -6.790475435636614265e-14 -3.853426045185301754e-15 5.949343936332424088e-14
5.154000000000000000e+03 7.203111171722412109e+00 -1.866633224487304688e+01 7.546825332019400749e-16 -2.284313146624916691e-13 -6.830298859058364647e-14 1.544979422174463934e-13
5.155000000000000000e+03 8.618715286254882812e+00 -1.729196357727050781e+01 -1.123168669615176585e-13 -1.853886510451430158e-13 -8.931165540199820230e-14 5.657143658144465903e-14
5.156000000000000000e+03 8.914305686950683594e+00 -7.317794322967529297e+00 -9.165322038644230229e-14 6.470997139008689142e-15 -2.555466722833996812e-14 -3.977720252788460864e-14
5.157000000000000000e+03 7.800822734832763672e+00 -8.659694671630859375e+00 -4.751434028128428966e-14 -6.611423512608780029e-14 -3.408857329983798479e-14 5.277352380507298324e-14
5.158000000000000000e+03 7.311879158020019531e+00 -1.131438636779785156e+01 7.954136074838150106e-14 3.408915605850569575e-14 3.408915605850569575e-14 1.124694159012522635e-15
5.159000000000000000e+03 7.213808441162109375e+01 2.354335594177246094e+01 -7.444861411653059396e-15 1.111867149457095028e-13 3.112255529788728048e-14 2.274423901440451173e-14
5.160000000000000000e+03 7.367131042480468750e+01 2.223811721801757812e+01 -2.301816269328297443e-15 -9.248838809617146439e-14 -2.843706105554004437e-14 6.751372329033208941e-14
5.161000000000000000e+03 6.983122825622558594e+00 -2.141360473632812500e+01 -6.549454582187655416e-14 -2.806909300259383122e-14 -2.806909300259383122e-14 2.900203203135866270e-14
5.162000000000000000e+03 7.872561454772949219e+00 -1.722705841064453125e+01 -1.308130172109414624e-13 -2.161910380533635379e-13 -1.041012165792915001e-13 -2.212163761092060532e-14
5.163000000000000000e+03 8.037797927856445312e+00 -1.525898933410644531e+01 -6.351610725005216174e-14 -1.187230923380827585e-13 -5.467175852118776047e-14 1.595317302739707177e-13
5.164000000000000000e+03 6.333948135375976562e+00 -1.458662223815917969e+01 -5.752837035953931033e-14 -7.040596133444515514e-14 -3.838029950819533964e-14 -2.913446319744214920e-16
5.165000000000000000e+03 3.653377914428710938e+01 1.087172508239746094e+01 1.263505088316269065e-13 3.286559121639526238e-13 1.365019344301901527e-13 -1.250504691116538503e-13
5.166000000000000000e+03 4.166772842407226562e+01 -1.660964012145996094e+01 -1.443087457256991835e-13 1.669081404120573153e-13 6.779820692896397147e-15 -1.288007786363898344e-13
5.167000000000000000e+03 4.054615402221679688e+01 -1.446245002746582031e+01 -9.812876016314711625e-14 2.553259795430584678e-13 4.715916920210519447e-14 3.497697194810439614e-14
5.168000000000000000e+03 4.257489395141601562e+01 -1.664938354492187500e+01 2.347917562141917797e-14 -8.715826048085253963e-14 -1.910372528842341905e-14 1.865630046282706900e-14
5.169000000000000000e+03 1.241061401367187500e+01 -6.930492401123046875e+00 -1.508723566001277105e-13 -4.421049030339796460e-13 -1.778931819559903538e-13 -1.186625396467494431e-13
5.170000000000000000e+03 5.349182128906250000e+01 2.421273422241210938e+01 -1.309158266819474004e-13 3.539511484471416503e-14 -2.865621219591725499e-14 3.540033595580104053e-14
5.171000000000000000e+03 7.239710235595703125e+01 -2.076843261718750000e+01 9.055390714617778114e-14 1.593334364728866970e-14 3.194617625447947196e-14 2.332802428604754258e-14
5.172000000000000000e+03 3.488274765014648438e+01 5.280186653137207031e+00 1.409787271731272051e-13 1.466850831066939670e-14 4.669417183098510671e-14 -1.948214132336742455e-13
5.173000000000000000e+03 3.379482650756835938e+01 3.655074119567871094e+00 4.415887008271321412e-14 6.467617646955733934e-14 3.265051464330752384e-14 -1.432906798857352948e-13
5.174000000000000000e+03 7.289911651611328125e+01 1.984472656250000000e+01 3.719768565976604158e-14 1.531947176535916610e-13 5.711771523418326946e-14 2.011249240069235000e-14
5.175000000000000000e+03 3.764877319335937500e+01 -1.255890941619873047e+01 -6.304160616926388072e-14 1.102350158312288830e-13 1.415802442324880575e-14 6.125634277842325129e-15
5.176000000000000000e+03 3.872252273559570312e+01 -1.229547405242919922e+01 -1.132795910568397402e-13 2.007802832413446703e-14 -2.796046780337204524e-14 1.283900421958708571e-13
5.177000000000000000e+03 4.261398315429687500e+01 1.516908836364746094e+01 -4.836902701824997985e-14 -6.648053283006202796e-14 -3.445486761568042344e-14 1.013680852039906821e-13
5.178000000000000000e+03 4.417403793334960938e+01 1.596493244171142578e+01 -3.267067877083668082e-13 -8.282851265755883374e-14 -1.228605975636676284e-13 -6.128114644421769897e-14
5.179000000000000000e+03 4.224848175048828125e+01 1.454907417297363281e+01 -8.855482129923111789e-14 -2.209558626559485206e-13 -9.285320179842210253e-14 -9.272912841230829262e-14
5.180000000000000000e+03 1.858864212036132812e+01 -1.794170951843261719e+01 1.049266874558404949e-13 -4.796303396223562665e-14 1.708909638689463939e-14 1.231058440950838495e-13
5.181000000000000000e+03 1.758914184570312500e+01 -1.697765731811523438e+01 -9.736696244730912164e-15 -1.871766630578974855e-13 -5.907400897663464545e-14 1.250312025002356039e-14
5.182000000000000000e+03 3.552900695800781250e+01 7.697266101837158203e+00 6.686270731959959024e-14 -6.284644977821648992e-14 1.204877897689640535e-15 -1.637120885904230772e-13
5.183000000000000000e+03 5.072938156127929688e+01 2.126075553894042969e+01 -2.148256078133789233e-16 1.200041720725644745e-13 3.593680257887865714e-14 -1.052277500703489854e-13
5.184000000000000000e+03 3.803837203979492188e+01 1.016856861114501953e+01 1.768839591399958000e-14 -5.961596776134225895e-14 -1.257827070716985643e-14 2.222194155846856506e-14
5.185000000000000000e+03 3.222365570068359375e+01 -2.769445657730102539e+00 -9.388813375843171882e-14 1.770792307275240174e-13 2.495733112360676298e-14 -1.615078920212328906e-13
5.186000000000000000e+03 7.872595310211181641e+00 -2.102085113525390625e+01 5.522706654514410174e-14 2.366874328908058489e-14 2.366874328908058489e-14 9.641416049593117682e-15
5.187000000000000000e+03 6.698687076568603516e+00 -2.206398391723632812e+01 -4.690603848801593034e-14 1.629012137856211684e-13 3.479854953996296130e-14 1.376423457090554525e-14
5.188000000000000000e+03 4.001354980468750000e+01 -1.326563262939453125e+01 -1.784273683663739618e-13 3.581651305834682164e-13 5.392133476376549661e-14 -4.906093096341233861e-14
5.189000000000000000e+03 4.082389068603515625e+01 -1.502272415161132812e+01 9.722984475380759550e-15 2.786726741293293896e-13 8.651870317183049663e-14 -3.265985911078163328e-14
5.190000000000000000e+03 3.387094497680664062e+01 5.202933788299560547e+00 9.257050963447366332e-14 2.226768709744433861e-13 9.457421689318054603e-14 -1.178346564203666680e-13
5.191000000000000000e+03 3.508877944946289062e+01 -5.821877956390380859e+00 -7.382440335044690438e-14 -2.020129194675070183e-14 -2.820770825034610296e-14 -5.023030738094194647e-14
5.192000000000000000e+03 3.275532531738281250e+01 -4.376770496368408203e+00 4.976733950076348001e-14 1.214090676951440351e-13 5.135292080351953892e-14 -3.348321240496249240e-14
5.193000000000000000e+03 1.192445945739746094e+01 -8.131772041320800781e+00 2.033164354106956062e-14 8.713561759610653767e-15 8.713561759610653767e-15 -8.445304053522964538e-14
5.194000000000000000e+03 4.287520599365234375e+01 1.433932018280029297e+01 -1.017952405311592368e-13 -1.122529532434496380e-13 -6.421445542187723121e-14 6.512378933646797985e-14
5.195000000000000000e+03 3.463169479370117188e+01 3.983486890792846680e+00 -5.679748257001251965e-14 1.586620103962571582e-13 3.055935970312610717e-14 -1.119728021783429617e-13
5.196000000000000000e+03 1.585185241699218750e+01 -1.438882923126220703e+01 -1.629756307122351422e-13 -3.443523949060028899e-13 -1.521984036197132628e-13 4.521076641859043954e-14
5.197000000000000000e+03 5.587846374511718750e+01 2.867702865600585938e+01 4.281556053166261921e-14 1.327268915433943430e-13 5.266273867183569879e-14 1.210533816199330093e-13
5.198000000000000000e+03 8.720320701599121094e+00 -2.027079391479492188e+01 -3.073931693496796680e-14 -5.892494473044504466e-14 -2.689927782199754563e-14 5.999343274769308731e-14
5.199000000000000000e+03 4.182730484008789062e+01 -1.519060134887695312e+01 3.401561496395918288e-15 2.759634968457769233e-13 8.380951911201445226e-14 9.971458202326019538e-15
5.200000000000000000e+03 7.332100677490234375e+01 2.749952507019042969e+01 -7.237215519798403940e-15 -1.861054577589546510e-13 -5.800280367769181100e-14 -2.789028604149434293e-14
5.201000000000000000e+03 7.787523746490478516e+00 -1.417247962951660156e+01 -4.869211926565066018e-14 -1.123699454341244020e-13 -4.831861839349298193e-14 2.109559949685715918e-13
5.202000000000000000e+03 6.970065593719482422e+00 -1.427001380920410156e+01 8.226730420209191902e-15 3.525741820419319057e-15 3.525741820419319057e-15 3.808253778108229917e-15
5.203000000000000000e+03 1.436769008636474609e+01 -1.357616806030273438e+01 -1.477335371006735509e-13 2.111913210501095706e-13 1.903733484601762699e-14 9.329157184181230411e-14
5.204000000000000000e+03 7.269486236572265625e+01 -2.186115646362304688e+01 4.440717609713491776e-14 2.020354369913768267e-13 7.393278291011398662e-14 -6.199211201882506850e-14
5.205000000000000000e+03 4.285181427001953125e+01 -1.927336120605468750e+01 2.072346742994224389e-14 5.463243586364442683e-14 2.260677064926282231e-14 6.491533114001690752e-14
5.206000000000000000e+03 4.228198242187500000e+01 -1.623909187316894531e+01 -2.996725487387514458e-15 2.732213869212352098e-13 8.106739563494558265e-14 5.164376481255235352e-14
5.207000000000000000e+03 1.258401584625244141e+01 -7.538313865661621094e+00 7.200999779105599075e-14 -1.978933239065588934e-13 -3.776499783465087079e-14 -8.116758946821039933e-14
5.208000000000000000e+03 4.135100936889648438e+01 1.068138885498046875e+01 9.476421654764505265e-14 -3.539887024998911169e-13 -7.776734849617925049e-14 -8.984575372095529588e-14
5.209000000000000000e+03 8.575600624084472656e+00 -2.286069679260253906e+01 -7.264851155548701644e-14 1.518687112915875770e-13 2.376606059845652597e-14 -1.378746953168167796e-14
5.210000000000000000e+03 7.266878509521484375e+01 -2.912855911254882812e+01 -2.656417295333890483e-14 2.173700943634143679e-13 5.724177506776992330e-14 -1.227045808710469643e-13
5.211000000000000000e+03 2.195363807678222656e+01 -2.721483993530273438e+01 -7.553326860460993220e-14 -1.009978233858233043e-13 -5.295932895238268656e-14 6.752667950629329119e-14
5.212000000000000000e+03 2.170795822143554688e+01 -3.239630889892578125e+01 -7.717949916045529352e-15 -1.748737466682540043e-13 -5.477750889058656536e-14 3.074905357869665498e-15
5.213000000000000000e+03 7.239669322967529297e+00 -2.067863273620605469e+01 -9.427700319638437909e-14 3.713540976460483201e-13 8.312313104540461350e-14 -2.992703266734182688e-14
5.214000000000000000e+03 1.506753540039062500e+01 -1.135055065155029297e+01 -9.055273485257878119e-14 7.556906082882910991e-14 -4.495102207124901383e-15 6.662794366793858836e-14
5.215000000000000000e+03 1.453352546691894531e+01 -1.227779102325439453e+01 -2.001322420503229282e-13 5.730936829696081647e-15 -5.832039359906712739e-14 7.420127880186644376e-14
5.216000000000000000e+03 8.037837028503417969e+00 -1.148229789733886719e+01 4.812058886668850455e-14 -2.512784054995494815e-14 6.897824240910182744e-15 1.410603184688044229e-14
5.217000000000000000e+03 8.896853446960449219e+00 -1.238271427154541016e+01 8.078532011098274457e-14 -1.483815105290595127e-13 -2.027885983592846164e-14 1.245971701125682916e-15
5.218000000000000000e+03 7.294235229492187500e+01 2.139811134338378906e+01 -3.263739918515223826e-14 8.888017512460096720e-15 -7.124814247697758285e-15 6.373699311390534916e-14
5.219000000000000000e+03 1.470354175567626953e+01 -1.171661853790283203e+01 -1.986916761762685946e-13 6.348324745389637841e-15 -5.770300144820883492e-14 -1.065348828442223492e-14
5.220000000000000000e+03 3.621646118164062500e+01 -6.349754333496093750e+00 -1.087192876415669918e-14 -5.041034592794674252e-14 -1.838468240763103251e-14 1.276922090200777182e-13
5.221000000000000000e+03 6.966588592529296875e+01 -3.131815719604492188e+01 2.919669100230777841e-16 1.831289297721944154e-13 5.502626891466799730e-14 -3.100207671960161782e-14
5.222000000000000000e+03 3.018064117431640625e+01 -1.564230322837829590e+00 2.494112501163353590e-13 1.640792265510809811e-13 1.240471484212357645e-13 1.570346737573332513e-14
5.223000000000000000e+03 3.436180496215820312e+01 -6.296629428863525391e+00 -7.462453777747762862e-14 -6.629515458735774081e-14 -4.227590906470332643e-14 -1.070956948882699489e-14
5.224000000000000000e+03 4.468175506591796875e+01 -2.000053405761718750e+01 9.094367782718631998e-14 3.897586192593699428e-14 3.897586192593699428e-14 -8.465930999854501260e-14
5.225000000000000000e+03 1.841242408752441406e+01 -2.208544540405273438e+01 -1.068400010524822932e-14 -2.790845625346566328e-13 -8.693056447210342763e-14 9.523547857444303322e-14
5.226000000000000000e+03 4.900184249877929688e+01 -2.724168014526367188e+01 -1.275501514304278050e-14 3.147902132103613804e-13 9.061055670969014875e-14 -1.242807397792977664e-14
5.227000000000000000e+03 8.433163642883300781e+00 -2.913337898254394531e+01 1.372590294191049914e-14 -6.274389102896293924e-14 -1.470539659552232148e-14 -7.953600750015485388e-14
5.228000000000000000e+03 9.315725326538085938e+00 -2.836601257324218750e+01 2.059487427602188503e-14 7.888251141695279411e-14 2.984321706314511935e-14 -1.303042705880956900e-14
5.229000000000000000e+03 4.414025115966796875e+01 -1.927000045776367188e+01 7.202412630061619248e-14 3.086747979615112047e-14 3.086747979615112047e-14 4.477258272244863391e-14
5.230000000000000000e+03 1.134917449951171875e+01 -3.078051948547363281e+01 1.471174934262672873e-14 -2.720053821869921999e-15 3.597508592699570976e-15 6.894547070437255856e-15
5.231000000000000000e+03 7.035544586181640625e+01 -3.497204589843750000e+01 -4.823736591099466592e-15 1.694987466355213357e-13 4.940250208159031875e-14 -3.755552658679488232e-15
5.232000000000000000e+03 4.711505508422851562e+01 -2.520031929016113281e+01 -5.430079874787184513e-14 1.139810766387014396e-13 1.790408268962252053e-14 -3.809093272462253654e-14
5.233000000000000000e+03 2.087350273132324219e+01 -2.607240486145019531e+01 -6.586257147306318060e-14 -5.110229053069056948e-14 -3.508945792349976722e-14 1.100122055085195338e-13
5.234000000000000000e+03 8.558152198791503906e+00 -2.568562316894531250e+01 -7.482483057631716949e-14 -7.781873290289148537e-14 -4.579306768850988085e-14 -4.665251475063914022e-14
5.235000000000000000e+03 2.055446243286132812e+01 -2.444061279296875000e+01 -3.699094524613200097e-14 -8.447968480361847665e-14 -3.644119037017785889e-14 9.105610112214359425e-15
5.236000000000000000e+03 2.466265678405761719e+01 -2.926802444458007812e+01 -5.410553393660720578e-14 -3.434447279522523377e-13 -1.192650850041082622e-13 1.891360196714861330e-14
5.237000000000000000e+03 6.733922576904296875e+01 -3.886048889160156250e+01 1.660185593057965370e-14 2.244320858714801692e-13 7.231018626756291479e-14 1.785501915318576244e-14
5.238000000000000000e+03 1.631124496459960938e+01 -3.291633987426757812e+01 1.089604802732976538e-14 -6.395668635536880253e-14 -1.591819192192818477e-14 -1.447147997680857390e-14
5.239000000000000000e+03 5.423888778686523438e+01 -2.977783966064453125e+01 5.374387797318393167e-14 2.861010582090595111e-13 1.019534798382334961e-13 2.487282264645920143e-14
5.240000000000000000e+03 5.139947891235351562e+01 -2.479838562011718750e+01 -5.060965532153452115e-15 2.380234952279597360e-13 6.988875624058810132e-14 3.627226150730925025e-14
5.241000000000000000e+03 5.861112594604492188e+01 -3.076706504821777344e+01 4.902839473384240643e-14 3.412688155072368668e-13 1.170891590065656351e-13 3.131075924250360798e-14
5.242000000000000000e+03 6.216999435424804688e+01 2.721192932128906250e+01 4.795699292325580898e-14 2.055299696710963242e-14 2.055299696710963242e-14 3.188223543135713933e-15
5.243000000000000000e+03 6.374239349365234375e+01 2.804070091247558594e+01 4.533012013712214849e-14 2.024309946014810069e-13 7.432833374395458881e-14 4.931948607649581928e-14
5.244000000000000000e+03 6.782332611083984375e+01 2.709237670898437500e+01 1.163984815651109006e-13 2.700958692271847317e-14 4.302241952990927543e-14 -9.846179488328266755e-15
5.245000000000000000e+03 6.852161407470703125e+01 2.596454620361328125e+01 1.272293766651708125e-13 2.375306711304564500e-13 1.094280102729300319e-13 -4.954479345233367416e-14
5.246000000000000000e+03 6.916201019287109375e+01 2.689472770690917969e+01 1.291333830637881805e-14 1.885380821733603773e-13 6.043542809209753730e-14 -3.326817784470893768e-14
5.247000000000000000e+03 6.737557220458984375e+01 2.716973495483398438e+01 4.856720223472138498e-14 -7.068737956084092389e-14 -6.636053790758924750e-15 -6.983293338123225391e-14
5.248000000000000000e+03 6.453060913085937500e+01 2.782690429687500000e+01 -9.499723192330292165e-14 9.653974668288878291e-14 4.627535808428111241e-16 -1.508155173012351580e-13
5.249000000000000000e+03 5.617790985107421875e+01 2.735002708435058594e+01 -2.435610036138208256e-13 -1.043832921032543382e-13 -1.043832921032543382e-13 5.735738490067476825e-14
5.250000000000000000e+03 5.655429840087890625e+01 2.761873626708984375e+01 1.998609882192942111e-13 2.686584949732756522e-13 1.405558476682763902e-13 4.499174063908942256e-14
5.251000000000000000e+03 6.286636734008789062e+01 2.725644302368164062e+01 1.202279649534926387e-13 1.659036406517766515e-13 8.583948439208621828e-14 1.864736799217850405e-13
5.252000000000000000e+03 6.476924896240234375e+01 2.725891876220703125e+01 9.160960835405407288e-14 1.638578629606455422e-14 3.239861720918946197e-14 -4.171530539076075128e-14
5.253000000000000000e+03 6.710549926757812500e+01 2.659723663330078125e+01 1.771060511787658776e-13 3.103762093257383947e-13 1.462446835723621441e-13 -2.412897017064173644e-14
5.254000000000000000e+03 6.323214721679687500e+01 2.750378417968750000e+01 1.186658735684298360e-13 -3.494640015734573613e-13 -6.923943433575011075e-14 1.650660809210044433e-13
5.255000000000000000e+03 6.355866241455078125e+01 2.775260162353515625e+01 -9.300446155401098647e-14 2.267831918350421416e-13 4.013362043956206215e-14 1.184354806067766663e-13
5.256000000000000000e+03 5.511521530151367188e+01 2.688222885131835938e+01 -5.510287711551651799e-15 4.338939824837309556e-14 1.136373303399149104e-14 5.722213067965720157e-14
5.257000000000000000e+03 6.429254150390625000e+01 2.737529182434082031e+01 -3.542350400097434016e-14 -3.805697686783300615e-14 -2.204414426064220389e-14 2.744797119626218862e-13
5.258000000000000000e+03 6.666777038574218750e+01 2.680492210388183594e+01 -6.214539110096020669e-14 4.199268496406401152e-14 -6.045811586958974373e-15 -4.797032860997738068e-14
5.259000000000000000e+03 6.051825714111328125e+01 2.794509887695312500e+01 -4.346034233990332674e-14 -3.503202502391777884e-13 -1.181341672705157886e-13 2.577698457787401531e-14
5.260000000000000000e+03 7.279988861083984375e+01 2.755814170837402344e+01 -1.565427847842037340e-14 -5.245992510294512912e-14 -2.043426158262941911e-14 1.745299732644131629e-13
5.261000000000000000e+03 5.576167678833007812e+01 2.778653144836425781e+01 3.428816814352898812e-14 1.090562576767754865e-13 4.300332740727816350e-14 1.417017680494306320e-13
5.262000000000000000e+03 7.068695831298828125e+01 2.743548011779785156e+01 2.640466479090965851e-14 1.714446049320625387e-13 5.935478345799050093e-14 -1.722856883198953248e-14
5.263000000000000000e+03 7.245744323730468750e+01 2.620716094970703125e+01 6.520073380939656049e-14 -1.780777843165149560e-14 1.421788508866421441e-14 4.522311277082961822e-14
5.264000000000000000e+03 3.169671249389648438e+01 -2.224343538284301758e+00 3.917812831154363767e-15 -6.265821195228227225e-14 -1.762211897400872002e-14 -1.426853020502008573e-13
5.265000000000000000e+03 3.163550186157226562e+01 -1.284899234771728516e+00 -9.437668880988084319e-14 1.082434313080631039e-13 4.160024020004099085e-15 -6.943926634866634529e-14
5.266000000000000000e+03 5.437383270263671875e+01 2.646969795227050781e+01 -1.360024306308648193e-14 3.992227216669495815e-14 7.896608646379248142e-15 9.001953608261167167e-15
5.267000000000000000e+03 5.700073623657226562e+01 2.781119728088378906e+01 -2.201207017224829365e-13 2.003992878216696860e-14 -6.002423086565525367e-14 9.405561588902641712e-14
5.268000000000000000e+03 8.635750770568847656e+00 -8.520223617553710938e+00 1.750110202158178252e-13 -6.224812603306678627e-14 3.382886622194623827e-14 -4.509207338575758894e-14
5.269000000000000000e+03 3.594077682495117188e+01 5.921319484710693359e+00 5.813307056871594436e-14 -1.352141461947661827e-13 -2.312432302662825040e-14 -9.102457963804447272e-14
5.270000000000000000e+03 1.056926345825195312e+01 -5.827714443206787109e+00 -2.605548519928296662e-15 -4.686761368539668626e-14 -1.484194847101508175e-14 -9.569099256468566184e-14
5.271000000000000000e+03 9.837800025939941406e+00 -6.188635826110839844e+00 6.525913842517563901e-14 -1.778274521992834201e-14 1.424291830038736800e-14 -4.547958079473106430e-14
5.272000000000000000e+03 5.562042999267578125e+01 2.661109733581542969e+01 -1.148679269107402701e-13 1.337746780754114906e-13 5.672024417665124177e-15 -4.217966579310450381e-14
5.273000000000000000e+03 5.821820831298828125e+01 2.766469764709472656e+01 -3.602656774249687888e-14 -1.069418533762578338e-13 -4.289052633562641381e-14 -8.943667068874935899e-14
5.274000000000000000e+03 3.541694259643554688e+01 6.883593559265136719e+00 2.601809589444174092e-14 1.115061192116578379e-14 1.115061192116578379e-14 -9.847462743243357020e-14
5.275000000000000000e+03 3.692865371704101562e+01 9.574783325195312500e+00 -5.793881542072443214e-15 4.326785579670568149e-14 1.124219227638997148e-14 -7.921458898985794805e-14
5.276000000000000000e+03 3.701154327392578125e+01 -6.172713279724121094e+00 -3.803166074710546962e-14 1.667045136915373815e-13 3.860185622214275247e-14 -8.646814716334067646e-15
5.277000000000000000e+03 4.523500442504882812e+01 1.617050933837890625e+01 9.472031313592296775e-14 -3.196943035820021262e-13 -6.749219510094467411e-14 -7.210591580200306772e-14
5.278000000000000000e+03 1.042648983001708984e+01 -6.411088466644287109e+00 -9.869230642954845284e-15 -4.998061900875032382e-14 -1.795495548843461381e-14 -6.325439439814131704e-14
5.279000000000000000e+03 3.712244415283203125e+01 8.885566711425781250e+00 -1.965593655992459859e-14 -5.417492287564627806e-14 -2.214925766126467355e-14 -3.204253133442733215e-14
5.280000000000000000e+03 7.284717559814453125e+01 2.694167518615722656e+01 9.814205688635311425e-15 -1.787977047234406980e-13 -5.069505064217785795e-14 -5.982748205266702479e-14
5.281000000000000000e+03 8.571928024291992188e+00 -1.584226512908935547e+01 -4.611699341633065941e-14 -1.112663224902242509e-13 -4.721499544959283090e-14 -8.248818159561563390e-14
5.282000000000000000e+03 5.121839904785156250e+01 2.172999000549316406e+01 6.094607884500873735e-15 3.228686035975508739e-13 9.868896742567037639e-14 5.030011560128990963e-15
5.283000000000000000e+03 5.219900131225585938e+01 2.227391052246093750e+01 -5.137753896909853790e-14 1.152338993540627521e-13 1.915690879311562206e-14 -6.299377252466653587e-15
5.284000000000000000e+03 4.568985366821289062e+01 1.671292495727539062e+01 -2.626303241179926695e-14 -1.828216397714577113e-13 -6.272540538192206139e-14 8.249589298356743705e-14
5.285000000000000000e+03 7.243001556396484375e+01 -1.906857681274414062e+01 -1.120168478916001853e-13 3.408758464298194957e-13 6.865769888383943531e-14 1.387333986840183497e-13
5.286000000000000000e+03 7.189674377441406250e+01 -2.206779861450195312e+01 1.097096046821788295e-13 1.842712451811251428e-13 8.819425631424390732e-14 5.502609357884791566e-15
5.287000000000000000e+03 8.395481109619140625e+00 -2.207495117187500000e+01 -3.940647992379392450e-15 1.355639911307729428e-13 3.948700565202349633e-14 -1.025594268799084885e-14
5.288000000000000000e+03 9.074877738952636719e+00 -1.556573867797851562e+01 -7.208651535937915522e-14 -3.397131209149917286e-13 -1.235398908823112651e-13 1.042613278291791915e-14
5.289000000000000000e+03 8.317095756530761719e+00 -1.463741683959960938e+01 -9.768737468246468936e-14 -2.706207653802028545e-13 -1.104924393082948320e-13 -3.193411450531057072e-14
5.290000000000000000e+03 7.238733673095703125e+01 -2.231880569458007812e+01 2.557738363554579175e-13 2.011192454980451072e-13 1.370679286218090542e-13 1.308346877018640164e-13
5.291000000000000000e+03 6.989900970458984375e+01 -2.427501869201660156e+01 -8.422837351629991476e-14 3.252854867516648263e-14 -1.550994745234002964e-14 -3.815991508784692676e-14
5.292000000000000000e+03 5.293880462646484375e+01 2.403695106506347656e+01 -1.731824082198355624e-14 1.755816900293055705e-13 4.747903594804273042e-14 -1.337325602091422178e-14
5.293000000000000000e+03 5.404239654541015625e+01 2.434148979187011719e+01 -1.175898029122379729e-13 -5.039563127158704081e-14 -5.039563127158704081e-14 6.666923821818313001e-14
5.294000000000000000e+03 4.954564285278320312e+01 2.047122955322265625e+01 -1.282772783936687866e-14 4.025335024072235202e-14 8.227686720406642007e-15 -1.287934738242527133e-13
5.295000000000000000e+03 5.176842880249023438e+01 2.144639778137207031e+01 -3.882043138011583017e-14 7.486456658593876323e-14 1.081324123937323772e-14 2.193613570140601904e-14
5.296000000000000000e+03 4.209363174438476562e+01 -1.572281837463378906e+01 -6.208298848967008787e-14 2.707741799876095534e-13 6.260735609412912406e-14 -2.612990763161109758e-14
5.297000000000000000e+03 5.275387954711914062e+01 2.246515464782714844e+01 -4.129455363267343915e-14 1.424306500649383245e-13 3.034083197899807571e-14 -4.829247895674071422e-14
5.298000000000000000e+03 5.255771255493164062e+01 2.316106986999511719e+01 -1.379639725894573829e-14 2.685929549519489035e-13 7.643896366565927636e-14 -3.228630402851533077e-14
5.299000000000000000e+03 7.279989624023437500e+01 1.300818634033203125e+01 2.349368698987153864e-14 1.015706209460745524e-13 3.751929051731134335e-14 -8.147971772114181999e-14
5.300000000000000000e+03 7.235354614257812500e+01 2.692239761352539062e+01 9.424677428456276762e-14 1.751600099231080676e-14 3.352883359950160902e-14 1.783311725286201854e-13
5.301000000000000000e+03 4.416885375976562500e+01 1.437727069854736328e+01 2.966019018390241013e-14 -3.303943829136880839e-14 -1.013773924020151124e-15 2.728748657425134755e-14
5.302000000000000000e+03 3.224941253662109375e+01 -1.026575937867164612e-01 4.343947483621476979e-14 1.558697696737651461e-13 5.979277403062033258e-14 -1.877791271000933682e-13
5.303000000000000000e+03 7.245919036865234375e+01 -1.535594081878662109e+01 6.472041191819474792e-14 3.479939589528385779e-13 1.238143160046945024e-13 1.130196197046684503e-13
5.304000000000000000e+03 7.074642944335937500e+01 -1.769666290283203125e+01 -4.955478590001243314e-15 3.638838091523516338e-13 1.076785009898259537e-13 1.110116162948530938e-13
5.305000000000000000e+03 7.106640625000000000e+01 -2.605396270751953125e+01 1.046337360288349116e-13 8.487511366471467422e-14 5.685265490806487576e-14 -1.843321061924512588e-14
5.306000000000000000e+03 7.132652282714843750e+01 -2.472472381591796875e+01 4.650609324724497284e-14 2.258104591984153031e-13 8.169496573369808279e-14 2.473491848286614968e-15
5.307000000000000000e+03 7.092316436767578125e+01 2.624086570739746094e+01 1.447397838518979518e-13 3.365370319658583798e-13 1.443830406795687527e-13 8.392104285798174246e-14
5.308000000000000000e+03 4.259468841552734375e+01 -1.479605960845947266e+01 1.028582939850176958e-14 2.789139091127074144e-13 8.675991782641778727e-14 -5.871211584398614014e-14
5.309000000000000000e+03 4.150875854492187500e+01 -1.466624450683593750e+01 -4.922979206364516691e-14 2.076562663141934273e-13 4.752794024228540470e-14 1.487989215892028538e-14
5.310000000000000000e+03 3.908780670166015625e+01 -1.297426033020019531e+01 -5.341762798695588732e-14 3.431143173401873803e-13 8.690900917766170020e-14 -4.033116546352071008e-14
5.311000000000000000e+03 1.702614593505859375e+01 -1.757128524780273438e+01 -1.702420891975045536e-13 -1.873382633917064499e-13 -1.072741071320160167e-13 1.649281161945556629e-13
5.312000000000000000e+03 1.699313354492187500e+01 -1.681292533874511719e+01 -4.270002862578892167e-14 -2.928057102336012463e-13 -1.006517189473116192e-13 1.107951824361706750e-13
5.313000000000000000e+03 7.289611816406250000e+01 1.909511566162109375e+01 9.308480771125574038e-14 1.313953828553648950e-13 6.734405920286526404e-14 5.331177936173520093e-14
5.314000000000000000e+03 7.153260803222656250e+01 1.746699523925781250e+01 6.476436276376187906e-14 -2.467495337828834456e-13 -5.459555266098918558e-14 4.141542184611483879e-14
5.315000000000000000e+03 1.506786346435546875e+01 -1.434473800659179688e+01 -9.336513495921544559e-14 -1.315155260086034450e-13 -6.746419557984023596e-14 2.821791465854733838e-13
5.316000000000000000e+03 7.251814270019531250e+01 -8.731040954589843750e+00 -1.025520000950269628e-13 2.763057794716305970e-13 5.212613652348652149e-14 8.951644086358997998e-14
5.317000000000000000e+03 7.114231872558593750e+01 -8.693887710571289062e+00 1.610984667877162629e-14 3.042853783611493279e-13 9.611856802019605461e-14 1.012426701176884214e-13
5.318000000000000000e+03 3.257876586914062500e+01 7.753956317901611328e-01 1.002263525537276656e-13 4.295415206249236784e-14 4.295415206249236784e-14 -2.602708359163846685e-13
5.319000000000000000e+03 3.387470626831054688e+01 1.267127275466918945e+00 1.114828715453874963e-13 9.352932382571121916e-14 6.150365861132961465e-14 -1.364876500665676562e-13
5.320000000000000000e+03 7.184860992431640625e+01 -1.598521614074707031e+01 -1.947092592951941981e-14 3.119119545980097996e-13 8.773231164986572406e-14 -1.084121602711561605e-13
5.321000000000000000e+03 7.937839984893798828e+00 -1.891856765747070312e+01 -6.658441972697687339e-14 -2.115399733637265967e-13 -8.343731928246375662e-14 -9.689898352021469874e-14
5.322000000000000000e+03 8.886435508728027344e+00 -1.823686790466308594e+01 -7.264234515563100514e-14 -1.455098113398514692e-13 -6.544564830389745791e-14 1.014292308183870756e-14
5.323000000000000000e+03 7.218119049072265625e+01 1.677605247497558594e+01 1.495221725296771997e-13 6.408092914807206331e-14 6.408092914807206331e-14 3.625020815749453729e-14
5.324000000000000000e+03 7.278740692138671875e+01 1.225042152404785156e+01 -1.395807026818157714e-13 -1.513221920814919463e-13 -8.727086842899231534e-14 -4.143793259372106907e-14
5.325000000000000000e+03 7.143715667724609375e+01 1.154422855377197266e+01 6.862200152731035008e-14 3.496660697533543471e-13 1.254864268052102716e-13 -2.441103959596735429e-13
5.326000000000000000e+03 7.254866027832031250e+01 4.863642692565917969e+00 3.757443032929852489e-13 2.525351618359178429e-13 1.884838314071546339e-13 -1.958527063401424573e-13
5.327000000000000000e+03 7.068949127197265625e+01 4.303346157073974609e+00 5.526162887752386621e-14 2.368355450719627359e-14 2.368355450719627359e-14 -1.498657087642928099e-14
5.328000000000000000e+03 7.236032104492187500e+01 -2.082611560821533203e+00 5.849401502446352485e-14 2.766990738096997138e-13 1.005579286831280450e-13 1.016665186282308952e-13
5.329000000000000000e+03 7.151895904541015625e+01 -3.715923547744750977e+00 2.482036115265123799e-13 1.063729792726182677e-13 1.063729792726182677e-13 -3.595193058731661895e-14
5.330000000000000000e+03 1.314909076690673828e+01 -8.269484519958496094e+00 2.421185403859646423e-14 -1.726272797668640391e-13 -4.452462907373298806e-14 -8.276779733589964549e-14
5.331000000000000000e+03 7.082915496826171875e+01 -2.389476776123046875e+01 -6.670969759394167892e-15 -1.973005228162252878e-13 -6.119144904323525758e-14 9.248587410238401363e-14
5.332000000000000000e+03 7.204867553710937500e+01 3.336005926132202148e+00 1.917875580570438387e-13 -1.008091247739657803e-13 2.729353269542884874e-14 -8.096958704646023408e-14
5.333000000000000000e+03 7.177460479736328125e+01 -4.833179473876953125e+00 5.965154314512693956e-14 6.660782494137540422e-13 2.177189364124115789e-13 -1.145117986843307775e-14
5.334000000000000000e+03 7.175766754150390625e+01 -1.050013065338134766e+01 2.307267434563647218e-14 1.928920890202634464e-13 6.478942816273702832e-14 -8.297693993497209930e-14
5.335000000000000000e+03 7.200061035156250000e+01 -1.868054389953613281e+01 -1.661917402740603622e-13 4.320354024620748357e-13 7.975309865640434204e-14 -2.236851383372734370e-14
5.336000000000000000e+03 7.259030914306640625e+01 -1.842658805847167969e+01 9.263155699304817525e-14 3.969923822728753382e-14 3.969923822728753382e-14 -1.901019082818991568e-14
5.337000000000000000e+03 7.257343292236328125e+01 -6.270009040832519531e+00 1.868760680055758794e-13 4.003463955747771363e-13 1.761667390741059047e-13 -7.469232074204870675e-14
5.338000000000000000e+03 7.199342346191406250e+01 2.648087501525878906e+00 1.274600948874757278e-13 1.918786039344783090e-13 9.580161506759707346e-14 3.775640553243392317e-14
5.339000000000000000e+03 7.252202606201171875e+01 1.090239286422729492e+00 2.090345447734384687e-13 2.268390824570337694e-13 1.307620868138889558e-13 -3.131761682124457880e-14
5.340000000000000000e+03 7.204672241210937500e+01 1.007701778411865234e+01 6.126124455808901192e-14 -1.949613024189791877e-14 1.252953412545073850e-14 -1.087764589773748680e-13
5.341000000000000000e+03 7.196332550048828125e+01 9.388267517089843750e+00 1.572849652169833190e-13 1.817852102571973494e-13 1.017210539975069161e-13 -1.340410801017183351e-13
5.342000000000000000e+03 7.246334075927734375e+01 8.511838912963867188e+00 2.442386807936011012e-14 1.934711614005879543e-13 6.536851409558869230e-14 -1.357773350132637780e-13
5.343000000000000000e+03 4.668391036987304688e+01 1.682462501525878906e+01 -4.205834357000337587e-14 -4.661934832855645083e-14 -2.660330756956794801e-14 -2.170553606371371930e-14
5.344000000000000000e+03 7.177237701416015625e+01 -1.138794803619384766e+01 -5.797153799754276027e-14 2.267852789242241762e-13 5.064412024512535138e-14 2.031384568478185326e-14
5.345000000000000000e+03 7.184703826904296875e+01 -1.224323654174804688e+01 7.894305055575895347e-14 3.998403171057152150e-13 1.436350089431895349e-13 -2.114380990170944274e-13
5.346000000000000000e+03 9.280281066894531250e+00 -2.498622894287109375e+01 -1.510261544899430420e-15 9.085464450003452597e-14 2.680331407127131693e-14 1.831888658235421297e-14
5.347000000000000000e+03 7.216790771484375000e+01 1.600955963134765625e+01 -3.309383135910969054e-14 -1.971868713234944948e-13 -6.908421046596807669e-14 -1.320558788188430643e-13
5.348000000000000000e+03 7.282032012939453125e+01 1.451821613311767578e+01 4.857462901960291068e-14 2.495724438743296414e-13 8.944411780242161880e-14 -1.577118427173451742e-13
5.349000000000000000e+03 3.665583419799804688e+01 -7.771924972534179688e+00 -9.948553753805905453e-14 1.861180887142641072e-13 2.598976264235608458e-14 1.033764206507213623e-13
5.350000000000000000e+03 7.196170043945312500e+01 -1.474279975891113281e+01 1.614141220858400505e-13 2.064303318127097553e-13 1.103533361695649417e-13 -3.112344298841600299e-14
5.351000000000000000e+03 7.220733642578125000e+01 2.486825561523437500e+01 2.354784288838718959e-14 1.015938296488293202e-13 3.754250260819790019e-14 3.530448570748974391e-14
5.352000000000000000e+03 7.238313293457031250e+01 2.407172393798828125e+01 9.899686729012910358e-14 1.339291226748820507e-13 6.987779902238241969e-14 1.147936455093978569e-13
5.353000000000000000e+03 8.804737091064453125e+00 -7.948544502258300781e+00 1.261549441706989391e-14 -8.609525446083912681e-14 -2.204392911427360130e-14 1.813246310099301400e-14
5.354000000000000000e+03 8.390441894531250000e+00 -9.017822265625000000e+00 1.271482647901417407e-13 5.449211638560227944e-14 5.449211638560227944e-14 -2.548977264611902716e-14
5.355000000000000000e+03 7.331480979919433594e+00 -1.210083389282226562e+01 4.460263403191153109e-14 -2.325147995148324487e-13 -5.637365100012899088e-14 -7.915071592937139577e-14
5.356000000000000000e+03 1.395896148681640625e+01 -1.079612922668457031e+01 -1.760653932760328222e-13 -1.212075416163332919e-13 -8.918188317821526545e-14 -8.399304912882783053e-15
5.357000000000000000e+03 4.800771713256835938e+01 1.919029426574707031e+01 -3.402126806184915808e-14 2.556360071542806978e-13 6.648441562909224167e-14 3.387539204767302248e-14
5.358000000000000000e+03 5.972272109985351562e+01 2.722423934936523438e+01 8.322763458230506006e-14 -1.473348081992148506e-13 -1.923215411795201057e-14 1.271784327155911498e-13
5.359000000000000000e+03 5.895941162109375000e+01 2.738890075683593750e+01 8.891073776740379686e-14 -5.339729580808999510e-14 1.065403207957437218e-14 -1.984165017473643925e-16
5.360000000000000000e+03 9.250210762023925781e+00 -1.718429183959960938e+01 -1.150978184288886652e-13 -4.153352195588461138e-13 -1.591299113963204337e-13 -1.363229055464584838e-13
5.361000000000000000e+03 1.329291725158691406e+01 -7.552605152130126953e+00 -3.460991869074121763e-14 3.091812559013334960e-14 -1.107538141940597222e-15 9.322846449911006972e-14
5.362000000000000000e+03 7.333776473999023438e+00 -1.292245769500732422e+01 -4.787985871494704337e-15 6.657443151446285068e-14 1.853593369289044390e-14 6.027234375656498333e-14
5.363000000000000000e+03 8.629942893981933594e+00 -1.082045459747314453e+01 9.763956306072397312e-15 -1.788192396890916913e-13 -5.071658560782885128e-14 2.985745060479078061e-14
5.364000000000000000e+03 4.938026428222656250e+01 1.952393150329589844e+01 8.731009621884555649e-14 2.204224080820313403e-13 9.231974722450492221e-14 -3.520809674622399355e-14
5.365000000000000000e+03 7.197947502136230469e+00 -1.366903400421142578e+01 -3.092853350747273682e-15 -2.758311970756793796e-13 -8.367721934191690858e-14 -3.646177665892792741e-14
5.366000000000000000e+03 1.444919490814208984e+01 -1.292600154876708984e+01 -1.274980284109855644e-13 8.261083196637805659e-14 -1.346615774753612618e-14 7.807293765475786795e-14
5.367000000000000000e+03 7.986396789550781250e+00 -1.808467292785644531e+01 -9.996824467404033521e-14 -2.258473356248069663e-13 -9.774467476728054827e-14 -1.949321136636168045e-14
5.368000000000000000e+03 3.756732559204101562e+01 -9.838299751281738281e+00 2.625622565503513139e-14 2.914772373116547577e-13 9.532003956763332453e-14 1.217963718162101694e-13
5.369000000000000000e+03 3.937155914306640625e+01 -1.361200141906738281e+01 -7.413792751367540013e-14 1.054794476046914953e-13 9.402456196711417996e-15 8.396210701526463094e-14
5.370000000000000000e+03 7.197071075439453125e+01 2.428849792480468750e+01 -2.758215578407396257e-14 3.393002567277092485e-14 1.904361093664030773e-15 -1.679080695825545949e-14
5.371000000000000000e+03 7.254386901855468750e+01 2.333082199096679688e+01 -2.816003893014052545e-14 -1.035704860633326896e-13 -3.951915902270126957e-14 3.115840554386334511e-15
5.372000000000000000e+03 3.727879333496093750e+01 -1.103762817382812500e+01 -4.674796519939933281e-14 1.400934760992927908e-13 2.800365293115485849e-14 2.509478085402361280e-14
5.373000000000000000e+03 7.211611938476562500e+01 2.305015754699707031e+01 4.161989221145023787e-14 1.783709763008775595e-14 1.783709763008775595e-14 1.408238861622373300e-14
5.374000000000000000e+03 7.246325683593750000e+01 2.205578613281250000e+01 -1.264588765328327272e-14 1.318331836926145417e-13 3.575618804946972817e-14 4.866632880647266124e-14
5.375000000000000000e+03 3.637937545776367188e+01 7.694598197937011719e+00 -2.406118890013655282e-14 1.256353656905236787e-14 -3.449295402863723943e-15 -1.761613892140110466e-14
5.376000000000000000e+03 8.233283042907714844e+00 -7.775864601135253906e+00 6.806570416887161579e-15 -4.283384627892794505e-14 -1.080818275861223504e-14 -6.634664063802364620e-14
5.377000000000000000e+03 3.332838439941406250e+01 2.680259704589843750e+00 -4.283103751767484979e-14 1.875231063095880724e-13 4.340762300926621908e-14 -1.298396340530111326e-13
5.378000000000000000e+03 7.211640930175781250e+01 1.226310539245605469e+01 1.076867798898524173e-14 2.791208290973262729e-13 8.696685813982737989e-14 -2.047245700872654672e-13
5.379000000000000000e+03 7.143450927734375000e+01 1.225951004028320312e+01 -2.059817838214253460e-13 -3.170326414586588371e-13 -1.569043289392779705e-13 -1.505358880084239903e-13
5.380000000000000000e+03 5.421180343627929688e+01 2.365112876892089844e+01 -1.315468425107293310e-14 6.298870387951016614e-14 1.495020605793775936e-14 9.512207949753052200e-15
5.381000000000000000e+03 4.303218841552734375e+01 -1.702791404724121094e+01 -8.027144216254250564e-14 3.773564848184168818e-13 8.912551821777317529e-14 6.248227982100576505e-14
5.382000000000000000e+03 4.991850280761718750e+01 1.984597969055175781e+01 -2.489599407976429007e-14 -1.021716077628104236e-13 -3.812028072217900354e-14 -1.581103276733150653e-13
5.383000000000000000e+03 5.050762939453125000e+01 2.015462684631347656e+01 -1.126279804689782685e-15 1.367701524951359104e-13 4.069316362825467492e-14 -1.084727129624894759e-13
5.384000000000000000e+03 1.431569671630859375e+01 -1.010652351379394531e+01 -9.177556582534371343e-14 -3.933238486969990733e-14 -3.933238486969990733e-14 5.743096157060506579e-14
5.385000000000000000e+03 7.213487243652343750e+01 1.374522781372070312e+01 1.192789221343346084e-13 4.171271346994215312e-13 1.609218129843686951e-13 -1.907177215633437672e-13
5.386000000000000000e+03 4.322015380859375000e+01 1.483272266387939453e+01 -1.344787860712778893e-13 3.672756543338095980e-14 -2.932536483611636324e-14 -7.330395242633597208e-14
5.387000000000000000e+03 4.479751968383789062e+01 1.560928249359130859e+01 6.717031580472446195e-14 -1.084655707806782277e-13 -1.238857598456636136e-14 1.340680631832860681e-13
5.388000000000000000e+03 4.119818496704101562e+01 -1.412830543518066406e+01 -1.495146915346870498e-13 5.029964888613597251e-14 -2.976451076168624976e-14 -7.234735407328843348e-15
5.389000000000000000e+03 3.405506515502929688e+01 2.960371971130371094e+00 2.728001574365656462e-14 3.319480649556505458e-13 1.077684287837700483e-13 -8.859419816688307581e-14
5.390000000000000000e+03 3.482950973510742188e+01 3.196690797805786133e+00 2.860850391219610378e-15 1.226078708842942046e-15 1.226078708842942046e-15 -8.686543102659136095e-14
5.391000000000000000e+03 7.131526184082031250e+01 -2.280136680603027344e+01 1.846481951714440406e-13 1.935123204255609353e-13 1.134481506133433459e-13 6.742696001147893692e-14
5.392000000000000000e+03 4.196102142333984375e+01 1.294174957275390625e+01 -1.563593682698052878e-13 4.736621454760024663e-14 -3.269794510022197565e-14 -2.882791593872106872e-14
5.393000000000000000e+03 4.344209289550781250e+01 1.370845413208007812e+01 -9.218607187290103755e-14 -1.310102200335894196e-13 -6.695888282856263252e-14 -7.398393014760099029e-14
5.394000000000000000e+03 3.471533203125000000e+01 -3.469172000885009766e+00 -6.892633707712703117e-14 6.196203896106575182e-14 -2.089289773631562708e-15 -1.429658800199129498e-13
5.395000000000000000e+03 4.481971740722656250e+01 -2.142924499511718750e+01 -3.628122163358354305e-16 -1.374083409989151905e-13 -4.133134535577037694e-14 2.363201594048763843e-14
5.396000000000000000e+03 1.371172714233398438e+01 -9.801903724670410156e+00 3.895928040896154410e-14 -1.205560174258324402e-13 -2.447902008862173212e-14 9.718972080309615930e-15
5.397000000000000000e+03 1.851886558532714844e+01 -2.008107185363769531e+01 5.726085024974209015e-14 -1.584634252158392820e-13 -3.036077452270823096e-14 1.162916859570551839e-14
5.398000000000000000e+03 1.360165500640869141e+01 -2.174448013305664062e+01 -5.328283116372983796e-14 -2.859034623631240279e-13 -1.017558839922980130e-13 -6.571419162949496129e-14
5.399000000000000000e+03 3.326574325561523438e+01 -2.882038831710815430e+00 -6.601847296920301811e-14 1.418427143318537476e-13 2.274726969828978762e-14 -8.020795534907990132e-14
5.400000000000000000e+03 3.386710357666015625e+01 -4.488870620727539062e+00 -4.282692432568298291e-14 3.311542053486930814e-14 -2.913450713727628802e-15 -8.448707093091853415e-14
5.401000000000000000e+03 1.198900794982910156e+01 -7.584476947784423828e+00 1.843394891433777641e-16 -9.142289518742491294e-14 -2.737156645272759842e-14 -1.175138003399467390e-13
5.402000000000000000e+03 1.774018478393554688e+01 -1.972353363037109375e+01 8.573990042254342470e-14 -5.475622464668795930e-14 9.295103240976407971e-15 1.499474237267803267e-13
5.403000000000000000e+03 1.813635826110839844e+01 -1.874386787414550781e+01 4.085496724997098039e-14 -2.569964098302068845e-13 -6.484243887270799145e-14 1.440061584518856352e-13
5.404000000000000000e+03 7.237730407714843750e+01 5.635639667510986328e+00 -1.585656519281775090e-14 -5.254662061916250126e-14 -2.052095540478089675e-14 -1.669280626269767365e-13
5.405000000000000000e+03 7.197418212890625000e+01 -2.262515449523925781e+01 -4.253202302883282021e-15 2.955583640242703813e-13 8.739154690705353001e-14 5.394808406423978742e-14
5.406000000000000000e+03 3.646276473999023438e+01 -7.117231845855712891e+00 -6.040532792928390848e-14 2.028667490071300872e-13 4.273842632335385361e-14 2.389822653734840346e-14
5.407000000000000000e+03 3.724696350097656250e+01 -7.727455615997314453e+00 -7.294949285483257051e-14 1.517397318906432702e-13 2.363707103311685209e-14 -3.550540192257846395e-14
5.408000000000000000e+03 4.356057739257812500e+01 -1.864975929260253906e+01 -4.760683289099267024e-14 2.083518091128971905e-13 4.822349320538453499e-14 3.414741837274963554e-14
5.409000000000000000e+03 4.294082641601562500e+01 -1.543535232543945312e+01 -4.254223994024260158e-14 5.039403546151441371e-14 2.355537639942006933e-15 6.659457734608034696e-14
5.410000000000000000e+03 9.064811706542968750e+00 -2.231338882446289062e+01 3.076386733791118544e-14 3.220034102639074414e-13 1.058301870074905560e-13 -6.913801399877766984e-14
5.411000000000000000e+03 7.189878082275390625e+01 -5.553540706634521484e+00 1.386713958722793349e-13 1.966834491497551629e-13 1.006064535066103494e-13 -1.355988956644633980e-14
5.412000000000000000e+03 7.193074798583984375e+01 -6.303147792816162109e+00 -5.257904504038339588e-15 4.552561127559029419e-13 1.349994606120868967e-13 1.301885709696984361e-13
5.413000000000000000e+03 8.277602195739746094e+00 -1.392185592651367188e+01 -4.515628780052188471e-15 6.669115265459449327e-14 1.865265822115387551e-14 6.820261010413632835e-15
5.414000000000000000e+03 1.092282772064208984e+01 -7.215597152709960938e+00 -3.168314203117091055e-14 -1.508313331004262903e-13 -5.475434423354505475e-14 4.467888054969157419e-14
5.415000000000000000e+03 1.015717887878417969e+01 -7.685323238372802734e+00 -7.652315874061635381e-14 -5.567111509741269615e-14 -3.965828249022189389e-14 -9.938993970556603968e-15
5.416000000000000000e+03 3.722276687622070312e+01 -6.994050979614257812e+00 1.954843113825908280e-14 1.685062137567194807e-13 5.641639567077923190e-14 -1.085030740114508591e-14
5.417000000000000000e+03 7.193003082275390625e+01 2.102935409545898438e+01 -2.936358635082826629e-14 2.619212897785050398e-13 6.976731204474256876e-14 2.860520387183360103e-14
5.418000000000000000e+03 7.236817932128906250e+01 2.150044631958007812e+01 -4.163987880087365034e-14 2.109090761195572816e-13 5.078076021204462609e-14 -3.201337307225105011e-14
5.419000000000000000e+03 7.135060882568359375e+01 -4.408024311065673828e+00 1.322068675238888269e-13 3.311657859831479422e-13 1.390117946968583151e-13 1.940352446858778501e-13
5.420000000000000000e+03 7.154797363281250000e+01 -1.244252681732177734e+00 1.715912297233640471e-13 1.192900487591297409e-13 8.726438354474813641e-14 -3.596048223195209836e-14
5.421000000000000000e+03 7.244858551025390625e+01 3.144834339618682861e-01 2.427431628100606975e-13 1.269082495342077621e-13 1.108954237032805379e-13 1.317301573811741067e-13
5.422000000000000000e+03 4.596171188354492188e+01 -2.254850578308105469e+01 -4.112986332267289102e-14 2.812386554109508330e-14 -3.901798826253573965e-15 -9.733530035574075590e-15
5.423000000000000000e+03 4.735543823242187500e+01 -2.362064743041992188e+01 -4.814785993945830400e-15 1.580648453921792984e-13 4.597501714184368260e-14 -2.001568669921655053e-14
5.424000000000000000e+03 4.809688568115234375e+01 -2.460165405273437500e+01 -2.334409927732053469e-14 4.246294071572065398e-13 1.203855943968448750e-13 -2.326879804830962739e-14
5.425000000000000000e+03 7.237100219726562500e+01 -1.268807053565979004e+00 2.888955350985322745e-13 1.695633244274200035e-13 1.375376592130383990e-13 1.506358141792774746e-14
5.426000000000000000e+03 4.029270935058593750e+01 1.074791908264160156e+01 1.088875151611552738e-13 9.151285728620337130e-16 3.294079283433157257e-14 -1.122090887952431268e-14
5.427000000000000000e+03 4.706289672851562500e+01 1.918301773071289062e+01 -1.303184448374350435e-13 1.729039817138094959e-13 1.277566157113210407e-14 2.932281357287923329e-14
5.428000000000000000e+03 4.661602783203125000e+01 1.774535369873046875e+01 -1.004270468461842050e-14 -3.861722817606952352e-14 -1.459797926528332013e-14 -1.067775916649285964e-14
5.429000000000000000e+03 3.972871398925781250e+01 1.013364696502685547e+01 8.026980230675662131e-14 -1.486024573792849024e-13 -2.049979482769258982e-14 -1.478702685471511291e-13
5.430000000000000000e+03 9.286884307861328125e+00 -2.658465957641601562e+01 -1.863082679397134317e-14 7.681545964631844581e-14 1.745538900867118354e-14 -8.763041189224513722e-15
5.431000000000000000e+03 7.223002624511718750e+01 1.901361656188964844e+01 -5.283726472841976385e-14 -2.056483374432774291e-13 -7.754568336201458911e-14 -1.002976456228321656e-13
5.432000000000000000e+03 4.200662612915039062e+01 1.241686916351318359e+01 -2.628193988124787744e-14 3.448726154371521690e-14 2.461596329333612387e-15 1.718153076308789624e-15
5.433000000000000000e+03 3.988669967651367188e+01 1.139384078979492188e+01 -7.875004224026579958e-15 -9.487689903468418673e-14 -3.082557199405276671e-14 -9.663666758084540898e-14
5.434000000000000000e+03 3.252531814575195312e+01 -1.230766892433166504e+00 6.397135018975166898e-14 9.604271452570353751e-14 4.800422009226291975e-14 -9.543505308934330245e-14
5.435000000000000000e+03 1.643394279479980469e+01 -1.596280288696289062e+01 -1.023677670408673634e-13 -2.040002281683550578e-13 -9.191039991801944198e-14 1.639347972691787558e-13
5.436000000000000000e+03 1.578134727478027344e+01 -1.512705898284912109e+01 -1.336243127866149072e-13 -2.173958848225923668e-13 -1.053060565722567510e-13 1.031456820996257129e-13
5.437000000000000000e+03 7.287900543212890625e+01 2.061678695678710938e+01 3.066445277495784272e-14 2.190211851943110744e-13 7.490569172959385402e-14 5.691580968461215639e-14
5.438000000000000000e+03 8.595459938049316406e+00 -2.120000457763671875e+01 -6.154590183847508111e-14 1.937413547463667091e-14 -1.265152889271198636e-14 -6.442868868896268336e-15
5.439000000000000000e+03 1.374602317810058594e+01 -1.277858543395996094e+01 -2.266176612683579172e-13 -5.619957725913875962e-15 -6.967128561357824323e-14 -1.190361065874770072e-14
5.440000000000000000e+03 7.185594940185546875e+01 -2.801857376098632812e+01 -6.703035208052016136e-14 2.000274539103522042e-13 3.989913122657597067e-14 1.268782616032596445e-15
5.441000000000000000e+03 7.136092376708984375e+01 -3.073754119873046875e+01 -1.040333743224141141e-14 1.327942747084143171e-13 3.671728245340129260e-14 -5.529165450143813665e-14
5.442000000000000000e+03 7.097977447509765625e+01 -3.190892982482910156e+01 -6.333182676204751616e-14 1.329861107303084711e-13 2.089628586810464428e-14 2.922321266267749462e-14
5.443000000000000000e+03 4.357814025878906250e+01 -1.745897293090820312e+01 -9.728286901630571470e-15 1.416618829620103215e-13 3.958007763226779885e-14 1.791341021643768489e-14
5.444000000000000000e+03 4.423144531250000000e+01 -1.792988204956054688e+01 1.820230774375770910e-14 2.394151771365621295e-13 7.728524444765641488e-14 -4.465388714851694155e-15
5.445000000000000000e+03 7.019914245605468750e+01 -2.841181182861328125e+01 -8.308023052069207770e-14 2.108416794020101515e-13 3.832843737490085334e-14 4.410097368670248819e-14
5.446000000000000000e+03 1.981652641296386719e+01 -2.806569099426269531e+01 -5.635492479573109281e-14 -1.842804337945369575e-13 -7.219060554420134168e-14 -5.575221680804640090e-14
5.447000000000000000e+03 4.867710113525390625e+01 -2.579889488220214844e+01 -1.619800078572417035e-14 2.675636947245541020e-13 7.540971021452805290e-14 1.915301752375593580e-14
5.448000000000000000e+03 2.128207969665527344e+01 -2.302548980712890625e+01 -7.839722252454828233e-14 -3.538554540528926484e-13 -1.296757975522214168e-13 1.482191105961483402e-13
5.449000000000000000e+03 2.036751174926757812e+01 -2.359956741333007812e+01 -8.263824872881478378e-14 -2.184201848250480471e-13 -9.031753074378520707e-14 1.222864854082822417e-13
5.450000000000000000e+03 4.665577697753906250e+01 -2.213982009887695312e+01 -1.210860296578519790e-13 8.535883046396908203e-14 -1.071815840291215349e-14 1.245431590566866212e-14
5.451000000000000000e+03 5.183715820312500000e+01 -2.646432304382324219e+01 1.057725934257584734e-15 3.778986401147682583e-13 1.136869054842518101e-13 1.817742699796506128e-14
5.452000000000000000e+03 9.622048377990722656e+00 -3.417943572998046875e+01 6.448246257561912262e-15 -7.730062656597855297e-14 -2.125571413487663958e-14 -2.590684489308346661e-14
5.453000000000000000e+03 1.018850994110107422e+01 -3.173006057739257812e+01 1.508805389383981871e-14 -3.928463931652907692e-14 -7.258975796213366916e-15 -2.709222515111849722e-14
5.454000000000000000e+03 1.017352581024169922e+01 -2.752865219116210938e+01 -7.258898716215166774e-15 -2.312699626260978497e-14 -9.115768578350780249e-15 -1.432549893054697876e-14
5.455000000000000000e+03 2.079753112792968750e+01 -2.518325996398925781e+01 -8.203324358777713821e-14 -2.639118578621341138e-13 -1.037835250139625132e-13 6.674524079047436387e-14
5.456000000000000000e+03 1.726088142395019531e+01 -2.294951057434082031e+01 -4.280496584355836243e-14 -2.242242578675418541e-13 -8.010876440282463373e-14 5.114075937902307079e-14
5.457000000000000000e+03 1.234853839874267578e+01 -3.560488510131835938e+01 2.026243417301530625e-14 -7.138025928795851960e-14 -1.533534685685660620e-14 2.624342529313622441e-14
5.458000000000000000e+03 5.699818801879882812e+01 -2.649394035339355469e+01 7.262095926777872856e-14 3.285044491204563988e-13 1.203376184507123914e-13 1.091619385894726166e-14
5.459000000000000000e+03 5.412773132324218750e+01 -2.431788825988769531e+01 -4.109714413398635191e-14 2.683303611857729143e-13 6.816996376028325311e-14 2.415699679680048673e-14
5.460000000000000000e+03 2.308987998962402344e+01 -3.017508888244628906e+01 -5.110670187827986988e-14 -1.362802421909711792e-13 -5.621608254314895692e-14 5.277971392185151767e-14
5.461000000000000000e+03 2.008502578735351562e+01 -2.911509513854980469e+01 -7.975073374041560803e-14 -5.133549225359683443e-14 -3.932586610413783823e-14 -7.875206156681205383e-14
5.462000000000000000e+03 6.621598052978515625e+01 2.696098709106445312e+01 1.488150558727821537e-13 1.324043007394984373e-13 8.436580969418960851e-14 7.051846763863126033e-14
5.463000000000000000e+03 6.851541137695312500e+01 2.673175048828125000e+01 8.773063791276194956e-14 2.177432089885480981e-13 9.164215474801937211e-14 -1.000920266808202896e-13
5.464000000000000000e+03 6.261090850830078125e+01 2.695007324218750000e+01 3.233446293376442127e-14 1.968614209363686585e-13 6.875876685510581843e-14 8.702087004274199761e-15
5.465000000000000000e+03 6.887660217285156250e+01 2.560247993469238281e+01 8.661193100613709395e-14 -1.916353496245540300e-13 -3.150702355264600740e-14 -1.176026642605090822e-13
5.466000000000000000e+03 7.300523376464843750e+01 2.627469825744628906e+01 -1.141090124950547291e-13 1.972255908935793833e-14 -2.831593873221446844e-14 1.061413259259395836e-13
5.467000000000000000e+03 6.787967681884765625e+01 2.665168190002441406e+01 1.150822194701320300e-13 2.094492656569413302e-13 9.735944418286929247e-14 2.328307732973444039e-14
5.468000000000000000e+03 6.388107681274414062e+01 2.754353332519531250e+01 8.548585830100291494e-14 2.519905738609419521e-14 3.320547368968959634e-14 2.033455326864996859e-13
5.469000000000000000e+03 6.175666427612304688e+01 2.755828666687011719e+01 7.999149438534317036e-14 -1.487217331707854640e-13 -2.061907061919315137e-14 1.596844130449109889e-13
5.470000000000000000e+03 6.137008285522460938e+01 2.716513061523437500e+01 1.177015841562212284e-13 5.044353267882016600e-14 5.044353267882016600e-14 1.008748680831998701e-13
5.471000000000000000e+03 5.694770431518554688e+01 2.679647827148437500e+01 3.571635175114717953e-13 -2.993371067509797978e-14 9.816894340616486025e-14 1.813134332343674382e-13
5.472000000000000000e+03 6.677848815917968750e+01 2.607586288452148438e+01 4.594828817016012590e-14 -7.180977275485223021e-14 -7.758445714220810197e-15 -1.818883178838007209e-13
5.473000000000000000e+03 6.554536437988281250e+01 2.659753227233886719e+01 -2.462378511320842530e-16 -2.288602792520355589e-13 -6.873195318012753630e-14 1.877753594975439810e-13
5.474000000000000000e+03 6.526245117187500000e+01 2.717008590698242188e+01 -4.268963044932842787e-14 -4.117102912390945002e-14 -2.515819821078454227e-14 2.660238565890815643e-13
5.475000000000000000e+03 1.348339557647705078e+01 -9.339955329895019531e+00 -1.058079676392181812e-13 -4.571047858802079755e-13 -1.688738396083550031e-13 -1.003078167944627952e-13
5.476000000000000000e+03 1.253110599517822266e+01 -8.220162391662597656e+00 -4.788658754468003154e-14 -6.627377547576904226e-14 -3.424810687325564873e-14 -2.684813736077412000e-14
5.477000000000000000e+03 6.310399246215820312e+01 2.690955162048339844e+01 -2.789726051078203484e-14 -1.034578645626657578e-13 -3.940653752203433779e-14 9.856792980563952589e-14
5.478000000000000000e+03 6.454842376708984375e+01 2.677486610412597656e+01 -6.336897423898230075e-14 1.100947132938456807e-13 1.401772273289855070e-14 3.190891019293207176e-14
5.479000000000000000e+03 9.369478225708007812e+00 -9.894725799560546875e+00 -4.550354843900657198e-14 -1.567543702262960692e-13 -6.067737458315125565e-14 -3.049863421707155187e-14
5.480000000000000000e+03 6.599336242675781250e+01 2.648749542236328125e+01 1.529650870215910202e-14 7.518206841588756517e-14 2.714357398244694741e-14 -2.879609799309040818e-13
5.481000000000000000e+03 7.189870452880859375e+01 2.626110267639160156e+01 1.082288047431299166e-14 -3.613692190537060034e-13 -1.051638973386531672e-13 3.568545063397862704e-14
5.482000000000000000e+03 7.989477157592773438e+00 -1.074606418609619141e+01 8.670637856788773745e-14 -5.434201875921702840e-14 9.709308281414391617e-15 -6.710333921551916991e-14
5.483000000000000000e+03 1.429166316986083984e+01 -1.132364559173583984e+01 -8.663722679807389637e-14 -1.743830909750956892e-13 -7.830609533195087568e-14 6.546937200268415635e-14
5.484000000000000000e+03 5.725803375244140625e+01 2.732764244079589844e+01 9.338645986069551985e-14 2.230265668326514295e-13 9.492390597512501138e-14 2.079383350618926873e-13
5.485000000000000000e+03 5.773109817504882812e+01 2.748077201843261719e+01 -8.479411359803463999e-15 -7.226045526916372030e-14 -2.422196083572310255e-14 -5.911301314978981147e-14
5.486000000000000000e+03 6.008927917480468750e+01 2.680218696594238281e+01 1.636425099160038199e-13 7.013250521775357682e-14 7.013250521775357682e-14 -9.233411290329035515e-15
5.487000000000000000e+03 7.131939697265625000e+01 2.689241218566894531e+01 1.746421000978388982e-14 -3.826628887349491082e-14 -6.240623235596832671e-15 1.456745897412785318e-14
5.488000000000000000e+03 7.036024475097656250e+01 2.668986892700195312e+01 1.202904183867595928e-14 5.155303826653899815e-15 5.155303826653899815e-15 -5.010353365379228985e-14
5.489000000000000000e+03 8.422862052917480469e+00 -1.646521377563476562e+01 -1.351981271076677094e-13 -5.794205447471473258e-14 -5.794205447471473258e-14 -2.772318507572590907e-14
5.490000000000000000e+03 4.341749191284179688e+01 1.306599330902099609e+01 -7.219516596958935883e-14 1.481016271263641687e-14 -1.721550080767929314e-14 -6.952320392560745743e-14
5.491000000000000000e+03 4.271189117431640625e+01 1.372259807586669922e+01 -1.275653844709512263e-13 -1.004218274291632240e-13 -6.839616221478161950e-14 -3.469135243829024606e-14
5.492000000000000000e+03 6.818611145019531250e+01 2.630630302429199219e+01 9.147899587358745976e-14 -5.229661376258271099e-14 1.175471497211460353e-14 -9.333761655282504788e-14
5.493000000000000000e+03 3.682067489624023438e+01 -5.346983909606933594e+00 1.057108299008270580e-14 -4.122048568363373411e-14 -9.194820469252129591e-15 7.787871638808424590e-15
5.494000000000000000e+03 3.220337295532226562e+01 -1.764564275741577148e+00 -6.922842290743580485e-14 3.420571389068510770e-13 8.184861073406643484e-14 -1.100998429253742528e-13
5.495000000000000000e+03 3.249444580078125000e+01 -6.664351820945739746e-01 -7.681771614208993126e-14 5.858001936179593749e-14 -5.471308525868429778e-15 -2.772749748986697016e-13
5.496000000000000000e+03 4.233655929565429688e+01 -1.351533222198486328e+01 -1.865450814111067890e-14 2.893863805270707745e-13 8.121956340985392320e-14 -9.497207165663767992e-14
5.497000000000000000e+03 4.198610687255859375e+01 -1.253791522979736328e+01 -5.667536752407276168e-14 6.721245738791625790e-14 3.161126323878338425e-15 2.248105571329723357e-14
5.498000000000000000e+03 3.915914916992187500e+01 -1.115747642517089844e+01 -1.537602137898375770e-14 1.992895459117585699e-13 5.517405922330492762e-14 9.820640597935602345e-15
5.499000000000000000e+03 3.804953765869140625e+01 -1.061187267303466797e+01 -2.698035412164283275e-14 1.828785197279317321e-13 4.676944934307349089e-14 -6.059439245937464635e-14
5.500000000000000000e+03 5.634841918945312500e+01 2.669896316528320312e+01 -3.733047941947842396e-13 -6.848587316829121696e-14 -1.325372103733180040e-13 -8.678632492558138734e-14
5.501000000000000000e+03 4.581843566894531250e+01 1.580622005462646484e+01 -5.246691143069408259e-14 -1.711764004196439370e-13 -6.709299186103551138e-14 3.506261714346717295e-14
5.502000000000000000e+03 7.182408905029296875e+01 8.755014419555664062e+00 1.834006714942007510e-13 2.616040793278900933e-13 1.335014320228908313e-13 -2.951884071379640151e-13
5.503000000000000000e+03 7.187257385253906250e+01 4.711832046508789062e+00 -6.465557916937895652e-15 -1.628992757742378505e-13 -5.080945091203402375e-14 -6.536545122445142075e-14
5.504000000000000000e+03 3.973892974853515625e+01 -1.261266326904296875e+01 -1.561597395447963943e-14 1.305602896845350913e-13 3.448329404139027776e-14 1.065646865455044390e-13
5.505000000000000000e+03 4.542216491699218750e+01 1.527725505828857422e+01 -1.371595708104383915e-13 -2.446946047477902009e-14 -4.848870938556522348e-14 -1.082585694808964327e-13
5.506000000000000000e+03 5.311752700805664062e+01 2.334642982482910156e+01 -4.396535693558349667e-14 7.265960429896425876e-14 8.608273870201049727e-15 -5.176817701184506515e-14
5.507000000000000000e+03 5.239124298095703125e+01 2.155704879760742188e+01 -1.074870241099014356e-13 4.543602974871503719e-14 -1.861529729191638283e-14 -8.754116003059295159e-14
5.508000000000000000e+03 7.137914276123046875e+01 -1.924168777465820312e+01 -7.469874463992068336e-14 2.424919531666958061e-13 5.033796188040617903e-14 1.484464948967728626e-13
5.509000000000000000e+03 7.119998168945312500e+01 -2.201787376403808594e+01 -3.746334568521109132e-14 1.898235529266406596e-13 4.570805946192343927e-14 1.480042894881974935e-13
5.510000000000000000e+03 7.160591125488281250e+01 -2.044246482849121094e+01 -3.959543264553562480e-14 3.947890733942138741e-13 1.065580932410430115e-13 8.954899403381885725e-14
5.511000000000000000e+03 1.029032802581787109e+01 -7.038344383239746094e+00 2.514937551560594148e-14 -8.072359512605042919e-14 -1.667226469728722016e-14 -3.809840694334910849e-14
5.512000000000000000e+03 4.497641372680664062e+01 -1.850393104553222656e+01 8.051955505345223529e-14 1.946367058410641837e-13 8.254687759072856790e-14 -4.441144175505729041e-14
5.513000000000000000e+03 5.296654129028320312e+01 2.175080490112304688e+01 1.565240992373873041e-14 1.668365017535103356e-13 5.474667350317471981e-14 -5.591220100299200413e-14
5.514000000000000000e+03 5.115121841430664062e+01 2.046419715881347656e+01 -4.083306975421856222e-14 5.112653600177277657e-14 3.088040086024501120e-15 -8.693499614848346213e-14
5.515000000000000000e+03 5.437210464477539062e+01 2.578137779235839844e+01 -2.329655023579346729e-14 1.730195576653964507e-13 4.491690358413361062e-14 -2.029515505576773987e-14
5.516000000000000000e+03 4.678652572631835938e+01 1.593241500854492188e+01 -5.941301866718012858e-14 2.028822802032509420e-14 -1.173743634702356306e-14 -4.975730046627262204e-14
5.517000000000000000e+03 3.452781677246093750e+01 -5.091753005981445312e+00 -1.139512881840124003e-13 1.341675251800844570e-13 6.064871098821617013e-15 -1.408715656468382746e-14
5.518000000000000000e+03 4.293574142456054688e+01 -1.611843681335449219e+01 -5.721207470450739851e-14 1.813598099822955056e-13 3.724431990571007434e-14 6.161609037661636146e-14
5.519000000000000000e+03 4.349583816528320312e+01 -1.640525245666503906e+01 5.175936702216067317e-15 -4.353268911799421104e-14 -1.150702559767850103e-14 5.162036298628561171e-14
5.520000000000000000e+03 6.923006439208984375e+01 2.608594131469726562e+01 6.977094412202039519e-14 3.044075137358798200e-13 1.122535427783809270e-13 -5.000530493696510315e-14
5.521000000000000000e+03 7.241770935058593750e+01 2.549957084655761719e+01 -5.341516142701348280e-14 -1.601450634429457676e-13 -6.406806779980095401e-14 2.917581269894914398e-14
5.522000000000000000e+03 3.378450012207031250e+01 -3.423243999481201172e+00 -6.681912578039746198e-15 4.288727034097716828e-14 1.086160766769440553e-14 -5.047346004691255494e-14
5.523000000000000000e+03 7.030930328369140625e+01 -2.200913810729980469e+01 8.720373598572472851e-14 1.288749245124606868e-13 6.482360085996105581e-14 -7.484543719385797211e-14
5.524000000000000000e+03 1.932452392578125000e+01 -2.342076873779296875e+01 -3.651108414085349474e-14 -1.529004516314519391e-13 -5.682346276457070355e-14 -7.335472019306260583e-14
5.525000000000000000e+03 3.759944534301757812e+01 9.493864059448242188e+00 5.697726361900135039e-14 -1.585849642793749070e-13 -3.048231019811206699e-14 -2.757116129641860175e-14
5.526000000000000000e+03 3.385351943969726562e+01 -1.141933202743530273e+00 4.680683737736529570e-15 -8.949588845615780164e-14 -2.544456141552638162e-14 -1.944105954779923318e-14
5.527000000000000000e+03 7.156207275390625000e+01 2.448179244995117188e+01 -1.209721655598514252e-15 -5.184521381136489651e-16 -5.184521381136489651e-16 -6.606519869470535433e-15
5.528000000000000000e+03 3.780367279052734375e+01 -8.055086135864257812e+00 7.220923688090914727e-15 -4.265626751560197549e-14 -1.063060314825331823e-14 8.257760116979137588e-14
5.529000000000000000e+03 7.221471405029296875e+01 1.828475379943847656e+01 1.195457849465647593e-13 5.482956499442597290e-15 3.750862129030772818e-14 4.557746731024756026e-14
5.530000000000000000e+03 7.151624298095703125e+01 1.671362686157226562e+01 5.264288083142026897e-14 6.831218398025903915e-14 3.628651876587743463e-14 -1.391870559780405969e-13
5.531000000000000000e+03 7.182585906982421875e+01 -8.731344223022460938e+00 7.404528921430009181e-14 2.604884352924025093e-13 1.003601159967580647e-13 -2.733293836220101330e-14
5.532000000000000000e+03 7.172776031494140625e+01 -1.803884315490722656e+01 1.590344677238238191e-14 1.898195549311296193e-13 6.171690084986677927e-14 1.554116807033628644e-13
5.533000000000000000e+03 7.107602691650390625e+01 -9.590502738952636719e+00 1.307190304351141252e-13 1.932752867256012919e-13 9.719829785872005634e-14 -9.590546130693045068e-14
5.534000000000000000e+03 7.210602569580078125e+01 1.152631568908691406e+01 -4.286574553972154200e-14 1.646327659702434554e-13 3.653010511271703731e-14 -1.195338316176131066e-13
5.535000000000000000e+03 7.143241119384765625e+01 1.084211635589599609e+01 -4.216712631735335115e-14 -1.095735237570047427e-13 -4.552219332824153364e-14 -1.115285300093762921e-13
5.536000000000000000e+03 7.214579010009765625e+01 1.449202537536621094e+01 -9.295612646590886707e-14 5.912609303256131238e-15 -2.611305506409252603e-14 -6.717797298256764083e-14
5.537000000000000000e+03 7.033772277832031250e+01 2.229871749877929688e+00 1.416410391752442877e-13 1.522051934358184533e-13 8.815386978331882228e-14 -1.328770942018650536e-13
5.538000000000000000e+03 5.169308853149414062e+01 1.880620002746582031e+01 -6.012575962284494313e-14 1.572356069130809164e-13 2.913295621994986540e-14 -1.239530396726640227e-13
5.539000000000000000e+03 7.131731414794921875e+01 2.767145633697509766e+00 1.736096753553531546e-13 1.201550930149744567e-13 8.812943457685643023e-14 -1.164412262357611416e-13
5.540000000000000000e+03 7.074571990966796875e+01 -3.637724876403808594e+00 7.452538071254025120e-14 4.436979754961212219e-13 1.554670156717410934e-13 -2.147715904047501484e-14
5.541000000000000000e+03 7.077883911132812500e+01 -2.879977703094482422e+00 2.500026552963718895e-13 1.564209983870475107e-14 7.969342687933617109e-14 -1.194343696208147176e-13
5.542000000000000000e+03 7.139768218994140625e+01 1.015541362762451172e+01 -3.916442501252295760e-14 2.119699950503886599e-13 5.184166897848063726e-14 -1.822382034773889492e-13
5.543000000000000000e+03 7.110246276855468750e+01 2.101103067398071289e+00 1.961768285796069988e-13 2.670795713494850121e-13 1.389769240444857501e-13 2.681904516716772380e-14
5.544000000000000000e+03 7.187216186523437500e+01 1.937907099723815918e+00 2.135927068894205583e-13 3.660454101286902961e-13 1.738914323949278251e-13 -1.483619000222646811e-13
5.545000000000000000e+03 7.124565887451171875e+01 -4.984738349914550781e+00 2.096371578934330682e-13 5.931049379924446807e-13 2.408226341867741871e-13 -5.488597654168016204e-14
5.546000000000000000e+03 7.102230834960937500e+01 -1.052613639831542969e+01 -6.489727239758144584e-14 8.656425321560204389e-14 6.500093567779821613e-15 4.013752017925122095e-14
5.547000000000000000e+03 7.124005126953125000e+01 4.516833305358886719e+00 1.108807801976884055e-13 1.618977033598228976e-13 8.183354710013246436e-14 -1.406846915439491363e-13
5.548000000000000000e+03 1.117609024047851562e+01 -9.892353057861328125e+00 7.336313292429473554e-15 3.144134419439943533e-15 3.144134419439943533e-15 -9.086045175792090145e-14
5.549000000000000000e+03 7.150008392333984375e+01 1.595524406433105469e+01 7.533104457065065152e-14 7.803568175760583481e-14 4.601001654322423029e-14 5.197589320743434271e-14
5.550000000000000000e+03 7.215657043457031250e+01 1.524735736846923828e+01 1.473491061153645032e-13 4.291571980598318792e-13 1.729518898973061991e-13 3.210219633523192506e-14
5.551000000000000000e+03 7.021466827392578125e+01 -2.672627449035644531e+01 -1.930885464539178198e-14 2.147606501272034119e-13 5.863553728929077336e-14 4.789402110582513528e-14
5.552000000000000000e+03 7.044871520996093750e+01 -2.522208595275878906e+01 3.434583075844627187e-15 1.862857029819985771e-14 6.618945842806756019e-15 8.380189581548916355e-14
5.553000000000000000e+03 7.097515106201171875e+01 -1.445059204101562500e+01 1.728781641495771848e-13 1.655925423909090921e-13 1.015412119621458831e-13 -1.233186458764884419e-13
5.554000000000000000e+03 3.360412216186523438e+01 1.990479111671447754e+00 8.035419558742335627e-15 3.237004035042817529e-13 9.952074700361052129e-14 -7.628265559370475679e-14
5.555000000000000000e+03 3.322162628173828125e+01 1.033882617950439453e+00 1.724150810729178918e-14 3.276458694200651278e-13 1.034662129193938962e-13 2.375431225147810882e-14
5.556000000000000000e+03 4.754431152343750000e+01 1.872117614746093750e+01 1.072152451184454208e-14 1.561449537376691232e-13 5.005994533832658355e-14 -4.317987279040848281e-14
5.557000000000000000e+03 8.101084709167480469e+00 -1.227838611602783203e+01 2.295132501748103210e-14 -3.591466791390100777e-14 -3.889002276002929623e-15 9.888812858849238552e-14
5.558000000000000000e+03 1.228983306884765625e+01 -9.331395149230957031e+00 -1.495004207235917093e-13 1.646831271611554071e-13 4.554812524192172404e-15 -4.197423658647281286e-14
5.559000000000000000e+03 5.352249526977539062e+01 2.196588134765625000e+01 -1.108344983174504306e-13 -9.325144958516676241e-14 -6.122578437078515790e-14 1.394701818228580303e-13
5.560000000000000000e+03 4.624269104003906250e+01 1.632333564758300781e+01 -1.738007761526490919e-14 -9.895050409472819219e-14 -3.489917366596498316e-14 -2.665667064524496893e-14
5.561000000000000000e+03 4.889890670776367188e+01 1.914702415466308594e+01 5.363346553444343912e-14 2.946320216880987664e-13 1.044796505713339874e-13 -5.495191297442622580e-14
5.562000000000000000e+03 8.888031959533691406e+00 -1.927016067504882812e+01 -1.640682083465030972e-13 -2.075677954169186101e-13 -1.114907997737737966e-13 4.621272169189755141e-14
5.563000000000000000e+03 3.521636199951171875e+01 -3.769363403320312500e+00 8.284817737446228958e-14 1.727592136187283689e-13 7.668221797558355535e-14 -2.652597854368131391e-14
5.564000000000000000e+03 3.276065826416015625e+01 -2.301334619522094727e+00 9.423937460473555405e-14 4.038830630614248518e-14 4.038830630614248518e-14 -1.092277784604626933e-13
5.565000000000000000e+03 3.817139434814453125e+01 -1.277543258666992188e+01 -9.234544281599282867e-14 6.174329778463501228e-15 -2.585133374185220878e-14 -9.405756745293689103e-14
5.566000000000000000e+03 7.170948028564453125e+01 2.372886085510253906e+01 1.539351769154224253e-14 5.234817096401618575e-14 2.032250744370047574e-14 6.773860714969631713e-14
5.567000000000000000e+03 8.147700309753417969e+00 -1.311584854125976562e+01 1.137473226503135648e-13 -2.715077782825675579e-13 -4.732813872255527132e-14 7.841250299891674991e-14
5.568000000000000000e+03 8.985842704772949219e+00 -1.401921558380126953e+01 2.820519933875633573e-14 -3.366300700647847921e-14 -1.637342003855111507e-15 2.700501972106687798e-14
5.569000000000000000e+03 4.439517974853515625e+01 1.501507663726806641e+01 -1.474867997912701623e-13 -6.320862751393527268e-14 -6.320862751393527268e-14 1.073642128028790346e-14
5.570000000000000000e+03 7.130894470214843750e+01 -1.328527545928955078e+01 7.909813890026942684e-15 1.863937200115642345e-13 5.829105915403781646e-14 -2.039317608011625982e-13
5.571000000000000000e+03 7.270071411132812500e+01 -1.362386512756347656e+01 -1.401620112291210307e-13 -4.718279803320180044e-13 -1.835969934025835637e-13 1.565302114271346912e-13
5.572000000000000000e+03 6.184888839721679688e+01 2.677811622619628906e+01 4.409196125614370243e-14 1.675871355751035185e-13 6.350372701649509288e-14 7.852697441954048507e-14
5.573000000000000000e+03 9.540035247802734375e+00 -7.504308223724365234e+00 2.380585420631853300e-14 -1.956767538800752160e-13 -5.156127057975336270e-14 -1.015942362246440023e-13
5.574000000000000000e+03 5.187460708618164062e+01 2.065516281127929688e+01 1.156025695973222391e-15 1.377482925900980204e-13 4.167129355882141784e-14 -9.878445175574845916e-14
5.575000000000000000e+03 7.337441253662109375e+01 -1.495743942260742188e+01 2.256931349708252155e-13 3.941067849670687462e-13 1.859399814023790509e-13 1.120142525826497981e-13
5.576000000000000000e+03 7.191638946533203125e+01 -7.078607559204101562e+00 1.139644612404080992e-13 3.690985505514637888e-13 1.449189076033197132e-13 -1.470547621661936338e-14
5.577000000000000000e+03 7.501258850097656250e+00 -1.469940280914306641e+01 -7.802908167688082930e-14 -3.344103694045280628e-14 -3.344103694045280628e-14 8.203299286602475093e-14
5.578000000000000000e+03 7.130188751220703125e+01 2.397710609436035156e+01 -1.112463765583823067e-14 1.667983513895660019e-13 4.670211700003035205e-14 5.619305679951079602e-14
5.579000000000000000e+03 8.092161178588867188e+00 -8.239766120910644531e+00 9.244725109405511204e-16 4.614715117738470151e-14 1.412148681003604425e-14 -2.603633251379612601e-14
5.580000000000000000e+03 7.148432922363281250e+01 1.520166110992431641e+01 -2.614640952748950586e-14 3.454534428697433879e-14 2.519680766658628779e-15 -1.541535725024106851e-13
5.581000000000000000e+03 7.110304260253906250e+01 -1.242080307006835938e+01 -6.402105408309655132e-14 2.013171530521051800e-13 4.118883036832894640e-14 9.283058940686220173e-14
5.582000000000000000e+03 7.100835418701171875e+01 -1.148318195343017578e+01 5.398031197381691904e-14 2.976401135106054863e-13 1.054861290005794372e-13 -1.413167407529267172e-13
5.583000000000000000e+03 4.528381347656250000e+01 1.396795654296875000e+01 -7.159686932949396732e-14 1.523194276872169572e-13 2.421676682969053918e-14 -2.628223973091120547e-14
5.584000000000000000e+03 4.348567581176757812e+01 1.433986854553222656e+01 -1.445591422174347107e-13 -1.077048674314080856e-13 -7.567920221702648109e-14 -2.084547405566475331e-13
5.585000000000000000e+03 7.132419586181640625e+01 -2.122656059265136719e+01 1.266109612985122368e-13 1.228882582715931648e-13 7.484976722628433610e-14 1.007663936558426954e-13
5.586000000000000000e+03 3.500892639160156250e+01 -4.433773040771484375e+00 -6.039882271624899546e-14 -2.588520997754469727e-14 -2.588520997754469727e-14 -1.129324125805509366e-14
5.587000000000000000e+03 7.165479278564453125e+01 5.396055221557617188e+00 1.883953605098798167e-13 3.323710935383000775e-13 1.562299416354648307e-13 -1.038950690887205375e-13
5.588000000000000000e+03 7.137852478027343750e+01 3.916458845138549805e+00 1.211118201170299780e-13 5.190506770051672714e-14 5.190506770051672714e-14 2.662653575408050269e-15
5.589000000000000000e+03 7.069922637939453125e+01 4.800590574741363525e-01 1.183098351275127524e-13 -6.367316071100026509e-14 1.639100063088785170e-14 2.746253101499913224e-14
5.590000000000000000e+03 7.045545959472656250e+01 -8.609428405761718750e+00 1.225446610506053524e-13 9.827008591633060175e-14 6.624442747821257527e-14 -1.460103874828880266e-13
5.591000000000000000e+03 1.568122386932373047e+01 -1.590511608123779297e+01 -1.737915773748419102e-13 -3.718632660913018251e-13 -1.636964625266121298e-13 1.649644234148067712e-13
5.592000000000000000e+03 7.157482910156250000e+01 1.962084579467773438e+01 9.623764730005285317e-14 4.072523026275864932e-13 1.510469809125336571e-13 -8.008926909251062876e-14
5.593000000000000000e+03 7.156168365478515625e+01 -2.067319631576538086e+00 2.250366776604395547e-13 2.794480955230910224e-13 1.513454346655646043e-13 -6.580972085231924854e-15
5.594000000000000000e+03 7.239580535888671875e+01 -4.711523950099945068e-01 1.290672213202781471e-13 3.243904778582780424e-14 4.845188039301860650e-14 3.128318323787279698e-14
5.595000000000000000e+03 1.331095981597900391e+01 -1.018222808837890625e+01 -7.748925063893671861e-14 -2.848398871369700602e-13 -1.086987420103983915e-13 -3.705629553207856475e-14
5.596000000000000000e+03 7.154708862304687500e+01 1.820644950866699219e+01 -1.681251302456179819e-14 -7.205362845816905976e-15 -7.205362845816905976e-15 2.182680238264032846e-15
5.597000000000000000e+03 3.520909118652343750e+01 6.074739456176757812e+00 6.998867902330979662e-14 5.287062088588263820e-14 3.685779166682362495e-14 -2.296181365706029265e-13
5.598000000000000000e+03 3.745610427856445312e+01 -8.688709259033203125e+00 -1.119175824064455593e-13 1.494287583481222065e-14 -2.909241044683069655e-14 3.606224138210344099e-14
5.599000000000000000e+03 1.134508514404296875e+01 -8.013316154479980469e+00 -5.420097422097203133e-14 -6.897993732202928330e-14 -3.695427549577946780e-14 -1.567153118430322789e-13
5.600000000000000000e+03 3.910619735717773438e+01 1.043048286437988281e+01 3.813434655130110845e-15 -2.042449461512121922e-13 -6.012945268649497188e-14 -5.511759939517274498e-14
5.601000000000000000e+03 1.334166431427001953e+01 -1.194232845306396484e+01 -6.525714620368369689e-14 2.408194628954196670e-13 5.266869839565258005e-14 -1.704709541117208765e-14
5.602000000000000000e+03 7.097082519531250000e+01 -2.924622535705566406e+01 -1.279541692056091612e-14 4.026719753534406532e-14 8.241534862061302563e-15 -8.360755257607113689e-14
5.603000000000000000e+03 7.030700683593750000e+01 -3.016151618957519531e+01 -1.006187253199501697e-13 4.837958782503634647e-14 -1.567174090966096806e-14 9.674581963456038713e-14
5.604000000000000000e+03 8.147568702697753906e+00 -9.509145736694335938e+00 -2.649292477698060935e-15 9.036648924813650563e-14 2.631515881937329659e-14 2.767284251953879698e-14
5.605000000000000000e+03 1.076225471496582031e+01 -7.852755069732666016e+00 5.223240866518083503e-14 -1.148675338874527441e-13 -1.879053485617614150e-14 1.477909185006523463e-14
5.606000000000000000e+03 1.100889110565185547e+01 -2.253335571289062500e+01 8.194787960735284982e-15 -1.337407967575213186e-13 -3.766380111437650502e-14 7.710406240617282553e-15
5.607000000000000000e+03 9.746190071105957031e+00 -2.282133865356445312e+01 -2.098974748350468378e-14 -5.474655491856210421e-14 -2.272089139824639420e-14 -1.128866219794223691e-14
5.608000000000000000e+03 8.531561851501464844e+00 -1.022511577606201172e+01 -6.966089760151311649e-14 -7.560561877083260551e-14 -4.357995355645100100e-14 3.727073378113725244e-14
5.609000000000000000e+03 3.555526733398437500e+01 4.166308879852294922e+00 1.322853231035953092e-13 1.094276189437084004e-14 4.296842626171949731e-14 -1.257539401387439137e-13
5.610000000000000000e+03 3.858265304565429688e+01 1.073962688446044922e+01 6.863187454334354620e-14 -1.078391865280518835e-13 -1.176219427303885900e-14 -7.577515410929144823e-14
5.611000000000000000e+03 9.689057350158691406e+00 -2.063647079467773438e+01 -1.400512735297287925e-13 1.687327713531874829e-13 8.604447822378302052e-15 -1.122653487235997574e-14
5.612000000000000000e+03 4.343402099609375000e+01 1.238709545135498047e+01 -1.288888565103771255e-13 3.626381828289101938e-14 -2.778751045180629514e-14 -1.606081532958686386e-13
5.613000000000000000e+03 4.145517730712890625e+01 1.257199192047119141e+01 -1.066152239192694196e-13 -3.425450027794152419e-14 -4.226091658153692532e-14 9.983044766011511112e-15
5.614000000000000000e+03 9.389406204223632812e+00 -2.152137756347656250e+01 -4.256733583240385199e-14 -1.824314320214483892e-14 -1.824314320214483892e-14 -1.275221824025094680e-14
5.615000000000000000e+03 9.711553573608398438e+00 -1.804929351806640625e+01 -5.246962193612529635e-14 -2.340851308364061412e-13 -8.596642413769353674e-14 -8.964832050534568553e-14
5.616000000000000000e+03 6.931022644042968750e+01 -2.749226379394531250e+01 2.995503557657805405e-14 1.429421359923355173e-13 5.186915011542135578e-14 -6.152903571842935349e-14
5.617000000000000000e+03 4.744435882568359375e+01 -2.090155029296875000e+01 -8.631234561708861497e-14 1.002618398460858318e-13 4.184848861622228119e-15 -1.597891232578505655e-14
5.618000000000000000e+03 4.822034454345703125e+01 -2.284285545349121094e+01 -2.733036507610725474e-14 2.956761625903109314e-13 8.050373925426110300e-14 -1.845794271075553057e-15
5.619000000000000000e+03 1.747290229797363281e+01 -1.824699592590332031e+01 5.795394681729418296e-14 -2.091354331737200339e-14 1.111212104997665387e-14 9.030318539379050824e-14
5.620000000000000000e+03 1.751729583740234375e+01 -2.080728912353515625e+01 -3.849206381151965006e-14 -3.596287222011607110e-13 -1.194362398695622551e-13 1.136132542754221542e-13
5.621000000000000000e+03 7.093264007568359375e+01 1.309683918952941895e+00 1.262719177266488635e-13 1.913693812791161797e-13 9.529239241223494417e-14 -6.740333118038233096e-14
5.622000000000000000e+03 1.629835510253906250e+01 -2.272083282470703125e+01 2.585157768734101802e-14 -1.719245541287675594e-13 -4.382188988310935229e-14 6.130922050422149550e-14
5.623000000000000000e+03 1.555209541320800781e+01 -1.672214889526367188e+01 -6.873681853737656500e-14 -2.582133725587132389e-13 -9.808506003933237238e-14 8.346671471386526986e-14
5.624000000000000000e+03 3.377009582519531250e+01 -2.430315256118774414e+00 -2.309425335700072274e-14 2.531704229938314121e-13 6.902285139926897517e-14 -5.875265822897351997e-14
5.625000000000000000e+03 3.333783721923828125e+01 -1.930249452590942383e+00 4.961586968100367701e-14 1.585167950677798809e-13 6.243979942463506738e-14 -1.003051588050743112e-14
5.626000000000000000e+03 4.708124923706054688e+01 1.823908615112304688e+01 1.909562595938177343e-14 1.482961160554491231e-13 5.021752395970198457e-14 -8.778181903156684340e-14
5.627000000000000000e+03 7.202695465087890625e+01 2.184097290039062500e+01 3.099870214033975668e-14 1.505380022026603370e-13 5.446100994764731251e-14 4.404306035003281716e-14
5.628000000000000000e+03 1.688169097900390625e+01 -1.918508911132812500e+01 -3.714847982179414476e-14 -1.989245763554456370e-13 -7.082191549791921892e-14 8.602951115160503703e-14
5.629000000000000000e+03 1.361561012268066406e+01 -1.342551898956298828e+01 -8.216258890695465888e-14 3.341388784042741145e-14 -1.462460998114499533e-14 -1.055377505765169033e-13
5.630000000000000000e+03 1.389933204650878906e+01 -1.217145061492919922e+01 -8.277557479242133448e-15 4.220342337320909243e-14 1.017775985289338242e-14 2.562450340077519068e-14
5.631000000000000000e+03 7.146683502197265625e+01 8.261400222778320312e+00 1.017459499898926145e-13 1.465450482317220970e-13 7.448729811123169786e-14 -9.308950366191531822e-14
5.632000000000000000e+03 7.089059448242187500e+01 6.680436134338378906e+00 9.440647726456988242e-14 3.264033466253424276e-13 1.262429424235891884e-13 -1.136455906052165343e-13
5.633000000000000000e+03 3.618003082275390625e+01 6.792443275451660156e+00 6.087824336439492945e-14 -4.253574827973484462e-14 5.502749541837562153e-15 -2.443768149266393325e-14
5.634000000000000000e+03 3.724437713623046875e+01 7.548868656158447266e+00 1.446232016251696589e-14 1.434509791769372766e-13 4.737399031005604111e-14 -4.782054946798029726e-14
5.635000000000000000e+03 7.187597656250000000e+01 -7.886122226715087891e+00 -6.475967358936587925e-14 2.696270127739569533e-13 6.146020243300368002e-14 2.554036897337713663e-13
5.636000000000000000e+03 1.499492263793945312e+01 -1.506370162963867188e+01 -1.298544469651927158e-13 -3.530330867050623933e-13 -1.448662560353183859e-13 1.589370995924710428e-13
5.637000000000000000e+03 1.343300628662109375e+01 -1.481301975250244141e+01 -1.381012952649321446e-13 -8.206174455238635090e-14 -6.604891194519554865e-14 -1.500229113030396300e-13
5.638000000000000000e+03 1.826305389404296875e+01 -2.317848205566406250e+01 -2.183904539685994212e-14 -1.923633913833780462e-13 -6.426073052585162815e-14 1.753353186381353956e-13
5.639000000000000000e+03 4.320493698120117188e+01 -1.421849632263183594e+01 -1.466828367753178486e-13 -1.711312671160824389e-14 -4.913879023192395390e-14 7.526138458106845786e-14
5.640000000000000000e+03 4.265976333618164062e+01 -1.387648200988769531e+01 1.358488487344510377e-15 2.407746853456960157e-13 7.263995313458795899e-14 -8.248169671137145498e-14
5.641000000000000000e+03 1.877665138244628906e+01 -2.805957031250000000e+01 -4.929227937823001116e-14 2.462568553750470873e-14 -7.399978829843948530e-15 4.749141618159979927e-14
5.642000000000000000e+03 1.985917091369628906e+01 -2.700709915161132812e+01 -7.383652608598800793e-14 -1.002706489887372765e-13 -5.223215116716486972e-14 5.462098059006575967e-14
5.643000000000000000e+03 4.563908004760742188e+01 -1.754317474365234375e+01 -3.683947203824040895e-14 2.587173368335388135e-13 6.656336587603992050e-14 8.523954111994136440e-14
5.644000000000000000e+03 6.993717956542968750e+01 -1.971004104614257812e+01 -1.263781559870252869e-13 2.432191004587275218e-13 3.505228334151067049e-14 4.824964619466395876e-14
5.645000000000000000e+03 6.834533691406250000e+01 -3.444291687011718750e+01 1.308769919153816852e-14 1.771750741995717360e-13 5.707883303377250805e-14 1.857267967620822996e-14
5.646000000000000000e+03 9.206580162048339844e+00 -2.355085563659667969e+01 -1.003095921755202402e-13 1.600300160399178995e-13 1.791612580406658217e-14 1.687297931853449368e-14
5.647000000000000000e+03 1.116616535186767578e+01 -3.345305252075195312e+01 4.712602988507681723e-14 6.594781686887485339e-14 3.392215504262503789e-14 1.358384958742532220e-14
5.648000000000000000e+03 6.951488494873046875e+01 -2.578985977172851562e+01 -5.078231875266757400e-14 1.383644717897758447e-13 2.627464523350612341e-14 -6.018016624311298135e-14
5.649000000000000000e+03 1.028579235076904297e+01 -2.950135993957519531e+01 2.284702646255382108e-14 -1.274612604048111497e-13 -3.138427153792991420e-14 -5.131383192706964746e-14
5.650000000000000000e+03 1.073687362670898438e+01 -2.491992187500000000e+01 -1.619445849393875286e-14 1.646255695783235828e-13 4.452933518878793295e-14 1.121252748851123138e-14
5.651000000000000000e+03 1.005647563934326172e+01 -2.578223991394042969e+01 -5.909160015688322276e-14 -4.820044713295563998e-14 -3.218761452576483773e-14 -5.033696238152841895e-14
5.652000000000000000e+03 5.473374176025390625e+01 -2.560518646240234375e+01 3.223106053969540530e-14 3.683831668530035408e-13 1.201842716059414728e-13 -1.748004740831517710e-15
5.653000000000000000e+03 5.285583114624023438e+01 -2.457634735107421875e+01 -1.760211883205815148e-14 3.127128818478791539e-13 8.853322534720792225e-14 3.190748040131710650e-14
5.654000000000000000e+03 4.995488357543945312e+01 -2.524016189575195312e+01 -1.605999370762802719e-14 3.362492576042264147e-13 9.605678204889153693e-14 2.269661543397808595e-14
5.655000000000000000e+03 6.237332534790039062e+01 2.601501083374023438e+01 5.624805973097370126e-14 2.528610459039126734e-13 9.273273338453180692e-14 -1.427463799019614704e-14
5.656000000000000000e+03 6.095444107055664062e+01 2.676264572143554688e+01 1.595142475139393889e-13 -3.433952883331869987e-13 -5.516431156814792514e-14 1.174850147722672489e-13
5.657000000000000000e+03 6.488868713378906250e+01 2.619952011108398438e+01 7.672823388747609247e-15 3.288353001896539285e-15 3.288353001896539285e-15 -4.341637794180903953e-14
5.658000000000000000e+03 6.355445480346679688e+01 2.716158294677734375e+01 3.894209834562649061e-15 1.846727387981236812e-13 5.657008471686084117e-14 1.355599524776804343e-13
5.659000000000000000e+03 6.853965759277343750e+01 2.512612342834472656e+01 1.375318993889970698e-13 2.876969767019038615e-13 1.275686641825229950e-13 -7.799099229930869792e-14
5.660000000000000000e+03 6.749002838134765625e+01 2.627167320251464844e+01 1.753565012380803312e-13 -6.210005789762315653e-14 3.397693096925807899e-14 -2.865982733253613635e-14
5.661000000000000000e+03 6.506308746337890625e+01 2.668705368041992188e+01 1.451733698532020611e-13 3.138473910011679857e-13 1.377062255458055828e-13 1.026804509474121829e-13
5.662000000000000000e+03 6.580727386474609375e+01 2.603870582580566406e+01 1.346589804723449801e-13 4.694695153462102866e-13 1.812385555218301580e-13 -4.842300334578081289e-14
5.663000000000000000e+03 6.400241088867187500e+01 2.690279388427734375e+01 2.431446157694777677e-13 1.270803124189812117e-13 1.110674730355268314e-13 2.484667473937746118e-13
5.664000000000000000e+03 6.244565963745117188e+01 2.652036857604980469e+01 -3.051403327605263505e-14 7.842445632786840259e-14 1.437312589910519356e-14 -6.330979035289174828e-14
5.665000000000000000e+03 6.377412796020507812e+01 2.637896347045898438e+01 6.741907244067410487e-14 2.889388625278502265e-14 2.889388625278502265e-14 3.839806687129694585e-14
5.666000000000000000e+03 7.082836151123046875e+01 2.682073211669921875e+01 2.895489634190985540e-14 -7.909265690303479701e-14 -1.504132816833748248e-14 -7.385276031945508385e-15
5.667000000000000000e+03 7.097116088867187500e+01 2.570730972290039062e+01 3.129981557682508242e-14 5.916515649802278620e-14 2.713949128364118168e-14 -9.909991393036027274e-14
5.668000000000000000e+03 5.848044967651367188e+01 2.716137313842773438e+01 6.840168486959771754e-14 2.931500731723733766e-14 2.931500731723733766e-14 6.987646409845754691e-14
5.669000000000000000e+03 6.142180252075195312e+01 2.635002708435058594e+01 1.528007185841104287e-13 1.226747111011949887e-13 8.264262619508619401e-14 7.137374729866002854e-14
5.670000000000000000e+03 7.046961212158203125e+01 2.615074157714843750e+01 1.373984205490369481e-13 1.503869321824516381e-13 8.633560852995200707e-14 -8.217051713534095914e-14
5.671000000000000000e+03 7.061295318603515625e+01 2.519577598571777344e+01 -1.848770160399471063e-13 -1.249839533083718646e-13 -9.295829487025383808e-14 -1.895219278822551923e-13
5.672000000000000000e+03 5.446208190917968750e+01 2.510032272338867188e+01 -1.262197337208344206e-14 1.089679561860901202e-13 2.890379315013610895e-14 7.966507499252567515e-14
5.673000000000000000e+03 5.366719436645507812e+01 2.351454162597656250e+01 -7.533164088184551854e-14 1.507188064674494510e-13 2.261614899805482193e-14 1.449098680677066153e-13
5.674000000000000000e+03 6.012998199462890625e+01 2.756915283203125000e+01 1.464984953009410007e-13 -2.274475096111783223e-13 -2.428470395425801759e-14 -3.200968339673281038e-14
5.675000000000000000e+03 6.053088760375976562e+01 2.717126655578613281e+01 9.982045436540340488e-14 -1.402235939125182074e-13 -1.212094406642010361e-14 -1.606009026938401418e-14
5.676000000000000000e+03 1.003680419921875000e+01 -8.354005813598632812e+00 3.493974061490783337e-15 -9.000448091900717373e-14 -2.595315218430985921e-14 -1.500538381700097790e-13
5.677000000000000000e+03 1.056021881103515625e+01 -9.820712089538574219e+00 2.031699368273032387e-15 9.237262918546790269e-14 2.832129706263879915e-14 5.753244289394970901e-15
5.678000000000000000e+03 7.146868133544921875e+01 1.445481204986572266e+01 9.784196835973396622e-14 3.164379565670505379e-13 1.242839788332880668e-13 -1.227825350072486721e-13
5.679000000000000000e+03 5.654749298095703125e+01 2.700784683227539062e+01 1.988164712344534651e-14 1.000226038604633272e-13 3.597127681983190717e-14 1.300522867566170082e-13
5.680000000000000000e+03 7.143917083740234375e+01 1.298474311828613281e+01 6.180984408110309913e-14 5.297503429847749690e-13 1.774680662841587875e-13 -1.131691447367813574e-13
5.681000000000000000e+03 1.321600246429443359e+01 -8.837552070617675781e+00 2.721527701549791844e-14 1.166369027050381466e-14 1.166369027050381466e-14 -9.683588295377604238e-14
5.682000000000000000e+03 6.817478942871093750e+01 2.550712203979492188e+01 6.379130486648329490e-14 -2.471665721485299949e-13 -5.501257747410857879e-14 -4.060031526470844754e-14
5.683000000000000000e+03 5.497016906738281250e+01 2.633604621887207031e+01 -7.158005064329328593e-14 -1.221790680780432403e-13 -5.812773087301645325e-14 -1.777869470837457194e-14
5.684000000000000000e+03 6.640554809570312500e+01 2.632038497924804688e+01 2.139100257602527533e-13 -9.132807493117747755e-14 3.677458253821715151e-14 1.448059337369467237e-13
5.685000000000000000e+03 3.500510406494140625e+01 2.429669380187988281e+00 1.314888292241718840e-14 2.115145081652003434e-13 6.739901470048312304e-14 -1.288957547466995646e-13
5.686000000000000000e+03 3.928224945068359375e+01 9.436995506286621094e+00 6.219998068034485184e-14 -2.478485624200776893e-13 -5.569457113378806223e-14 -3.295434197335585236e-14
5.687000000000000000e+03 5.767226409912109375e+01 2.621643066406250000e+01 7.350217168852063443e-14 2.145047242043882085e-13 8.640207012312536849e-14 -2.834825515673458814e-16
5.688000000000000000e+03 5.797721862792968750e+01 2.695833015441894531e+01 1.455147986698449025e-13 3.368691773013993140e-13 1.447151995676368430e-13 -6.523696649074831044e-14
5.689000000000000000e+03 4.214287567138671875e+01 -1.305751132965087891e+01 -9.682192385080529151e-14 -8.724606052803313139e-14 -5.522039531365152687e-14 5.591879091932164259e-14
5.690000000000000000e+03 5.496056747436523438e+01 2.573903656005859375e+01 4.774312388033767618e-14 2.034651337386519931e-13 7.536247965738915311e-14 -6.617865028766059532e-14
5.691000000000000000e+03 5.460158538818359375e+01 2.442206954956054688e+01 -1.004548803488309813e-14 1.857026563230855520e-14 2.557433025117752945e-15 5.953695483395648330e-15
5.692000000000000000e+03 7.080639648437500000e+01 -2.005794715881347656e+01 1.151662180334453445e-13 1.408588550704317766e-13 7.680751786540498949e-14 3.316193619620072530e-14
5.693000000000000000e+03 4.601541137695312500e+01 1.494449424743652344e+01 -1.089815154895097671e-13 4.479553392718743643e-14 -1.925579650157577261e-14 -3.197222759980522522e-14
5.694000000000000000e+03 7.139371490478515625e+01 2.627518844604492188e+01 1.566790215634401157e-14 9.821671606439000279e-14 3.416538563562679376e-14 -8.483331089470177999e-14
5.695000000000000000e+03 4.657392120361328125e+01 1.461077308654785156e+01 -2.608782059734110481e-13 2.542026376721462366e-13 -2.002664772907049480e-15 -9.685107533671799551e-14
5.696000000000000000e+03 4.415415954589843750e+01 1.314509963989257812e+01 -1.450499029426784853e-14 2.682892699234357137e-13 7.613528541340966460e-14 -6.683070302672053375e-14
5.697000000000000000e+03 5.676470184326171875e+01 2.644322013854980469e+01 -1.079302866155949781e-13 -1.377577387015258004e-13 -7.370640827276259133e-14 -5.315423462167769009e-14
5.698000000000000000e+03 7.131300354003906250e+01 9.492173194885253906e+00 1.178593220197907132e-13 2.792658682429505212e-13 1.191375557235696547e-13 -9.225418009812386133e-14
5.699000000000000000e+03 7.090345764160156250e+01 7.791315555572509766e+00 -1.838281724108117854e-14 4.038801899256677652e-13 1.156492165487604806e-13 -1.053521012832694947e-13
5.700000000000000000e+03 9.415319442749023438e+00 -8.165234565734863281e+00 -3.097658780415284141e-14 1.697281096051106442e-13 4.162545891197959314e-14 -8.905656973586667524e-14
5.701000000000000000e+03 7.162329101562500000e+01 2.281044960021972656e+01 5.949833182562758171e-14 2.085030824210132305e-13 8.040042156348681246e-14 2.525992009148620571e-14
5.702000000000000000e+03 7.138495635986328125e+01 2.068254470825195312e+01 -6.708955629540144794e-14 -5.877191891116113551e-15 -2.189002322775749493e-14 -4.131379144497147882e-14
5.703000000000000000e+03 5.261582946777343750e+01 2.076033973693847656e+01 1.157516431608742596e-14 2.565909995328602422e-13 8.044984763002499539e-14 -1.004120425045565423e-13
5.704000000000000000e+03 5.212232971191406250e+01 1.977839660644531250e+01 -5.531604142702253521e-15 1.348821634895511212e-13 3.880516784640630767e-14 -1.614154773385556574e-13
5.705000000000000000e+03 5.330837249755859375e+01 2.265221786499023438e+01 -2.291370870780994225e-15 9.051988352675247040e-14 2.646855309798926137e-14 6.939873921027201603e-15
5.706000000000000000e+03 4.507694244384765625e+01 1.474812221527099609e+01 -7.773311481258302069e-14 -1.248160917070167963e-13 -6.076476127825358731e-14 9.169474532964849711e-14
5.707000000000000000e+03 4.638670730590820312e+01 1.544360542297363281e+01 -1.349282285293545991e-13 -1.950792365102912984e-13 -9.900224086714648486e-14 2.230550135871520179e-14
5.708000000000000000e+03 1.048899936676025391e+01 -1.886332702636718750e+01 -1.293938778823208735e-13 -1.583941582495446143e-13 -8.633640812905421513e-14 -3.119256426504374291e-14
5.709000000000000000e+03 1.090229606628417969e+01 -1.625785064697265625e+01 -6.387549570627563608e-15 -1.399903684726894193e-13 -4.391337621767639476e-14 -2.821137082081003056e-14
5.710000000000000000e+03 3.944647598266601562e+01 -1.191721534729003906e+01 -7.768797134462615550e-14 1.954598998930509590e-13 3.533157720927472545e-14 1.414238988910838588e-14
5.711000000000000000e+03 7.143998718261718750e+01 3.328636407852172852e+00 1.232063902940547240e-13 3.730593850330421457e-13 1.488797285323709141e-13 -5.523638390756389904e-14
5.712000000000000000e+03 5.323870086669921875e+01 2.101474571228027344e+01 3.111213679263605258e-14 1.048356686834603368e-13 4.078434164282891683e-14 6.736386622130385859e-14
5.713000000000000000e+03 7.176118469238281250e+01 2.503411102294921875e+01 -3.257361125147688503e-15 -4.714696176326936550e-14 -1.512129654888776098e-14 -2.993357176169463008e-14
5.714000000000000000e+03 7.188108062744140625e+01 2.562846565246582031e+01 7.186684244670643595e-14 3.080007630234041227e-14 3.080007630234041227e-14 4.551055848367804857e-14
5.715000000000000000e+03 4.903123092651367188e+01 1.732359313964843750e+01 2.578847542683646715e-14 1.883371253006901891e-13 6.423768445342273314e-14 1.170080877891180315e-13
5.716000000000000000e+03 4.802716445922851562e+01 1.825542259216308594e+01 -5.384384734271772596e-15 1.721178944811760370e-13 5.002005347464269502e-14 -1.223451542983408635e-13
5.717000000000000000e+03 5.144506072998046875e+01 1.961383819580078125e+01 2.692579164731249974e-14 2.402943566782306251e-13 8.016605093511333657e-14 -1.727247563184340640e-14
5.718000000000000000e+03 9.257453918457031250e+00 -8.829841613769531250e+00 -1.029239559790888492e-13 -4.411026733219976237e-14 -4.411026733219976237e-14 -1.541398708974558995e-13
5.719000000000000000e+03 7.218025207519531250e+01 2.044727134704589844e+01 -6.680326593549307246e-14 1.543738281737511153e-13 2.627116901029059176e-14 -4.214090980060288330e-15
5.720000000000000000e+03 5.080839538574218750e+01 1.939347457885742188e+01 4.247178204562409437e-15 -4.393073022869974087e-14 -1.190506586135108361e-14 -1.641305635239481697e-13
5.721000000000000000e+03 3.803482055664062500e+01 -6.866088390350341797e+00 -1.993110198910373609e-14 2.430883185716714578e-13 6.694716666883621103e-14 1.868329709692195806e-14
5.722000000000000000e+03 3.433455657958984375e+01 -3.959361791610717773e+00 -5.137099309848215667e-14 3.897424104368912845e-13 1.015114235074568438e-13 -5.843693855634574108e-14
5.723000000000000000e+03 3.504008865356445312e+01 -1.552491486072540283e-01 4.392621046089319192e-14 -4.049956323673139028e-15 1.196287586000118960e-14 -8.742909418353941864e-14
5.724000000000000000e+03 3.306455230712890625e+01 -5.459059476852416992e-01 5.118784085836325382e-14 1.134395447585992422e-13 4.938821432983603321e-14 -9.782147693867399019e-14
5.725000000000000000e+03 7.086875915527343750e+01 1.738694763183593750e+01 -9.999763332917827041e-14 -1.801089794884261353e-13 -8.403198384528132170e-14 -2.135123132983307581e-13
5.726000000000000000e+03 7.037521362304687500e+01 -9.519488334655761719e+00 2.787122271798343764e-14 1.949486037010339512e-13 6.684594961977111116e-14 1.671689825140983826e-14
5.727000000000000000e+03 7.086547088623046875e+01 3.190051078796386719e+00 1.634673977126202549e-13 2.430650997045213230e-14 5.633217349076784231e-14 -8.581074625825177438e-14
5.728000000000000000e+03 7.077592468261718750e+01 1.022215652465820312e+01 -3.168137681450883258e-14 -1.357773316251319889e-14 -1.357773316251319889e-14 -1.113309358575067035e-14
5.729000000000000000e+03 7.078697204589843750e+01 1.086440467834472656e+01 -9.071434026858542915e-15 4.186319056708777409e-14 9.837527046772064077e-15 -1.213424841292262690e-13
5.730000000000000000e+03 7.156077575683593750e+01 1.892931938171386719e+01 -3.818905640936426371e-14 -1.636673821914669952e-14 -1.636673821914669952e-14 -4.819772646312905917e-14
5.731000000000000000e+03 7.088158416748046875e+01 1.812600898742675781e+01 6.410339246183324735e-14 -1.827806467649423922e-14 1.374759884382147079e-14 -2.205477825107521328e-13
5.732000000000000000e+03 7.068128967285156250e+01 -4.335395336151123047e+00 6.652388058817071403e-14 1.657630873926410620e-13 6.968609174949624840e-14 -1.851402467748994307e-13
5.733000000000000000e+03 6.974894714355468750e+01 -1.740717697143554688e+01 -1.823939762245208041e-14 3.467529811462116696e-13 9.855407234662244553e-14 8.013927114145294461e-14
5.734000000000000000e+03 7.098883819580078125e+01 -1.852609062194824219e+01 -1.400098434542126902e-13 1.916259983808163425e-13 1.548484478391520119e-14 -6.966444158736442849e-14
5.735000000000000000e+03 7.099437713623046875e+01 5.108166694641113281e+00 7.152265569078733454e-14 3.065256720864197038e-14 3.065256720864197038e-14 -5.661864342166103570e-14
5.736000000000000000e+03 6.991619110107421875e+01 4.432238101959228516e+00 1.369084695872907487e-13 1.044260096688502670e-13 7.240034445446866251e-14 -2.194274594652639160e-14
5.737000000000000000e+03 7.029097747802734375e+01 -1.049045372009277344e+01 2.670433488325286292e-14 8.007113581117580869e-14 3.203264137773519094e-14 -1.323386251929001278e-13
5.738000000000000000e+03 7.009334564208984375e+01 9.787669181823730469e+00 -1.191325683935762214e-13 4.044508123053104642e-14 -2.360624750416626810e-14 -1.847588922132548106e-13
5.739000000000000000e+03 7.085190582275390625e+01 1.664120101928710938e+01 1.146714288195044285e-13 1.863977451121295870e-13 9.032075624524835145e-14 -6.292081249472183946e-14
5.740000000000000000e+03 7.120905303955078125e+01 8.837753295898437500e+00 2.023389458370369876e-13 3.154714445403883349e-13 1.553431184684803124e-13 2.568238624425876054e-14
5.741000000000000000e+03 3.429125595092773438e+01 2.233779430389404297e+00 -3.100165320312799067e-14 3.246452653688121359e-14 4.388618518952011084e-16 -1.345089946543087667e-13
5.742000000000000000e+03 7.020053863525390625e+01 -1.155465030670166016e+01 -7.712158412971972798e-14 2.872045320751609454e-13 6.302488235075329182e-14 5.616061543763095631e-14
5.743000000000000000e+03 7.090782928466796875e+01 2.421498870849609375e+01 1.659035864416680273e-13 -2.034041609189768396e-13 -1.125017217378605425e-14 9.796143388661471274e-14
5.744000000000000000e+03 4.764572525024414062e+01 1.686366462707519531e+01 8.025006135688791259e-15 -8.806260706544985495e-14 -2.401128171888432944e-14 -1.354814697929196399e-13
5.745000000000000000e+03 4.713245391845703125e+01 1.731024742126464844e+01 -6.726928313428165440e-14 -5.170516792496471226e-14 -3.569233531777391000e-14 -5.371585812328875942e-14
5.746000000000000000e+03 6.920015716552734375e+01 -2.200388145446777344e+01 -1.151601515834771092e-14 2.924457280072817467e-13 8.427891766632847337e-14 -3.265702663260601490e-14
5.747000000000000000e+03 8.759250640869140625e+00 -1.155607414245605469e+01 9.850335879000443606e-14 -9.503712378698681018e-14 1.039870691487700897e-15 4.474636197053342979e-14
5.748000000000000000e+03 1.003655052185058594e+01 -1.105481910705566406e+01 -4.326563657038387523e-14 -1.100443114453522608e-13 -4.599298440472084082e-14 5.425656668736622557e-14
5.749000000000000000e+03 6.836714935302734375e+01 -2.355364799499511719e+01 1.661809424039278828e-16 2.402637008618035974e-13 7.212896187443196272e-14 2.850705265852108809e-15
5.750000000000000000e+03 7.070452880859375000e+01 -5.642964839935302734e+00 1.044658337698983752e-13 3.650277237594867774e-13 1.408480672588155458e-13 -6.438945920504354770e-14
5.751000000000000000e+03 7.129656219482421875e+01 -5.620586395263671875e+00 7.567128923523323142e-15 4.150015834453180119e-13 1.267706236209378834e-13 1.581079830861170654e-13
5.752000000000000000e+03 6.548604583740234375e+01 2.541021537780761719e+01 2.191293343610165034e-13 -1.805931299685495373e-13 1.156086131774008985e-14 4.802131321713851153e-14
5.753000000000000000e+03 7.161994934082031250e+01 3.844054341316223145e-01 1.769021263026485102e-13 2.359435075701549200e-13 1.238536996486100383e-13 -3.709533358655162094e-14
5.754000000000000000e+03 4.413174057006835938e+01 1.374349689483642578e+01 -1.896173918835425409e-13 -3.100193441806647909e-13 -1.498910181087567683e-13 -1.541556426509337746e-14
5.755000000000000000e+03 8.942237854003906250e+00 -1.645393943786621094e+01 1.012863617711736927e-14 -1.786629519459279059e-13 -5.056029447653327680e-14 6.320824126691132472e-14
5.756000000000000000e+03 8.982648849487304688e+00 -1.321946144104003906e+01 5.288743703098447782e-15 1.166439720420159309e-13 3.657981578232549769e-14 -3.579616800458013115e-14
5.757000000000000000e+03 7.075431060791015625e+01 1.153364467620849609e+01 4.098981320110797050e-15 1.756706204419542731e-15 1.756706204419542731e-15 3.825374262148018012e-14
5.758000000000000000e+03 1.381125926971435547e+01 -1.026958751678466797e+01 -2.092999439127357642e-13 1.801920505506622062e-15 -6.224940674688303477e-14 -8.583821723079712585e-14
5.759000000000000000e+03 7.145284271240234375e+01 1.371572208404541016e+01 -1.121755547608613290e-13 -1.853280848012825444e-13 -8.925108915813773081e-14 -8.876474316861504565e-14
5.760000000000000000e+03 4.481790924072265625e+01 1.425275421142578125e+01 -2.413891027168435510e-13 -2.864562699458200745e-13 -1.583536090882936564e-13 -6.234604981803296142e-14
5.761000000000000000e+03 3.594038772583007812e+01 -5.497833251953125000e+00 -2.261559842663910663e-14 1.733113977851752363e-13 4.520874031578060726e-14 -3.685959584700127661e-15
5.762000000000000000e+03 7.116639709472656250e+01 2.466370582580566406e+01 -9.501883465158969533e-15 1.560560898171067801e-13 4.396626156677116426e-14 7.646114915261376099e-14
5.763000000000000000e+03 7.137773132324218750e+01 2.326021003723144531e+01 4.701126030885564855e-14 2.031514740501519367e-13 7.504881996888909668e-14 7.256807053055217005e-14
5.764000000000000000e+03 7.181798553466796875e+01 2.229755401611328125e+01 -6.478980763349739824e-14 2.467386375510499663e-13 5.458464626476033921e-14 1.699865834030311884e-13
5.765000000000000000e+03 7.063159942626953125e+01 -6.996332645416259766e+00 1.364851157439894713e-13 2.414974145138748529e-13 1.133947604326120129e-13 -7.228562908835611811e-14
5.766000000000000000e+03 4.403285217285156250e+01 -1.677012443542480469e+01 -2.006091317640224664e-14 1.286553058098965918e-13 3.257832033114714532e-14 -4.298835864103428550e-14
5.767000000000000000e+03 8.958985328674316406e+00 -1.480540657043457031e+01 2.866056933339793111e-14 1.228310090087541412e-14 1.228310090087541412e-14 -4.841348269545367455e-14
5.768000000000000000e+03 1.303153991699218750e+01 -1.251179218292236328e+01 3.652338305924762718e-15 1.565287875647503567e-15 1.565287875647503567e-15 -5.323846018982086870e-14
5.769000000000000000e+03 9.817240715026855469e+00 -1.343622589111328125e+01 2.426773619025861944e-14 -1.268523860172704465e-13 -3.077539715038921098e-14 -2.759877626456498645e-14
5.770000000000000000e+03 3.866287994384765625e+01 9.776272773742675781e+00 -5.390148708774543385e-14 -2.175421708007149735e-13 -8.143309702772494330e-14 9.331681511770637677e-16
5.771000000000000000e+03 4.079102325439453125e+01 1.024965953826904297e+01 4.252185016313629606e-14 8.113120770905993262e-14 3.709591634521933190e-14 -4.916151443183289227e-14
5.772000000000000000e+03 6.981999969482421875e+01 7.688978314399719238e-01 6.505593183299754334e-14 2.108849119636380109e-13 8.278225110611159288e-14 8.630150190129786542e-15
5.773000000000000000e+03 3.583877563476562500e+01 -4.617740154266357422e+00 -8.769980591348189303e-14 5.391626611860912688e-14 -1.013506092202229314e-14 -7.680698931684590280e-14
5.774000000000000000e+03 3.428157806396484375e+01 -2.925266027450561523e+00 -9.070875154519944528e-14 1.898795655213766920e-13 2.975124622573224742e-14 -1.165638291726785181e-14
5.775000000000000000e+03 8.971904754638671875e+00 -9.375963211059570312e+00 1.487536629247651621e-13 -4.874854605949789990e-15 4.316364025100730140e-14 -5.299228192216266786e-14
5.776000000000000000e+03 8.944175720214843750e+00 -1.014630222320556641e+01 -2.047206974526306206e-14 3.697720298359574720e-14 4.951540310312984444e-15 6.088850601558386255e-15
5.777000000000000000e+03 7.111884307861328125e+01 -1.647080612182617188e+01 7.867942679751910307e-14 5.141047093246142730e-13 1.778352449023981596e-13 -2.452092450258829687e-14
5.778000000000000000e+03 4.846069717407226562e+01 1.871361732482910156e+01 2.589634846080109132e-14 3.728168761121114505e-13 1.196139677106869414e-13 1.339282078792990160e-14
5.779000000000000000e+03 5.877211761474609375e+01 2.665623855590820312e+01 8.618787243142370103e-14 8.268860991972673546e-14 5.066294470534513095e-14 3.747056240592169796e-14
5.780000000000000000e+03 1.000136089324951172e+01 -1.969912338256835938e+01 -1.059307332064614304e-13 -4.114064774615733278e-13 -1.552011692990476477e-13 -5.891529533110992367e-14
5.781000000000000000e+03 4.659622573852539062e+01 -2.065854072570800781e+01 3.884978954206766422e-14 3.826575016054045708e-13 1.264521934428788907e-13 1.683779632276262862e-15
5.782000000000000000e+03 7.134049987792968750e+01 6.057684898376464844e+00 -2.999475803367249171e-14 -1.729832233400910302e-13 -6.089339508975541437e-14 -7.671510318272775630e-14
5.783000000000000000e+03 4.067412948608398438e+01 -1.295413208007812500e+01 -4.125562061028584249e-14 1.653228199954490107e-13 3.722015913792259267e-14 7.172171520965567315e-14
5.784000000000000000e+03 4.022238159179687500e+01 -1.159439182281494141e+01 -1.481328487607999622e-14 1.995307131325008143e-13 5.541522983217896103e-14 4.896928877478300135e-14
5.785000000000000000e+03 1.351779079437255859e+01 -1.410490989685058594e+01 -1.524077359541659016e-13 -1.568195036718081359e-13 -9.276817324304492685e-14 -7.038219697807698849e-14
5.786000000000000000e+03 1.348213100433349609e+01 -1.111575508117675781e+01 -7.001952457511700922e-14 -1.672612108495272198e-13 -7.118422198264598433e-14 -8.731683860110570072e-14
5.787000000000000000e+03 3.832167434692382812e+01 -7.664972305297851562e+00 -2.666652206193801007e-15 4.460809908848721583e-14 1.258243387410561132e-14 3.760658234472358252e-14
5.788000000000000000e+03 4.183794021606445312e+01 1.191177749633789062e+01 5.854878078670119890e-14 -1.579114578898269117e-13 -2.980880380856407164e-14 6.503302128584020902e-14
5.789000000000000000e+03 4.148634719848632812e+01 1.152056694030761719e+01 1.420998328770586849e-13 -2.479189813511806229e-13 -3.174574115410479236e-14 -7.283190435296293952e-14
5.790000000000000000e+03 1.651793479919433594e+01 -2.172653388977050781e+01 -2.445116964531601073e-14 -2.163583440011052073e-13 -7.224285731265156496e-14 6.559503103447522632e-14
5.791000000000000000e+03 1.768692588806152344e+01 -2.666815948486328125e+01 -2.124034387501576304e-14 5.952341755339346507e-14 1.148492227291990006e-14 9.701684984889102914e-14
5.792000000000000000e+03 1.429029560089111328e+01 -1.425045108795166016e+01 -1.365949860816437211e-13 -1.957935495591062169e-13 -9.971656069222498142e-14 1.775582651286460034e-14
5.793000000000000000e+03 1.019491767883300781e+01 -2.199547767639160156e+01 -1.189500158527839746e-13 2.692780623047424937e-13 4.509841258033484013e-14 -6.511053496490934456e-14
5.794000000000000000e+03 3.413727951049804688e+01 5.091083645820617676e-01 1.062480181959757353e-14 2.104327590001300874e-13 6.631726553541286706e-14 -1.615649786537460414e-14
5.795000000000000000e+03 3.396913909912109375e+01 -1.854723572731018066e+00 -1.963426268087025556e-14 1.288381565062862721e-13 3.276117102753682564e-14 6.063439274327578343e-14
5.796000000000000000e+03 1.489877891540527344e+01 -1.581733608245849609e+01 -8.381810463796782185e-14 -3.790541556851489968e-13 -1.388616733535505410e-13 8.347412794621963950e-14
5.797000000000000000e+03 3.648982238769531250e+01 3.368717670440673828e+00 1.665488629171499313e-13 2.562713767324115155e-14 5.765280288762275607e-14 -1.448067604411032439e-13
5.798000000000000000e+03 3.566275787353515625e+01 5.042615890502929688e+00 6.149470039087945317e-14 1.407322473617397818e-13 6.066808432578577048e-14 -7.736446574514721508e-14
5.799000000000000000e+03 1.296003150939941406e+01 -9.707461357116699219e+00 -1.437582827302011368e-13 -1.585974326043584903e-14 -4.788540847481745355e-14 1.708521867006210920e-14
5.800000000000000000e+03 9.499113082885742188e+00 -1.099702167510986328e+01 3.390130786772721505e-14 1.060310286836799176e-13 4.197970164304849761e-14 -7.230000154340512908e-14
5.801000000000000000e+03 1.059773063659667969e+01 -2.113478660583496094e+01 -5.144492891038209004e-14 -1.135497268043780816e-13 -4.949839637561487260e-14 -6.487327087198804798e-14
5.802000000000000000e+03 4.266048049926757812e+01 1.304398441314697266e+01 9.296078175898697671e-15 1.412368757103960037e-13 4.515988684351476823e-14 -4.625151241275000935e-14
5.803000000000000000e+03 1.029060173034667969e+01 -1.754595947265625000e+01 -1.047310363975519076e-13 -2.564828774712091253e-13 -1.083641707724965209e-13 -5.882796962237979432e-14
5.804000000000000000e+03 4.476416015625000000e+01 -1.708879280090332031e+01 5.028303518190852667e-15 9.365688698756771680e-14 2.960555655880450776e-14 -2.587578250084175691e-14
5.805000000000000000e+03 4.391262817382812500e+01 -1.524724388122558594e+01 -1.186802799047967372e-13 6.351439963163049707e-14 -1.654976340432351423e-14 -1.456874434662531158e-15
5.806000000000000000e+03 3.835784530639648438e+01 -8.380147933959960938e+00 5.739846261048481280e-14 7.035029432915160252e-14 3.832462572663820899e-14 6.057997257048058914e-14
5.807000000000000000e+03 3.836323928833007812e+01 -1.150585842132568359e+01 -4.910810731044261412e-14 2.992103093069076181e-13 7.503065958249996448e-14 6.824652876245146382e-14
5.808000000000000000e+03 2.003037071228027344e+01 -2.494836807250976562e+01 -9.769192155532555044e-14 -8.761891765515089636e-14 -5.559325244076929184e-14 9.366449673156584943e-15
5.809000000000000000e+03 5.104752731323242188e+01 1.861746406555175781e+01 7.701472245309412545e-14 1.245082053950852252e-13 6.045688174258559422e-14 -1.067381182355206515e-13
5.810000000000000000e+03 4.333174514770507812e+01 -1.164582920074462891e+01 -8.426601566047589587e-14 1.697652570820454287e-13 2.564977547578946998e-14 2.037223166583609218e-14
5.811000000000000000e+03 4.154390716552734375e+01 -1.328218555450439453e+01 -1.364081340016112115e-14 8.565583409659432990e-14 2.160450705596290988e-14 7.403504180970420928e-15
5.812000000000000000e+03 3.317161560058593750e+01 -1.254822373390197754e+00 -5.301366103375136640e-14 -6.847108736116394589e-14 -3.644542553491413039e-14 -4.916529558690943547e-14
5.813000000000000000e+03 6.953471374511718750e+01 -1.308839035034179688e+01 -1.677670453731003319e-13 3.627338501181048835e-13 5.849004413400679669e-14 7.022072539327600671e-14
5.814000000000000000e+03 3.806626892089843750e+01 7.266441345214843750e+00 1.084746509738727938e-13 2.752438847588439819e-13 1.151155586869359593e-13 2.993564572186598223e-15
5.815000000000000000e+03 7.066349029541015625e+01 5.677481174468994141e+00 1.357205634770070057e-13 5.816595577586014532e-14 5.816595577586014532e-14 -1.189294295640339061e-13
5.816000000000000000e+03 7.040956878662109375e+01 4.788427352905273438e+00 7.920287960639510461e-14 2.626988253665030193e-13 1.025705128471221528e-13 -6.745306895504510347e-14
5.817000000000000000e+03 1.107213973999023438e+01 -1.815237617492675781e+01 -2.059575519028702950e-13 -4.085241530910749264e-13 -1.843445101429308508e-13 4.878455766525041648e-15
5.818000000000000000e+03 3.820451354980468750e+01 9.101390838623046875e+00 -7.399186515225086858e-14 -1.403692971319731031e-13 -6.430835410627805393e-14 3.880454104202533949e-14
5.819000000000000000e+03 6.966359710693359375e+01 -9.392879486083984375e+00 1.422077380982753048e-13 3.812028275505807695e-13 1.570231710499095379e-13 -1.886870786569141978e-13
5.820000000000000000e+03 7.130847930908203125e+01 -6.317790508270263672e+00 6.011824474653690298e-14 2.087687526108536473e-13 8.066609852959080729e-14 -8.422240362808766645e-14
5.821000000000000000e+03 7.074061584472656250e+01 1.295167446136474609e+01 -8.543031326845376694e-14 5.488890727567766192e-14 -9.162420611986705349e-15 -3.924040725602345736e-14
5.822000000000000000e+03 3.809182357788085938e+01 -9.146005630493164062e+00 -1.208096834647443690e-14 1.549507592547849644e-13 4.286093778071292659e-14 -1.131914267854918291e-14
5.823000000000000000e+03 9.930452346801757812e+00 -2.422719192504882812e+01 -1.616006048595075573e-14 -6.925739905752842721e-15 -6.925739905752842721e-15 -4.133401859175191151e-14
5.824000000000000000e+03 1.623660850524902344e+01 -1.771985244750976562e+01 -5.814380417022355085e-14 -2.994244663410278173e-13 -1.072704818310017683e-13 1.026457361491019127e-13
5.825000000000000000e+03 1.664725685119628906e+01 -2.075698471069335938e+01 4.348671809884787839e-15 -8.963818321503294606e-14 -2.558685278626973703e-14 6.297822099975494692e-14
5.826000000000000000e+03 3.777694702148437500e+01 -6.026243209838867188e+00 1.514390724638176727e-14 2.581204564325312312e-13 8.197931130595956239e-14 1.283953971381633988e-14
5.827000000000000000e+03 3.586233901977539062e+01 -3.813034772872924805e+00 -2.388818919692344001e-14 2.642679098555783535e-13 7.211391179302514831e-14 -8.804020473806087321e-14
5.828000000000000000e+03 6.889583587646484375e+01 -2.473013305664062500e+01 1.875755139321005904e-14 7.666537218432856182e-14 2.862687775088794406e-14 9.021974079002469810e-15
5.829000000000000000e+03 1.133233165740966797e+01 -2.400720977783203125e+01 -2.280072255945921750e-14 -9.771737997758822569e-15 -9.771737997758822569e-15 -2.657735448006407625e-14
5.830000000000000000e+03 6.841506958007812500e+01 -3.046953010559082031e+01 -1.195497643073509600e-14 1.778802392925563081e-13 4.977757843502988999e-14 6.128855967657206860e-14
5.831000000000000000e+03 4.669797134399414062e+01 -1.786329650878906250e+01 1.220840275932295188e-14 1.196095495868340630e-13 3.954538316274826271e-14 4.839360452624751063e-14
5.832000000000000000e+03 4.509442138671875000e+01 -1.614852142333984375e+01 -3.417408974619277895e-14 1.683577593742519030e-13 4.025509851672548489e-14 6.459086331110988621e-14
5.833000000000000000e+03 1.252818107604980469e+01 -3.220874023437500000e+01 -2.663897443291093209e-15 -4.988609013183674390e-14 -1.576499584902187751e-14 3.453612941554115925e-15
5.834000000000000000e+03 4.426915740966796875e+01 -1.375050258636474609e+01 -2.300087644489540867e-14 1.731462737943056940e-13 4.504361971304285395e-14 4.736914189346595749e-14
5.835000000000000000e+03 6.851866912841796875e+01 -2.644607543945312500e+01 1.672250899765245075e-14 2.130460657065805230e-13 6.893057224186330267e-14 2.309028246654399458e-14
5.836000000000000000e+03 1.878415298461914062e+01 -2.684053421020507812e+01 -6.039937836986239428e-15 -4.833949267344511691e-14 -1.631382915312940690e-14 -8.820013811102964119e-14
5.837000000000000000e+03 1.989644432067871094e+01 -2.592745208740234375e+01 -3.218060109296157212e-14 -5.954263503690077064e-14 -2.751697151658506063e-14 -9.742078969704123792e-14
5.838000000000000000e+03 1.889920997619628906e+01 -2.568350410461425781e+01 -6.252898182958557816e-14 1.895281451040880388e-14 -1.307284985693985338e-14 -1.072641358601609390e-14
5.839000000000000000e+03 4.599234390258789062e+01 -2.009904289245605469e+01 5.455603010367029992e-14 5.769436848841041909e-14 3.367511957762421571e-14 1.514869637066554309e-14
5.840000000000000000e+03 4.766508865356445312e+01 -1.998176002502441406e+01 1.665335383970682065e-14 4.188956852831798860e-13 1.306647119062726015e-13 -6.979376149555353154e-15
5.841000000000000000e+03 1.095821189880371094e+01 -2.661111259460449219e+01 -2.465583101658101566e-15 -7.826140587365373880e-14 -2.421809667141772843e-14 3.819233612093603236e-14
5.842000000000000000e+03 1.536711788177490234e+01 -2.245785713195800781e+01 -5.553049746377311524e-15 -1.396327308335679196e-13 -4.355573180229131702e-14 6.068399499266699526e-14
5.843000000000000000e+03 6.930210876464843750e+01 -2.935253334045410156e+01 4.900380028518593056e-14 2.583346676767600547e-13 9.220154208264969009e-14 -8.818178121299674599e-14
5.844000000000000000e+03 6.477455139160156250e+01 -3.204946899414062500e+01 7.236355611950351374e-14 2.799624410337181457e-13 1.056977991459664978e-13 5.166132719368072418e-15
5.845000000000000000e+03 6.746528625488281250e+01 -3.182182502746582031e+01 4.591210631078521121e-14 2.484313752978972722e-13 8.830304244972567163e-14 6.218881170390235663e-15
5.846000000000000000e+03 4.754676437377929688e+01 -2.185073661804199219e+01 4.931375674564059119e-14 1.927005240489124138e-13 7.260428288311318590e-14 9.827351639976698167e-15
5.847000000000000000e+03 4.916271591186523438e+01 -2.388394737243652344e+01 -4.113124229231102102e-14 2.883318041789484365e-13 7.416016721073850904e-14 3.742341316394573458e-14
5.848000000000000000e+03 1.237072849273681641e+01 -2.960700607299804688e+01 -3.388133821896274767e-14 -6.027152382867204117e-14 -2.824585692022454214e-14 -4.069600627082566036e-14
5.849000000000000000e+03 4.995149612426757812e+01 -2.288059425354003906e+01 -1.393880467320286753e-14 2.685319143696379696e-13 7.637793663587549853e-14 6.695244876629528885e-15
5.850000000000000000e+03 5.270823287963867188e+01 -2.315104103088378906e+01 -1.182046844574406036e-14 2.694397710587687067e-13 7.728579332500623567e-14 4.442481471122854131e-14
5.851000000000000000e+03 1.119810771942138672e+01 -2.853242492675781250e+01 -1.259270160749222794e-14 1.461916864149183370e-14 6.079397396229673043e-16 2.763466843867194017e-14
5.852000000000000000e+03 1.164396953582763672e+01 -2.562487030029296875e+01 -4.021352952780603285e-14 -6.298531574772114894e-14 -3.095965392147133344e-14 4.428874733858161050e-14
5.853000000000000000e+03 5.539455032348632812e+01 -2.728034973144531250e+01 3.893094546280999324e-14 3.255035943474510196e-13 1.093303643147705562e-13 6.415705369310770179e-14
5.854000000000000000e+03 5.608940505981445312e+01 -2.478878784179687500e+01 2.510160963364437697e-14 2.852635120308144590e-13 9.310954107331556595e-14 3.995326002003730947e-14
5.855000000000000000e+03 5.599824905395507812e+01 -2.931410980224609375e+01 5.178323048138366858e-14 3.538871940714921616e-13 1.217011246553573178e-13 3.287091261618309279e-14
5.856000000000000000e+03 6.236618041992187500e+01 2.550517272949218750e+01 1.113797334255980237e-14 -1.324794223975245266e-13 -3.640243691877508014e-14 5.318266104738754441e-14
5.857000000000000000e+03 6.423647308349609375e+01 2.574524307250976562e+01 -3.653532198863917654e-15 4.418514843286883154e-14 1.215948491255312153e-14 1.199658014800538547e-14
5.858000000000000000e+03 6.312265014648437500e+01 2.644994544982910156e+01 1.573017161405482200e-13 2.961697727343892694e-13 1.360414466624812468e-13 2.260734324353516622e-13
5.859000000000000000e+03 6.782830810546875000e+01 2.587921524047851562e+01 1.774282625119014134e-13 2.590444677340320023e-13 1.309418204290327403e-13 -9.116553269673116633e-14
5.860000000000000000e+03 6.746778869628906250e+01 2.540702819824218750e+01 1.293199895042659864e-13 1.011737961746812797e-13 6.914813773656325324e-14 -3.424019219739650455e-14
5.861000000000000000e+03 6.712474822998046875e+01 2.576187896728515625e+01 2.581331415979493116e-13 1.563794395625234257e-13 1.243537743481418212e-13 3.584646482098809150e-14
5.862000000000000000e+03 6.537184906005859375e+01 2.610634803771972656e+01 5.921366099271435646e-14 4.371358147420983942e-13 1.489048413651911096e-13 2.729885816097482598e-13
5.863000000000000000e+03 5.999685287475585938e+01 2.599616050720214844e+01 1.413969310561091763e-13 -4.234095103065708965e-14 2.971679231356973150e-14 1.711217634064142457e-14
5.864000000000000000e+03 7.000590515136718750e+01 2.599682807922363281e+01 -7.326250202202913564e-14 3.803603211473965962e-13 9.212934777048931156e-14 -7.174336537178749307e-14
5.865000000000000000e+03 6.436267089843750000e+01 2.627355957031250000e+01 7.993544113302566978e-14 4.460165960520900974e-13 1.577856091226556567e-13 1.702688012285291652e-13
5.866000000000000000e+03 6.475910949707031250e+01 2.572249984741210938e+01 8.848439559186460635e-14 3.581785204802984124e-13 1.339988775321543368e-13 2.088338725038385579e-13
5.867000000000000000e+03 6.302600479125976562e+01 2.593132972717285156e+01 4.537721855712127661e-14 -1.635564107109813148e-13 -3.545376001785026376e-14 1.626864197827246339e-13
5.868000000000000000e+03 6.519914245605468750e+01 2.565853500366210938e+01 -1.239197411134415616e-13 2.442727010248946229e-13 3.610588729580956058e-14 -1.248288581875978132e-13
5.869000000000000000e+03 6.615441894531250000e+01 2.590377616882324219e+01 1.230061381527966513e-13 -1.074114010083705717e-13 4.678422583283834216e-15 -1.817577528371791540e-13
5.870000000000000000e+03 1.002100849151611328e+01 -1.045333099365234375e+01 2.038259596097869580e-14 -1.742683959377738789e-13 -4.616574185651103890e-14 1.510661979725244890e-15
5.871000000000000000e+03 5.683819961547851562e+01 2.720445823669433594e+01 -2.762035663118195261e-13 -4.974653298344712538e-14 -9.778502741688774313e-14 4.918111816236414580e-14
5.872000000000000000e+03 5.548083114624023438e+01 2.621193885803222656e+01 -2.260536118643859116e-14 -1.469408633398422426e-13 -5.086386430856564000e-14 -1.274472284570069350e-14
5.873000000000000000e+03 5.744801712036132812e+01 2.679728889465332031e+01 -6.648352793856351917e-14 4.013348152615871245e-14 -7.905014601347799819e-15 -3.274080157922125422e-14
5.874000000000000000e+03 6.644917297363281250e+01 2.561614990234375000e+01 1.902552686791972314e-13 3.560436721925658299e-13 1.638896809062762028e-13 1.857534105372850297e-14
5.875000000000000000e+03 5.385619735717773438e+01 2.282502555847167969e+01 1.296047230176173085e-14 9.705638257060528185e-14 3.300505891810565084e-14 5.977706665164644884e-14
5.876000000000000000e+03 1.122842979431152344e+01 -1.442149162292480469e+01 -4.041161326471913451e-14 -2.003230616326803770e-13 -7.222040077515395895e-14 -1.987629726335048835e-14
5.877000000000000000e+03 1.420871734619140625e+01 -1.495783901214599609e+01 -1.179807526631090897e-13 -3.708198299205017756e-13 -1.466401734198305440e-13 8.032993486974809860e-14
5.878000000000000000e+03 1.398357391357421875e+01 -1.643630027770996094e+01 -9.884279877328712438e-15 -3.473682387740428812e-13 -1.071757564424444253e-13 2.670048765960643389e-14
5.879000000000000000e+03 6.138544845581054688e+01 2.558860015869140625e+01 5.658219728800657766e-14 -1.587542760011356746e-13 -3.065162530800462359e-14 -1.137368736518762358e-14
5.880000000000000000e+03 5.961185836791992188e+01 2.646382522583007812e+01 1.593242952933199286e-13 -2.322005638439282593e-14 4.083127065623859409e-14 6.339539489067305689e-14
5.881000000000000000e+03 1.176817035675048828e+01 -9.317656517028808594e+00 -8.557870666454914232e-14 -3.667658760248340699e-14 -3.667658760248340699e-14 -2.902532272690272475e-13
5.882000000000000000e+03 7.083295440673828125e+01 1.589284610748291016e+01 1.988920604546664389e-14 1.457767961248260247e-13 4.969980048168121112e-14 -1.575693243417719547e-13
5.883000000000000000e+03 7.079004669189453125e+01 1.441194629669189453e+01 7.563556985584751757e-14 1.696680854623364154e-13 7.359109659545517990e-14 -7.471189059126207010e-14
5.884000000000000000e+03 4.693391799926757812e+01 1.507396030426025391e+01 5.087526876016747190e-14 -2.069510605636273870e-13 -4.682273787985115343e-14 -8.432843182429317075e-14
5.885000000000000000e+03 7.157707214355468750e+01 2.148500442504882812e+01 -6.179945606903797239e-14 2.480202187290364568e-13 5.586622744274682972e-14 2.610266535796150478e-14
5.886000000000000000e+03 4.391410064697265625e+01 -1.448913669586181641e+01 9.695214330798437863e-14 2.703056691238242548e-13 1.101773430519162322e-13 3.351415960072337552e-14
5.887000000000000000e+03 4.611369323730468750e+01 -1.352747726440429688e+01 -8.968798875233149892e-14 1.903170410979745930e-13 3.018871502606657042e-14 1.167291107116762497e-14
5.888000000000000000e+03 4.567415618896484375e+01 1.441772079467773438e+01 -1.228125403023722084e-13 -5.263394293976084160e-14 -5.263394293976084160e-14 -2.896406530415729375e-13
5.889000000000000000e+03 4.623795700073242188e+01 1.413854885101318359e+01 -1.798936975945519823e-13 1.059064945116428014e-13 -2.219616126368593317e-14 -1.101834213603457291e-13
5.890000000000000000e+03 4.061725616455078125e+01 8.820550918579101562e+00 2.638455792280773593e-14 -1.945715995006064292e-13 -5.045611281215278687e-14 8.225714488892255094e-14
5.891000000000000000e+03 4.190679931640625000e+01 1.111543464660644531e+01 6.014193456400571125e-14 -7.716451853575015396e-14 -5.106774768006859186e-15 2.029714219506199846e-14
5.892000000000000000e+03 3.517916107177734375e+01 1.678466558456420898e+00 9.589643701791040337e-15 -1.331429947846671236e-13 -3.706600591778588805e-14 -1.110069542255114061e-13
5.893000000000000000e+03 4.867382431030273438e+01 1.586865901947021484e+01 -2.757425974293965798e-14 -1.490703854844024900e-13 -5.299339322938946550e-14 4.957467846877870038e-15
5.894000000000000000e+03 4.720945358276367188e+01 1.640502738952636719e+01 -1.351746947882148664e-13 -1.218106392391737208e-14 -4.420672744423308209e-14 -7.240121859247022895e-14
5.895000000000000000e+03 7.076279449462890625e+01 -2.083554744720458984e+00 8.358334098630681996e-14 3.582142991519904340e-14 3.582142991519904340e-14 1.170264108058330366e-13
5.896000000000000000e+03 5.512996292114257812e+01 2.242648315429687500e+01 -4.020861334858016889e-14 7.426963774884165481e-14 1.021830732007844578e-14 6.978149476441139476e-14
5.897000000000000000e+03 5.439648437500000000e+01 2.296923446655273438e+01 4.818904945761738612e-14 2.951581307922973574e-13 1.030041598347984644e-13 -1.577398964485582367e-14
5.898000000000000000e+03 7.089370727539062500e+01 1.886333847045898438e+01 -3.437108928093339510e-14 3.102048105147955925e-14 -1.005182680594387569e-15 -2.530064374152429796e-13
5.899000000000000000e+03 5.430093765258789062e+01 2.151588630676269531e+01 -4.462240378090044646e-14 -1.912388636663396591e-14 -1.912388636663396591e-14 -2.291698291366755375e-14
5.900000000000000000e+03 7.001470947265625000e+01 -3.653231382369995117e+00 1.624801232143549545e-13 2.526381339372496537e-13 1.245354730797232357e-13 6.449209334022940401e-15
5.901000000000000000e+03 6.987207794189453125e+01 3.580055713653564453e+00 1.856209278080708791e-13 -7.485762769203485600e-14 3.322899071243716473e-14 -4.502653082333199844e-15
5.902000000000000000e+03 6.946669769287109375e+01 1.770753383636474609e+00 8.382681891292917409e-14 2.646805300973720243e-13 1.045522040254640017e-13 -7.445240035380482069e-14
5.903000000000000000e+03 7.006439971923828125e+01 5.290046215057373047e+00 6.982100038107133533e-14 1.214251816499326009e-13 5.737385799743296988e-14 -6.622552847909343732e-14
5.904000000000000000e+03 7.021257781982421875e+01 1.730103111267089844e+01 5.737248919219020693e-14 1.618410537963105300e-13 6.576406492942929449e-14 2.768379973774447861e-14
5.905000000000000000e+03 7.023014068603515625e+01 1.804251670837402344e+01 -7.727547985184046730e-14 -1.703709059681229876e-13 -7.429391710124175208e-14 -8.805562073770090148e-14
5.906000000000000000e+03 5.021370315551757812e+01 1.916814613342285156e+01 4.910637597509842633e-14 6.679653710576008430e-14 3.477087527951026880e-14 -1.236849706855169817e-13
5.907000000000000000e+03 4.968883895874023438e+01 1.897869491577148438e+01 -3.398795256196775194e-14 -8.319268939103313665e-14 -3.515419156946072987e-14 -1.487552146891245319e-14
5.908000000000000000e+03 7.029161834716796875e+01 3.967177867889404297e+00 1.486845585887963672e-13 1.666615928380341116e-13 9.460384271754371244e-14 -1.021748603693278801e-13
5.909000000000000000e+03 4.486881256103515625e+01 1.324994182586669922e+01 -9.741344422732264863e-14 -1.332505205351233735e-13 -6.919919010636016443e-14 2.608127735252686007e-15
5.910000000000000000e+03 4.554978179931640625e+01 1.344916629791259766e+01 -1.452724523792400801e-13 1.207441671603401434e-13 -7.358486920922696628e-15 -2.330409628291396640e-13
5.911000000000000000e+03 6.584148406982421875e+01 2.563118934631347656e+01 1.286358172758461649e-13 3.067598529794129947e-13 1.306187010765777479e-13 -8.986018038611293113e-14
5.912000000000000000e+03 6.675852203369140625e+01 2.526317405700683594e+01 2.012898921437307476e-14 8.626710389330986828e-15 8.626710389330986828e-15 -1.598322982212380117e-13
5.913000000000000000e+03 3.348299789428710938e+01 3.254084587097167969e-01 1.452873330540574437e-13 1.537678946846032790e-13 8.971657103210364803e-14 -3.365890059075019036e-14
5.914000000000000000e+03 6.998725891113281250e+01 -4.369531631469726562e+00 -2.408015989705620738e-15 3.649755736349902246e-13 1.087702722487281226e-13 4.024642489934560086e-14
5.915000000000000000e+03 7.066421508789062500e+01 -4.994680404663085938e+00 2.762978487021454550e-15 5.959464692562033150e-13 1.796128350217696124e-13 2.305661290689063614e-14
5.916000000000000000e+03 3.452813339233398438e+01 1.482334613800048828e+00 5.458286071930752714e-14 4.351511826653636783e-13 1.469202092884563937e-13 -6.277998818504312850e-14
5.917000000000000000e+03 7.019137573242187500e+01 1.656214714050292969e+01 -6.730292135371596443e-15 1.343684413951731771e-13 3.829144236389657452e-14 -1.879821981669999031e-13
5.918000000000000000e+03 7.024236297607421875e+01 2.960148572921752930e+00 1.167664462299253247e-13 4.846767518579264689e-13 1.804329662026191161e-13 -5.036574456107612008e-14
5.919000000000000000e+03 7.078170013427734375e+01 3.797037839889526367e+00 4.941717269223676323e-14 3.871863767102023957e-13 1.309810685476767156e-13 -6.763401552136935613e-14
5.920000000000000000e+03 6.946553802490234375e+01 -2.320756340026855469e+01 3.402431060419569553e-14 1.175214846228442300e-13 4.546373789048561986e-14 -5.387569662856743491e-14
5.921000000000000000e+03 6.782146453857421875e+01 -2.528523826599121094e+01 -5.825563962431543064e-14 2.095069045549360909e-13 4.537537880155984027e-14 9.942909803871760599e-15
5.922000000000000000e+03 7.015203857421875000e+01 1.082816600799560547e+01 -4.867402664189730832e-14 -2.038640930330723466e-13 -7.576143895180950660e-14 -2.618603542282795654e-14
5.923000000000000000e+03 7.016471099853515625e+01 8.331254005432128906e+00 2.585887402914866656e-14 6.827105883660394836e-14 2.823898070675873173e-14 -8.337566883643079962e-14
5.924000000000000000e+03 7.050379943847656250e+01 8.953048706054687500e+00 -1.069455532161714406e-13 2.286718720195118904e-13 3.651790106201299735e-14 -2.678131425393887044e-13
5.925000000000000000e+03 6.956031036376953125e+01 -1.035509490966796875e+01 -3.271654594374368008e-15 2.273526012635043725e-13 6.722428874412350597e-14 1.761631205493552343e-13
5.926000000000000000e+03 6.911922454833984375e+01 -1.795821380615234375e+01 -3.554037083077291048e-14 2.592741017541644322e-13 6.712011724413838309e-14 -3.197079103192668192e-14
5.927000000000000000e+03 7.003871154785156250e+01 -1.617277145385742188e+01 -1.765486492893639237e-13 2.445929472415925288e-13 2.041328396465771911e-14 -8.488985203799689905e-14
5.928000000000000000e+03 6.939286041259765625e+01 -1.139038276672363281e+01 5.537690497944749296e-15 2.082525639565332987e-13 6.413707726807965637e-14 -1.278713463240266357e-13
5.929000000000000000e+03 7.076441955566406250e+01 1.367995357513427734e+01 -4.085474702140469427e-14 1.197436653955705199e-13 2.366667652868928440e-14 -5.735839879911263164e-15
5.930000000000000000e+03 7.073069000244140625e+01 1.223182106018066406e+01 -1.126483007893828991e-13 1.804769034956590912e-13 2.034858081188285761e-14 -7.917673000524746985e-14
5.931000000000000000e+03 7.003786468505859375e+01 1.146564197540283203e+01 2.388168228982263247e-14 2.389897633091331297e-13 7.886143046096152909e-14 -2.419064839935536337e-13
5.932000000000000000e+03 4.758219146728515625e+01 1.778580474853515625e+01 -2.338601554974836100e-14 1.672623492618083296e-13 4.316290163827729565e-14 -9.660495466730020797e-14
5.933000000000000000e+03 9.534934997558593750e+00 -1.048573207855224609e+01 7.475394408302735161e-14 -1.052154375994276969e-13 -9.138448732546461395e-15 -3.471877597699055129e-14
5.934000000000000000e+03 9.440832138061523438e+00 -1.159767341613769531e+01 1.023845721745408888e-13 -1.848756472347043434e-13 -2.474731946873042626e-14 -9.190598179416656355e-14
5.935000000000000000e+03 7.054476928710937500e+01 2.449858093261718750e+01 -1.292548289536996076e-13 1.161711243695406903e-13 -3.925110443511433192e-15 -1.992734963314739954e-14
5.936000000000000000e+03 1.204568290710449219e+01 -1.298019409179687500e+01 -4.621690942278877667e-14 -8.843366848271944081e-14 -4.039517404927882305e-14 -9.364892487786352637e-14
5.937000000000000000e+03 7.113216400146484375e+01 2.250942611694335938e+01 1.178432978504945564e-14 5.080137699398079576e-14 1.877571177959919124e-14 -3.159834386875538803e-14
5.938000000000000000e+03 3.885388565063476562e+01 8.750251770019531250e+00 3.744897661829386937e-14 6.180051316615614576e-14 2.977484795177454124e-14 -2.819434545857021912e-14
5.939000000000000000e+03 4.031164932250976562e+01 9.726167678833007812e+00 -1.970469855263213416e-14 -2.371996099970880012e-13 -7.707129747770713468e-14 1.624126214647223648e-14
5.940000000000000000e+03 1.057699871063232422e+01 -9.158432960510253906e+00 -1.011094962095893113e-13 -3.178383391980871275e-13 -1.256843479117975004e-13 -7.671687856378520132e-14
5.941000000000000000e+03 3.995970153808593750e+01 -6.305048942565917969e+00 6.023205209332999077e-14 1.173156352878707009e-13 5.326430824723928092e-14 -8.849650477487855382e-14
5.942000000000000000e+03 3.670337295532226562e+01 -4.522708892822265625e+00 4.653706585399427359e-15 1.849982433953581418e-13 5.689558253783172370e-14 -1.135404721223963811e-14
5.943000000000000000e+03 3.768500518798828125e+01 8.379198074340820312e+00 3.115543372876790340e-14 -9.523144839167999726e-15 6.489686920989855279e-15 3.697713013876228333e-15
5.944000000000000000e+03 3.843246078491210938e+01 8.030769348144531250e+00 -8.146718840978603438e-14 -2.179183076394045071e-13 -8.981564678187808903e-14 6.490402833236874613e-14
5.945000000000000000e+03 5.576446151733398438e+01 2.452968025207519531e+01 -4.673959990201224934e-14 2.844217205234377682e-15 -1.316861455492347732e-14 3.187272155729357903e-14
5.946000000000000000e+03 5.504307937622070312e+01 2.511643218994140625e+01 -4.186237402732662094e-14 -1.094429180528017076e-13 -4.539158762403849856e-14 -3.957500221084785108e-14
5.947000000000000000e+03 1.304191112518310547e+01 -1.075540161132812500e+01 -7.344827328802094879e-14 -5.435330801433803372e-14 -3.834047540714723146e-14 3.855154924133942507e-14
5.948000000000000000e+03 1.273705863952636719e+01 -9.134267807006835938e+00 -3.853159314510211375e-14 -6.226449070960773935e-14 -3.023882549522613483e-14 1.699960735601722256e-14
5.949000000000000000e+03 7.063242340087890625e+01 -1.360677814483642578e+01 -1.217764631538179043e-13 1.765648310067882698e-13 1.643651171114382525e-14 1.141682912488353741e-13
5.950000000000000000e+03 7.127374267578125000e+01 -7.059278488159179688e+00 -1.134022109344160617e-14 6.585286786361943534e-13 1.941565262513975099e-13 1.617392743173684533e-13
5.951000000000000000e+03 6.983843994140625000e+01 -7.627385616302490234e+00 4.134109301092737943e-14 2.007214110633787074e-13 7.261875020585228935e-14 -2.270396192013621195e-13
5.952000000000000000e+03 3.515855407714843750e+01 -3.201200485229492188e+00 -2.083859614813304839e-14 2.884503345814554143e-13 8.028352424050214098e-14 -2.166008766389584256e-14
5.953000000000000000e+03 7.137396240234375000e+01 -1.522932815551757812e+01 -2.528367597752489981e-14 2.693887051364446394e-13 7.323150739242320628e-14 1.645981316400631743e-15
5.954000000000000000e+03 3.486993408203125000e+01 -2.582974910736083984e+00 -1.148462564198177160e-13 -3.468877957571296113e-15 -3.549454296019466382e-14 -1.477916774421730861e-13
5.955000000000000000e+03 4.858625030517578125e+01 1.684972000122070312e+01 -3.186246907050001298e-14 4.181192338973543920e-13 1.158770345302539972e-13 -1.081027069482721689e-14
5.956000000000000000e+03 3.912516784667968750e+01 -7.680456161499023438e+00 -1.084697720640966090e-13 -2.361157025920681413e-14 -3.962440117233172188e-14 1.366523810341496725e-13
5.957000000000000000e+03 1.065072250366210938e+01 -8.498716354370117188e+00 4.206763043923707202e-14 1.095308807303081722e-13 4.547955368967675216e-14 3.169200877206276856e-14
5.958000000000000000e+03 1.285192298889160156e+01 -1.321565628051757812e+01 -1.373682255185332268e-13 -1.961249359531264114e-13 -1.000479470862451759e-13 -3.868579379908386462e-14
5.959000000000000000e+03 4.772509002685546875e+01 1.597076797485351562e+01 1.269495457785181983e-14 1.255369370739209400e-13 4.146956758023512268e-14 -1.286147159910641657e-13
5.960000000000000000e+03 7.041970062255859375e+01 -1.693281555175781250e+01 -2.191031644310781346e-13 4.665477531216877249e-13 7.423337796243559272e-14 -6.864944539480138941e-14
5.961000000000000000e+03 7.070291137695312500e+01 -1.262618780136108398e+00 1.490796554129772411e-13 1.325177082867404210e-13 8.447921046516801424e-14 5.337655027714584277e-14
5.962000000000000000e+03 7.155044555664062500e+01 -4.255434274673461914e-01 2.454879561349793127e-13 1.370723094762122535e-14 7.775855968231853987e-14 3.338770774609367553e-14
5.963000000000000000e+03 7.070286560058593750e+01 -6.297297477722167969e+00 -5.157232605378092583e-14 3.896561079439614383e-13 1.014251345670541538e-13 1.904723124016016733e-13
5.964000000000000000e+03 9.625755310058593750e+00 -1.549557590484619141e+01 2.265789078169551385e-14 1.012124208770760758e-13 3.716109383644465580e-14 1.957867699073963935e-14
5.965000000000000000e+03 1.028674983978271484e+01 -1.603037452697753906e+01 -7.510256929159006556e-14 -1.236887111830120567e-13 -5.963738753051242569e-14 6.041686112989372304e-14
5.966000000000000000e+03 4.906528091430664062e+01 -2.207167816162109375e+01 1.555961238216933828e-14 2.582986179545249117e-13 8.215747282795324291e-14 -2.025611361316289466e-14
5.967000000000000000e+03 4.547920608520507812e+01 -1.517147445678710938e+01 -4.114710213721541054e-14 1.539315821075942781e-13 3.383534432992683916e-14 2.397245372858219231e-14
5.968000000000000000e+03 4.833000946044921875e+01 -2.125599479675292969e+01 -2.543738704646313770e-14 2.636039444451482305e-13 7.144997348764933753e-14 1.533544003048080417e-14
5.969000000000000000e+03 9.376643180847167969e+00 -1.625949287414550781e+01 -7.344488515623193159e-14 -1.687292205910725928e-13 -7.265223172419135733e-14 -4.765626573379443121e-14
5.970000000000000000e+03 1.012419319152832031e+01 -1.654355812072753906e+01 -3.777532740144263698e-15 -2.761246363936625814e-13 -8.397065188363653232e-14 -4.736621793573203565e-14
5.971000000000000000e+03 1.573739433288574219e+01 -2.491509437561035156e+01 4.004893747362736622e-14 -1.200890108925614652e-13 -2.401202371974612421e-14 -5.365390274539479087e-14
5.972000000000000000e+03 1.248951339721679688e+01 -1.816956520080566406e+01 -7.062958480878386847e-14 -1.675226662034220992e-13 -7.144567733654086372e-14 -5.040735081944525131e-14
5.973000000000000000e+03 3.655730056762695312e+01 4.959856986999511719e+00 2.138557275602019636e-14 -8.233665078948362859e-14 -1.828532374885220857e-14 -1.007334000284812459e-13
5.974000000000000000e+03 1.146199893951416016e+01 -2.166482734680175781e+01 -8.826424156447784664e-14 7.923418086192794002e-15 -2.410224628115586326e-14 -6.802431475093698166e-14
5.975000000000000000e+03 1.185177040100097656e+01 -2.308082008361816406e+01 1.386794528496736179e-14 2.346981387447294454e-13 7.456982622534857885e-14 -4.387068575713477803e-14
5.976000000000000000e+03 5.039257049560546875e+01 1.841610717773437500e+01 -7.656004173151335825e-16 -4.607906328095261184e-14 -1.405339891360395457e-14 -1.704106419777445813e-13
5.977000000000000000e+03 6.964304351806640625e+01 2.796434879302978516e+00 1.621275271153355124e-13 9.235870396381504199e-14 7.634587135662423973e-14 -3.535201103209428819e-14
5.978000000000000000e+03 1.590191364288330078e+01 -2.068353271484375000e+01 -1.729900470375141108e-14 -5.316480898099121277e-14 -2.113914376660960825e-14 2.543026011124494001e-14
5.979000000000000000e+03 1.517094898223876953e+01 -2.037891387939453125e+01 2.816369811247266403e-14 -3.368079131023903050e-14 -1.655128319318912525e-15 4.001513408276834161e-14
5.980000000000000000e+03 3.647284698486328125e+01 4.157217502593994141e+00 1.700924828502287101e-14 9.879157360876897331e-14 3.474024656813755330e-14 -5.478543373084107659e-14
5.981000000000000000e+03 3.697243499755859375e+01 6.654826164245605469e+00 5.072842712843146640e-14 -2.401019412858005492e-14 8.015469391735655091e-15 -2.806219137813960318e-14
5.982000000000000000e+03 1.601803779602050781e+01 -1.869306945800781250e+01 5.149899332933943752e-14 -1.380573173143107013e-13 -2.596749922837045255e-14 1.150451668608873379e-13
5.983000000000000000e+03 1.458798694610595703e+01 -1.738584327697753906e+01 -7.947794847381825512e-14 -2.628167323527608179e-13 -1.026883995045892173e-13 6.515156524087434287e-14
5.984000000000000000e+03 6.720825958251953125e+01 -2.404338073730468750e+01 5.227219888491105304e-14 1.939684307269984309e-13 7.387218956119920299e-14 1.626733382058872385e-14
5.985000000000000000e+03 1.120156288146972656e+01 -1.372984600067138672e+01 6.926947351219153726e-14 -6.181498048889524921e-14 2.236347187010881248e-15 -9.147574665520179227e-15
5.986000000000000000e+03 1.189721584320068359e+01 -2.082709312438964844e+01 -8.488764297607045983e-14 -3.566370560415671465e-13 -1.324574130934230709e-13 3.727498927466425804e-14
5.987000000000000000e+03 1.100014877319335938e+01 -2.028738403320312500e+01 -1.728944000771101552e-13 -1.198485484032313364e-13 -8.782288318884973188e-14 -3.546293169060313333e-14
5.988000000000000000e+03 3.578953170776367188e+01 -1.749238818883895874e-01 -1.537537085768026640e-14 1.764143572977744379e-13 4.831169305211623077e-14 -1.176690851961009754e-13
5.989000000000000000e+03 7.011909484863281250e+01 -6.222370624542236328e+00 -4.544332439645679123e-14 3.465318852181875631e-13 9.032657027939830496e-14 -3.569109797204456092e-13
5.990000000000000000e+03 4.421171569824218750e+01 1.256784820556640625e+01 -8.530197083628579535e-14 -8.230893587144946788e-14 -5.028327065706786336e-14 2.871608048462918894e-14
5.991000000000000000e+03 4.266304016113281250e+01 1.234027385711669922e+01 -7.255634759456217053e-14 -1.225974752489325525e-13 -5.854614482016934351e-14 3.226101162471031736e-14
5.992000000000000000e+03 3.761820983886718750e+01 -5.217223644256591797e+00 -1.080748514227687640e-13 1.366860048540238792e-13 8.583343996497461159e-15 2.560979890881085602e-14
5.993000000000000000e+03 1.158200454711914062e+01 -1.199020195007324219e+01 -4.227925992704266445e-14 -6.387063458419134365e-14 -3.184496598167795012e-14 -7.589004565825702153e-14
5.994000000000000000e+03 4.603602218627929688e+01 -1.650696372985839844e+01 -3.400861000148538982e-14 6.548904349585119022e-14 9.444130217716329573e-15 3.619448355396057138e-14
5.995000000000000000e+03 4.674886703491210938e+01 -1.985825920104980469e+01 -2.867694417433425125e-14 1.249627300508454608e-13 2.888573440770064726e-14 8.999347626695644586e-14
5.996000000000000000e+03 7.121187591552734375e+01 -7.848331928253173828e+00 2.225354435773062300e-14 3.241270844929998451e-14 1.639987584210918226e-14 -1.519826744924429596e-13
5.997000000000000000e+03 4.430139160156250000e+01 1.204483795166015625e+01 -1.883027967494038668e-13 2.853063922267362607e-13 2.910108067607879156e-14 -1.097660594281133287e-14
5.998000000000000000e+03 1.231736850738525391e+01 -2.217742347717285156e+01 2.894469806522491362e-14 1.240487120440563959e-14 1.240487120440563959e-14 5.009789919062715424e-14
5.999000000000000000e+03 1.223155784606933594e+01 -2.460794067382812500e+01 1.570811928067964575e-14 2.960752506337392675e-14 1.359469330321607175e-14 1.237207493572090033e-14
6.000000000000000000e+03 3.847710800170898438e+01 -5.867991924285888672e+00 9.302653692668232804e-15 4.386208735628061017e-13 1.343770608024444368e-13 2.887515835432123007e-15
6.001000000000000000e+03 3.835890197753906250e+01 -5.118621826171875000e+00 -7.919421276527879860e-14 -1.254422726717357994e-13 -6.139094901923616843e-14 -1.900003998535002014e-14
6.002000000000000000e+03 4.044561767578125000e+01 -1.229456615447998047e+01 -1.482923484528997360e-13 2.109518343427346787e-13 1.879784305644505160e-14 -2.125234463781246197e-14
6.003000000000000000e+03 4.084017944335937500e+01 -1.054093170166015625e+01 4.682558391055392788e-14 3.150584448278342942e-14 2.349942817918802829e-14 -1.044032414232280714e-13
6.004000000000000000e+03 4.257566833496093750e+01 -1.245893001556396484e+01 -1.779961811623764767e-14 3.812254060608227801e-14 6.096876662250094378e-15 -2.522857648430600758e-14
6.005000000000000000e+03 3.890695190429687500e+01 -1.029619026184082031e+01 2.920956272673249157e-15 2.528820523210045801e-13 7.674090719443291131e-14 5.254262601178324998e-14
6.006000000000000000e+03 3.890942001342773438e+01 -9.378369331359863281e+00 -2.741571380993849255e-14 3.085070447803733851e-13 8.432740183222930952e-14 -6.192219453122690953e-14
6.007000000000000000e+03 4.118879699707031250e+01 -9.351876258850097656e+00 8.133520373594486930e-15 1.864895905886662653e-13 5.838692973113984719e-14 -1.587301931603793403e-13
6.008000000000000000e+03 3.997990798950195312e+01 -1.087060070037841797e+01 -4.231799304965470909e-14 3.478713085820761552e-13 9.166599364328689714e-14 1.600501788121943408e-14
6.009000000000000000e+03 4.357155227661132812e+01 -1.345002937316894531e+01 8.840095268216469071e-14 2.208899160588070898e-13 9.278726197754424976e-14 8.696116607842183099e-14
6.010000000000000000e+03 1.807073783874511719e+01 -2.428594779968261719e+01 -2.035495049964620995e-14 -2.146028173959438345e-13 -7.048733070749019225e-14 1.094778564678100530e-13
6.011000000000000000e+03 7.043562316894531250e+01 -2.102984809875488281e+01 -2.664017044343245516e-14 4.232168001466751761e-13 1.189729873863135112e-13 -3.704679521054216051e-14
6.012000000000000000e+03 1.189410400390625000e+01 -1.521129608154296875e+01 -9.950550718682352191e-14 -1.798980615082962364e-13 -8.382107264141500091e-14 -9.570592067334807163e-14
6.013000000000000000e+03 6.832482910156250000e+01 -2.836511039733886719e+01 -7.578573185673675994e-15 1.618843676731013259e-13 4.629173970148101058e-14 5.484735861554894398e-14
6.014000000000000000e+03 1.372439384460449219e+01 -3.074618148803710938e+01 3.812181554587942833e-14 -1.266337973067702127e-13 -2.655359351182769861e-14 -7.966153439480615217e-15
6.015000000000000000e+03 7.158619689941406250e+01 -1.406013488769531250e+01 -3.757983982051286975e-14 7.539625255506207657e-14 1.134492382036476205e-14 4.280468462861987400e-14
6.016000000000000000e+03 7.031285095214843750e+01 -1.264063835144042969e+01 3.555276122872534639e-14 1.868029521215688882e-13 6.670671773203323829e-14 -3.922687166952633364e-14
6.017000000000000000e+03 1.514642333984375000e+01 -1.842676544189453125e+01 -6.650102425112200399e-14 -3.258816014348880907e-13 -1.177147843176712394e-13 6.294070082832337043e-14
6.018000000000000000e+03 1.481516933441162109e+01 -2.123179435729980469e+01 -6.920862944152436635e-14 -3.727929694542081451e-13 -1.326004735700825332e-13 6.941734513599140399e-14
6.019000000000000000e+03 4.699825668334960938e+01 -1.680520820617675781e+01 3.890393104102321184e-15 2.304220453764466159e-13 7.029373285706574936e-14 1.086428107308252955e-13
6.020000000000000000e+03 4.355666732788085938e+01 -1.119609832763671875e+01 -6.433576409245120309e-14 2.926841711700656212e-13 6.850452144565796764e-14 -6.888375503680266299e-14
6.021000000000000000e+03 5.005189895629882812e+01 -2.169031524658203125e+01 -8.114036244115385710e-14 1.939803027407871472e-13 3.385198344514270263e-14 6.260552650296305477e-14
6.022000000000000000e+03 1.785868835449218750e+01 -2.543808555603027344e+01 -8.671877574210375139e-15 -1.409693623768623616e-13 -4.489237350998112608e-14 1.600058281670761057e-14
6.023000000000000000e+03 6.939324951171875000e+01 -2.079283714294433594e+01 2.327882895128419172e-13 1.340796234889501948e-13 1.100603779662957804e-13 5.918572923424569865e-14
6.024000000000000000e+03 7.010501861572265625e+01 -1.805816459655761719e+01 -2.227150484434420319e-13 1.790563818092685833e-13 -1.309759931262567678e-14 -1.298048176107471918e-13
6.025000000000000000e+03 7.023528289794921875e+01 -1.878353309631347656e+01 1.356136611427999350e-13 1.953729875363990898e-13 9.929599189325427622e-14 4.489315955655617807e-14
6.026000000000000000e+03 1.704296302795410156e+01 -2.403606986999511719e+01 -2.154266518048387341e-14 -2.608627831975074418e-13 -8.472163807093577303e-14 3.186812725058767171e-14
6.027000000000000000e+03 1.266254520416259766e+01 -2.632361412048339844e+01 5.643183877547357230e-14 1.156869738894172883e-13 5.163564346065407928e-14 -2.009776757993728125e-14
6.028000000000000000e+03 1.503298187255859375e+01 -2.753106689453125000e+01 4.380109014205657569e-14 -1.642318957694940962e-13 -3.612924168823125615e-14 2.410510448795725449e-16
6.029000000000000000e+03 6.726769256591796875e+01 -2.938223266601562500e+01 1.186357649352867347e-14 3.024655450146324087e-13 9.429874144994271346e-14 2.330811392958938300e-14
6.030000000000000000e+03 6.666427612304687500e+01 -2.594605255126953125e+01 6.421453673704016762e-14 2.619941210594417536e-13 9.786260208232908098e-14 -9.602887908954308577e-15
6.031000000000000000e+03 5.398020172119140625e+01 -2.321726036071777344e+01 4.433559164869656233e-14 3.621330936943306655e-13 1.219405978102050536e-13 6.834791013590833103e-15
6.032000000000000000e+03 1.388518905639648438e+01 -3.370029449462890625e+01 3.522227607776103053e-14 -7.068776580786487185e-14 -1.063964691903115239e-14 -9.730047036094965907e-15
6.033000000000000000e+03 6.774480438232421875e+01 -3.649349594116210938e+01 -2.757695500177782116e-14 1.940605743591325427e-13 4.994508428254711141e-14 -1.146038542250383749e-14
6.034000000000000000e+03 6.900120544433593750e+01 -3.273791122436523438e+01 -4.828421869143909029e-14 1.623105539945782216e-13 3.420790330144717062e-14 1.419826695857285756e-14
6.035000000000000000e+03 1.199354362487792969e+01 -2.745569419860839844e+01 -4.698452794904030283e-14 -1.345136025135418301e-13 -5.444943947758781877e-14 1.755380237868087168e-14
6.036000000000000000e+03 1.540479087829589844e+01 -2.614582633972167969e+01 6.883959412706461278e-14 -6.199921354305484855e-14 2.052113709334808279e-15 5.930310767194441057e-14
6.037000000000000000e+03 5.860018539428710938e+01 -2.588945388793945312e+01 2.243145346390602174e-14 2.612436905257559117e-13 8.510254539918424288e-14 6.364844090146759559e-14
6.038000000000000000e+03 5.655582427978515625e+01 -3.164495468139648438e+01 3.408286429777349080e-14 2.433616730444093657e-13 8.323336730129207717e-14 3.580957823020106123e-14
6.039000000000000000e+03 5.774979400634765625e+01 -2.856669998168945312e+01 2.174366609886731888e-14 2.495111864515842104e-13 8.137646101673973176e-14 6.690397476478981975e-14
6.040000000000000000e+03 6.492781829833984375e+01 -2.912747383117675781e+01 5.191691515034997303e-15 3.224816518421907974e-13 9.830200211778314379e-14 4.142185590838218245e-14
6.041000000000000000e+03 6.519386291503906250e+01 2.480763816833496094e+01 1.228246833667040461e-13 -2.218665382707277201e-13 -2.971255714883346000e-14 7.915028902476597961e-14
6.042000000000000000e+03 6.471214294433593750e+01 2.524632835388183594e+01 -3.664073439189202697e-14 -1.529560169927918212e-13 -5.687902812591058566e-14 5.254716949651232205e-14
6.043000000000000000e+03 7.010924530029296875e+01 2.260036849975585938e+01 2.808520356925060801e-14 2.865422200730438629e-13 9.438822201049065774e-14 -7.877585980449811065e-14
6.044000000000000000e+03 6.049242401123046875e+01 2.636507797241210938e+01 1.197237702857054109e-13 -8.308322562919356891e-14 1.099216170288765809e-14 7.242450861038793319e-14
6.045000000000000000e+03 6.092736434936523438e+01 2.591266441345214844e+01 8.290480660918392308e-15 -4.219788716586583832e-14 -1.017222110445128655e-14 1.105275403536290502e-13
6.046000000000000000e+03 6.709532165527343750e+01 2.489762306213378906e+01 3.844404043154212025e-14 8.224300960309877118e-14 3.620611501039226743e-14 -1.400226946380884324e-14
6.047000000000000000e+03 6.364593124389648438e+01 2.581586837768554688e+01 3.244541493249231481e-15 9.289241603574818762e-14 2.884108560698497858e-14 8.706276937451087883e-14
6.048000000000000000e+03 6.291385650634765625e+01 2.540677070617675781e+01 9.060094796793649596e-14 -6.921971879686981965e-15 2.510369164062872804e-14 1.796589678242088706e-13
6.049000000000000000e+03 6.425271606445312500e+01 2.524489593505859375e+01 -6.735978691062988188e-15 8.861504872991268766e-14 2.456372168928126765e-14 1.719992692109789667e-13
6.050000000000000000e+03 6.326347732543945312e+01 2.474150848388671875e+01 -3.887580107684489653e-15 4.408484279125497729e-14 1.205917927093926728e-14 -2.534703234791362697e-14
6.051000000000000000e+03 6.782385253906250000e+01 2.503224945068359375e+01 1.708623206028020425e-13 1.647286094422911740e-13 1.006772790135279649e-13 3.430198155683281125e-14
6.052000000000000000e+03 6.746472930908203125e+01 2.452657318115234375e+01 -1.427252887815748383e-14 -9.761869725110131069e-14 -3.356736682233810165e-14 -1.138702982817277332e-13
6.053000000000000000e+03 6.177473831176757812e+01 2.593682289123535156e+01 1.069283482829468113e-13 4.582643739849991127e-14 4.582643739849991127e-14 3.952665018208678660e-14
6.054000000000000000e+03 7.018358612060546875e+01 2.554680442810058594e+01 9.225440371482193647e-14 1.310394934922465282e-13 6.698816983974689721e-14 5.524962472659537827e-14
6.055000000000000000e+03 6.958604431152343750e+01 2.568081855773925781e+01 -4.567012932654539170e-14 -2.025767113734630587e-13 -7.447405051593664060e-14 2.076142339982518271e-15
6.056000000000000000e+03 1.239703369140625000e+01 -9.937567710876464844e+00 -1.988703120367127375e-13 -3.368603410536935572e-13 -1.607192027033854664e-13 -9.632451052879378167e-15
6.057000000000000000e+03 7.096068572998046875e+01 2.523731231689453125e+01 -1.527428492931540149e-13 -6.546122015759978097e-14 -6.546122015759978097e-14 9.343935537418565640e-14
6.058000000000000000e+03 7.056185913085937500e+01 2.565431785583496094e+01 4.367058777587310564e-15 2.306263361707971971e-13 7.049801687515275250e-14 -3.079116212760350801e-14
6.059000000000000000e+03 1.124834251403808594e+01 -8.618869781494140625e+00 -1.948537752920943985e-16 9.141838897214552007e-14 2.736706023744820554e-14 -1.512987055519304791e-13
6.060000000000000000e+03 9.930234909057617188e+00 -9.773467063903808594e+00 1.662461062367469322e-14 -8.437706506799272366e-14 -2.032573633329540913e-14 -7.186116563189393763e-15
6.061000000000000000e+03 5.824510192871093750e+01 2.641760253906250000e+01 -5.516173658798827206e-14 -2.981464359251562168e-13 -1.059924514151301678e-13 -5.506871627675375205e-15
6.062000000000000000e+03 6.041038894653320312e+01 2.550422477722167969e+01 6.314770212810516536e-14 -2.474423931812103072e-13 -5.528840867118425817e-14 9.841833701089083841e-14
6.063000000000000000e+03 5.635727310180664062e+01 2.629951286315917969e+01 -7.282411842611177799e-14 -5.408581162146333665e-14 -3.807297901427253439e-14 9.479445901199382019e-14
6.064000000000000000e+03 5.591646194458007812e+01 2.622502708435058594e+01 3.580602746808617121e-14 -3.040550802671862507e-14 1.620155070080611312e-15 3.352497112926212941e-14
6.065000000000000000e+03 3.778339385986328125e+01 6.467467308044433594e+00 -4.330389535454545746e-14 7.294308250948774996e-14 8.891756315889277201e-15 -5.452471021341262492e-14
6.066000000000000000e+03 5.562219619750976562e+01 2.513189125061035156e+01 -6.385310439031496865e-14 -1.646184680540938028e-13 -6.854147241094898924e-14 2.255195406504831301e-14
6.067000000000000000e+03 5.517660522460937500e+01 2.447798919677734375e+01 3.590125768828007768e-14 1.068881514874019112e-13 4.283682444677049117e-14 6.003647557394076184e-14
6.068000000000000000e+03 3.741897583007812500e+01 4.873381614685058594e+00 -7.432619244466392994e-14 -7.760502987843101441e-14 -4.557936805218119891e-14 -3.269034552061921006e-14
6.069000000000000000e+03 7.104654693603515625e+01 2.022999382019042969e+01 1.223128586261279516e-13 3.269254983916114465e-13 1.347715071053218194e-13 -1.526758320463672547e-13
6.070000000000000000e+03 5.476550674438476562e+01 2.374951362609863281e+01 -2.670782127086376162e-14 1.258066323643267093e-13 2.972964349744547374e-14 9.705363818385617791e-14
6.071000000000000000e+03 5.406435775756835938e+01 2.215511512756347656e+01 -2.619568143403128851e-14 -5.697767019481603246e-14 -2.495200498043442794e-14 -1.085178801473688642e-14
6.072000000000000000e+03 4.747899627685546875e+01 1.468828296661376953e+01 1.018723950682587365e-13 4.365959837041542835e-14 4.365959837041542835e-14 1.020879259898193822e-14
6.073000000000000000e+03 4.669776153564453125e+01 1.383737087249755859e+01 -1.685639610749314898e-14 2.672815311091647494e-13 7.512753982287512233e-14 -1.444937377213795227e-13
6.074000000000000000e+03 6.607252502441406250e+01 2.523772430419921875e+01 -1.863665878521977848e-13 8.025692062969477791e-14 -3.183290084437725986e-14 -1.270077115310061511e-13
6.075000000000000000e+03 6.565080261230468750e+01 2.497023200988769531e+01 2.435001256618357646e-13 6.304931078095210584e-13 2.621979781729233405e-13 1.378423742336154501e-13
6.076000000000000000e+03 1.082056331634521484e+01 -1.315822792053222656e+01 -4.704994938575443597e-14 -1.116661626989097489e-13 -4.761483227014653985e-14 3.330143235821814152e-14
6.077000000000000000e+03 9.749770164489746094e+00 -1.422037410736083984e+01 -5.229671540653638151e-14 -6.816382446548155394e-14 -3.613816263923173844e-14 -2.040387173454782932e-14
6.078000000000000000e+03 6.997869110107421875e+01 1.217966270446777344e+01 -1.451215314368300979e-13 -1.765723120017784198e-13 -9.650815574208798653e-14 -1.430943715298796381e-13
6.079000000000000000e+03 7.020359802246093750e+01 2.336137199401855469e+01 -1.234637172093646859e-14 -1.101017047037923177e-14 -7.006962742098004834e-15 -9.097679342729217411e-14
6.080000000000000000e+03 7.049954223632812500e+01 2.285051155090332031e+01 -2.449762432027522557e-14 -1.049898185154652525e-14 -1.049898185154652525e-14 4.966563117258897264e-14
6.081000000000000000e+03 4.731229782104492188e+01 1.553688049316406250e+01 -8.358595662404794124e-14 1.643378494268002421e-13 2.422556750201251136e-14 -4.507425181254735846e-14
6.082000000000000000e+03 7.156781005859375000e+01 2.022931480407714844e+01 5.324313242355792342e-14 2.973241769975432103e-13 1.051701924875171612e-13 -2.187163922467028759e-14
6.083000000000000000e+03 7.092774963378906250e+01 1.958649635314941406e+01 1.538612817611039602e-14 2.353487955734923087e-13 7.522047627784786417e-14 -5.584451629424280750e-14
6.084000000000000000e+03 7.132375335693359375e+01 2.197757720947265625e+01 2.848570107550317532e-14 5.795910355387706714e-14 2.593344342169314615e-14 -8.742075260307485829e-14
6.085000000000000000e+03 7.050563812255859375e+01 2.046671867370605469e+01 1.766399120072328910e-14 2.820759847487613881e-13 8.992199346247176095e-14 -6.181979163603565364e-14
6.086000000000000000e+03 7.014275360107421875e+01 1.509354686737060547e+01 1.589251157703332890e-14 1.898148657567336195e-13 6.171221167547077946e-14 -9.426818050120577830e-14
6.087000000000000000e+03 7.081303405761718750e+01 1.514902019500732422e+01 7.169742230472841982e-14 -1.502348287820472889e-14 1.700218064211098112e-14 3.324933305569842401e-14
6.088000000000000000e+03 5.479646682739257812e+01 2.167917251586914062e+01 -2.335249506789371932e-14 3.574273716626732988e-14 3.717072798918672621e-15 4.469298873046104181e-14
6.089000000000000000e+03 3.992181396484375000e+01 9.105504035949707031e+00 -1.804260815188238332e-14 -7.732545987792615455e-15 -7.732545987792615455e-15 -1.683497769357569784e-13
6.090000000000000000e+03 7.024295806884765625e+01 1.880620765686035156e+01 1.523705071620681806e-13 1.110525991369730459e-13 7.902693392259144134e-14 -4.217180532735398391e-14
6.091000000000000000e+03 6.998122406005859375e+01 -2.158846139907836914e+00 1.536744364573350285e-13 -2.086452213258260802e-13 -1.649123342766824207e-14 -8.314539107125845652e-14
6.092000000000000000e+03 7.015527343750000000e+01 1.503613948822021484e+00 1.661449027402089884e-13 -4.317241212420906693e-14 3.689174752361315535e-14 2.772712377893064156e-14
6.093000000000000000e+03 1.012974357604980469e+01 -1.535403823852539062e+01 -1.141214859022359959e-14 -1.421437701700986600e-13 -4.606677452695384645e-14 3.103451808148145752e-14
6.094000000000000000e+03 1.274371337890625000e+01 -1.392419815063476562e+01 -1.437036524932350234e-13 -1.530891841246273533e-13 -8.903784691960056619e-14 -2.184675000854816723e-14
6.095000000000000000e+03 4.618580627441406250e+01 1.362515163421630859e+01 -4.392766396943068030e-14 7.267575891133429278e-14 8.624427635538136488e-15 -1.677252629318781718e-13
6.096000000000000000e+03 5.494515991210937500e+01 2.308100318908691406e+01 4.505178934581912167e-15 1.620591139582516771e-13 4.996928570791606128e-14 6.065785894404651657e-14
6.097000000000000000e+03 5.459228134155273438e+01 2.230790901184082031e+01 -9.967102758911237925e-15 4.147933217605107026e-14 9.453669502768307503e-15 4.697466509740247376e-14
6.098000000000000000e+03 5.193058013916015625e+01 1.804301071166992188e+01 4.100320818013585000e-14 1.548256558766072932e-13 5.874866023346247967e-14 -3.358794972295638115e-14
6.099000000000000000e+03 5.235184478759765625e+01 1.894953727722167969e+01 5.208264646384269669e-14 1.824494602706977497e-13 7.035963202036213393e-14 -3.383359605392370628e-14
6.100000000000000000e+03 3.435306549072265625e+01 -2.737630605697631836e-01 8.882070155324245375e-14 -1.449377862736481171e-13 -1.683512372205580448e-14 -1.572039956434893859e-14
6.101000000000000000e+03 3.369589996337890625e+01 -4.073138535022735596e-01 -7.153249990770032402e-15 -9.456757615487407231e-14 -3.051624911424265230e-14 -2.752589754978322645e-14
6.102000000000000000e+03 6.922087860107421875e+01 2.537705659866333008e+00 2.048296428303064687e-13 1.792860293819281692e-13 1.152346989531649601e-13 1.708269451187929139e-14
6.103000000000000000e+03 7.002718353271484375e+01 -2.917184114456176758e+00 -2.924796974165984331e-14 7.896705208135235132e-14 1.491572504072093130e-14 1.405425526391362867e-13
6.104000000000000000e+03 6.930824279785156250e+01 -3.700450897216796875e+00 -2.123850411945432670e-15 2.278445173416882019e-13 6.771620482230733540e-14 -4.788747354114285953e-15
6.105000000000000000e+03 6.956457519531250000e+01 1.720927810668945312e+01 -3.124933918943230415e-14 7.810932619017191270e-14 1.405799576140870366e-14 -2.193500643708073961e-13
6.106000000000000000e+03 6.953782653808593750e+01 1.647887420654296875e+01 4.788299273685188429e-14 3.865288623026985615e-13 1.303235541401728814e-13 -8.169768979165645262e-14
6.107000000000000000e+03 6.979597473144531250e+01 9.304930686950683594e+00 5.958350945880347416e-14 4.830452986388789061e-13 1.627886329425357048e-13 3.374638892980619254e-14
6.108000000000000000e+03 7.023867034912109375e+01 6.227784633636474609e+00 8.783477553142918226e-14 1.291453787443871959e-13 6.509404153936040882e-14 -1.190098773652323305e-13
6.109000000000000000e+03 3.552084350585937500e+01 -2.437776327133178711e+00 -2.347416965670090505e-14 -5.581130582644686089e-14 -2.378564230613115088e-14 -8.982816931697029661e-14
6.110000000000000000e+03 6.953527832031250000e+01 1.068759632110595703e+01 -3.690807493070442924e-14 2.129369949680284813e-13 5.280867567238403670e-14 -2.923798085151946280e-13
6.111000000000000000e+03 6.946861267089843750e+01 4.071646690368652344e+00 -7.107585597550605816e-14 1.468238508203767445e-13 2.272439642058213249e-14 9.880432653682283406e-15
6.112000000000000000e+03 6.926580047607421875e+01 -4.438417911529541016e+00 1.565373671614730955e-13 2.500912346138639553e-13 1.219885737563375372e-13 -7.713110478004686632e-14
6.113000000000000000e+03 1.433244228363037109e+01 -1.817218780517578125e+01 -7.797953363759824175e-14 -2.621745323009433415e-13 -1.020462197815624750e-13 2.863175327253233982e-14
6.114000000000000000e+03 4.808583831787109375e+01 1.732287979125976562e+01 -3.135544192453716683e-14 2.610676431979985779e-13 6.891365868797252880e-14 -9.346606062894668998e-14
6.115000000000000000e+03 1.007251548767089844e+01 -1.280404853820800781e+01 -3.243483294988226684e-14 -1.054025370130808048e-13 -4.135121336058117381e-14 -8.014133790184424511e-14
6.116000000000000000e+03 7.080028533935546875e+01 2.486430549621582031e+01 3.137794928401160810e-14 -1.238051544963369999e-13 -2.772816054725808083e-14 4.438115524499526565e-14
6.117000000000000000e+03 6.967251586914062500e+01 1.015241050720214844e+01 3.809828835873649289e-14 6.207878720625170654e-14 3.005312199187010203e-14 -5.572718190225735280e-14
6.118000000000000000e+03 6.941871643066406250e+01 8.785264968872070312e+00 -1.001919155822240948e-13 3.230682052175054553e-13 6.686288350245261913e-14 -2.666579251246053994e-13
6.119000000000000000e+03 7.072151947021484375e+01 -1.569224643707275391e+01 3.333462927348693206e-14 1.972900602652608026e-13 6.918740618399796261e-14 -9.957207720021413189e-14
6.120000000000000000e+03 6.940016174316406250e+01 1.122034549713134766e+01 -8.904673737741494732e-14 5.333900977692353218e-14 -1.071231895777378235e-14 -1.685334543363031790e-13
6.121000000000000000e+03 7.016829681396484375e+01 1.582477855682373047e+01 7.277738931247765275e-14 2.599450602686070866e-13 9.981673419669906400e-14 -4.652217670884743750e-14
6.122000000000000000e+03 6.881156921386718750e+01 -1.014354228973388672e+01 5.545694789889712983e-14 1.381446362467772526e-13 5.808047321082324133e-14 2.562346663244775141e-14
6.123000000000000000e+03 1.178747272491455078e+01 -1.061770057678222656e+01 -8.080194906180324099e-14 -3.462940722479164457e-14 -3.462940722479164457e-14 -1.747537661453413271e-13
6.124000000000000000e+03 4.476378250122070312e+01 1.377416324615478516e+01 1.096114589745804738e-14 9.619953081742640966e-14 3.214820377679498964e-14 -2.756743773958247185e-14
6.125000000000000000e+03 6.902401733398437500e+01 2.383110618591308594e+01 -3.367765051207061155e-14 -1.516861316457410180e-13 -5.560913261446441547e-14 -1.465099471863878788e-13
6.126000000000000000e+03 7.059045410156250000e+01 2.376423645019531250e+01 -1.347065498426627816e-13 -2.913703553062384211e-14 -4.915307459554645042e-14 1.053959911424644236e-13
6.127000000000000000e+03 1.017599868774414062e+01 -1.224767875671386719e+01 -5.563282920819680177e-14 -2.525973950406185109e-13 -9.246906219244691028e-14 1.500975247412973668e-14
6.128000000000000000e+03 1.242727851867675781e+01 -1.065750217437744141e+01 -2.419767640112532175e-14 -1.018723273056229561e-13 -3.782100026499153611e-14 7.561591869147121781e-14
6.129000000000000000e+03 1.287028789520263672e+01 -1.762966918945312500e+01 -7.210083360431954191e-14 -3.511570103708477886e-13 -1.269773538701765569e-13 -9.239250396654227759e-14
6.130000000000000000e+03 4.484915161132812500e+01 -1.328521251678466797e+01 -2.334060272531426894e-14 3.560044782840304789e-13 9.979916334524122079e-14 1.825365352576754918e-13
6.131000000000000000e+03 5.551859664916992188e+01 2.570188713073730469e+01 6.044391875036081441e-14 1.174064372198163619e-13 5.335510679105315290e-14 -1.704300932423453291e-14
6.132000000000000000e+03 6.898623657226562500e+01 -1.230664920806884766e+01 7.938058034246547878e-14 1.555462030879140034e-13 7.047804045012470708e-14 2.160120362746861811e-13
6.133000000000000000e+03 7.054047393798828125e+01 -7.765317440032958984e+00 6.890564914442329214e-14 3.040366894878354653e-13 1.118826982015458382e-13 1.611512437165937839e-13
6.134000000000000000e+03 6.974773406982421875e+01 -8.481659889221191406e+00 1.600866859322210012e-14 5.261180827478319222e-14 2.058614306040158770e-14 -1.374165690769648188e-14
6.135000000000000000e+03 5.674324035644531250e+01 2.332150840759277344e+01 4.690874899344714410e-14 6.585469745478550463e-14 3.382903224040390011e-14 1.969054124395172578e-14
6.136000000000000000e+03 6.954635620117187500e+01 4.897294521331787109e+00 1.034509934313976309e-13 2.902474809975130743e-13 1.181095423286732116e-13 3.624067734277203190e-14
6.137000000000000000e+03 1.072949409484863281e+01 -1.213830566406250000e+01 -1.700798383423920979e-13 -5.001588607254220387e-14 -6.602871867973300612e-14 7.830635960623041902e-14
6.138000000000000000e+03 1.239704895019531250e+01 -1.144261169433593750e+01 -1.379067470435408824e-14 -5.910289280013601709e-15 -5.910289280013601709e-15 -2.144500905792903062e-14
6.139000000000000000e+03 1.476800155639648438e+01 -1.659509277343750000e+01 -1.372236878164137530e-13 -2.875648937722408149e-13 -1.274365812528599484e-13 1.481109478769157550e-13
6.140000000000000000e+03 1.411145877838134766e+01 -1.569125747680664062e+01 -1.593904045207872322e-13 -3.885668100212652520e-13 -1.643871670731211765e-13 9.791237373830974366e-14
6.141000000000000000e+03 4.295528411865234375e+01 1.125185108184814453e+01 -1.534720836743677652e-13 1.629809975129889454e-13 2.852673558663290990e-15 -9.141799594885799407e-14
6.142000000000000000e+03 4.977154922485351562e+01 1.839422035217285156e+01 -2.018802741079669949e-14 -5.440296108570608080e-14 -2.237729587132447628e-14 -6.666141163375050027e-14
6.143000000000000000e+03 4.893664932250976562e+01 1.824930763244628906e+01 -4.207879433348188369e-14 2.450341904207398169e-13 6.088661882617737997e-14 -1.560944333045630877e-14
6.144000000000000000e+03 1.228516006469726562e+01 -1.223205184936523438e+01 -2.268391163383516596e-14 -1.240990546002435080e-13 -4.403488817615770767e-14 -5.665665487220201968e-14
6.145000000000000000e+03 1.321124267578125000e+01 -1.860294723510742188e+01 -3.901878277944026419e-14 -2.569148236167273502e-13 -8.878007785309213751e-14 -8.584036530635136275e-14
6.146000000000000000e+03 6.613584136962890625e+01 -2.151465034484863281e+01 -7.962907609226736738e-15 2.482175435244288186e-13 7.207639162159357182e-14 6.400667485178396232e-14
6.147000000000000000e+03 1.565024185180664062e+01 -2.152536582946777344e+01 -4.500956560043144206e-14 -2.937955055019175754e-13 -1.016415209918915263e-13 1.085958715530202512e-13
6.148000000000000000e+03 1.319161224365234375e+01 -2.265569114685058594e+01 4.463995430356755556e-14 1.106333042755550111e-13 4.658197723492359110e-14 -1.379036723139423493e-13
6.149000000000000000e+03 3.660326385498046875e+01 -3.718910217285156250e+00 -6.702194273741982067e-14 -1.202255932612403266e-13 -5.617425944434532858e-14 -9.100114054232805172e-14
6.150000000000000000e+03 6.866987609863281250e+01 -1.724374771118164062e+01 -5.662026464272208043e-15 1.805772057491411564e-13 5.247455505601010539e-14 1.713585429964897128e-14
6.151000000000000000e+03 9.923432350158691406e+00 -9.053204536437988281e+00 -4.118301294604720386e-15 -7.039141269654311528e-14 -2.235291318090481399e-14 7.315737506887950992e-14
6.152000000000000000e+03 4.124147033691406250e+01 9.817834854125976562e+00 4.781297360530005480e-14 -6.529175258177671859e-14 -5.243633692942999136e-15 1.168051827406691584e-14
6.153000000000000000e+03 1.275278091430664062e+01 -2.131164169311523438e+01 9.291872657315580070e-15 -3.162744046693310995e-13 -9.209476172118702397e-14 -1.332082637554507509e-13
6.154000000000000000e+03 6.898140716552734375e+01 3.737805128097534180e+00 4.090623984833417770e-14 1.204708804502380159e-13 4.841313710601119480e-14 -6.510379935891277836e-14
6.155000000000000000e+03 5.128307723999023438e+01 1.787042617797851562e+01 3.112330068688086426e-14 5.908950629143761013e-14 2.706384277112190012e-14 -1.204348036229485608e-13
6.156000000000000000e+03 4.107849884033203125e+01 -1.131122589111328125e+01 -4.332801207661968190e-14 2.101856015623848606e-13 5.005727549047683800e-14 -1.347944108762155757e-13
6.157000000000000000e+03 4.118497467041015625e+01 -1.205239105224609375e+01 -2.856617936988770090e-14 1.250102045534731698e-13 2.893320552219656727e-14 -9.820214709769722883e-14
6.158000000000000000e+03 3.974814987182617188e+01 -1.015090274810791016e+01 1.286045634541583757e-14 5.126257288123360623e-14 1.923690936091789622e-14 5.255837404833860194e-14
6.159000000000000000e+03 6.931098937988281250e+01 -5.251343250274658203e+00 -6.239822027132024829e-14 2.935145345089179569e-13 6.933489833703745941e-14 1.923312989990724753e-14
6.160000000000000000e+03 7.001837921142578125e+01 -5.064640522003173828e+00 1.721508000171109720e-13 3.025336600161188105e-13 1.424053339442107879e-13 -8.923404007897539625e-14
6.161000000000000000e+03 1.267496871948242188e+01 -1.464849948883056641e+01 -9.025993927963549268e-14 -2.674375749068397257e-13 -1.073092556111952811e-13 3.411890004396500413e-16
6.162000000000000000e+03 3.640749740600585938e+01 -2.979147195816040039e+00 -6.580061609516921206e-14 -7.395121434704624019e-14 -4.192554913266463568e-14 -1.310809913303984109e-13
6.163000000000000000e+03 9.745477676391601562e+00 -1.690761184692382812e+01 -6.560834639240606392e-14 -2.111216610605273769e-13 -8.301900020300095884e-14 2.295490627278202328e-14
6.164000000000000000e+03 1.068032360076904297e+01 -1.695159339904785156e+01 -9.305723509475671840e-14 -3.143873778931743912e-13 -1.222333866068847641e-13 3.271065737069436818e-14
6.165000000000000000e+03 1.278203296661376953e+01 -1.929534530639648438e+01 -6.128967776006244428e-14 -2.435840158049318305e-13 -9.146210942475099803e-14 -1.782084137376405142e-14
6.166000000000000000e+03 1.144847393035888672e+01 -1.949627304077148438e+01 -1.084640122400552797e-13 -1.837374246889747487e-13 -8.766042904582993511e-14 -1.303784452632867491e-14
6.167000000000000000e+03 4.458839035034179688e+01 -1.252721118927001953e+01 -7.404344607060686645e-14 1.055199425558338289e-13 9.442946912689015315e-15 5.851088792077283052e-14
6.168000000000000000e+03 3.870298385620117188e+01 -6.575760364532470703e+00 5.693687031181268732e-14 2.074053141688445012e-13 7.930265331131808315e-14 1.051229416015875273e-13
6.169000000000000000e+03 3.830428314208984375e+01 -4.322829246520996094e+00 -1.064422394626493573e-13 1.373856947260373995e-13 9.283036409609823209e-15 -2.658028351999568162e-14
6.170000000000000000e+03 4.872555923461914062e+01 -2.028505897521972656e+01 1.828921163008010581e-14 1.450910789083104113e-13 4.901408665329738679e-14 7.459773765502650256e-14
6.171000000000000000e+03 3.565076828002929688e+01 3.335533857345581055e+00 4.880166095452137531e-14 2.496697510193102154e-13 8.954141817113861479e-14 -3.817198700141119505e-14
6.172000000000000000e+03 3.927384567260742188e+01 5.347131729125976562e+00 5.543817764878597454e-14 8.837451021937554278e-16 1.689657765644499848e-14 4.774017620568123121e-14
6.173000000000000000e+03 1.479072189331054688e+01 -1.924744606018066406e+01 4.373577712555969110e-14 -1.985731051161801486e-13 -4.645119873599931615e-14 9.807764003071442471e-14
6.174000000000000000e+03 1.356300640106201172e+01 -1.790630722045898438e+01 -7.817005506435825701e-14 -2.622561998295858121e-13 -1.021278737576777895e-13 -1.655767469205086939e-14
6.175000000000000000e+03 6.797155761718750000e+01 -1.781580734252929688e+01 2.983750941633334097e-13 1.736259925980490615e-13 1.416003273836674570e-13 -3.997376499362444158e-14
6.176000000000000000e+03 6.911296081542968750e+01 -1.928011703491210938e+01 7.870071781768128716e-14 1.252307719329381897e-13 6.117944828043855865e-14 3.212576417995632871e-14
6.177000000000000000e+03 7.007470703125000000e+01 1.364662551879882812e+01 -2.719483811048067218e-14 3.409601702537845558e-14 2.070354140337456010e-15 -6.852643588206933090e-14
6.178000000000000000e+03 3.596507263183593750e+01 1.119600892066955566e+00 7.503181832357180836e-14 1.236583941797639308e-13 5.960706375100072174e-14 -2.679059231402991514e-13
6.179000000000000000e+03 3.464450454711914062e+01 -1.846006512641906738e+00 -7.576074967874867842e-16 1.369281614092485166e-13 4.085116576610370309e-14 -5.989433666912791221e-14
6.180000000000000000e+03 4.577806472778320312e+01 -1.423085308074951172e+01 -9.399141756788811919e-14 1.655972315653050919e-13 2.148174487685144962e-14 9.342765276698639099e-14
6.181000000000000000e+03 6.966545867919921875e+01 -5.814936757087707520e-01 6.840728206331317396e-14 7.506835593678456986e-14 4.304269072240296534e-14 -5.375042723193210192e-14
6.182000000000000000e+03 6.909287261962890625e+01 1.222353458404541016e+00 8.897556628105485199e-14 1.181965495530151733e-13 6.215163203971557637e-14 8.066454845929733192e-15
6.183000000000000000e+03 4.087282943725585938e+01 9.396759033203125000e+00 7.104286912440818669e-14 -1.068059012000917296e-13 -1.072890894507870507e-14 -8.732498366992649808e-14
6.184000000000000000e+03 6.743566894531250000e+01 -2.721356773376464844e+01 8.054261806654007538e-15 3.008329804883580483e-13 9.266617692366835302e-14 1.336043363615868618e-14
6.185000000000000000e+03 3.741768646240234375e+01 -3.521909952163696289e+00 -2.768059625913796284e-14 -3.473858638356093487e-14 -1.872575547043602712e-14 -3.652710322795196807e-14
6.186000000000000000e+03 3.751771545410156250e+01 -4.394589900970458984e+00 3.560633098044149736e-14 -7.624203866981801858e-14 -1.219071332325249307e-14 -3.841815171654223982e-14
6.187000000000000000e+03 3.999255371093750000e+01 -7.025523185729980469e+00 -2.655404074522384889e-14 2.631253776062131289e-13 7.097140664871423588e-14 -4.387851911783098580e-14
6.188000000000000000e+03 3.908225631713867188e+01 -8.503792762756347656e+00 2.675649856027657175e-14 3.317237164211089828e-13 1.075440666967013292e-13 8.521240387837723113e-15
6.189000000000000000e+03 7.061478424072265625e+01 -3.990291357040405273e-01 2.149286337013028847e-13 4.123689237300887100e-13 1.881892672294174784e-13 1.688259144841993548e-14
6.190000000000000000e+03 3.540593719482421875e+01 9.507436156272888184e-01 -3.217234421579173720e-14 4.894722864870471035e-13 1.371899826813766099e-13 6.723739403788342450e-14
6.191000000000000000e+03 3.575632858276367188e+01 2.551857471466064453e+00 1.005559093565817907e-13 -4.840650992023187715e-14 1.564481881446543737e-14 -1.145559748406618783e-13
6.192000000000000000e+03 1.439478015899658203e+01 -2.005527496337890625e+01 -1.515660427026110924e-13 -3.280248251844031238e-13 -1.438772603661042648e-13 3.146159548161886477e-14
6.193000000000000000e+03 4.729913330078125000e+01 -1.581135654449462891e+01 -3.093888128547286898e-14 -1.325952067192165060e-14 -1.325952067192165060e-14 1.693472547929049041e-15
6.194000000000000000e+03 4.269791412353515625e+01 -1.143827629089355469e+01 1.143142519663062351e-13 4.607503614750818599e-13 1.725193880981745753e-13 2.140022981413948477e-14
6.195000000000000000e+03 4.194427490234375000e+01 -1.126348686218261719e+01 -4.937553932881331986e-14 2.459000342756867408e-14 -7.435661786812930441e-15 -2.362619174194231786e-14
6.196000000000000000e+03 6.994281768798828125e+01 -1.402785491943359375e+01 3.473021769804206238e-14 6.063532786764955218e-14 2.860966265326794766e-14 -1.626487573097579187e-14
6.197000000000000000e+03 6.963855743408203125e+01 -1.537560367584228516e+01 7.467265602514525091e-14 7.775351136595290424e-14 4.572784953970308874e-14 -3.713873894290072031e-14
6.198000000000000000e+03 1.898471450805664062e+01 -2.940335083007812500e+01 5.557927385604075413e-15 -1.691840840600117302e-13 -4.908784967047608028e-14 -1.461865025732811407e-14
6.199000000000000000e+03 5.127933502197265625e+01 -2.317324447631835938e+01 -2.701394914239683281e-14 3.201169797989456001e-13 8.793090360654717830e-14 1.119018530046150470e-14
6.200000000000000000e+03 4.992588424682617188e+01 -2.051896095275878906e+01 3.618479688517577120e-14 3.357644023926908972e-13 1.115847594445468216e-13 -8.168467936558662656e-14
6.201000000000000000e+03 5.117189788818359375e+01 -2.048693275451660156e+01 -5.976719363561325271e-14 1.573892790185035806e-13 2.928662493724074056e-14 5.931651112130176262e-14
6.202000000000000000e+03 4.712660598754882812e+01 -1.492987823486328125e+01 -4.072138676605718821e-14 1.655517763892236371e-13 3.744911553169721907e-14 -1.409598084804920435e-16
6.203000000000000000e+03 4.640771484375000000e+01 -1.556434822082519531e+01 4.216579139342847837e-15 2.305618532465886217e-13 7.043352717468059909e-14 1.069458852530867643e-13
6.204000000000000000e+03 1.321670913696289062e+01 -2.518642616271972656e+01 -7.324307447435091101e-15 -9.464088855052482652e-14 -3.058955812176161748e-14 2.763555274106887366e-14
6.205000000000000000e+03 6.961013793945312500e+01 -1.853469276428222656e+01 2.266499569405708292e-14 3.757211555766026834e-13 1.195158474140770033e-13 5.719395497569973452e-14
6.206000000000000000e+03 1.274195384979248047e+01 -2.361180686950683594e+01 3.520647721922884332e-14 -7.641340359944293059e-14 -1.236207825287740508e-14 5.493581934842839409e-14
6.207000000000000000e+03 4.309828948974609375e+01 -1.256061363220214844e+01 2.517594948026015064e-15 2.755846495016561759e-13 8.343067854415728291e-14 -3.862455331699737870e-14
6.208000000000000000e+03 1.787374877929687500e+01 -3.119094276428222656e+01 -1.381517852048520789e-14 -1.774868500867970988e-13 -5.739060892099787092e-14 -2.825602131559159375e-14
6.209000000000000000e+03 1.764918327331542969e+01 -2.953142738342285156e+01 1.438962440685181282e-14 -1.670849229644128658e-14 -6.956605892229907832e-16 -5.062288004694000254e-14
6.210000000000000000e+03 6.625207519531250000e+01 -2.810295104980468750e+01 6.075721590875944600e-15 2.771095798572570379e-13 8.495558857096741079e-14 3.249086587340903332e-14
6.211000000000000000e+03 1.318522644042968750e+01 -2.831105804443359375e+01 6.195362284170183309e-14 -1.107012973042970083e-13 -1.462430166115219476e-14 -3.283405990671395269e-14
6.212000000000000000e+03 1.469243431091308594e+01 -2.454167747497558594e+01 -4.311213725968245092e-14 -3.044200633760263397e-13 -1.042596591742731005e-13 5.985361132502392545e-14
6.213000000000000000e+03 5.560559844970703125e+01 -2.261523056030273438e+01 -1.026308063463736084e-14 2.701072330212050954e-13 7.795324173491546826e-14 2.110252145010212133e-14
6.214000000000000000e+03 6.342524719238281250e+01 -3.032091331481933594e+01 5.822845410187330387e-15 1.626238206597907521e-13 5.053400257385050331e-14 5.142387167131334813e-14
6.215000000000000000e+03 6.168998718261718750e+01 -3.174181747436523438e+01 4.297988492342995348e-14 3.043633867074596600e-13 1.042029825057064207e-13 4.857577420814759850e-14
6.216000000000000000e+03 1.505132102966308594e+01 -2.346681022644042969e+01 2.734154591101101150e-14 -3.403314346376966337e-14 -2.007479308179242923e-15 -1.288509568681851791e-14
6.217000000000000000e+03 1.632181549072265625e+01 -2.788042259216308594e+01 2.985531608176369978e-14 -1.473331818959561224e-13 -3.524336042188408458e-14 6.089961569972004995e-14
6.218000000000000000e+03 1.759671592712402344e+01 -2.802922248840332031e+01 -2.357725864857943693e-14 -2.159838063606200897e-13 -7.186831967216644745e-14 -3.798363397899615079e-14
6.219000000000000000e+03 1.428306198120117188e+01 -2.570890808105468750e+01 5.814204234169326191e-14 -5.514614440549521490e-14 8.987691902770009698e-16 -8.379711854966664930e-14
6.220000000000000000e+03 1.611979103088378906e+01 -2.953850746154785156e+01 3.184097476243048785e-14 -7.785576518334544338e-14 -1.380443814271402336e-14 -3.576178185505339557e-15
6.221000000000000000e+03 6.363635635375976562e+01 2.421377944946289062e+01 1.882293284996908178e-13 3.551754159877851258e-13 1.630214111489683426e-13 1.117212672743263246e-13
6.222000000000000000e+03 6.668449401855468750e+01 2.434721374511718750e+01 -4.982559503874384177e-14 -6.067104555296937152e-14 -3.314899353276667959e-14 -2.617166974404252361e-14
6.223000000000000000e+03 6.512818908691406250e+01 2.525844192504882812e+01 2.131304979507628317e-13 4.573492192599948325e-13 2.011439246499963085e-13 5.392859722425525498e-15
6.224000000000000000e+03 6.197571945190429688e+01 2.469937324523925781e+01 7.000917044436977266e-14 1.901322523902015948e-13 7.804242413986597904e-14 6.742753599388306984e-14
6.225000000000000000e+03 6.980831909179687500e+01 2.299017143249511719e+01 3.346972425231041492e-14 1.973479566612715286e-13 6.924530935627226658e-14 -3.462237219264822398e-15
6.226000000000000000e+03 6.346345138549804688e+01 2.526643562316894531e+01 3.843320518608084324e-14 3.934684880430722176e-14 2.333401619711641950e-14 1.481016237382323797e-13
6.227000000000000000e+03 6.316651535034179688e+01 2.418449211120605469e+01 7.560908144152098109e-14 1.696567419971067858e-13 7.357974635396197227e-14 1.739439924833708490e-14
6.228000000000000000e+03 6.633026123046875000e+01 2.477411079406738281e+01 6.534027740525902295e-14 2.567577227219342006e-13 9.662939665002617806e-14 1.233462676208984046e-14
6.229000000000000000e+03 6.368389892578125000e+01 2.461955070495605469e+01 9.019384699282713413e-15 9.536735143993516073e-14 3.131602101117195169e-14 9.560569295876536478e-14
6.230000000000000000e+03 5.910237121582031250e+01 2.615292739868164062e+01 1.544756178170885591e-14 -2.678852961939676147e-13 -7.573132523646872172e-14 7.330500952345414545e-14
6.231000000000000000e+03 6.185807037353515625e+01 2.551913070678710938e+01 -4.373329362495834149e-14 2.557628588084615018e-13 6.360886752217187468e-14 1.129502578706836902e-13
6.232000000000000000e+03 6.820132446289062500e+01 2.464038467407226562e+01 3.460866847011107028e-14 -2.139224534276548684e-13 -5.379413752014221284e-14 -1.261474513172475276e-13
6.233000000000000000e+03 5.710450363159179688e+01 2.599757957458496094e+01 -9.089940849723102123e-15 8.760620538467850382e-14 2.355488003811297831e-14 2.753951614550918109e-14
6.234000000000000000e+03 5.533847427368164062e+01 2.382840156555175781e+01 2.777695642128350656e-14 1.190441025784990878e-14 1.190441025784990878e-14 6.915444643795440327e-15
6.235000000000000000e+03 4.491686630249023438e+01 1.209182071685791016e+01 -1.924264512922352344e-13 -1.510949026485575164e-13 -1.030564116032486877e-13 -1.307634285140774066e-13
6.236000000000000000e+03 4.572654342651367188e+01 1.283360671997070312e+01 -4.395164516623334405e-14 7.266547931948641459e-14 8.614149737756152808e-15 -9.242748981539566921e-14
6.237000000000000000e+03 6.710881805419921875e+01 2.399054336547851562e+01 1.155108723515513303e-13 2.782594033662322275e-13 1.181310908468513610e-13 -5.276086235657742596e-14
6.238000000000000000e+03 6.924995422363281250e+01 2.521531105041503906e+01 -5.426462705289229749e-14 1.139965807297679823e-13 1.791958508662316873e-14 -2.448237942129054268e-14
6.239000000000000000e+03 5.856134414672851562e+01 2.586509323120117188e+01 9.393389556044007965e-15 1.412785903889823835e-13 4.520159135770578096e-14 1.043026410141485727e-13
6.240000000000000000e+03 6.528395080566406250e+01 2.429537010192871094e+01 1.531783733058414421e-13 2.486516580742920146e-13 1.205490107692927526e-13 1.048470528062714346e-13
6.241000000000000000e+03 5.636936187744140625e+01 2.459142684936523438e+01 -2.409099090735274812e-14 -2.162039807167975836e-13 -7.208849402834394127e-14 4.008397753258938212e-14
6.242000000000000000e+03 5.738433074951171875e+01 2.542305564880371094e+01 3.230669041748984727e-14 1.282231021663624015e-13 4.815893574227660123e-14 3.722983564231202580e-14
6.243000000000000000e+03 1.055470657348632812e+01 -1.369615554809570312e+01 -2.964223647355240798e-14 -1.957076129844095846e-13 -6.760495212688316657e-14 4.335624876694935126e-14
6.244000000000000000e+03 1.051454925537109375e+01 -1.437657356262207031e+01 2.334216465406900587e-14 -2.645019077894550374e-13 -7.234792327942898837e-14 3.253078823027902300e-14
6.245000000000000000e+03 1.057648754119873047e+01 -1.108297443389892578e+01 -1.844634132399346205e-14 8.359632430732233388e-14 1.954499557262501935e-14 -4.534895476173729512e-14
6.246000000000000000e+03 7.133763122558593750e+01 2.515293312072753906e+01 -2.554275709806862540e-15 -2.298494239990483967e-13 -6.972111147966753020e-14 6.039503478490887423e-14
6.247000000000000000e+03 4.400827789306640625e+01 1.122809028625488281e+01 -2.387261395508932793e-13 8.069259372018092180e-14 -4.741006374921370725e-14 -5.279157238311307787e-14
6.248000000000000000e+03 4.362264633178710938e+01 1.174768447875976562e+01 3.531343090480834135e-16 4.590229089299242837e-14 1.387662821970966562e-14 -1.094884748728368329e-13
6.249000000000000000e+03 3.997640609741210938e+01 -8.602389335632324219e+00 -8.127575896370656250e-14 1.939222708195048606e-13 3.379395491199220503e-14 -4.770858865301222385e-14
6.250000000000000000e+03 4.044341659545898438e+01 -9.810148239135742188e+00 -7.769488313347575059e-14 3.784607447310933681e-13 9.022975780165892745e-14 -1.076122562370870894e-13
6.251000000000000000e+03 4.710454940795898438e+01 1.423328495025634766e+01 -1.273941076327528288e-13 3.118555422037226632e-14 -2.886256636252734764e-14 -2.389245756535124388e-13
6.252000000000000000e+03 4.949147033691406250e+01 1.782131195068359375e+01 -5.100639623666601563e-14 -2.757875240569189479e-14 -2.357554425389419422e-14 7.292755131336689511e-14
6.253000000000000000e+03 4.150227737426757812e+01 9.314809799194335938e+00 -2.634281444510114950e-14 -1.027916765377820396e-13 -3.874034610901883058e-14 -7.113923945094909745e-15
6.254000000000000000e+03 5.377863311767578125e+01 2.131553077697753906e+01 4.892449089626861591e-14 2.039714290481484116e-13 7.586877496688557154e-14 -6.249384012666989174e-14
6.255000000000000000e+03 5.611282730102539062e+01 2.324653625488281250e+01 4.241101759605396537e-14 1.325535276160139109e-13 5.248936119192811056e-14 2.086414435588813260e-14
6.256000000000000000e+03 6.981277465820312500e+01 2.385087013244628906e+01 -4.421535701589970890e-14 -6.997247020083113833e-14 -3.425635019789832758e-14 -8.523756245097657835e-14
6.257000000000000000e+03 6.937773895263671875e+01 2.432061195373535156e+01 6.705141948398427032e-14 1.659891706506586018e-13 6.991217500751378822e-14 -7.117921940605950043e-15
6.258000000000000000e+03 5.365581512451171875e+01 2.046416854858398438e+01 3.399209624714571998e-14 2.090095674658898339e-13 7.290050046916338178e-14 -1.579238296530545080e-15
6.259000000000000000e+03 5.503425216674804688e+01 2.107502746582031250e+01 -2.431256117382731702e-14 4.013388742434703671e-13 1.131078940902995045e-13 -7.664779434484890377e-16
6.260000000000000000e+03 6.959426879882812500e+01 1.870244026184082031e+01 -5.824823316822463903e-14 -2.496352971071476995e-14 -2.496352971071476995e-14 -1.562816038689837650e-13
6.261000000000000000e+03 5.569323730468750000e+01 2.251666641235351562e+01 6.957959599110385973e-14 2.356991012954223752e-13 9.158360783070515487e-14 1.726421367247588795e-14
6.262000000000000000e+03 5.530712127685546875e+01 2.180261611938476562e+01 -9.189541082298482988e-14 1.664955201702636445e-13 2.238003348181000218e-14 -1.233024167252190495e-14
6.263000000000000000e+03 6.950966644287109375e+01 1.575423908233642578e+01 -5.573734968575619342e-14 1.133654124350555459e-13 1.728841848597662684e-14 -6.828887363355060081e-14
6.264000000000000000e+03 6.881813812255859375e+01 2.954313039779663086e+00 8.702504591517196131e-14 3.729644970141589300e-14 3.729644970141589300e-14 -5.890232556262156582e-14
6.265000000000000000e+03 6.887344360351562500e+01 2.130650043487548828e+00 2.208063376238356135e-13 2.600486693387152326e-14 7.404336475544393004e-14 1.796394589613677095e-14
6.266000000000000000e+03 5.414770126342773438e+01 1.974780082702636719e+01 8.034756670757814412e-14 4.004422661518791671e-13 1.442369444368263309e-13 1.446974864146438611e-13
6.267000000000000000e+03 5.283472061157226562e+01 1.988360404968261719e+01 1.626887033835504315e-14 1.442252215008363314e-13 4.814822585769151786e-14 8.820152046879956020e-14
6.268000000000000000e+03 6.920991516113281250e+01 1.328603476285934448e-01 4.579800080839468990e-14 -8.966628099195926571e-15 1.104941181275962900e-14 2.404736701650325714e-14
6.269000000000000000e+03 6.862560272216796875e+01 -3.694254159927368164e+00 1.504073185714261546e-14 9.794792201704011214e-14 3.389659836454048114e-14 -2.806326880404851065e-14
6.270000000000000000e+03 6.849526977539062500e+01 -4.442626953125000000e+00 9.757171572164890366e-15 2.786873379637122561e-13 8.653335345368620701e-14 1.007931124631308850e-13
6.271000000000000000e+03 6.892222595214843750e+01 1.711174774169921875e+01 8.665052182721399987e-14 3.116416358913548512e-13 1.194876446050652241e-13 3.982832604844908919e-14
6.272000000000000000e+03 4.218741989135742188e+01 9.649898529052734375e+00 -4.827093382669435384e-14 -1.579403925353051186e-13 -6.186339689216030502e-14 -1.251908461879364109e-13
6.273000000000000000e+03 4.178844070434570312e+01 1.019772243499755859e+01 8.199505934251491435e-14 8.089168712036715059e-14 4.886602529411733509e-14 -7.963721607889048121e-15
6.274000000000000000e+03 7.002959442138671875e+01 1.292066192626953125e+01 -4.414673379464495451e-14 1.640837666476782641e-13 3.598110917828363509e-14 -1.216936165553128557e-13
6.275000000000000000e+03 4.815601730346679688e+01 1.639472961425781250e+01 6.625549311663550545e-14 1.599291852378767476e-13 6.785540282872731810e-14 -1.742214906412867248e-13
6.276000000000000000e+03 1.005053424835205078e+01 -1.163911628723144531e+01 6.768268942265037724e-14 3.035125590526016603e-13 1.113585745425756113e-13 -6.789278747488733390e-14
6.277000000000000000e+03 6.971385955810546875e+01 6.754438877105712891e+00 8.990613700569916045e-14 2.801533961413471552e-13 1.110178640098720415e-13 -6.120630938926188702e-14
6.278000000000000000e+03 6.919125366210937500e+01 9.762557029724121094e+00 -3.677581581818835377e-14 3.502465244914487741e-13 9.404120955265951598e-14 -3.010169967020831505e-13
6.279000000000000000e+03 6.874841308593750000e+01 9.243231773376464844e+00 -2.351053447519242667e-14 2.758674907434033319e-13 7.570708654165009266e-14 -7.499627004484143988e-14
6.280000000000000000e+03 3.481359863281250000e+01 6.879828572273254395e-01 5.949277528949359350e-14 -1.231936780235823314e-13 -1.911027115903980028e-14 -8.500175525472455917e-14
6.281000000000000000e+03 3.451359939575195312e+01 -1.058468341827392578e+00 5.286649414136361524e-14 -2.309387896843803634e-14 8.931784551877673672e-15 -3.698846174553065136e-14
6.282000000000000000e+03 6.850811767578125000e+01 1.116278648376464844e+01 -1.893470155786471792e-14 1.476060281489256776e-14 -1.252229580539997687e-15 -1.478553336622251413e-13
6.283000000000000000e+03 6.859595489501953125e+01 1.023848152160644531e+01 -3.401648740789485481e-14 3.971800373401418449e-13 1.089490639632345603e-13 -1.313651200622253934e-13
6.284000000000000000e+03 6.966913604736328125e+01 2.483398628234863281e+01 3.386138551085722537e-14 -2.599936596309887493e-13 -6.783968867348985632e-14 -6.555549831276097361e-14
6.285000000000000000e+03 1.113606071472167969e+01 -1.116582870483398438e+01 -5.199452793227393732e-14 2.346757974037126659e-14 -8.558084626977390669e-15 -8.225623686960309433e-14
6.286000000000000000e+03 6.986651611328125000e+01 -1.384118318557739258e+00 8.978502484676895157e-14 1.757321366332650903e-13 7.965514776638385475e-14 -1.445906789481268828e-13
6.287000000000000000e+03 6.923565673828125000e+01 -2.296941518783569336e+00 5.313776491305127747e-14 3.430299664111680080e-13 1.188503234630239325e-13 2.822254826758199830e-14
6.288000000000000000e+03 7.011190032958984375e+01 1.436894130706787109e+01 6.057564931431780320e-14 1.174628970479485446e-13 5.341156323105354653e-14 -2.777048000736880018e-14
6.289000000000000000e+03 5.678553009033203125e+01 2.527123069763183594e+01 2.874705478544438420e-14 1.038220616249307948e-13 3.977073458429937480e-14 9.248071058953755141e-14
6.290000000000000000e+03 4.820678329467773438e+01 1.548834514617919922e+01 2.194579966970783280e-13 -1.175447136543897320e-13 3.057398626805929442e-14 -1.384125154985441086e-13
6.291000000000000000e+03 6.909906005859375000e+01 4.512057781219482422e+00 9.258260526496045473e-14 -6.898024225389029485e-14 7.080709242134226866e-15 -1.618119158629249821e-13
6.292000000000000000e+03 7.102087402343750000e+01 2.108729743957519531e+01 1.198004504843544482e-13 2.572223304578985514e-13 1.131068302169177531e-13 -1.386306705281753482e-13
6.293000000000000000e+03 7.023296356201171875e+01 2.215935134887695312e+01 1.144322673727812822e-13 4.904240127065820354e-14 4.904240127065820354e-14 1.172765311648277589e-14
6.294000000000000000e+03 5.604829406738281250e+01 2.572143936157226562e+01 7.958760874730158585e-14 -5.739291962687798065e-14 6.658405296171071228e-15 1.050676100213410874e-14
6.295000000000000000e+03 1.333927059173583984e+01 -1.553511142730712891e+01 -7.485293851763885620e-14 -2.150836204018596876e-13 -8.698097309686042555e-14 -1.703664065291071728e-13
6.296000000000000000e+03 1.178087711334228516e+01 -1.588708496093750000e+01 -2.472373976554476105e-14 -1.707242067985545453e-13 -5.863438532448250751e-14 -1.528414303756872594e-13
6.297000000000000000e+03 1.194880962371826172e+01 -1.875401687622070312e+01 1.597333461382738698e-15 -1.365682740506191095e-13 -4.049128179560608498e-14 -1.172280724099153404e-13
6.298000000000000000e+03 6.863204193115234375e+01 -1.104566955566406250e+01 1.818153341369335013e-14 1.907958789874528160e-13 6.269322490618997601e-14 2.400773536134076513e-13
6.299000000000000000e+03 6.892274475097656250e+01 -9.230590820312500000e+00 -2.785460562562420278e-14 3.083189628085014622e-13 8.413930630783023057e-14 2.635931837385863119e-13
6.300000000000000000e+03 1.193751621246337891e+01 -1.374284362792968750e+01 -1.604364088954833567e-14 -2.585060529351757008e-13 -8.236491458486761008e-14 2.268845850669602704e-14
6.301000000000000000e+03 6.882118225097656250e+01 -9.486838579177856445e-01 1.177286214478975857e-13 5.045512347767039385e-14 5.045512347767039385e-14 -5.411506813946150019e-14
6.302000000000000000e+03 6.833331298828125000e+01 4.451326847076416016e+00 8.281487712117393402e-15 4.953719183985183516e-13 1.510960139557843140e-13 -8.965380927884389339e-14
6.303000000000000000e+03 4.950933837890625000e+01 1.684716033935546875e+01 -2.953719083556571867e-14 2.618468864044182220e-13 6.969290867065575101e-14 2.905206796161886873e-14
6.304000000000000000e+03 5.216357040405273438e+01 1.732743263244628906e+01 -1.203766497289218695e-13 -1.888428378515188966e-13 -9.276584898463766105e-14 -1.338960816136755549e-13
6.305000000000000000e+03 5.258383560180664062e+01 1.816893005371093750e+01 -1.073458880920981351e-13 1.141229444929711678e-13 2.033114336811420696e-15 -9.594962221666850088e-14
6.306000000000000000e+03 1.173738574981689453e+01 -1.130955123901367188e+01 -4.900050363295521683e-14 -1.353775896722683725e-13 -5.531342663631436118e-14 -1.128892037358456002e-13
6.307000000000000000e+03 3.531773376464843750e+01 -1.738612413406372070e+00 -3.875397995133783580e-14 9.776852043881165133e-14 1.770436248505532356e-14 -1.334043552708719105e-13
6.308000000000000000e+03 6.959980773925781250e+01 -5.922440528869628906e+00 1.605257132731782721e-13 1.231259831504377678e-13 8.509551163759024317e-14 2.061274836527484527e-14
6.309000000000000000e+03 4.641892242431640625e+01 1.307415008544921875e+01 -5.122285042413916856e-14 -2.049564402743786484e-13 -7.685378619311580839e-14 -2.001425148659072284e-13
6.310000000000000000e+03 4.761655426025390625e+01 1.377556133270263672e+01 1.327348062192534872e-13 -8.036649958801517224e-14 1.571049097293195779e-14 1.853187301694130679e-14
6.311000000000000000e+03 1.178255748748779297e+01 -9.949494361877441406e+00 -2.122976138418594672e-13 -2.282375406292141973e-13 -1.321605449860693837e-13 -1.382950015355738360e-13
6.312000000000000000e+03 6.823141479492187500e+01 -8.188151359558105469e+00 -1.304761589840820052e-14 4.976685838604943957e-13 1.453862936073510581e-13 7.200686715728293885e-14
6.313000000000000000e+03 3.887878799438476562e+01 7.006199836730957031e+00 4.551357900316795740e-16 1.831988472597925743e-13 5.509619656666152332e-14 6.790470692252109641e-14
6.314000000000000000e+03 3.919793319702148438e+01 7.734429359436035156e+00 -2.441256188358015972e-14 -1.046252640052964741e-14 -1.046252640052964741e-14 -8.694320220367646179e-14
6.315000000000000000e+03 3.927765655517578125e+01 -6.376611709594726562e+00 2.728954825244496452e-14 4.692050242262324478e-13 1.489483720824164026e-13 2.353695173875139379e-14
6.316000000000000000e+03 3.906594085693359375e+01 -5.073303699493408203e+00 3.689391762202402086e-15 2.303359055138426426e-13 7.020759299446177604e-14 1.124014889410801521e-13
6.317000000000000000e+03 3.654063796997070312e+01 2.590819597244262695e+00 -3.906015525671595323e-14 -6.249101442475785140e-14 -3.046535259850803590e-14 -2.350993138773398161e-14
6.318000000000000000e+03 3.586222457885742188e+01 1.805824398994445801e+00 3.977360094379288336e-15 1.160819487408537576e-13 3.601779586929511334e-14 -4.204204326796641411e-14
6.319000000000000000e+03 6.996322631835937500e+01 -6.854465007781982422e+00 8.774527464209050387e-14 3.121107972764436411e-13 1.199568195426811701e-13 3.772610208171295332e-14
6.320000000000000000e+03 6.925259399414062500e+01 -6.574077129364013672e+00 2.125886848557221459e-14 3.293675824699721089e-13 1.051879395218280333e-13 -1.360364999900692817e-13
6.321000000000000000e+03 3.671563339233398438e+01 -2.141711473464965820e+00 -9.399475487770030113e-15 -1.184057192571419392e-13 -3.834155960931971696e-14 -1.165978121345223606e-13
6.322000000000000000e+03 3.980364990234375000e+01 -9.420946121215820312e+00 5.719909815975546263e-14 1.846422185069682143e-13 7.255239703289617648e-14 5.209682918351152270e-14
6.323000000000000000e+03 1.359738349914550781e+01 -1.970530891418457031e+01 7.449891940326802686e-15 -2.141241963469001086e-13 -6.200228996671927617e-14 -4.397837413791690075e-14
6.324000000000000000e+03 3.756885147094726562e+01 5.661396026611328125e+00 8.676836782709959617e-14 1.058128668777851000e-13 5.777436905621269325e-14 2.412098434401502289e-14
6.325000000000000000e+03 3.674163818359375000e+01 5.793401718139648438e+00 2.776957368211523808e-14 1.720295726616999366e-13 5.993974441136432074e-14 -1.057608116209786397e-13
6.326000000000000000e+03 5.001231384277343750e+01 1.729911041259765625e+01 2.185970453044347450e-14 2.838741340518285972e-13 9.172014954180254809e-14 -1.608816839514595753e-13
6.327000000000000000e+03 9.633775711059570312e+00 -1.490641212463378906e+01 -6.393948819840775122e-14 -2.561573728739746647e-13 -9.602906035459379819e-14 2.242704211631672134e-14
6.328000000000000000e+03 6.910018920898437500e+01 -7.447270393371582031e+00 3.758815090779132895e-14 1.991129971404964616e-13 7.101034305923362155e-14 1.300716397653958745e-13
6.329000000000000000e+03 6.935095977783203125e+01 -1.668982887268066406e+01 3.286564542650388665e-13 3.696075021562827967e-13 2.094791896369019302e-13 -5.931733104919470478e-14
6.330000000000000000e+03 7.032473754882812500e+01 -1.488551425933837891e+01 -1.412694153280977249e-13 3.054635537569350134e-13 4.925824220627754435e-14 4.014460137469026690e-14
6.331000000000000000e+03 1.193886566162109375e+01 -1.450380229949951172e+01 -1.057871509575064595e-13 -1.368392432785775492e-13 -7.278791962607791821e-14 -1.733597938596495580e-14
6.332000000000000000e+03 6.793600463867187500e+01 -2.225205421447753906e+01 6.438702652641903335e-14 1.762850255311240733e-13 7.220161697251564759e-14 1.660228791738275339e-14
6.333000000000000000e+03 3.653872680664062500e+01 -1.610772728919982910e+00 -9.521599851072207882e-15 -4.983163607772365944e-14 -1.780597086334205492e-14 -5.656905811292876896e-14
6.334000000000000000e+03 5.551525878906250000e+01 2.317014312744140625e+01 7.727735687685158283e-14 -1.263208271030892213e-14 1.939358165703973513e-14 7.830105379184881809e-14
6.335000000000000000e+03 6.837165069580078125e+01 -1.182205772399902344e+01 -1.950490550323147332e-14 1.517690731119361591e-13 3.967925163786412135e-14 -1.340165093699843823e-13
6.336000000000000000e+03 3.861524581909179688e+01 6.262333869934082031e+00 5.728108417278610087e-14 1.618018869928294912e-13 6.572489134968467761e-14 6.920484151018424512e-14
6.337000000000000000e+03 3.734112167358398438e+01 4.104832649230957031e+00 1.368120162515210070e-13 5.863372125065186014e-14 5.863372125065186014e-14 -6.727095687138542890e-14
6.338000000000000000e+03 4.662549972534179688e+01 -1.414424037933349609e+01 -7.822970990076748288e-15 -3.352702094899448482e-15 -3.352702094899448482e-15 1.094035886189947959e-13
6.339000000000000000e+03 1.233532428741455078e+01 -2.003541183471679688e+01 -6.828406926267377441e-14 -2.122683945933109828e-13 -8.416574051204814277e-14 -8.478589737844627328e-14
6.340000000000000000e+03 1.399811935424804688e+01 -2.088311576843261719e+01 3.157962782875285701e-14 -1.694696629122444120e-13 -4.136701221911336102e-14 -5.988711317215372754e-14
6.341000000000000000e+03 1.125707244873046875e+01 -1.262670707702636719e+01 2.575611707418545837e-14 -3.994010750419058151e-16 7.607014857976580890e-15 -5.167217768573505177e-14
6.342000000000000000e+03 6.397034454345703125e+01 -2.752106285095214844e+01 3.606368811437735133e-14 1.755841836943022871e-13 6.349436222023024934e-14 4.963276629423550579e-14
6.343000000000000000e+03 6.600095367431640625e+01 -2.462464904785156250e+01 -1.379010380414763884e-14 1.256239307457357457e-13 3.355014833658631623e-14 2.398428508478944038e-14
6.344000000000000000e+03 4.197112655639648438e+01 -8.342350006103515625e+00 -9.443859675392976549e-14 1.882810584958455324e-13 2.815273920020108789e-14 -2.005377607678868190e-14
6.345000000000000000e+03 1.117168521881103516e+01 -1.053813552856445312e+01 -1.267398593842936072e-13 -8.566134828108095539e-15 -4.059180088952264731e-14 -1.003837312753275146e-13
6.346000000000000000e+03 6.770647430419921875e+01 -1.927954864501953125e+01 7.385732921517257354e-14 1.002795665516059698e-13 5.224106873003356299e-14 2.311179540933835930e-14
6.347000000000000000e+03 1.399292087554931641e+01 -1.894013023376464844e+01 -2.186951656010446832e-13 -2.424170890066856821e-13 -1.383336804480772564e-13 -1.146889471549195419e-14
6.348000000000000000e+03 3.955628967285156250e+01 8.436453819274902344e+00 -1.408759702181639969e-14 -8.610169868750183753e-14 -3.005679133859760765e-14 -5.626616929538599821e-14
6.349000000000000000e+03 4.030852127075195312e+01 8.164178848266601562e+00 8.581900652355339831e-14 -1.004732728222476612e-13 -4.396280567234636671e-15 -8.291772894382723469e-14
6.350000000000000000e+03 6.932135772705078125e+01 1.292622280120849609e+01 -3.454391449535937353e-14 -1.520573760221272108e-13 -5.598039054337776432e-14 -1.586401772750087313e-13
6.351000000000000000e+03 4.895819091796875000e+01 -1.817212867736816406e+01 3.884320301386981478e-14 3.952256070701744284e-14 2.350972979389253509e-14 9.787287489791338113e-14
6.352000000000000000e+03 4.784406661987304688e+01 -1.801225852966308594e+01 1.389639203946795021e-14 2.804612824532787263e-13 8.830730471951625526e-14 -6.294574914468900606e-14
6.353000000000000000e+03 1.380999374389648438e+01 -1.717753219604492188e+01 -7.559676897059969258e-14 -2.611533493797335570e-13 -1.010250368603526905e-13 -6.305502317114838884e-14
6.354000000000000000e+03 1.161298274993896484e+01 -1.657990264892578125e+01 -1.323508089148134337e-13 -1.939746242319087544e-13 -9.789762858876394080e-14 -3.495274680581292315e-14
6.355000000000000000e+03 4.163668060302734375e+01 -1.007381629943847656e+01 -6.416234595496214665e-14 3.270717030545711168e-13 7.887280780750904885e-14 -9.478146891471472824e-14
6.356000000000000000e+03 3.914575576782226562e+01 -5.751012325286865234e+00 3.198530240037904260e-14 3.658346141213048019e-14 2.057062880493967794e-14 1.132060279394365987e-13
6.357000000000000000e+03 3.828739547729492188e+01 -3.447370290756225586e+00 -7.952541620018238611e-15 -4.915918000903025942e-14 -1.713351648871454941e-14 4.318026581369600880e-14
6.358000000000000000e+03 6.907330322265625000e+01 -1.611819863319396973e+00 1.361216369656637060e-13 5.833784247778056598e-14 5.833784247778056598e-14 7.163330529875305830e-14
6.359000000000000000e+03 6.846275329589843750e+01 1.677311182022094727e+00 8.333640716525966829e-14 3.674099869829805520e-13 1.352239175668457083e-13 -4.826883657311695219e-14
6.360000000000000000e+03 6.843685913085937500e+01 -3.356608152389526367e-01 1.469194367944084978e-13 2.865226163425126094e-14 5.267151054503746432e-14 -8.453705942733369394e-14
6.361000000000000000e+03 4.455842971801757812e+01 1.163633918762207031e+01 -1.976355209587325745e-14 2.774733296861259246e-13 7.731293226063626345e-14 -4.170294294489557477e-15
6.362000000000000000e+03 4.497387695312500000e+01 1.266675186157226562e+01 -6.485612014887204291e-14 2.924611507831853530e-13 6.828151461130485544e-14 -1.850240203020089846e-13
6.363000000000000000e+03 5.137427520751953125e+01 -2.169050598144531250e+01 5.058941970442461591e-15 2.995492851161352110e-13 9.138246799891835970e-14 3.304893183664163459e-14
6.364000000000000000e+03 4.800933074951171875e+01 -1.701784324645996094e+01 8.584068379073953037e-14 2.426681360197247006e-13 9.855264255500748027e-14 -1.056206971249097279e-14
6.365000000000000000e+03 4.375056457519531250e+01 -1.268586254119873047e+01 1.046987779947886749e-14 9.598898553179330273e-14 3.193765849116188271e-14 4.584746414438255202e-14
6.366000000000000000e+03 1.220053386688232422e+01 -1.752923393249511719e+01 -1.968814244664510160e-13 -3.817589148448485847e-13 -1.735920977276317334e-13 -1.389926178709324778e-13
6.367000000000000000e+03 6.923158264160156250e+01 -1.454602432250976562e+01 -1.503549211133090036e-13 3.930716700479425230e-13 7.281502468039005582e-14 8.993915773811492209e-14
6.368000000000000000e+03 6.824198150634765625e+01 -1.645834541320800781e+01 2.019856179015511177e-13 2.466935889507831936e-13 1.346037539241839998e-13 -1.258000051785473916e-13
6.369000000000000000e+03 5.490270996093750000e+01 -1.950629997253417969e+01 1.146303663562874345e-14 1.879165226204015937e-13 5.981386853913875368e-14 1.219033554655801765e-13
6.370000000000000000e+03 1.655106544494628906e+01 -2.646088600158691406e+01 8.312423557636783311e-14 -1.702545981800696051e-13 -2.613910810348417380e-14 2.364662387069598609e-14
6.371000000000000000e+03 1.679771423339843750e+01 -2.519988250732421875e+01 -8.667085908827757562e-15 -6.090315290930778391e-14 -2.087107139133077827e-14 1.340757881237650273e-13
6.372000000000000000e+03 1.368914604187011719e+01 -2.410242652893066406e+01 8.140533806397752536e-15 3.488800172490717257e-15 3.488800172490717257e-15 -1.739397200491848983e-13
6.373000000000000000e+03 1.446900558471679688e+01 -2.213087844848632812e+01 7.006178813105320979e-15 -9.993698577015486251e-14 -2.787924242592804136e-14 -2.756692274355054123e-14
6.374000000000000000e+03 1.603591537475585938e+01 -2.377977943420410156e+01 -2.334033506290293658e-14 -1.015048979656311967e-13 -3.745357092499977669e-14 9.647599559514663525e-14
6.375000000000000000e+03 6.738566589355468750e+01 -2.098626708984375000e+01 4.122338253631334382e-14 1.892332183962494585e-13 6.913698400671380861e-14 -1.358789501678140874e-14
6.376000000000000000e+03 1.456649971008300781e+01 -2.913311004638671875e+01 -4.713010326652016316e-15 -1.163972347326125423e-13 -3.633307169665853098e-14 5.606999392370306048e-15
6.377000000000000000e+03 5.861262512207031250e+01 -2.391516876220703125e+01 6.842067196014336994e-14 2.695156381057883799e-13 1.013808923421531671e-13 4.358347382537978987e-14
6.378000000000000000e+03 5.700925827026367188e+01 -2.340270996093750000e+01 2.279207096493596207e-14 2.156472971113349013e-13 7.153181042288125902e-14 9.318731225040066679e-15
6.379000000000000000e+03 1.410123252868652344e+01 -2.308876609802246094e+01 5.771767883511885744e-14 -5.532801254366608024e-14 7.169011579852540422e-16 -2.079151975099054889e-14
6.380000000000000000e+03 1.796188163757324219e+01 -3.541851043701171875e+01 3.858873737585567787e-14 -2.007789821987376877e-13 -4.865707243042506625e-14 -2.828820009725778462e-14
6.381000000000000000e+03 1.379951763153076172e+01 -2.698198318481445312e+01 -6.617249235813405656e-15 -1.427370117175648379e-14 -6.267285291677556283e-15 9.986716653837858504e-15
6.382000000000000000e+03 6.029383468627929688e+01 -2.407621192932128906e+01 3.501594223994167199e-14 2.551993176242578487e-13 8.706457863688621401e-14 1.022385165893799353e-13
6.383000000000000000e+03 6.539833831787109375e+01 -2.670372962951660156e+01 7.070621079732428149e-15 3.861944672476497198e-13 1.179795193831378874e-13 8.194454907380424591e-14
6.384000000000000000e+03 6.541909790039062500e+01 -2.328797721862792969e+01 -1.542575237738295219e-14 1.420795447439060499e-13 3.799613957342941328e-14 9.514646557608197330e-14
6.385000000000000000e+03 5.282037734985351562e+01 -2.176119232177734375e+01 4.219415005650255235e-15 2.877517560166686916e-13 8.759135181491545241e-14 6.081293373602983388e-14
6.386000000000000000e+03 6.636382293701171875e+01 2.371961784362792969e+01 1.274001080141511782e-14 9.696190112753674817e-14 3.291057408690532815e-14 -8.240550440370003615e-14
6.387000000000000000e+03 6.276057052612304688e+01 2.485844612121582031e+01 7.000348515922780179e-14 -1.530022988730297961e-13 -2.489964479176695611e-14 1.257734286727943407e-13
6.388000000000000000e+03 6.423965454101562500e+01 2.397095298767089844e+01 -7.171647038164627452e-14 -7.648658046982212411e-14 -4.446091525544051959e-14 1.431703469971165599e-13
6.389000000000000000e+03 6.752590942382812500e+01 2.361150550842285156e+01 2.626833483804907887e-14 -1.259949853867417535e-13 -2.991799651986051800e-14 -2.549236456693762531e-14
6.390000000000000000e+03 6.425174713134765625e+01 2.478441047668457031e+01 -3.469546563028211295e-14 7.663241243828500249e-14 1.258108455062063522e-14 1.586241446353831019e-13
6.391000000000000000e+03 6.680381011962890625e+01 2.343254661560058594e+01 -9.552242623191847803e-14 -2.696929322660440720e-13 -1.095646061941360494e-13 -9.063510711263336739e-14
6.392000000000000000e+03 6.587133026123046875e+01 2.381764984130859375e+01 9.216642748478831582e-14 1.310017903616983448e-13 6.695046670919871379e-14 -5.101688250455302387e-14
6.393000000000000000e+03 6.389257812500000000e+01 2.502685356140136719e+01 -2.179566883963104940e-14 1.622250511007505835e-13 4.212881671121493365e-14 1.822981767981863427e-14
6.394000000000000000e+03 6.475111389160156250e+01 2.416720962524414062e+01 8.354174997453073931e-15 3.580360834198881292e-15 3.580360834198881292e-15 1.726495228520589370e-14
6.395000000000000000e+03 5.947124481201171875e+01 2.565805053710937500e+01 1.845895872677576210e-14 -7.215318024045985768e-14 -1.610826611529204977e-14 7.887425115165117018e-14
6.396000000000000000e+03 6.183553695678710938e+01 2.509884262084960938e+01 1.112032693576306408e-13 -8.959430013210159527e-14 6.482691275878482012e-15 8.864039915547458799e-16
6.397000000000000000e+03 6.785832977294921875e+01 2.413413619995117188e+01 1.393195183784640134e-13 1.054593153256011551e-13 7.343365011121955055e-14 5.996140812602329673e-14
6.398000000000000000e+03 6.893387603759765625e+01 2.473230171203613281e+01 4.240497655707414770e-14 -1.190792798567985589e-13 -2.300229268398321786e-14 -8.354181604310062514e-14
6.399000000000000000e+03 6.808383941650390625e+01 -1.304913043975830078e+00 1.839419323237598269e-13 1.703341515144757290e-13 1.062828278619760980e-13 1.099810448604559426e-14
6.400000000000000000e+03 7.026995849609375000e+01 1.962960243225097656e+01 9.034835596680168557e-14 2.217245213386592750e-13 9.362186725739643500e-14 -1.032841753746335800e-13
6.401000000000000000e+03 6.582080841064453125e+01 2.444766235351562500e+01 -5.401409842401699857e-14 -2.290281679584449392e-13 -8.491268126999129695e-14 -7.995527525651857648e-14
6.402000000000000000e+03 3.732864379882812500e+01 3.336358547210693359e+00 9.670624286713287721e-15 4.144553386738972917e-15 4.144553386738972917e-15 4.178775635390414786e-15
6.403000000000000000e+03 7.024176025390625000e+01 2.513033676147460938e+01 1.398617278849240142e-13 -7.731210555647974325e-14 1.876488500446738678e-14 8.434512853774944752e-14
6.404000000000000000e+03 6.485961151123046875e+01 2.361369514465332031e+01 1.785196305831206892e-14 1.906546345494322670e-13 6.255198046816942692e-14 7.919603558018128986e-14
6.405000000000000000e+03 6.989309692382812500e+01 2.529505920410156250e+01 -7.511753805783394355e-14 2.423124634970408309e-13 5.015847559888299279e-14 -2.109287950465693617e-13
6.406000000000000000e+03 6.948752593994140625e+01 2.255921554565429688e+01 1.384199151783713222e-13 2.134137415331599334e-15 4.216621829803389454e-14 -5.777298669844277423e-14
6.407000000000000000e+03 7.065904998779296875e+01 2.228195762634277344e+01 7.560862065559767475e-14 3.526603379981618769e-13 1.284806814974906453e-13 -2.614663483825347551e-14
6.408000000000000000e+03 4.227441406250000000e+01 -9.593815803527832031e+00 2.239664718603744803e-14 2.898231242672022479e-13 9.366593329944439272e-14 1.106624828665220273e-14
6.409000000000000000e+03 4.096149063110351562e+01 -8.537277221679687500e+00 3.012027476392842296e-14 1.044105868929466607e-13 4.035925646418345170e-14 -1.154806231109389847e-13
6.410000000000000000e+03 4.649611663818359375e+01 1.189523315429687500e+01 7.871832255045702054e-14 -2.345226199655311983e-14 1.657981782735799131e-14 -7.855876864824862249e-14
6.411000000000000000e+03 4.547154235839843750e+01 1.180302524566650391e+01 -1.312391357697825778e-13 2.182603463197693716e-13 2.610636180974332254e-14 -8.846538139626464181e-14
6.412000000000000000e+03 3.969656372070312500e+01 6.769213199615478516e+00 -2.582714756307630949e-14 -5.681972565520741758e-14 -2.479406213489170757e-14 -4.518599917521272380e-14
6.413000000000000000e+03 6.943926239013671875e+01 1.433054065704345703e+01 -3.858746005017121838e-14 1.664663144742423162e-13 3.836365700484768715e-14 -1.629822578980144598e-13
6.414000000000000000e+03 1.321734809875488281e+01 -1.625922775268554688e+01 -1.140858783311993196e-13 -1.861467929667806609e-13 -9.006980409989942538e-14 -7.955684451065730967e-14
6.415000000000000000e+03 3.516890335083007812e+01 -9.791516661643981934e-01 -5.397151638369263038e-15 -2.518853893095519131e-14 -9.175707170797336304e-15 -1.351064307089297478e-13
6.416000000000000000e+03 1.065262889862060547e+01 -1.512299156188964844e+01 -6.293631404468954041e-15 -4.844821782255467890e-14 -1.642255599630486340e-14 -2.131343943023202014e-14
6.417000000000000000e+03 5.619822692871093750e+01 2.517828941345214844e+01 5.535832277065062812e-14 9.235141948046865501e-14 4.431292165889624823e-14 2.170472121801846066e-14
6.418000000000000000e+03 5.655386352539062500e+01 2.396956062316894531e+01 2.178398994935430710e-14 3.221147036169130784e-14 1.619863775450050558e-14 -4.813722459377257901e-14
6.419000000000000000e+03 5.546591949462890625e+01 2.122534370422363281e+01 -4.650674376854846415e-14 -1.571843105977951960e-13 -6.110731495465038243e-14 2.249033919439914070e-14
6.420000000000000000e+03 4.140573883056640625e+01 8.650927543640136719e+00 3.354091228932945534e-14 -5.425174537583045409e-14 -6.213249671840415447e-15 -1.110784980163682933e-13
6.421000000000000000e+03 4.341810989379882812e+01 1.073954868316650391e+01 -6.117307181641162828e-14 -1.120000563104538160e-13 -5.195193911568599110e-14 -6.978265350548323864e-14
6.422000000000000000e+03 6.894806671142578125e+01 1.854891967773437500e+01 1.323039374996441697e-14 1.429230133765183042e-13 4.684602112150527964e-14 -1.163453150010776427e-13
6.423000000000000000e+03 6.894471740722656250e+01 1.783408927917480469e+01 -6.324147206349800543e-14 1.864746082698952312e-14 -1.337820354035913414e-14 -9.172788125854508534e-14
6.424000000000000000e+03 5.586227035522460938e+01 2.187546730041503906e+01 1.255799256900599903e-13 3.283256641822135391e-13 1.361716728959239120e-13 1.802351399637219798e-13
6.425000000000000000e+03 6.889263153076171875e+01 1.639324188232421875e+01 -9.316344625007882962e-14 5.157470452229681590e-14 -1.247662251833460412e-14 -1.257111683630393606e-13
6.426000000000000000e+03 4.282289123535156250e+01 1.020130157470703125e+01 -1.326293336766613817e-14 1.773196796643269901e-13 4.921702558306415010e-14 -9.636935075895552982e-14
6.427000000000000000e+03 3.595016098022460938e+01 -1.656558394432067871e+00 -2.442846408013191195e-14 -7.909576720801711480e-14 -3.105726938644470803e-14 -3.818930713111665098e-14
6.428000000000000000e+03 3.663562393188476562e+01 1.089172720909118652e+00 4.808681935714737010e-14 2.060863686734887290e-14 2.060863686734887290e-14 -1.851314808309282960e-15
6.429000000000000000e+03 1.056914329528808594e+01 -1.162852478027343750e+01 2.485862637426321936e-14 3.766612943854191764e-13 1.204559726703663403e-13 -4.495913241171897376e-15
6.430000000000000000e+03 4.901076507568359375e+01 1.470498657226562500e+01 1.215284248018075330e-13 -1.309201905956916545e-13 -2.817530796956420509e-15 -7.734393366650577084e-14
6.431000000000000000e+03 4.833354187011718750e+01 1.491372871398925781e+01 1.124712370220888602e-13 -2.491792037463691489e-13 -4.101239001728408662e-14 -4.247681511539667942e-14
6.432000000000000000e+03 4.956901550292968750e+01 1.597159099578857422e+01 -5.844909517320473480e-14 2.037051354420588156e-13 4.357681275828258205e-14 -7.193774588065519893e-15
6.433000000000000000e+03 4.928768920898437500e+01 1.540999698638916016e+01 -2.730924515660041602e-14 -3.457943566903542987e-14 -1.856660475591052212e-14 5.036401153166603778e-15
6.434000000000000000e+03 6.921762084960937500e+01 1.221969032287597656e+01 1.616488264451947446e-16 6.927807036721057637e-17 6.927807036721057637e-17 -1.448749025476439578e-13
6.435000000000000000e+03 6.896965789794921875e+01 1.159932613372802734e+01 5.463767730352203644e-14 -5.664801174800823680e-14 -6.031009050930995034e-16 -1.742906762924184561e-13
6.436000000000000000e+03 6.835880279541015625e+01 2.568644762039184570e+00 3.093066803049981765e-15 3.215822519300054472e-13 9.740259542933421555e-14 -4.654978405369729691e-15
6.437000000000000000e+03 6.856687927246093750e+01 7.004690766334533691e-01 2.614802905448465609e-13 3.628797566254671203e-14 8.933047986221798187e-14 -2.388404042954778844e-14
6.438000000000000000e+03 6.914558410644531250e+01 6.258071422576904297e+00 -3.380686030597657155e-14 1.685151448721153300e-13 4.041248401458891193e-14 -1.341122986319234767e-13
6.439000000000000000e+03 7.030968475341796875e+01 7.259346961975097656e+00 3.479639087649688371e-15 -1.043077977507314569e-13 -3.024844778950694368e-14 -1.288361100746857058e-13
6.440000000000000000e+03 6.965384674072265625e+01 7.781114101409912109e+00 2.471103427133594654e-14 2.565017967991189973e-13 8.436385135401555657e-14 -1.616133848926157301e-13
6.441000000000000000e+03 4.871571731567382812e+01 1.391942119598388672e+01 9.384313259200999235e-14 -5.128341327986785103e-14 1.276791545482946350e-14 -2.340637449485538646e-13
6.442000000000000000e+03 4.705232238769531250e+01 1.334804630279541016e+01 -1.802479166086983636e-14 3.802603644833570107e-14 6.000373775052938313e-15 -9.067329135789559125e-14
6.443000000000000000e+03 5.061930084228515625e+01 1.765097618103027344e+01 -3.434045718142889059e-14 2.140374059629926440e-13 5.390908666734819943e-14 -1.365514147068369599e-13
6.444000000000000000e+03 5.280861282348632812e+01 1.741823196411132812e+01 -8.198379041618464314e-14 -8.088686242069959009e-14 -4.886119381818619656e-14 -9.631176607106939347e-14
6.445000000000000000e+03 5.764031219482421875e+01 2.481752204895019531e+01 1.131835375206211025e-13 2.543864912555454660e-13 1.102710113433554018e-13 1.306678154349913412e-13
6.446000000000000000e+03 5.629224014282226562e+01 2.258811569213867188e+01 1.160435815364749268e-13 7.260843673268652099e-14 5.659560412549571873e-14 3.530084558339891855e-15
6.447000000000000000e+03 6.912290191650390625e+01 5.339383602142333984e+00 8.646611936646494967e-14 3.573135439870894769e-13 1.331339010389454014e-13 -1.569936807508179322e-13
6.448000000000000000e+03 6.840843200683593750e+01 3.433691740036010742e+00 8.315817788063020743e-14 2.872694486802385150e-13 1.111282832248761121e-13 -5.697662665022501516e-14
6.449000000000000000e+03 6.786571502685546875e+01 3.044346094131469727e+00 2.692272877617522819e-14 -4.565037313008363240e-14 -5.618293306172521262e-15 -6.883239095888116221e-14
6.450000000000000000e+03 6.728041076660156250e+01 3.422738552093505859e+00 7.979477945367283165e-14 1.371373988760110629e-13 6.507965553178424178e-14 -2.060133883147532985e-13
6.451000000000000000e+03 6.816042327880859375e+01 -3.360781192779541016e+00 2.502079930234452770e-14 1.937269924557130651e-13 6.562433837445022511e-14 -9.927102813823279748e-14
6.452000000000000000e+03 6.931934356689453125e+01 -2.995065689086914062e+00 7.685279685863341537e-14 -5.856498283291627915e-14 5.486344207715140864e-15 -5.045488292031337363e-14
6.453000000000000000e+03 5.433763122558593750e+01 1.917347145080566406e+01 5.092684967852346978e-14 3.649579011395787109e-13 1.247654323605074111e-13 -5.248928072379812140e-15
6.454000000000000000e+03 6.964581298828125000e+01 5.783446311950683594e+00 6.199327753616049042e-14 2.553232961426815661e-13 9.519497007077354356e-14 -4.866846671763153109e-14
6.455000000000000000e+03 6.868599700927734375e+01 -3.091747522354125977e+00 6.728818890966437039e-14 2.118415848555849079e-13 8.373893077432206788e-14 -1.777063434284850002e-14
6.456000000000000000e+03 6.851125335693359375e+01 -5.365581989288330078e+00 1.327337626746624699e-13 1.712632721187143381e-13 9.119910908276032679e-14 -6.745610472112806288e-14
6.457000000000000000e+03 6.788283538818359375e+01 -1.081267261505126953e+01 3.772647816434153423e-14 6.191943659195064953e-14 2.989377476570083403e-14 -4.368950202158529417e-14
6.458000000000000000e+03 6.805541229248046875e+01 -9.940665245056152344e+00 -7.787597877759872000e-14 1.953793301191081300e-13 3.525100404720010738e-14 1.733216841532866925e-13
6.459000000000000000e+03 4.991458892822265625e+01 1.636122512817382812e+01 -3.713941656925852375e-14 1.270548201154006462e-13 2.697462140265581565e-14 -1.730260493259042076e-13
6.460000000000000000e+03 6.900816345214843750e+01 -8.330483436584472656e+00 3.822345272328636634e-14 2.908871602792795219e-13 9.873318932178062890e-14 5.323263599127554813e-14
6.461000000000000000e+03 6.815243530273437500e+01 -9.072184562683105469e+00 5.816931680259485038e-14 3.223108628949700183e-13 1.141440593302803230e-13 -6.877635125909081770e-14
6.462000000000000000e+03 1.111604118347167969e+01 -1.564049434661865234e+01 -1.037559998313085374e-13 -3.189725501957785259e-13 -1.268185589094888988e-13 7.892592693769726053e-14
6.463000000000000000e+03 3.819009780883789062e+01 4.021500110626220703e+00 -2.050377757661057954e-14 -1.002892295034682468e-13 -3.623790246283682681e-14 5.489262744438200281e-14
6.464000000000000000e+03 3.827019882202148438e+01 4.765495777130126953e+00 9.244625328924324648e-14 -5.188207583819645641e-14 1.216925289650085812e-14 -1.058937720767750418e-14
6.465000000000000000e+03 6.323946762084960938e+01 2.359331512451171875e+01 9.474655082849711696e-14 -2.110245572034541439e-13 -3.488339852435531907e-14 2.016540654890732615e-14
6.466000000000000000e+03 6.939026641845703125e+01 1.362768173217773438e+01 -6.948853740817518068e-15 8.852381989336161050e-14 2.447248946459840147e-14 -7.013390790431422994e-14
6.467000000000000000e+03 6.947792816162109375e+01 1.503889369964599609e+01 5.526490520096384584e-14 2.524396978346304943e-13 9.231138531524962776e-14 -6.568353581306793365e-14
6.468000000000000000e+03 3.766640853881835938e+01 -2.177785158157348633e+00 1.638174933703794023e-14 -1.302321016869237291e-13 -3.415510604377891557e-14 6.466547674936762302e-14
6.469000000000000000e+03 4.711646270751953125e+01 -1.228284358978271484e+01 -2.973848990954659766e-14 3.075115845557058192e-13 8.333192805503458755e-14 2.260136827312523439e-14
6.470000000000000000e+03 3.999198150634765625e+01 -7.770961761474609375e+00 -3.597544083380060931e-14 7.608385357285238348e-14 1.203252314408917445e-14 -1.159292253123320182e-13
6.471000000000000000e+03 6.731121826171875000e+01 -9.797366142272949219e+00 1.468486621094677175e-14 1.892973082971705079e-13 6.119465421590766785e-14 -2.193614891511999621e-13
6.472000000000000000e+03 5.094492340087890625e+01 1.694982910156250000e+01 4.194739241830842957e-14 1.552302936799060396e-13 5.915330481302480403e-14 -1.616456805648286421e-13
6.473000000000000000e+03 5.798421859741210938e+01 2.562131690979003906e+01 -1.083802288231105679e-14 -2.333996169077978688e-13 -7.327129083588984626e-14 -4.601082969485359442e-16
6.474000000000000000e+03 6.073666000366210938e+01 2.494063568115234375e+01 -1.707720235024929450e-14 -1.445716511999997622e-13 -4.849465555685494866e-14 4.857147466890733567e-14
6.475000000000000000e+03 3.841165542602539062e+01 5.512115955352783203e+00 -3.779253656983200260e-14 -8.482322103823408677e-14 -3.678472660479346901e-14 -4.759500492291721119e-14
6.476000000000000000e+03 4.778753280639648438e+01 1.206287479400634766e+01 -5.794965744244928718e-14 2.039191705034346103e-13 4.379085459592195473e-14 -1.564681273002327400e-13
6.477000000000000000e+03 3.922798919677734375e+01 -6.975869178771972656e+00 -5.691409190179512467e-15 1.348136690173043495e-13 3.873668015042311397e-14 8.732893592565838664e-15
6.478000000000000000e+03 1.119070339202880859e+01 -9.250727653503417969e+00 -1.501376469979429085e-13 -2.473485012730730626e-13 -1.192458404155466445e-13 -1.074056073030113523e-13
6.479000000000000000e+03 3.997006607055664062e+01 -3.754914760589599609e+00 -7.853221077722041116e-15 -1.863694609879548714e-13 -5.826680690669203133e-14 -5.630653549752034914e-14
6.480000000000000000e+03 3.589578247070312500e+01 5.133070945739746094e-01 3.106588879371596779e-14 8.194037489544017672e-14 3.390188046199955896e-14 -8.018774175482662470e-14
6.481000000000000000e+03 6.993990325927734375e+01 2.081661605834960938e+01 5.965652369885679485e-14 -6.593481321906860537e-14 -1.883486390195422168e-15 -6.879504697030261462e-14
6.482000000000000000e+03 7.019728851318359375e+01 2.155712509155273438e+01 9.064784818222596657e-15 1.411377525267765165e-13 4.506076027176349197e-14 -9.008395293825036121e-14
6.483000000000000000e+03 6.939753723144531250e+01 2.024567985534667969e+01 6.169137466496832367e-14 1.179410573110689642e-13 5.388973027043754416e-14 -1.647913576430237725e-13
6.484000000000000000e+03 6.486862182617187500e+01 -2.198235511779785156e+01 -8.120736211200696181e-16 3.656595696805570173e-13 1.094542479655041811e-13 2.874971108076697368e-14
6.485000000000000000e+03 6.845628356933593750e+01 -6.340297698974609375e+00 6.168562161719057246e-14 2.094404836193441977e-13 8.133783631434493566e-14 1.474419409263835745e-13
6.486000000000000000e+03 6.681391143798828125e+01 -1.747462463378906250e+01 1.877823390490293565e-13 1.262290917408356861e-13 9.420343330271765958e-14 -1.731420318533058444e-13
6.487000000000000000e+03 6.563803863525390625e+01 -2.031622695922851562e+01 3.644076770073717900e-15 4.018825474228632233e-13 1.216579869614195508e-13 1.467701082739393537e-14
6.488000000000000000e+03 6.893923187255859375e+01 -1.591098690032958984e+01 -2.071266471054614144e-13 2.772390335966518071e-13 2.103371357566486549e-14 6.510767453464646679e-15
6.489000000000000000e+03 6.871526336669921875e+01 1.362537097930908203e+01 -1.589028557444794459e-14 3.894082525510676740e-14 6.915162158307531018e-15 -2.249461874366184833e-13
6.490000000000000000e+03 5.806521606445312500e+01 2.351274299621582031e+01 -1.805175780177862427e-14 -1.449893129818954907e-13 -4.891232072688246613e-14 2.066865423385952361e-13
6.491000000000000000e+03 5.593310546875000000e+01 2.389792442321777344e+01 2.564740039540536892e-14 1.024936429130929305e-13 3.844231248432972148e-14 9.153976540535527229e-14
6.492000000000000000e+03 6.841029357910156250e+01 -2.019858932495117188e+01 -9.748322618964924691e-14 1.583818796599412160e-13 1.826959434702169621e-14 1.303951114835569247e-13
6.493000000000000000e+03 6.740859985351562500e+01 1.728060841560363770e+00 2.614072153184210379e-13 2.049632843005924632e-13 1.399111539514621971e-13 -3.070732416173699297e-13
6.494000000000000000e+03 1.317827987670898438e+01 -2.049076652526855469e+01 1.474233909048387053e-14 -3.139384910887110802e-13 -8.975884814056700467e-14 -3.283269448960297876e-14
6.495000000000000000e+03 3.793168258666992188e+01 -1.409402012825012207e+00 2.266896150231612755e-14 3.259074461041747139e-14 1.657791200322666914e-14 8.315821853821167564e-14
6.496000000000000000e+03 5.007703781127929688e+01 -1.831491470336914062e+01 -1.394646439214488817e-14 5.201588400456647054e-13 1.518637104090669876e-13 2.490899095330696006e-14
6.497000000000000000e+03 4.885915374755859375e+01 -1.920504570007324219e+01 2.467258575179417934e-14 4.223324977497416866e-13 1.341015243728344020e-13 1.188639217299591530e-14
6.498000000000000000e+03 6.790834045410156250e+01 -2.774227380752563477e+00 -3.891298158806462404e-14 1.663268047596977439e-13 3.822414729030311487e-14 -4.115106963954034969e-14
6.499000000000000000e+03 3.584060287475585938e+01 -9.471988677978515625e-01 -1.987315985331385843e-14 2.431131468014213759e-13 6.697199489858612909e-14 -1.377587686935896616e-13
6.500000000000000000e+03 6.791454315185546875e+01 2.141757011413574219e+00 2.315568797903871934e-13 1.306924403768339182e-13 1.086748014711771959e-13 -1.495825896957389545e-13
6.501000000000000000e+03 6.796159362792968750e+01 1.218508601188659668e+00 1.253357227032347865e-13 -1.664611374088686979e-13 -1.233762525872312069e-14 -1.121773640232366642e-13
6.502000000000000000e+03 4.316869735717773438e+01 -1.207288837432861328e+01 -3.413023376831574029e-14 1.226256102953085514e-13 2.654861126403194882e-14 -2.079545506606349237e-14
6.503000000000000000e+03 4.541934204101562500e+01 1.089758968353271484e+01 -1.588073070398973718e-13 3.436982686302880730e-13 5.546728508898542132e-14 -2.392799805137849761e-14
6.504000000000000000e+03 4.905578231811523438e+01 -1.717368698120117188e+01 7.672332279044791203e-14 4.446399574486309403e-13 1.564089840717236557e-13 3.764591516666228321e-14
6.505000000000000000e+03 3.843247604370117188e+01 -2.537023544311523438e+00 -1.215654096484164448e-13 -1.436013580182610161e-13 -7.955002758949780706e-14 -1.683721589343552261e-14
6.506000000000000000e+03 4.078081130981445312e+01 7.257034301757812500e+00 2.910267775670083955e-15 -3.418848591816431304e-13 -1.016923768500446745e-13 -1.232637445889792072e-13
6.507000000000000000e+03 1.143076801300048828e+01 -1.737010002136230469e+01 -4.421064073644939696e-14 -2.019512080351018590e-13 -7.384855395383901899e-14 -7.673718702572857042e-14
6.508000000000000000e+03 6.880184173583984375e+01 -1.371260929107666016e+01 1.469644853946752705e-13 2.459885864881244943e-13 1.178859120780709202e-13 1.028536590207303203e-13
6.509000000000000000e+03 4.156382369995117188e+01 -6.762452602386474609e+00 -5.413535966074592420e-14 2.970557827497444237e-13 7.287612624907319203e-14 -1.414279815898896245e-14
6.510000000000000000e+03 4.295802307128906250e+01 -1.090464878082275391e+01 -7.324344039258412487e-14 1.516137475982004545e-13 2.351109351693761451e-14 5.815293264429611045e-15
6.511000000000000000e+03 1.305823516845703125e+01 -1.696467208862304688e+01 -8.938399879195729758e-14 -4.043150092069430768e-13 -1.481097010444173967e-13 2.564985170875472287e-15
6.512000000000000000e+03 6.851168823242187500e+01 -1.509663009643554688e+01 1.349245693470224605e-13 1.722021912000867849e-13 9.213802816413277363e-14 -6.991231053278534890e-14
6.513000000000000000e+03 6.711414337158203125e+01 -1.616964530944824219e+01 1.827978144287173423e-13 1.240928746478603406e-13 9.206720265721515806e-14 -1.528660349887391023e-14
6.514000000000000000e+03 4.997706985473632812e+01 -1.938118362426757812e+01 -2.500322167462310646e-14 1.722881277747834172e-13 4.418547369352057719e-14 1.541936574896065476e-14
6.515000000000000000e+03 4.557246780395507812e+01 -1.300389385223388672e+01 -1.076202183467912799e-13 9.112989632657428341e-14 -4.947096775471688385e-15 1.060744916382694303e-13
6.516000000000000000e+03 5.458095169067382812e+01 -2.082385826110839844e+01 -1.239806275357560952e-14 3.378186673539534945e-13 9.762617824609146067e-14 -1.156430365963773133e-14
6.517000000000000000e+03 5.105840682983398438e+01 -1.949690628051757812e+01 3.557814172395687424e-14 4.041308303628921017e-13 1.319126963694391974e-13 -5.038870254207850063e-14
6.518000000000000000e+03 6.061439895629882812e+01 -2.070165252685546875e+01 2.731892335505574365e-14 1.260854756105628249e-13 4.602132273900418069e-14 1.304349559133957670e-13
6.519000000000000000e+03 6.472767639160156250e+01 -2.525351333618164062e+01 3.191001472389529137e-14 2.309927151899343611e-13 7.887082236228068477e-14 1.021267488979238358e-13
6.520000000000000000e+03 1.498411178588867188e+01 -3.202738952636718750e+01 1.159779026017448283e-14 -6.365594222524847967e-14 -1.561744609774196740e-14 -3.751790138327784629e-15
6.521000000000000000e+03 5.599383926391601562e+01 -2.128184700012207031e+01 -5.599025424204854065e-15 2.034796891528176110e-13 5.936419568810039071e-14 2.961326794675631091e-14
6.522000000000000000e+03 6.051174926757812500e+01 -2.950284576416015625e+01 4.342847696042761996e-14 2.130537364369508579e-13 7.694466266396082776e-14 5.336791731734742694e-14
6.523000000000000000e+03 6.316007995605468750e+01 -3.381696701049804688e+01 2.266174986380320444e-14 1.812782373213431275e-13 6.118199615554389958e-14 1.449456331868714809e-14
6.524000000000000000e+03 4.248948287963867188e+01 -4.058355331420898438e+01 1.576185606729299526e-13 2.963055419514387667e-13 1.361772294320579002e-13 1.025703434405327019e-13
6.525000000000000000e+03 6.618132019042968750e+01 2.309787178039550781e+01 -4.720005717653505406e-14 -1.803569229727464140e-13 -6.826709472241079824e-14 -1.212658581406858560e-13
6.526000000000000000e+03 6.470290374755859375e+01 2.472532653808593750e+01 7.581680780150562571e-14 2.612476478636854837e-13 1.011193421205681953e-13 5.739304159962238527e-14
6.527000000000000000e+03 6.985895538330078125e+01 2.225921440124511719e+01 -1.870436788851785603e-14 2.664895485272184006e-13 7.433555046466519545e-14 -6.721873898425309579e-14
6.528000000000000000e+03 6.266119766235351562e+01 2.427998161315917969e+01 1.996302022343535154e-13 8.555579611739180801e-14 8.555579611739180801e-14 1.024377658436284588e-13
6.529000000000000000e+03 6.374874877929687500e+01 2.374902153015136719e+01 3.723101810030639280e-14 -7.554575048212067157e-14 -1.149441920632451528e-14 -2.521556944636797054e-14
6.530000000000000000e+03 6.401797485351562500e+01 2.439566612243652344e+01 -1.606841829732141846e-14 2.561814963723124672e-13 7.203392477775003022e-14 2.713233216117098834e-14
6.531000000000000000e+03 5.699555206298828125e+01 2.468291664123535156e+01 1.973834947756065300e-14 9.996119058365560139e-14 3.590986015489239236e-14 3.395349780277228877e-15
6.532000000000000000e+03 6.218058776855468750e+01 2.426106262207031250e+01 1.061652935702150913e-13 -9.175343454849785307e-14 4.323556859482224207e-15 2.067702020887296488e-13
6.533000000000000000e+03 1.057731914520263672e+01 -1.047319698333740234e+01 -1.338750616440564922e-13 -2.403788160274672459e-13 -1.122761619462044058e-13 1.535617200889780043e-14
6.534000000000000000e+03 6.535427856445312500e+01 2.373988723754882812e+01 2.360399947872425519e-14 1.011600013961022962e-14 1.011600013961022962e-14 1.707851186318574965e-14
6.535000000000000000e+03 6.537605285644531250e+01 2.268987655639648438e+01 4.566391549284433415e-14 -1.634335434997843950e-13 -3.533088941852155496e-14 4.009320606242883613e-16
6.536000000000000000e+03 7.021885681152343750e+01 2.417680549621582031e+01 1.267311451093322550e-13 5.431334838801836484e-14 5.431334838801836484e-14 -1.112268236498278884e-13
6.537000000000000000e+03 6.438055419921875000e+01 2.343497657775878906e+01 1.782190185901401380e-14 5.338890679378038850e-14 2.136324157939878399e-14 -2.812544610457465982e-14
6.538000000000000000e+03 6.834268951416015625e+01 -1.894348025321960449e+00 5.129952384652462782e-14 6.773645907414208023e-14 3.571079385976047571e-14 -7.103627581994675921e-14
6.539000000000000000e+03 6.877400207519531250e+01 1.430207729339599609e+01 1.109944943708572954e-14 1.420097492290522956e-13 4.593276036217106006e-14 -3.137983986154987970e-14
6.540000000000000000e+03 6.851117706298828125e+01 1.231319427490234375e+01 2.462014933016145463e-14 -1.724523030887520347e-13 -4.434964561935740568e-14 -1.683832787828867805e-13
6.541000000000000000e+03 6.131525802612304688e+01 2.507229423522949219e+01 9.350894082486849168e-14 3.603319086251804970e-13 1.361522521245092654e-13 -3.217319463687078052e-14
6.542000000000000000e+03 6.242654800415039062e+01 2.383100128173828125e+01 7.651970962245513430e-14 3.279416126676648613e-14 3.279416126676648613e-14 1.743380694798832287e-13
6.543000000000000000e+03 5.935916137695312500e+01 2.484262084960937500e+01 7.735441654626099006e-14 1.117863329572026110e-13 5.674222552866543812e-14 1.387146284339071944e-13
6.544000000000000000e+03 5.970154953002929688e+01 2.443549728393554688e+01 1.054031739818571400e-13 -2.750838565181851214e-13 -5.090420340564567880e-14 -1.367945589024780959e-14
6.545000000000000000e+03 3.659673690795898438e+01 1.831370353698730469e+00 1.415913556106901394e-13 2.894367417179827262e-13 1.293084291986018597e-13 -1.584385021183992714e-13
6.546000000000000000e+03 6.943404388427734375e+01 2.340754127502441406e+01 -1.580977170467963433e-14 2.219791326663403397e-13 6.185080659443231710e-14 2.066381936979659606e-14
6.547000000000000000e+03 4.977870941162109375e+01 1.443067359924316406e+01 -1.075926237074356293e-14 2.241436338834904007e-13 6.401530781158237815e-14 -8.243026487081417386e-14
6.548000000000000000e+03 4.199380111694335938e+01 -9.064103126525878906e+00 -8.912061389700857289e-16 1.826218484161229449e-13 5.451919433486010491e-14 -3.089059363121579582e-14
6.549000000000000000e+03 5.600050354003906250e+01 2.124100685119628906e+01 6.132760450730870283e-14 3.007889618801551368e-13 1.086349638176019317e-13 -3.123253998498940961e-16
6.550000000000000000e+03 3.912051391601562500e+01 4.635103702545166016e+00 7.380986148880844255e-14 5.450827099797231345e-14 3.849543839078151120e-14 -3.758964168577849652e-14
6.551000000000000000e+03 4.221750259399414062e+01 8.452738761901855469e+00 -7.464288789924694578e-14 -1.234917116482714405e-13 -5.944038121950823150e-14 -5.261603327512409667e-14
6.552000000000000000e+03 4.444475173950195312e+01 1.078629112243652344e+01 -5.279879249195547353e-14 3.456063153760638440e-14 -5.471448286304726738e-15 -4.004683344378638654e-14
6.553000000000000000e+03 6.955017852783203125e+01 1.952230262756347656e+01 9.181075496210444609e-14 2.909776911606820615e-13 1.148365257053196586e-13 -4.920003749027401785e-14
6.554000000000000000e+03 6.830805969238281250e+01 1.772585296630859375e+01 1.136083956944367035e-14 2.793746137208508173e-13 8.722063598708834631e-14 -5.793918133895764599e-14
6.555000000000000000e+03 5.473770141601562500e+01 2.022696495056152344e+01 8.604258934031064343e-14 2.656301285701434534e-13 1.055018160507625868e-13 9.624153687534664492e-14
6.556000000000000000e+03 5.457565307617187500e+01 2.088455772399902344e+01 -3.173970689138855272e-14 2.609029528879980298e-13 6.874897515423555872e-14 -6.956848291883588331e-14
6.557000000000000000e+03 6.828940582275390625e+01 1.701412010192871094e+01 -3.013469804095426918e-14 2.615908249563314580e-13 6.943684044630540897e-14 -1.983665646023216600e-13
6.558000000000000000e+03 6.816559600830078125e+01 1.494730758666992188e+01 2.792896156586597428e-14 1.196955471479028976e-14 1.196955471479028976e-14 -7.530558614838797626e-14
6.559000000000000000e+03 6.825631713867187500e+01 1.631068420410156250e+01 9.480817416947576182e-14 2.236358749010611269e-13 9.553321404353470880e-14 -9.543344880894120280e-15
6.560000000000000000e+03 4.805492019653320312e+01 1.431164264678955078e+01 1.584510788636001033e-13 -5.039792368155548985e-13 -1.036584555171027322e-13 -3.913869892784894999e-14
6.561000000000000000e+03 4.816179275512695312e+01 1.324132633209228516e+01 -3.297289358308749764e-16 1.428304089584608860e-13 4.275020346945247740e-14 -1.738560467465233295e-13
6.562000000000000000e+03 6.898571014404296875e+01 1.076743602752685547e+01 2.842972575021682213e-14 -1.250686837081516067e-13 -2.899168467687500417e-14 -1.421401109877665214e-13
6.563000000000000000e+03 6.799131774902343750e+01 1.070426082611083984e+01 -6.055548993017315085e-14 2.943042944764107105e-13 7.012463797573947888e-14 -1.630708914256151498e-13
6.564000000000000000e+03 5.153990936279296875e+01 1.717549896240234375e+01 9.223744272708611636e-14 3.953033308134144830e-14 3.953033308134144830e-14 -5.036530071581175882e-14
6.565000000000000000e+03 5.325039291381835938e+01 1.825949287414550781e+01 -1.886850762710268886e-14 -5.383745139693300874e-14 -2.181178787661729873e-14 -8.972207335812901197e-14
6.566000000000000000e+03 6.967900085449218750e+01 2.175801277160644531e+01 1.942468538448927085e-13 1.747505541964053388e-13 1.106992237676421298e-13 -8.910061544912389886e-14
6.567000000000000000e+03 6.911511993408203125e+01 7.247087478637695312e+00 2.961849244597497544e-14 4.215927466074548269e-13 1.353633730712816563e-13 -2.299311999479081159e-13
6.568000000000000000e+03 6.811989593505859375e+01 9.697422981262207031e+00 -3.853059025809256466e-14 2.522737064820229635e-13 6.412293520599229857e-14 -1.784088827193330840e-13
6.569000000000000000e+03 6.897139739990234375e+01 8.253863334655761719e+00 -5.128008274631924712e-14 9.240019502570334664e-14 1.233603368381522986e-14 -1.754560445500416566e-13
6.570000000000000000e+03 3.736853790283203125e+01 2.663187980651855469e-01 -1.756694155375868038e-14 8.397320653500545129e-14 1.992187949437403127e-14 -5.756601080964939693e-15
6.571000000000000000e+03 3.723120880126953125e+01 -1.156594157218933105e+00 -7.445198022546298255e-14 1.384295611895746542e-14 -1.818270909542413910e-14 -3.546440552793135581e-14
6.572000000000000000e+03 5.740042495727539062e+01 2.340764236450195312e+01 3.340237835674012001e-14 6.006625047610264501e-14 2.804058864985282951e-14 7.250273379713276234e-15
6.573000000000000000e+03 6.868165588378906250e+01 4.895007133483886719e+00 3.033280549478989396e-14 3.732885040571426449e-13 1.210863955760851929e-13 -7.091546181661398385e-14
6.574000000000000000e+03 6.783045196533203125e+01 4.669660091400146484e+00 7.895150733270434040e-14 4.913458420512106795e-13 1.710892034599217904e-13 -2.001838229686789261e-13
6.575000000000000000e+03 6.862525939941406250e+01 5.753487110137939453e+00 7.060582722867927985e-14 3.791106155132811795e-13 1.349149335002144956e-13 -1.646903642106567478e-13
6.576000000000000000e+03 5.039942169189453125e+01 1.665976905822753906e+01 -8.798145453283931494e-14 5.379556053549360006e-14 -1.025576819920371446e-14 -1.592199137291638866e-13
6.577000000000000000e+03 4.088764953613281250e+01 -7.719557285308837891e+00 2.104811652389997761e-14 3.292772684290040663e-13 1.050976119283328347e-13 -4.590900278206647145e-14
6.578000000000000000e+03 6.811363220214843750e+01 1.428239345550537109e+01 -2.090534234437668726e-14 -8.959432554309001290e-15 -8.959432554309001290e-15 -2.590939886682602777e-13
6.579000000000000000e+03 6.885854339599609375e+01 1.568504333496093750e+01 3.282997043164460893e-14 2.885756683525947386e-13 9.642169739509584558e-14 1.487089666902044471e-14
6.580000000000000000e+03 6.854015350341796875e+01 -2.497338771820068359e+00 1.486808858539370726e-13 1.796943297556908431e-14 4.999509649588479432e-14 -6.780357118861893295e-14
6.581000000000000000e+03 6.687612915039062500e+01 -4.421350002288818359e+00 -7.841336040801760807e-16 4.541489119448335887e-14 1.338922767416764886e-14 -3.901878616757205320e-14
6.582000000000000000e+03 4.226146697998046875e+01 -1.058267116546630859e+01 -2.187535431117694495e-14 2.651305282090621329e-13 7.297655725156323991e-14 -2.640571638231367473e-15
6.583000000000000000e+03 6.682790374755859375e+01 -1.112213039398193359e+01 -1.101991965019553932e-13 4.102812653419135591e-13 9.002461997436109198e-14 -5.948472508836288863e-14
6.584000000000000000e+03 1.248107051849365234e+01 -1.607875823974609375e+01 -1.170292297314814989e-13 -3.246610879442668463e-13 -1.325070966579772191e-13 6.649686786044982714e-15
6.585000000000000000e+03 1.259648132324218750e+01 -1.536866188049316406e+01 -8.706003176402535293e-14 -3.731144218458229411e-14 -3.731144218458229411e-14 8.839082725031321280e-15
6.586000000000000000e+03 5.369242477416992188e+01 1.908796691894531250e+01 -6.347719116832351016e-14 1.100483365459176133e-13 1.397134344387164148e-14 -7.567365923341964895e-14
6.587000000000000000e+03 6.863444519042968750e+01 1.296110820770263672e+01 4.024263696800547963e-14 6.299779084896831027e-14 3.097212902271849477e-14 -1.212207146727289908e-13
6.588000000000000000e+03 6.765683746337890625e+01 -5.333643913269042969e+00 1.064288224607648492e-13 2.514916172449005449e-13 1.073761305564469026e-13 7.864316023484946294e-14
6.589000000000000000e+03 6.832305145263671875e+01 -7.285650253295898438e+00 3.207171331352613730e-14 2.196242862052832923e-13 7.550879951682964997e-14 -2.537239420842031523e-14
6.590000000000000000e+03 5.070376205444335938e+01 1.600383758544921875e+01 -3.336683685427332957e-14 1.229527683008560524e-13 2.687578112804071134e-14 -1.950274658565551156e-13
6.591000000000000000e+03 6.661602020263671875e+01 -1.051469516754150391e+01 8.373842933081729334e-14 1.731407443632260179e-13 7.706375549634478239e-14 -5.535469746963637971e-14
6.592000000000000000e+03 5.892480468750000000e+01 2.529556274414062500e+01 -1.363627753872857437e-14 -2.460365895393112901e-13 -7.790186410446681142e-14 1.298621448006173629e-13
6.593000000000000000e+03 6.740488433837890625e+01 -8.082581520080566406e+00 6.764357005301438464e-14 2.348693613728192187e-13 9.075388146062915440e-14 -4.384344178941929071e-14
6.594000000000000000e+03 6.648505401611328125e+01 -1.666664505004882812e+01 7.200747702100496195e-14 2.138641369033023043e-13 8.576148282203946427e-14 5.718907606592354975e-14
6.595000000000000000e+03 6.630516815185546875e+01 -1.881595039367675781e+01 1.006423812561010878e-13 1.346343419779752471e-13 7.058301832547561605e-14 -1.609252011161577123e-13
6.596000000000000000e+03 4.705761337280273438e+01 1.146960163116455078e+01 4.840489716950030497e-14 2.074495496174819098e-14 2.074495496174819098e-14 7.431080355007821381e-14
6.597000000000000000e+03 4.824616622924804688e+01 1.143105220794677734e+01 2.847279441096938792e-15 9.272216241335007325e-14 2.867083198458686422e-14 -3.424851683720211981e-14
6.598000000000000000e+03 3.998563003540039062e+01 7.476159572601318359e+00 -3.033674589206052097e-14 -1.502543071517023487e-13 -5.417731489668932421e-14 2.588048692183080729e-14
6.599000000000000000e+03 3.914843750000000000e+01 -3.569617748260498047e+00 1.590534920838191507e-14 5.256752539230073740e-14 2.054186356605092190e-14 -1.309229011011228683e-13
6.600000000000000000e+03 4.027216720581054688e+01 -5.317573547363281250e+00 -4.025163584603710931e-14 5.624773531735490287e-15 -1.038805865193883834e-14 -6.703368600220055429e-14
6.601000000000000000e+03 5.177993392944335938e+01 1.655365943908691406e+01 4.518853688592269768e-14 3.396231592397297439e-13 1.154435027390585122e-13 -5.919087919456500479e-14
6.602000000000000000e+03 3.816817092895507812e+01 2.491307020187377930e+00 7.090188218440360290e-14 1.676393670147630077e-13 7.156237137161819417e-14 -7.725451239826413435e-15
6.603000000000000000e+03 6.759731292724609375e+01 -6.251628875732421875e+00 8.570416240843287126e-14 5.960583047102951948e-14 4.359299786383871722e-14 -4.301003929635220657e-14
6.604000000000000000e+03 6.749905395507812500e+01 -7.173329830169677734e+00 2.912585808385187436e-14 2.641127334196413656e-13 8.797157474054254078e-14 1.110053889086248802e-13
6.605000000000000000e+03 5.646153640747070312e+01 2.192605209350585938e+01 1.236730173565653290e-13 2.131310400518490744e-13 1.010412185777770366e-13 -1.051344612496701858e-13
6.606000000000000000e+03 5.235961914062500000e+01 1.666100692749023438e+01 2.545821728070201545e-14 1.481635045772269899e-13 5.208651909847754335e-14 -9.616985755921819701e-14
6.607000000000000000e+03 1.233095359802246094e+01 -1.678525924682617188e+01 -6.453869285782259935e-14 -2.335387200465277591e-13 -8.942321980554696070e-14 -1.144200429932865082e-13
6.608000000000000000e+03 6.759626007080078125e+01 -3.665897369384765625e+00 -1.383497368046254089e-14 2.228254744347096805e-13 6.269714836280165793e-14 -1.016205586205128769e-14
6.609000000000000000e+03 6.728503417968750000e+01 -2.098682373762130737e-01 1.442464312058355791e-13 3.534821903499602014e-13 1.493185864667387341e-13 -2.084817914008510464e-13
6.610000000000000000e+03 6.792979431152343750e+01 -1.232496929168701172e+01 2.996346389321641324e-13 1.055393701035120535e-13 1.215522094869664338e-13 5.654804491957328427e-14
6.611000000000000000e+03 4.051432800292968750e+01 6.572729110717773438e+00 5.059923088705266248e-14 -2.406556467234206853e-14 7.960099695006588733e-15 -3.399356330821036443e-14
6.612000000000000000e+03 4.411347961425781250e+01 -1.121205615997314453e+01 8.809316801418679010e-14 2.665089557461058911e-13 1.063806364504614466e-13 6.684026433462914030e-14
6.613000000000000000e+03 4.280529022216796875e+01 -1.000272941589355469e+01 -5.241218971416966577e-14 3.892961799277505630e-13 1.010651929983161224e-13 -4.404770886684734876e-14
6.614000000000000000e+03 4.157667922973632812e+01 7.051610469818115234e+00 -5.304916187863668864e-14 -1.142372465070054521e-13 -5.018592285450582113e-14 -7.005053953351367269e-14
6.615000000000000000e+03 4.189549255371093750e+01 7.726082324981689453e+00 1.119703288421369791e-13 -8.926556325714041229e-14 6.811430268422033127e-15 -1.184668682596701217e-13
6.616000000000000000e+03 6.743809509277343750e+01 -1.648403048515319824e+00 -5.322265116689331443e-14 2.294124024321102240e-14 -9.084423277104687611e-15 -3.136444080256879652e-14
6.617000000000000000e+03 5.016454696655273438e+01 -1.618823432922363281e+01 4.839683341584244403e-14 2.723717247837126321e-13 9.623056610461380722e-14 -4.698656506327844942e-15
6.618000000000000000e+03 6.793317413330078125e+01 2.293925434350967407e-01 -6.222475131185435659e-15 -6.557432954924433122e-14 -2.153904157353551951e-14 -1.360288699172804150e-13
6.619000000000000000e+03 4.435920715332031250e+01 -1.039423942565917969e+01 -7.507489333707147855e-15 1.683485572083129322e-13 4.825232281877728235e-14 7.399739458333054465e-14
6.620000000000000000e+03 4.436190032958984375e+01 -1.179521179199218750e+01 5.990404027857165747e-14 2.773033809955888218e-13 1.011622290927535750e-13 6.215689042025213107e-14
6.621000000000000000e+03 3.868108749389648438e+01 -1.669493794441223145e+00 9.041308283649907018e-14 1.760013169276389289e-13 7.992432128449411533e-14 -2.306319604695669656e-14
6.622000000000000000e+03 4.268909072875976562e+01 9.157087326049804688e+00 1.240057047931925061e-13 6.458304350294083451e-14 5.657662381121364437e-14 -1.017894264970092832e-13
6.623000000000000000e+03 4.388719940185546875e+01 1.026890468597412109e+01 -6.276670670843018107e-14 2.361679374198594195e-13 5.202036921342877152e-14 -1.175960912848383888e-13
6.624000000000000000e+03 4.641970443725585938e+01 1.090076828002929688e+01 9.324037717048025420e-14 1.314620612889727536e-13 6.741073086020954452e-14 -1.113771821623608937e-13
6.625000000000000000e+03 3.653676605224609375e+01 -9.970406293869018555e-01 6.226925442290309753e-14 1.639396626264277845e-13 6.786267375954654901e-14 -1.453608148562976488e-14
6.626000000000000000e+03 5.359800720214843750e+01 -1.912004852294921875e+01 2.781353130394594725e-14 1.949238838915012817e-13 6.682122303397486363e-14 -8.038837336684506729e-14
6.627000000000000000e+03 6.175495529174804688e+01 -2.627429771423339844e+01 8.452011199212502990e-14 2.649776557027416768e-13 1.048493296308336542e-13 8.960190309983614987e-14
6.628000000000000000e+03 5.888882827758789062e+01 -2.205978965759277344e+01 -4.645107506918901702e-17 9.148199098208895097e-14 2.743066224739163644e-14 7.628928955574765247e-14
6.629000000000000000e+03 5.625967788696289062e+01 -1.989398384094238281e+01 -3.946616186525746250e-14 2.804671100399558359e-13 7.230027937021182849e-14 -9.653722591283775412e-14
6.630000000000000000e+03 6.834516143798828125e+01 -1.296339225769042969e+01 -1.335832350768048626e-13 1.715047917051626403e-13 1.137646563325461768e-14 4.840056713707394098e-14
6.631000000000000000e+03 6.806835937500000000e+01 -1.427965164184570312e+01 -1.477326832914627186e-13 2.569426334024516034e-13 3.276298367804394984e-14 -6.252831097949135275e-14
6.632000000000000000e+03 6.847357940673828125e+01 -1.860364532470703125e+01 6.784557724653916821e-14 4.408352209748361838e-13 1.526042340454017432e-13 8.910025630715426304e-14
6.633000000000000000e+03 6.502024841308593750e+01 -1.692990684509277344e+01 1.091013401583601494e-13 1.840105623212781594e-13 8.793357345439692385e-14 2.117118871707013295e-13
6.634000000000000000e+03 6.780042266845703125e+01 -1.563984870910644531e+01 -1.290909653478555796e-13 2.420564562590626911e-13 3.388964930624120686e-14 -9.000452157658864194e-14
6.635000000000000000e+03 6.598651885986328125e+01 -1.607268905639648438e+01 2.095138976589486224e-13 7.835393575281179857e-14 8.636034866827541068e-14 6.001632466012558204e-15
6.636000000000000000e+03 4.813986587524414062e+01 -1.437046813964843750e+01 -1.027414915297231168e-13 1.046585168247397835e-13 5.751084249500354028e-16 1.129457855367221875e-13
6.637000000000000000e+03 4.821979904174804688e+01 -1.602554702758789062e+01 -1.063071546482212415e-13 2.289454975427929195e-13 3.679149948023971439e-14 4.911973199061073214e-14
6.638000000000000000e+03 5.202398300170898438e+01 -1.988311004638671875e+01 2.390164685638941633e-14 1.017454620989149960e-13 3.769413167015178701e-14 -9.813812665347785430e-16
6.639000000000000000e+03 5.238972473144531250e+01 -1.875326728820800781e+01 -3.894055081643185701e-14 2.463791432157080852e-13 6.223157839740922626e-14 4.082678138161814629e-14
6.640000000000000000e+03 5.317041778564453125e+01 -2.041636466979980469e+01 -3.121219171249751956e-14 1.810648798863251363e-13 4.495580611333510612e-14 6.146220820702277821e-14
6.641000000000000000e+03 5.122568893432617188e+01 -1.847852516174316406e+01 -3.265789738247579232e-14 1.461320756242223684e-13 3.404225415015033063e-14 -6.438534601305168081e-14
6.642000000000000000e+03 6.417890930175781250e+01 -2.382372474670410156e+01 -4.330215724293769164e-14 2.902608437892889581e-13 7.408760698034491665e-14 6.188061537791209044e-14
6.643000000000000000e+03 4.792317962646484375e+01 -1.283085918426513672e+01 -6.125156805369957880e-14 1.110021769596888919e-13 1.492518131654407831e-14 1.363566784441314073e-13
6.644000000000000000e+03 6.015793609619140625e+01 -2.608372306823730469e+01 -1.088307232961077675e-14 2.584037855652560056e-13 7.425621397069356866e-14 3.311610493749068962e-14
6.645000000000000000e+03 6.296604537963867188e+01 -2.432573699951171875e+01 2.623942899169107862e-14 3.086266322799985362e-13 1.004598219390452629e-13 9.935892305310348172e-14
6.646000000000000000e+03 6.603713226318359375e+01 2.258369827270507812e+01 2.464052513122413045e-15 2.526862454086536980e-13 7.654508672955487314e-14 -4.893630869994870791e-14
6.647000000000000000e+03 6.774558258056640625e+01 2.178981590270996094e+01 -1.557551288465519601e-13 3.907573049855006531e-13 7.050065284168460789e-14 3.890545654736121683e-14
6.648000000000000000e+03 6.343210601806640625e+01 2.301626014709472656e+01 -4.192979107366448521e-15 6.682942908916786329e-14 1.879093634979314004e-14 -2.004781974110358966e-13
6.649000000000000000e+03 6.452017974853515625e+01 2.290262794494628906e+01 6.311127293510965242e-14 2.100514857536484037e-13 8.194882489612198562e-14 1.190498573203427335e-13
6.650000000000000000e+03 6.097251510620117188e+01 2.435352134704589844e+01 2.883936782416794686e-14 4.469937332600426583e-13 1.427499340522081495e-13 5.107202096128748980e-14
6.651000000000000000e+03 6.537796020507812500e+01 2.318323326110839844e+01 7.743449165296262260e-14 1.704390616271908576e-13 7.436206598404604406e-14 8.177502051160898122e-14
6.652000000000000000e+03 5.546156311035156250e+01 2.070462799072265625e+01 1.056383916431778702e-13 2.740283314931618586e-13 1.139000189737809920e-13 9.391575380877578705e-14
6.653000000000000000e+03 6.882067108154296875e+01 1.498919677734375000e+01 -6.528522026368749342e-14 1.092734640295058013e-13 1.319647346855867126e-14 -1.461835210173068056e-13
6.654000000000000000e+03 6.909355926513671875e+01 2.293241691589355469e+01 2.335384015621395914e-14 1.586993747136264399e-13 5.461596276688622520e-14 -1.516106982795903391e-13
6.655000000000000000e+03 6.921749114990234375e+01 2.207102775573730469e+01 9.287108096987274630e-15 2.327349467659556304e-13 7.260661391778402973e-14 -1.253256531755578274e-13
6.656000000000000000e+03 6.722342681884765625e+01 2.308508872985839844e+01 -1.113778868937730093e-13 4.376851664303696432e-14 -2.028281209166035021e-14 -1.670513804597015955e-14
6.657000000000000000e+03 6.860433197021484375e+01 2.424093246459960938e+01 7.080558470269615601e-14 2.591000059903175723e-13 9.897167314214597167e-14 -1.374552056378208764e-13
6.658000000000000000e+03 6.826876831054687500e+01 2.373437309265136719e+01 -1.002183836677598971e-13 -1.344526296938666765e-13 -7.040130604136704551e-14 -2.421232160078334861e-13
6.659000000000000000e+03 3.661638259887695312e+01 3.795591890811920166e-01 1.739566979775796635e-14 2.819609780033149882e-13 8.980699349328893910e-14 -1.377486314032769221e-13
6.660000000000000000e+03 3.734775543212890625e+01 2.561559915542602539e+00 1.283666776390537945e-13 5.501429186879382149e-14 5.501429186879382149e-14 -1.170428364687461920e-13
6.661000000000000000e+03 6.408104705810546875e+01 2.268370819091796875e+01 -3.506346417641442725e-14 -6.077815117508378329e-14 -2.875248257257038975e-14 -3.293096386401163367e-15
6.662000000000000000e+03 6.656120300292968750e+01 2.288830757141113281e+01 -1.290639551612335345e-13 8.193971759787310738e-14 -1.413727211604107539e-14 -8.179412957489903824e-14
6.663000000000000000e+03 6.579154968261718750e+01 2.318803787231445312e+01 -2.653783869900876863e-14 -5.712430853864469693e-14 -2.509864501832898692e-14 -5.642592648550173728e-14
6.664000000000000000e+03 6.495017242431640625e+01 2.308401298522949219e+01 6.896544289423586771e-14 1.210585180277251593e-13 5.700718759896195031e-14 6.817108184377362878e-14
6.665000000000000000e+03 6.148127746582031250e+01 2.453549575805664062e+01 -2.572156151806927193e-14 -2.626537496611819344e-13 -8.651259098208310960e-14 1.442920286834521726e-14
6.666000000000000000e+03 6.272971343994140625e+01 2.335800552368164062e+01 6.605672497710102231e-14 7.406097626448324145e-14 4.203530766196984791e-14 -5.831487772051460738e-14
6.667000000000000000e+03 5.854515075683593750e+01 2.431739807128906250e+01 1.035095183258552196e-14 -8.706577803553952610e-14 -2.301444760677631707e-14 1.071701728012561250e-13
6.668000000000000000e+03 6.045762634277343750e+01 2.413096046447753906e+01 3.893288686232510010e-14 4.284440640808795386e-13 1.402130907039722540e-13 9.430860091344875351e-14
6.669000000000000000e+03 5.830694198608398438e+01 2.499752807617187500e+01 8.947892069215840349e-14 1.984764349399759098e-13 8.638660668964029399e-14 1.087118405278947320e-13
6.670000000000000000e+03 5.918072509765625000e+01 2.435579299926757812e+01 1.038965463141805490e-13 2.275308847582424576e-13 9.942823067697961759e-14 1.048825672036839129e-13
6.671000000000000000e+03 6.857341003417968750e+01 6.709733963012695312e+00 5.876414399573828828e-14 3.511601545571479965e-13 1.229772848224813808e-13 -1.670613652840838292e-13
6.672000000000000000e+03 3.656422424316406250e+01 -3.139468133449554443e-01 -4.540187399214995478e-14 2.092967997264355562e-13 4.916847704265932262e-14 -1.148278114303583064e-13
6.673000000000000000e+03 3.731660079956054688e+01 -4.614196121692657471e-01 4.426108324252428505e-14 2.019728243159157888e-13 7.387017701091652677e-14 -6.833077127125358752e-14
6.674000000000000000e+03 4.077738189697265625e+01 -6.965508460998535156e+00 1.020187318683581784e-14 1.416250742982544386e-13 4.554808543137320309e-14 -1.250087815381217826e-13
6.675000000000000000e+03 4.124501037597656250e+01 -5.075984001159667969e+00 -3.637354631901013047e-14 -7.277734865489618454e-14 -3.274526713691917890e-14 -6.682056573640779429e-14
6.676000000000000000e+03 6.868483734130859375e+01 2.333129501342773438e+01 7.800051294963583626e-14 3.342879223216729812e-14 3.342879223216729812e-14 3.199697874955694313e-15
6.677000000000000000e+03 5.720043182373046875e+01 2.406053543090820312e+01 8.536905584570833594e-14 3.658673773557045983e-14 3.658673773557045983e-14 7.588728771898076153e-14
6.678000000000000000e+03 5.693135833740234375e+01 2.265376663208007812e+01 2.668697409596593878e-14 2.630674812102024029e-13 8.692634285989431220e-14 7.008681287244689084e-14
6.679000000000000000e+03 4.016759109497070312e+01 5.160897731781005859e+00 3.191290818844311206e-14 3.339335914991775622e-13 1.097539553272970647e-13 -6.818559660035777847e-14
6.680000000000000000e+03 3.946587753295898438e+01 6.056739330291748047e+00 1.350228200867062758e-14 1.201640647879517743e-13 4.009990514012955198e-14 1.781971312587830869e-14
6.681000000000000000e+03 4.274006652832031250e+01 7.499996662139892578e+00 -9.058227089144953864e-15 -9.538399394328281322e-14 -3.133266690265139320e-14 -4.611044415758248916e-14
6.682000000000000000e+03 6.643955230712890625e+01 1.737677383422851562e+01 2.181147108629502562e-14 1.923515735796979542e-13 6.424891272217153615e-14 -1.419420543559077319e-13
6.683000000000000000e+03 6.762956237792968750e+01 1.623987960815429688e+01 4.756190965160209116e-14 2.948893570737382008e-13 1.027353861162393078e-13 -1.015340765565982128e-13
6.684000000000000000e+03 6.888504028320312500e+01 1.922355079650878906e+01 5.758494538415231956e-14 1.161811667921633373e-13 5.212983297526833926e-14 -1.866664917256344314e-13
6.685000000000000000e+03 6.831232452392578125e+01 1.842638969421386719e+01 -1.843950746217501435e-14 3.784830183094743672e-14 5.822638734148200337e-15 -5.703873788218127849e-14
6.686000000000000000e+03 5.606375885009765625e+01 2.060750198364257812e+01 4.279036638367948731e-14 1.555915769488325218e-13 5.951458130568770821e-14 -1.051222707514933019e-13
6.687000000000000000e+03 5.538567352294921875e+01 2.009213447570800781e+01 3.489466745068559028e-14 2.894605399556687830e-13 9.730656222190631199e-14 -1.678355974435875170e-14
6.688000000000000000e+03 4.490281295776367188e+01 1.039455318450927734e+01 -1.562155081940436174e-13 2.976283770220883307e-13 4.242385861553434057e-14 -2.585348927129638152e-13
6.689000000000000000e+03 4.384921646118164062e+01 -1.076273441314697266e+01 -1.088729902401757571e-14 3.270283891777803209e-13 9.484232653790905521e-14 -6.757759635081864169e-14
6.690000000000000000e+03 3.995630264282226562e+01 4.481616020202636719e+00 -6.039211421530674140e-14 8.849503432568212036e-14 8.430877218958739844e-15 -2.958512951224852305e-14
6.691000000000000000e+03 6.735350036621093750e+01 1.113100624084472656e+01 -1.901964032774948465e-14 2.091657332363092148e-13 5.704382685612838233e-14 -2.726231614319073876e-14
6.692000000000000000e+03 4.861071014404296875e+01 1.258409404754638672e+01 -9.354459921788200322e-15 -4.009054373199649746e-15 -4.009054373199649746e-15 -3.345999353781235752e-14
6.693000000000000000e+03 5.055298233032226562e+01 1.422939205169677734e+01 1.834652611445606804e-15 -4.496466946609517512e-14 -1.293900509874651786e-14 -1.614728451860072966e-13
6.694000000000000000e+03 5.002458190917968750e+01 1.515032863616943359e+01 -1.021535286915842278e-13 -1.581574498102367166e-13 -7.809329355054628330e-14 -1.140678670226089042e-13
6.695000000000000000e+03 4.582516479492187500e+01 1.049548625946044922e+01 1.817835704014114651e-14 9.929262409025599312e-14 3.524129366149278408e-14 -4.108011877174654047e-14
6.696000000000000000e+03 6.751074218750000000e+01 1.013710880279541016e+01 -1.680262645600144600e-14 3.016177802309116807e-13 8.544454342196763919e-14 -1.070719847420104065e-13
6.697000000000000000e+03 5.660166168212890625e+01 2.125745582580566406e+01 -4.915992539802384320e-14 -6.681948831049888682e-14 -3.479382309611728230e-14 1.042856800264127526e-14
6.698000000000000000e+03 6.830053710937500000e+01 8.706403732299804688e+00 -2.219925293394341137e-14 2.421162500088752667e-13 6.597509810604001990e-14 -1.248572913895712455e-13
6.699000000000000000e+03 6.707252502441406250e+01 -1.182460403442382812e+01 1.391857955930150825e-13 5.965105525414932108e-14 5.965105525414932108e-14 -3.120456163970865282e-14
6.700000000000000000e+03 6.757178497314453125e+01 1.557615947723388672e+01 7.619188754307698597e-14 -1.309728167527045642e-14 1.892838269207820084e-14 -6.007472758183876604e-14
6.701000000000000000e+03 6.642028808593750000e+01 4.504460811614990234e+00 1.465675149336150701e-14 9.778336045604754667e-14 3.373203341541612665e-14 -1.082378815481926937e-13
6.702000000000000000e+03 6.818038940429687500e+01 5.229621410369873047e+00 2.840953248475427961e-14 4.239340540938829616e-13 1.357030807169756770e-13 -1.756601862665935210e-13
6.703000000000000000e+03 6.691139984130859375e+01 2.841987609863281250e+00 6.107985075836860900e-14 9.480350532387049611e-14 4.676500750229808934e-14 -3.240185626317976242e-13
6.704000000000000000e+03 6.744757843017578125e+01 2.580437183380126953e+00 3.410357255926796394e-14 -4.257286865161531708e-14 -2.540788404187732316e-15 -1.866870238042758756e-13
6.705000000000000000e+03 6.941622161865234375e+01 2.119722366333007812e+01 1.025650511786782570e-13 1.812092956157002055e-13 8.513230674881896998e-14 -1.474088456550684545e-13
6.706000000000000000e+03 6.880322265625000000e+01 2.019771385192871094e+01 8.003219940065642302e-14 3.429951499689040673e-14 3.429951499689040673e-14 -1.306807309933710748e-13
6.707000000000000000e+03 4.749407196044921875e+01 -1.148707294464111328e+01 -2.580686451212135801e-14 1.261927574155302656e-13 3.011576854864903008e-14 9.753999094964244110e-14
6.708000000000000000e+03 6.805151367187500000e+01 6.149399757385253906e+00 -1.006969166253771086e-13 1.970366551124966281e-13 2.890192290138857145e-14 -1.619117708830108970e-13
6.709000000000000000e+03 4.885442352294921875e+01 -1.347206401824951172e+01 -4.054177851178959735e-14 -4.025052115067852265e-14 -2.423769023755361490e-14 -9.870577255934390171e-14
6.710000000000000000e+03 4.329924392700195312e+01 9.743774414062500000e+00 -9.630484750595622034e-14 -1.556508828076674789e-13 -7.558671977171346756e-14 -7.237929737979528766e-14
6.711000000000000000e+03 6.537964630126953125e+01 -4.161653995513916016e+00 -9.428636799264922264e-14 7.396892750003922212e-14 -6.095231300750052900e-15 -5.790442588306590754e-14
6.712000000000000000e+03 6.767601013183593750e+01 -4.438988685607910156e+00 8.676140860440495484e-14 1.744363117492375714e-13 7.835931610609275788e-14 -2.375273338206442680e-14
6.713000000000000000e+03 4.185008621215820312e+01 -7.531503677368164062e+00 4.196355719507383064e-14 3.839919647443540418e-13 1.277866565818283617e-13 -5.984316910285017443e-14
6.714000000000000000e+03 6.767694091796875000e+01 1.174722957611083984e+01 -6.038431473592842380e-14 -2.775092167780351948e-13 -1.013680580989363700e-13 -1.288792613211506288e-13
6.715000000000000000e+03 5.393369293212890625e+01 1.833824920654296875e+01 -2.266691337664966666e-14 1.504139288165465271e-13 3.832410395434270034e-14 1.534834373039927619e-14
6.716000000000000000e+03 5.110623168945312500e+01 1.544393730163574219e+01 -8.357340020763784350e-14 -7.013038424725365205e-14 -4.611113533646744866e-14 -1.417970287628106396e-13
6.717000000000000000e+03 6.773336029052734375e+01 -7.446715831756591797e-01 -1.381107888102049708e-14 -5.166998217633576862e-14 -1.964431865602005861e-14 -5.741702279642504902e-14
6.718000000000000000e+03 6.767781066894531250e+01 -2.206588983535766602e+00 1.158542527321046456e-13 4.965182453554872755e-14 4.965182453554872755e-14 5.995299878292295603e-14
6.719000000000000000e+03 6.582588195800781250e+01 -9.954739570617675781e+00 6.490793823645327199e-14 7.356863328169399585e-14 4.154297145544418035e-14 -3.802982099154403328e-14
6.720000000000000000e+03 6.734858703613281250e+01 -8.962602615356445312e+00 -2.288411803531408689e-14 3.562001225660554882e-13 9.999480085100265203e-14 5.304076269993171500e-14
6.721000000000000000e+03 6.649726104736328125e+01 -8.946824073791503906e+00 1.128139126712300599e-13 1.856016696669821053e-13 8.952467402383729178e-14 -3.661174892443698481e-14
6.722000000000000000e+03 4.596166229248046875e+01 1.137319946289062500e+01 -4.897292424019261681e-14 1.332481505369369559e-14 -1.069443301005956054e-14 7.121184880925363059e-14
6.723000000000000000e+03 5.245053100585937500e+01 1.607609558105468750e+01 4.279234166451248433e-14 1.833957620912384651e-14 1.833957620912384651e-14 -1.619036664717715679e-13
6.724000000000000000e+03 5.123905181884765625e+01 1.632536125183105469e+01 9.807841930102589867e-14 8.778455664205236930e-14 5.575889481580255380e-14 -1.297874297184059555e-13
6.725000000000000000e+03 3.929180908203125000e+01 -2.752254486083984375e+00 4.274305789950944012e-14 -7.318344335486420826e-14 -9.132116314232788246e-15 -8.602850148833190991e-14
6.726000000000000000e+03 3.983150100708007812e+01 -4.463844299316406250e+00 2.632184021526123852e-14 -3.447016164257604709e-14 -2.444495792919732131e-15 -1.321455694435619277e-13
6.727000000000000000e+03 6.626473999023437500e+01 -3.458762168884277344e+00 6.295832843098867967e-15 1.170755793743552542e-13 3.701142650279660995e-14 -2.771061341272276074e-14
6.728000000000000000e+03 6.652365875244140625e+01 -8.016685485839843750e+00 2.219960360558357465e-14 2.840197966137020247e-13 9.186582565620313168e-14 5.713583496299093345e-14
6.729000000000000000e+03 6.695019531250000000e+01 2.266595602035522461e+00 -1.044465485237552893e-13 1.039277781130117095e-13 -1.556310544016469661e-16 -1.628418130590961188e-13
6.730000000000000000e+03 5.991527938842773438e+01 2.391072845458984375e+01 1.050791466100826910e-13 3.652905614711515758e-13 1.411109049704803442e-13 -2.022763636547620508e-14
6.731000000000000000e+03 5.299333572387695312e+01 1.666637611389160156e+01 6.237847423925385604e-14 2.673363205883249466e-14 2.673363205883249466e-14 -3.632847061368904562e-14
6.732000000000000000e+03 6.797718048095703125e+01 1.300097751617431641e+01 -8.498913107567868108e-14 -1.736767603647756952e-13 -7.759976472163088168e-14 -1.571765992098433928e-13
6.733000000000000000e+03 6.726590728759765625e+01 1.248178195953369141e+01 9.978081322347190363e-14 -2.317424952023167117e-13 -3.958850052789529561e-14 7.127099881402629289e-14
6.734000000000000000e+03 4.054525375366210938e+01 -4.704850673675537109e+00 -1.140821920438128689e-13 -9.464332122914934087e-14 -6.261765601476773635e-14 -1.302562387377886877e-13
6.735000000000000000e+03 5.163146209716796875e+01 1.508761310577392578e+01 -5.146803258105139833e-14 1.609460720079780582e-13 3.284341115045164017e-14 -2.742457411337995143e-13
6.736000000000000000e+03 3.807010650634765625e+01 -6.391780376434326172e-01 1.613275383779717159e-14 5.266498500321181719e-14 2.063932148289610718e-14 4.731131664822280092e-14
6.737000000000000000e+03 3.903218460083007812e+01 3.916104793548583984e+00 8.089393683987505801e-14 8.041978134852925675e-14 4.839411613414765223e-14 -4.038426087678639864e-14
6.738000000000000000e+03 3.816537857055664062e+01 3.264734506607055664e+00 1.384996582481576310e-13 1.966098453747705532e-13 1.005328497316257397e-13 -6.578776152316168080e-14
6.739000000000000000e+03 6.727912902832031250e+01 -1.266728019714355469e+01 -1.249358147319135082e-13 8.370892547919853155e-14 -1.236806931691333475e-14 8.666893971161909738e-14
6.740000000000000000e+03 3.948722457885742188e+01 -1.908592939376831055e+00 -5.126730271321107424e-14 6.953019702961998894e-14 5.478868294922674409e-15 -2.701295980791443979e-14
6.741000000000000000e+03 4.420214080810546875e+01 -8.273739814758300781e+00 -6.661245990566277975e-14 1.201423807445020642e-13 1.605897726809132203e-14 8.210318818042960931e-14
6.742000000000000000e+03 6.805408477783203125e+01 1.363200092315673828e+01 2.113911327342350710e-14 1.463124597606696442e-13 5.023547428192019770e-14 -6.413020613681152948e-14
6.743000000000000000e+03 4.805409240722656250e+01 1.027064323425292969e+01 -4.604683537137548022e-14 -8.296620802753038731e-15 -1.630303795338138712e-14 -1.362435826050140131e-13
6.744000000000000000e+03 4.962020111083984375e+01 1.221019172668457031e+01 -4.060036269855349378e-14 7.410174226616869642e-14 1.005041353147138189e-14 -1.499589840324444534e-13
6.745000000000000000e+03 3.896001815795898438e+01 -1.280343532562255859e-02 3.863540211498581178e-14 -7.494386919859249985e-14 -1.089254046389518532e-14 -6.018217879339565757e-14
6.746000000000000000e+03 4.954226303100585938e+01 1.364986228942871094e+01 7.241967035819321663e-14 -1.471394654609190639e-14 1.731171697422380362e-14 -1.126531119365233036e-13
6.747000000000000000e+03 6.763644409179687500e+01 -1.347834682464599609e+01 1.400405805858026542e-13 1.972702329180314740e-13 1.011932440511502385e-13 6.952180801531038234e-14
6.748000000000000000e+03 6.738257598876953125e+01 7.713694572448730469e-01 5.371570904549004266e-14 8.878800608147843776e-14 4.275111487690372303e-14 -2.041164004311368796e-13
6.749000000000000000e+03 6.661252593994140625e+01 -1.516203403472900391e+00 6.485004184044254605e-14 3.137363144885968458e-13 1.135759035105800285e-13 -1.137407496746428714e-13
6.750000000000000000e+03 6.702822113037109375e+01 -2.531641960144042969e+00 2.369622103788951439e-14 2.389102641848356301e-13 7.878194488919118554e-14 -7.150871691660731777e-14
6.751000000000000000e+03 4.664791107177734375e+01 -1.108164119720458984e+01 -4.546253679776641327e-15 3.183082595246966573e-13 9.412859624776184764e-14 -1.689877824804196516e-14
6.752000000000000000e+03 4.603732299804687500e+01 -1.252605628967285156e+01 -1.252569028993609848e-14 4.063903890055148294e-13 1.181594020760803887e-13 -6.677090250064438015e-14
6.753000000000000000e+03 4.299897766113281250e+01 8.199351310729980469e+00 2.163998553917842460e-13 -1.817629027974984601e-13 1.039108425362643071e-14 -1.107156968644003314e-13
6.754000000000000000e+03 4.329970169067382812e+01 8.833606719970703125e+00 -5.419940212782192734e-14 -2.405453223761067072e-13 -8.842341599592587476e-14 -1.340026044771222558e-13
6.755000000000000000e+03 6.407899475097656250e+01 -1.937971878051757812e+01 6.107743163227125072e-14 1.634288949829698634e-13 6.735189933982504984e-14 6.232649352134675413e-14
6.756000000000000000e+03 5.259077072143554688e+01 -1.756266784667968750e+01 -2.972369393802395954e-14 1.016386478561344398e-13 2.157448482018042846e-14 2.454963722543432314e-14
6.757000000000000000e+03 4.911584472656250000e+01 -1.620290756225585938e+01 -2.402484102230397628e-14 3.545459011013857298e-14 3.428924472240494833e-15 8.482720717528386550e-15
6.758000000000000000e+03 5.016278839111328125e+01 -1.727093696594238281e+01 -3.631312576481658672e-14 -6.131371316697373230e-14 -2.928805134072391680e-14 -3.854423426480693693e-14
6.759000000000000000e+03 6.034332275390625000e+01 -2.226234626770019531e+01 1.193012871922739110e-14 2.567431402027142706e-13 8.060197474735186773e-14 4.892420629319833847e-14
6.760000000000000000e+03 5.764841079711914062e+01 -2.021540832519531250e+01 1.919110690132806718e-14 3.110023428566123516e-14 1.508740167847043290e-14 2.457116710888763295e-14
6.761000000000000000e+03 5.778899002075195312e+01 -1.768495750427246094e+01 -7.054534907624532281e-14 1.756455495372649667e-13 3.153005946067953535e-14 1.579154423328107959e-13
6.762000000000000000e+03 5.387472152709960938e+01 -1.781046295166015625e+01 1.047968745744760899e-13 2.507922255284844582e-13 1.066767252875036598e-13 4.572224895785584331e-14
6.763000000000000000e+03 6.733145141601562500e+01 -1.481072235107421875e+01 1.352772467612048390e-13 2.524174987951488536e-13 1.163084250221588234e-13 2.276791019714848041e-14
6.764000000000000000e+03 6.657712554931640625e+01 -1.536824893951416016e+01 -3.009198047535834031e-14 3.073600673021009699e-13 8.318043113022047241e-14 -5.580792108278963271e-14
6.765000000000000000e+03 6.719934844970703125e+01 -1.836196517944335938e+01 4.984963044565512980e-14 4.331226675056976116e-13 1.448916941287903271e-13 6.504951471138914476e-14
6.766000000000000000e+03 6.238497924804687500e+01 -2.312415122985839844e+01 8.701674287470650103e-16 2.748786170469336154e-13 8.272463931317114438e-14 1.040035502923412902e-13
6.767000000000000000e+03 6.526731872558593750e+01 -1.914999389648437500e+01 8.394897461645040027e-14 -9.772817117733624548e-15 2.225284809664797997e-14 1.853524115875276879e-13
6.768000000000000000e+03 6.582888031005859375e+01 -1.691298294067382812e+01 1.304131634497288084e-13 2.846461131036925885e-13 1.245177870317845659e-13 -7.746874566534958650e-14
6.769000000000000000e+03 6.599599456787109375e+01 -1.782332229614257812e+01 1.883572914610984195e-13 1.951019234407505576e-13 1.150377671810601243e-13 9.725202685263029112e-14
6.770000000000000000e+03 6.333160781860351562e+01 -2.585602569580078125e+01 -1.032271683632174711e-14 3.158326193890975686e-13 9.165296966468991502e-14 4.577212564592196553e-14
6.771000000000000000e+03 5.742537689208984375e+01 -2.173795509338378906e+01 4.366030310182754393e-14 2.932172462732224316e-13 1.010632685394599606e-13 -3.626102985042865823e-14
6.772000000000000000e+03 1.567496204376220703e+01 -3.488045501708984375e+01 4.729045930892961103e-14 -9.411002928555803337e-14 -1.404587133180170561e-14 -1.015500939496307917e-14
6.773000000000000000e+03 5.937004852294921875e+01 -2.762097549438476562e+01 5.822053857898121243e-14 2.508469777381949761e-13 9.272025150702106755e-14 1.568503085660338803e-14
6.774000000000000000e+03 5.773614883422851562e+01 -1.884016036987304688e+01 4.593949258003583724e-14 3.628204778716864753e-13 1.226279955400880195e-13 -5.154348966412460042e-14
6.775000000000000000e+03 5.960597229003906250e+01 -3.323943328857421875e+01 4.506884096608029799e-14 2.595076931122264341e-13 9.137296090111837743e-14 3.423858961106029941e-14
6.776000000000000000e+03 6.098377990722656250e+01 -3.594664764404296875e+01 7.448172124630697555e-14 2.606754872722105709e-13 1.005471612003025483e-13 1.534825225084097272e-14
6.777000000000000000e+03 6.390417480468750000e+01 2.322632408142089844e+01 1.702362345057731319e-13 7.295839008891052968e-14 7.295839008891052968e-14 1.801670385147627340e-13
6.778000000000000000e+03 6.601766967773437500e+01 2.211325073242187500e+01 2.856603368022077316e-14 1.224258562094234642e-14 1.224258562094234642e-14 3.220192599444164638e-14
6.779000000000000000e+03 6.893482208251953125e+01 2.155874443054199219e+01 7.446119594392910934e-14 7.766289239312385018e-14 4.563722717874224566e-14 -4.493973620425979754e-14
6.780000000000000000e+03 6.469494628906250000e+01 2.238884925842285156e+01 1.363438984110232344e-13 5.843310319116057361e-14 5.843310319116057361e-14 2.647024546981787546e-14
6.781000000000000000e+03 6.070766448974609375e+01 2.357254600524902344e+01 5.915788556720355529e-14 2.541081223477598128e-13 9.397980305211536822e-14 8.133585764538014962e-14
6.782000000000000000e+03 6.694314575195312500e+01 2.257030677795410156e+01 -1.087006952683747599e-14 -5.040954971697632347e-14 -1.838388619666061347e-14 -1.043103930596818441e-13
6.783000000000000000e+03 6.878726959228515625e+01 2.243617439270019531e+01 1.387020652412335187e-13 1.051946954566153336e-13 7.316903024223372909e-14 1.597412658963306975e-14
6.784000000000000000e+03 5.464716720581054688e+01 1.845467185974121094e+01 1.289700090429876655e-13 1.925257100011262823e-13 9.644871435798146875e-14 5.155086562702929087e-14
6.785000000000000000e+03 5.607571411132812500e+01 1.994382095336914062e+01 1.124050193744043080e-13 4.817357924786873358e-14 4.817357924786873358e-14 1.174942304907333757e-13
6.786000000000000000e+03 6.821362304687500000e+01 1.562329292297363281e+01 -1.600226333007496310e-14 1.761456784469053738e-13 4.804302436564253376e-14 -4.971956345440654845e-14
6.787000000000000000e+03 6.633387756347656250e+01 2.241441726684570312e+01 1.230838076859280816e-13 5.275019990583738883e-14 5.275019990583738883e-14 -1.222564801131587053e-13
6.788000000000000000e+03 6.570786285400390625e+01 2.263995361328125000e+01 1.058436446669565323e-13 2.283653680653502382e-13 1.002627004315602421e-13 -8.971303382251591407e-14
6.789000000000000000e+03 3.738359832763671875e+01 1.019444823265075684e+00 -9.182315721851814355e-15 2.705704041892909029e-13 7.841642645552843183e-14 -1.381060250969096126e-13
6.790000000000000000e+03 3.899678421020507812e+01 2.406924962997436523e+00 7.771467659938718908e-14 3.078119898726472403e-13 1.156579985863576132e-13 -1.103285960312415381e-13
6.791000000000000000e+03 6.196907424926757812e+01 2.354462432861328125e+01 6.962189342835795047e-14 9.846437494564000414e-14 5.042588051219938639e-14 2.428334023121293817e-14
6.792000000000000000e+03 6.224013137817382812e+01 2.304947280883789062e+01 1.962746236155651913e-13 3.128724493026147080e-13 1.527441232307066854e-13 1.094738313672447005e-13
6.793000000000000000e+03 6.794572448730468750e+01 2.321922683715820312e+01 1.886144100063033568e-13 -1.066715346696028854e-14 5.338417357367113147e-14 9.301020782552515964e-14
6.794000000000000000e+03 6.170918655395507812e+01 2.403308677673339844e+01 4.601467183630233992e-14 6.547152007823839326e-14 3.344585825198857776e-14 -7.984227428509127478e-14
6.795000000000000000e+03 6.122251510620117188e+01 2.380737876892089844e+01 -7.941362817993555256e-14 -1.255363136576717609e-13 -6.148498322890855183e-14 1.248875812877650593e-13
6.796000000000000000e+03 4.072607040405273438e+01 4.324780941009521484e+00 6.779075049792929186e-14 2.578079351563122845e-13 9.767960230814068390e-14 -9.533145079549873446e-14
6.797000000000000000e+03 4.135960006713867188e+01 4.425948143005371094e+00 4.134320042890014812e-14 2.922241983983886460e-13 1.000702206646261749e-13 -9.584333652244703128e-14
6.798000000000000000e+03 4.109397888183593750e+01 7.940532684326171875e+00 -5.871742843463131911e-14 6.633728939428595872e-14 2.285957694973328805e-15 -4.376449154247161188e-14
6.799000000000000000e+03 6.852957153320312500e+01 1.964550399780273438e+01 4.802286498149788141e-14 1.120831265256569398e-13 4.803179609689373075e-14 -5.137581441001792815e-14
6.800000000000000000e+03 6.906287384033203125e+01 2.070088577270507812e+01 4.665800013600555907e-14 -7.150561338788857801e-14 -7.454282959125368979e-15 -6.344071454148295097e-14
6.801000000000000000e+03 6.733230590820312500e+01 7.573740482330322266e+00 1.139968534743769982e-14 2.336403368951439630e-13 7.351200404697236235e-14 -8.208088072073072006e-14
6.802000000000000000e+03 6.795835876464843750e+01 7.143887519836425781e+00 -4.606033030029113573e-14 3.977372630466907699e-13 1.055030832120516793e-13 -1.922580746948482355e-13
6.803000000000000000e+03 3.737117385864257812e+01 1.788329720497131348e+00 4.397886880515809727e-14 1.884808566274438768e-14 1.884808566274438768e-14 4.225995435210884443e-14
6.804000000000000000e+03 6.734091186523437500e+01 1.303806114196777344e+01 2.075673210784681477e-14 8.895742452939055939e-15 8.895742452939055939e-15 1.531029670447450752e-13
6.805000000000000000e+03 3.885164642333984375e+01 -8.347298502922058105e-01 2.973369570306513832e-14 1.274301183914723981e-14 1.274301183914723981e-14 -3.823054069498899032e-14
6.806000000000000000e+03 5.786373901367187500e+01 2.417859268188476562e+01 3.204862997164756311e-14 1.052370267751873145e-13 4.118569634642410549e-14 5.119621293201391532e-14
6.807000000000000000e+03 5.042251586914062500e+01 1.353935337066650391e+01 -4.353032759013726605e-14 3.016007853618579704e-13 7.742113563745031679e-14 -1.789225641561295599e-13
6.808000000000000000e+03 6.768859863281250000e+01 1.762813949584960938e+01 -1.217164915270864053e-14 1.777873773764829246e-13 4.968471651895650654e-14 -1.428162601201099502e-13
6.809000000000000000e+03 5.535587310791015625e+01 1.933188438415527344e+01 1.189804548287765051e-13 5.099162398206590063e-14 5.099162398206590063e-14 6.370381652742729273e-14
6.810000000000000000e+03 5.610507202148437500e+01 1.922080993652343750e+01 8.402954439039322931e-14 3.562692946646600634e-13 1.320896517165159878e-13 8.539514276641787388e-15
6.811000000000000000e+03 4.948986053466796875e+01 1.286663055419921875e+01 -5.311734125462708178e-14 -6.851552609770869551e-14 -3.648985749519530197e-14 -3.626357298214949454e-13
6.812000000000000000e+03 6.767231750488281250e+01 1.692403984069824219e+01 -1.464770687555072559e-14 2.682280938158532191e-13 7.607411608209074805e-14 1.647517707112008956e-14
6.813000000000000000e+03 6.686428070068359375e+01 1.490622425079345703e+01 8.287446927714506306e-14 3.557742750577574942e-13 1.315946185570862625e-13 7.452749490677659794e-14
6.814000000000000000e+03 5.710706710815429688e+01 2.197250556945800781e+01 1.485795942659726143e-13 3.153071879112567810e-13 1.391660360084215342e-13 1.322820433920235406e-13
6.815000000000000000e+03 4.439061355590820312e+01 9.812361717224121094e+00 2.516133392675527769e-14 -3.094732044413295302e-13 -8.529356149318545466e-14 2.018116136172625613e-14
6.816000000000000000e+03 4.603903198242187500e+01 9.979687690734863281e+00 -1.010908953660676068e-13 1.396791211340231431e-13 1.157646874682619759e-14 -1.773495087765974976e-13
6.817000000000000000e+03 5.669483947753906250e+01 2.057741928100585938e+01 1.157162880056558651e-14 5.071021930819728796e-14 1.868455409381568344e-14 1.297160892154564094e-13
6.818000000000000000e+03 6.690828704833984375e+01 1.055768775939941406e+01 -1.801383783079594375e-14 9.436390030644319776e-15 -2.573234424748781918e-15 -1.419389508271889921e-13
6.819000000000000000e+03 6.742732238769531250e+01 6.543536186218261719e+00 1.011592068791977717e-13 3.464539852920944796e-13 1.342839549408822442e-13 -1.147488544071470495e-13
6.820000000000000000e+03 6.847770690917968750e+01 7.708116054534912109e+00 -5.410465302234206131e-15 1.749661613509312375e-13 5.086670695113662544e-14 -1.220204357476814550e-13
6.821000000000000000e+03 6.831863403320312500e+01 1.907635498046875000e+01 -2.798382134876079355e-15 1.360535355167044602e-13 3.997654664982322470e-14 2.883374352539817831e-14
6.822000000000000000e+03 6.697529602050781250e+01 4.291457653045654297e+00 4.313604730571754531e-14 3.844944653462467610e-13 1.282891571837210809e-13 -3.041429955108476690e-13
6.823000000000000000e+03 6.724298095703125000e+01 4.920266151428222656e+00 -3.396196897927777902e-14 3.514524554628500885e-13 9.524714730032440846e-14 -1.267725074222125770e-13
6.824000000000000000e+03 6.758548736572265625e+01 4.044235229492187500e+00 -9.999582406680293523e-14 4.146541237540907199e-13 9.439749193906540881e-14 -1.508482195492627520e-13
6.825000000000000000e+03 6.759005737304687500e+01 5.550389766693115234e+00 1.561698044137921435e-15 3.438014033619457566e-13 1.036089345828744568e-13 -1.430756419373499511e-13
6.826000000000000000e+03 4.121016693115234375e+01 5.846611499786376953e+00 -6.954107970892631219e-14 -1.213052146795470798e-13 -5.725389102704744881e-14 -2.085922716022273193e-13
6.827000000000000000e+03 4.379455566406250000e+01 9.314379692077636719e+00 7.297721624319620376e-15 3.691351965848937988e-13 1.129298748698409627e-13 -1.032871501543443371e-13
6.828000000000000000e+03 5.129438400268554688e+01 1.406996250152587891e+01 -3.572902200878538825e-14 1.676913545089336877e-13 3.958870042767084763e-14 -2.345513377705749081e-13
6.829000000000000000e+03 5.075941467285156250e+01 1.489800167083740234e+01 2.172386924482409137e-14 2.838159123951661256e-13 9.166193466140365453e-14 -2.276875519721666130e-13
6.830000000000000000e+03 6.701928710937500000e+01 1.200691223144531250e+01 -8.108237117745303868e-14 -1.491269537327519212e-13 -6.906279747306148797e-14 2.979858732067076389e-15
6.831000000000000000e+03 6.835771179199218750e+01 1.168576145172119141e+01 -2.290115017381747636e-14 -9.814778282907655332e-15 -9.814778282907655332e-15 -1.541293812414371023e-13
6.832000000000000000e+03 5.541292190551757812e+01 1.850217819213867188e+01 -8.659131761233271329e-14 2.145196590893141964e-13 3.837850041021537151e-14 8.179967255850587038e-14
6.833000000000000000e+03 6.695284271240234375e+01 -3.632131099700927734e+00 1.549458667924816235e-13 1.121563169485632894e-13 8.013065173418168485e-14 -8.224385663604602548e-14
6.834000000000000000e+03 6.600382995605468750e+01 -5.189833164215087891e+00 4.129085040462804335e-14 2.235753493147821236e-13 7.945986262632848129e-14 1.711970794585017299e-15
6.835000000000000000e+03 6.622409057617187500e+01 -1.139363479614257812e+01 1.196480523164844545e-13 1.885305876258430713e-13 9.245359198269825773e-14 -1.042905589361889374e-14
6.836000000000000000e+03 3.899800872802734375e+01 3.175969123840332031e+00 4.726645100707263514e-14 2.032608429443014120e-13 7.515818886303857194e-14 3.776587536078422624e-14
6.837000000000000000e+03 6.567252349853515625e+01 -7.851473808288574219e+00 1.217319973122188426e-13 1.894236991654280056e-13 9.334671029854677005e-14 -8.432147937786210745e-14
6.838000000000000000e+03 6.530245208740234375e+01 -1.107048416137695312e+01 9.735166503228170898e-14 1.332240388970604150e-13 6.917270846829720599e-14 2.157681754891716680e-14
6.839000000000000000e+03 6.505342102050781250e+01 -1.018943119049072266e+01 -2.931012840746115289e-14 2.619442206544531082e-13 6.979022259189990307e-14 8.171552491739383917e-14
6.840000000000000000e+03 6.597839355468750000e+01 -1.071924781799316406e+01 -3.484723021750756045e-14 2.595711731494254604e-13 6.741718186313583328e-14 6.124225069127978149e-14
6.841000000000000000e+03 5.416540908813476562e+01 1.754075813293457031e+01 2.167197111262934676e-15 -4.482215109052195556e-14 -1.279648587614035105e-14 -3.788604731314298285e-15
6.842000000000000000e+03 5.155593490600585938e+01 1.580434417724609375e+01 -3.705040695902925285e-14 3.559107083486376388e-14 -4.378006254914098769e-16 -1.953754540963414943e-13
6.843000000000000000e+03 4.539922332763671875e+01 1.007598018646240234e+01 -1.027603769763150987e-13 -4.100477552990144936e-13 -1.538424335839616575e-13 4.932377883947250408e-14
6.844000000000000000e+03 6.665358734130859375e+01 -7.078013420104980469e+00 9.341794915754264572e-14 2.230400651496988740e-13 9.493740429217245591e-14 -7.058441423577269114e-14
6.845000000000000000e+03 3.814711380004882812e+01 1.360440850257873535e-01 7.917172912272688046e-14 1.711835832590366535e-13 7.510659439215541799e-14 -2.833635561437508610e-14
6.846000000000000000e+03 3.817733764648437500e+01 1.708477020263671875e+00 8.086060439933470678e-14 1.719073966293879763e-13 7.583040098624316272e-14 -2.279866291414467394e-13
6.847000000000000000e+03 5.725394821166992188e+01 2.127844429016113281e+01 6.759061355315204578e-14 -6.253449093187452013e-14 1.516836320515136706e-15 1.338207431152149685e-13
6.848000000000000000e+03 6.670152282714843750e+01 1.245352840423583984e+01 7.340354486620823821e-15 2.776515454182282294e-13 8.549757446072933642e-14 -1.375394888042044683e-13
6.849000000000000000e+03 6.632154083251953125e+01 1.094404506683349609e+01 -3.153171625712436477e-14 -1.850796534259846471e-13 -6.498341226018541916e-14 -1.017026225605746625e-13
6.850000000000000000e+03 4.894551849365234375e+01 1.190221405029296875e+01 1.068109901740388334e-13 3.660327791733808400e-13 1.418531362252367645e-13 -2.247634180553917393e-13
6.851000000000000000e+03 4.379664993286132812e+01 8.103474617004394531e+00 -1.057373521964714846e-13 -1.368179116008338969e-13 -7.276657439580710984e-14 -6.349901073704478094e-14
6.852000000000000000e+03 4.013088226318359375e+01 -2.983808279037475586e+00 -1.109418428028559681e-14 1.782491390817445009e-13 5.014648838861344993e-14 -1.219334014182851811e-13
6.853000000000000000e+03 5.760007476806640625e+01 2.272899627685546875e+01 9.512409035374730371e-14 4.076746535838782215e-14 4.076746535838782215e-14 8.639370143760649601e-14
6.854000000000000000e+03 4.390281295776367188e+01 -9.894521713256835938e+00 4.641901063697070548e-15 1.578285570812132388e-13 4.874113536824237203e-14 -5.352884680106216597e-14
6.855000000000000000e+03 6.836631774902343750e+01 2.282377433776855469e+01 -3.419455406219844285e-14 2.140999373232907455e-13 5.397161463951451188e-14 -2.771263849909305632e-13
6.856000000000000000e+03 6.848847198486328125e+01 2.192598533630371094e+01 -6.434603690803550324e-14 2.469288337171582359e-13 5.477483565460503079e-14 -2.063266956375472971e-13
6.857000000000000000e+03 5.305916595458984375e+01 1.587487506866455078e+01 3.308912820867006103e-15 1.157954754218287752e-13 3.573131577400655290e-14 -1.133378194897657898e-13
6.858000000000000000e+03 5.198626327514648438e+01 1.604210662841796875e+01 -6.397317300465416023e-14 1.555867251441106491e-13 2.748406428658423106e-14 -6.105876302611376594e-14
6.859000000000000000e+03 5.347584152221679688e+01 1.748044586181640625e+01 1.411845443208487386e-14 6.050766306183938403e-15 6.050766306183938403e-15 -6.387347383863054007e-14
6.860000000000000000e+03 5.229091262817382812e+01 1.566253948211669922e+01 1.260174419242393595e-13 1.111961610571372827e-13 7.116408292729206608e-14 -1.923145446873757852e-14
6.861000000000000000e+03 5.137115478515625000e+01 -1.625161170959472656e+01 -3.178399655013458558e-14 3.212923701504007135e-14 1.035717477189076249e-16 2.878250777296818656e-15
6.862000000000000000e+03 5.134349060058593750e+01 -1.738699340820312500e+01 -6.694507957965417644e-14 4.059432640295818073e-13 1.016994512692201424e-13 -2.297317338532250952e-14
6.863000000000000000e+03 4.127075195312500000e+01 -6.097558498382568359e+00 -2.795850946319799329e-14 7.951967670493179097e-14 1.546835135836626546e-14 -7.476889929674407353e-14
6.864000000000000000e+03 4.076404571533203125e+01 -4.016238212585449219e+00 9.132752605382765676e-14 3.136460546577374275e-13 1.214920769239749565e-13 -1.014594902233947882e-13
6.865000000000000000e+03 6.688579559326171875e+01 -1.394373035430908203e+01 -1.326672197663261721e-13 1.718973677592924854e-13 1.176904507551625179e-14 1.783043995112233715e-14
6.866000000000000000e+03 6.688347625732421875e+01 -1.940716981887817383e+00 5.294675559531364373e-14 1.141933634240741013e-13 5.014203638344268132e-14 -5.694008903701225366e-14
6.867000000000000000e+03 6.634645843505859375e+01 -2.662400007247924805e+00 3.449925214211654878e-14 1.977891862878916607e-13 6.968653220662882064e-14 -1.240474059192517298e-13
6.868000000000000000e+03 4.501430511474609375e+01 -1.005874729156494141e+01 -1.500526997577286692e-14 2.909503421608811147e-13 8.278351826740068531e-14 -1.081550112327651220e-14
6.869000000000000000e+03 6.745920562744140625e+01 1.426814746856689453e+01 1.576206003282669410e-14 2.355099080163236547e-13 7.538159549694278816e-14 6.230884813098955255e-14
6.870000000000000000e+03 6.740385437011718750e+01 1.363850784301757812e+01 -7.685616466163169846e-14 -3.293835676757526920e-14 -3.293835676757526920e-14 -3.013230940804301206e-14
6.871000000000000000e+03 6.611777496337890625e+01 -4.312464714050292969e+00 1.373290587150521880e-13 3.597983862886275364e-14 5.199267123605355589e-14 -8.254793468784674126e-14
6.872000000000000000e+03 4.923984527587890625e+01 -1.245933723449707031e+01 -6.965944070484383910e-14 3.361535496574502568e-13 7.994823471866099873e-14 3.050881216496575954e-14
6.873000000000000000e+03 4.396369552612304688e+01 8.769407272338867188e+00 -2.658985838043144423e-14 -3.774032410371053192e-13 -1.211979328745796392e-13 -1.884594097532193979e-13
6.874000000000000000e+03 4.754472732543945312e+01 1.086736679077148438e+01 7.041622737376587726e-14 1.674312273027001030e-13 7.135423843581886749e-14 -2.144887186698168913e-13
6.875000000000000000e+03 5.121660995483398438e+01 1.280739116668701172e+01 -2.528676425965058899e-14 3.491376296144849123e-14 2.888100288165728474e-15 -2.710967301339239910e-13
6.876000000000000000e+03 6.517276763916015625e+01 -1.585345745086669922e+01 4.662787286813761811e-14 2.029871632109117585e-13 7.488451590591249651e-14 5.520670641419095012e-16
6.877000000000000000e+03 5.001699447631835938e+01 -1.504917621612548828e+01 -2.432024545672480803e-14 -7.904938368382546932e-14 -3.101088925038485156e-14 4.513946657322236156e-14
6.878000000000000000e+03 5.000425338745117188e+01 -1.389075183868408203e+01 5.592732901142996593e-14 3.213500158246590521e-13 1.131832054837057788e-13 8.371423129358013249e-14
6.879000000000000000e+03 5.130821609497070312e+01 -1.510732936859130859e+01 2.553085204999496621e-14 3.540739207906484776e-13 1.138814249065228656e-13 3.740788535595666875e-14
6.880000000000000000e+03 4.884852600097656250e+01 -1.527365207672119141e+01 2.884754338617484537e-14 8.098965833917837198e-14 3.295116051760596521e-14 -9.244913997752748913e-14
6.881000000000000000e+03 4.228950881958007812e+01 -6.395199298858642578e+00 -6.448528234830053218e-14 1.811439927635986880e-14 -1.391126509098878847e-14 -1.252196046505615890e-13
6.882000000000000000e+03 4.834923171997070312e+01 -1.197333049774169922e+01 3.072752623634218694e-14 1.961727357164058660e-13 6.807008163514302601e-14 -5.341687920983051452e-14
6.883000000000000000e+03 6.174126434326171875e+01 -2.436265373229980469e+01 -1.014755317568663637e-15 2.969462783303233877e-13 8.877945443684295834e-14 8.867613674606866780e-14
6.884000000000000000e+03 4.292397308349609375e+01 -8.451759338378906250e+00 -1.948562533928607093e-14 8.315091372607455456e-14 1.909958668544313454e-14 -8.595535172300702853e-14
6.885000000000000000e+03 4.267207717895507812e+01 -9.105008125305175781e+00 -8.350222233501417013e-14 1.929680780400275242e-13 3.283975874438307962e-14 -2.022110531793640080e-15
6.886000000000000000e+03 6.437859344482421875e+01 -2.068793869018554688e+01 7.651348901249049872e-14 2.844217103590424012e-13 1.082805584562071544e-13 1.665447158438401742e-13
6.887000000000000000e+03 5.646772003173828125e+01 -1.854788017272949219e+01 -2.320009859408962011e-14 1.273099464391136415e-13 3.123295418410061697e-14 -2.073402146046503247e-14
6.888000000000000000e+03 5.517724609375000000e+01 -1.815598487854003906e+01 -3.008136545846334942e-14 3.285893557030891698e-14 8.332701971086348570e-16 -2.167418229213815412e-14
6.889000000000000000e+03 5.547143554687500000e+01 -1.676342964172363281e+01 8.311393565572922082e-14 2.186240554910567901e-13 9.052139463353037208e-14 1.157597916178268460e-14
6.890000000000000000e+03 6.561431884765625000e+01 2.209979057312011719e+01 4.783197086024107425e-14 -1.167534358038554987e-13 -2.067643677257889612e-14 -1.171641857969016320e-13
6.891000000000000000e+03 6.595349121093750000e+01 1.654261779785156250e+01 8.207214611697863371e-14 1.724266210497912843e-13 7.634963218291004883e-14 -1.298076636414499663e-13
6.892000000000000000e+03 6.817101287841796875e+01 2.139905929565429688e+01 4.793255432866162791e-14 3.407991662311704584e-13 1.166195097304992268e-13 -2.780101554511731771e-14
6.893000000000000000e+03 6.525977325439453125e+01 2.228713417053222656e+01 2.698455337218214067e-13 1.156480781364793708e-13 1.156480781364793708e-13 9.902038770100846099e-14
6.894000000000000000e+03 6.663881683349609375e+01 2.208327674865722656e+01 -8.158724347159806989e-14 3.767925641634528588e-13 8.856159756280915230e-14 -2.639415141796833814e-14
6.895000000000000000e+03 6.764078521728515625e+01 2.270324516296386719e+01 -8.147741379152528829e-14 1.938358463538306098e-13 3.370753044631795425e-14 -2.434149073710784039e-14
6.896000000000000000e+03 6.249125289916992188e+01 2.252541923522949219e+01 3.880083103771636566e-14 -7.487296915277552589e-14 -1.082164126511115862e-14 7.839981105723509147e-14
6.897000000000000000e+03 6.296427536010742188e+01 2.278440475463867188e+01 1.072112437348025915e-13 1.374495677865239518e-13 7.339824413402432080e-14 1.612715359476310506e-13
6.898000000000000000e+03 5.619558715820312500e+01 1.845288276672363281e+01 5.602601851418045897e-14 1.155130543084234573e-13 5.146172049152845929e-14 -7.393472092149730446e-14
6.899000000000000000e+03 5.675796508789062500e+01 1.988061332702636719e+01 4.140560473425616145e-15 1.390273665505606382e-13 4.295038107181119169e-14 -1.017573815465487586e-13
6.900000000000000000e+03 5.827515029907226562e+01 2.282807922363281250e+01 1.832116408454279033e-13 3.530249822938230642e-13 1.608709774550062810e-13 5.437801088321175813e-14
6.901000000000000000e+03 5.120772552490234375e+01 1.346386909484863281e+01 2.422528798113991744e-14 1.038226664064551344e-14 1.038226664064551344e-14 -1.821767698717904893e-13
6.902000000000000000e+03 6.700661468505859375e+01 1.619166755676269531e+01 1.324633219952631169e-13 3.312756969783836603e-13 1.391217056920940331e-13 3.456950505476182045e-14
6.903000000000000000e+03 6.692199707031250000e+01 1.555257225036621094e+01 -6.918574854052018594e-15 -2.965103418125906477e-15 -2.965103418125906477e-15 -2.911383360413265231e-14
6.904000000000000000e+03 3.983752822875976562e+01 2.328716516494750977e+00 1.236437794732920051e-14 5.104996761147277684e-14 1.902430409115706683e-14 1.718732171559003707e-14
6.905000000000000000e+03 4.450369262695312500e+01 7.501564502716064453e+00 -2.951538481937160396e-14 2.618562376481559095e-13 6.970225991439343849e-14 -1.279768120903551631e-13
6.906000000000000000e+03 6.671679687500000000e+01 1.304427146911621094e+01 6.532913045167315635e-14 2.799819973304043530e-14 2.799819973304043530e-14 -1.629355152318531785e-13
6.907000000000000000e+03 6.861402893066406250e+01 2.103758811950683594e+01 -1.019022987194286023e-13 1.507691134482527784e-13 1.466004645152632624e-14 -1.486468961158296520e-13
6.908000000000000000e+03 6.828339385986328125e+01 2.048662376403808594e+01 3.846053046895926697e-14 9.654724800666966700e-14 4.050233388150185909e-14 -1.281876623078492816e-14
6.909000000000000000e+03 6.014823913574218750e+01 2.333856391906738281e+01 1.006609956521499483e-13 2.261442172846878096e-13 9.804156320342496955e-14 8.232022512657047320e-14
6.910000000000000000e+03 5.487370300292968750e+01 1.760765457153320312e+01 -4.546026505540187723e-14 7.201892890645184009e-14 7.967599324721578308e-15 2.737414651508493502e-14
6.911000000000000000e+03 6.705440521240234375e+01 1.822864532470703125e+01 -4.764679929357591714e-14 2.083346922710990756e-13 4.820636619919105303e-14 -1.404244423649711471e-13
6.912000000000000000e+03 4.127669525146484375e+01 6.434368133544921875e+00 1.258877577918829371e-13 5.395189571250243177e-14 5.395189571250243177e-14 -2.055513284538942886e-13
6.913000000000000000e+03 6.707009124755859375e+01 1.684535598754882812e+01 8.391479514296279474e-14 2.647182332279202077e-13 1.045899071560121851e-13 -2.347642750772510611e-13
6.914000000000000000e+03 3.817726135253906250e+01 9.205290675163269043e-01 2.834547307701933139e-14 -3.360288799601415799e-14 -1.577224475698447981e-15 -7.777632704542014608e-15
6.915000000000000000e+03 4.273326110839843750e+01 -7.130988121032714844e+00 3.298981571318686246e-14 2.657687167128414130e-13 8.962755803374258812e-14 -9.010821196185972437e-14
6.916000000000000000e+03 5.743262481689453125e+01 1.986355400085449219e+01 -9.162457034403437284e-15 4.078317815837256832e-13 1.196007946542912426e-13 1.443105482118109406e-13
6.917000000000000000e+03 6.792291259765625000e+01 1.985540008544921875e+01 1.585815490425315777e-13 2.221256998594014348e-14 5.423823350625585349e-14 2.144772633962382241e-14
6.918000000000000000e+03 6.768714141845703125e+01 1.834686088562011719e+01 6.053016025691845825e-14 2.546962478162245747e-13 9.456792174431655207e-14 -5.599658920146105556e-14
6.919000000000000000e+03 6.664598846435546875e+01 1.150214385986328125e+01 -2.358038250608891079e-14 -3.298135215997789749e-14 -1.696852124685298974e-14 -1.051966131392079173e-13
6.920000000000000000e+03 6.655741119384765625e+01 9.037563323974609375e+00 -4.661924329647099130e-14 2.659637646836715552e-13 6.580335370565473796e-14 -1.792263304998056861e-13
6.921000000000000000e+03 5.871748352050781250e+01 2.362892532348632812e+01 5.419321201104339292e-14 2.322566204843775489e-14 2.322566204843775489e-14 1.185846532731835157e-13
6.922000000000000000e+03 3.967713928222656250e+01 -1.045433878898620605e+00 3.743404512149967056e-14 1.532960092415561193e-13 5.721901359841130574e-14 -3.051993878976089203e-14
6.923000000000000000e+03 6.783001708984375000e+01 8.150785446166992188e+00 -5.316421266979634574e-14 2.345644295118076705e-13 5.442006437497703963e-14 -1.444638408464732349e-13
6.924000000000000000e+03 6.718917083740234375e+01 8.588813781738281250e+00 1.318557469562635018e-14 2.172490974009649856e-13 6.913040425477953721e-14 -1.570992007272550839e-13
6.925000000000000000e+03 5.367429351806640625e+01 1.666148185729980469e+01 4.781140828841352886e-14 -7.101129173613454637e-14 -6.959965966052547234e-15 -1.047177278158846481e-13
6.926000000000000000e+03 6.656050872802734375e+01 5.146501064300537109e+00 -3.142297077922406867e-14 2.839141682170476244e-13 7.574736465235792915e-14 -1.968977688142012350e-13
6.927000000000000000e+03 6.665480041503906250e+01 3.706165075302124023e+00 -1.529404553034848652e-14 1.535737276280382813e-13 4.148390615396624348e-14 -1.473231530258606314e-13
6.928000000000000000e+03 6.677066802978515625e+01 3.239658176898956299e-01 3.971776453190987988e-14 8.443595418661763163e-15 1.444840849339126126e-14 -1.128563591862828674e-13
6.929000000000000000e+03 6.096360015869140625e+01 2.302188301086425781e+01 3.525873576394264464e-14 -1.678929076927987429e-13 -3.979025022340411388e-14 1.951203277726284990e-13
6.930000000000000000e+03 6.148320007324218750e+01 2.328268432617187500e+01 9.898458192426212721e-14 2.483012439321446996e-13 1.041857436911639012e-13 -7.279172788620877355e-14
6.931000000000000000e+03 3.986459732055664062e+01 3.797424554824829102e+00 4.977486115333509820e-14 1.585849236217934388e-13 6.250793475491220330e-14 -4.724419098121879212e-14
6.932000000000000000e+03 6.451323699951171875e+01 2.160455322265625000e+01 2.078587410699050952e-13 -1.396724261856080451e-13 2.045589480410229394e-14 3.326428149315156790e-14
6.933000000000000000e+03 6.689685058593750000e+01 5.871211051940917969e+00 -2.914996464153073175e-14 3.192015336946074644e-13 8.701547105473619870e-14 -1.931478387602256208e-13
6.934000000000000000e+03 5.198854064941406250e+01 1.395835971832275391e+01 1.311557673989820205e-14 3.716285634260130255e-13 1.154232417109601894e-13 -2.412200417168351707e-14
6.935000000000000000e+03 5.144494628906250000e+01 1.462485504150390625e+01 -3.467565183557994035e-14 1.681428027410294956e-13 4.004014527163486659e-14 -1.194128753127451925e-13
6.936000000000000000e+03 6.613945770263671875e+01 4.027822494506835938e+00 4.540305645014432179e-14 6.234996649838106531e-14 3.232590790099715283e-14 -1.319643179453766635e-13
6.937000000000000000e+03 5.735586929321289062e+01 2.057490730285644531e+01 -1.295046426867674239e-13 -1.012529429332727215e-13 -6.922727771889111703e-14 -1.212740032095066534e-13
6.938000000000000000e+03 6.423439025878906250e+01 -9.181145668029785156e+00 -1.407241565030276087e-14 1.083463356467591343e-13 2.828217599893691203e-14 2.387046757360098553e-14
6.939000000000000000e+03 6.590689849853515625e+01 -6.082556724548339844e+00 9.774586061340670429e-14 3.392722572066048103e-13 1.311054265368608029e-13 -8.281574617697781693e-14
6.940000000000000000e+03 4.031920623779296875e+01 -2.160193681716918945e+00 2.687465288015496861e-14 1.151770837720927226e-14 1.151770837720927226e-14 -9.335577016295060204e-14
6.941000000000000000e+03 6.450260925292968750e+01 -1.208291244506835938e+01 1.896703619359320359e-14 3.112287717040723711e-13 9.905874135286013571e-14 -1.318700279317542093e-14
6.942000000000000000e+03 6.582712554931640625e+01 -6.963730335235595703e+00 -2.312637792855828933e-14 1.502170105969688474e-13 3.812719251102859863e-14 5.347369140366875495e-14
6.943000000000000000e+03 6.553881835937500000e+01 -3.327049255371093750e+00 1.594680300082054053e-14 2.970981953834793410e-14 1.369698608412418459e-14 -6.717298565257420750e-14
6.944000000000000000e+03 4.295299911499023438e+01 -5.953459739685058594e+00 -1.173148492412956490e-13 1.327260106291291986e-13 4.623348077536885981e-15 -4.661613637962046253e-14
6.945000000000000000e+03 4.865987014770507812e+01 9.722269058227539062e+00 -8.477645804328207135e-14 3.515309042662929928e-14 -1.488701062380901052e-14 -2.117420957537322068e-13
6.946000000000000000e+03 5.779531478881835938e+01 2.202761268615722656e+01 7.855483163910978450e-14 1.251682541251672443e-13 6.111692369640403522e-14 9.229429557850582500e-14
6.947000000000000000e+03 4.474004745483398438e+01 8.796446800231933594e+00 4.254432088843576858e-16 1.831861214367930257e-13 5.508347074366197471e-14 6.544154527630095808e-15
6.948000000000000000e+03 4.503887939453125000e+01 9.485604286193847656e+00 -9.771669557496684422e-14 -7.619179267538689349e-14 -5.217254715273247911e-14 -1.610576364115268166e-13
6.949000000000000000e+03 6.699871063232421875e+01 2.168532180786132812e+01 1.021824633370624347e-13 1.352943771555301100e-13 7.124305350303047901e-14 -3.342654590079117971e-14
6.950000000000000000e+03 5.276619720458984375e+01 1.522682285308837891e+01 1.820823019812491117e-14 -3.794742162643513494e-14 -5.921757259086477682e-15 -9.955422852194958927e-14
6.951000000000000000e+03 4.095137023925781250e+01 -3.253552436828613281e+00 -2.820164180037786766e-14 -5.783736797869767909e-14 -2.581170276431607458e-14 -9.423510555868139238e-14
6.952000000000000000e+03 4.872835159301757812e+01 1.083988666534423828e+01 -7.309575172790086506e-14 1.859902612781280662e-13 3.386835150981544473e-14 -2.067630463543912445e-13
6.953000000000000000e+03 5.635935211181640625e+01 1.766815185546875000e+01 -3.940464355636427718e-14 1.203651436333663671e-13 2.428814968428744808e-14 -1.039936772763080941e-13
6.954000000000000000e+03 5.211840438842773438e+01 1.447148799896240234e+01 -1.063713529693595394e-13 1.831670259260301248e-13 2.303870154818799670e-14 -7.471663397576669419e-14
6.955000000000000000e+03 5.219764709472656250e+01 -1.280063438415527344e+01 2.224256850480010178e-14 2.840382280506342783e-13 9.188423676434465115e-14 -5.050259798029810288e-14
6.956000000000000000e+03 4.872022247314453125e+01 -1.105928421020507812e+01 -2.783606238034291164e-14 3.083269045894149185e-13 8.414724808874368689e-14 6.369285253295803306e-14
6.957000000000000000e+03 6.523487091064453125e+01 -1.482751083374023438e+01 -4.182538579258592015e-14 2.108295769952597820e-13 5.070125769961533746e-14 2.977063099824663571e-15
6.958000000000000000e+03 6.637174987792968750e+01 -1.998819828033447266e+00 -5.686220943970990427e-14 2.501361747939134794e-13 5.798219028388743035e-14 -2.931830058133626238e-14
6.959000000000000000e+03 6.567305755615234375e+01 -2.554916143417358398e+00 1.283256609156159522e-15 2.293047208275916793e-13 6.917638797942007867e-14 -2.010560263469938352e-14
6.960000000000000000e+03 6.667226409912109375e+01 -6.517810225486755371e-01 -6.071930610217213253e-14 9.979254971198905921e-14 1.172197291353848855e-14 -9.485383940972813566e-14
6.961000000000000000e+03 6.632737731933593750e+01 1.935241818428039551e+00 1.556540269939676868e-13 3.183390779714495578e-13 1.421979396211414670e-13 -3.402811208806297283e-14
6.962000000000000000e+03 5.560507583618164062e+01 1.765231895446777344e+01 6.308202658150685593e-14 2.557899096526650151e-13 9.566157680449341449e-14 7.393233567671783635e-14
6.963000000000000000e+03 4.783299255371093750e+01 -1.062112522125244141e+01 1.787563297050661672e-15 2.295208294256223525e-13 6.939252368250506398e-14 1.333112629618368739e-14
6.964000000000000000e+03 4.690211105346679688e+01 -1.020220851898193359e+01 1.781414303721716441e-14 2.821403321476984027e-13 8.998634086140877564e-14 -3.776060596881935724e-15
6.965000000000000000e+03 5.028094482421875000e+01 1.219814300537109375e+01 -8.201231848584816797e-14 1.936066053569857059e-13 3.347828944947305041e-14 -1.917830857230823360e-13
6.966000000000000000e+03 5.039035415649414062e+01 1.283480644226074219e+01 -9.892802722843985208e-14 3.353223867194957131e-15 -2.867244134718664739e-14 3.137191925646010474e-15
6.967000000000000000e+03 4.330383682250976562e+01 -9.452710151672363281e+00 2.402208816522539980e-14 2.733631463552876895e-13 8.921556798446167447e-14 -5.998335644375255016e-14
6.968000000000000000e+03 4.500593948364257812e+01 -8.778679847717285156e+00 -1.675458952349676012e-14 1.300723038392265218e-13 3.399531497234528632e-14 -9.049457418228851191e-14
6.969000000000000000e+03 5.123749160766601562e+01 -1.398563957214355469e+01 -4.138617210438025329e-14 2.801401892036335661e-14 -4.011645870501774278e-15 -2.472847129158812357e-14
6.970000000000000000e+03 5.259439849853515625e+01 -1.512072849273681641e+01 -1.886114521672515448e-14 1.062940222494070108e-13 2.622986260158478855e-14 -6.438180880346394686e-14
6.971000000000000000e+03 6.612786865234375000e+01 -1.156412720680236816e+00 1.229671746372229535e-13 3.100492952656797030e-13 1.299049436813762282e-13 -1.079419824465306654e-14
6.972000000000000000e+03 4.343841171264648438e+01 -6.596656322479248047e+00 -2.133432556864541668e-14 9.951521757253084521e-14 2.345426777057221801e-14 -7.521010859457347153e-14
6.973000000000000000e+03 6.608378601074218750e+01 -1.445630550384521484e+01 1.241516926157176792e-13 2.133361846554104879e-13 1.012463631813384501e-13 2.315057088359776666e-14
6.974000000000000000e+03 6.634205627441406250e+01 -1.209729766845703125e+01 -9.457185197719181202e-14 2.339748945805186775e-13 4.182091345862441745e-14 7.260985805397201370e-15
6.975000000000000000e+03 6.505817413330078125e+01 -1.802161598205566406e+01 8.753022314117800406e-14 1.518903275724015067e-13 7.182616453644749543e-14 -6.087782069495424955e-15
6.976000000000000000e+03 4.240408325195312500e+01 6.773269176483154297e+00 7.925807227323819482e-14 -2.322094068678975942e-14 1.681113913712135172e-14 -8.212978501497339434e-14
6.977000000000000000e+03 4.816897583007812500e+01 -9.735396385192871094e+00 -3.019937408867481854e-14 3.530649893539877793e-13 9.685968796772567724e-14 1.064131218580545435e-14
6.978000000000000000e+03 4.907428359985351562e+01 -1.012973785400390625e+01 -2.034955489977220006e-14 1.742825583286519708e-13 4.617990085925734178e-14 -3.584443109488173393e-15
6.979000000000000000e+03 6.521310424804687500e+01 -5.051250457763671875e+00 1.580522279893969984e-13 2.049895219931666124e-13 1.089125263500217988e-13 -1.004953363364577412e-13
6.980000000000000000e+03 4.680608749389648438e+01 1.029277324676513672e+01 -1.098861941110224061e-13 4.440781645404304201e-14 -1.964351228065427252e-14 -1.713368928343578929e-14
6.981000000000000000e+03 6.711121368408203125e+01 -1.132737994194030762e+00 1.591751361794402353e-13 4.227877813470226620e-13 1.745888725474334380e-13 -1.091161530705417326e-13
6.982000000000000000e+03 4.184173965454101562e+01 -5.662160396575927734e+00 -2.594299795333817465e-14 8.038346735201457038e-14 1.633214200544904487e-14 -3.055607660342254950e-14
6.983000000000000000e+03 6.569649505615234375e+01 -1.186326980590820312e+01 -5.673037384366745595e-14 2.044417288455183113e-13 4.431340616174207769e-14 -1.016705505050598257e-15
6.984000000000000000e+03 4.468972015380859375e+01 -7.647210121154785156e+00 -4.428026006845012241e-14 3.012793736278246426e-13 7.709973745594414507e-14 -4.484915450088042266e-14
6.985000000000000000e+03 6.271774291992187500e+01 -1.950251770019531250e+01 6.079301999143988527e-15 1.627337316550264701e-13 5.064391018095443231e-14 1.142113882851916729e-13
6.986000000000000000e+03 6.423217773437500000e+01 -1.579080963134765625e+01 3.883932699110317910e-14 2.225246896470078894e-13 7.840920295855424715e-14 9.058014483875193035e-14
6.987000000000000000e+03 5.037240600585937500e+01 -1.185901260375976562e+01 -3.340094517699336574e-14 2.601910115314354233e-13 6.803702024514579616e-14 4.627528015724996502e-14
6.988000000000000000e+03 5.001003646850585938e+01 -1.052585601806640625e+01 -1.928408740201406624e-14 4.034939429017198043e-13 1.152629559722853636e-13 -8.463467150417527951e-14
6.989000000000000000e+03 5.267101287841796875e+01 -1.634018898010253906e+01 2.722720493346115350e-15 3.900499443831167978e-13 1.178317968371367375e-13 -2.663486293498495971e-14
6.990000000000000000e+03 5.911114120483398438e+01 -2.037973403930664062e+01 4.406051939314162280e-14 3.277019768824912527e-13 1.115287536260743673e-13 6.093933815681448762e-14
6.991000000000000000e+03 5.902468109130859375e+01 -1.887334251403808594e+01 1.191090530648945475e-14 2.338594270491489713e-13 7.373109420097737066e-14 1.721376540657695853e-13
6.992000000000000000e+03 6.297983169555664062e+01 -2.106086158752441406e+01 3.767899010918666913e-14 1.991519335510158473e-13 7.104927946975300723e-14 7.566211925654625636e-14
6.993000000000000000e+03 5.240667343139648438e+01 -1.393575859069824219e+01 -2.777729692852830279e-14 1.710992458825444373e-13 4.299658163688623025e-14 4.003702141412539273e-14
6.994000000000000000e+03 6.165102386474609375e+01 -2.180555915832519531e+01 -2.353889102068413251e-15 2.048704630421005479e-13 6.075496957738332759e-14 9.211538189125498266e-14
6.995000000000000000e+03 6.495758056640625000e+01 2.191408538818359375e+01 -8.310093878218655084e-14 6.160607505904802661e-14 -6.448458862831673091e-15 2.230044626608598812e-13
6.996000000000000000e+03 6.428254699707031250e+01 2.213999938964843750e+01 1.535480591416046869e-13 3.403120070900184091e-13 1.481580158037287820e-13 7.599554530590343915e-14
6.997000000000000000e+03 6.536743164062500000e+01 2.156027984619140625e+01 9.613394336225461467e-14 1.212644215728073127e-13 6.521951083577129382e-14 8.251322666580004905e-14
6.998000000000000000e+03 6.781928253173828125e+01 2.084116172790527344e+01 -4.811429032969272157e-14 1.623833852755149354e-13 3.428072780612030634e-14 3.076886483229998581e-14
6.999000000000000000e+03 6.733676147460937500e+01 2.219074821472167969e+01 4.093213533959763617e-14 2.920480426504140636e-13 9.989405136412443653e-14 -9.230492075979618294e-14
7.000000000000000000e+03 6.806050109863281250e+01 2.231085586547851562e+01 6.896921727304883287e-14 3.498148765015279826e-13 1.256352335533839071e-13 -4.886524602380586113e-14
7.001000000000000000e+03 6.623950195312500000e+01 2.165514945983886719e+01 6.543021197546669554e-14 2.804151869202891473e-14 2.804151869202891473e-14 -9.893354310699237208e-14
7.002000000000000000e+03 6.174852752685546875e+01 2.276966285705566406e+01 1.529116595714100080e-13 -7.171927575476758077e-14 2.435771480617954926e-14 1.188452006077589385e-13
7.003000000000000000e+03 6.224282073974609375e+01 2.175443077087402344e+01 -5.078297520320169608e-15 -2.309311596115914966e-13 -7.080283353968347404e-14 -8.211865161391468382e-14
7.004000000000000000e+03 6.318020248413085938e+01 2.222554206848144531e+01 3.714889317387240486e-14 -2.982999318477258521e-14 2.195669700268414355e-15 -1.374272738793522186e-13
7.005000000000000000e+03 5.710966110229492188e+01 1.769228172302246094e+01 1.588265126649434159e-15 6.806850467155347532e-16 6.806850467155347532e-16 1.087783495549131396e-13
7.006000000000000000e+03 4.462514877319335938e+01 8.106395721435546875e+00 2.320954978771508359e-14 9.946950151030163612e-15 9.946950151030163612e-15 -1.434624988250199351e-13
7.007000000000000000e+03 5.933559417724609375e+01 2.374768257141113281e+01 -7.199092938534740194e-14 -3.085325641890082626e-14 -3.085325641890082626e-14 1.988255751445705544e-13
7.008000000000000000e+03 5.190523147583007812e+01 1.342755317687988281e+01 -6.521776255976816095e-14 6.355142513582087704e-14 -4.998998931072932451e-16 -1.870508142907262306e-13
7.009000000000000000e+03 5.955377197265625000e+01 2.312979125976562500e+01 -1.198909068268576295e-14 3.608694018521901858e-13 1.046640936896645058e-13 -2.913748954028357041e-14
7.010000000000000000e+03 3.988825988769531250e+01 6.909168958663940430e-01 -1.629085423146808126e-14 -9.848369407310098023e-14 -3.443236364433777119e-14 -1.780130201773678922e-14
7.011000000000000000e+03 3.982781982421875000e+01 3.083251953125000000e+00 6.906280424932506601e-14 1.668511926929475142e-13 7.077419704980270065e-14 -1.595062244178629962e-13
7.012000000000000000e+03 6.622834777832031250e+01 1.557409667968750000e+01 -2.177708832490007906e-14 4.939273816340072898e-13 1.416450913808639522e-13 1.196839936185023490e-14
7.013000000000000000e+03 5.694485092163085938e+01 1.842900276184082031e+01 -5.389247465718664809e-14 9.128059365228619049e-14 1.121643569852986272e-14 3.732639993939785780e-15
7.014000000000000000e+03 5.683184051513671875e+01 1.916152572631835938e+01 3.945132862428514520e-14 3.142888781258040831e-13 1.061220610085872318e-13 -4.684445919275054271e-14
7.015000000000000000e+03 6.707587432861328125e+01 1.752269363403320312e+01 2.436897526218034793e-14 3.307005006208257880e-13 1.065208373438909784e-13 -8.521101982654141760e-14
7.016000000000000000e+03 6.532482910156250000e+01 1.621872711181640625e+01 1.077108186848954943e-14 5.993785112332061793e-13 1.830448769987724766e-13 4.882273513424906231e-14
7.017000000000000000e+03 5.509780883789062500e+01 1.676000976562500000e+01 2.461402867008459505e-14 1.478017198647957331e-13 5.172472422165091954e-14 5.324368214794069146e-15
7.018000000000000000e+03 6.739631652832031250e+01 2.022391891479492188e+01 8.096140132005796852e-14 2.234204032718067889e-13 9.131454273281214284e-14 -1.846461622923706303e-13
7.019000000000000000e+03 6.682020568847656250e+01 1.426273918151855469e+01 -1.070105443601483686e-13 -1.107134464566781544e-16 -3.213637919685131961e-14 -9.592766034641209139e-14
7.020000000000000000e+03 6.608648681640625000e+01 1.306994342803955078e+01 -8.006395974804667026e-14 1.029397175681713572e-13 6.862727430740700810e-15 9.464670936093835807e-14
7.021000000000000000e+03 4.304311370849609375e+01 -4.861505508422851562e+00 -2.920517763716455606e-14 2.619891879395569445e-13 6.983520342953089544e-14 -7.292505087210660042e-14
7.022000000000000000e+03 4.077716064453125000e+01 -3.665643930435180664e-01 3.150265625076996423e-14 5.925208918346538955e-14 2.722642227501789053e-14 -8.293326013994808954e-14
7.023000000000000000e+03 4.068016433715820312e+01 3.693125247955322266e+00 4.189501528898201266e-14 2.009587971290444086e-13 7.285614304778156858e-14 -1.343869439828730000e-14
7.024000000000000000e+03 5.752552795410156250e+01 1.914623260498046875e+01 -2.155805915726727306e-14 3.651178209600203228e-14 4.486116458103954138e-15 8.662133645998340570e-14
7.025000000000000000e+03 4.152795410156250000e+01 5.282323360443115234e+00 6.229325594849649539e-14 1.067612727281667950e-13 5.071635860299898713e-14 -4.584600724771327462e-14
7.026000000000000000e+03 6.593101501464843750e+01 9.516818046569824219e+00 4.136775760810694480e-14 1.772903824887473584e-14 1.772903824887473584e-14 -8.641464686832620035e-14
7.027000000000000000e+03 6.642734527587890625e+01 1.003062820434570312e+01 -4.159543328806532270e-14 7.367528489414867932e-14 9.623955312418417535e-15 -1.516510441529339559e-13
7.028000000000000000e+03 6.587465667724609375e+01 4.471526145935058594e+00 -1.719738446700341816e-14 3.128863270904225224e-13 8.870668414227844689e-14 -3.172143537427674076e-13
7.029000000000000000e+03 6.615990447998046875e+01 1.366564750671386719e+01 -4.783547080037912902e-14 -6.625186781562125704e-14 -3.422620260123965252e-14 -7.676487483870841899e-14
7.030000000000000000e+03 5.810298538208007812e+01 1.986006355285644531e+01 7.124134080241113082e-15 3.053200138596274052e-15 3.053200138596274052e-15 -2.163723005629771164e-15
7.031000000000000000e+03 6.040356826782226562e+01 2.275737762451171875e+01 -1.778917250593210764e-14 1.296289193607885748e-13 3.355192371764376125e-14 6.754942742312475268e-14
7.032000000000000000e+03 4.935365676879882812e+01 1.132424831390380859e+01 6.451564000913012631e-14 9.627598062311379379e-14 4.823748618967317603e-14 -1.224341130865932992e-13
7.033000000000000000e+03 3.982588577270507812e+01 -1.759585738182067871e-01 -9.958445235157351721e-15 -1.872717069308429960e-13 -5.916904607331657795e-14 -1.280155706239556254e-14
7.034000000000000000e+03 4.537701416015625000e+01 8.201102256774902344e+00 -8.539390440424898809e-14 4.666630580227315583e-13 1.143807406645339086e-13 -7.099317878359046041e-14
7.035000000000000000e+03 4.329522705078125000e+01 3.715407609939575195e+00 1.358747912360430687e-13 8.110753144411828042e-14 6.509469883692747816e-14 -9.772907580852391307e-14
7.036000000000000000e+03 6.578380584716796875e+01 2.539169311523437500e+00 4.936834632502523634e-14 1.912942054109814660e-13 7.219876416554929510e-14 -1.742755652246394393e-13
7.037000000000000000e+03 6.570262145996093750e+01 1.466028451919555664e+00 5.038055408512591427e-14 2.846596114207400330e-13 1.005120533787047521e-13 -1.161224436919960912e-13
7.038000000000000000e+03 6.200811767578125000e+01 2.226082038879394531e+01 8.110885959177957516e-14 8.051189109934547838e-14 4.848622249683208485e-14 4.105591057011401257e-14
7.039000000000000000e+03 4.338800430297851562e+01 -7.768851280212402344e+00 9.627361655415800704e-16 2.291673524123377659e-13 6.903902634042974329e-14 -6.578520009552918379e-14
7.040000000000000000e+03 4.400920104980468750e+01 -7.171413421630859375e+00 2.951641819956725421e-14 2.557018182261505679e-13 8.556546584551766310e-14 7.728352327670759414e-14
7.041000000000000000e+03 4.726578521728515625e+01 -9.332643508911132812e+00 -7.092498246694112218e-14 -4.183415766578768569e-14 -3.382774475032407357e-14 5.054539940215580993e-15
7.042000000000000000e+03 6.484801483154296875e+01 -3.141188383102416992e+00 -4.648113965661886116e-14 -1.992048866627463971e-14 -1.992048866627463971e-14 -3.511060664212681259e-14
7.043000000000000000e+03 4.114557647705078125e+01 -2.445796728134155273e+00 5.835791377049870388e-14 1.165124312134391271e-13 5.246110417280770710e-14 -1.323863436410166461e-13
7.044000000000000000e+03 6.580369567871093750e+01 -1.809812188148498535e+00 2.488587881230817922e-14 1.479182173882293005e-13 5.184123190947985405e-14 -8.960623990852609189e-14
7.045000000000000000e+03 5.259527587890625000e+01 1.410051727294921875e+01 8.500254807756318920e-14 1.279315602021810494e-13 6.388022977341784037e-14 -8.629493739595664459e-15
7.046000000000000000e+03 4.622402572631835938e+01 8.148456573486328125e+00 -8.057585225125854511e-14 1.942222424555772875e-13 3.409391638366926491e-14 9.378102136005372902e-14
7.047000000000000000e+03 4.927370452880859375e+01 1.030309104919433594e+01 -1.174202336924612400e-13 2.616690941887895444e-14 -2.737599812910763292e-14 -2.447943377951317112e-13
7.048000000000000000e+03 6.504313659667968750e+01 -5.996039867401123047e+00 9.446968625122578733e-15 9.555060193587594508e-14 3.149927150711273605e-14 -2.137213203721316512e-14
7.049000000000000000e+03 5.893074798583984375e+01 2.296006965637207031e+01 2.966622783475043879e-14 1.957178993525210409e-13 6.761523849499462280e-14 1.425602799871861226e-13
7.050000000000000000e+03 6.478546905517578125e+01 2.067645263671875000e+01 -2.735203827753523997e-13 -2.845645726299922060e-15 -8.290980749170451247e-14 2.470409673268475492e-13
7.051000000000000000e+03 4.363968276977539062e+01 7.441245555877685547e+00 1.834637991656937195e-13 -5.862550164293170440e-14 3.745149061208132013e-14 -1.644948147963218310e-13
7.052000000000000000e+03 5.796310043334960938e+01 2.130354690551757812e+01 -3.350726136440093650e-14 1.228925950802831069e-13 2.681559943713829330e-14 1.229126663730012448e-13
7.053000000000000000e+03 5.874199295043945312e+01 2.134314346313476562e+01 1.734442396563590227e-13 2.573370390477475178e-13 1.292343781902210997e-13 -6.476044608341377518e-14
7.054000000000000000e+03 5.324413299560546875e+01 1.450031757354736328e+01 -3.940777757826911809e-14 1.203638019331779163e-13 2.428680629003310276e-14 -4.329642113581888552e-14
7.055000000000000000e+03 4.985303878784179688e+01 1.082293319702148438e+01 -9.835663235474925714e-14 2.537986097325695134e-13 4.663259253571971907e-14 -2.415283142757906898e-13
7.056000000000000000e+03 4.990687179565429688e+01 1.173013687133789062e+01 -5.225699972570552188e-14 1.191735461534984900e-14 -1.210189344840340714e-14 -2.853484050609200740e-13
7.057000000000000000e+03 6.465880584716796875e+01 -3.955238580703735352e+00 8.627606550189181878e-14 3.697545809572440334e-14 3.697545809572440334e-14 -5.951847765724507799e-14
7.058000000000000000e+03 6.444993591308593750e+01 -4.832061290740966797e+00 1.756922854271626699e-14 2.820353542723474938e-13 8.988137653858502274e-14 4.232832007534763352e-14
7.059000000000000000e+03 5.218538284301757812e+01 1.497146320343017578e+01 3.284822568572383361e-14 2.885835017132909464e-13 9.642951720326489728e-14 1.002299643022147579e-13
7.060000000000000000e+03 6.623143768310546875e+01 8.803167343139648438e-01 8.306599359091462742e-14 1.556959585129885637e-13 7.162858224303916832e-14 5.011207005183471869e-15
7.061000000000000000e+03 5.404812240600585938e+01 1.477192878723144531e+01 2.228626524048305663e-14 -1.886480651663966120e-15 6.119935440173198196e-15 -4.427485938637842899e-14
7.062000000000000000e+03 5.381556320190429688e+01 1.575037193298339844e+01 8.021645955987033449e-15 1.406906953134792748e-13 4.461370305846625028e-14 2.872185724932946327e-14
7.063000000000000000e+03 4.175362014770507812e+01 -3.547327995300292969e+00 -4.788605899612094485e-15 1.809515401017189329e-13 5.284887924419251481e-14 -8.302434667496402798e-14
7.064000000000000000e+03 4.155895996093750000e+01 -4.352632999420166016e+00 -7.568889905020664832e-14 1.963166500022761607e-13 3.618832393036813810e-14 -1.739498370107069036e-14
7.065000000000000000e+03 6.400160217285156250e+01 -1.810340881347656250e+01 8.620825543226642851e-14 1.055728177405332313e-13 5.753431991896082454e-14 1.600511715348085229e-13
7.066000000000000000e+03 6.285484695434570312e+01 -1.803789901733398438e+01 1.325845933963874096e-14 2.916256374840137111e-13 9.146522650599689386e-14 -2.112849317433083268e-14
7.067000000000000000e+03 6.502745056152343750e+01 -2.395806550979614258e+00 1.029386740235803399e-13 4.411657603359091240e-14 4.411657603359091240e-14 -3.844948854745885991e-14
7.068000000000000000e+03 4.138265991210937500e+01 2.991641521453857422e+00 -2.246964109730003462e-14 8.187204982978285583e-14 1.782072278915143582e-14 -1.157535710078622104e-13
7.069000000000000000e+03 4.053418731689453125e+01 -1.289140343666076660e+00 1.094384609654332555e-14 9.619211758507204002e-14 3.214079054444062000e-14 -7.332309537094391927e-14
7.070000000000000000e+03 3.900760269165039062e+01 8.049057722091674805e-01 3.858704669809295829e-14 -5.208911779555971955e-14 -4.050621668053207280e-15 -1.481275903802634075e-13
7.071000000000000000e+03 5.582546997070312500e+01 1.682637023925781250e+01 -9.160345550672521764e-14 9.799422422606882122e-14 1.917230488748138985e-15 1.741680326979196114e-14
7.072000000000000000e+03 5.438065719604492188e+01 1.669660377502441406e+01 -9.058878457481392421e-15 1.562459471700361480e-13 4.415611891970053215e-14 -2.337792807916797694e-14
7.073000000000000000e+03 5.113192749023437500e+01 -1.192898559570312500e+01 4.175425535380729303e-14 6.364562875208271131e-14 3.161996692583289581e-14 9.079685652424104858e-14
7.074000000000000000e+03 5.119892120361328125e+01 -1.290931320190429688e+01 4.765407361252693708e-14 3.635552958940885260e-13 1.233628135624900701e-13 9.919549312812844799e-14
7.075000000000000000e+03 4.583501052856445312e+01 9.336370468139648438e+00 -3.851026146735846145e-14 6.355975994002185936e-14 7.514850897051734979e-15 3.561215179085502891e-14
7.076000000000000000e+03 5.019507980346679688e+01 -1.280682659149169922e+01 1.114328762727087585e-14 -1.096016791321714756e-13 -2.953751609621746432e-14 9.406171452624664808e-14
7.077000000000000000e+03 6.677079772949218750e+01 1.364371013641357422e+01 2.552898349531332323e-14 5.669194226478463383e-14 2.466627705040302931e-14 -3.741992084710420510e-15
7.078000000000000000e+03 6.670559692382812500e+01 8.014393806457519531e+00 -6.711504182271843533e-14 3.829949595315906841e-13 9.476397260215624341e-14 -2.242773973265207998e-13
7.079000000000000000e+03 6.680429077148437500e+01 6.963635444641113281e+00 -6.481263178329411262e-15 2.145393238062176522e-13 6.241741742603681975e-14 -1.613637608949280988e-13
7.080000000000000000e+03 4.658353424072265625e+01 -8.856569290161132812e+00 9.371359076118870868e-14 1.774158077394449862e-13 8.133881887256375065e-14 -3.064380973500030816e-15
7.081000000000000000e+03 4.590008163452148438e+01 -9.956533432006835938e+00 2.128565505549618458e-14 -1.375305119490294672e-14 2.259781200529618721e-15 8.632877636219945389e-15
7.082000000000000000e+03 6.401383209228515625e+01 -1.160860061645507812e+01 3.019389886770376674e-14 1.044421371761659889e-13 4.039081352366635791e-14 -2.277757145494486296e-14
7.083000000000000000e+03 6.567571258544921875e+01 -1.345137500762939453e+01 -1.713458612192034214e-13 1.324453242391998575e-13 -1.167015821408904849e-14 -2.526915783280896111e-14
7.084000000000000000e+03 6.441595458984375000e+01 -1.476461219787597656e+01 -2.210483078318118549e-14 2.650321910720176977e-13 7.287820656199164859e-14 7.950277670356817317e-14
7.085000000000000000e+03 5.672669982910156250e+01 -1.729980659484863281e+01 -1.087972909056796403e-14 1.097146326697537311e-13 2.965046963379971978e-14 -1.336239468683816933e-13
7.086000000000000000e+03 5.406821441650390625e+01 -1.642531204223632812e+01 -3.191483603543106284e-14 1.121373230817540589e-13 2.406674543627054103e-14 -5.248662358144258466e-14
7.087000000000000000e+03 6.168057632446289062e+01 -1.772954940795898438e+01 -1.492311286208688331e-14 -6.395619677032528955e-15 -6.395619677032528955e-15 1.614824403752337934e-13
7.088000000000000000e+03 6.407266235351562500e+01 -1.690189552307128906e+01 5.549213703565786249e-14 2.982880327288828237e-13 1.061340549951203527e-13 -4.171654544699553158e-14
7.089000000000000000e+03 4.374856567382812500e+01 -8.874909400939941406e+00 -9.918199481108100346e-14 2.434368624650712354e-13 4.327645826331799617e-14 -8.487485616669870891e-14
7.090000000000000000e+03 4.195708084106445312e+01 -2.761811733245849609e+00 -3.874225362721604726e-15 -9.316228073274340771e-14 -2.911095030398019867e-14 -5.155352192235188036e-14
7.091000000000000000e+03 6.494998168945312500e+01 -7.606665134429931641e+00 -6.003512032122515496e-14 6.577256236395614963e-14 1.721230982280874938e-15 -3.178735418873750163e-14
7.092000000000000000e+03 6.529597473144531250e+01 -8.624006271362304688e+00 -1.313056075273513063e-15 2.510674773550242156e-13 7.492632545218896878e-14 -6.541743194235852266e-14
7.093000000000000000e+03 5.721075439453125000e+01 -1.621629333496093750e+01 -5.258631258307083778e-14 1.032781173949948172e-13 1.520754144357719384e-14 5.025896758774524298e-14
7.094000000000000000e+03 6.489557647705078125e+01 -1.401123332977294922e+01 1.581293689739693420e-13 1.535527618685278428e-13 9.350463789749643984e-14 2.910311355515220189e-14
7.095000000000000000e+03 4.848831939697265625e+01 -8.824810981750488281e+00 -8.968367904869586904e-15 1.105337880686479979e-13 3.046962503269398659e-14 -3.968746785745248806e-14
7.096000000000000000e+03 5.607126998901367188e+01 -1.553286457061767578e+01 -3.413909712107580929e-14 8.830859220959608180e-14 1.625084886536926065e-14 -8.365609095208059731e-14
7.097000000000000000e+03 5.392560577392578125e+01 -1.502068138122558594e+01 -3.304127804693024473e-14 2.946583678008901641e-13 7.848512421568254460e-14 -1.246183332307554403e-14
7.098000000000000000e+03 6.650861358642578125e+01 2.027034187316894531e+01 9.302355028851030938e-14 3.601238773333348409e-13 1.359442343851907653e-13 -3.260451736613982632e-14
7.099000000000000000e+03 6.507434844970703125e+01 2.105972671508789062e+01 -1.709227242163366411e-13 -2.750165038463512485e-14 -5.952731390495083486e-14 8.325669797679124962e-14
7.100000000000000000e+03 6.616581726074218750e+01 -1.449768841266632080e-01 1.463128392314300141e-13 3.114762950600508118e-13 1.373367294454225229e-13 -4.983543756159093674e-14
7.101000000000000000e+03 6.580637359619140625e+01 2.121477699279785156e+01 1.509226635809310380e-13 5.679415813510113598e-13 2.156592639928137101e-13 5.767017045117325824e-14
7.102000000000000000e+03 6.739471435546875000e+01 2.125693321228027344e+01 5.285088501821161300e-14 2.514051250165905138e-13 9.127680572094606926e-14 -1.612146830962113420e-13
7.103000000000000000e+03 6.619538879394531250e+01 7.420924663543701172e+00 7.779189551099068012e-15 4.608434402315897405e-13 1.405867880877736953e-13 -1.684532911381750320e-13
7.104000000000000000e+03 6.581078338623046875e+01 5.095720767974853516e+00 3.045029235270585444e-14 1.045520210663473948e-13 4.050069402571597477e-14 -1.845132526585510635e-13
7.105000000000000000e+03 5.189946365356445312e+01 1.290875148773193359e+01 8.226257945231213453e-14 2.182591808024339497e-13 9.015653349743468770e-14 -5.958513576206220241e-14
7.106000000000000000e+03 6.578704071044921875e+01 1.716260910034179688e+01 9.635367726129953625e-14 4.988039061654125916e-13 1.785472811266508586e-13 -3.340483814041894650e-14
7.107000000000000000e+03 4.546498870849609375e+01 8.728248596191406250e+00 -3.441138433230017668e-14 -1.474773638442377494e-14 -1.474773638442377494e-14 -2.093501695783761551e-13
7.108000000000000000e+03 4.663633346557617188e+01 7.852883815765380859e+00 -9.559747335104520904e-14 -1.324722395581318102e-13 -6.842091590563217918e-14 -6.029838493749536954e-14
7.109000000000000000e+03 6.621255493164062500e+01 1.489632892608642578e+01 5.863905332305482596e-15 1.397659521755120760e-13 4.368895653236726240e-14 -7.460849836158842119e-14
7.110000000000000000e+03 6.637944030761718750e+01 1.621002006530761719e+01 3.552678781043074052e-14 3.126069281905730080e-13 1.044401178496197347e-13 -7.788949064717332060e-14
7.111000000000000000e+03 6.419646453857421875e+01 -5.771918773651123047e+00 4.310501201853014774e-14 1.847357682137947682e-14 1.847357682137947682e-14 -3.349519622710024624e-14
7.112000000000000000e+03 6.638790893554687500e+01 1.804177284240722656e+01 -5.261336342727435111e-14 6.895331338243118613e-14 4.901985494766818857e-15 -5.816761596043676374e-14
7.113000000000000000e+03 6.570582580566406250e+01 1.782996940612792969e+01 -4.930095553670873695e-15 4.363804985223727895e-14 1.161238633192156894e-14 -1.453956719561430577e-13
7.114000000000000000e+03 5.850189971923828125e+01 2.211556053161621094e+01 -4.549453664372249666e-16 2.268049809105773112e-14 6.667665907383402493e-15 6.963352149665785751e-14
7.115000000000000000e+03 5.214762878417968750e+01 1.234746170043945312e+01 1.747376792956070735e-13 -1.309916937289670735e-13 1.312379888871719955e-14 -5.404491687076989903e-14
7.116000000000000000e+03 5.274203491210937500e+01 1.280958175659179688e+01 -5.404139660184111016e-14 1.598431944530714910e-13 3.174054037180865095e-14 -1.178780109547389321e-13
7.117000000000000000e+03 5.082511138916015625e+01 1.184663963317871094e+01 -1.409997513779110041e-15 1.623834665906778718e-13 4.829204188773993101e-14 -5.417007107092440543e-14
7.118000000000000000e+03 5.037955856323242188e+01 1.132151603698730469e+01 -1.386301690846705736e-13 2.644180176463589715e-13 3.773635118037473035e-14 -1.529446735275621916e-13
7.119000000000000000e+03 6.290908432006835938e+01 2.146193122863769531e+01 -1.150064743958567615e-13 -1.636658609202937265e-13 -8.360169788433971516e-14 -8.426736413692792471e-14
7.120000000000000000e+03 6.701660156250000000e+01 1.899516487121582031e+01 5.668913350353153857e-14 2.072991436711038582e-13 7.919648281357744013e-14 -1.051632061597682077e-13
7.121000000000000000e+03 6.683177185058593750e+01 1.970359420776367188e+01 -9.443076339323355772e-14 5.280621080650752669e-15 -2.674504328669790459e-14 -9.751451219858903174e-14
7.122000000000000000e+03 6.770409393310546875e+01 1.911152839660644531e+01 1.382799243491127095e-14 -3.982466686611695061e-14 -7.799002498768293351e-15 -1.486215528900478033e-13
7.123000000000000000e+03 5.805765151977539062e+01 2.057515907287597656e+01 5.099121740625121857e-14 2.048571815654876005e-13 7.675452070796118242e-14 1.316462265804965726e-13
7.124000000000000000e+03 6.587984466552734375e+01 1.178943347930908203e+01 -1.423850322585309969e-13 -3.814668443321081459e-14 -5.415951704040161685e-14 -1.027836127841241787e-13
7.125000000000000000e+03 6.318671417236328125e+01 2.042740821838378906e+01 -2.258847541522848723e-13 -3.255624936304712946e-13 -1.654341811110904281e-13 -8.043708792570755661e-14
7.126000000000000000e+03 6.123255157470703125e+01 2.248801994323730469e+01 2.330225076752848873e-14 3.759942661038517819e-13 1.197889579413261019e-13 -1.098409693279026045e-13
7.127000000000000000e+03 6.602849578857421875e+01 1.243689537048339844e+01 -3.644412788043893681e-14 2.588867705280439857e-13 6.673279279428151467e-14 -6.497591008937158782e-15
7.128000000000000000e+03 6.544386291503906250e+01 8.969848632812500000e+00 -3.223569211585099181e-14 1.691885021838646086e-13 4.108584132633819053e-14 -6.650958267202106144e-14
7.129000000000000000e+03 6.607601165771484375e+01 8.477614402770996094e+00 1.812191923486559247e-14 9.926843282928241030e-14 3.521710578865099028e-14 -1.628202374358636573e-13
7.130000000000000000e+03 6.586011505126953125e+01 1.052267360687255859e+01 -2.356863924130817717e-14 -1.759480283908612663e-13 -5.985500045905742250e-14 -1.097747313514273182e-13
7.131000000000000000e+03 6.555435943603515625e+01 5.728558063507080078e+00 -5.036472303934173139e-15 2.265962618279784846e-13 6.646793575607046201e-14 -1.571416607948350475e-13
7.132000000000000000e+03 4.730018997192382812e+01 9.622937202453613281e+00 -2.422870491204914128e-14 3.536721696756339739e-14 3.341553659005924194e-15 -1.374487139773131195e-13
7.133000000000000000e+03 6.544725036621093750e+01 1.319429874420166016e+01 -1.222733530094680110e-13 3.909903068086313660e-14 -2.495229635976828342e-14 -8.634951342281413367e-14
7.134000000000000000e+03 6.698328399658203125e+01 2.072973251342773438e+01 9.941707017086659492e-15 5.001168140099203352e-14 1.798601618661042900e-14 6.629229669819370480e-15
7.135000000000000000e+03 4.192447280883789062e+01 3.553977012634277344e+00 1.299399769640746660e-13 1.929414066665843808e-13 9.686441102343956722e-14 -2.706048005032130055e-14
7.136000000000000000e+03 5.534302902221679688e+01 1.589982318878173828e+01 -4.412560201667685422e-14 2.098437661699273371e-13 4.971545026241468157e-14 1.720269176369267679e-15
7.137000000000000000e+03 5.817985534667968750e+01 1.916131210327148438e+01 1.113184251808757574e-13 2.993381096379893469e-13 1.231969577351541001e-13 7.240362416604043116e-14
7.138000000000000000e+03 4.987820434570312500e+01 9.819204330444335938e+00 -6.706480938081446630e-14 -3.160149483131917403e-14 -2.959989160245327100e-14 -2.699907083927172158e-13
7.139000000000000000e+03 4.196696472167968750e+01 4.743210315704345703e+00 -6.716072739176154327e-14 -5.907694394579688160e-15 -2.192052657825401679e-14 -4.733972952140549917e-14
7.140000000000000000e+03 4.451047134399414062e+01 7.002768039703369141e+00 2.586481173010891921e-14 -2.176698220539979856e-13 -5.754150275835354100e-14 -2.357162587948019583e-13
7.141000000000000000e+03 6.524774169921875000e+01 4.179705619812011719e+00 -5.788745134280293136e-15 4.327005808236854267e-14 1.124439371501988541e-14 -1.751321798085930803e-13
7.142000000000000000e+03 5.235961532592773438e+01 1.318481254577636719e+01 1.525722094237319526e-13 -1.467607400895427211e-14 4.136883842214764129e-14 7.118345626486166644e-14
7.143000000000000000e+03 6.507868957519531250e+01 9.927833080291748047e-01 9.471702664808762107e-14 2.235968029652701805e-13 9.549414888400734047e-14 -1.119359121994241424e-13
7.144000000000000000e+03 6.558052062988281250e+01 7.902540206909179688e+00 -9.395826808646437489e-14 1.884869213833462176e-13 2.835859531143819501e-14 -6.626243878680299071e-14
7.145000000000000000e+03 6.498266601562500000e+01 -9.355020523071289062e+00 5.015208558232890634e-14 3.417503910072006157e-13 1.175707480590565401e-13 -3.026069927405602988e-14
7.146000000000000000e+03 6.379257583618164062e+01 -1.007188892364501953e+01 6.010999125749885708e-14 5.175841309365547538e-13 1.733082400463478723e-13 -7.488789726143793568e-14
7.147000000000000000e+03 4.138489532470703125e+01 -1.608309864997863770e+00 1.118614241220425992e-14 9.629595704814183921e-14 3.224463000751041919e-14 -1.362379718587714006e-13
7.148000000000000000e+03 6.394679641723632812e+01 -3.683079957962036133e+00 3.592078687991197283e-14 3.356512658959920348e-13 1.114716161715843812e-13 -8.211591400342915792e-15
7.149000000000000000e+03 6.370672225952148438e+01 -4.524812698364257812e+00 1.194956405960873047e-13 5.121241497822899558e-14 5.121241497822899558e-14 1.526046575618753703e-14
7.150000000000000000e+03 4.512160110473632812e+01 7.290555000305175781e+00 -1.592721587213505319e-13 2.462782853086126211e-13 2.610183526567319556e-14 -6.808559250247314676e-14
7.151000000000000000e+03 4.359102630615234375e+01 -5.470549583435058594e+00 -4.278006307490908600e-14 7.316758689809160776e-14 9.116256469328398726e-15 -6.498272785756403769e-14
7.152000000000000000e+03 5.917953872680664062e+01 2.227253341674804688e+01 6.608044189962414272e-14 5.773315853163651923e-13 1.930236027437859381e-13 4.310472063919629226e-14
7.153000000000000000e+03 4.766091918945312500e+01 -8.478150367736816406e+00 1.977312356817723105e-14 2.372289376658537341e-13 7.710061837020928954e-14 1.108050825572581832e-13
7.154000000000000000e+03 5.980881500244140625e+01 2.249903106689453125e+01 3.994724947424359296e-14 6.287119669280347156e-14 3.084553486655365606e-14 8.764952603773287776e-14
7.155000000000000000e+03 6.069040679931640625e+01 2.218887710571289062e+01 8.573197219415712445e-14 -2.034502124062531614e-13 -3.531547003074973767e-14 1.428431212289332786e-13
7.156000000000000000e+03 6.519065093994140625e+01 -1.695213437080383301e+00 4.497339390545189441e-14 3.852818942790686707e-13 1.290765861165429906e-13 6.338218371779473156e-15
7.157000000000000000e+03 6.416757965087890625e+01 -2.891147851943969727e+00 9.555750694846196214e-14 -5.054867996076052583e-14 1.350264877393678870e-14 -1.465025881641421335e-13
7.158000000000000000e+03 6.555905151367187500e+01 1.373809719085693359e+01 6.180703870798179289e-14 4.936420263984726831e-14 3.335137342078825506e-14 -9.665033022228462084e-15
7.159000000000000000e+03 5.459977722167968750e+01 1.580584239959716797e+01 2.435083351051605532e-14 -1.039413035351134662e-13 -2.387714049915945491e-14 -9.000366776737780961e-14
7.160000000000000000e+03 6.305416107177734375e+01 -1.677037620544433594e+01 2.337944426814356214e-14 5.577070923135085678e-14 2.374504571103514677e-14 1.012389838303019707e-13
7.161000000000000000e+03 4.247788238525390625e+01 -5.281062602996826172e+00 -8.975003899791555995e-14 2.131659107042216394e-13 3.702476557764997067e-14 -1.428462789677606426e-13
7.162000000000000000e+03 4.311506652832031250e+01 5.855782985687255859e+00 4.638497431205118593e-14 6.563022017123595897e-14 3.360455834498614347e-14 -8.301186479745328861e-14
7.163000000000000000e+03 4.063856887817382812e+01 3.007548570632934570e+00 3.439511113531752706e-14 6.049171173737669105e-14 2.846604652299508653e-14 1.282992588986500357e-14
7.164000000000000000e+03 3.987156295776367188e+01 1.532770514488220215e+00 1.187868027682434380e-13 2.796633638644380193e-13 1.195350513450571528e-13 -1.531786172513302513e-13
7.165000000000000000e+03 5.657032012939453125e+01 1.688515090942382812e+01 4.913667264955581815e-14 4.393405059785297773e-14 2.792121629659628096e-14 1.129911390688499717e-13
7.166000000000000000e+03 6.439632415771484375e+01 -7.207540512084960938e+00 -3.892260049421364387e-14 4.050854432707112762e-13 1.098488568987074365e-13 7.588566141572203327e-14
7.167000000000000000e+03 6.549604034423828125e+01 1.551295185089111328e+01 2.463195696944617957e-14 1.935603505818020431e-13 6.545768972427562504e-14 -1.092304008744673927e-13
7.168000000000000000e+03 4.189481735229492188e+01 6.162355899810791016e+00 3.017757146061249285e-14 1.444672289782622521e-13 5.239343979284924457e-14 -1.035597643202863447e-14
7.169000000000000000e+03 4.231970596313476562e+01 5.631547451019287109e+00 -8.336326827408299667e-14 -2.187309171676823927e-13 -9.062825631015597461e-14 -5.595463057738586654e-14
7.170000000000000000e+03 5.487682723999023438e+01 1.488877868652343750e+01 8.123374189435801293e-16 5.753683391274827530e-14 1.750475070070537514e-14 -3.484223611125054909e-14
7.171000000000000000e+03 6.623097991943359375e+01 6.300887107849121094e+00 2.410483481384267240e-14 3.763382292430728082e-13 1.201329210805471281e-13 -1.761317735540432472e-13
7.172000000000000000e+03 4.588026809692382812e+01 -9.108001708984375000e+00 7.310392390177597455e-14 2.600850036640206531e-13 9.995667759211263048e-14 2.823825564655588205e-14
7.173000000000000000e+03 5.033303451538085938e+01 -9.487486839294433594e+00 9.682215509079989194e-16 2.520451837691173314e-13 7.590401831375492847e-14 -2.783527633376785965e-14
7.174000000000000000e+03 4.937303161621093750e+01 -9.179673194885253906e+00 -7.730779585284411337e-14 3.100002080123204218e-13 6.980772568072196593e-14 3.245159064971074592e-14
7.175000000000000000e+03 4.220076370239257812e+01 -1.989396333694458008e+00 -1.254731588811244802e-14 -5.377420852895921366e-15 -5.377420852895921366e-15 -1.148470560189199241e-13
7.176000000000000000e+03 5.968268585205078125e+01 -1.524573802947998047e+01 -1.157398948138958425e-14 3.610473194286950571e-13 1.048419977136422210e-13 1.025992306521658626e-13
7.177000000000000000e+03 6.460375976562500000e+01 -8.331374168395996094e+00 6.466399952390761152e-14 3.136565714188105369e-13 1.134961739933208758e-13 -1.424693662468914240e-14
7.178000000000000000e+03 6.368386459350585938e+01 -1.352898788452148438e+01 1.666873561921577984e-13 4.374450292016912600e-13 1.812397210391655800e-13 -3.735906915314050891e-14
7.179000000000000000e+03 3.900909423828125000e+01 1.614929437637329102e+00 1.022035985031623240e-13 2.725562830985239771e-13 1.124279638028795325e-13 1.008919239386257827e-13
7.180000000000000000e+03 5.041396713256835938e+01 1.036951541900634766e+01 2.038972120213099898e-14 5.448939910390748764e-14 2.246373727765767214e-14 -3.109570164295388794e-13
7.181000000000000000e+03 5.954928207397460938e+01 -1.722158432006835938e+01 3.563302945893895290e-14 2.211505718135997611e-13 7.703507834888254080e-14 1.727029706310306834e-13
7.182000000000000000e+03 5.600601959228515625e+01 -1.380091571807861328e+01 1.649856195672788628e-14 2.286769677697225722e-13 7.355266162844056876e-14 -6.873715057429188868e-14
7.183000000000000000e+03 4.406604385375976562e+01 -6.118029117584228516e+00 7.401057949818750509e-15 2.662398296618406768e-13 8.209227161980539589e-14 1.042080714796535246e-13
7.184000000000000000e+03 6.264580917358398438e+01 -1.437066459655761719e+01 6.777515153917265667e-14 3.493031330761148245e-13 1.251234901279707490e-13 7.254354045639968551e-14
7.185000000000000000e+03 5.868748855590820312e+01 -1.766325950622558594e+01 2.951456489147866180e-14 3.672189505601886061e-13 1.190200553131265382e-13 -6.620066636802562909e-14
7.186000000000000000e+03 4.539548873901367188e+01 -8.067314147949218750e+00 6.896666262167991390e-14 2.354363991090291375e-13 9.132091919683907322e-14 -1.058961098877094636e-14
7.187000000000000000e+03 5.789677429199218750e+01 -1.526807212829589844e+01 1.024668089093239143e-13 1.354162414797174807e-13 7.136491782721784971e-14 5.197532061316199881e-14
7.188000000000000000e+03 6.513258361816406250e+01 -1.259759998321533203e+01 1.134006354531341687e-13 9.435122361135458990e-14 6.232555839697298539e-14 2.001429925924894798e-14
7.189000000000000000e+03 5.195571899414062500e+01 -1.171210670471191406e+01 -2.501388581942903810e-14 3.095364134279854351e-13 8.535675692731420350e-14 3.510019491313916273e-14
7.190000000000000000e+03 6.464934539794921875e+01 2.109291267395019531e+01 -3.407409835380235605e-15 4.429063113985630407e-14 1.226496592547469955e-14 2.914782673037186189e-13
7.191000000000000000e+03 6.265554809570312500e+01 1.972172164916992188e+01 -6.537340655789203314e-14 -7.376811970516775063e-14 -4.174245787891793513e-14 -2.519953511267644664e-14
7.192000000000000000e+03 6.660218811035156250e+01 2.120529747009277344e+01 6.611056239122850564e-14 3.028387816125105436e-13 1.106848038787480726e-13 -3.422841505129788076e-14
7.193000000000000000e+03 6.542907714843750000e+01 2.075241088867187500e+01 1.713593459837237098e-13 7.343972164338546937e-14 7.343972164338546937e-14 -2.047502250211719055e-14
7.194000000000000000e+03 5.833685302734375000e+01 1.849804687500000000e+01 -3.374077479543179103e-14 8.415142734930543961e-15 -7.597689025227311044e-15 1.972538309720408417e-14
7.195000000000000000e+03 6.500275421142578125e+01 1.765233039855957031e+01 1.964213331101614252e-14 3.744256424006997541e-13 1.182203342381740740e-13 -3.742938644028977191e-14
7.196000000000000000e+03 6.271695327758789062e+01 2.198948860168457031e+01 1.313076031369750374e-13 2.392784863476660195e-13 1.111758254901396015e-13 1.496319208945870449e-13
7.197000000000000000e+03 6.402448272705078125e+01 2.137461090087890625e+01 -5.023828304317329296e-14 1.157221562499144429e-13 1.964516060676962939e-14 5.433230837350970510e-14
7.198000000000000000e+03 6.306103515625000000e+01 1.749900627136230469e+01 -5.500486947428856466e-14 2.217743336522214059e-14 -9.848231002126516670e-15 -2.826941697224583105e-13
7.199000000000000000e+03 6.337784576416015625e+01 2.167943191528320312e+01 -2.875608076853032602e-14 5.630238842421059209e-14 8.263893143737027075e-15 2.302151863781999597e-14
7.200000000000000000e+03 5.258907318115234375e+01 1.177953052520751953e+01 -9.699738503176312532e-15 8.734486522726445101e-14 2.329353818663303100e-14 -1.066219188676845175e-13
7.201000000000000000e+03 5.783958053588867188e+01 1.774660301208496094e+01 -4.930274701139217980e-15 8.938892513557852859e-14 2.533759470681531956e-14 1.702765600503260146e-14
7.202000000000000000e+03 5.765925216674804688e+01 1.844096755981445312e+01 8.881320700572514770e-14 1.753156539212319398e-13 7.923865827808712625e-14 1.177390297887534465e-13
7.203000000000000000e+03 6.632124328613281250e+01 1.873101043701171875e+01 1.865641227117610657e-14 2.367503437218643203e-13 7.662203120248345378e-14 -9.625857240198182341e-14
7.204000000000000000e+03 5.948630905151367188e+01 2.153897094726562500e+01 2.513594496119427729e-14 5.652349790476185465e-14 2.449783269038025013e-14 1.081550010683697549e-13
7.205000000000000000e+03 6.550741577148437500e+01 1.965258789062500000e+01 1.151548610156885588e-13 1.408539897131827479e-13 7.680265250815596079e-14 1.962875400209778722e-15
7.206000000000000000e+03 6.506439971923828125e+01 7.325641155242919922e+00 6.407988475644809875e-15 3.087057519335356659e-13 9.453412174158931647e-14 -5.957173908896842840e-14
7.207000000000000000e+03 5.607444763183593750e+01 1.600555038452148438e+01 6.466796363810076165e-14 1.878431627909057933e-13 7.575333454057017746e-14 4.375710880330334340e-14
7.208000000000000000e+03 6.306585311889648438e+01 2.094425582885742188e+01 -1.191856926059621166e-14 2.693977311195305813e-13 7.724374660950453220e-14 5.896482981786535515e-14
7.209000000000000000e+03 6.508375549316406250e+01 1.692056846618652344e+01 -2.283310293496685489e-14 2.189691299375046141e-13 5.884081064186016952e-14 -7.335688182114399880e-14
7.210000000000000000e+03 5.882387924194335938e+01 2.054896354675292969e+01 2.891346626639375306e-14 -1.248613571477180662e-13 -2.878436828083683063e-14 -6.080955915676797274e-14
7.211000000000000000e+03 6.558834838867187500e+01 -6.625337004661560059e-01 -3.562928896144387791e-14 -1.053418759015302408e-13 -4.229134878126587782e-14 -9.406689159162026637e-14
7.212000000000000000e+03 6.562638854980468750e+01 4.078959822654724121e-01 -1.073508957508823025e-13 -2.565788528686383787e-16 -3.228224165850029914e-14 -8.643028648466430375e-14
7.213000000000000000e+03 4.419898605346679688e+01 -4.405534267425537109e+00 -7.655107694655785555e-14 1.501961939152571257e-13 2.209353475179660214e-14 -3.573896617558615374e-14
7.214000000000000000e+03 6.556749725341796875e+01 1.483608531951904297e+01 -2.344617013559646690e-14 2.187063870935299081e-13 5.857806779788546359e-14 -4.720554595003326193e-14
7.215000000000000000e+03 5.137079620361328125e+01 1.150524044036865234e+01 -5.903578407379095339e-14 6.620084932714223602e-14 2.149518686620790174e-15 -1.733994485541082153e-13
7.216000000000000000e+03 5.141213989257812500e+01 1.213709354400634766e+01 -1.820674280826953262e-14 6.082353181226587968e-14 1.278503737882526192e-14 -9.819989060192574337e-14
7.217000000000000000e+03 5.437297058105468750e+01 1.384931850433349609e+01 -3.636432721241221466e-14 7.591718459388704932e-14 1.186585755325562930e-14 2.499638484818934338e-15
7.218000000000000000e+03 5.286213302612304688e+01 1.342680644989013672e+01 -4.900120497623554339e-14 2.763806436316407211e-13 6.821383329068744783e-14 -4.544046735432570247e-15
7.219000000000000000e+03 6.459004974365234375e+01 1.059583473205566406e+01 8.346255239396246223e-15 1.179543387876819116e-13 3.789017913985968933e-14 -8.590085701131247586e-14
7.220000000000000000e+03 6.490610504150390625e+01 1.128751945495605469e+01 -1.107266286716175954e-14 -7.337185058738787680e-14 -2.533335445988136453e-14 -1.111649699158875904e-13
7.221000000000000000e+03 6.352181625366210938e+01 -8.802385330200195312e+00 9.475068434927971794e-14 4.066150356956538259e-13 1.504097139806009897e-13 -1.195766576034262840e-13
7.222000000000000000e+03 6.379327392578125000e+01 -6.685326099395751953e+00 1.668219022936314605e-14 5.290046016254851269e-14 2.087479494816690817e-14 -3.093219650145313804e-14
7.223000000000000000e+03 6.434847259521484375e+01 -1.054902744293212891e+01 2.022323518228227174e-14 8.873126165027597767e-14 3.268634752510816976e-14 -7.326374885452749397e-14
7.224000000000000000e+03 6.303632736206054688e+01 -9.705042839050292969e+00 6.464337342460902205e-15 1.857742204427331734e-13 5.767156636147033333e-14 1.031765073226421914e-14
7.225000000000000000e+03 6.567430877685546875e+01 1.112900066375732422e+01 -2.960311032765283734e-14 -1.041889420875727335e-13 -4.013761504694131343e-14 -9.264531958437516312e-14
7.226000000000000000e+03 6.563591766357421875e+01 1.424898910522460938e+01 -3.975259452670097671e-14 -2.457915598483295661e-13 -8.566324732894869953e-14 -1.832902319504059463e-13
7.227000000000000000e+03 6.620624542236328125e+01 1.426277923583984375e+01 -1.450854809734411261e-16 -2.288169111651361387e-13 -6.868860542201885022e-14 4.160518263728821969e-15
7.228000000000000000e+03 4.406036758422851562e+01 5.435116767883300781e+00 1.340994914937609916e-13 3.459573935920418064e-14 5.060857196639498290e-14 -1.338479159321628864e-13
7.229000000000000000e+03 4.933816146850585938e+01 9.233821868896484375e+00 -7.199336884023549432e-14 3.458911344397428388e-15 -2.056033735463053819e-14 -1.990914350697911561e-13
7.230000000000000000e+03 4.199987792968750000e+01 3.090609073638916016e+00 3.695399089270919035e-14 6.158837545858220075e-14 2.956271024420059623e-14 7.147731571118670635e-14
7.231000000000000000e+03 4.085863876342773438e+01 5.974571704864501953e-01 5.351264136671529670e-14 2.293398964118252559e-14 2.293398964118252559e-14 -1.294546745191429982e-13
7.232000000000000000e+03 4.156350326538085938e+01 2.340437173843383789e+00 -1.155905036129886015e-14 1.780499169325502895e-13 4.994725946315566045e-14 8.259109948683882041e-14
7.233000000000000000e+03 4.653314590454101562e+01 9.010190963745117188e+00 -1.768135740902107567e-13 1.358208928355433831e-13 -1.229780285174090701e-14 -6.614721520092209373e-14
7.234000000000000000e+03 5.002622604370117188e+01 8.803615570068359375e+00 5.925114050656446474e-14 7.114429623764420563e-14 3.911863102326260111e-14 -2.717014981057364054e-13
7.235000000000000000e+03 5.358203125000000000e+01 1.361363983154296875e+01 1.038840441078790755e-13 2.164625900399896885e-14 3.765909161118977111e-14 -6.108584775163516944e-14
7.236000000000000000e+03 6.437507629394531250e+01 1.660579681396484375e+01 2.247906857400297498e-14 4.900188328021970463e-13 1.537493819325080890e-13 -1.419553222799935233e-13
7.237000000000000000e+03 6.481170654296875000e+01 1.531791305541992188e+01 -2.604634613729856635e-14 3.458822787102792951e-14 2.562564985986929937e-15 3.598592032542403951e-14
7.238000000000000000e+03 6.512310791015625000e+01 4.806574821472167969e+00 1.125223046384788220e-14 -1.781814171035456251e-13 -5.007875285788741804e-14 -9.577820985319854263e-14
7.239000000000000000e+03 6.231875610351562500e+01 -1.537519454956054688e+01 2.938376606376365274e-14 -5.603338092455799335e-14 -7.994883950018533830e-15 9.767908053584517525e-14
7.240000000000000000e+03 6.329162216186523438e+01 -1.563434886932373047e+01 1.069795022966973930e-13 3.432295138210139651e-13 1.350627102563242699e-13 2.488567891253262720e-14
7.241000000000000000e+03 6.447753906250000000e+01 4.963693320751190186e-01 -4.111216372220706516e-14 3.119303047197791168e-13 8.124544196045843658e-14 -1.062188870388537654e-13
7.242000000000000000e+03 4.452963256835937500e+01 6.053167819976806641e+00 3.933363847846184369e-14 -2.576484219116853547e-13 -6.549443740165930561e-14 -8.729280997045799073e-14
7.243000000000000000e+03 4.383710479736328125e+01 6.434710025787353516e+00 8.085655896997862024e-14 1.261547019192760244e-13 6.210337826677639339e-14 -2.234050618110661190e-13
7.244000000000000000e+03 4.226462173461914062e+01 2.629689455032348633e+00 7.420512094331518926e-14 -2.884544545497108592e-13 -6.427479804903962757e-14 -9.748846424139506750e-14
7.245000000000000000e+03 4.265655136108398438e+01 5.014844417572021484e+00 5.050349244709040342e-14 1.131462545184147572e-13 4.909492408965154819e-14 -3.882446664507654965e-14
7.246000000000000000e+03 4.171409606933593750e+01 -7.553148269653320312e-01 -1.964212484068666997e-14 -8.418053987170256991e-15 -8.418053987170256991e-15 -1.499477354349049163e-14
7.247000000000000000e+03 6.439314270019531250e+01 -2.168473958969116211e+00 -5.543686305365183586e-14 2.964979878370549438e-13 7.231833811264729017e-14 -1.219755362252133990e-13
7.248000000000000000e+03 6.198850631713867188e+01 -1.647937393188476562e+01 2.490819813046833003e-14 3.309315712088367611e-13 1.067519350369562636e-13 4.968212036297317211e-15
7.249000000000000000e+03 6.323442459106445312e+01 -3.348239898681640625e+00 5.747503438891660155e-14 1.618850046418776611e-13 6.580800899873284759e-14 1.791125917626813259e-15
7.250000000000000000e+03 6.296718978881835938e+01 -4.155814170837402344e+00 1.424709925501501523e-14 1.891097006637490474e-13 6.100703980622262934e-14 -5.912112941949040218e-15
7.251000000000000000e+03 6.565050506591796875e+01 6.822597503662109375e+00 -1.283554290415142574e-13 2.688214776648545357e-13 4.213981458700208349e-14 -1.022447033180266807e-13
7.252000000000000000e+03 6.446399688720703125e+01 3.990433216094970703e+00 -2.970912158319939655e-14 1.245203620119442189e-13 2.844337314506298342e-14 1.723243536798715891e-13
7.253000000000000000e+03 5.731796264648437500e+01 1.695283317565917969e+01 -1.736960595869624108e-15 4.500653661061206068e-14 1.298087309029635067e-14 2.590567259948446666e-14
7.254000000000000000e+03 6.502895355224609375e+01 -6.873433113098144531e+00 8.581496787046088981e-14 2.197816445980924072e-13 9.167898374056598909e-14 -1.937387424967573768e-13
7.255000000000000000e+03 6.178501129150390625e+01 2.152262687683105469e+01 5.720039920236244524e-14 2.075182473776360226e-13 7.941559329637318254e-14 7.546924646632466316e-14
7.256000000000000000e+03 6.151277160644531250e+01 2.197958374023437500e+01 -1.502938330971530234e-14 -9.794306343605466147e-14 -3.389173300729145244e-14 1.083844318005948437e-13
7.257000000000000000e+03 4.068955230712890625e+01 2.286483526229858398e+00 5.755629534174439010e-14 1.390443614196143485e-13 5.898019838366033718e-14 -1.644789312344949184e-13
7.258000000000000000e+03 4.077183532714843750e+01 1.499831080436706543e+00 5.523791534313253482e-14 6.942433824000393550e-14 3.739867641375412000e-14 -1.849720226434429377e-14
7.259000000000000000e+03 4.336484527587890625e+01 -4.166600704193115234e+00 -8.199591992798932472e-14 1.060984067665022082e-14 -2.141582369069843644e-14 -8.329084356896096497e-14
7.260000000000000000e+03 4.255187606811523438e+01 -3.836163759231567383e+00 -1.506162985401727356e-14 1.994242851367442060e-13 5.530879506015877467e-14 -8.429653595163136282e-14
7.261000000000000000e+03 6.495752716064453125e+01 8.400158882141113281e+00 5.148373318376170404e-14 2.965701414916338541e-13 1.044161637578713830e-13 -4.090833371377979033e-14
7.262000000000000000e+03 4.682609939575195312e+01 8.422195434570312500e+00 4.385580847044920350e-14 1.560481886937747920e-13 5.997119982689355644e-14 -1.584712314714811776e-13
7.263000000000000000e+03 5.563958358764648438e+01 1.502904510498046875e+01 4.141405981713565387e-14 -1.652549082818699500e-13 -3.715225758873889894e-14 7.424733706540634359e-14
7.264000000000000000e+03 6.529061889648437500e+01 1.264282703399658203e+01 -4.458316921478362727e-14 3.011495675227238156e-13 7.696991779831616198e-14 -1.022500091324082816e-13
7.265000000000000000e+03 6.394937896728515625e+01 -7.965897083282470703e+00 7.720326690495524918e-15 -5.959884414328056601e-14 -1.556355447350585980e-14 -2.718271706900546314e-14
7.266000000000000000e+03 6.239115142822265625e+01 -1.054920387268066406e+01 2.262810402107236912e-14 3.699864850256751048e-13 1.177843765446176527e-13 8.837388150917044327e-14
7.267000000000000000e+03 5.316494369506835938e+01 -1.256295776367187500e+01 -3.315704966312801524e-15 3.645865618955024257e-13 1.083812605092403236e-13 3.906570162845457439e-14
7.268000000000000000e+03 5.636471557617187500e+01 1.519068717956542969e+01 -4.373129801533461036e-14 -1.874198462170541951e-14 -1.874198462170541951e-14 -2.940399998680766347e-14
7.269000000000000000e+03 4.586660385131835938e+01 -7.355514049530029297e+00 3.511541440113542800e-14 1.808966523667368542e-13 6.480361765866943236e-14 6.934662974335693147e-15
7.270000000000000000e+03 4.515319442749023438e+01 -6.995495796203613281e+00 2.502644223583913585e-14 2.394803647921828205e-13 7.935203872027479788e-14 -4.283530995186080048e-14
7.271000000000000000e+03 6.505240631103515625e+01 -8.293349295854568481e-02 8.616373538055874248e-14 3.786297176396752340e-13 1.394380352284438351e-13 -6.457290621262809505e-14
7.272000000000000000e+03 4.566138076782226562e+01 7.745067119598388672e+00 1.140357576976443882e-14 -1.323655947219407047e-13 -3.628860585505946923e-14 6.109087573921007097e-14
7.273000000000000000e+03 6.463912963867187500e+01 -1.539415121078491211e+00 3.681961419782497913e-14 -2.997111565004872968e-14 2.054549564332874834e-15 -8.376396906824290500e-14
7.274000000000000000e+03 6.341652297973632812e+01 -5.388485431671142578e+00 1.252363454097311229e-14 1.426201143945801664e-13 4.654312552769893085e-14 -2.833152360904835554e-16
7.275000000000000000e+03 6.304909515380859375e+01 -6.236892223358154297e+00 9.005688854151969180e-14 -7.155139721275356746e-15 2.487052379904035326e-14 -4.236569116898049325e-14
7.276000000000000000e+03 4.803732299804687500e+01 9.057860374450683594e+00 -7.608541211347533140e-14 1.314291557530378185e-14 -1.888274794501192816e-14 -1.522438859008490297e-13
7.277000000000000000e+03 6.008653259277343750e+01 -1.833309745788574219e+01 6.651950989816288184e-14 9.713478394020313988e-14 4.909628950676252213e-14 6.671704475772616272e-14
7.278000000000000000e+03 6.123858642578125000e+01 -1.918987464904785156e+01 8.164333738149703867e-15 3.695065900390787084e-13 1.133012751002894503e-13 3.006819917833122857e-14
7.279000000000000000e+03 5.285260009765625000e+01 -1.145304203033447266e+01 1.712026211715591412e-14 3.390316456394759648e-13 1.068455694470775430e-13 -2.984746239227675790e-14
7.280000000000000000e+03 4.276223373413085938e+01 -3.084317207336425781e+00 -2.616065492759642869e-14 1.717920917283441429e-13 4.368943087081772481e-14 -1.793281099787477628e-13
7.281000000000000000e+03 4.658849334716796875e+01 -5.558635711669921875e+00 -5.455951649128119862e-14 6.811925020366524364e-14 4.067920198418508229e-15 -5.142876074548489995e-14
7.282000000000000000e+03 5.135193252563476562e+01 -9.537596702575683594e+00 -1.891122349863272323e-14 4.494046736309986745e-13 1.291480350397097854e-13 1.059183123153228934e-13
7.283000000000000000e+03 5.044474411010742188e+01 -8.451904296875000000e+00 -1.071202791725310577e-13 2.972234275106649948e-13 5.703094517906653893e-14 1.342724928910399990e-14
7.284000000000000000e+03 4.454896163940429688e+01 -6.650922775268554688e+00 1.133006940356876338e-14 1.878595342437103244e-13 5.975688016244748435e-14 -4.987083337439079944e-14
7.285000000000000000e+03 4.425255966186523438e+01 -5.149158954620361328e+00 -7.102800877838155724e-14 -7.619152162484377211e-14 -4.416585979859395661e-14 7.688253787947740836e-14
7.286000000000000000e+03 5.687955093383789062e+01 -1.455390071868896484e+01 2.471652643296594343e-14 2.736607598516349604e-13 8.951318148080894543e-14 -7.715756947745087968e-15
7.287000000000000000e+03 6.131143188476562500e+01 -1.494401645660400391e+01 -3.441780950072157418e-15 3.302193316966767211e-13 9.803326228054187741e-14 6.555428536158050545e-14
7.288000000000000000e+03 5.891638946533203125e+01 -1.613458633422851562e+01 -1.164424239403485592e-14 -2.130955324307001741e-15 -4.132559400205852024e-15 2.001121436525504782e-14
7.289000000000000000e+03 6.444577026367187500e+01 -1.330310821533203125e+01 3.418644827453057441e-16 2.289012620941555110e-13 6.877293602224748836e-14 6.519712883717304619e-14
7.290000000000000000e+03 5.538700866699218750e+01 -1.289515686035156250e+01 1.069059866131392977e-13 2.288206516626312137e-13 1.007179908051047956e-13 -6.614454535307234817e-14
7.291000000000000000e+03 6.355951309204101562e+01 -1.455016803741455078e+01 2.301934006907965791e-14 7.849185304541553276e-14 3.045335861197491500e-14 4.762647050284181394e-14
7.292000000000000000e+03 6.494426727294921875e+01 1.904117584228515625e+01 3.972745120069468006e-14 1.542788927210228533e-13 5.820190385414161782e-14 -1.462177919703527146e-14
7.293000000000000000e+03 6.418533325195312500e+01 2.086798858642578125e+01 -4.862626075993574382e-14 -2.495945615986483457e-13 -8.946624907926747916e-14 4.155494511318656714e-14
7.294000000000000000e+03 6.506252288818359375e+01 1.203443527221679688e+01 -3.614274339341048969e-14 3.026120071756080443e-14 -1.764462590996668766e-15 -3.497714474282563601e-14
7.295000000000000000e+03 6.143175506591796875e+01 2.117781639099121094e+01 3.311465142895320124e-14 -2.717514256157793628e-13 -7.159103496655327969e-14 1.401634342444724179e-13
7.296000000000000000e+03 6.574221801757812500e+01 2.037017440795898438e+01 1.251295210025551996e-13 3.281326219854024950e-13 1.359786442516400240e-13 2.957219362507805538e-14
7.297000000000000000e+03 6.617159271240234375e+01 2.076497077941894531e+01 1.760381933540305921e-13 -6.180790606971978129e-14 3.426908618529324324e-14 -9.452388280732290649e-14
7.298000000000000000e+03 5.031299972534179688e+01 7.833602428436279297e+00 8.546632233310744176e-14 -9.122526207203975057e-15 2.290313731311173495e-14 -1.294695009838517374e-13
7.299000000000000000e+03 4.760100173950195312e+01 8.309654235839843750e+00 -1.108336580607667543e-13 -4.750014062095651857e-14 -4.750014062095651857e-14 -4.638498447644655298e-14
7.300000000000000000e+03 5.322858047485351562e+01 1.235505390167236328e+01 1.387277608327214251e-13 -7.779809240403279258e-14 1.827890154504612646e-14 9.756233229065922052e-14
7.301000000000000000e+03 5.461231231689453125e+01 1.307507324218750000e+01 1.344605714747801328e-13 -1.025023639643178608e-13 9.587461744918913259e-15 6.293897965737454969e-14
7.302000000000000000e+03 6.462294006347656250e+01 1.595848751068115234e+01 7.759539403162304949e-14 2.620099233061057298e-13 1.018815904579341292e-13 -1.308711575524409976e-13
7.303000000000000000e+03 6.496617126464843750e+01 1.468259239196777344e+01 1.039131549362103113e-14 -8.704847823462480427e-14 -2.299714780586159524e-14 -1.399741867552650731e-13
7.304000000000000000e+03 6.241914749145507812e+01 2.125679588317871094e+01 3.395730352180430234e-14 1.455312887072620492e-14 1.455312887072620492e-14 1.749106230946456675e-13
7.305000000000000000e+03 5.995452880859375000e+01 1.888329696655273438e+01 5.950066963656200358e-14 -6.600161362542086851e-14 -1.950282349624712225e-15 -3.612367498770190088e-14
7.306000000000000000e+03 6.506020355224609375e+01 6.258801460266113281e+00 9.325039926431216708e-15 1.812813679551161794e-13 5.718192033158514542e-14 -7.447128580039680257e-14
7.307000000000000000e+03 5.681497192382812500e+01 1.610757064819335938e+01 -9.806237014425779781e-16 1.368325754352167634e-13 4.075558656833552784e-14 4.315395019409071220e-14
7.308000000000000000e+03 4.566894531250000000e+01 6.900552749633789062e+00 -8.745750705672211689e-14 -1.118270786300973318e-13 -5.978537435079311901e-14 1.010215538608735808e-13
7.309000000000000000e+03 4.618883132934570312e+01 7.366168975830078125e+00 3.648155657231220983e-14 -7.586694537571950225e-14 -1.181561579398924047e-14 3.102967644115495194e-14
7.310000000000000000e+03 6.529944610595703125e+01 1.007141304016113281e+01 2.345302771433743771e-14 -8.716946842081060853e-14 -1.911493153431559344e-14 -1.081336490618353685e-13
7.311000000000000000e+03 6.432741546630859375e+01 8.906833648681640625e+00 8.469670819723218447e-14 1.735514401461635270e-13 7.747444450301871344e-14 -1.400249816270460190e-13
7.312000000000000000e+03 5.901823425292968750e+01 1.647549247741699219e+01 -2.006948176169667114e-14 -8.601206227289159845e-15 -8.601206227289159845e-15 4.389740117629117866e-14
7.313000000000000000e+03 5.101225280761718750e+01 9.945452690124511719e+00 -1.255639015207638334e-14 -4.541339025210082425e-14 -1.739093488358281481e-14 -3.372479975404657493e-14
7.314000000000000000e+03 6.564886474609375000e+01 1.851009750366210938e+01 7.346257798043417941e-14 3.974915557293512425e-13 1.412862340142984063e-13 -1.875559034253057589e-13
7.315000000000000000e+03 6.600382995605468750e+01 1.991076278686523438e+01 -8.124389019609906670e-14 1.481849853327693589e-13 2.008232786337472986e-14 -1.677854225999239612e-13
7.316000000000000000e+03 6.376350402832031250e+01 1.625395393371582031e+01 5.047028197929445681e-14 1.588829707990097040e-13 6.280597515586489044e-14 -3.348399167527396636e-14
7.317000000000000000e+03 6.052516174316406250e+01 2.128197479248046875e+01 4.657935143278710277e-14 -6.010158191439851638e-14 -4.056668636263655731e-15 1.339010689436689883e-13
7.318000000000000000e+03 6.104513931274414062e+01 2.073877716064453125e+01 -2.539237275103072879e-15 1.504617692374074500e-13 4.437676083806491034e-14 5.654942388921141427e-14
7.319000000000000000e+03 5.877353286743164062e+01 1.918779945373535156e+01 3.238338078053425162e-14 5.962954061728906185e-14 2.760387709697335185e-14 -1.132408782630184296e-13
7.320000000000000000e+03 6.456629943847656250e+01 1.608633279800415039e+00 6.841865940986069372e-14 2.923902439611048010e-13 1.082426723665423640e-13 -1.277354144766512656e-13
7.321000000000000000e+03 6.480368041992187500e+01 9.487455368041992188e+00 6.493328146223512065e-14 2.108323417107996200e-13 8.272968762953678001e-14 -2.305096658526423897e-14
7.322000000000000000e+03 5.855310821533203125e+01 1.784745597839355469e+01 4.816639302034422809e-14 1.578955878805271551e-13 6.181859223738234155e-14 5.431001107820618290e-14
7.323000000000000000e+03 5.805517196655273438e+01 1.704433250427246094e+01 -3.427822694134353802e-15 -2.434454174978385038e-14 -8.331709142593048123e-15 7.603640617527898660e-14
7.324000000000000000e+03 6.394524383544921875e+01 -7.132309675216674805e-02 -5.920761656560274977e-14 2.376932743512749635e-13 5.354569259231715950e-14 -1.605574837849638864e-14
7.325000000000000000e+03 6.453434753417968750e+01 -5.909996032714843750e-01 -6.697356699173623307e-14 3.706403402508468004e-14 -8.972859720588876459e-15 -1.543306633747590362e-13
7.326000000000000000e+03 4.171810913085937500e+01 1.577484488487243652e+00 -3.529786868610579331e-14 5.349876696703927126e-14 5.460269568983338109e-15 -1.447958235516882963e-13
7.327000000000000000e+03 4.883575439453125000e+01 8.602021217346191406e+00 -4.987867351135058525e-14 2.437437425018614684e-14 -7.651290117162510424e-15 -2.377236320121045576e-13
7.328000000000000000e+03 6.386238861083984375e+01 3.020349740982055664e+00 -9.445938633058717504e-15 1.789555374547002753e-13 5.085287998530564624e-14 2.003678933925126526e-13
7.329000000000000000e+03 6.344923400878906250e+01 1.923892021179199219e+00 -2.929881204728583544e-14 2.161981124725390058e-13 5.606978978876277220e-14 1.594939593807867539e-13
7.330000000000000000e+03 6.489611053466796875e+01 5.289306640625000000e+00 4.022288415967550934e-14 8.586480051281375481e-14 3.782630607937313705e-14 -4.577122440286608696e-14
7.331000000000000000e+03 6.449139404296875000e+01 4.736855983734130859e+00 -1.945930124935130179e-14 1.746640890731496198e-13 4.656143838001856883e-14 7.909933152265916090e-14
7.332000000000000000e+03 5.873024368286132812e+01 -1.226082992553710938e+01 1.845869784062800778e-14 1.909146668879757591e-13 6.281200603044934105e-14 1.109690139257379915e-13
7.333000000000000000e+03 6.218981170654296875e+01 -1.320980644226074219e+01 -4.117906259613944662e-16 3.658311175692985362e-13 1.096257958542457001e-13 8.938722429342044196e-14
7.334000000000000000e+03 5.997573471069335938e+01 2.087549591064453125e+01 6.330590755386153456e-14 2.558858344398756701e-13 9.575752869675838164e-14 1.419620578859900895e-13
7.335000000000000000e+03 6.011798095703125000e+01 2.187154960632324219e+01 -2.503723512965305015e-14 9.220938899587305393e-14 2.015164734571212729e-14 6.558914246142591442e-14
7.336000000000000000e+03 6.519919586181640625e+01 2.053279399871826172e+00 4.576626417792696577e-14 4.428103933876159637e-13 1.465729935427179109e-13 -7.823906453263695937e-14
7.337000000000000000e+03 6.475622558593750000e+01 2.618633747100830078e+00 -1.653102703553024910e-13 1.693452236078973883e-13 1.210488008657542580e-15 -1.421991729011126693e-13
7.338000000000000000e+03 4.231011199951171875e+01 4.200850009918212891e+00 9.793156411676273709e-14 3.622273108631196559e-13 1.380476679149755803e-13 2.515531660469798314e-14
7.339000000000000000e+03 4.387376403808593750e+01 5.950577259063720703e+00 -3.313244589710911958e-14 3.155133015205098534e-14 -4.743354858470927998e-16 -1.581077526931554122e-13
7.340000000000000000e+03 6.265964889526367188e+01 -4.976010799407958984e+00 5.851154521833989985e-14 7.082732973251806841e-14 3.880166113000467487e-14 1.208978087725767064e-14
7.341000000000000000e+03 6.446421813964843750e+01 7.827141761779785156e+00 -2.428220690112951191e-15 -1.040666055425172685e-15 -1.040666055425172685e-15 -1.112751722904571638e-13
7.342000000000000000e+03 6.452306365966796875e+01 6.756859302520751953e+00 7.583536269348994160e-16 1.833288024426921181e-13 5.522614836142927808e-14 -1.466002273460380312e-14
7.343000000000000000e+03 5.755799102783203125e+01 1.621495437622070312e+01 4.277954807887715538e-14 -7.316780373852610486e-14 -9.116477544927632098e-15 6.378968533948814468e-14
7.344000000000000000e+03 6.368334579467773438e+01 9.412199020385742188e+00 -1.681656353611556826e-14 3.130495537274902151e-13 8.886989722681898352e-14 -1.674926846252210860e-14
7.345000000000000000e+03 4.253182220458984375e+01 -1.276580572128295898e+00 3.227999871525596975e-14 1.053361838401246919e-13 4.128485341136148290e-14 -8.951043031779626347e-14
7.346000000000000000e+03 5.654024887084960938e+01 1.335206222534179688e+01 -6.069045277185686205e-14 9.980491639301897200e-14 1.173434044160134859e-14 3.293625273773428952e-14
7.347000000000000000e+03 5.462908554077148438e+01 1.168486785888671875e+01 -1.702713592680298732e-14 3.587102403307396159e-13 1.025049321682139358e-13 -1.612339547898272718e-13
7.348000000000000000e+03 4.682905960083007812e+01 6.963998317718505859e+00 -4.395169598821017931e-14 -1.560892935086391486e-13 -6.001229786549433509e-14 -6.904051711841691086e-14
7.349000000000000000e+03 4.593861389160156250e+01 8.519255638122558594e+00 1.253947439589994661e-13 -8.351224442884608301e-14 1.256474867319988878e-14 9.416537103019984034e-14
7.350000000000000000e+03 5.521640396118164062e+01 1.396514892578125000e+01 6.777971196456067382e-14 -2.225817728913892513e-13 -4.644061760042221543e-14 -2.125024907830095483e-14
7.351000000000000000e+03 5.388632965087890625e+01 1.282436656951904297e+01 -3.484593933929594489e-14 1.566320857737668604e-13 3.653584460796763245e-14 -1.403966461317740499e-13
7.352000000000000000e+03 6.368133926391601562e+01 -1.088734245300292969e+01 -7.853631211075101648e-14 1.950963262470351012e-13 3.496800356325886761e-14 1.302401247830001219e-13
7.353000000000000000e+03 6.102490615844726562e+01 2.165163803100585938e+01 -1.331928308151517776e-14 1.487011875396168636e-13 4.061457252327663192e-14 -1.383775770835357632e-13
7.354000000000000000e+03 6.348912048339843750e+01 -2.572360992431640625e+00 -6.993543114411360229e-14 1.987824238981056313e-13 3.865409782619760870e-14 2.384208858173617746e-14
7.355000000000000000e+03 5.957044219970703125e+01 2.032477760314941406e+01 5.646752257947550147e-14 -2.155058155040891210e-14 1.047508196990679791e-14 1.012852860393306798e-13
7.356000000000000000e+03 5.877268981933593750e+01 1.982122230529785156e+01 7.669297190588189594e-14 1.701212684179082002e-13 7.404427277476338665e-14 6.594421867291491712e-14
7.357000000000000000e+03 6.503810882568359375e+01 -1.095109105110168457e+00 -1.469382443139693323e-14 2.739272025355232731e-13 7.777001834402899605e-14 1.958370667238043539e-14
7.358000000000000000e+03 4.785839843750000000e+01 -7.565276145935058594e+00 5.356997533284904578e-14 1.373359298463203149e-13 5.727177358662988160e-14 2.592145790548949780e-14
7.359000000000000000e+03 5.709274673461914062e+01 1.534315586090087891e+01 -4.167842557623729904e-14 1.193906627207363957e-13 2.331367215978926571e-14 1.065576460076468612e-13
7.360000000000000000e+03 4.395297241210937500e+01 -1.920463323593139648e+00 6.985934725665943201e-14 2.129435137335905504e-13 8.484085965232771032e-14 -4.804779485520146998e-14
7.361000000000000000e+03 6.330614852905273438e+01 -7.520297050476074219e+00 1.247593879333958045e-13 1.449702039186054336e-13 8.091887348984222461e-14 -2.047185290482856496e-14
7.362000000000000000e+03 5.671082305908203125e+01 1.439880371093750000e+01 6.188277700599348341e-14 2.438382070042710570e-13 9.171629384782664651e-14 5.452397160068261917e-14
7.363000000000000000e+03 4.557902526855468750e+01 5.652466297149658203e+00 -2.426774804871988100e-14 -1.819665159654912379e-13 -6.187028157595558797e-14 4.360002484916913890e-14
7.364000000000000000e+03 4.505529785156250000e+01 5.224471569061279297e+00 4.224911571851577841e-14 -5.051965722385580448e-14 -2.481162578656949912e-15 -6.907370725742212336e-14
7.365000000000000000e+03 4.812138748168945312e+01 -6.651130676269531250e+00 5.661661731885120341e-14 3.902718534627702685e-13 1.340665453002445884e-13 6.227916132025418383e-14
7.366000000000000000e+03 4.702064895629882812e+01 -7.492460727691650391e+00 7.586532584872435203e-14 4.213967770647780720e-13 1.491786295187980116e-13 3.757807799198258081e-14
7.367000000000000000e+03 4.959563446044921875e+01 -8.239622116088867188e+00 -1.539732595167309787e-14 1.764049382914009700e-13 4.830228421013813001e-14 -8.168789131452261487e-14
7.368000000000000000e+03 6.445858001708984375e+01 5.708726406097412109e+00 -5.663175210355274325e-14 2.387972090032997041e-13 5.464963740873726716e-14 -3.861952702348837169e-15
7.369000000000000000e+03 5.159596252441406250e+01 -1.064342021942138672e+01 3.097550360198035591e-14 1.505280682002549386e-13 5.445106916897833604e-14 7.841230648727298691e-14
7.370000000000000000e+03 4.356537628173828125e+01 -3.385736465454101562e+00 -2.510193320023022812e-14 1.264948703508933514e-13 3.041788148401211589e-14 6.771947098135194798e-14
7.371000000000000000e+03 5.451373672485351562e+01 -1.336292552947998047e+01 -3.893530598842245838e-14 3.607587590204880401e-13 9.654703794249874793e-14 -3.317851771317617549e-14
7.372000000000000000e+03 5.860361099243164062e+01 -1.427614021301269531e+01 3.879394974205287172e-14 8.525240246821247370e-14 3.721390464664006692e-14 6.596756967720482367e-14
7.373000000000000000e+03 5.069221496582031250e+01 8.428288459777832031e+00 -9.748942647082314839e-14 -2.362227167346242496e-13 -1.001136429616342194e-13 -7.716912639498321735e-14
7.374000000000000000e+03 4.727278137207031250e+01 7.585739612579345703e+00 -2.861188187958975393e-14 2.205097642839475708e-14 -1.968271847116735869e-15 -1.400612752947699713e-13
7.375000000000000000e+03 4.336611938476562500e+01 5.239325046539306641e+00 -1.211744327924910158e-13 3.956999794019547267e-14 -2.448133079450184185e-14 -1.415087529576739001e-13
7.376000000000000000e+03 4.169034194946289062e+01 3.972573757171630859e+00 5.575601490378188918e-14 2.640879051898914476e-13 9.595317975504696895e-14 -9.571437745029345856e-14
7.377000000000000000e+03 6.093514251708984375e+01 -1.195685195922851562e+01 -6.086780114222117843e-14 2.026685432974725809e-13 4.254022400182813635e-14 6.489807877294723193e-14
7.378000000000000000e+03 6.340127182006835938e+01 -1.214388370513916016e+01 -6.479443582152119574e-14 2.467366588820851803e-13 5.458266420766376414e-14 5.308475420308031434e-14
7.379000000000000000e+03 6.169156265258789062e+01 -8.575969696044921875e+00 5.453927579197360986e-14 2.063777751123985205e-13 7.827511425487210239e-14 -3.820195502708505220e-14
7.380000000000000000e+03 5.754672241210937500e+01 -1.356743717193603516e+01 7.187189753933564962e-14 1.223041443511665993e-13 5.825280714613981226e-14 1.528009659177310270e-14
7.381000000000000000e+03 6.031847000122070312e+01 -1.427406501770019531e+01 7.563582735386348288e-14 1.696681938825536640e-13 7.359120501567242845e-14 4.834840346005023215e-14
7.382000000000000000e+03 5.234938812255859375e+01 -9.341253280639648438e+00 7.894857998683862954e-14 -5.766678909564781907e-14 6.384537097950653689e-15 -7.006783255816481648e-14
7.383000000000000000e+03 5.256192398071289062e+01 -1.038107967376708984e+01 7.297432108458248856e-14 3.515313582759527211e-13 1.273517017752814895e-13 5.763999913759206006e-16
7.384000000000000000e+03 5.584486007690429688e+01 -1.159939479827880859e+01 1.835576470281177069e-14 3.074223072830652159e-14 1.472939812111571933e-14 -5.930701079976535839e-14
7.385000000000000000e+03 6.083763885498046875e+01 -1.601208496093750000e+01 1.872652796448392304e-14 3.090113072107963932e-14 1.488829641982294255e-14 9.836006114411974255e-14
7.386000000000000000e+03 6.619798278808593750e+01 1.936788749694824219e+01 -1.814181942692838501e-14 2.667306208802705525e-13 7.457664314650808146e-14 -8.392708050882977111e-14
7.387000000000000000e+03 6.350418472290039062e+01 1.936370849609375000e+01 1.541133079442300047e-14 9.810675085904566051e-14 3.405542381841424049e-14 -1.335537854352947251e-14
7.388000000000000000e+03 6.370716476440429688e+01 2.063338470458984375e+01 -4.861291152068701604e-14 1.164187425932092235e-13 2.034174864413030442e-14 1.028799848047309839e-13
7.389000000000000000e+03 6.355147933959960938e+01 2.114917755126953125e+01 -5.476598924250390688e-14 -9.209756031804475218e-14 -4.405906588460413442e-14 -2.238199182198405413e-14
7.390000000000000000e+03 6.411425018310546875e+01 1.957283210754394531e+01 1.111834843620486749e-14 1.648933268573460342e-13 5.280350199514220744e-14 -1.541186442517977068e-14
7.391000000000000000e+03 6.504910278320312500e+01 2.034185409545898438e+01 1.103047029258653888e-13 2.874659332189472005e-13 1.193311942315755658e-13 -6.520618192531330015e-14
7.392000000000000000e+03 6.399461746215820312e+01 1.569340991973876953e+01 2.330522724130514034e-14 3.759955400414044524e-13 1.197902318788787723e-13 -1.496153088844254936e-14
7.393000000000000000e+03 6.515066528320312500e+01 1.408048057556152344e+01 -1.519872416940945548e-13 3.466211421620374322e-13 5.839016878513014763e-14 -1.044480880061369240e-15
7.394000000000000000e+03 5.151427459716796875e+01 1.052373313903808594e+01 -2.678339693854957931e-14 1.257742418244237048e-13 2.969725634567425832e-14 -1.698502314273139802e-13
7.395000000000000000e+03 5.051131820678710938e+01 9.384043693542480469e+00 -6.883335996457282113e-14 -1.839094604686938861e-13 -7.582284545235365436e-14 -2.274240366341440112e-13
7.396000000000000000e+03 6.485178375244140625e+01 1.313173770904541016e+01 4.253408470702643718e-14 2.012326937028685592e-13 7.313003284534214110e-14 -7.021869251420259639e-15
7.397000000000000000e+03 6.463286590576171875e+01 1.991883277893066406e+01 -7.563374704094502632e-14 -7.816541332380730345e-14 -4.613974810942569893e-14 -5.845715215059901770e-14
7.398000000000000000e+03 6.396856689453125000e+01 1.715922164916992188e+01 -9.956881104116951930e-14 1.403314449236262029e-13 1.222879084236336289e-14 -4.336767354734191726e-14
7.399000000000000000e+03 6.499867248535156250e+01 1.837082290649414062e+01 -7.206519723416265899e-14 1.521187147600355782e-13 2.401605390250916017e-14 -4.599957093291869026e-14
7.400000000000000000e+03 6.395740890502929688e+01 7.256654262542724609e+00 -4.680712536856736217e-14 3.916983382611094466e-13 1.034673648842021620e-13 6.929671409177523556e-14
7.401000000000000000e+03 5.878195571899414062e+01 1.716984558105468750e+01 -9.234059101127095603e-14 -8.532548447090157473e-14 -5.329982264465175923e-14 -2.792517278749290580e-15
7.402000000000000000e+03 6.191302871704101562e+01 2.105892944335937500e+01 -6.959980958535713635e-14 6.167341079022295447e-14 -2.377919426782017752e-15 -1.083470674832255620e-13
7.403000000000000000e+03 5.941117477416992188e+01 1.967322158813476562e+01 1.286729240951994813e-13 5.514553792990498082e-14 5.514553792990498082e-14 -6.264454422864537686e-14
7.404000000000000000e+03 4.841377639770507812e+01 7.932381153106689453e+00 -7.539514124783527893e-14 5.918969334843884877e-14 -4.861633268676097616e-15 -1.690069254250275987e-13
7.405000000000000000e+03 4.958695602416992188e+01 8.192208290100097656e+00 2.288505146562196113e-14 5.555882902179287708e-14 2.353316380741127256e-14 -1.480152534826667532e-13
7.406000000000000000e+03 6.396305465698242188e+01 6.187271595001220703e+00 -7.347517505442574537e-14 2.144219860261004085e-13 4.228404396912875673e-14 5.697159866265011363e-14
7.407000000000000000e+03 5.829407882690429688e+01 1.633584785461425781e+01 -1.080532148131641001e-13 2.231790361512889925e-14 -2.572059251237761301e-14 8.802504623643681025e-14
7.408000000000000000e+03 6.413206481933593750e+01 1.000052261352539062e+01 9.601520797777440136e-15 4.114937726771173560e-15 4.114937726771173560e-15 -1.615442534515926232e-13
7.409000000000000000e+03 4.528720855712890625e+01 3.839812040328979492e+00 2.901821374878300885e-14 -4.720227894395570209e-15 7.289396137481057858e-15 -1.448262354226265147e-13
7.410000000000000000e+03 4.906257247924804688e+01 -6.998393535614013672e+00 6.980706160689131856e-14 1.671701649720927496e-13 7.109316932894793606e-14 4.522485765870096208e-14
7.411000000000000000e+03 5.092403793334960938e+01 1.091938304901123047e+01 2.447073576758440616e-13 1.163123145974526151e-13 1.083059016819890030e-13 2.006744380042557729e-14
7.412000000000000000e+03 4.655023193359375000e+01 -6.761590957641601562e+00 8.438199395271279643e-16 1.976626056842539780e-13 5.955192529426625581e-14 -5.283315915972442225e-15
7.413000000000000000e+03 5.368768310546875000e+01 1.177572727203369141e+01 3.694500217907292772e-14 -2.991737649174312785e-14 2.108287240330818969e-15 -2.025702061604281456e-13
7.414000000000000000e+03 6.364284515380859375e+01 3.788944959640502930e+00 2.675485531635889841e-14 5.721731275625321911e-14 2.519165093000340361e-14 -8.145622441531677471e-14
7.415000000000000000e+03 6.455874633789062500e+01 3.239033937454223633e+00 6.909342618443420347e-14 3.041171643940882019e-13 1.119631731077985748e-13 6.660859997652214190e-15
7.416000000000000000e+03 4.802773284912109375e+01 7.243736267089843750e+00 -1.863419087002465835e-13 -3.410986770813195790e-14 -6.613553292251356241e-14 -1.168102751027480513e-13
7.417000000000000000e+03 5.132168579101562500e+01 -8.470271110534667969e+00 -4.106065480165158391e-15 1.126176314204287154e-13 3.255346838447470414e-14 1.603963103557603381e-14
7.418000000000000000e+03 6.414418029785156250e+01 2.285830020904541016e+00 -4.988423343561636247e-14 1.616248367780626083e-13 3.352218269679976825e-14 1.145822260857631836e-13
7.419000000000000000e+03 4.299840545654296875e+01 4.394458770751953125e+00 -9.689101463424693028e-14 -6.440019280655115419e-14 -4.838736019936035193e-14 -2.353560868331022737e-13
7.420000000000000000e+03 4.255730819702148438e+01 3.117742300033569336e+00 8.149607562141919503e-14 2.179306810966979979e-13 8.982802701543515789e-14 -2.412012375854061252e-13
7.421000000000000000e+03 6.176926040649414062e+01 -1.401045036315917969e+01 5.175789403186539794e-14 1.823102758168049231e-13 7.022044756646930730e-14 -1.622781126326983819e-14
7.422000000000000000e+03 5.479498672485351562e+01 1.246792793273925781e+01 -1.028462119070580605e-13 2.761796867589705329e-13 5.200004381082645732e-14 -1.384399593660351480e-13
7.423000000000000000e+03 4.587718582153320312e+01 6.132483959197998047e+00 -1.003578595009865793e-13 -4.301051024667087996e-14 -4.301051024667087996e-14 -2.865103174241184769e-14
7.424000000000000000e+03 4.528568267822265625e+01 6.416185855865478516e+00 5.172897548001318888e-15 -2.494132558903544572e-13 -7.327211076378278842e-14 -1.137572447942577017e-14
7.425000000000000000e+03 4.291754150390625000e+01 3.214613497257232666e-01 1.074541761722069139e-14 3.062754856588550956e-13 9.510627555680065126e-14 -8.747996359421972290e-14
7.426000000000000000e+03 4.353639984130859375e+01 -1.899500787258148193e-01 -2.085034957730914906e-14 1.912245318688721163e-13 5.111225502628206907e-14 -1.026712758865275243e-13
7.427000000000000000e+03 6.222622680664062500e+01 -3.738598108291625977e+00 -8.648066631030109502e-15 8.779558162289383128e-14 2.374425458226241126e-14 -2.369488103176695809e-14
7.428000000000000000e+03 6.251913070678710938e+01 -2.958344936370849609e+00 -3.018053268779609388e-14 -1.293451497709312281e-14 -1.293451497709312281e-14 4.658728304930519204e-14
7.429000000000000000e+03 6.190323257446289062e+01 -4.528495311737060547e+00 2.478906802863469622e-14 2.851295859574581870e-13 9.297559467116855991e-14 8.796688556614654098e-14
7.430000000000000000e+03 4.408903884887695312e+01 3.953974246978759766e+00 -5.005053310821669377e-14 -1.129521281194312277e-13 -4.890079769066801862e-14 -8.221595875889525784e-14
7.431000000000000000e+03 4.467520523071289062e+01 5.647528648376464844e+00 1.145275551912156020e-13 -4.084262496348994853e-13 -8.816960426734701817e-14 -5.114509279958122379e-14
7.432000000000000000e+03 6.157681274414062500e+01 2.014756774902343750e+01 7.987526791245272428e-14 -5.155077075933919839e-14 8.497348976527468317e-15 -4.900415942715556639e-14
7.433000000000000000e+03 6.376490783691406250e+01 -1.842833518981933594e+00 9.235648134936144671e-14 -1.434224511072737518e-13 -1.531979024974733372e-14 -6.183465875832586112e-14
7.434000000000000000e+03 6.284978485107421875e+01 -8.342479705810546875e+00 5.643522013099901147e-14 1.614393704439318067e-13 6.536237480078699313e-14 1.208130817609287533e-13
7.435000000000000000e+03 4.331092071533203125e+01 7.620187401771545410e-01 8.346607605102304012e-15 2.323318675032798319e-13 7.220354143137180936e-14 -1.948756097897713646e-13
7.436000000000000000e+03 6.234737396240234375e+01 -9.150024414062500000e+00 1.783486823937058263e-13 2.136879947078548780e-13 1.176109990647100645e-13 9.044615777902345610e-14
7.437000000000000000e+03 4.436199188232421875e+01 -3.642378091812133789e+00 -6.063973921523885258e-14 1.570153376892133301e-13 2.891267683168691205e-14 -1.553050494196989151e-13
7.438000000000000000e+03 5.469115829467773438e+01 -1.088566112518310547e+01 6.791400395615015961e-14 2.910600363156823356e-14 2.910600363156823356e-14 -1.046228126919471202e-13
7.439000000000000000e+03 5.445453262329101562e+01 -9.869035720825195312e+00 5.227779607862650946e-14 5.027897586121210516e-13 1.665202535323234700e-13 -6.480246569386116651e-14
7.440000000000000000e+03 5.600958251953125000e+01 1.414118671417236328e+01 3.217172757580613607e-14 -4.340080269997492746e-14 -3.368722029030869064e-15 -1.473348353042691627e-13
7.441000000000000000e+03 5.782333374023437500e+01 1.548803997039794922e+01 -8.902948501034527173e-14 3.047092946343275821e-14 -1.756756835813964857e-14 -1.657807293948664745e-14
7.442000000000000000e+03 4.369869613647460938e+01 4.625024795532226562e+00 1.357822410280942749e-13 1.725697628416136831e-13 9.250559980565967177e-14 -3.440633940406633007e-14
7.443000000000000000e+03 5.538364028930664062e+01 1.313887882232666016e+01 7.356076603967989791e-14 3.517826763395348610e-13 1.276030333913907855e-13 -1.000376132842886734e-13
7.444000000000000000e+03 5.351251220703125000e+01 -1.012304973602294922e+01 3.696446360806904252e-14 1.302192809962340880e-13 5.015512473654365477e-14 -1.887074752102840813e-13
7.445000000000000000e+03 6.262216949462890625e+01 -7.050362110137939453e+00 4.340791777673186358e-14 6.435434460718217342e-14 3.232867939280056890e-14 1.412363200567826049e-13
7.446000000000000000e+03 4.516045379638671875e+01 -6.307976245880126953e+00 1.013127955518751313e-15 2.635021649662061538e-13 7.935458659538013881e-14 -7.740952789794114386e-14
7.447000000000000000e+03 4.610105133056640625e+01 -5.045306205749511719e+00 -2.494410046897065081e-14 -1.640919659266076858e-14 -1.240598928789601527e-14 -1.776712593238097271e-13
7.448000000000000000e+03 4.932647705078125000e+01 -6.120498180389404297e+00 7.102270974026353434e-14 3.964458969440975977e-13 1.402405752290447616e-13 -7.357042221527859693e-14
7.449000000000000000e+03 6.272969818115234375e+01 -1.265423297882080078e+01 1.013711616276551097e-13 1.921353701139771886e-13 8.805195477910518487e-14 -6.342548827722310767e-15
7.450000000000000000e+03 6.293691253662109375e+01 -1.131015777587890625e+01 9.418201353354749283e-14 2.233675077583166524e-13 9.526486045331739039e-14 -1.554888386285941532e-14
7.451000000000000000e+03 5.222357559204101562e+01 -8.340002059936523438e+00 1.712686558601270864e-14 4.877250404759780888e-13 1.514555760537619755e-13 -1.723946167569122279e-14
7.452000000000000000e+03 5.740584182739257812e+01 1.460697269439697266e+01 -1.071586463769098885e-13 9.132771578920784172e-14 -4.749279006904024575e-15 -3.003366395100577624e-14
7.453000000000000000e+03 5.313284683227539062e+01 1.126518249511718750e+01 1.955964280516211962e-13 -1.906786496275528209e-13 1.475332235495268023e-15 1.371250389712447282e-13
7.454000000000000000e+03 5.367457199096679688e+01 1.079383277893066406e+01 1.107893480732299873e-13 3.677377955098315443e-13 1.435581390091603127e-13 -2.385680086640362685e-13
7.455000000000000000e+03 4.377359771728515625e+01 -2.647051334381103516e+00 -6.621350061124242625e-14 1.546265828052117985e-13 2.652392364175127498e-14 -1.213071933485118659e-13
7.456000000000000000e+03 4.299003982543945312e+01 -2.358781814575195312e+00 -1.485001645983767896e-15 1.366164126270774659e-13 4.053942376019623040e-14 -8.257957306249258389e-14
7.457000000000000000e+03 6.093934249877929688e+01 -1.341993618011474609e+01 -4.833498307003393502e-14 2.537906950567103692e-13 6.163671732294789818e-14 9.866977704721738296e-14
7.458000000000000000e+03 6.288990020751953125e+01 -1.344584655761718750e+01 -4.639902150644845125e-14 1.631185014535144195e-13 3.501584398411979049e-14 4.282623653492981242e-14
7.459000000000000000e+03 6.220974731445312500e+01 -1.196116161346435547e+01 1.343247548238855893e-14 3.260134133140080159e-13 1.018337703658639404e-13 6.889786321757213061e-14
7.460000000000000000e+03 6.343673706054687500e+01 6.692851066589355469e+00 1.076541437103947091e-14 1.161316865155165301e-13 3.806913009656021085e-14 -4.639331589251574628e-14
7.461000000000000000e+03 6.340513229370117188e+01 5.617224693298339844e+00 -1.850640951248094801e-13 9.225287227925330069e-14 -2.784336888654592723e-14 -5.459263293842000000e-15
7.462000000000000000e+03 6.410201263427734375e+01 -1.170836091041564941e+00 -6.912643336432280905e-14 3.363819639501386405e-13 8.017666256387653845e-14 -6.849656611221735525e-14
7.463000000000000000e+03 5.409560394287109375e+01 -1.224794387817382812e+01 7.303370148231680403e-14 1.685530106329893862e-13 7.247600821358099465e-14 -9.397267442283127603e-14
7.464000000000000000e+03 6.230039978027343750e+01 -5.784724712371826172e+00 4.517967692129441770e-14 1.794910384602180220e-13 6.740121698614598422e-14 1.657014504991352610e-13
7.465000000000000000e+03 5.377405166625976562e+01 -1.117086982727050781e+01 -3.019977727635771159e-14 2.272497240298626542e-13 5.911498504249101948e-14 -7.771379568512204461e-14
7.466000000000000000e+03 6.155468750000000000e+01 -1.264723873138427734e+01 6.707073861144524640e-14 3.053948695493080567e-13 1.117396851587314222e-13 -1.667398925636782991e-14
7.467000000000000000e+03 5.287311172485351562e+01 -4.092318344116210938e+01 6.837832031278065492e-14 3.609993705876168857e-13 1.288133147240091980e-13 -5.593097464123494844e-14
7.468000000000000000e+03 6.436879730224609375e+01 2.038497543334960938e+01 -1.517025166510727052e-13 2.094903298142242187e-13 1.733634191606638064e-14 3.821859414230091567e-14
7.469000000000000000e+03 6.260281372070312500e+01 2.029573249816894531e+01 1.993305016488242098e-14 -3.720821258523451802e-14 -5.182549064918808013e-15 -7.797791241653719702e-15
7.470000000000000000e+03 6.420175170898437500e+01 1.509957504272460938e+01 4.354277558633011525e-14 -7.284070671935080621e-14 -8.789378831686438936e-15 -1.465828055723789047e-13
7.471000000000000000e+03 6.440270996093750000e+01 1.447816562652587891e+01 -3.168759742447346817e-14 2.151743410186424121e-13 5.504602511112975660e-14 -6.484182223272239032e-14
7.472000000000000000e+03 5.114241409301757812e+01 8.982838630676269531e+00 6.228327451224605071e-14 -4.193358916939997350e-14 6.104905264040644264e-15 -1.145162523835674406e-13
7.473000000000000000e+03 6.385266494750976562e+01 8.329076766967773438e+00 -1.039781460801872393e-13 3.443210072531094346e-13 7.210285970712937420e-14 1.188341146405452742e-14
7.474000000000000000e+03 6.288305282592773438e+01 7.198645114898681641e+00 -3.782248087858333663e-14 3.955489093817460278e-13 1.073179292285751651e-13 1.544138216813886744e-13
7.475000000000000000e+03 6.055669403076171875e+01 2.033855247497558594e+01 2.665989445264221880e-14 2.859313534640112175e-13 9.377737573024874651e-14 1.131545351125071153e-13
7.476000000000000000e+03 6.319690704345703125e+01 1.600435638427734375e+01 1.342512413637889806e-16 2.059368029837943537e-13 6.182131629534071138e-14 -1.261894370463770287e-13
7.477000000000000000e+03 6.388191986083984375e+01 2.011709976196289062e+01 -1.280790523552205462e-13 -1.921438675485040437e-13 -9.606687190535923015e-14 -1.132087519973949685e-13
7.478000000000000000e+03 6.262559127807617188e+01 1.583334541320800781e+01 -6.756061503429208748e-14 2.913020844506897244e-13 6.712244150254564889e-14 -2.404348125285772804e-15
7.479000000000000000e+03 4.420196533203125000e+01 2.680274009704589844e+00 4.460893595703910308e-14 1.563709556805237266e-13 6.029396681364249111e-14 -7.567908024428207647e-14
7.480000000000000000e+03 4.469910430908203125e+01 3.318866491317749023e+00 -1.561972969856776500e-14 3.333790898505870071e-14 5.315454463573638516e-15 -9.051841985381961497e-14
7.481000000000000000e+03 5.037131881713867188e+01 -6.839994430541992188e+00 7.215000894910533757e-14 3.054271245639395005e-13 1.132731400539134514e-13 -1.543436195907202380e-13
7.482000000000000000e+03 5.099300003051757812e+01 -5.768803119659423828e+00 1.221256033584125489e-13 5.098490531672827952e-13 1.895923874709395940e-13 -2.117021700087304281e-13
7.483000000000000000e+03 6.557998657226562500e+01 1.913506698608398438e+01 -8.706585935070246252e-14 1.914408030972286623e-13 3.131248380158421774e-14 -1.341834493994928379e-13
7.484000000000000000e+03 6.196332550048828125e+01 1.946883964538574219e+01 -7.664965802909110004e-14 2.416558435563292973e-13 4.950185227003967015e-14 1.559561399293307726e-13
7.485000000000000000e+03 6.302045822143554688e+01 9.901725769042968750e+00 -5.522376311664980997e-14 1.135855190285972594e-13 1.750852677358423481e-14 -1.549014145034097178e-13
7.486000000000000000e+03 6.323194885253906250e+01 8.824342727661132812e+00 -9.818956696436460796e-15 1.902334084528944924e-13 5.412433467990446223e-14 -1.722054844641857096e-13
7.487000000000000000e+03 4.512850952148437500e+01 -3.890707492828369141e+00 2.776179961372533811e-14 5.764886587848391808e-14 2.562319897003641905e-14 2.979059260019810418e-14
7.488000000000000000e+03 5.897024154663085938e+01 1.863788223266601562e+01 4.485555806996166517e-14 1.107257054057050882e-13 4.667438175320545724e-14 1.558704523823206331e-15
7.489000000000000000e+03 6.337132263183593750e+01 7.757828235626220703e+00 -1.880269147303513522e-15 -4.655677969880867018e-14 -1.453111448442706566e-14 -1.023433860445135957e-13
7.490000000000000000e+03 6.416922760009765625e+01 1.156431579589843750e+01 -7.882323943943572719e-14 2.635997702667841613e-13 5.543296331396267707e-14 -1.525745675634571086e-13
7.491000000000000000e+03 6.341719055175781250e+01 1.052633953094482422e+01 -2.527570539749123685e-14 2.179223056349155474e-13 5.779397956300752481e-14 -2.881075843934148561e-14
7.492000000000000000e+03 6.386193847656250000e+01 1.104839134216308594e+01 -3.463168066122207511e-14 1.567239041452492265e-13 3.662766975571357664e-14 -1.423517336993085358e-13
7.493000000000000000e+03 5.211762619018554688e+01 1.010165786743164062e+01 1.044846175725366866e-13 -1.382246774721609950e-13 -1.012201830870047142e-14 4.196849709122221772e-14
7.494000000000000000e+03 6.320763015747070312e+01 2.735625743865966797e+00 8.264148100654150619e-15 1.407946296442391665e-13 4.471763061296256392e-14 -3.650713019105571167e-14
7.495000000000000000e+03 4.294599151611328125e+01 2.288906812667846680e+00 -1.061327539525133701e-14 2.013307191317884048e-13 5.721523244333476255e-14 -2.296977712201719868e-13
7.496000000000000000e+03 6.293603897094726562e+01 3.432354688644409180e+00 -2.996014149118410297e-14 3.874807376000322101e-13 1.072561771385885376e-13 9.438762569929579072e-14
7.497000000000000000e+03 6.153694534301757812e+01 -5.310457229614257812e+00 2.194438241418048691e-14 2.724726911110253447e-13 8.832511951646290771e-14 5.176092640981656834e-14
7.498000000000000000e+03 6.217552566528320312e+01 -7.834653377532958984e+00 6.298370977325315478e-14 7.274396878051078708e-14 4.071830356612918256e-14 1.065153553466563485e-13
7.499000000000000000e+03 5.712603759765625000e+01 1.367106819152832031e+01 -7.380530783968400343e-14 5.415218173507839461e-14 -5.895938847821219353e-15 -2.691467857504452332e-14
7.500000000000000000e+03 6.148953247070312500e+01 -3.286292791366577148e+00 -2.785609979174315937e-14 3.381262013001790079e-14 1.786955974427480338e-15 1.457091012516814610e-13
7.501000000000000000e+03 6.115430068969726562e+01 -4.054781436920166016e+00 -1.815299009743677472e-14 3.797109450324499813e-14 5.945431829962235376e-15 1.747736612552064361e-14
7.502000000000000000e+03 6.463476562500000000e+01 1.382180690765380859e+01 -7.371210202823403473e-15 1.340937587747739745e-13 3.801676313162916099e-14 -1.741404736339477455e-13
7.503000000000000000e+03 6.418786621093750000e+01 1.296346855163574219e+01 -1.851760728804364986e-14 1.064412569044305423e-13 2.637709386847653104e-14 -1.890545283256966913e-13
7.504000000000000000e+03 5.854980850219726562e+01 1.563163375854492188e+01 -1.079276777541174348e-13 -5.037691925499100925e-16 -3.252943297756341612e-14 1.256659977900281833e-13
7.505000000000000000e+03 5.938127136230468750e+01 -1.337207317352294922e+01 7.865062090104887882e-14 2.767593283454355957e-13 1.066229827410662689e-13 1.625323004439058194e-13
7.506000000000000000e+03 6.246878433227539062e+01 -1.032555460929870605e+00 -1.281218241309250994e-13 -1.006603044732649888e-13 -6.863463925888338424e-14 3.270322042141747543e-14
7.507000000000000000e+03 5.260966110229492188e+01 1.069657611846923828e+01 4.402514052100070518e-14 -2.688303173006920815e-14 5.142633060795922736e-15 -1.276678415762511065e-13
7.508000000000000000e+03 5.320474243164062500e+01 1.025337219238281250e+01 8.786322228592977068e-14 -1.281915247780887612e-13 -1.209849007002133936e-14 2.103090142627998121e-14
7.509000000000000000e+03 6.175277709960937500e+01 -9.896390914916992188e+00 1.863506636327894039e-13 1.198966463221082246e-13 9.187419434172200416e-14 -3.915062853987807956e-14
7.510000000000000000e+03 4.494037628173828125e+01 -5.220717906951904297e+00 4.313660973559452216e-14 1.099890171345555001e-13 4.593768670579229108e-14 -1.295194149413675389e-13
7.511000000000000000e+03 4.592219543457031250e+01 -6.018504142761230469e+00 2.489180465480717031e-14 1.822339750889162557e-13 6.213773392311702781e-14 -4.469464552690587122e-14
7.512000000000000000e+03 6.280891799926757812e+01 -2.196141719818115234e+00 2.612381746472033917e-14 1.484487717213350821e-13 5.237177607819026859e-14 3.476446493416544825e-14
7.513000000000000000e+03 6.180480575561523438e+01 -2.525401592254638672e+00 -1.434703728432976111e-14 1.768550583758354833e-13 4.875240768270443226e-14 -1.184425313090296111e-14
7.514000000000000000e+03 4.476617050170898438e+01 4.358719825744628906e+00 4.601778214128465772e-14 1.972190687398855252e-14 1.972190687398855252e-14 -1.122024158696846574e-13
7.515000000000000000e+03 6.015692520141601562e+01 1.995374298095703125e+01 8.297838327911422063e-14 3.556216668257165814e-14 3.556216668257165814e-14 1.104494981260008279e-13
7.516000000000000000e+03 5.130419540405273438e+01 8.115632057189941406e+00 5.995836219554497026e-15 -2.030583105903493307e-14 -4.292998451844130814e-15 -1.790118346525065851e-13
7.517000000000000000e+03 6.189863204956054688e+01 -6.568291664123535156e+00 1.758139193583883875e-14 7.534882379221351928e-15 7.534882379221351928e-15 3.426437668210650933e-14
7.518000000000000000e+03 5.508846664428710938e+01 1.203604030609130859e+01 1.113639616721201486e-13 1.249321419970542135e-13 7.088883110075230864e-14 1.791960541541390284e-14
7.519000000000000000e+03 5.534386825561523438e+01 1.248859691619873047e+01 -1.484568896851015674e-14 3.938850927278497727e-14 7.362846599502214512e-15 -3.975411918600603445e-14
7.520000000000000000e+03 5.074459457397460938e+01 6.920969963073730469e+00 -2.801274667687658065e-14 -1.492583048259485401e-13 -5.318131595906730458e-14 -1.634476245754995505e-13
7.521000000000000000e+03 6.349820327758789062e+01 -7.345660924911499023e-01 1.249765129709631828e-13 9.931230913595018306e-14 6.728664392156857854e-14 3.529582225450522692e-14
7.522000000000000000e+03 4.644050216674804688e+01 -7.859644412994384766e+00 5.654067234480038284e-14 1.957977779475789104e-13 7.570153678177968248e-14 2.295144699022543672e-14
7.523000000000000000e+03 4.813065338134765625e+01 5.543532848358154297e+00 -2.901533044863055522e-14 -1.954389341335405206e-13 -6.733628005227768054e-14 -1.097840080562656473e-13
7.524000000000000000e+03 4.883192825317382812e+01 6.890080451965332031e+00 -3.306301968862036811e-14 -8.279629152424528016e-14 -3.475779370267287338e-14 -1.177776680436753987e-13
7.525000000000000000e+03 6.390756988525390625e+01 5.078306198120117188e+00 4.678368288471915215e-14 3.403068029195904787e-13 1.161271464189192471e-13 5.477371757111465511e-14
7.526000000000000000e+03 6.362395095825195312e+01 1.488769149780273438e+01 3.490470309704465923e-14 4.724686353957396889e-13 1.522120103569779559e-13 3.380000950349917876e-14
7.527000000000000000e+03 5.932198333740234375e+01 1.904637336730957031e+01 -5.215555905994234687e-14 2.339856688396077522e-14 -8.627097483387882043e-15 1.515951670834694842e-13
7.528000000000000000e+03 4.300104141235351562e+01 -6.916092634201049805e-01 -5.420970543659232865e-14 2.251821843682506874e-14 -9.507445930523588523e-15 -3.089030564001372936e-14
7.529000000000000000e+03 4.369576263427734375e+01 -1.257434129714965820e+00 3.826712235391500905e-14 2.666007063549524769e-13 9.146034759622070909e-14 -8.587590680881815319e-14
7.530000000000000000e+03 6.291328430175781250e+01 6.148976325988769531e+00 -1.383388710659780307e-13 3.524704670927053529e-13 6.423947338700733423e-14 1.843633752607320986e-13
7.531000000000000000e+03 5.211624908447265625e+01 -7.391857147216796875e+00 -9.655399038892981123e-14 5.012161611315027465e-14 -1.392971262154703987e-14 -3.421960590864643603e-14
7.532000000000000000e+03 5.810992813110351562e+01 1.478233909606933594e+01 -6.454091547227619463e-14 1.782188762886049993e-13 3.410338960015135701e-14 7.386609770024255006e-14
7.533000000000000000e+03 5.998224639892578125e+01 1.948997116088867188e+01 -1.026944303791736679e-13 -4.401189970196922596e-14 -4.401189970196922596e-14 1.577260728708590465e-13
7.534000000000000000e+03 4.324473953247070312e+01 -1.715588092803955078e+00 -4.280923150148073508e-14 -1.098487145971722978e-13 -4.579738416840908877e-14 -9.422443294354598819e-14
7.535000000000000000e+03 6.388049316406250000e+01 1.140497803688049316e+00 5.454422077031968047e-15 4.770036904529206812e-13 1.447374392646999519e-13 8.743011062307612380e-14
7.536000000000000000e+03 6.312540054321289062e+01 -1.453767538070678711e+00 -3.427810412156618615e-15 -4.722000988464057636e-14 -1.519434636432486635e-14 3.860909665977588223e-14
7.537000000000000000e+03 5.127975082397460938e+01 -7.522926330566406250e+00 -3.173381154207566279e-14 2.837809739801577802e-13 7.561414331041377279e-14 7.277223257589476857e-14
7.538000000000000000e+03 5.498462295532226562e+01 -1.190215015411376953e+01 -1.515694308344001096e-14 2.336966611980045849e-13 6.556190865810579416e-14 -5.276698809885196906e-14
7.539000000000000000e+03 6.283158874511718750e+01 5.090808868408203125e+00 -1.642789230387256549e-14 1.759632749839118437e-13 4.786061412638542567e-14 2.493913550064702500e-13
7.540000000000000000e+03 6.328615570068359375e+01 4.494888782501220703e+00 -4.908243204774544177e-14 2.077194210907407079e-13 4.759109501883268534e-14 -8.978631403091467261e-15
7.541000000000000000e+03 4.625845336914062500e+01 5.387138366699218750e+00 -1.916504369754105236e-14 1.466188451302186807e-14 -1.350947776531578968e-15 -3.706633795470121173e-14
7.542000000000000000e+03 4.761511611938476562e+01 6.562167644500732422e+00 -5.783708337562740165e-14 2.096362668147725566e-14 -1.106203683883845434e-14 -1.330436141030316710e-13
7.543000000000000000e+03 5.537919998168945312e+01 -9.644451141357421875e+00 4.902561646577541232e-14 8.963740394472147210e-14 4.159890612314906533e-14 -1.223567146040049902e-13
7.544000000000000000e+03 5.665153884887695312e+01 -1.310536003112792969e+01 1.110749743593077155e-13 1.848564026461427257e-13 8.877941377926149014e-14 5.348006363253094905e-15
7.545000000000000000e+03 5.315182495117187500e+01 -8.134364128112792969e+00 6.406340573045926634e-14 5.033121949814603480e-14 3.431838689095523254e-14 -4.064867406973309005e-14
7.546000000000000000e+03 5.559500885009765625e+01 -1.063568019866943359e+01 5.185880953720127529e-14 4.339837408710855993e-13 1.457527674941783147e-13 -1.024452807199364990e-13
7.547000000000000000e+03 6.165276336669921875e+01 -1.126981544494628906e+01 1.277766006066785587e-13 1.005123515343021856e-13 6.848668631992058109e-14 4.713647718944825177e-15
7.548000000000000000e+03 5.959595870971679688e+01 -1.175351047515869141e+01 2.217980505747445263e-14 1.696339466464302781e-13 5.754412517235824032e-14 1.331352020815523840e-13
7.549000000000000000e+03 6.440090179443359375e+01 1.829296493530273438e+01 -1.827340599528434056e-14 2.209232823806653312e-13 6.079496308502088664e-14 -1.161540752903783558e-13
7.550000000000000000e+03 6.331940078735351562e+01 1.989945411682128906e+01 4.622909314470208253e-14 1.113143661989925148e-13 4.726303915836109482e-14 -4.104963490300780546e-15
7.551000000000000000e+03 6.401967620849609375e+01 1.365786266326904297e+01 -7.349582232954801619e-14 2.658829645167670730e-13 5.771614062328664363e-14 -3.424904199762941748e-14
7.552000000000000000e+03 6.230809783935546875e+01 7.686832904815673828e+00 1.544751773599559869e-15 2.866054561647540799e-13 8.644506551552799678e-14 -1.348394594764823484e-13
7.553000000000000000e+03 5.415366363525390625e+01 1.127475643157958984e+01 1.037550647069347687e-13 -4.703544140543386431e-14 1.701588563519755570e-14 1.783660973911013747e-14
7.554000000000000000e+03 5.542584228515625000e+01 1.165623188018798828e+01 -1.742655770121254166e-14 5.415428847542480550e-13 1.572348886291416448e-13 -1.173240243021803075e-13
7.555000000000000000e+03 6.210120010375976562e+01 2.053262519836425781e+01 -6.415743316386807171e-14 1.383511496555814291e-13 2.225811325344811270e-14 1.692252295324575551e-13
7.556000000000000000e+03 6.437518310546875000e+01 1.768876266479492188e+01 -2.243979504437058209e-14 2.648886427043806169e-13 7.273465141809098977e-14 -1.086904207587245652e-13
7.557000000000000000e+03 6.428488159179687500e+01 1.893866729736328125e+01 -6.510495132372104421e-14 1.551016801971949466e-13 2.699901764560263401e-14 -9.812039147762824376e-14
7.558000000000000000e+03 6.084107971191406250e+01 1.539230442047119141e+01 6.786673612956158064e-15 3.231652142068885958e-13 9.898556448248094219e-14 6.845677589248713724e-14
7.559000000000000000e+03 6.395161056518554688e+01 1.802244186401367188e+01 3.075853441847527237e-14 1.318222976251764295e-14 1.318222976251764295e-14 -7.353761832329733239e-14
7.560000000000000000e+03 6.131160736083984375e+01 1.916327667236328125e+01 3.188340094869256125e-14 -1.693394773363832151e-13 -4.123682325512037505e-14 -1.161599028770554654e-13
7.561000000000000000e+03 4.472476196289062500e+01 1.579178333282470703e+00 -9.409074403941494746e-14 3.714339220309975653e-13 8.320295543035385877e-14 -2.175109864357288592e-13
7.562000000000000000e+03 4.549528884887695312e+01 2.815335512161254883e+00 3.322977337088042771e-14 4.855454417435761671e-14 2.453529526357141333e-14 -1.138538319612331096e-13
7.563000000000000000e+03 5.952022933959960938e+01 1.508871650695800781e+01 3.829619760686246016e-15 4.739221507094916463e-14 1.536654985656756012e-14 1.280996301736411422e-14
7.564000000000000000e+03 6.277258300781250000e+01 8.248484611511230469e+00 -8.521335086121226143e-14 4.667404158477383991e-13 1.144581255945950615e-13 2.124596478565374258e-14
7.565000000000000000e+03 6.234419631958007812e+01 1.032986831665039062e+01 -1.449833261530242973e-14 4.512959287956280763e-13 1.310392766518120311e-13 -8.148635168318471567e-14
7.566000000000000000e+03 6.260773468017578125e+01 9.297091484069824219e+00 -1.132966672410563869e-13 2.488254556825414410e-13 4.065863517719280062e-14 -6.484748718907362708e-14
7.567000000000000000e+03 5.941689682006835938e+01 -9.581113815307617188e+00 -2.823874014940171151e-14 7.939958098553828725e-14 1.534825225084097272e-14 1.119356580895399661e-14
7.568000000000000000e+03 6.100299835205078125e+01 1.978668022155761719e+01 -7.582579312701009933e-14 1.962579811122175388e-13 3.612965504030951625e-14 1.370720892476459674e-13
7.569000000000000000e+03 6.049073028564453125e+01 1.952345466613769531e+01 -2.889527199868673069e-14 -3.783912744768913594e-13 -1.221859663143656793e-13 2.402394824957757025e-14
7.570000000000000000e+03 5.103119659423828125e+01 7.547865867614746094e+00 1.055609796080624052e-13 2.739951549066838021e-13 1.138668423873029356e-13 -1.251486029607909445e-13
7.571000000000000000e+03 5.163042831420898438e+01 9.525292396545410156e+00 -1.049255964774044314e-13 -9.071905824210163560e-14 -5.869339980398360912e-14 -1.742637067633778791e-13
7.572000000000000000e+03 6.350405120849609375e+01 1.229039287567138672e+01 -6.395308815940886626e-14 1.555953309988547528e-13 2.749267014132833475e-14 3.035534334745043639e-14
7.573000000000000000e+03 5.927334594726562500e+01 1.802866744995117188e+01 -4.984282368889099424e-14 -1.586140615551789868e-13 -6.253706591203417320e-14 -9.134756674748057510e-17
7.574000000000000000e+03 6.235750198364257812e+01 3.084950447082519531e+00 -7.705234426847937246e-14 -7.877337969202855006e-14 -4.674771786577873456e-14 2.242242917488597442e-14
7.575000000000000000e+03 6.267526626586914062e+01 1.781934857368469238e+00 -8.281481105260404818e-14 1.932626828753461479e-13 3.313436357970170332e-14 -9.123335970701550168e-15
7.576000000000000000e+03 6.264021301269531250e+01 1.097835731506347656e+01 -8.310179259139738317e-14 1.013589524947533863e-14 -2.188976911787331864e-14 -1.222836122725251551e-13
7.577000000000000000e+03 6.341907882690429688e+01 1.296952152252197266e+01 -1.151831993499718987e-13 8.788861972182024362e-14 -8.188374227258675420e-15 4.316936449966484596e-15
7.578000000000000000e+03 6.278637695312500000e+01 1.168293190002441406e+01 -4.261919457756654928e-14 2.562403143401698058e-13 6.408633660640733476e-14 2.619340969166675248e-14
7.579000000000000000e+03 6.212611389160156250e+01 -1.777546048164367676e+00 -3.194677595380612800e-14 7.781042520374481519e-14 1.375909392794865890e-14 -1.875953683843842312e-14
7.580000000000000000e+03 5.613951492309570312e+01 1.287069892883300781e+01 -2.039339224292439912e-14 -1.459928776178023857e-13 -4.991587858652578313e-14 -2.311452793762620167e-14
7.581000000000000000e+03 5.774875640869140625e+01 1.391161918640136719e+01 -2.639337045359096967e-14 3.203829345918562943e-13 8.819687195198502860e-14 1.298642454423265535e-13
7.582000000000000000e+03 6.239882278442382812e+01 6.661892890930175781e+00 5.510352848385295654e-14 2.981214992751890502e-13 1.059675079888994231e-13 -6.620340397851115499e-14
7.583000000000000000e+03 4.355087661743164062e+01 1.343975067138671875e+00 2.702187398265134405e-14 -1.714229886512486090e-13 -4.332033456998576892e-14 -7.295049574184211960e-14
7.584000000000000000e+03 4.266839218139648438e+01 1.581176877021789551e+00 -1.240426896398014178e-14 -1.883199135912019817e-13 -6.021725273367556364e-14 -6.551221154102448985e-14
7.585000000000000000e+03 6.113301849365234375e+01 -6.074754238128662109e+00 2.994488134560636949e-14 -3.291742827751450995e-14 -8.917647571987999400e-16 4.236393611671378234e-14
7.586000000000000000e+03 6.041680145263671875e+01 -3.561009168624877930e+00 -3.550272741604750849e-15 3.187350828149498883e-13 9.455544664306939073e-14 3.059700184730208827e-14
7.587000000000000000e+03 6.075913238525390625e+01 -2.807622671127319336e+00 -8.614829905212798011e-15 2.250626714075248946e-13 6.493435211188045009e-14 -1.609274779407199318e-13
7.588000000000000000e+03 6.329899978637695312e+01 1.413546371459960938e+01 -6.084806019235246971e-15 1.346450755794828535e-13 3.856807993633803999e-14 -9.930007798019183096e-14
7.589000000000000000e+03 6.340577316284179688e+01 1.545819377899169922e+01 -1.735946379794405491e-15 1.136333933307760724e-13 3.356923368295385013e-14 -9.028670552076872857e-14
7.590000000000000000e+03 4.428009414672851562e+01 -7.897371053695678711e-01 -1.824290942105139673e-14 -1.050391531024451319e-13 -3.698461960408190585e-14 -5.913071275025563733e-14
7.591000000000000000e+03 4.457380676269531250e+01 -2.905319690704345703e+00 -8.975059465152895877e-14 7.286408652276091941e-15 -2.473925571507256532e-14 -5.499748673512029618e-14
7.592000000000000000e+03 4.497357940673828125e+01 -4.551093578338623047e+00 -2.491401555275007257e-14 -1.936812255715070208e-13 -6.557857149024418075e-14 -7.586011490203284358e-14
7.593000000000000000e+03 6.004054641723632812e+01 -4.298596858978271484e+00 -4.811062775922879398e-14 -2.061884022623149820e-14 -2.061884022623149820e-14 -1.092160080906276476e-13
7.594000000000000000e+03 6.328837585449218750e+01 4.998257160186767578e-01 6.499221123844149683e-15 2.785380390893962659e-15 2.785380390893962659e-15 2.501342164537394275e-14
7.595000000000000000e+03 6.258277511596679688e+01 4.043514728546142578e+00 -3.246002709786539875e-14 3.183950770136584341e-14 -1.861560571778830180e-16 7.218824740447618571e-14
7.596000000000000000e+03 5.542440032958984375e+01 8.701135635375976562e+00 -3.374605011662729082e-14 -5.177230172348501469e-13 -1.654407269817068094e-13 -1.635002490384465657e-13
7.597000000000000000e+03 5.674144744873046875e+01 1.236326503753662109e+01 -6.870752474992872227e-14 2.908105613957934210e-13 6.663091167138576743e-14 -1.453679570381088970e-13
7.598000000000000000e+03 6.337973403930664062e+01 1.359611797332763672e+01 -4.589548074809650380e-14 -1.966949247521245642e-14 -1.966949247521245642e-14 -1.740256295188272184e-13
7.599000000000000000e+03 6.019673538208007812e+01 -1.265133762359619141e+01 1.028714602651498167e-13 3.071557222976417645e-13 1.230081574793429056e-13 2.335608479352418304e-14
7.600000000000000000e+03 6.036545562744140625e+01 -1.118563938140869141e+01 4.746375547367426284e-14 1.575944507271193062e-13 6.151746186023807073e-14 4.791871042217170362e-14
7.601000000000000000e+03 5.881881713867187500e+01 1.493881511688232422e+01 -1.248406759912779052e-13 -7.637862103849688000e-14 -6.036578843130607774e-14 3.046858826436654732e-14
7.602000000000000000e+03 4.604977035522460938e+01 4.807929992675781250e+00 -5.913115998365178760e-14 -1.168438176074593216e-13 -5.279249395495969055e-14 8.980152674264735985e-15
7.603000000000000000e+03 4.578113174438476562e+01 4.307986259460449219e+00 8.212436400411096682e-14 9.810370831669912306e-14 5.406842372912210037e-14 -5.425520465838704065e-14
7.604000000000000000e+03 5.115944290161132812e+01 -6.650804996490478516e+00 -1.751195217482293121e-13 2.452054130488295902e-13 2.102576840661962015e-14 5.711797273219923476e-14
7.605000000000000000e+03 4.728833770751953125e+01 5.858947753906250000e+00 -4.382833410977206301e-14 2.696737757689089687e-14 -5.058286366941286763e-15 -1.126019579227727219e-13
7.606000000000000000e+03 4.847229766845703125e+01 6.218005657196044922e+00 -1.891102698698896023e-14 -8.104725488552576990e-15 -8.104725488552576990e-15 -6.265386159106517416e-14
7.607000000000000000e+03 4.537076950073242188e+01 -3.229915857315063477e+00 -3.040332945797828701e-14 3.272095051506940244e-14 6.952864124185411960e-16 -1.247759355690533645e-13
7.608000000000000000e+03 5.198538589477539062e+01 -6.509900569915771484e+00 1.390025789783921883e-14 2.347119894274829477e-13 7.458367690810208117e-14 -1.095589818953662808e-13
7.609000000000000000e+03 5.102614212036132812e+01 -4.850855350494384766e+00 -1.385024636212789373e-13 2.151474934623462398e-13 2.299351234045197978e-14 -2.217337235045982458e-13
7.610000000000000000e+03 5.950253677368164062e+01 1.732703590393066406e+01 4.377925363267635983e-14 1.560153780255299494e-13 5.993838915864871386e-14 6.839823575143649803e-14
7.611000000000000000e+03 6.003467178344726562e+01 1.818947219848632812e+01 1.623577824341347533e-15 1.379486667041004977e-13 4.187167444908747316e-14 1.029641934322152175e-13
7.612000000000000000e+03 4.479694366455078125e+01 -2.131968975067138672e+00 -7.264012254117740985e-14 1.518723162638110913e-13 2.376965710035056772e-14 -1.672420069185470703e-13
7.613000000000000000e+03 5.426298904418945312e+01 -8.871176719665527344e+00 1.601523140449742644e-14 9.836557024640868452e-14 3.431423981764547548e-14 -2.038210908644061403e-13
7.614000000000000000e+03 5.331135559082031250e+01 -9.111448287963867188e+00 4.781350893012271952e-14 3.864991009530638344e-13 1.302937792380109983e-13 -1.143481858002391369e-14
7.615000000000000000e+03 5.685910797119140625e+01 -1.233247756958007812e+01 9.948692667209255158e-14 6.551272653705642046e-14 4.949989731799740722e-14 -1.573208692495515343e-14
7.616000000000000000e+03 4.703589630126953125e+01 5.172016620635986328e+00 -7.621484552407936652e-14 1.308744338758809772e-14 -1.893822013272761229e-14 -4.795124326360984679e-14
7.617000000000000000e+03 5.577011489868164062e+01 1.135102272033691406e+01 6.689448121951699355e-14 1.887973826754374418e-13 7.670756120136540401e-14 2.860452285734400857e-14
7.618000000000000000e+03 6.189659881591796875e+01 3.580240488052368164e+00 -1.045739422790223361e-14 2.299918610594586799e-13 6.586034208234600729e-14 -9.998830241423131704e-14
7.619000000000000000e+03 6.108201217651367188e+01 -1.056738090515136719e+01 3.845494005150738859e-14 2.452354454490074387e-13 8.510711260083583807e-14 9.168752183267431244e-14
7.620000000000000000e+03 5.045915985107421875e+01 6.225851058959960938e+00 -2.735332136304374079e-14 -5.747380110894539929e-14 -2.544813589456379477e-14 -1.699331593409819652e-13
7.621000000000000000e+03 4.725368881225585938e+01 -6.152033329010009766e+00 6.182870919890434691e-14 -8.216048148898189019e-14 -6.099531687023262982e-15 3.782610617959758503e-14
7.622000000000000000e+03 5.613071441650390625e+01 -1.247257995605468750e+01 3.205730697715923616e-14 1.509916866017368964e-13 5.491470112298744988e-14 -4.909987415019530232e-14
7.623000000000000000e+03 5.775805282592773438e+01 -1.243753147125244141e+01 9.449951536349629477e-14 2.463790619005451488e-13 1.022635752120915065e-13 2.870361554777739466e-14
7.624000000000000000e+03 4.252793502807617188e+01 3.653824806213378906e+00 -8.966216441183560981e-14 1.903280999601339452e-13 3.019978066448950060e-14 -1.336464440634607675e-13
7.625000000000000000e+03 4.329641723632812500e+01 2.990253448486328125e+00 -2.949059047093957608e-14 1.932404431782830390e-13 4.912495648982939667e-14 3.202650885919706980e-14
7.626000000000000000e+03 4.595083236694335938e+01 3.396192789077758789e+00 -2.485467073039954178e-14 1.222347232248755314e-14 -3.789359437670301867e-15 -8.687266468796091268e-15
7.627000000000000000e+03 5.300531387329101562e+01 -7.193136215209960938e+00 5.953325668810877103e-14 3.457708837133199875e-13 1.215912407651759120e-13 -1.013247442221455741e-13
7.628000000000000000e+03 6.147970199584960938e+01 -7.315126419067382812e+00 9.387264999615591021e-14 2.879339765205456148e-14 3.679981395564996260e-14 -1.707585217973137115e-14
7.629000000000000000e+03 6.171805572509765625e+01 8.149986267089843750e+00 2.643368075155080182e-14 5.031513942467535916e-13 1.588755304616010222e-13 1.444328394406037275e-14
7.630000000000000000e+03 6.170927047729492188e+01 1.773072624206542969e+01 -1.134002034663310690e-14 -9.636190364528327001e-14 -3.231057660465185000e-14 -7.508166451845182943e-14
7.631000000000000000e+03 6.354997634887695312e+01 1.834676170349121094e+01 -9.540235761757928645e-14 1.649925449086556140e-13 2.087705652613607715e-14 -4.669588283753856039e-14
7.632000000000000000e+03 6.060527420043945312e+01 9.032029151916503906e+00 4.992218051165335513e-14 4.059891257814779442e-13 1.367733915491262109e-13 -8.872193073532902430e-14
7.633000000000000000e+03 5.504689025878906250e+01 1.127624607086181641e+01 7.348422814256599933e-14 3.721210893679188780e-14 3.320890247906008175e-14 2.147240040937734018e-14
7.634000000000000000e+03 5.972564315795898438e+01 1.662894248962402344e+01 -1.135717157796888033e-13 -7.154906956621451264e-14 -5.553623695902371038e-14 5.750083162435817852e-14
7.635000000000000000e+03 6.347050857543945312e+01 1.674940681457519531e+01 -7.381122182372173296e-15 2.713423561361005820e-13 7.918837162607453295e-14 -1.350457831499063399e-13
7.636000000000000000e+03 6.366893768310546875e+01 1.882727432250976562e+01 7.725072616098990763e-14 3.533640936283222178e-13 1.291844506801781423e-13 -7.803046403465074832e-14
7.637000000000000000e+03 6.288668441772460938e+01 1.913175010681152344e+01 8.057177971684814644e-14 4.005383535694156949e-13 1.443330318543628588e-13 -9.193329691264962023e-14
7.638000000000000000e+03 6.226171493530273438e+01 1.878013038635253906e+01 -1.420435627843066873e-14 1.678789316491690470e-14 7.750610871216944732e-16 -1.506405406231231536e-14
7.639000000000000000e+03 5.926379776000976562e+01 1.577995109558105469e+01 -2.693531737983732161e-14 7.995818904985713127e-14 1.590686200922571125e-14 1.094020775122168943e-13
7.640000000000000000e+03 6.217183303833007812e+01 8.715900421142578125e+00 -5.027127667053474247e-14 3.444627666871619143e-13 8.825744497210907813e-14 -2.166265891711052771e-13
7.641000000000000000e+03 6.145717620849609375e+01 1.554193019866943359e+01 -8.598795232708095204e-14 1.690272948733431702e-13 2.491180140862594983e-14 8.378255635923745337e-14
7.642000000000000000e+03 5.226842498779296875e+01 9.057868003845214844e+00 1.803755170400045404e-13 1.001792642981239045e-13 8.416643169093310228e-14 -1.039559131593877084e-13
7.643000000000000000e+03 5.551852798461914062e+01 1.094622421264648438e+01 -6.711445906405072437e-14 8.561403132658143567e-14 5.549870831726266135e-15 -7.673133911026072673e-14
7.644000000000000000e+03 6.252269744873046875e+01 1.445358180999755859e+01 -5.582176160114776797e-14 1.819556603912392267e-13 3.784017031465379544e-14 -1.176496661187522233e-14
7.645000000000000000e+03 6.306063842773437500e+01 1.468233203887939453e+01 1.093869935494921897e-13 1.383820358649701099e-13 7.433070543620690085e-14 -2.290181932984580726e-13
7.646000000000000000e+03 6.118458938598632812e+01 1.220053768157958984e+01 -1.374054272055766357e-13 -1.046389876331078883e-13 -7.261332241872628379e-14 4.070513389786527270e-14
7.647000000000000000e+03 6.199425506591796875e+01 9.722805976867675781e+00 -1.140691951702701989e-13 1.112415213655286450e-13 -8.483040260707738235e-16 -1.976486465812832272e-13
7.648000000000000000e+03 6.351790237426757812e+01 1.162065410614013672e+01 -5.048257750955680023e-14 2.411555825095491185e-14 -7.910105269360798164e-15 -6.397830263618273228e-14
7.649000000000000000e+03 6.109441757202148438e+01 -2.057508468627929688e+00 -7.722590809563535663e-15 2.254450559612333760e-13 6.531674344185250947e-14 -7.271031616151637372e-15
7.650000000000000000e+03 6.144330215454101562e+01 -1.324388146400451660e+00 -6.354666819878909689e-14 1.851666369334040857e-14 -1.350900067400824869e-14 1.228712261330897754e-14
7.651000000000000000e+03 6.041766738891601562e+01 1.678005027770996094e+01 2.024532198989840125e-15 6.949407954474906557e-14 2.145558341724255330e-14 9.164317796381965531e-14
7.652000000000000000e+03 6.186735153198242188e+01 1.129066658020019531e+01 -9.453118761946002757e-14 5.084980288401486082e-13 1.241900462675693539e-13 -1.302968421091482698e-13
7.653000000000000000e+03 5.631424713134765625e+01 1.164013290405273438e+01 7.821427696046850953e-14 2.622751462625499963e-13 1.021468269669055517e-13 -5.191720398858498675e-14
7.654000000000000000e+03 5.710677719116210938e+01 1.271500110626220703e+01 3.108642468400567467e-15 4.708322422805437391e-14 1.505756070773866390e-14 1.536476939331243158e-14
7.655000000000000000e+03 5.840787506103515625e+01 1.409811019897460938e+01 -4.636395095430033420e-14 1.402580579890760903e-13 2.816823143280636904e-14 2.305946571385698862e-14
7.656000000000000000e+03 6.202880859375000000e+01 2.603050470352172852e+00 -2.778064270866995727e-14 1.710978093146658940e-13 4.299514845713947597e-14 -1.179493108001070101e-13
7.657000000000000000e+03 5.465161132812500000e+01 1.085179138183593750e+01 2.637464763732486062e-14 1.485562703667370199e-13 5.247927472359220635e-14 -2.272999090379215770e-13
7.658000000000000000e+03 4.384710311889648438e+01 1.986851334571838379e+00 4.950756127210416413e-14 -4.740889484374649632e-14 6.295998543919174590e-16 2.943581793243832401e-14
7.659000000000000000e+03 4.522270584106445312e+01 4.732057154178619385e-01 -1.207179701253474624e-13 1.427052649227017467e-13 6.596189455645821986e-15 -9.747953990226279619e-14
7.660000000000000000e+03 4.889024353027343750e+01 -4.972109317779541016e+00 -1.901480969885129338e-15 1.364379258444320397e-13 4.036093358941901521e-14 -2.176772522270113003e-14
7.661000000000000000e+03 5.013064956665039062e+01 -6.035729885101318359e+00 -4.425329053940954549e-14 4.614192600053967919e-13 1.251497955831806785e-13 7.513520377698187924e-14
7.662000000000000000e+03 6.139533615112304688e+01 2.926966428756713867e+00 -1.240538111823988668e-14 8.618530422752762599e-14 2.213397718689620597e-14 -4.640083754508736447e-14
7.663000000000000000e+03 6.114138793945312500e+01 -9.248679161071777344e+00 1.811942556986887581e-14 1.335805787814822732e-13 4.550999944193286073e-14 1.337662721204429389e-14
7.664000000000000000e+03 5.913238143920898438e+01 -1.081005191802978516e+01 5.641170649638323209e-14 3.215576134356357141e-13 1.133907963184188628e-13 9.302570514032812432e-14
7.665000000000000000e+03 5.669893646240234375e+01 -1.141797733306884766e+01 7.795198812615353190e-14 2.850382148193719711e-13 1.088970629165367243e-13 -3.641091063637941216e-14
7.666000000000000000e+03 5.968450546264648438e+01 -3.054772138595581055e+00 -7.902235994467626812e-14 1.188422376865094429e-14 -2.014144059869771297e-14 -8.584360436034166320e-14
7.667000000000000000e+03 5.909302139282226562e+01 1.425272560119628906e+01 -3.309175443432302299e-14 2.831989742539675614e-13 7.503217068927786615e-14 5.693942496318160629e-14
7.668000000000000000e+03 6.034299087524414062e+01 -5.567303657531738281e+00 -9.971023674424078082e-15 4.147765166268371773e-14 9.451988989400954971e-15 -3.422476603336110923e-14
7.669000000000000000e+03 5.138741683959960938e+01 5.435616493225097656e+00 1.904846316487865399e-14 -1.290892170718524468e-13 -3.301222820497121124e-14 -9.623164353052271469e-14
7.670000000000000000e+03 4.964084625244140625e+01 6.550591468811035156e+00 1.971184581664106594e-14 -3.730301590082300833e-14 -5.277350686441403815e-15 -1.887696406523489689e-13
7.671000000000000000e+03 6.193034362792968750e+01 6.156679630279541016e+00 -3.839676244055817422e-14 2.165881406515635099e-13 5.345741481855431632e-14 -7.044283776083681836e-14
7.672000000000000000e+03 6.187064743041992188e+01 5.195244312286376953e+00 -4.943515011950928850e-14 2.647569392454779402e-13 6.459653504372470101e-14 2.550901892874653937e-14
7.673000000000000000e+03 4.674438858032226562e+01 4.554214954376220703e+00 3.055548029222768247e-14 -5.553121574771238689e-14 -7.492721314271769129e-15 -2.149578868311692592e-14
7.674000000000000000e+03 6.180672454833984375e+01 -6.015238761901855469e-01 -1.437957330214145648e-15 1.823875252215945153e-13 5.428487114033167527e-14 -9.215887872716238549e-14
7.675000000000000000e+03 6.285044097900390625e+01 -2.758969068527221680e-01 -3.020098006314281269e-14 2.615624188594123378e-13 6.940842757312271072e-14 -2.332805308516774923e-14
7.676000000000000000e+03 5.809151458740234375e+01 1.324958419799804688e+01 -6.374527370799770720e-14 9.849570838842483522e-14 1.042512904887542280e-14 5.259367499344837216e-14
7.677000000000000000e+03 5.755453872680664062e+01 1.302067279815673828e+01 -1.506278690102322293e-14 7.932754930370378155e-14 1.927942872080416759e-14 3.779806938904346769e-14
7.678000000000000000e+03 6.285923385620117188e+01 1.387314987182617188e+01 7.538165648331499047e-14 3.230642275507851491e-14 3.230642275507851491e-14 -2.788272542540715104e-13
7.679000000000000000e+03 4.610427474975585938e+01 -3.616708755493164062e+00 -2.725320545681007151e-14 1.255729054809931466e-13 2.949590983784833309e-14 -4.883002978199081634e-14
7.680000000000000000e+03 4.851470565795898438e+01 -5.784337997436523438e+00 -7.951218893367806295e-14 -3.407665385220422227e-14 -3.407665385220422227e-14 8.073550102115703564e-14
7.681000000000000000e+03 6.218021011352539062e+01 1.413283944129943848e-01 -8.792733929190513220e-14 -8.343409378100061224e-14 -5.140842856661900773e-14 3.306622020261156848e-15
7.682000000000000000e+03 4.508463668823242188e+01 2.208058834075927734e+00 -4.894336279033344173e-14 -6.672667382827054960e-14 -3.470101200202073410e-14 -1.949887327339430709e-13
7.683000000000000000e+03 6.143486404418945312e+01 6.621257781982421875e+00 -6.926090831502890177e-14 3.894317661856834534e-14 -9.095320355971114185e-15 3.642991127945222063e-14
7.684000000000000000e+03 4.772993850708007812e+01 -5.373772621154785156e+00 5.969679418626810605e-15 1.169358121617947166e-13 3.687164573770891629e-14 6.433180675452163100e-14
7.685000000000000000e+03 4.567708969116210938e+01 -2.569158315658569336e+00 -5.370451126992734081e-14 2.273473022253863496e-14 -9.290934991842969559e-15 -1.134612559071032645e-13
7.686000000000000000e+03 4.594659423828125000e+01 1.760851860046386719e+00 1.747900089910884441e-14 5.324194996556355641e-14 2.121628475118195190e-14 -1.181214634703728686e-14
7.687000000000000000e+03 4.927930450439453125e+01 4.160512924194335938e+00 -1.638357045787453697e-14 1.759822620744574961e-13 4.787960799319465610e-14 -8.128593013533719214e-14
7.688000000000000000e+03 6.221816635131835938e+01 4.627748966217041016e+00 3.798195007749700924e-14 2.221572535307525520e-13 7.804176006603533167e-14 -1.026570525092772301e-13
7.689000000000000000e+03 6.153989410400390625e+01 4.213900566101074219e+00 -2.049524117856815070e-14 1.284691754019351428e-13 3.239217975879032929e-14 -1.156534313847060180e-13
7.690000000000000000e+03 5.520590972900390625e+01 -8.651787757873535156e+00 1.014362273105313961e-13 4.094802567768812684e-13 1.532749486143555884e-13 -7.016234110628766230e-14
7.691000000000000000e+03 5.193991088867187500e+01 8.014564514160156250e+00 7.580826293313372433e-14 -1.326169246439841062e-14 1.876397190295024664e-14 -2.381049594686948656e-14
7.692000000000000000e+03 5.274215698242187500e+01 9.669210433959960938e+00 2.320717402970462473e-13 1.738046013534388923e-13 1.217628970741346794e-13 -1.833753824785275266e-13
7.693000000000000000e+03 4.928688430786132812e+01 5.881603240966796875e+00 -9.335274117313122066e-14 -1.772611598520670850e-13 -8.118417098518584951e-14 -2.059661306525600866e-13
7.694000000000000000e+03 5.283652114868164062e+01 -6.299505233764648438e+00 1.458205504587493928e-14 9.775134938690491215e-14 3.370002234627349214e-14 -5.006604736367860353e-14
7.695000000000000000e+03 6.072503280639648438e+01 -6.805583953857421875e+00 2.023873588521702543e-14 -3.707720369334858990e-14 -5.051540596549353515e-15 1.419323219473437800e-14
7.696000000000000000e+03 5.184642028808593750e+01 -5.713941574096679688e+00 -1.044806754812001651e-14 3.157788971714509119e-13 9.159924744704325827e-14 7.321262194583122440e-14
7.697000000000000000e+03 5.985866165161132812e+01 -1.037399482727050781e+01 5.308256885807639824e-14 1.600025179623182359e-13 6.392552909543700035e-14 8.918594893636208609e-14
7.698000000000000000e+03 6.001070022583007812e+01 -9.134909629821777344e+00 1.085512108938433209e-14 1.419050424042445080e-13 4.582805014923148346e-14 1.043007504366103011e-13
7.699000000000000000e+03 5.836172485351562500e+01 -1.113370704650878906e+01 8.063844290386295438e-15 1.407087743847054706e-13 4.463178890595602410e-14 5.104508192543301404e-14
7.700000000000000000e+03 6.065622329711914062e+01 8.018862724304199219e+00 7.903758620893611142e-14 2.740657364681126085e-13 1.059309974807409738e-13 -1.466431041538280439e-14
7.701000000000000000e+03 6.022609329223632812e+01 1.748163986206054688e+01 1.069354320194846990e-15 -2.241717926467889227e-14 -6.404347504521037265e-15 5.323981205440468656e-14
7.702000000000000000e+03 6.148019409179687500e+01 5.693446636199951172e+00 -1.798011236696806653e-14 6.592466915249228787e-14 1.438336822150339256e-14 3.345557202582769007e-14
7.703000000000000000e+03 6.239240264892578125e+01 5.643505573272705078e+00 1.189404477686117900e-13 5.669334495134528695e-14 5.269013849361348090e-14 -6.145993138246055865e-14
7.704000000000000000e+03 6.320986557006835938e+01 1.794536781311035156e+01 -3.656081852738447824e-14 1.673348688346204538e-13 3.923221475335761377e-14 -1.566715236277910206e-13
7.705000000000000000e+03 6.269832611083984375e+01 1.825179100036621094e+01 1.228916586853599172e-15 2.292814104808832409e-13 6.915310473776595246e-14 -9.510690574931340846e-14
7.706000000000000000e+03 6.239690780639648438e+01 1.702796745300292969e+01 -2.513985486527880314e-14 8.072767443672440590e-14 1.667634570202709138e-14 -5.487285091912950941e-14
7.707000000000000000e+03 6.156687164306640625e+01 1.847304534912109375e+01 4.970046116738006947e-14 2.500549409461400030e-13 8.992662165049555845e-14 2.676564990423870721e-14
7.708000000000000000e+03 6.169115066528320312e+01 1.487788295745849609e+01 -2.853389386207015599e-14 2.622768809860259731e-13 7.012289647599992404e-14 4.210865055080670327e-14
7.709000000000000000e+03 4.582453918457031250e+01 -4.188217639923095703e+00 -2.535660382021760056e-14 -5.661806405112511376e-14 -2.459240053080940375e-14 -2.154219456897837892e-13
7.710000000000000000e+03 6.204910659790039062e+01 1.568759441375732422e+01 8.632157488808189783e-14 1.284968632149149914e-13 6.444553278615178238e-14 -1.916492172479664774e-14
7.711000000000000000e+03 6.246796798706054688e+01 1.642093086242675781e+01 -3.553968981628331802e-15 4.422781856461971417e-14 1.220215504430400416e-14 -6.775614411983627017e-14
7.712000000000000000e+03 6.159035110473632812e+01 9.150631904602050781e+00 -5.008821929810593210e-14 3.445412087143412405e-13 8.833590055181556044e-14 -4.657011877366203090e-14
7.713000000000000000e+03 5.423959350585937500e+01 1.037675476074218750e+01 1.267068996382500479e-13 -7.151215248224138121e-14 1.655842177511034768e-14 4.473477879497972723e-15
7.714000000000000000e+03 5.483590698242187500e+01 1.001584339141845703e+01 3.013003597161258151e-14 2.645430803669551745e-13 8.840194201664708373e-14 -2.574810482013079049e-13
7.715000000000000000e+03 6.283376312255859375e+01 1.233350563049316406e+01 -1.517869488952550139e-13 2.094541445667175150e-13 1.730015666855967693e-14 -1.724940448723927267e-13
7.716000000000000000e+03 6.168902969360351562e+01 1.065879154205322266e+01 -1.211654068094050740e-13 2.683285993572426253e-13 4.414895979723033881e-14 -6.514537173596401942e-14
7.717000000000000000e+03 6.045768737792968750e+01 1.453948593139648438e+01 -2.545487319462625547e-15 4.106676207860787686e-13 1.224366338566443280e-13 6.764293308423804940e-14
7.718000000000000000e+03 6.003363418579101562e+01 -2.308648347854614258e+00 3.081947335683253575e-14 2.419630793469573771e-13 8.183476682757651055e-14 1.284929838040165667e-14
7.719000000000000000e+03 6.038528060913085938e+01 -1.556259512901306152e+00 -1.998611429086862034e-16 9.141624089659128316e-14 2.736491385595986314e-14 -8.473639677300873196e-14
7.720000000000000000e+03 4.627688217163085938e+01 2.400285959243774414e+00 -1.274831341836410448e-14 1.741191080748862030e-14 1.399079576726357330e-15 -6.132481946297813069e-14
7.721000000000000000e+03 4.400226593017578125e+01 3.509759306907653809e-01 3.161084395747449337e-15 4.710569770621092500e-14 1.508003587996110950e-14 -6.264596724399676408e-14
7.722000000000000000e+03 4.478116226196289062e+01 -1.686107367277145386e-01 -7.799452273263285385e-15 2.254121233202441288e-13 6.528380402459968423e-14 -1.854074077427270151e-13
7.723000000000000000e+03 4.638714599609375000e+01 3.969972372055053711e+00 -4.885020610679441377e-14 -5.524901486287335517e-14 -3.122976595208715178e-14 -5.006759235177439538e-14
7.724000000000000000e+03 6.222399902343750000e+01 1.260120296478271484e+01 -3.383515459454665419e-14 2.142539617944194674e-13 5.412564249877502287e-14 -1.771995974974606425e-14
7.725000000000000000e+03 5.626502990722656250e+01 -9.474499702453613281e+00 5.030407717438421800e-14 3.189400512356582729e-13 1.107732408947049996e-13 -8.982664465766523887e-14
7.726000000000000000e+03 4.744208526611328125e+01 4.244874477386474609e+00 -7.484252340051941732e-14 -2.150791616204253409e-13 -8.697650753916250088e-14 -2.234113942293797922e-14
7.727000000000000000e+03 5.729227447509765625e+01 -1.031344795227050781e+01 1.513240758827666399e-13 2.936079114210232710e-13 1.334795989016424045e-13 4.177928348333276309e-14
7.728000000000000000e+03 6.191738891601562500e+01 1.928444623947143555e+00 -5.170067526221247545e-14 1.150954196315820410e-13 1.901842229437133297e-14 -5.361304187601924343e-14
7.729000000000000000e+03 6.259991455078125000e+01 2.534580230712890625e+00 -5.597509150525974142e-14 2.047654174041138586e-13 4.463709810846941406e-14 1.154129282377944210e-13
7.730000000000000000e+03 5.592970275878906250e+01 1.229243755340576172e+01 1.773818451063918777e-14 5.108625111480136205e-13 1.585802073423431269e-13 -1.452266990475611919e-13
7.731000000000000000e+03 5.173106765747070312e+01 8.565372467041015625e+00 -1.216628743415252081e-14 -8.670799809488288767e-14 -2.966228743747981178e-14 -6.723236605030852298e-14
7.732000000000000000e+03 5.408930206298828125e+01 8.962351799011230469e+00 8.139115873244048838e-14 2.178857273641213177e-13 8.978306650659489963e-14 -3.584616869826973140e-13
7.733000000000000000e+03 4.649674224853515625e+01 5.995415210723876953e+00 -5.974037996063497058e-14 1.574007715615319269e-13 2.929811748026908691e-14 -4.848149944111819487e-14
7.734000000000000000e+03 6.272991180419921875e+01 1.291294860839843750e+01 2.168317608797210028e-14 2.380475374111346021e-13 7.791921133922657949e-14 -1.143123817175586976e-13
7.735000000000000000e+03 6.088591003417968750e+01 7.035957813262939453e+00 1.020326943594607183e-13 2.267320988076637622e-13 9.862943795013734416e-14 -1.421424420224373653e-13
7.736000000000000000e+03 6.185549545288085938e+01 7.143827438354492188e+00 -1.014591039763708402e-13 4.597779405465796110e-13 1.074956570696998515e-13 -2.439512062816324642e-15
7.737000000000000000e+03 4.514753341674804688e+01 -1.392373204231262207e+00 3.951628588694418298e-14 1.999393489313106009e-13 7.183668807378418286e-14 -1.803276630666164615e-13
7.738000000000000000e+03 6.253886032104492188e+01 9.367912411689758301e-01 -3.468949235393807562e-14 2.596387731548799316e-13 6.748478186859030448e-14 -2.918884684194149315e-14
7.739000000000000000e+03 6.114761734008789062e+01 -1.509086489677429199e-01 -8.911723762368081725e-14 -3.879889472039894233e-15 -2.789913753579315037e-14 -2.083418818867553701e-14
7.740000000000000000e+03 5.409793853759765625e+01 -7.900308132171630859e+00 1.155678285409906039e-14 2.337076387450010007e-13 7.357933300188371217e-14 -1.032999572925068221e-13
7.741000000000000000e+03 5.175258255004882812e+01 7.368335247039794922e+00 2.502855981820727160e-14 5.647747352253984499e-14 2.445181000222413498e-14 5.619046149056040884e-14
7.742000000000000000e+03 4.968197631835937500e+01 -5.379305839538574219e+00 -8.518408417881873085e-14 2.379982333173408238e-13 4.584424203105119666e-14 9.056749355465174012e-14
7.743000000000000000e+03 4.646216583251953125e+01 -3.053712606430053711e+00 -8.435037336575884614e-14 -3.615016001389664835e-14 -3.615016001389664835e-14 -8.845838151598853227e-14
7.744000000000000000e+03 6.236468505859375000e+01 1.354298782348632812e+01 -1.878081430607345115e-14 1.978303453128646416e-13 5.371486201254278836e-14 -3.873324458478905052e-14
7.745000000000000000e+03 6.173971939086914062e+01 1.322798538208007812e+01 -5.051298599236322961e-14 1.041666888379824685e-13 1.609611119249895056e-14 -1.428633958095587575e-13
7.746000000000000000e+03 4.891554641723632812e+01 5.204184532165527344e+00 -3.159669384857413665e-14 -8.216786084001836965e-14 -3.412936640657775189e-14 -9.689310680562664840e-15
7.747000000000000000e+03 4.561107254028320312e+01 1.117946386337280273e+00 -8.143594305842771774e-14 3.372530458568313849e-14 -1.431318984775747927e-14 1.691613225906531126e-14
7.748000000000000000e+03 4.665248870849609375e+01 3.027523994445800781e+00 7.074304656613447650e-14 -2.687023645036798469e-14 1.316184337354312645e-14 7.372467199717128855e-15
7.749000000000000000e+03 6.080739974975585938e+01 1.830493545532226562e+01 2.284758211616721990e-14 -1.732119764459583156e-13 -4.510931897656368650e-14 -2.801640416514282472e-14
7.750000000000000000e+03 5.984710311889648438e+01 -6.342845916748046875e+00 5.692036333373659551e-14 2.417114360227234915e-13 8.958954319506981512e-14 -3.897873844982586988e-14
7.751000000000000000e+03 6.054796600341796875e+01 -8.608654022216796875e+00 9.417361096671073017e-14 4.893841950605326563e-14 4.293360981945555654e-14 -1.750065106124066433e-14
7.752000000000000000e+03 5.994058609008789062e+01 -7.975385665893554688e+00 4.195785496927291469e-14 9.518666237162687338e-14 4.114335486345675752e-14 5.453061572712088190e-14
7.753000000000000000e+03 4.733175277709960938e+01 -4.281616210937500000e+00 -6.693036831142626375e-14 2.458212398828013567e-13 5.366726553717067472e-14 2.473748372214690933e-14
7.754000000000000000e+03 4.926555252075195312e+01 -4.229071617126464844e+00 -2.676887540570185159e-14 1.715314224210243155e-13 4.342876495162968642e-14 -1.495687559536443972e-14
7.755000000000000000e+03 5.869781112670898438e+01 1.342228317260742188e+01 -9.511019901341233318e-14 2.108687031411593527e-13 3.472755123832410584e-14 3.326951276863381046e-14
7.756000000000000000e+03 5.716130065917968750e+01 1.180470085144042969e+01 5.999186065454298333e-14 2.544655295939196593e-13 9.433722385080237083e-14 5.380033526021727255e-15
7.757000000000000000e+03 6.080051422119140625e+01 4.086539745330810547e+00 4.511670171573195498e-14 2.480904750298135175e-13 8.796214895790549493e-14 -1.013994864094112935e-13
7.758000000000000000e+03 5.647087097167968750e+01 -1.045220088958740234e+01 6.493597672107328383e-15 4.853392061615786901e-14 1.650825540177626449e-14 -1.081664529538166331e-13
7.759000000000000000e+03 6.052994537353515625e+01 -9.848361968994140625e+00 1.101474868345914127e-13 1.387079605905464086e-13 7.465663693804677759e-14 -8.705419231888698178e-15
7.760000000000000000e+03 5.093296051025390625e+01 4.530692577362060547e+00 2.283745160211805847e-14 -8.171442038643061956e-14 -1.766308995766741052e-14 -1.176635693175484554e-13
7.761000000000000000e+03 5.068671798706054688e+01 5.100668907165527344e+00 -2.230824574546430572e-13 -1.527954602035738740e-13 -1.127633752974650794e-13 -9.538578287686741430e-14
7.762000000000000000e+03 5.931639480590820312e+01 -3.771419763565063477e+00 2.128857562509831741e-14 2.493161655858083803e-13 8.118141982217316754e-14 -3.832332383699827913e-15
7.763000000000000000e+03 5.895330429077148438e+01 -2.548048496246337891e+00 1.545974042142447824e-14 2.353803458567116369e-13 7.525202656106719235e-14 -8.652169828033198784e-14
7.764000000000000000e+03 5.393603134155273438e+01 -6.952974796295166016e+00 7.446911231385414803e-15 2.606700696494799324e-14 1.005417520479013824e-14 -9.524554132585641431e-14
7.765000000000000000e+03 5.923823165893554688e+01 1.133182621002197266e+01 -6.049392757556670830e-14 1.113268819578211444e-13 1.524988631467633082e-14 4.772206664126893427e-14
7.766000000000000000e+03 5.257929229736328125e+01 -5.470099449157714844e+00 2.806453765940349759e-14 4.237861960226102509e-13 1.355552226457029663e-13 -2.625910827756122723e-13
7.767000000000000000e+03 4.437960433959960938e+01 9.530636072158813477e-01 3.902933680996305277e-14 8.535328070409867185e-14 3.731478627065805409e-14 1.902288785206925764e-14
7.768000000000000000e+03 4.704307174682617188e+01 -4.962815761566162109e+00 -3.203040521075443958e-14 6.633684216088980845e-14 1.029193142385378956e-14 -1.849634506700167241e-14
7.769000000000000000e+03 6.242642974853515625e+01 1.767536163330078125e+01 9.074418462744898717e-14 1.761432118869629693e-13 8.006621624381815572e-14 8.669715607315803263e-14
7.770000000000000000e+03 6.127294540405273438e+01 7.592553615570068359e+00 4.282079519527665079e-14 2.814197171737559122e-13 9.727215913172063133e-14 -1.347131024895427409e-14
7.771000000000000000e+03 5.150253677368164062e+01 6.724001407623291016e+00 -4.129518975441682713e-15 -4.752074385036553217e-14 -1.549507863598392765e-14 -9.218371373317588158e-14
7.772000000000000000e+03 5.249342727661132812e+01 7.228172779083251953e+00 -1.548528015885008990e-14 -1.667648630949633559e-13 -5.467504500902310716e-14 -6.914949298927886012e-14
7.773000000000000000e+03 6.061887359619140625e+01 1.608255958557128906e+01 -7.206330665662438739e-14 -8.008799854308974731e-15 -2.402163246149977699e-14 9.485697004350118755e-14
7.774000000000000000e+03 4.699477767944335938e+01 -6.176598072052001953e-01 3.365676606772310953e-14 1.288017002082364471e-13 4.873754056041422478e-14 3.566285518307767133e-14
7.775000000000000000e+03 6.316038894653320312e+01 1.865238571166992188e+01 9.986188952311719075e-15 1.529703826715772541e-13 4.888697072483703943e-14 -1.358065407092851062e-13
7.776000000000000000e+03 6.126158905029296875e+01 1.621732330322265625e+01 5.833488125059696494e-14 1.165025649736695090e-13 5.245123454490629999e-14 -1.259804723242234983e-14
7.777000000000000000e+03 6.187932968139648438e+01 1.632948684692382812e+01 -3.089594349131065398e-14 1.468871953323042101e-13 3.479737724636396135e-14 1.015147642054008148e-13
7.778000000000000000e+03 5.475089263916015625e+01 8.720795631408691406e+00 -1.594093780588057285e-13 2.061873892109100659e-13 1.403340385385106956e-14 -4.707557721460656208e-14
7.779000000000000000e+03 5.340341567993164062e+01 9.277933120727539062e+00 7.591494842690629796e-14 3.253497596117024826e-14 3.253497596117024826e-14 -5.048771391734895031e-14
7.780000000000000000e+03 6.005130004882812500e+01 1.368212127685546875e+01 -9.126095604043704679e-14 2.125183845092318280e-13 3.637722583013300315e-14 6.624425129535954637e-14
7.781000000000000000e+03 6.135978317260742188e+01 4.849956512451171875e+00 1.261034953894827129e-14 1.426572754240421070e-13 4.658028994529266054e-14 -1.273917494930276728e-13
7.782000000000000000e+03 6.141223907470703125e+01 1.008600330352783203e+01 1.405895883786973180e-14 2.576554963308608226e-13 8.151433087549841972e-14 -1.228898862689177876e-14
7.783000000000000000e+03 6.003124237060546875e+01 8.486464500427246094e+00 -6.737861137084966145e-14 1.019425700538728607e-13 1.036918845193990704e-14 -9.669445555663888636e-14
7.784000000000000000e+03 6.197956848144531250e+01 1.199448013305664062e+01 -6.355666996383027567e-14 1.851237601256140730e-14 -1.351328835478724996e-14 -2.725660680231306587e-13
7.785000000000000000e+03 4.610953521728515625e+01 -4.922893270850181580e-02 -2.591899134554709327e-14 3.663371960383604575e-13 1.021254614078440093e-13 -8.561367896087537788e-14
7.786000000000000000e+03 5.823575973510742188e+01 -2.054985284805297852e+00 -1.168610157644203729e-13 1.329205029463459420e-13 4.817845900467786560e-15 -1.104451071072022617e-13
7.787000000000000000e+03 6.042726516723632812e+01 1.220026493072509766e+01 -1.521505631988523399e-13 2.550492640435858549e-13 3.086960754291462328e-14 7.788777964061986692e-15
7.788000000000000000e+03 4.732700729370117188e+01 2.725307703018188477e+00 -9.008410201604907797e-14 -1.186716333924711653e-13 -6.262672265543514638e-14 -9.134717044194037849e-14
7.789000000000000000e+03 5.862432479858398438e+01 1.124658775329589844e+01 -1.605821053386746744e-13 1.370583605376368697e-13 -7.057123609717930873e-15 -6.880433045140452175e-14
7.790000000000000000e+03 5.798886871337890625e+01 1.120693397521972656e+01 -5.150685040695816841e-14 1.151784830705215867e-13 1.910148912144266770e-14 -2.591887106686858316e-14
7.791000000000000000e+03 4.765140533447265625e+01 -3.135661363601684570e+00 -4.103129240453501358e-14 2.569208409387846448e-13 6.476686998128575179e-14 -7.184873330581061264e-16
7.792000000000000000e+03 6.113502883911132812e+01 8.592726707458496094e+00 -8.860160462297386741e-14 3.280354774707477938e-13 7.183016253195853573e-14 -9.806915699574767289e-16
7.793000000000000000e+03 5.931432723999023438e+01 -1.801677346229553223e+00 -6.282789636853983173e-14 2.475794634408667871e-13 5.542546876644537102e-14 -7.485964024231753222e-14
7.794000000000000000e+03 5.967623519897460938e+01 -1.027959704399108887e+00 -2.087739364524908436e-14 1.740563395453628703e-13 4.595368546410003030e-14 -1.282898737735944580e-14
7.795000000000000000e+03 5.753802871704101562e+01 1.214331912994384766e+01 8.244993636398120773e-14 3.098413723940512954e-13 1.176873946602888243e-13 -1.063980717766477291e-13
7.796000000000000000e+03 4.705318069458007812e+01 3.637934446334838867e+00 -2.001101107734770679e-14 -1.343912502983768409e-13 -4.632068112322279552e-14 3.875810161365917522e-15
7.797000000000000000e+03 6.095973205566406250e+01 1.761590003967285156e+01 2.180839805076238702e-14 1.923502454320366595e-13 6.424759812703739748e-14 6.153996583158072298e-14
7.798000000000000000e+03 6.178411865234375000e+01 1.205104112625122070e+00 -1.221003143427393245e-13 1.764260395761829692e-13 1.629772028053852462e-14 -8.033951650644743925e-14
7.799000000000000000e+03 6.074081420898437500e+01 1.380962181091308594e+01 -4.150390629591681202e-14 7.371451268400192047e-14 9.663181408205764183e-15 -1.999863423192242695e-14
7.800000000000000000e+03 6.197887420654296875e+01 1.421074104309082031e+01 -1.927787221306029308e-13 1.003843411390495377e-13 -2.771831463627919684e-14 -1.440048574092786526e-13
7.801000000000000000e+03 5.126244735717773438e+01 6.061355113983154297e+00 -5.579187912580158351e-15 1.806127133702900567e-13 5.251005928902721664e-14 -9.022246654204896243e-14
7.802000000000000000e+03 4.685588073730468750e+01 1.381769657135009766e+00 5.097210156669758352e-14 3.421018351414117920e-13 1.179221786407405603e-13 1.528850254674165438e-14
7.803000000000000000e+03 6.085223388671875000e+01 4.791158676147460938e+00 -1.576553828892129916e-13 6.968625437982212123e-14 -2.639073787519090331e-14 2.290393183001625949e-14
7.804000000000000000e+03 6.107243347167968750e+01 5.279522418975830078e+00 -5.273464838092579987e-14 -1.141024666244383479e-13 -5.005113280754334981e-14 -4.055818384591201864e-14
7.805000000000000000e+03 5.784187316894531250e+01 -2.761647701263427734e+00 4.984810917448186107e-14 2.958691776820676633e-13 1.037151863957780362e-13 -9.520022845131009825e-14
7.806000000000000000e+03 6.103722763061523438e+01 1.301245021820068359e+01 -6.645640255546064745e-14 8.589605941669922751e-14 5.831897651294637094e-15 1.033896631638187361e-14
7.807000000000000000e+03 5.959943389892578125e+01 -5.019759178161621094e+00 1.028420783862754595e-13 1.813280293061145243e-13 8.525103366296971075e-14 5.803594468878608276e-16
7.808000000000000000e+03 4.964283370971679688e+01 4.860800266265869141e+00 -4.146183925162437445e-14 2.798158941694477847e-14 -4.044074526887405166e-15 -1.527492189809173673e-13
7.809000000000000000e+03 5.007348251342773438e+01 5.532525062561035156e+00 -3.509310016517296071e-14 -4.935310989637002599e-14 -2.533386267964971711e-14 -1.789839842092008637e-13
7.810000000000000000e+03 6.151554107666015625e+01 5.117043256759643555e-01 -9.758690979865675130e-14 2.326827424313504533e-13 4.052874775692903719e-14 -7.740568575649239835e-14
7.811000000000000000e+03 5.299548721313476562e+01 8.645255088806152344e+00 8.713954444085000861e-14 1.174096762738066624e-13 6.136476553677064349e-14 -8.306610201113187597e-14
7.812000000000000000e+03 5.378377532958984375e+01 8.364006042480468750e+00 9.938123051280237097e-14 1.340938536424640670e-13 7.004252321370085799e-14 -5.444275130543629881e-14
7.813000000000000000e+03 4.628923416137695312e+01 6.515839576721191406e+00 3.458119410943392980e-14 1.620813807603690981e-13 5.899877212212772948e-14 -2.927040086816903169e-15
7.814000000000000000e+03 6.049429702758789062e+01 1.150303649902343750e+01 -2.962268017686620070e-14 2.618102674760425241e-13 6.965627618975289703e-14 1.289389330982187998e-13
7.815000000000000000e+03 4.563022994995117188e+01 -7.237105369567871094e-01 -5.793818522821167494e-14 1.124221972025746252e-13 1.634520494756160069e-14 -1.307832152037252671e-13
7.816000000000000000e+03 5.903909301757812500e+01 -8.866356849670410156e+00 6.839000936745276427e-14 1.093741660825389705e-13 5.332925195737116264e-14 4.917639171851846680e-14
7.817000000000000000e+03 5.903554916381835938e+01 -5.744754314422607422e+00 4.374541636049944504e-14 1.874803413101470972e-14 1.874803413101470972e-14 7.129967596148853448e-14
7.818000000000000000e+03 4.605433654785156250e+01 -1.926801085472106934e+00 -4.012943101460494238e-15 1.012198002281125553e-13 2.916205688388573414e-14 -2.973515259973441571e-14
7.819000000000000000e+03 4.713408279418945312e+01 -3.615494966506958008e+00 -3.838875289700893756e-14 1.665514785548910526e-13 3.844881430923284549e-14 4.590343608153711619e-14
7.820000000000000000e+03 6.038026809692382812e+01 -7.476976871490478516e+00 6.082889183675610489e-14 7.182047247504194654e-14 3.979481064879213104e-14 -5.084763176916445859e-14
7.821000000000000000e+03 5.935760879516601562e+01 1.356140899658203125e+01 -7.925494163946514292e-14 3.549166711393214602e-13 8.269851681707782176e-14 3.929861536015877288e-14
7.822000000000000000e+03 5.196277618408203125e+01 -4.983198165893554688e+00 1.368966517836106567e-13 3.331756799705015704e-13 1.410217022367390993e-13 -2.400546768473437592e-14
7.823000000000000000e+03 5.594496917724609375e+01 -6.528673171997070312e+00 -2.998242523396046910e-14 1.015277610789434848e-13 2.146360143112126251e-14 -1.057206216016973177e-13
7.824000000000000000e+03 5.491802978515625000e+01 -6.715618133544921875e+00 2.699407605538835242e-14 3.089500497880509622e-13 1.007832394470976889e-13 -1.485531261804368119e-13
7.825000000000000000e+03 5.604581451416015625e+01 -7.515579700469970703e+00 5.327051615170970769e-15 2.310377637902011339e-13 7.090944449455668930e-14 -1.334597580018859198e-13
7.826000000000000000e+03 4.807231521606445312e+01 -4.541067123413085938e+00 -5.746836654555581569e-14 2.112165084218291244e-14 -1.090401437219869207e-14 5.292562042921375443e-14
7.827000000000000000e+03 4.843969345092773438e+01 -3.749915361404418945e+00 -7.345727894231615651e-14 2.087107884522071410e-13 4.057605285296729536e-14 5.099912530584678472e-14
7.828000000000000000e+03 5.606165695190429688e+01 1.070133304595947266e+01 -2.097695050973756581e-14 -7.761654275025009486e-14 -2.957804831680947710e-14 -1.570569168425281492e-14
7.829000000000000000e+03 5.351940917968750000e+01 7.724866867065429688e+00 -5.674437021608788601e-14 -1.615718599494095353e-13 -6.549487108252829981e-14 -4.410080089198124831e-14
7.830000000000000000e+03 5.373399353027343750e+01 -6.024531364440917969e+00 4.318649319992422242e-14 4.302670416136966658e-13 1.420360546842622251e-13 -1.193936849342921991e-13
7.831000000000000000e+03 5.863300704956054688e+01 -7.294966220855712891e+00 7.552826772208934281e-14 1.467466285206414645e-13 6.668247226095103120e-14 3.785043974210630657e-14
7.832000000000000000e+03 5.886065673828125000e+01 -8.171780586242675781e+00 -2.437399986162346044e-14 1.268068495260260553e-13 3.072985388288124176e-14 -5.782871469010852916e-14
7.833000000000000000e+03 5.875614166259765625e+01 -9.917796134948730469e+00 8.701574888154289811e-14 1.287943547385178578e-13 6.474303108601822676e-14 4.807130848981724935e-14
7.834000000000000000e+03 5.995468139648437500e+01 1.593275642395019531e+01 -1.567057645111673021e-15 -2.354707039433929366e-14 -7.534238634181438660e-15 5.467045409044898885e-14
7.835000000000000000e+03 6.019226074218750000e+01 9.499763488769531250e+00 -8.129879148360830143e-14 1.024105049352540264e-13 6.333514374306896400e-15 -1.184254246316268633e-13
7.836000000000000000e+03 6.103867340087890625e+01 6.120944023132324219e+00 3.528628127538735448e-14 1.924076132794882987e-13 6.830817243222084278e-14 -1.402524201377791657e-13
7.837000000000000000e+03 4.657793426513671875e+01 6.478358507156372070e-01 -4.599693496638683488e-14 1.861662950533582439e-13 4.205080836490460161e-14 -1.328250999314307956e-14
7.838000000000000000e+03 4.904748153686523438e+01 1.937317661941051483e-02 -3.026500220142808173e-14 3.278023265698183641e-14 7.545699307595144564e-16 -1.127000443380647698e-13
7.839000000000000000e+03 5.672801589965820312e+01 1.162219905853271484e+01 1.572286591253310630e-15 3.666814302281246052e-13 1.104761152893353471e-13 -2.141836241784794703e-13
7.840000000000000000e+03 6.086921691894531250e+01 1.040693283081054688e+01 -1.526107799160181244e-13 4.836067527339005245e-13 9.929879726637558246e-14 4.894352880879110357e-14
7.841000000000000000e+03 5.805335235595703125e+01 8.961413383483886719e+00 2.498668250929501899e-14 2.165878424959660764e-13 7.247235580751243411e-14 -7.964305213589706334e-14
7.842000000000000000e+03 6.105396652221679688e+01 9.551848411560058594e+00 -1.784258098257510139e-13 1.522865492563363343e-13 -7.841778509637582772e-15 1.699002931920790774e-15
7.843000000000000000e+03 6.058388900756835938e+01 3.199447870254516602e+00 -6.646647208313760657e-14 1.087672161538544291e-13 1.269022305180845731e-14 -1.023420443443251449e-13
7.844000000000000000e+03 5.506946182250976562e+01 9.189142227172851562e+00 -2.847921280312720738e-14 -1.094261400241824944e-13 -4.137160652581926834e-14 -1.813339111029002582e-13
7.845000000000000000e+03 4.854330444335937500e+01 4.529814720153808594e+00 2.946959083011124747e-14 1.956336161861374490e-13 6.753096210487460893e-14 -1.136541896836970600e-13
7.846000000000000000e+03 4.702809524536132812e+01 2.089103460311889648e+00 -3.971575875789078169e-14 1.431072870882593717e-13 3.101745544979196689e-14 3.088749010249705607e-14
7.847000000000000000e+03 6.019661331176757812e+01 1.523983860015869141e+01 -8.065833293153037986e-14 1.118309309359414444e-14 -2.084257042672156557e-14 5.306736969887086708e-14
7.848000000000000000e+03 5.960581970214843750e+01 -7.200259208679199219e+00 8.425371504801586892e-15 1.179882472106263958e-13 3.792408417467238446e-14 1.855759401941763087e-14
7.849000000000000000e+03 6.176433181762695312e+01 1.700459098815917969e+01 4.161811683039279286e-14 1.783633530043522708e-14 1.783633530043522708e-14 -6.248060608390199056e-14
7.850000000000000000e+03 6.110023117065429688e+01 1.691244125366210938e+01 -1.960709155798823211e-14 -9.990493404343075978e-14 -3.585360700279933976e-14 2.896532501155645034e-14
7.851000000000000000e+03 6.116132354736328125e+01 1.147909259796142578e+01 -9.246714789798611556e-15 5.450484898486540608e-13 1.607405343811291187e-13 -5.863950140348392348e-14
7.852000000000000000e+03 5.894660186767578125e+01 1.273624610900878906e+01 -3.805582151489295128e-14 3.496979452972254210e-13 9.349263713469974091e-14 -1.654420348005773700e-14
7.853000000000000000e+03 5.870517730712890625e+01 6.279301643371582031e+00 -3.218330821026099686e-14 1.234599987347262395e-13 2.738300817377910951e-14 5.980379223519821652e-14
7.854000000000000000e+03 5.545931625366210938e+01 9.683851242065429688e+00 -3.294419451864774584e-14 3.163200834621106294e-14 -3.936555711513410908e-16 7.076001433013387465e-14
7.855000000000000000e+03 5.837617111206054688e+01 1.259700775146484375e+01 -2.305134944415639792e-14 3.790039029144542937e-13 1.067857689210013894e-13 -6.808045101248331316e-15
7.856000000000000000e+03 5.932955932617187500e+01 1.061903190612792969e+01 -1.202799795527176308e-13 2.915835433346669614e-13 5.139107116746387260e-14 -9.890094334995139583e-16
7.857000000000000000e+03 6.109979629516601562e+01 1.087894535064697266e+01 -9.492068724992544504e-14 3.710782495083136956e-13 8.284726935514283297e-14 -6.279160270081587947e-15
7.858000000000000000e+03 5.978575134277343750e+01 1.439409160614013672e+01 -4.117909965383088899e-14 2.568574964268571792e-13 6.470352546935828619e-14 1.611090885808748319e-14
7.859000000000000000e+03 5.223857498168945312e+01 6.552308559417724609e+00 1.148650944325646517e-13 3.694845536299229405e-13 1.453048971292517089e-13 -3.338300417213757240e-15
7.860000000000000000e+03 5.781116867065429688e+01 -9.259768486022949219e+00 3.158010216720331942e-14 1.507871789669518181e-13 5.471018332380700455e-14 3.597310302286618744e-14
7.861000000000000000e+03 5.846023559570312500e+01 -9.095799446105957031e+00 2.293316801922368892e-14 1.928322952704508708e-13 6.472964118918803078e-14 -5.660803856916141186e-14
7.862000000000000000e+03 5.439878463745117188e+01 -4.800534248352050781e+00 2.363237508245727425e-14 1.931319551983987082e-13 6.502930111713586814e-14 -1.562894778872614410e-13
7.863000000000000000e+03 5.471344757080078125e+01 -5.743356227874755859e+00 9.363956685786226086e-14 2.231350412600086042e-13 9.503238040248218610e-14 -1.264847466131077680e-13
7.864000000000000000e+03 5.857910919189453125e+01 -3.256720781326293945e+00 4.388807703760780332e-14 1.674997624325283430e-13 6.341635387391991729e-14 -4.264660117560790942e-14
7.865000000000000000e+03 6.109283065795898438e+01 1.470066833496093750e+01 -9.670149609449646411e-14 1.186848200013940202e-13 6.594998950838456067e-15 -1.307377820505004409e-14
7.866000000000000000e+03 5.789255523681640625e+01 1.244042968750000000e+01 1.113979988440726154e-13 1.964325783195691733e-13 9.234917653722432562e-14 5.191229797375448984e-14
7.867000000000000000e+03 5.270254898071289062e+01 7.941654682159423828e+00 2.072666074415339260e-14 1.003847544911277978e-13 3.633342406236458877e-14 -1.287312406195520453e-13
7.868000000000000000e+03 5.326583862304687500e+01 7.051595687866210938e+00 1.090734490574729598e-13 2.755005154130713008e-13 1.153721893411632782e-13 -8.767690891885171478e-14
7.869000000000000000e+03 4.688323211669921875e+01 -2.487611532211303711e+00 -7.470078429525767172e-14 3.225552420646482510e-13 7.435633326505902696e-14 5.892378598937320078e-14
7.870000000000000000e+03 4.649964904785156250e+01 -1.283981204032897949e+00 -2.919599325891747768e-15 2.275034815483328865e-13 6.737516902895201998e-14 4.569366667808369420e-14
7.871000000000000000e+03 4.769105529785156250e+01 1.926186323165893555e+00 -3.770884293837969969e-14 7.534096502052889388e-14 1.128963713286452661e-14 -1.650401684890820397e-14
7.872000000000000000e+03 5.896830368041992188e+01 -5.121870040893554688e-01 -1.214598490143978249e-13 3.944767621821658465e-14 -2.460365082241483536e-14 -2.244808410879241267e-14
7.873000000000000000e+03 6.075839233398437500e+01 -8.296583294868469238e-01 -5.403523359011688787e-14 2.055967836299757434e-13 4.546846433433129886e-14 -2.606855534117557410e-14
7.874000000000000000e+03 5.958368682861328125e+01 1.285217380523681641e+01 -2.055568307799196526e-13 1.406589552948797617e-13 -1.946936400076468288e-14 6.555289622754700840e-14
7.875000000000000000e+03 5.666715240478515625e+01 1.049865055084228516e+01 2.116019422941477213e-14 2.378234057170275362e-13 7.769507964511951359e-14 -9.247945020451203701e-14
7.876000000000000000e+03 5.612557601928710938e+01 -8.488615989685058594e+00 -4.053179368740736366e-14 1.427575505724698601e-13 3.066772571026603333e-14 -1.934767585943034107e-13
7.877000000000000000e+03 6.138658905029296875e+01 1.398655223846435547e+01 -8.098505047994530859e-14 2.741110290138681904e-13 5.793779220492414894e-14 1.352540516109772273e-14
7.878000000000000000e+03 5.845871353149414062e+01 -5.055033206939697266e+00 6.829451741407815621e-15 3.317618532325261604e-13 1.015773904333890088e-13 -1.116383867945033859e-13
7.879000000000000000e+03 5.481167984008789062e+01 -3.555708885192871094e+00 -1.241882861331049595e-14 1.090550176205407062e-13 2.899085797271848397e-14 -1.351129359219646608e-13
7.880000000000000000e+03 5.935986328125000000e+01 3.583826720714569092e-01 -3.912364545831034657e-14 2.691761473005288563e-13 6.901574987503919512e-14 -2.423213370141962669e-14
7.881000000000000000e+03 6.062226104736328125e+01 5.631961822509765625e+00 -9.507916372622493562e-14 2.337574849398810217e-13 4.160349365359139462e-14 -2.151798941666446113e-14
7.882000000000000000e+03 5.168376159667968750e+01 4.776876926422119141e+00 2.465670388403316121e-14 -3.518379028876958414e-14 -3.158125497904453252e-15 -3.545984849067512767e-14
7.883000000000000000e+03 4.779817199707031250e+01 4.877848625183105469e+00 -9.710461093255604720e-15 -4.161626182823830594e-15 -4.161626182823830594e-15 -5.052775824696334461e-14
7.884000000000000000e+03 5.195133590698242188e+01 5.882882118225097656e+00 -7.117082530955221031e-15 -1.631784984912343361e-13 -5.108867362903050935e-14 1.121365912452876312e-14
7.885000000000000000e+03 5.706491851806640625e+01 -7.466779708862304688e+00 -8.753746019067934481e-14 1.683632210426957987e-13 2.424772757797857836e-14 -6.794478174532159187e-14
7.886000000000000000e+03 5.891010665893554688e+01 -4.451177120208740234e+00 3.480897143334597821e-14 6.066908043653174154e-14 2.864341522215013702e-14 -4.196334374277112256e-14
7.887000000000000000e+03 6.028275680541992188e+01 1.294068431854248047e+01 -1.246320619407645380e-13 8.383910427879615046e-14 -1.223788712918392682e-14 4.213235392080266761e-14
7.888000000000000000e+03 5.708142471313476562e+01 -9.361063003540039062e+00 1.667800080440602628e-14 1.901515105312903686e-13 6.204885645002752859e-14 -1.132260585745732684e-13
7.889000000000000000e+03 4.813827514648437500e+01 -2.488538026809692383e+00 -3.497168985064531832e-14 2.137668839684303546e-13 5.363855789652233197e-14 1.072525992714193355e-13
7.890000000000000000e+03 5.010883712768554688e+01 -4.628443241119384766e+00 -4.119676452594587743e-15 1.812382167086512563e-13 5.313556262738841629e-14 4.512009662378455022e-14
7.891000000000000000e+03 4.734023284912109375e+01 -1.874339222908020020e+00 1.774709190911251400e-14 2.363606272509644057e-13 7.623232150784711725e-14 4.982073984589018012e-14
7.892000000000000000e+03 5.341731262207031250e+01 -5.103598117828369141e+00 -9.135806836783975232e-15 6.471107422698421652e-14 1.667258148760949327e-14 -7.594084053003796742e-14
7.893000000000000000e+03 5.314527130126953125e+01 -4.205694675445556641e+00 1.678916202027189164e-14 3.274519869665704075e-13 1.032723507946899100e-13 -1.081408251249645069e-13
7.894000000000000000e+03 5.947996520996093750e+01 -8.449492454528808594e+00 8.495806190717339335e-14 8.216154536236364159e-14 5.013588014798203707e-14 3.645792096495202583e-14
7.895000000000000000e+03 5.704732513427734375e+01 -6.451856613159179688e+00 3.155862141166095036e-14 1.736534500180672569e-13 6.156362176773164108e-14 -3.314018777824702389e-14
7.896000000000000000e+03 5.009231567382812500e+01 -3.072602510452270508e+00 1.563608759884514005e-14 1.385925879268667948e-13 4.626860214949381211e-14 -5.888340623471169377e-14
7.897000000000000000e+03 5.805007553100585938e+01 -1.015410137176513672e+01 2.265655755183653558e-14 3.299666041702703501e-13 1.057869476695991184e-13 3.011037125470912568e-14
7.898000000000000000e+03 5.799579620361328125e+01 1.187891101837158203e+01 -4.523806798454634015e-14 2.093670018171039926e-13 4.923867913332775903e-14 6.389658089743163738e-14
7.899000000000000000e+03 5.405633163452148438e+01 6.857143878936767578e+00 -6.738525888541971320e-14 1.687155291505131743e-14 -1.515411229933028708e-14 -4.842689630920639365e-14
7.900000000000000000e+03 5.512203598022460938e+01 7.348938941955566406e+00 -1.190042124088810938e-13 -7.387727853514630683e-14 -5.786444592795550457e-14 -1.487364241102226425e-13
7.901000000000000000e+03 6.056184387207031250e+01 1.086452579498291016e+01 -1.097717430191894050e-13 4.104644684040092972e-13 9.020781626019325206e-14 7.757123665196735685e-14
7.902000000000000000e+03 5.997026062011718750e+01 1.072159767150878906e+01 -4.654830259307254914e-14 1.173035735387017997e-13 2.122658128368877517e-14 -1.739636605884060938e-14
7.903000000000000000e+03 5.860937500000000000e+01 -1.312472939491271973e+00 -4.192226942109286703e-14 7.353521274972713018e-14 9.483882320963921142e-15 2.633526907560700819e-14
7.904000000000000000e+03 5.667671585083007812e+01 -2.974222183227539062e+00 -8.993133115368229236e-14 1.444617944148726685e-13 1.635914033360982844e-14 -1.104602859376170587e-13
7.905000000000000000e+03 5.456209945678710938e+01 8.154999732971191406e+00 -5.190839823406533104e-14 -5.026314108848295437e-13 -1.663619464626134303e-13 -1.282142659186566447e-13
7.906000000000000000e+03 5.974625015258789062e+01 1.213522243499755859e+01 -1.522308890273063597e-13 1.635129342038646461e-13 3.384611520088412484e-15 5.016138939222154758e-14
7.907000000000000000e+03 4.783875274658203125e+01 -1.232813477516174316e+00 -2.152449124156758514e-14 4.254092195697667389e-13 1.211654203619322301e-13 7.415223898235220878e-14
7.908000000000000000e+03 6.030681610107421875e+01 5.033402442932128906e+00 1.009409417352833890e-14 1.873298337198153751e-13 5.922717963855253509e-14 -8.660197667494096141e-14
7.909000000000000000e+03 5.782201385498046875e+01 2.700605630874633789e+00 -8.952186187445240750e-14 7.384434928228884865e-15 -2.464122859208682514e-14 -5.273554284771810041e-14
7.910000000000000000e+03 5.734297943115234375e+01 1.041740608215332031e+01 5.873152306287363067e-14 7.092160111141568302e-14 3.889593928516586752e-14 -4.170325719411900611e-14
7.911000000000000000e+03 6.023605728149414062e+01 7.372347354888916016e+00 -9.103515060922620639e-14 8.680004685932690700e-14 -1.270531844947794982e-15 -8.277978454616918835e-14
7.912000000000000000e+03 5.576464462280273438e+01 -5.455177307128906250e+00 1.084270273934463680e-14 2.334016226818169670e-13 7.327329660990894444e-14 -1.780449296025568562e-13
7.913000000000000000e+03 5.819147872924804688e+01 -3.947119712829589844e+00 1.931354212572188728e-14 1.455300723679497921e-13 4.945308688920034557e-14 -6.922964263487985104e-14
7.914000000000000000e+03 6.050382614135742188e+01 3.753989934921264648e-01 -3.310153597079791565e-14 3.060702732926579017e-13 8.189061679198667010e-14 -3.751229402516702283e-14
7.915000000000000000e+03 6.040948486328125000e+01 2.240624189376831055e+00 -6.772746697237402858e-14 1.768532152321422579e-13 3.273772515555682661e-14 -7.947044037377379300e-14
7.916000000000000000e+03 5.029167175292968750e+01 4.559969425201416016e+00 4.588901365154421721e-15 7.059309462941615321e-14 2.255459850190964094e-14 -1.645649491243544871e-13
7.917000000000000000e+03 5.096034622192382812e+01 3.815721511840820312e+00 -5.405600283798356331e-14 -2.316685763310757235e-14 -2.316685763310757235e-14 -6.820969299364126881e-14
7.918000000000000000e+03 5.825868606567382812e+01 -8.354805946350097656e+00 6.731371509456282598e-14 -1.690221381367602860e-14 1.512345140070557592e-14 5.626443457191002140e-14
7.919000000000000000e+03 5.816928482055664062e+01 -6.279824256896972656e+00 -2.411100968402815625e-14 2.870478648612367900e-13 7.888106129654709475e-14 -2.047496151574498824e-14
7.920000000000000000e+03 5.677378845214843750e+01 1.109315967559814453e+01 8.768315133991474216e-16 -1.826280148159789563e-13 -5.452535395845253818e-14 -3.442285654653778892e-14
7.921000000000000000e+03 5.608412551879882812e+01 9.493455886840820312e+00 2.018311970190030807e-14 1.001518068781057091e-13 3.610047644934250011e-14 -1.300048664640979235e-13
7.922000000000000000e+03 4.814329910278320312e+01 3.891580581665039062e+00 -4.419864674991627607e-14 -7.613096215724687865e-14 -3.609888402740166202e-14 -1.555718309167661295e-13
7.923000000000000000e+03 5.784479904174804688e+01 -4.627156257629394531e+00 1.161153760490842013e-14 4.976373198744112394e-15 4.976373198744112394e-15 -6.345018775796504307e-14
7.924000000000000000e+03 4.885142898559570312e+01 3.454496383666992188e+00 -4.128949176378064745e-14 -2.464502397731688221e-13 -8.632192047752437758e-14 -1.050333119632408663e-13
7.925000000000000000e+03 5.991298294067382812e+01 1.062145829200744629e+00 -1.092434384055915308e-13 4.468328173288550753e-14 -1.936804700181180700e-14 -1.471584898209143955e-13
7.926000000000000000e+03 4.889851760864257812e+01 -3.067713260650634766e+00 -3.953012979343410727e-14 2.118132600738287241e-13 5.168493739005249055e-14 -4.654976287787361555e-14
7.927000000000000000e+03 5.217972946166992188e+01 -4.197599411010742188e+00 -9.797804928490805310e-14 2.663583024661072413e-14 -2.140266588089578814e-14 -1.893849931478702731e-13
7.928000000000000000e+03 5.698155212402343750e+01 -8.420104026794433594e+00 -7.633158021673816518e-14 1.731657352233018088e-13 2.905024514671637748e-14 -7.760686624586066173e-14
7.929000000000000000e+03 6.023613739013671875e+01 6.104484081268310547e+00 -3.992485392311818926e-14 -6.286160150357697485e-14 -3.083593628919537033e-14 -7.093631237964359570e-14
7.930000000000000000e+03 5.970191574096679688e+01 5.266319274902343750e+00 -1.270286230804079652e-13 -1.916936797014337501e-13 -9.561669083455251461e-14 -1.480893587011561374e-13
7.931000000000000000e+03 5.699109649658203125e+01 -4.337574005126953125e+00 -3.364994237030002888e-14 1.685823925118637434e-13 4.047973504246911436e-14 -7.345725861352542241e-14
7.932000000000000000e+03 5.713035583496093750e+01 -2.257155895233154297e+00 -5.047010240830963890e-14 6.987185623922448352e-14 5.820524963428327231e-15 -1.208464616353141508e-13
7.933000000000000000e+03 4.769602584838867188e+01 1.336362838745117188e+00 3.283689916115314911e-14 1.970767570403514357e-13 6.897409618282501764e-14 3.782677702969181044e-14
7.934000000000000000e+03 4.940116882324218750e+01 -2.463075637817382812e+00 4.392472984730139141e-14 2.818928358967742742e-13 9.774527107847541529e-14 1.203646692949159047e-13
7.935000000000000000e+03 5.923752593994140625e+01 3.006582975387573242e+00 -1.240045799334385523e-13 8.410802707515402377e-14 -1.196896856799078979e-14 -1.583397584055401541e-13
7.936000000000000000e+03 5.742354583740234375e+01 -3.492855787277221680e+00 -9.283595451355011047e-15 -4.972963298208350758e-14 -1.770396776770190306e-14 -5.155464678210583407e-14
7.937000000000000000e+03 5.120829391479492188e+01 -3.939091444015502930e+00 3.955172913358909192e-14 2.228300145313069636e-13 7.871452106658974324e-14 -1.017825214844232662e-13
7.938000000000000000e+03 4.965980911254882812e+01 3.032799959182739258e+00 -3.753127772758088621e-14 1.822837772380830196e-14 -5.790870339944954176e-15 -1.566598277968553332e-13
7.939000000000000000e+03 5.876076126098632812e+01 9.771598815917968750e+00 -1.361827724156647323e-13 2.161416526444068231e-13 2.398766474624898504e-14 -5.013124518369466154e-14
7.940000000000000000e+03 5.985736083984375000e+01 1.142767143249511719e+01 -1.177218587368467073e-13 3.613063082226475320e-13 7.307533484574024740e-14 -1.522841572352932882e-14
7.941000000000000000e+03 5.942020797729492188e+01 9.900284767150878906e+00 3.119305893228493942e-14 2.421231889027791739e-13 8.199487638339830742e-14 -1.696230910721782670e-14
7.942000000000000000e+03 5.806495285034179688e+01 9.717518806457519531e+00 3.189913543272075713e-14 2.424257897291198782e-13 8.229748398600258974e-14 -8.904721171586540973e-14
7.943000000000000000e+03 5.912257766723632812e+01 1.203759002685546875e+01 -1.763736455061976072e-13 8.453961407870261291e-14 -2.755021078350121388e-14 7.553810685680464876e-14
7.944000000000000000e+03 5.959413528442382812e+01 9.141828536987304688e+00 -1.046551964555865466e-13 2.754044279955347729e-13 5.122476471859996328e-14 -6.214590609699213730e-14
7.945000000000000000e+03 6.007598114013671875e+01 6.702370643615722656e+00 -8.599583312162220605e-15 2.250692037256141198e-13 6.494088442996967525e-14 3.767508359323393230e-14
7.946000000000000000e+03 5.847234725952148438e+01 5.573454380035400391e+00 -2.245743196439831113e-14 -1.011265114074337557e-13 -3.707518436680233564e-14 -5.575457155963976785e-14
7.947000000000000000e+03 5.803432846069335938e+01 1.045799827575683594e+01 -2.290370584162593204e-13 -6.656846332031649688e-15 -7.070817591376191147e-14 -3.939956474681254039e-14
7.948000000000000000e+03 5.668338775634765625e+01 9.578186035156250000e+00 -4.739140530745158952e-14 1.169422496121938493e-13 2.086525058091724671e-14 -9.408593966853812107e-14
7.949000000000000000e+03 5.754689407348632812e+01 -1.578218579292297363e+00 7.808928877877166497e-15 3.346683925809206678e-15 3.346683925809206678e-15 -4.598874585185278030e-14
7.950000000000000000e+03 5.033641052246093750e+01 -3.792104482650756836e+00 6.698170528429345238e-15 1.401234949469434832e-13 4.404649930379866962e-14 -1.544989993145645668e-13
7.951000000000000000e+03 5.118046569824218750e+01 3.078787803649902344e+00 -1.508643199515241617e-13 -2.476599383471195237e-13 -1.195572774895931056e-13 -1.033296034456607226e-13
7.952000000000000000e+03 5.878890991210937500e+01 3.746664524078369141e+00 -5.750842103956557705e-14 2.498592153489520573e-13 5.770524439145316431e-14 1.508059661577219185e-14
7.953000000000000000e+03 5.705211639404296875e+01 2.035148620605468750e+00 -9.488034137658182821e-14 9.658984359952119125e-14 5.128510798103707007e-16 -1.525831463131469001e-13
7.954000000000000000e+03 5.007459640502929688e+01 3.835909366607666016e+00 -1.236389327507678160e-13 -1.902409572105204227e-13 -9.416396834363918722e-14 -2.175071375180165356e-13
7.955000000000000000e+03 5.685377502441406250e+01 -5.359988212585449219e+00 9.218153177630375450e-14 2.911365809890598122e-13 1.149954426387517215e-13 -1.786547153975488050e-14
7.956000000000000000e+03 4.791361618041992188e+01 2.473765134811401367e+00 -2.401879659519236959e-14 -7.892019421871024343e-14 -3.088169639713783665e-14 -8.251291834580724849e-15
7.957000000000000000e+03 4.753971862792968750e+01 7.520291209220886230e-02 7.674954015423132714e-14 -5.860923861034442184e-14 5.442090547869366315e-15 2.963060840525250095e-14
7.958000000000000000e+03 5.855173492431640625e+01 8.060284256935119629e-01 -2.755663298730729599e-14 1.597560788085122807e-13 3.965983086644947475e-14 -1.039095228589324849e-13
7.959000000000000000e+03 5.266780471801757812e+01 5.651015758514404297e+00 1.050546165359302064e-13 2.966536250589152379e-13 1.205124731560799911e-13 -6.080747206758593815e-14
7.960000000000000000e+03 5.577796936035156250e+01 1.021778583526611328e+01 -1.092207785801865838e-13 4.469299211859283083e-14 -1.935833492203858919e-14 -6.862006351592703224e-14
7.961000000000000000e+03 5.536817169189453125e+01 8.033992767333984375e+00 2.873445559387045010e-15 4.587409553787058503e-13 1.384843167874169612e-13 8.809096572852392892e-14
7.962000000000000000e+03 5.980038452148437500e+01 3.572142601013183594e+00 -8.827520555894710630e-14 1.966413821054627253e-13 3.250985296395468571e-14 -6.084362343377475169e-14
7.963000000000000000e+03 5.324949645996093750e+01 4.933451175689697266e+00 8.952394896363444210e-14 2.213712069557005613e-13 9.326854609817414321e-14 -1.126710012723693144e-14
7.964000000000000000e+03 5.921697998046875000e+01 4.140009880065917969e+00 -4.964468574186926830e-14 2.017595888536422022e-13 4.563446923946598566e-14 -1.758932355235692802e-13
7.965000000000000000e+03 5.688793182373046875e+01 -1.087514877319335938e+00 -6.299333884379754167e-14 1.560066501980414411e-13 2.790399272864681202e-14 -1.225393891175416416e-13
7.966000000000000000e+03 5.781064224243164062e+01 -5.369852066040039062e+00 -5.756259049060838406e-14 1.812095937712976390e-13 3.709410030658041868e-14 -8.469172086723875115e-14
7.967000000000000000e+03 5.793273925781250000e+01 -8.736452460289001465e-01 -7.128500535084209000e-14 1.524530827100301078e-13 2.435042015843779523e-14 -9.238715071831563042e-14
7.968000000000000000e+03 5.148146820068359375e+01 -3.121932744979858398e+00 -4.409316065479701452e-14 1.869821978457350542e-13 4.286671115728141190e-14 -2.175542189973567186e-13
7.969000000000000000e+03 5.613850402832031250e+01 -3.774046897888183594e+00 -7.921926461172679179e-14 -3.395111340502576791e-14 -3.395111340502576791e-14 -1.229424819327445961e-13
7.970000000000000000e+03 5.402801895141601562e+01 -3.928345918655395508e+00 1.269617278063656096e-13 5.441216663977684054e-14 5.441216663977684054e-14 -1.381362065748861778e-13
7.971000000000000000e+03 5.297175216674804688e+01 -3.438534736633300781e+00 -9.883371858009255828e-15 8.726616570206915946e-14 2.321483866143773944e-14 -2.336483328861660436e-13
7.972000000000000000e+03 4.831974029541015625e+01 2.922084093093872070e+00 -5.600044828356874616e-14 -3.142327706633779583e-13 -1.110699667005235480e-13 -1.240346665437250251e-13
7.973000000000000000e+03 5.955342864990234375e+01 2.026201725006103516e+00 -3.559669174550174342e-14 1.219971254009730166e-13 2.592012975782820305e-14 -5.948091005196845527e-14
7.974000000000000000e+03 5.831922531127929688e+01 3.485732316970825195e+00 1.011119017831595135e-13 1.577110431182429662e-13 7.764688008228895488e-14 -1.224450635285354028e-13
7.975000000000000000e+03 5.432513427734375000e+01 7.525200366973876953e+00 1.153062020864403792e-13 2.781716914104781502e-13 1.180433653385701276e-13 -8.764763546019460616e-14
7.976000000000000000e+03 5.298501968383789062e+01 6.362657546997070312e+00 -2.315975441481189778e-14 -1.929293991275241038e-13 -6.482674504626126377e-14 -1.175409070883247711e-14
7.977000000000000000e+03 5.250587463378906250e+01 4.939947605133056641e+00 -1.090028471672534194e-13 -3.212211855015134621e-13 -1.290672077677509910e-13 -8.692978520179195367e-14
7.978000000000000000e+03 4.864281845092773438e+01 -1.858193278312683105e+00 -1.438767961920491695e-14 2.340263399736031147e-13 6.589159420996790195e-14 -1.492327845702807153e-15
7.979000000000000000e+03 5.670168685913085938e+01 9.017016410827636719e+00 -8.785223796266977692e-14 9.960188598369390522e-14 3.524894787472064757e-15 -1.995486024683468251e-13
7.980000000000000000e+03 5.181934738159179688e+01 4.066622734069824219e+00 -5.352324960734670956e-14 -6.868948633628399469e-14 -3.666382112190239018e-14 -7.159220726015227965e-15
7.981000000000000000e+03 5.376356124877929688e+01 6.172507286071777344e+00 5.496366301547053745e-14 3.438124893291594208e-13 1.196328463810153453e-13 -1.938353720153801474e-13
7.982000000000000000e+03 5.484289932250976562e+01 6.657933235168457031e+00 2.370532664207249812e-14 1.931632208785477589e-13 6.506056679728491887e-14 -1.472282446781866816e-13
7.983000000000000000e+03 5.768444061279296875e+01 7.472056865692138672e+00 -6.091174521152473154e-14 -9.473145331324525631e-14 -4.669295887980463855e-14 -1.399509441711924151e-13
7.984000000000000000e+03 5.823801422119140625e+01 4.124060630798339844e+00 -1.402778040211424826e-13 3.138283835818315992e-14 -3.266848868244826010e-14 -9.864224508829982918e-14
7.985000000000000000e+03 5.869256591796875000e+01 1.052323436737060547e+01 -1.410118851248804220e-14 2.455868624781643028e-13 6.944569702280189993e-14 -3.635514537526397805e-14
7.986000000000000000e+03 5.598583221435546875e+01 -2.379713773727416992e+00 3.224532796265895673e-14 5.957037705998924348e-14 2.754471015154174446e-14 -1.185775653014808917e-13
7.987000000000000000e+03 5.203172302246093750e+01 3.418302774429321289e+00 -8.348561710111619683e-15 -7.220437491179190759e-14 -2.416588217241718434e-14 -9.846920642157114267e-14
7.988000000000000000e+03 5.734271621704101562e+01 9.695747375488281250e+00 -1.459339105721463303e-13 2.895878930533543616e-14 -3.509253773529598386e-14 -1.077466634251574018e-13
7.989000000000000000e+03 5.649926376342773438e+01 8.485142707824707031e+00 -2.737816483938670942e-13 -2.583309712249782369e-14 -8.988442585719513822e-14 -9.890845737922648873e-14
7.990000000000000000e+03 5.872855377197265625e+01 8.074834823608398438e+00 5.011385729135342526e-15 2.147736741058003940e-15 2.147736741058003940e-15 -1.931088921853108681e-14
7.991000000000000000e+03 5.380710601806640625e+01 2.159014940261840820e+00 1.817412187540487500e-14 1.221662880449350674e-13 4.210212162084926713e-14 -1.112395426965638590e-13
7.992000000000000000e+03 5.258380889892578125e+01 4.290257930755615234e+00 2.673261731336168401e-14 1.145683550742189472e-14 1.145683550742189472e-14 -1.297782817625756091e-13
7.993000000000000000e+03 5.454565048217773438e+01 5.954881191253662109e+00 -3.856207701384084877e-15 4.409828689819379754e-14 1.207262422491103479e-14 -1.103145640834373234e-14
7.994000000000000000e+03 5.898839569091796875e+01 4.746047973632812500e+00 -3.931562039360785021e-14 -2.456042910280870073e-13 -8.547597173244256274e-14 -1.280886339919198869e-13
7.995000000000000000e+03 5.825454330444335938e+01 -9.434447437524795532e-02 -9.291377143041436304e-15 3.162746215097655966e-13 9.209497178535794304e-14 -5.475928074156165282e-14
7.996000000000000000e+03 5.751100921630859375e+01 1.758814752101898193e-01 -8.459279927746071043e-16 9.113935599052921943e-14 2.708802894989779941e-14 -1.184750539860723872e-13
7.997000000000000000e+03 5.043436431884765625e+01 -1.741383224725723267e-01 6.284949909682660540e-14 1.284454178218305542e-13 5.738847439797079009e-14 -5.424756780933459588e-14
7.998000000000000000e+03 4.960574722290039062e+01 -3.561677455902099609e+00 -1.646875825544579647e-14 1.759457515662990468e-13 4.784310087316799576e-14 1.332896331284957880e-13
7.999000000000000000e+03 4.849409866333007812e+01 2.364644527435302734e+00 1.249826793708191941e-13 5.356400544463679747e-14 5.356400544463679747e-14 -8.106366868997766373e-14
8.000000000000000000e+03 4.918267059326171875e+01 2.222076654434204102e+00 -1.396109790274824292e-13 -2.313993452147250496e-13 -1.113030972726622436e-13 -7.404476744200458316e-14
8.001000000000000000e+03 5.718899154663085938e+01 8.324132919311523438e+00 -2.237022958366530201e-13 -2.102497863309960024e-13 -1.301856300713055692e-13 -1.839250594274505213e-13
8.002000000000000000e+03 5.546926879882812500e+01 -3.034586906433105469e+00 3.197453491755354593e-14 5.945431999368824827e-14 2.742865647337253826e-14 -1.120388707482287971e-13
8.003000000000000000e+03 5.227651214599609375e+01 -3.445492029190063477e+00 -1.060278785681490789e-15 1.367984366193106260e-13 4.072144775242939052e-14 -1.322436490825903976e-13
8.004000000000000000e+03 5.867174530029296875e+01 1.819981098175048828e+00 -8.969628967521459106e-14 2.589398964344957754e-13 5.077308270541071311e-14 -1.433965793329328164e-13
8.005000000000000000e+03 5.535947036743164062e+01 -4.418315410614013672e+00 1.123415664422595939e-13 3.455275616407599282e-13 1.373607309710159208e-13 -1.029575730226994779e-13
8.006000000000000000e+03 5.423006820678710938e+01 5.243322849273681641e+00 6.063540833577954134e-15 3.686062414499924333e-13 1.124009400637303313e-13 -1.514348948973218145e-13
8.007000000000000000e+03 5.257880020141601562e+01 -2.899983406066894531e+00 -4.609265307755835983e-14 1.455921734355106884e-14 -9.460030720202187299e-15 -1.074077553785655892e-13
8.008000000000000000e+03 4.824226379394531250e+01 7.121825814247131348e-01 9.546367094449923624e-15 -2.450304363707175859e-14 -4.487002878083255764e-15 -7.254847357628449456e-15
8.009000000000000000e+03 4.839146804809570312e+01 -5.991645455360412598e-01 -4.643788676620026756e-14 7.159994575315839493e-14 7.548617865494027662e-15 -2.406039777136381730e-14
8.010000000000000000e+03 4.883468627929687500e+01 1.402000784873962402e+00 -1.149755852218527653e-15 3.382046026697768659e-14 9.801211356191483204e-15 -1.144124264730247975e-13
8.011000000000000000e+03 5.068552398681640625e+01 -2.569645643234252930e+00 1.774572378149610885e-13 1.675550025332164794e-13 1.035036721044532704e-13 -1.581549425927128438e-14
8.012000000000000000e+03 4.959698486328125000e+01 1.244037508964538574e+00 -7.064116544323872926e-14 -2.132785864149971955e-13 -8.517592555747077743e-14 -7.380371541774316535e-14
8.013000000000000000e+03 4.984241867065429688e+01 1.926228761672973633e+00 9.998398085213442560e-15 -8.721686838453895918e-14 -2.316554134390753916e-14 -7.127315366584410783e-14
8.014000000000000000e+03 4.822563552856445312e+01 1.740413665771484375e+00 5.030084828478928460e-14 -1.156953357986725828e-13 -1.961834862585724176e-14 6.877963435879437537e-15
8.015000000000000000e+03 5.617394638061523438e+01 7.872045040130615234e+00 -1.643153115741396997e-13 -1.390472752129529033e-13 -9.100877739138049649e-14 -3.443615835194147046e-14
8.016000000000000000e+03 5.907872009277343750e+01 6.972829341888427734e+00 -7.747178143143254592e-14 5.829970566636338836e-14 -5.751623068333926170e-15 -1.179288329315741901e-13
8.017000000000000000e+03 5.575443267822265625e+01 4.175986766815185547e+00 -1.677729000648317537e-13 -1.176536217626159009e-13 -8.562795654823429636e-14 -3.292565720259708548e-15
8.018000000000000000e+03 5.628499603271484375e+01 -5.488207340240478516e-01 3.287745171053589599e-14 1.055922317356842999e-13 4.154090469505287986e-14 -7.555469515004367698e-14
8.019000000000000000e+03 5.609651947021484375e+01 5.551311016082763672e+00 6.497688841242566654e-15 2.784723728601603762e-15 2.784723728601603762e-15 2.164302672627224644e-14
8.020000000000000000e+03 5.347103118896484375e+01 5.508193969726562500e+00 1.968156100064493569e-14 -6.019146905076114273e-14 -1.215297207622168321e-14 -1.741264603208683703e-13
8.021000000000000000e+03 5.853092956542968750e+01 2.755376338958740234e+00 -9.429105716704522244e-14 5.340496992659211906e-15 -2.668516652765649810e-14 6.675385659785559780e-16
8.022000000000000000e+03 5.039780807495117188e+01 2.566038608551025391e+00 -5.470030353151023039e-14 -1.492581015380411991e-13 -6.118751881035999762e-14 -1.219478348597063944e-13
8.023000000000000000e+03 5.235227584838867188e+01 2.823795080184936523e+00 -1.735666731866869483e-13 -2.863476532169277611e-14 -6.066042714794259161e-14 -9.087458704374468121e-14
8.024000000000000000e+03 5.589968872070312500e+01 7.164048194885253906e+00 -3.574388235481201770e-14 1.905604580382247448e-13 4.644497473790289155e-14 6.210501812256227772e-14
8.025000000000000000e+03 5.683753585815429688e+01 6.578092463314533234e-03 -4.881825263589219255e-14 1.163307324818577126e-13 2.025374530904237164e-14 -1.565472469537698696e-13
8.026000000000000000e+03 5.325618743896484375e+01 4.449486255645751953e+00 -1.370560295029660258e-13 -5.873829932645166507e-14 -5.873829932645166507e-14 2.352548630077735958e-14
8.027000000000000000e+03 5.908726501464843750e+01 5.405390262603759766e+00 -1.634431556296698368e-14 2.217500407472941526e-13 6.162171467538613001e-14 8.935590440316276695e-14
8.028000000000000000e+03 5.951276779174804688e+01 7.757106781005859375e+00 -5.142421387262403887e-14 2.982176951129428266e-13 7.403804538853517303e-14 -7.681705206825928389e-14
8.029000000000000000e+03 5.883793640136718750e+01 8.947818756103515625e+00 5.855106438752699649e-14 1.623461564834172144e-13 6.626916761653597887e-14 -1.231677113815513036e-13
8.030000000000000000e+03 5.712829208374023438e+01 2.757016181945800781e+00 -1.597492280060348879e-14 2.219083478170041923e-13 6.178002852135974776e-14 -3.017488594265322309e-15
8.031000000000000000e+03 5.774488067626953125e+01 3.416605234146118164e+00 -2.284624041597876909e-13 -5.216150861936386107e-14 -8.418717383374546559e-14 -5.352758218087191530e-15
8.032000000000000000e+03 5.644165420532226562e+01 -1.716647505760192871e+00 -3.168541207946955207e-14 1.694243297089073619e-13 4.132167562764452184e-14 -9.861879244005625211e-14
8.033000000000000000e+03 5.435513687133789062e+01 -2.814035654067993164e+00 1.135644855064510406e-13 2.579502129745284839e-14 4.180785221057775614e-14 -1.185708432480114816e-13
8.034000000000000000e+03 5.792871475219726562e+01 8.206639289855957031e+00 -4.068077323030223902e-14 7.406727818961081344e-14 1.001595199601234068e-14 -9.045900557476740933e-14
8.035000000000000000e+03 5.170447921752929688e+01 -2.652793526649475098e-01 5.948997669263586530e-14 -6.600619437959961977e-14 -1.954863739078173922e-15 -1.131914589727438247e-13
8.036000000000000000e+03 5.381597900390625000e+01 4.702285766601562500e+00 4.738588265263549149e-14 7.463748721717525236e-14 3.660700892806414974e-14 -2.162230626750333284e-13
8.037000000000000000e+03 5.108633422851562500e+01 -7.979226708412170410e-01 -2.046072119783574894e-14 -1.774755066215674693e-13 -5.938086529650235534e-14 -8.124987363683847108e-14
8.038000000000000000e+03 5.160826492309570312e+01 2.430273532867431641e+00 -5.671970461666384078e-14 -1.958744988038094159e-13 -7.577826441427376603e-14 -1.790087311237878454e-13
8.039000000000000000e+03 5.765069198608398438e+01 1.003626346588134766e+00 -5.694166790642593567e-14 2.958530772798062536e-13 7.167342077913502196e-14 -7.566149584029707720e-14
8.040000000000000000e+03 4.918264770507812500e+01 -1.261495828628540039e+00 8.086523258735850428e-14 1.719093752983527623e-13 7.583237965520794877e-14 -4.175202596309011971e-14
8.041000000000000000e+03 4.994210052490234375e+01 -1.905451774597167969e+00 -9.584449526351887516e-14 -1.783290583343838387e-13 -8.225206946750260317e-14 -4.152189727571649336e-14
8.042000000000000000e+03 5.808712005615234375e+01 6.525980949401855469e+00 -7.154629807441109657e-14 -3.066270111082292082e-14 -3.066270111082292082e-14 -1.251365818692035115e-13
8.043000000000000000e+03 5.365084457397460938e+01 -3.112007856369018555e+00 -2.655514697025296300e-14 1.258720639654362095e-13 2.979507509855497394e-14 -1.369197046323031297e-13
8.044000000000000000e+03 5.193203735351562500e+01 -2.461366415023803711e+00 -7.157725882269913575e-14 6.082593060957250386e-14 -3.225398972157757921e-15 -1.357457847300444498e-13
8.045000000000000000e+03 5.840691757202148438e+01 7.268143177032470703e+00 -1.223084811598565413e-13 7.339718703690614743e-14 -1.467338722044558147e-14 1.335836009950380765e-14
8.046000000000000000e+03 5.121928787231445312e+01 -1.945195913314819336e+00 -1.458272657359552249e-13 -6.249739766504835980e-14 -6.249739766504835980e-14 -1.457326419913515525e-13
8.047000000000000000e+03 5.090887451171875000e+01 1.974137306213378906e+00 2.955447666043681081e-15 -1.588617068839018320e-13 -4.677187524543442720e-14 1.451954126151049334e-15
8.048000000000000000e+03 4.977448654174804688e+01 -6.967257857322692871e-01 -9.828470231686842196e-14 -8.787296655295498415e-14 -5.584729795044159062e-14 -7.370315566624513481e-14
8.049000000000000000e+03 5.733494186401367188e+01 8.993839263916015625e+00 -3.009789954159375336e-14 3.988594394002675791e-13 1.106284592470967165e-13 -3.614891995766186805e-14
8.050000000000000000e+03 5.645931625366210938e+01 2.856328964233398438e+00 -6.350275123453985593e-14 1.853548476542839912e-14 -1.349017960192025814e-14 -1.900605730740731469e-13
8.051000000000000000e+03 5.781557846069335938e+01 1.885294198989868164e+00 -4.420842489825937971e-14 9.543090601603354539e-14 1.536674467414542861e-14 -2.312435351981435155e-14
8.052000000000000000e+03 5.307973098754882812e+01 3.187884330749511719e+00 2.928275907886947194e-14 -1.247030907355894946e-13 -2.862610186870825912e-14 -1.294406205484821548e-13
8.053000000000000000e+03 5.634120941162109375e+01 5.818271040916442871e-01 -8.105681111123669291e-14 5.461868682484459503e-14 -7.931436947104450463e-15 6.375593700577069159e-15
8.054000000000000000e+03 5.665837097167968750e+01 6.957341670989990234e+00 -9.654123068461237245e-14 7.300255777491215792e-14 -7.061601449393590732e-15 -1.333763015396588480e-13
8.055000000000000000e+03 5.765406417846679688e+01 4.067263603210449219e+00 -8.049086435346283763e-14 1.125486304224794856e-14 -2.077080132510070870e-14 -6.118824387056284730e-14
8.056000000000000000e+03 5.832371520996093750e+01 4.830828189849853516e+00 -6.823522595480330244e-14 1.537601290865428516e-13 2.565746992308232804e-14 -9.986291443298336845e-15
8.057000000000000000e+03 5.278036117553710938e+01 3.712774276733398438e+00 -1.232584184458068721e-13 -2.815797725194690848e-13 -1.214514600000882183e-13 -1.548686715978006556e-13
8.058000000000000000e+03 5.135245132446289062e+01 1.384962320327758789e+00 4.852336658563508043e-14 -4.783069692268840378e-14 2.078009385886723961e-16 -1.730847859785986098e-13
8.059000000000000000e+03 5.181804275512695312e+01 8.090190887451171875e-01 1.347206664937617218e-14 -6.857155224497188395e-14 -1.652984457753588210e-14 -7.990042140285438799e-14
8.060000000000000000e+03 5.421165466308593750e+01 1.624594330787658691e+00 1.045070876625614487e-13 1.591661237488814495e-13 7.910196071292743825e-14 -1.645740428700762092e-13
8.061000000000000000e+03 4.984747695922851562e+01 5.114769339561462402e-01 -1.252132298806005531e-14 -6.255496880040734009e-14 -2.252288728243033444e-14 -1.223012034527737324e-13
8.062000000000000000e+03 5.203955459594726562e+01 1.838386774063110352e+00 -1.261093009533031939e-13 -5.404684132962606080e-14 -5.404684132962606080e-14 -4.457832418632533267e-14
8.063000000000000000e+03 5.781371688842773438e+01 5.795831203460693359e+00 -4.653010493723373775e-14 2.545642190966701524e-13 6.241023458664410328e-14 -8.710651015590709090e-14
8.064000000000000000e+03 5.430536651611328125e+01 -2.145320177078247070e+00 4.785530492387203572e-14 6.626036525014811218e-14 3.423470003576650766e-14 -9.338675124002937533e-14
8.065000000000000000e+03 5.503951263427734375e+01 4.991947650909423828e+00 -2.966845383733582309e-14 1.016623173448125139e-13 2.159815939105618615e-14 1.398022204322476106e-14
8.066000000000000000e+03 5.561364746093750000e+01 6.457535266876220703e+00 -1.378174613005708066e-14 -9.740836202963912283e-14 -3.335703160087591379e-14 2.102176194077910731e-14
8.067000000000000000e+03 5.532315826416015625e+01 5.739373207092285156e+00 -6.154543088815640772e-15 3.633699244276478169e-13 1.071646162651221368e-13 -1.862326753313686689e-13
8.068000000000000000e+03 5.529895401000976562e+01 -1.806811451911926270e+00 -3.879570140618779361e-14 1.663770710829196031e-13 3.827441022539318505e-14 -1.037884784626380563e-13
8.069000000000000000e+03 5.064621353149414062e+01 9.235987067222595215e-01 -1.027966638677754729e-14 -9.590746708094954887e-14 -3.185614004031812885e-14 -6.813514392988752333e-15
8.070000000000000000e+03 5.757936096191406250e+01 5.089038848876953125e+00 -2.033073721581599852e-14 2.200415685164186508e-13 5.991324922077420623e-14 -8.506707165935323278e-14
8.071000000000000000e+03 5.637036514282226562e+01 6.252140998840332031e+00 -3.915350506376695516e-14 4.178539296257471891e-13 1.136101304179126803e-13 -5.760889269963709314e-14
8.072000000000000000e+03 5.311682510375976562e+01 -2.425890922546386719e+00 8.319521693734774348e-14 -5.298737251920038194e-14 9.062352986631029561e-15 -1.440643530034937947e-13
8.073000000000000000e+03 5.175922012329101562e+01 -1.367236137390136719e+00 8.159661504412649147e-14 7.500205697393708126e-14 4.697960160541907182e-14 -1.105380164571206913e-13
8.074000000000000000e+03 5.491213226318359375e+01 -2.440721035003662109e+00 -1.782230674076280136e-14 -7.638131460326914868e-15 -7.638131460326914868e-15 -1.408404507385538351e-13
8.075000000000000000e+03 5.682262039184570312e+01 1.269916176795959473e+00 -5.226668978262211107e-14 6.910188973764316844e-14 5.050559308879959408e-15 -1.139379931548722968e-13
8.076000000000000000e+03 5.694051742553710938e+01 7.653428077697753906e+00 -5.003934888518114799e-14 -2.144543596253444678e-14 -2.144543596253444678e-14 -5.927861825537339424e-14
8.077000000000000000e+03 5.049867630004882812e+01 -1.346782803535461426e+00 2.949770215956472319e-14 1.264187271711328733e-14 1.264187271711328733e-14 -3.056588482143528067e-15
8.078000000000000000e+03 5.233914947509765625e+01 2.496828138828277588e-01 3.456217991383396526e-14 -6.811123388385242894e-14 -1.006471483575282350e-14 -1.905599972523014385e-13
8.079000000000000000e+03 5.376032638549804688e+01 3.588821887969970703e+00 -1.718518583731024063e-13 -3.252810076414397455e-13 -1.491398692911316548e-13 -2.275183893282045622e-13
8.080000000000000000e+03 5.739513015747070312e+01 6.748285293579101562e+00 4.365825921132581930e-15 7.049748832659366582e-14 2.245899558721894257e-14 -2.342105730277627140e-14
8.081000000000000000e+03 5.343102645874023438e+01 3.986746549606323242e+00 1.299757658001620547e-14 9.707228646122292859e-14 3.302095942059150857e-14 -1.900659263222997941e-13
8.082000000000000000e+03 5.273357009887695312e+01 2.265576839447021484e+00 -6.256823164229544793e-15 -4.843244606907680383e-14 -1.640678085469519931e-14 -2.031516773380592777e-13
8.083000000000000000e+03 5.712678909301757812e+01 3.419775485992431641e+00 -3.429182732586112670e-14 -6.044744918368497033e-14 -2.842178396930336581e-14 -1.149178002106746033e-13
8.084000000000000000e+03 5.646660232543945312e+01 3.482481956481933594e+00 -1.682688547961080916e-13 -7.211521961189570895e-14 -7.211521961189570895e-14 -7.534264553389624641e-14
8.085000000000000000e+03 5.409038162231445312e+01 6.597775816917419434e-01 4.698155486339544024e-15 8.779652352353117806e-14 2.774840463469745860e-14 -1.576139799187512014e-13
8.086000000000000000e+03 5.343606948852539062e+01 2.681080102920532227e+00 4.219825986036263021e-14 1.095868662199898924e-13 4.553553917935847239e-14 -1.649171657526135593e-13
8.087000000000000000e+03 5.712292480468750000e+01 4.011952877044677734e+00 -1.872617729284375976e-13 -3.450409717057484338e-14 -6.652976238495644790e-14 6.135115879950595041e-14
8.088000000000000000e+03 5.488095474243164062e+01 4.191979408264160156e+00 4.065057142353493969e-14 -7.408022762930843719e-14 -1.002889635351228090e-14 -1.375961790252983041e-13
8.089000000000000000e+03 5.587429809570312500e+01 4.860809326171875000e+00 2.381664201793476376e-14 1.474599793400283021e-13 5.138298708501527756e-14 -1.692968681910045348e-13
8.090000000000000000e+03 5.415887832641601562e+01 3.127748012542724609e+00 1.007443843517412396e-13 -1.398276297265993451e-13 -1.172497310423766329e-14 -1.592139099596337481e-13
8.091000000000000000e+03 5.406847000122070312e+01 4.152871608734130859e+00 -8.074946012412778651e-14 -1.261088130623255754e-13 -6.205748263356236638e-14 -1.043656670416878707e-13
8.092000000000000000e+03 5.575107574462890625e+01 -1.142895460128784180e+00 -9.489748024123657172e-15 1.903745038131163247e-13 5.426542665199450555e-14 -9.100423729478321344e-14
8.093000000000000000e+03 5.113011169433593750e+01 3.210205435752868652e-01 1.013273869649410075e-13 -4.235700738720524217e-14 1.769111319569437180e-14 -1.754603135960958182e-13
8.094000000000000000e+03 5.729838562011718750e+01 4.515823364257812500e+00 -1.078741588243781191e-13 6.814558954019306336e-14 -1.191857095466210617e-14 -9.974104333253241972e-14
8.095000000000000000e+03 5.684774780273437500e+01 5.353868484497070312e+00 -8.901741648491279246e-14 1.906044224363190320e-13 3.047610314067458748e-14 -7.207347782825501703e-14
8.096000000000000000e+03 5.243899154663085938e+01 -1.888643383979797363e+00 -9.635305384505035708e-14 4.456783707140537718e-15 -2.756888108372459317e-14 -1.234981897562520414e-13
8.097000000000000000e+03 5.294723510742187500e+01 -1.336614370346069336e+00 6.627938622201165475e-14 5.128092639113471241e-14 3.526809378394391015e-14 -1.250850009508475136e-13
8.098000000000000000e+03 5.289879226684570312e+01 -2.833318412303924561e-01 1.305375756490215200e-13 6.166354455045333638e-14 5.766033809272153032e-14 -1.623119634574024528e-13
8.099000000000000000e+03 5.512720108032226562e+01 2.825257062911987305e+00 1.009167453921121227e-13 4.325003422349545101e-14 4.325003422349545101e-14 -1.340388168296832716e-13
8.100000000000000000e+03 5.573006439208984375e+01 1.729759573936462402e-02 -7.673529644819029882e-14 -1.215290211130024001e-13 -5.947929730123688308e-14 -1.204628573541616232e-13
8.101000000000000000e+03 5.581142044067382812e+01 2.371087074279785156e+00 -2.996792402990347548e-14 2.159113545504437459e-13 5.578302847853572333e-14 -1.006776178267068667e-13
8.102000000000000000e+03 5.575085067749023438e+01 3.518742084503173828e+00 1.132725979528272087e-14 4.854540214775790105e-15 4.854540214775790105e-15 -1.138376231387544513e-13
8.103000000000000000e+03 5.662820053100585938e+01 4.723701477050781250e+00 -7.127250314454061653e-15 2.714511558241095024e-13 7.929717131408345332e-14 -5.960889334216679103e-14
8.104000000000000000e+03 5.314878082275390625e+01 1.728164553642272949e+00 -4.414473818502122338e-14 7.258272081240788043e-14 8.531395465842354919e-15 -1.438024910737842332e-13
8.105000000000000000e+03 5.028352355957031250e+01 1.502352356910705566e+00 -1.748397298250922716e-14 -1.904969237909170943e-13 -6.239426970965425423e-14 -1.626219910686246828e-13
8.106000000000000000e+03 5.360021591186523438e+01 1.194888353347778320e+00 -1.749005129093872402e-14 -7.495735904531047183e-15 -7.495735904531047183e-15 -1.730918332927197656e-13
8.107000000000000000e+03 5.248834991455078125e+01 1.279100418090820312e+00 2.875196418840667012e-14 8.845328428347019271e-16 8.890949093490543853e-15 -1.941173187903350028e-13
8.108000000000000000e+03 5.495178985595703125e+01 3.443789958953857422e+00 -1.733055566459709707e-13 -7.427380515094214597e-14 -7.427380515094214597e-14 -9.167970880076883877e-14
8.109000000000000000e+03 5.451498794555664062e+01 -8.846157789230346680e-01 -9.201165593060011555e-15 8.755854114667060983e-14 2.350721241197329531e-14 -3.310293526922677976e-14
8.110000000000000000e+03 5.231708908081054688e+01 -8.161136507987976074e-01 -1.239960689463845411e-13 -7.887608074281723947e-14 -6.086164151862874516e-14 -1.450169330322395589e-13
8.111000000000000000e+03 5.361065673828125000e+01 -1.846562147140502930e+00 -2.500066194105650397e-14 -2.215230697987478903e-14 -1.414589067627938790e-14 -1.354921220792643100e-13
8.112000000000000000e+03 5.710870361328125000e+01 6.033503055572509766e+00 -4.560267839888963726e-14 1.177088347582497252e-13 2.163184758543438418e-14 -4.706286494413416954e-14
8.113000000000000000e+03 5.572813415527343750e+01 1.063936352729797363e+00 8.728957091646769029e-14 -1.406000153542780184e-14 2.196887013668560873e-14 -1.125330297696569559e-13
8.114000000000000000e+03 5.562482833862304688e+01 1.925088286399841309e+00 2.365456056941175889e-14 1.702659958554078590e-13 5.817616760507224316e-14 -1.588205072013473829e-13
8.115000000000000000e+03 5.460882949829101562e+01 1.094222962856292725e-01 -1.055669088386931853e-13 -5.210880622938569851e-15 -3.323333768552247380e-14 -1.155564359478500336e-13
8.116000000000000000e+03 5.513687133789062500e+01 -5.111297369003295898e-01 -4.051428043418993374e-14 2.838768581097869670e-14 -3.637978556369960564e-15 -7.301178026964186274e-14
8.117000000000000000e+03 5.530612945556640625e+01 2.305786609649658203e+00 -4.612381372562195103e-14 -6.551829662571756474e-14 -3.349263479946774924e-14 -1.639167453030068722e-13
8.118000000000000000e+03 5.649787139892578125e+01 4.106408596038818359e+00 -5.114110158033376152e-14 -1.134195141234625726e-13 -4.936818369469936352e-14 -2.296206302355996431e-13
8.119000000000000000e+03 5.446300888061523438e+01 2.552248716354370117e+00 -1.527854207455665424e-15 9.084710251867217368e-14 2.679577378397485915e-14 -1.459155197927955450e-13
8.120000000000000000e+03 5.297382736206054688e+01 7.370687723159790039e-01 3.688952575619250732e-15 9.308287647613600058e-14 2.903154943550458056e-14 -1.531493573452002988e-13
8.121000000000000000e+03 5.614979171752929688e+01 1.615896344184875488e+00 -1.221988412151639447e-13 1.306328634674558398e-13 2.530206421577684342e-15 -7.316243016150872358e-14
8.122000000000000000e+03 5.579798507690429688e+01 2.911391735076904297e+00 -1.271938012813861318e-13 1.284921604879918355e-13 3.895100330888009348e-16 -2.889523811736884051e-14
8.123000000000000000e+03 5.402637100219726562e+01 -3.179173171520233154e-01 -1.464182778927042294e-13 8.022102676152192968e-14 -1.985917703342058444e-14 -7.214743396894568450e-14
8.124000000000000000e+03 5.518746185302734375e+01 5.667295455932617188e-01 4.988560308789207268e-15 1.622662778883593448e-13 5.017644963802372904e-14 -1.290971588527659031e-13
8.125000000000000000e+03 5.349457168579101562e+01 2.093769311904907227e-01 9.063874596617477186e-14 1.332065154794476181e-13 6.715357843368671698e-14 -1.984407104783925124e-13
8.126000000000000000e+03 5.478752899169921875e+01 2.010059118270874023e+00 2.172221278719244086e-13 2.760989950122832992e-13 1.479963341547568811e-13 -8.183902232110351616e-14
8.127000000000000000e+03 5.467255020141601562e+01 1.094891667366027832e+00 -4.244731465190970665e-14 -1.096936059238710903e-13 -4.564227549510788129e-14 -1.221930949436497715e-13
8.128000000000000000e+03 5.346624374389648438e+01 -7.920877933502197266e-01 4.482577977966799299e-14 -1.480658586190675141e-13 -3.097202399063303524e-14 -8.434314309252108344e-14
8.129000000000000000e+03 5.400122451782226562e+01 -1.257743120193481445e+00 -4.013748968606511980e-14 4.570577247296585266e-14 1.670485450169106618e-15 -1.447200784774130278e-13
8.130000000000000000e+03 3.229975509643554688e+01 -3.993185806274414062e+01 7.146162866100355671e-14 -1.295019050762818980e-13 -1.741208190814396567e-14 3.767454149214768955e-14
8.131000000000000000e+03 1.453036403656005859e+01 -3.737404632568359375e+01 1.397862199798739768e-14 -1.141054075228312148e-13 -3.003803464101360843e-14 -3.014827767316465013e-14
8.132000000000000000e+03 6.519362640380859375e+01 -3.547194671630859375e+01 4.621096663963084050e-14 2.456999989748631652e-13 8.757329307247999073e-14 -3.524990502195104493e-15
8.133000000000000000e+03 1.803987121582031250e+01 -3.312915420532226562e+01 4.794603570505012735e-14 -8.239133523655836622e-14 -1.033358850419975605e-14 -2.744369130818630209e-14
8.134000000000000000e+03 5.767422103881835938e+01 -3.744047164916992188e+01 7.478600258601503237e-14 2.493681530799790602e-13 9.724624669979822777e-14 6.965306508784985598e-15
8.135000000000000000e+03 2.095929908752441406e+01 -3.793762207031250000e+01 1.061230232380153127e-13 -2.290244003558955521e-13 -3.687041245773771403e-14 -1.593769062037397877e-14
8.136000000000000000e+03 2.190398597717285156e+01 -4.092285156250000000e+01 7.590826025475477801e-14 -2.248169776427125233e-13 -4.467261250588189236e-14 7.851019744971245596e-16
8.137000000000000000e+03 5.707844161987304688e+01 -3.432975006103515625e+01 5.374520950897701543e-14 3.432903104578360898e-13 1.191106539571648582e-13 1.387702717222782239e-14
8.138000000000000000e+03 5.317412185668945312e+01 3.417040634155273438e+01 -2.195063012919943463e-14 -4.669169239614190392e-13 -1.466602582650758380e-13 -1.463081771620883265e-13
8.139000000000000000e+03 3.466335058212280273e+00 -4.047844314575195312e+01 -1.319475229760985052e-14 1.315979524787666555e-13 3.552096022375363094e-14 5.357054115085781165e-14
8.140000000000000000e+03 2.091476249694824219e+01 -2.389721870422363281e-01 -7.378586673947862273e-14 -1.231244110572876638e-13 -5.907308740478803277e-14 4.886679711053887321e-13
8.141000000000000000e+03 4.250442886352539062e+01 -4.177669143676757812e+01 1.276662559305738465e-13 2.148424260760631310e-13 1.027526046019910932e-13 -1.908527013456864235e-14
8.142000000000000000e+03 1.057450771331787109e+01 -2.613908529281616211e+00 -9.699598573333426121e-14 -4.156970720339131509e-14 -4.156970720339131509e-14 -9.095302229466042943e-14
8.143000000000000000e+03 4.117686080932617188e+01 -4.030305480957031250e+01 5.598211849059016310e-14 6.974328341409485876e-14 3.771762158784504326e-14 1.291263442199964973e-14
8.144000000000000000e+03 3.425346374511718750e+01 -3.542783355712890625e+01 -2.896267549249743889e-14 -1.382276861331896423e-13 -5.015710679364022984e-14 5.930560811320470527e-14
8.145000000000000000e+03 2.652496719360351562e+01 -2.177410507202148438e+01 -8.847803268036483204e-14 -6.079463104810556295e-14 -4.478180182904654971e-14 1.262146447468873167e-13
8.146000000000000000e+03 4.435114669799804688e+01 -3.920092773437500000e+01 2.615748702437369760e-15 2.070003104473125410e-13 6.288481698259532071e-14 6.314302650623632163e-14
8.147000000000000000e+03 2.037277030944824219e+01 -3.528902435302734375e+01 4.107028302516302354e-14 -2.225909343997467538e-13 -5.445619541237511907e-14 -3.270367104294541472e-14
8.148000000000000000e+03 4.822984695434570312e+01 -4.108312606811523438e+01 7.269333653905571402e-14 4.085996135622799175e-13 1.443878789317634692e-13 3.851527929053799593e-14
8.149000000000000000e+03 4.016236495971679688e+01 -4.116222763061523438e+01 1.882617596971752905e-13 1.950609812562120737e-13 1.149968249965216405e-13 -7.002708010900651758e-14
8.150000000000000000e+03 5.413024520874023438e+01 3.226295852661132812e+01 -8.741089483363471274e-15 -9.524807564843459917e-14 -3.119675199593496817e-14 -7.853131122823042709e-14
8.151000000000000000e+03 1.516461181640625000e+01 -4.272864341735839844e+00 3.569314169313969609e-14 -1.677067366272558258e-13 -3.960407915786119670e-14 1.216576617007678052e-13
8.152000000000000000e+03 7.631958770751953125e+01 -3.807794952392578125e+01 -8.953289024342565849e-15 8.766477263078345517e-14 2.361344559015203515e-14 -6.295020792612335270e-14
8.153000000000000000e+03 3.522887039184570312e+01 -1.417378807067871094e+01 -7.970848373700656353e-14 1.030920683021963047e-13 7.015076470699753777e-15 -1.382057174866696547e-13
8.154000000000000000e+03 3.319038009643554688e+01 4.963586330413818359e+00 1.256508731697220105e-13 2.139786964153525539e-13 1.018888681650169381e-13 4.143010939742022836e-15
8.155000000000000000e+03 1.584611988067626953e+01 -5.157298088073730469e+00 1.260307098483251509e-13 -1.289906359893192023e-13 -8.879752376719026070e-16 1.056609633771563028e-13
8.156000000000000000e+03 1.628092193603515625e+01 -3.124637222290039062e+01 1.292561604894926913e-14 -8.596234482701956003e-14 -2.191101948045403452e-14 -2.108133207389360775e-14
8.157000000000000000e+03 3.190299415588378906e+01 9.511499404907226562e+00 8.625878602976783105e-14 -1.460357442611970313e-13 -1.793308679180240228e-14 3.443959052944374488e-14
8.158000000000000000e+03 7.763385772705078125e+01 -3.758498001098632812e+01 3.607568210091047223e-14 8.408742723387679918e-14 3.604893280043618142e-14 2.508800120231378938e-14
8.159000000000000000e+03 1.187489128112792969e+01 -4.823007583618164062e+00 -3.391538216717879251e-14 1.227176861648068829e-13 2.664069052166206930e-14 -1.687759090471252499e-13
8.160000000000000000e+03 4.595516204833984375e+01 -3.191496849060058594e+01 8.381156554361501865e-14 5.391797034889900253e-13 1.868973725782652195e-13 -1.820583987114775953e-14
8.161000000000000000e+03 1.677910232543945312e+01 -6.219842433929443359e+00 1.056095383128625997e-13 -4.624066700289336529e-14 1.781066173180394924e-14 2.122014586616871590e-13
8.162000000000000000e+03 1.721238327026367188e+01 -7.293256759643554688e+00 -1.408888332605010008e-13 -1.518828194723570446e-13 -8.783149581985741361e-14 9.671462849331069478e-14
8.163000000000000000e+03 4.660287475585937500e+01 -3.129142379760742188e+01 1.646152459407624474e-14 6.018172613898864487e-13 1.854836407079799021e-13 -2.974587942497844417e-14
8.164000000000000000e+03 7.722312927246093750e+01 2.937749481201171875e+01 -4.467270398544019583e-14 -1.106473446936886984e-13 -4.659601426492548937e-14 1.509263634208446447e-13
8.165000000000000000e+03 7.634101390838623047e+00 -5.663708209991455078e+00 9.486274342006967286e-15 4.981649451675854157e-14 1.779083099644283156e-14 1.274755583209608023e-13
8.166000000000000000e+03 3.633081436157226562e+01 1.315379047393798828e+01 -5.155758090423512296e-14 -2.209610634382446620e-14 -2.209610634382446620e-14 -7.250545785509113217e-14
8.167000000000000000e+03 1.630448341369628906e+01 -6.583678245544433594e+00 -4.910654538168787719e-14 7.045623443393059238e-14 6.404906546266225104e-15 2.148802240743014069e-13
8.168000000000000000e+03 1.607469749450683594e+01 -7.842953205108642578e+00 5.723806929862568574e-15 -3.635545369525677861e-13 -1.073492152375149500e-13 1.862437612985823332e-13
8.169000000000000000e+03 2.250524902343750000e+01 -2.820019149780273438e+01 -1.426900522109690594e-14 -9.761718614432340901e-14 -3.356585571556019998e-14 1.115505122084234357e-13
8.170000000000000000e+03 2.185810661315917969e+01 -2.601042556762695312e+01 -1.279799020665467468e-14 -1.198622229031318098e-13 -3.979806325530958755e-14 -2.724921762569439826e-14
8.171000000000000000e+03 6.058214187622070312e+00 -2.945615768432617188e+01 7.252884274069892889e-14 1.683366309844155917e-13 7.225964211753435618e-14 -4.683421687035234371e-14
8.172000000000000000e+03 5.727666091918945312e+01 3.118149185180664062e+01 -2.453970999929250274e-14 -1.020189182156065744e-13 -3.796758778684336533e-14 -4.398324193038565281e-16
8.173000000000000000e+03 2.207031059265136719e+01 -2.455852890014648438e+01 1.209820377288516741e-14 -3.608226456335017485e-13 -1.046173306947124904e-13 3.055694396516053790e-14
8.174000000000000000e+03 7.652943420410156250e+01 2.875235176086425781e+01 -6.995292068040850908e-14 -1.214817227932277199e-13 -5.743039236446451090e-14 6.963524944387025628e-14
8.175000000000000000e+03 4.802079200744628906e+00 -2.935030364990234375e+01 5.278577867775385846e-14 1.827508007120129396e-13 7.066097246167732382e-14 -9.658236260453104127e-14
8.176000000000000000e+03 1.715433502197265625e+01 -1.602372169494628906e+01 -1.072070898852292564e-13 -3.662025381285377579e-13 -1.420228951803936823e-13 6.197611326051732927e-14
8.177000000000000000e+03 4.578416061401367188e+01 -2.695203208923339844e+01 -3.006884292337114184e-14 3.073699877519792123e-13 8.319034480383513674e-14 -3.843697617676201939e-14
8.178000000000000000e+03 2.772595787048339844e+01 -1.851221203804016113e+00 -5.023395639887871800e-14 1.500372227717164386e-13 2.994097821778542168e-14 -1.809802714592897988e-13
8.179000000000000000e+03 4.339189529418945312e+01 -2.183228492736816406e+01 3.572502062514255894e-14 1.068126232535611397e-13 4.276129282479793070e-14 6.279673233234445151e-14
8.180000000000000000e+03 3.619603347778320312e+01 1.210133171081542969e+01 -7.302360484958553277e-14 -7.704678095608180621e-14 -4.502111574170020170e-14 1.627025100205906766e-14
8.181000000000000000e+03 3.790751266479492188e+01 -1.372103023529052734e+01 -9.784390975924907308e-16 3.198373098485529642e-13 9.565766012414531061e-14 4.314457184529871259e-14
8.182000000000000000e+03 1.268546199798583984e+01 -5.860067367553710938e+00 -2.501477757571590743e-13 -1.987080882866545939e-13 -1.346567578578913849e-13 -5.453866423418569226e-15
8.183000000000000000e+03 2.079515266418457031e+01 -2.189312553405761719e+01 -6.742857127990285141e-16 2.258649437457144887e-14 6.573662614413593869e-15 1.969271981269206384e-14
8.184000000000000000e+03 2.133790016174316406e+01 -2.437630844116210938e+01 -7.726117515942723668e-14 -2.618666730940660825e-13 -1.017383537984216380e-13 6.652053989022674307e-14
8.185000000000000000e+03 1.544396495819091797e+01 -7.971275806427001953e+00 -3.343207872000264480e-14 -1.432803494719105813e-14 -1.432803494719105813e-14 1.451416162820753919e-13
8.186000000000000000e+03 3.712498474121093750e+01 1.130864238739013672e+01 2.961352205664048720e-14 5.844246121116183912e-14 2.641679430271434009e-14 -1.106588236841898887e-14
8.187000000000000000e+03 2.905423927307128906e+01 -2.111522912979125977e+00 -1.249584203472098309e-13 2.895785011520352059e-13 4.938602559670032810e-14 -1.210067338214618204e-13
8.188000000000000000e+03 7.646327972412109375e+01 2.801379776000976562e+01 -9.066001665754622185e-14 -6.172976897440146660e-14 -4.571693297907887532e-14 1.504952304269557839e-13
8.189000000000000000e+03 2.060323524475097656e+01 -2.284796142578125000e+01 -1.645884119369934312e-15 -7.053788629246353879e-16 -7.053788629246353879e-16 -3.914364221212912609e-14
8.190000000000000000e+03 4.104305648803710938e+01 -1.704163360595703125e+01 -1.260318482606062607e-13 3.748824845386036775e-14 -2.656308028083694678e-14 3.737554902616228858e-14
8.191000000000000000e+03 1.630544662475585938e+01 -1.679648590087890625e+01 -7.391406009384787756e-14 -1.689302994364871857e-13 -7.285331056960595020e-14 1.777736622190009830e-13
8.192000000000000000e+03 1.539376544952392578e+01 -1.757351684570312500e+01 -3.640717352701612619e-14 -8.422949837605386847e-14 -3.619100055448146169e-14 8.232925110965641502e-14
8.193000000000000000e+03 1.557804775238037109e+01 -1.107918453216552734e+01 -1.539041788976847069e-13 1.170448557952924462e-13 -1.105779574487155206e-14 1.425836987541118095e-13
8.194000000000000000e+03 6.558536052703857422e+00 -2.575460433959960938e+01 -1.712488691704792260e-14 6.128718409506572762e-14 1.324868966162510986e-14 -1.080872926426980352e-13
8.195000000000000000e+03 6.054529571533203125e+01 -1.722315788269042969e+01 4.900005978769085557e-14 3.183811992258506196e-13 1.102143753323701902e-13 -1.426939993845032645e-14
8.196000000000000000e+03 7.359364318847656250e+01 -2.818119812011718750e+01 -5.993222275879270255e-14 -2.568523735715921852e-14 -2.568523735715921852e-14 1.380643375233775449e-13
8.197000000000000000e+03 1.520817947387695312e+01 -1.181166362762451172e+01 -1.723600645889278304e-13 6.338424793708719029e-14 -3.269274770605762326e-14 1.006986225497328788e-14
8.198000000000000000e+03 1.445887565612792969e+01 -1.053080463409423828e+01 -5.537213957208624027e-14 4.489550753188596699e-14 -3.142989866169966159e-15 1.117998109454593214e-13
8.199000000000000000e+03 2.958464431762695312e+01 -1.339635491371154785e+00 -2.601484498199017892e-14 1.261036224444248011e-13 3.002663357754356555e-14 -1.998784303217440717e-13
8.200000000000000000e+03 7.046364593505859375e+01 -2.298218536376953125e+01 -4.235418846155677985e-14 3.021048580569007935e-13 7.792519477996598387e-14 1.687193407987758187e-14
8.201000000000000000e+03 7.329695129394531250e+01 2.696879196166992188e+01 1.808498521023351596e-14 1.450035566879365190e-13 4.892656104479170542e-14 1.500060519592574804e-13
8.202000000000000000e+03 7.344876098632812500e+01 2.649150466918945312e+01 -7.212709162568442522e-14 -1.910399328964793031e-13 -7.895010464614368728e-14 5.665031228949297948e-14
8.203000000000000000e+03 6.950690460205078125e+01 2.658325195312500000e+01 -1.213640597524587306e-13 8.523967664521292509e-14 -1.083731560980009945e-14 -4.989038458887932320e-15
8.204000000000000000e+03 1.973000335693359375e+01 -2.164497375488281250e+01 3.679889238380334993e-14 -7.573094576570835179e-14 -1.167961533694514276e-14 9.411773389724625849e-14
8.205000000000000000e+03 5.815293502807617188e+01 -1.683803367614746094e+01 3.618803255103428262e-14 1.927940771438707568e-13 6.869463629660330084e-14 4.050603033328367686e-14
8.206000000000000000e+03 1.558008861541748047e+01 -1.956604766845703125e+01 -1.910589877496607358e-13 -4.707654622029822100e-13 -1.985473417620564618e-13 9.707658261233140240e-14
8.207000000000000000e+03 1.236511993408203125e+01 -8.810034751892089844e+00 -1.296122633049137662e-13 1.307830983131785460e-14 -3.496018714322160492e-14 -1.557337294061725275e-13
8.208000000000000000e+03 8.648270606994628906e+00 -9.777442932128906250e+00 3.209936046892451766e-14 -3.064997799832880343e-13 -8.232012348261680268e-14 3.679634789682979801e-14
8.209000000000000000e+03 9.126707077026367188e+00 -1.066780853271484375e+01 1.594267252935654966e-13 -1.146780560052837461e-13 1.342459977004498844e-14 -1.574235940172627468e-13
8.210000000000000000e+03 6.754307556152343750e+01 -1.699204063415527344e+01 1.458129102215651590e-14 4.180076694938056336e-13 1.297766825643711930e-13 2.832603028274805618e-14
8.211000000000000000e+03 5.144028472900390625e+01 2.465891647338867188e+01 7.144068153621795786e-15 -8.844015336696361973e-14 -2.438882632633219971e-14 -7.460766488116832296e-14
8.212000000000000000e+03 1.632453536987304688e+01 -2.000165748596191406e+01 1.045755143721724401e-13 -1.696394896300371102e-13 -1.951919494905165336e-14 2.505757916698020393e-14
8.213000000000000000e+03 1.300965881347656250e+01 -1.140292930603027344e+01 -1.085934100752755302e-14 -4.654003470447439991e-15 -4.654003470447439991e-15 -3.082247524159760499e-14
8.214000000000000000e+03 1.380584907531738281e+01 -1.163060569763183594e+01 -1.397286691733057307e-13 1.231200742485977218e-13 -4.982579832665118280e-15 -3.437493481051392963e-15
8.215000000000000000e+03 4.061677551269531250e+01 1.182372379302978516e+01 1.175811563999124010e-13 -1.783628176795296061e-13 -1.823450007795105604e-14 -8.910919419881369041e-14
8.216000000000000000e+03 4.092097473144531250e+01 -1.356213665008544922e+01 -7.775325386793693894e-14 2.411828603585824959e-13 4.902888601295181392e-14 -1.140430794504404544e-13
8.217000000000000000e+03 4.180483627319335938e+01 -1.380738353729248047e+01 5.585971545344833866e-14 4.356984066068714245e-13 1.474674332299641399e-13 8.239149617281834453e-15
8.218000000000000000e+03 7.341600799560546875e+01 2.465424346923828125e+01 -3.528180894142585178e-14 2.136339743346107878e-13 5.350564826270276519e-14 1.375361006724154511e-13
8.219000000000000000e+03 5.817486190795898438e+01 2.880058479309082031e+01 3.606314347219226682e-15 -1.700204918259756726e-13 -4.992425404830823366e-14 6.491761474084270511e-14
8.220000000000000000e+03 3.204642486572265625e+01 -9.000944495201110840e-01 -5.326453186393735606e-14 1.601761393877146333e-13 3.207348191832000428e-14 -9.148909928258230906e-14
8.221000000000000000e+03 7.369743347167968750e+01 2.409823608398437500e+01 6.895235708223373602e-15 2.317098336118705859e-13 7.158152109248971939e-14 -1.224276349786126983e-13
8.222000000000000000e+03 7.322379302978515625e+01 2.381735992431640625e+01 -7.799413309747711687e-15 4.240834436007243080e-14 1.038267914569082628e-14 2.471399278801411636e-13
8.223000000000000000e+03 4.557749557495117188e+01 -1.928663444519042969e+01 -9.582225556645576625e-14 1.876880676701317419e-13 2.755974159822371927e-14 1.735539609162145558e-13
8.224000000000000000e+03 3.614817428588867188e+01 -2.315344810485839844e+00 1.426033499184881093e-14 6.111572260368482862e-15 6.111572260368482862e-15 -8.885559253440575289e-14
8.225000000000000000e+03 1.103172588348388672e+01 -1.173021316528320312e+01 -3.388193453015761469e-14 5.410559492297940809e-14 6.067098371956422195e-15 -1.101156112907203388e-13
8.226000000000000000e+03 5.657190704345703125e+01 2.581130790710449219e+01 2.528641697614221473e-14 1.709653604667696336e-13 5.887553221643401780e-14 3.734462893545571760e-14
8.227000000000000000e+03 4.133929824829101562e+01 -1.270390319824218750e+01 -3.886725536144004789e-14 1.663464017139654194e-13 3.824374424457079036e-14 -1.047294778569289597e-13
8.228000000000000000e+03 4.191397476196289062e+01 -1.194363021850585938e+01 -1.557164872034982189e-14 1.763302367617167188e-13 4.822757590419030072e-14 -7.686634938578948417e-14
8.229000000000000000e+03 9.577014923095703125e+00 -1.231422328948974609e+01 -8.535999936943629296e-15 -4.940923429945509593e-14 -1.738357077913938592e-14 -1.738489723273478615e-13
8.230000000000000000e+03 3.707703018188476562e+01 -1.763699412345886230e+00 -9.118131461460440845e-14 5.242419047696636469e-14 -1.162713741069800258e-14 -4.259622982030059068e-14
8.231000000000000000e+03 4.227355957031250000e+01 -8.880768716335296631e-02 4.496706275768764215e-16 1.831965162251217305e-13 5.509385536759531243e-14 -5.861343311749922513e-14
8.232000000000000000e+03 4.182370758056640625e+01 7.025722265243530273e-01 -5.732532639768708749e-14 1.126848519551228167e-13 1.660785800604389767e-14 -8.225174420685085752e-14
8.233000000000000000e+03 7.425182819366455078e+00 -1.941870117187500000e+01 -2.255909963499135029e-14 -1.011700827822405169e-13 -3.711875574160909685e-14 -6.095901303811331051e-16
8.234000000000000000e+03 7.798801898956298828e+00 -2.022389984130859375e+01 -6.173941837373658759e-14 1.929119739657331883e-14 -1.273446612374239117e-14 -6.855362225154440492e-14
8.235000000000000000e+03 4.263153839111328125e+01 8.903050422668457031e-01 3.011490457504283069e-14 1.501592361737025261e-13 5.408224053055771252e-14 -1.160443692771158733e-14
8.236000000000000000e+03 7.279360198974609375e+01 2.381846427917480469e+01 -3.818307635675664835e-14 2.581415170597317621e-13 6.598753254970571303e-14 3.453670116278055591e-15
8.237000000000000000e+03 6.383975505828857422e+00 -1.398649120330810547e+01 -1.563180500026382230e-14 -1.439521922887501693e-13 -4.787520003373714472e-14 7.450429298028540814e-14
8.238000000000000000e+03 5.983973693847656250e+01 2.910708618164062500e+01 1.179449926261419077e-14 5.054785579770284740e-15 5.054785579770284740e-15 1.337613677996783365e-14
8.239000000000000000e+03 3.712126922607421875e+01 -2.729538202285766602e+00 -7.178368414007679776e-14 -8.795312297481955310e-14 -4.792104145684254746e-14 -6.177577302783274216e-15
8.240000000000000000e+03 3.574382400512695312e+01 -3.106036901473999023e+00 -3.378654506776962441e-14 -1.059818465626305439e-13 -4.193051613386733489e-14 -8.335413387077980629e-14
8.241000000000000000e+03 4.236900711059570312e+01 1.067679691314697266e+01 -1.048749777884765144e-13 -2.279502270535055386e-13 -9.984755941971554249e-14 -1.001117185027780576e-13
8.242000000000000000e+03 7.319149780273437500e+01 -2.166943359375000000e+01 1.024566445139568627e-13 1.811628375526092016e-13 8.508584190946438808e-14 1.230668670269829956e-13
8.243000000000000000e+03 4.755013275146484375e+01 1.966828536987304688e+01 7.624167275158480472e-14 1.870844516631275933e-13 7.899783664678736161e-14 1.113706024104266223e-14
8.244000000000000000e+03 4.337446975708007812e+01 -1.038839340209960938e+01 -7.161991370785696781e-15 3.171872215834009578e-13 9.300756508272972622e-14 -5.445405411308446020e-14
8.245000000000000000e+03 4.287824249267578125e+01 -1.337024974822998047e+01 1.196959537237175797e-14 2.796355269736594540e-13 8.748153568736982688e-14 6.885924698550680706e-15
8.246000000000000000e+03 1.124466037750244141e+01 -1.507648277282714844e+01 7.017497883786069646e-14 -1.071778570841536160e-13 -1.110086398210764422e-14 6.995631558846110432e-14
8.247000000000000000e+03 4.136864471435546875e+01 3.567892313003540039e+00 3.653281223001646205e-14 1.529097622176081583e-13 5.683277335072692282e-14 -1.454587454175274019e-13
8.248000000000000000e+03 4.315987777709960938e+01 6.490674018859863281e+00 1.043342726125308373e-13 -9.253815975215212708e-14 3.538833561652081523e-15 5.433769550305424245e-14
8.249000000000000000e+03 4.371274185180664062e+01 6.890757560729980469e+00 -1.225540665044516642e-13 -6.772223654392473327e-15 -3.879788675119170971e-14 -1.420456363209615658e-13
8.250000000000000000e+03 4.065979385375976562e+01 -6.264802455902099609e+00 -2.676342559571921742e-14 2.859111330934943629e-13 7.774430920001393353e-14 -7.343943026405161389e-14
8.251000000000000000e+03 5.939766693115234375e+01 2.762077522277832031e+01 -2.734964862818444614e-14 -2.404760147522305713e-13 -8.034770223284970481e-14 6.424947515204851300e-14
8.252000000000000000e+03 7.380081176757812500e+01 2.295458602905273438e+01 1.026580486200232012e-13 2.498755868017565884e-13 1.057600865607757901e-13 -3.240958797992229967e-14
8.253000000000000000e+03 7.385165405273437500e+01 2.353605842590332031e+01 -8.624628382346635758e-14 -8.271364143738399455e-14 -5.068797622300239003e-14 9.219906197018012950e-14
8.254000000000000000e+03 4.240576934814453125e+01 1.166290092468261719e+01 1.367410772421884593e-14 5.860332123817490330e-15 5.860332123817490330e-15 -7.083354356621912595e-14
8.255000000000000000e+03 4.457262420654296875e+01 6.519652843475341797e+00 -2.030957663872769159e-14 1.285487422888684228e-13 3.247175003385539827e-14 -1.574765437408615076e-13
8.256000000000000000e+03 5.754667282104492188e+01 -1.131503009796142578e+01 6.996837733763000555e-14 1.214883499790070376e-13 5.743701955024382855e-14 -1.165014536664427114e-14
8.257000000000000000e+03 6.395897293090820312e+01 -1.273410797119140625e+01 5.058561737352439136e-14 1.103220162793072667e-13 4.827228907940996072e-14 6.053619113150290887e-14
8.258000000000000000e+03 4.505934143066406250e+01 5.962431430816650391e+00 -1.480587164372562659e-14 -2.808510531342872651e-13 -8.869708217678837214e-14 -1.383011001727940670e-13
8.259000000000000000e+03 4.437707138061523438e+01 4.903243064880371094e+00 4.933869000747596878e-14 -2.762360110618311548e-13 -6.806919394461430350e-14 -4.792382311304133058e-14
8.260000000000000000e+03 4.495314025878906250e+01 -1.401782608032226562e+01 -4.686389012856055636e-14 2.086702257384290271e-13 4.854189966652100452e-14 1.067280080502622241e-13
8.261000000000000000e+03 7.301809692382812500e+01 2.217348098754882812e+01 -6.272282362549883028e-15 8.881377621186570259e-14 2.476244747716838807e-14 -4.189700073421037674e-14
8.262000000000000000e+03 7.231935882568359375e+01 2.256958580017089844e+01 8.231957460526698189e-14 -1.047113056120785660e-14 2.155453380614080067e-14 -7.473983590225788398e-14
8.263000000000000000e+03 7.100991821289062500e+01 2.350610160827636719e+01 -3.565558425225844041e-14 -1.182206052887171954e-13 -4.616285516822679624e-14 8.770194721277255190e-14
8.264000000000000000e+03 4.957977676391601562e+01 -1.148663330078125000e+01 8.886944999342283324e-14 3.583435360509507062e-13 1.341638931028066306e-13 -8.290801178185633336e-14
8.265000000000000000e+03 5.078620147705078125e+01 -1.109850025177001953e+01 1.168799588092527680e-15 1.377537542585419161e-13 4.167676877979246963e-14 3.939574632228631801e-14
8.266000000000000000e+03 4.258710861206054688e+01 -1.196640872955322266e+01 -7.723133757682725670e-15 8.819198626594526580e-14 2.414065414311616226e-14 -1.501155834837328285e-14
8.267000000000000000e+03 4.081674194335937500e+01 -5.657403945922851562e+00 1.941471343500783542e-14 5.407154081036799620e-14 2.204587559598639168e-14 -1.202981670441610751e-13
8.268000000000000000e+03 6.511989593505859375e+00 -1.515686416625976562e+01 2.500588644027516849e-14 7.791351250155745256e-14 3.087582137661568082e-14 1.039202564604400914e-13
8.269000000000000000e+03 7.217435836791992188e+00 -1.512670803070068359e+01 -1.379811521116935946e-13 -5.913477850840245797e-14 -5.913477850840245797e-14 4.686953475612105902e-14
8.270000000000000000e+03 6.998880386352539062e+00 -1.557100296020507812e+01 -7.621298205159540706e-14 1.308824298669030578e-14 -1.893742053362540423e-14 1.340984072915885061e-13
8.271000000000000000e+03 4.415585327148437500e+01 -1.602723121643066406e+01 1.834788899046820021e-14 1.222407591816576655e-13 4.217659275757186521e-14 -1.986663685258705306e-15
8.272000000000000000e+03 4.273758697509765625e+01 -1.288971519470214844e+01 -1.096515795371601210e-13 2.163288943595950697e-14 -2.640560669154700529e-14 -8.124390374862622277e-14
8.273000000000000000e+03 4.234276962280273438e+01 -4.578117370605468750e+00 -8.896317249497062707e-14 7.623875895824624993e-15 -2.440178762449108502e-14 -1.406104372476610354e-13
8.274000000000000000e+03 4.848737716674804688e+01 1.964272308349609375e+01 -5.615468620700017621e-14 1.024691839897080153e-14 -1.377232966478245460e-14 4.111194349364077905e-14
8.275000000000000000e+03 7.095216369628906250e+01 2.302683258056640625e+01 4.416757758141098833e-14 2.934346559138600874e-13 1.012806714038340383e-13 -3.615295861075437656e-14
8.276000000000000000e+03 6.104018020629882812e+01 -8.004964828491210938e+00 2.528013199167358782e-14 -3.491660560401947666e-14 -2.890942718978477093e-15 6.588378795432600632e-14
8.277000000000000000e+03 9.808870315551757812e+00 -1.607807540893554688e+01 -2.520044652012769226e-14 -3.539322968818675585e-13 -1.137398281027962588e-13 -1.862514659102705583e-14
8.278000000000000000e+03 6.775779724121093750e+01 -1.163911533355712891e+01 -8.839143880810113041e-14 5.361985202091516800e-14 -1.043147586674919927e-14 1.129731616415774464e-13
8.279000000000000000e+03 4.462602996826171875e+01 -1.479166221618652344e+01 -4.933312669507840253e-14 5.892139396833015463e-14 2.876479419645873101e-15 1.129030205372812123e-13
8.280000000000000000e+03 4.370395660400390625e+01 -1.204203796386718750e+01 -6.506030252300537553e-14 2.923736556678657728e-13 6.819400594345811917e-14 -1.206279779568993765e-14
8.281000000000000000e+03 4.634861755371093750e+01 -1.186945533752441406e+01 -6.597500323834992741e-14 1.089778427546504724e-13 1.290085219370334241e-14 -7.443565451243760317e-15
8.282000000000000000e+03 5.985634231567382812e+01 2.518235206604003906e+01 -7.989119890812468316e-14 -2.172428767910003500e-13 -8.914022270973750994e-14 2.435811121759886427e-14
8.283000000000000000e+03 4.539381027221679688e+01 4.735500335693359375e+00 2.251714778717973930e-14 -1.276026403681032595e-13 -3.152564811309023496e-14 -4.623270150505738585e-14
8.284000000000000000e+03 4.538455963134765625e+01 -1.235307025909423828e+01 1.064825379021479279e-13 3.658920226263379094e-13 1.417123661256666778e-13 1.217815724565557423e-13
8.285000000000000000e+03 3.980107498168945312e+01 -5.661829471588134766e+00 -1.025338888365487713e-14 4.073642193968413094e-13 1.191332460199340249e-13 -1.260149618117697989e-13
8.286000000000000000e+03 6.462976074218750000e+01 -1.133792591094970703e+01 -1.083821346472418901e-13 4.505240852690356457e-14 -1.899891851372785545e-14 9.845797137655876163e-14
8.287000000000000000e+03 4.450799179077148438e+01 -9.395969390869140625e+00 1.925942688478770454e-14 3.170729466744209857e-13 1.008997098654769442e-13 1.024603443538704695e-13
8.288000000000000000e+03 7.013491821289062500e+01 2.465412330627441406e+01 -3.870056266555219060e-14 -6.233690186220261498e-14 -3.031124003595279948e-14 -2.685366679185379607e-14
8.289000000000000000e+03 7.214920043945312500e+01 -1.373059940338134766e+01 -4.432359088589986340e-14 1.182570209291855523e-13 2.218003036823842228e-14 -1.533368836634588228e-14
8.290000000000000000e+03 4.463006210327148438e+01 -1.091758823394775391e+01 -2.597329462779556647e-14 4.006271226222879456e-13 1.123961492453806610e-13 1.695862790202905951e-14
8.291000000000000000e+03 4.495710754394531250e+01 -1.136475563049316406e+01 8.517011829958440194e-14 2.538184777373803103e-13 1.016965781334630559e-13 1.648525879607148914e-13
8.292000000000000000e+03 7.223204040527343750e+01 1.973394966125488281e+01 1.316955713318718191e-13 5.139504273554695857e-13 1.936938023167078526e-13 1.308170965216154391e-13
8.293000000000000000e+03 5.405890655517578125e+01 2.076219177246093750e+01 -6.783316313166420919e-14 1.081814894826962914e-13 1.210449722768326686e-14 -3.285364457900389300e-15
8.294000000000000000e+03 7.264122772216796875e+01 -1.288997840881347656e+01 1.400386967845279607e-13 2.658958665226196505e-13 1.217803662816388521e-13 -2.308095121278386230e-13
8.295000000000000000e+03 7.197881317138671875e+01 -1.303651332855224609e+01 -8.964059556486672631e-14 -8.416834937352568602e-14 -5.214268415914408150e-14 2.587343317025925238e-13
8.296000000000000000e+03 4.498106384277343750e+01 1.128040409088134766e+01 -5.777883630797651243e-15 2.262785092762772954e-13 6.615018998063285083e-14 -1.124640812877504559e-13
8.297000000000000000e+03 4.771678543090820312e+01 3.308341503143310547e+00 -6.239196578003772253e-14 -2.673941221166455801e-14 -2.673941221166455801e-14 -7.891726009658095453e-14
8.298000000000000000e+03 4.558001327514648438e+01 -1.162553024291992188e+01 -8.972780607711602907e-14 1.445490184796491273e-13 1.644636439838628728e-14 1.066962849723216561e-14
8.299000000000000000e+03 4.515486145019531250e+01 -1.075564479827880859e+01 6.321599331244459608e-14 -1.865838077574552556e-14 1.336728274457018445e-14 4.528559330915088443e-14
8.300000000000000000e+03 6.019037246704101562e+01 2.468010902404785156e+01 2.998447844182461353e-14 1.501033319991837423e-13 5.402634652043429575e-14 1.131663393636600512e-13
8.301000000000000000e+03 6.721121215820312500e+01 -1.059086513519287109e+01 1.389866971106311702e-14 2.804622582352339633e-13 8.830828050147149222e-14 7.757497037319885380e-14
8.302000000000000000e+03 4.852287292480468750e+01 1.778751182556152344e+01 -1.122757147128082555e-13 1.348856329365030748e-13 6.782974620075498534e-15 -1.296829888619436058e-14
8.303000000000000000e+03 4.929099273681640625e+01 1.868675231933593750e+01 9.070919200233201751e-14 3.887536993707474409e-14 3.887536993707474409e-14 7.615322895936429970e-14
8.304000000000000000e+03 4.696761322021484375e+01 -8.206479072570800781e+00 5.545551810728216457e-14 2.525213924683272770e-13 9.239307317268283248e-14 -4.551173755354062656e-14
8.305000000000000000e+03 4.604887771606445312e+01 -8.431875228881835938e+00 -2.060767633198668652e-14 2.542360853091674144e-13 7.008852726713213355e-14 -6.814776895596634868e-15
8.306000000000000000e+03 4.466371536254882812e+01 -5.726483345031738281e+00 -1.356203764200057671e-14 1.282236849250301125e-13 3.439849249084296623e-14 9.237014568486655308e-15
8.307000000000000000e+03 4.583245086669921875e+01 -1.083431243896484375e+01 7.364681103459377876e-14 3.518195663184536803e-13 1.276399098177824487e-13 2.464804381918043324e-14
8.308000000000000000e+03 4.561096572875976562e+01 -4.731315612792968750e+00 -2.332471916348735630e-14 5.863011627842834583e-14 1.059161930388888631e-14 -4.250289017764495580e-14
8.309000000000000000e+03 4.644035720825195312e+01 -4.560922622680664062e+00 -6.094315996947249903e-14 1.568853011911508499e-13 2.878264033362443186e-14 -4.391001857907347872e-14
8.310000000000000000e+03 4.559674835205078125e+01 -5.309726238250732422e+00 -7.544661374597402825e-14 1.277940562616555753e-13 1.570423309351764302e-14 3.655153843441436012e-14
8.311000000000000000e+03 7.077110290527343750e+01 2.165376091003417969e+01 -1.546838015748647210e-14 -9.813120639429878667e-14 -3.407987596553557763e-14 5.252400822760260046e-14
8.312000000000000000e+03 5.769184112548828125e+01 -8.449041366577148438e+00 1.245427101292245764e-14 1.883413401366357265e-13 6.023868605537288645e-14 -5.604529020779638881e-15
8.313000000000000000e+03 7.067661285400390625e+01 9.600525856018066406e+00 1.108695925865210707e-13 4.135231382578624659e-13 1.573178165428096298e-13 -1.144232837413427031e-14
8.314000000000000000e+03 4.600146484375000000e+01 1.227538108825683594e+01 3.045599457850677039e-14 -1.242002784255721859e-13 -2.812328447649326685e-14 -8.516282703997443693e-14
8.315000000000000000e+03 5.470038604736328125e+01 1.956609725952148438e+01 -7.389198641524243050e-15 2.713388866891486284e-13 7.918490895538615737e-14 2.076167030992930734e-14
8.316000000000000000e+03 5.417404174804687500e+01 2.027491950988769531e+01 -7.069981569857251152e-15 6.374832844761868511e-13 1.891239985798987000e-13 -1.479799898070066622e-13
8.317000000000000000e+03 4.665183639526367188e+01 1.248436450958251953e+01 -6.142071036887089552e-14 -7.207410802076777423e-14 -4.004844619451795873e-14 -8.310942266418624991e-14
8.318000000000000000e+03 4.672669601440429688e+01 -4.033696174621582031e+00 -4.660323098563609601e-14 4.865360975973669067e-14 6.151133145928231773e-16 -1.158936499285473376e-13
8.319000000000000000e+03 5.051994323730468750e+01 -7.580972671508789062e+00 -2.634869285375509435e-14 1.259605484152381827e-13 2.988355616022515815e-14 -1.320294480027569411e-14
8.320000000000000000e+03 6.570774841308593750e+01 -9.165290832519531250e+00 4.863383323448419726e-14 2.953487606392746212e-13 1.031947829055121502e-13 2.847572641551630868e-14
8.321000000000000000e+03 6.227841186523437500e+01 2.502190589904785156e+01 9.345517794964036673e-14 2.230560164741615670e-13 9.495335561663514889e-14 1.076707489442926824e-13
8.322000000000000000e+03 5.788633728027343750e+01 -7.744561672210693359e+00 2.522520698724182997e-14 2.052523325997770987e-13 6.914326560305064651e-14 -4.290905264024875987e-14
8.323000000000000000e+03 7.020197296142578125e+01 1.027046489715576172e+01 6.067994956331090872e-15 2.600569236747862258e-15 2.600569236747862258e-15 -1.939584425144844082e-13
8.324000000000000000e+03 6.969386291503906250e+01 2.299183607101440430e+00 6.986573727321351845e-14 1.214443584758584382e-13 5.739302804709522920e-14 -2.917016468325685230e-14
8.325000000000000000e+03 6.958749389648437500e+01 1.794537162780761719e+01 6.251738764260356129e-14 2.679316661656321041e-14 2.679316661656321041e-14 -1.152169993526991343e-13
8.326000000000000000e+03 6.505106353759765625e+01 2.261369514465332031e+01 1.854845792204854599e-14 -8.355255642087180967e-14 -1.950122938024038965e-14 2.330702091827424605e-13
8.327000000000000000e+03 7.012880706787109375e+01 -5.678208351135253906e+00 -1.296964244985529535e-13 5.849290778299487403e-13 1.365698054861877453e-13 -5.628283890378796284e-14
8.328000000000000000e+03 4.779953765869140625e+01 1.514673519134521484e+01 3.330183723996692907e-15 -7.863693962488482736e-14 -2.259202719378291396e-14 -6.078649953181192167e-14
8.329000000000000000e+03 4.907733535766601562e+01 1.637813186645507812e+01 4.033507536760523593e-14 1.087883580962178964e-13 4.473703105558647641e-14 1.097090896861468989e-13
8.330000000000000000e+03 6.363348770141601562e+01 2.245711898803710938e+01 1.172798430636515232e-13 1.875156388671250784e-13 9.143864322398026490e-14 1.592262834169272390e-13
8.331000000000000000e+03 6.933306121826171875e+01 3.276326894760131836e+00 -3.533004916183787869e-14 7.636044709958059173e-14 1.230911921191622446e-14 -1.229698038274912308e-14
8.332000000000000000e+03 5.012407684326171875e+01 1.581018829345703125e+01 -1.043114467686682284e-14 1.785333084711529517e-13 5.043064761362653359e-14 -1.593442581658208179e-13
8.333000000000000000e+03 6.065244674682617188e+01 1.895341682434082031e+01 4.363431951913757101e-14 2.474551596617913241e-13 8.732684714241045754e-14 1.454979122210084408e-13
8.334000000000000000e+03 5.459963607788085938e+01 -1.505622982978820801e+00 1.072509729681606072e-13 1.145911300961047208e-13 6.655263227453231401e-14 -3.438428266611982809e-14
8.335000000000000000e+03 6.257013320922851562e+01 2.078216743469238281e+01 -6.670866251968013416e-14 -1.200913283747051530e-13 -5.603999455781015493e-14 -2.987526201360564404e-14
8.336000000000000000e+03 6.785849761962890625e+01 1.237971782684326172e+01 4.378315676049730765e-14 1.102661053285249049e-13 4.621477828789348485e-14 -8.579619084408615648e-14
8.337000000000000000e+03 6.533090972900390625e+01 2.002868652343750000e+01 -7.799004362240777311e-14 1.610172227755474195e-13 2.490815408475507281e-14 -2.160688755735787336e-13
8.338000000000000000e+03 6.383570480346679688e+01 2.190705871582031250e+01 -3.770107395218748325e-14 -3.903307730745812776e-14 -2.302024639433322001e-14 3.401900140168230557e-14
8.339000000000000000e+03 6.730719757080078125e+01 -3.097365379333496094e+00 1.205009128504158644e-13 1.545828894576606327e-13 8.252513933717023353e-14 1.651998956095281513e-15
8.340000000000000000e+03 6.868694305419921875e+01 4.158639907836914062e+00 2.087126112671096323e-14 1.919486162897665604e-13 6.384596220850372039e-14 2.475521889799651987e-14
8.341000000000000000e+03 6.819499969482421875e+01 3.957748889923095703e+00 9.624764228883045392e-15 9.562679424354736391e-14 3.157546720291594389e-14 -5.353800830941966848e-14
8.342000000000000000e+03 5.192447662353515625e+01 1.540179729461669922e+01 -8.651393268227156041e-14 7.015139066434555870e-14 -4.908763028894274141e-15 -8.039262886037207290e-14
8.343000000000000000e+03 5.381966781616210938e+01 9.853614807128906250e+00 1.383747852629416131e-13 8.217895358349561197e-14 6.616612097630480971e-14 -2.951292639094549308e-13
8.344000000000000000e+03 6.502533721923828125e+01 1.962062072753906250e+01 -1.104853377840650519e-13 3.644076685370423174e-13 7.617670193639861087e-14 -7.131724681294637769e-14
8.345000000000000000e+03 5.730465316772460938e+01 -4.926323294639587402e-01 2.884986764458211117e-14 3.783718130478952446e-13 1.221665048853695645e-13 -7.964668421317488978e-14
8.346000000000000000e+03 5.520323562622070312e+01 1.519601941108703613e+00 6.545798787987305856e-14 1.967600480332412638e-13 7.866541348443972792e-14 -1.254721695466420872e-13
8.347000000000000000e+03 6.091851806640625000e+01 8.878173232078552246e-01 -1.827382951175796771e-14 1.751721597637034833e-13 4.706949890617706522e-14 -5.623041434061649968e-14
8.348000000000000000e+03 6.357183074951171875e+01 1.760684204101562500e+01 -9.985886900362728191e-14 5.062147532750027601e-13 1.219067571498963498e-13 -2.365993414642914017e-14
8.349000000000000000e+03 6.301498413085937500e+01 1.651081275939941406e+01 -1.266124385239722483e-13 -5.426247220107448255e-14 -5.426247220107448255e-14 -8.666616144355210327e-14
8.350000000000000000e+03 6.300223159790039062e+01 1.699697875976562500e+01 4.298142652339395631e-14 2.014244077520183085e-13 7.332174689449189042e-14 -1.052721888068937350e-13
8.351000000000000000e+03 5.445168685913085938e+01 9.509464263916015625e+00 -8.951684066314108401e-14 3.026206469116700382e-14 -1.777643143633950845e-14 -5.773505317493293765e-14
8.352000000000000000e+03 5.519627380371093750e+01 1.049950504302978516e+01 -3.859236945313350431e-14 5.208683758286571097e-14 4.048339761293304195e-15 -2.168067734077770009e-14
8.353000000000000000e+03 6.113234710693359375e+01 1.434460520744323730e+00 -9.659653727738686836e-16 1.368388638078171793e-13 4.076186816467236573e-14 -1.210202863486178892e-13
8.354000000000000000e+03 6.054014968872070312e+01 1.420469760894775391e+00 -5.506973864552108799e-14 1.594024798224832895e-13 3.129982235308866045e-14 -3.724537361469645869e-14
8.355000000000000000e+03 6.226325988769531250e+01 1.506456089019775391e+01 -7.645926535133906743e-14 2.646129029868632410e-13 5.644609264590996767e-14 -7.353480617391244811e-14
8.356000000000000000e+03 6.564125823974609375e+01 3.589397430419921875e+00 2.604865514911278157e-14 4.586651696468491135e-13 1.454141440506567795e-13 -2.083233623583966021e-13
8.357000000000000000e+03 6.519934082031250000e+01 3.061591148376464844e+00 -1.452490742698958615e-13 5.439504640984693662e-13 1.196104169485720514e-13 -2.129872138574052942e-14
8.358000000000000000e+03 5.953631973266601562e+01 4.618267536163330078e+00 -1.824079082224372428e-13 1.505799201691540579e-13 -9.548396585391544927e-15 -7.973743871127550453e-14
8.359000000000000000e+03 5.644886779785156250e+01 1.202272319793701172e+01 5.761933492181084415e-14 4.756947534988696658e-14 3.155664274269616432e-14 -9.295517101274436422e-14
8.360000000000000000e+03 5.585478210449218750e+01 1.177801990509033203e+01 8.323815642557585298e-15 9.506925005261027128e-14 3.101791962384706225e-14 -8.382703914149546021e-15
8.361000000000000000e+03 5.624227905273437500e+01 1.118069076538085938e+01 -8.851592554629320042e-14 1.450683919778511521e-13 1.696574128472010112e-14 -9.715755218582533548e-14
8.362000000000000000e+03 5.638415527343750000e+01 2.224989652633666992e+00 -8.109246781018430994e-14 -3.475391429177444869e-14 -3.475391429177444869e-14 -2.871751705250773223e-14
8.363000000000000000e+03 6.283049011230468750e+01 1.525514602661132812e+01 5.337229139548704815e-14 4.575078380378294618e-13 1.532640388299949530e-13 9.305978296986205933e-15
8.364000000000000000e+03 6.119930648803710938e+01 2.135439872741699219e+00 -1.060610017915514583e-14 2.242092687725072420e-13 6.408094947686279741e-14 -6.655696908322225602e-14
8.365000000000000000e+03 6.425524902343750000e+01 1.223393058776855469e+01 9.369957871865875441e-16 4.615251797813850476e-14 1.412685445782279475e-14 -2.166627337610305126e-13
8.366000000000000000e+03 5.636455917358398438e+01 9.979096412658691406e+00 -8.035334686041020746e-14 -3.089428398436039336e-13 -1.167888621098414625e-13 -6.212660729832189532e-14
8.367000000000000000e+03 5.609463500976562500e+01 8.903179168701171875e+00 -1.165640798944309053e-13 1.330477611763414281e-13 4.945101589364430880e-15 -1.281533235921675923e-14
8.368000000000000000e+03 6.384004974365234375e+01 1.428926086425781250e+01 5.176926799028112869e-14 -9.219054420686254026e-14 -1.212638201794147622e-14 -1.471621490032465340e-13
8.369000000000000000e+03 5.923349761962890625e+01 6.030303478240966797e+00 -3.609087787198421438e-14 -8.409394599943886828e-14 -3.605544478973467248e-14 -1.080756374693438160e-13
8.370000000000000000e+03 5.735408020019531250e+01 1.114337348937988281e+01 -7.900020156277609562e-14 5.764467137132911478e-14 -6.406659480950567878e-15 -1.294999264073171119e-13
8.371000000000000000e+03 5.854294586181640625e+01 1.193644809722900391e+01 -7.901532448901637390e-15 8.811552968399430363e-14 2.406419756116520009e-14 -1.277542795944525134e-13
8.372000000000000000e+03 5.974095535278320312e+01 5.932419776916503906e+00 -2.841368464026172019e-14 7.932460162904733658e-14 1.527327628248181107e-14 -4.427300184312510031e-15
8.373000000000000000e+03 5.954794311523437500e+01 6.522122859954833984e+00 9.658362976582013371e-14 -5.010891400707324916e-14 1.394241472762406536e-14 -1.045307639275031009e-13
8.374000000000000000e+03 6.058927536010742188e+01 6.504920005798339844e+00 -9.107334840701558631e-14 9.822141201504958063e-14 2.144419336520082472e-15 -1.963423388175004891e-14
8.375000000000000000e+03 6.056060028076171875e+01 9.934432029724121094e+00 -8.392138167116064418e-14 5.130450643313355652e-13 1.287371088638106231e-13 -9.015185109930226592e-14
8.376000000000000000e+03 6.003004074096679688e+01 1.005636596679687500e+01 -9.893830682028773027e-14 4.608582938013527919e-13 1.085759967719458763e-13 -3.472019560421014950e-14
8.377000000000000000e+03 1.433146190643310547e+01 -1.753513455390930176e+00 -1.551534237458768173e-13 7.075851677588312905e-14 -2.531847378506400098e-14 -7.603615545352659932e-14
8.378000000000000000e+03 1.461560821533203125e+01 -1.029834270477294922e+00 -2.738300851259228841e-13 -7.160480433414384560e-14 -1.036304695485254501e-13 -7.676555246506622243e-14
8.379000000000000000e+03 1.356904220581054688e+01 -1.317859172821044922e+00 -2.373302834639268166e-13 8.129081582137695494e-14 -4.681184164801767411e-14 -8.893575573253389988e-14
8.380000000000000000e+03 1.309440898895263672e+01 -1.452169060707092285e+00 -1.372673811639649188e-13 3.267301861465017609e-14 -3.137831181411303294e-14 1.090164674570452685e-13
8.381000000000000000e+03 1.309423923492431641e+01 -1.821114659309387207e+00 -2.174702339865705603e-13 2.270551097399015061e-13 2.875466156482720144e-15 1.737659495459897840e-13
8.382000000000000000e+03 1.541071224212646484e+01 -1.888036251068115234e+00 -1.757806953380652848e-13 1.076692107324604686e-13 -2.043344673693416047e-14 -6.690277536613650766e-14
8.383000000000000000e+03 1.595265197753906250e+01 -1.849777936935424805e+00 -7.604535761946557004e-14 -2.384701323129151396e-13 -9.435464562446149728e-14 2.967303797964636336e-14
8.384000000000000000e+03 1.572353076934814453e+01 -1.094007492065429688e+00 -4.874533394115532214e-13 -4.878026151414194267e-14 -1.608700829882139804e-13 -7.275752130766685588e-14
8.385000000000000000e+03 1.327057266235351562e+01 -7.542645335197448730e-01 -3.155590209708708516e-13 -4.373768125562511877e-14 -1.077890082962565388e-13 -2.584443550552976976e-14
8.386000000000000000e+03 1.314468669891357422e+01 -1.118882536888122559e+00 -1.098367883732749573e-13 9.017993871183321852e-14 -5.897055660762174148e-15 1.477624310885702896e-13
8.387000000000000000e+03 1.370319938659667969e+01 -1.771014451980590820e+00 -1.456438322808978336e-13 -1.081697326653884017e-13 -7.614406745100679719e-14 -8.112062318535104288e-14
8.388000000000000000e+03 1.393694591522216797e+01 -8.931151628494262695e-01 -1.668730258141959411e-13 1.572377346598444192e-13 -2.890587812173577541e-15 5.392739951966783740e-14
8.389000000000000000e+03 1.489928531646728516e+01 -1.856652021408081055e+00 -2.011855546252879628e-14 -1.001241326176530166e-13 -3.607280557702159662e-14 -2.137291130752463908e-13
8.390000000000000000e+03 1.517100048065185547e+01 -1.335440635681152344e+00 -5.406954723362333848e-13 -3.117907950052345445e-13 -2.557458639394077915e-13 5.800773002131304201e-15
8.391000000000000000e+03 1.108783340454101562e+01 -4.624224603176116943e-01 1.259274260388687505e-13 2.369726864823867851e-13 1.088700391773875231e-13 -3.460657121653366863e-14
8.392000000000000000e+03 1.164011859893798828e+01 -1.072499155998229980e+00 -4.925413917868104452e-14 2.533967773023920733e-13 6.124279279236602425e-14 -2.297877600004882837e-13
8.393000000000000000e+03 1.013774681091308594e+01 -1.257878899574279785e+00 -1.005327616401992252e-13 3.686730825139261647e-13 8.044208880822814600e-14 -2.841772329335422870e-14
8.394000000000000000e+03 1.255752658843994141e+01 -1.767974138259887695e+00 -8.931715095175998820e-14 -4.042863591645351473e-13 -1.480810510020094672e-13 -7.359778476760669985e-14
8.395000000000000000e+03 1.176085662841796875e+01 -5.882521867752075195e-01 -1.820981381092309781e-13 -2.610458507343316192e-13 -1.329431898768052012e-13 -1.309353152159978273e-13
8.396000000000000000e+03 1.158604240417480469e+01 -1.551397085189819336e+00 -8.596758965502895866e-14 -1.283451562259299572e-13 -6.429381902090317014e-14 -7.524393570235501927e-14
8.397000000000000000e+03 1.108550262451171875e+01 -1.457212448120117188e+00 1.322821924698222573e-13 4.226999609710513361e-13 1.664946392559985000e-13 -1.177250300282012274e-13
8.398000000000000000e+03 1.060252857208251953e+01 -1.400649070739746094e+00 -1.117170592146443653e-13 2.266269583019869804e-13 3.447297040382914235e-14 8.841131358917550531e-14
8.399000000000000000e+03 1.264532089233398438e+01 -6.672096848487854004e-01 -1.046975752080035738e-13 3.211372140432544597e-13 6.493188555193804556e-14 -5.031711809364014520e-14
8.400000000000000000e+03 1.266876888275146484e+01 -1.031806349754333496e+00 -1.614430160737367892e-13 2.968177190577209190e-13 4.061241089519523895e-14 -9.128430704472695334e-14
8.401000000000000000e+03 1.047220039367675781e+01 -9.450220465660095215e-01 -8.734748086500557229e-14 -2.204384271691298136e-13 -9.233577308786697357e-14 7.119225863124953313e-14
8.402000000000000000e+03 1.107843208312988281e+01 -9.585354328155517578e-01 -2.452352557136272537e-13 -3.338555831528672302e-13 -1.737272435284320515e-13 -1.278617579110637170e-14
8.403000000000000000e+03 1.035269832611083984e+01 -3.994219899177551270e-01 -2.725185020409446462e-14 -2.404341103382640066e-13 -8.030579104261956203e-14 -6.497419908281813414e-15
8.404000000000000000e+03 1.207316684722900391e+01 -1.659790992736816406e+00 -5.628481079648917085e-14 1.588817375190385017e-13 3.077907666151208366e-14 -2.605643565495308067e-13
8.405000000000000000e+03 1.260403156280517578e+01 -1.385534405708312988e+00 -4.195367740277705648e-14 8.055369522461108822e-13 2.290749783872420009e-13 -4.917444015460799289e-14
8.406000000000000000e+03 1.213417530059814453e+01 -1.231523990631103516e+00 -5.343348105559669881e-15 -5.055504626039208915e-13 -1.532681316931960858e-13 -3.449999075484655453e-14
8.407000000000000000e+03 1.226691818237304688e+01 -8.199375271797180176e-01 -3.209769689621611022e-13 2.741969791410919788e-13 -1.403399762394709482e-14 3.545763671824325725e-13
8.408000000000000000e+03 8.665911674499511719e+00 -1.128567695617675781e+00 -1.301267307882852942e-13 3.573330121923491698e-14 -2.831802751546239755e-14 -4.239805121569739654e-14
8.409000000000000000e+03 8.721609115600585938e+00 -3.885676860809326172e-01 -6.037612223326258021e-14 -1.173773806015937504e-13 -5.332605017283054138e-14 4.186585025054215259e-14
8.410000000000000000e+03 9.551378250122070312e+00 -3.893997073173522949e-01 1.914665291819026699e-14 1.912095021162560360e-13 6.310684803499319595e-14 1.511898076080996772e-14
8.411000000000000000e+03 7.891146183013916016e+00 -3.883178532123565674e-01 -6.698549575673241538e-15 8.863108814580189510e-14 2.457976279923636959e-14 -3.745978814683262326e-14
8.412000000000000000e+03 7.059964656829833984e+00 -3.883014321327209473e-01 -4.370227189029810000e-14 2.702140472639856517e-14 -5.004260064466565724e-15 9.232806169991517042e-14
8.413000000000000000e+03 6.229253768920898438e+00 -3.883224129676818848e-01 -1.182302004779436921e-13 -1.879229329657464143e-13 -9.184594409886517874e-14 -1.459124027115496491e-13
8.414000000000000000e+03 5.398450374603271484e+00 -3.883830904960632324e-01 -4.678996871622072631e-15 -1.392581254304470217e-13 -4.318113995169757524e-14 2.099015744745115486e-14
8.415000000000000000e+03 4.567092418670654297e+00 -3.883478641510009766e-01 5.491238364084376211e-14 2.353387870321875519e-14 2.353387870321875519e-14 -6.959210497366891124e-14
8.416000000000000000e+03 3.736226320266723633e+00 -3.882275819778442383e-01 4.890978979243607028e-14 -2.478961012972093897e-14 7.236054237627718294e-15 1.154353187067221412e-14
8.417000000000000000e+03 2.905987024307250977e+00 -3.881964385509490967e-01 3.079114179881277391e-14 5.894715054619026340e-14 2.692148871994044790e-14 6.666011736740709570e-14
8.418000000000000000e+03 2.075545072555541992e+00 -3.882830739021301270e-01 -6.775950599360392249e-15 -4.865492774300261836e-14 -1.662926422268690835e-14 -4.615874875249850740e-14
8.419000000000000000e+03 1.245373964309692383e+00 -3.886022567749023438e-01 -5.477139924193802009e-15 4.340360468496444468e-14 1.137793862354989291e-14 2.377174080140081330e-14
8.420000000000000000e+03 4.152097404003143311e-01 -3.894236683845520020e-01 1.674939721153009126e-14 -3.857263697359426813e-14 -6.546971759212663611e-15 -6.812717334985386036e-15
8.421000000000000000e+03 4.125574827194213867e-01 -1.129423618316650391e+00 3.546508315428915925e-14 -7.630257780862417794e-14 -1.225124737986096890e-14 1.234711795696299963e-14
8.422000000000000000e+03 9.490376472473144531e+00 -1.129399657249450684e+00 -9.476765211327911609e-14 -1.549920809100838182e-13 -7.492791787412980686e-14 5.396796223344595134e-14
8.423000000000000000e+03 7.840753555297851562e+00 -1.128317832946777344e+00 -7.072661412695774308e-14 -3.031140605441046132e-14 -3.031140605441046132e-14 3.366988152587839511e-14
8.424000000000000000e+03 7.014876842498779297e+00 -1.128301382064819336e+00 -6.005165440435555890e-14 -3.002421174094077605e-13 -1.080881328993817114e-13 7.175731092223108787e-14
8.425000000000000000e+03 6.189470291137695312e+00 -1.128322362899780273e+00 -5.486134482357400699e-14 -2.522667404830647442e-13 -9.213842796368387766e-14 -1.487878695033070797e-13
8.426000000000000000e+03 5.363970756530761719e+00 -1.128383040428161621e+00 -4.176324067931176665e-14 -1.094004308801674319e-13 -4.534910045140422286e-14 -5.156563364646466960e-15
8.427000000000000000e+03 4.537917613983154297e+00 -1.128347873687744141e+00 -1.119308977643763969e-14 -1.878008382485973904e-13 -5.969817739107097232e-14 -3.672012509597227803e-14
8.428000000000000000e+03 3.712356090545654297e+00 -1.128227591514587402e+00 -3.925462809217490981e-15 1.813214563304438309e-13 5.321879886104920188e-14 2.975176460989596705e-14
8.429000000000000000e+03 2.887421369552612305e+00 -1.128196477890014648e+00 -2.582251302230540758e-15 -2.298614315381086737e-13 -6.973310546620065109e-14 2.569757862720071367e-14
8.430000000000000000e+03 2.062283754348754883e+00 -1.128283023834228516e+00 -4.002198149711394537e-14 -6.290322809073684018e-14 -3.087756287635523567e-14 -1.945062424383962874e-14
8.431000000000000000e+03 1.237417221069335938e+00 -1.128602266311645508e+00 -4.727170261134561180e-14 -2.025930184517635985e-14 -2.025930184517635985e-14 -7.398734538444431963e-14
