# el_label, x, y, sXX, sYY, sZZ, sXY
1.000000000000000000e+00 1.265804100036621094e+01 -4.923127293586730957e-01 -1.560944271087646484e+01 -2.005230188369750977e+00 -5.284401893615722656e+00 -2.366693019866943359e+00
2.000000000000000000e+00 1.245944690704345703e+01 -4.789731204509735107e-01 -5.694817066192626953e+00 6.115047335624694824e-01 -1.524993777275085449e+00 1.504360437393188477e+00
3.000000000000000000e+00 1.226085376739501953e+01 -4.656334519386291504e-01 -6.167312145233154297e+00 -3.595808148384094238e-01 -1.958067893981933594e+00 5.317603945732116699e-01
4.000000000000000000e+00 1.206225967407226562e+01 -4.522938132286071777e-01 -5.528347492218017578e+00 -1.913051586598157883e-03 -1.659078121185302734e+00 7.521668076515197754e-01
5.000000000000000000e+00 1.265984439849853516e+01 -5.506910085678100586e-01 7.228883743286132812e+00 -3.882085323333740234e+00 1.004039645195007324e+00 -9.145995378494262695e-01
6.000000000000000000e+00 1.246245479583740234e+01 -5.762702226638793945e-01 -1.706677973270416260e-01 2.292729765176773071e-01 1.758155599236488342e-02 6.261914372444152832e-01
7.000000000000000000e+00 1.226506423950195312e+01 -6.018494367599487305e-01 1.012200951576232910e+00 6.862053275108337402e-02 3.242464363574981689e-01 1.486311912536621094e+00
8.000000000000000000e+00 1.206767368316650391e+01 -6.274286508560180664e-01 -9.556037187576293945e-02 -4.397511482238769531e-03 -2.998736500740051270e-02 8.180801272392272949e-01
9.000000000000000000e+00 1.267298030853271484e+01 -6.076009273529052734e-01 1.794214248657226562e+01 4.335921406745910645e-01 5.512720584869384766e+00 7.686650276184082031e+00
1.000000000000000000e+01 1.248434734344482422e+01 -6.711201667785644531e-01 9.320899009704589844e+00 -3.500172495841979980e-01 2.691264390945434570e+00 3.809161901473999023e+00
1.100000000000000000e+01 1.229571342468261719e+01 -7.346392869949340820e-01 5.698551654815673828e+00 1.362076997756958008e+00 2.118188619613647461e+00 3.236727476119995117e+00
1.200000000000000000e+01 1.210707950592041016e+01 -7.981584668159484863e-01 5.032370090484619141e+00 5.876492857933044434e-01 1.686005711555480957e+00 2.994964599609375000e+00
1.300000000000000000e+01 1.269694423675537109e+01 -6.608646512031555176e-01 2.302619171142578125e+01 6.338629245758056641e+00 8.809446334838867188e+00 1.535723209381103516e+01
1.400000000000000000e+01 1.252428627014160156e+01 -7.598929405212402344e-01 1.364950847625732422e+01 4.384675025939941406e+00 5.410254955291748047e+00 9.435553550720214844e+00
1.500000000000000000e+01 1.235162830352783203e+01 -8.589212298393249512e-01 1.026558303833007812e+01 2.876077651977539062e+00 3.942498207092285156e+00 6.836905002593994141e+00
1.600000000000000000e+01 1.217897033691406250e+01 -9.579495191574096680e-01 7.928789615631103516e+00 3.152987718582153320e+00 3.324533224105834961e+00 5.711256980895996094e+00
1.700000000000000000e+01 1.273081874847412109e+01 -7.084437608718872070e-01 2.265047073364257812e+01 1.725510597229003906e+01 1.197167301177978516e+01 2.170766258239746094e+01
1.800000000000000000e+01 1.258074474334716797e+01 -8.391914367675781250e-01 1.518866634368896484e+01 9.787797927856445312e+00 7.492939472198486328e+00 1.431424808502197266e+01
1.900000000000000000e+01 1.243066978454589844e+01 -9.699391126632690430e-01 1.139480209350585938e+01 8.598850250244140625e+00 5.998095512390136719e+00 1.074184799194335938e+01
2.000000000000000000e+01 1.228059482574462891e+01 -1.100686788558959961e+00 9.479387283325195312e+00 6.238566398620605469e+00 4.715385913848876953e+00 8.839478492736816406e+00
2.100000000000000000e+01 1.277330875396728516e+01 -7.485173940658569336e-01 1.932317161560058594e+01 2.770159339904785156e+01 1.410742950439453125e+01 2.543380928039550781e+01
2.200000000000000000e+01 1.265156078338623047e+01 -9.059808254241943359e-01 1.371373558044433594e+01 1.921596336364746094e+01 9.878909111022949219e+00 1.705712699890136719e+01
2.300000000000000000e+01 1.252981281280517578e+01 -1.063444375991821289e+00 1.082649803161621094e+01 1.385408020019531250e+01 7.404173374176025391e+00 1.389163398742675781e+01
2.400000000000000000e+01 1.240806484222412109e+01 -1.220907807350158691e+00 8.684027671813964844e+00 1.301557254791259766e+01 6.509880065917968750e+00 1.121504402160644531e+01
2.500000000000000000e+01 1.282278728485107422e+01 -7.795520424842834473e-01 1.484110927581787109e+01 4.043423080444335938e+01 1.658260154724121094e+01 2.480342674255371094e+01
2.600000000000000000e+01 1.273402500152587891e+01 -9.577052593231201172e-01 1.074603748321533203e+01 2.725974845886230469e+01 1.140173625946044922e+01 1.841329193115234375e+01
2.700000000000000000e+01 1.264526271820068359e+01 -1.135858535766601562e+00 8.605268478393554688e+00 2.229874420166015625e+01 9.271203994750976562e+00 1.410974407196044922e+01
2.800000000000000000e+01 1.255650043487548828e+01 -1.314011693000793457e+00 7.154112339019775391e+00 1.772022247314453125e+01 7.462300300598144531e+00 1.272484779357910156e+01
2.900000000000000000e+01 1.287736129760742188e+01 -8.003600239753723145e-01 1.026942348480224609e+01 5.048809814453125000e+01 1.822725677490234375e+01 2.171820449829101562e+01
3.000000000000000000e+01 1.282498168945312500e+01 -9.923852086067199707e-01 7.909251213073730469e+00 3.613565444946289062e+01 1.321347141265869141e+01 1.623666572570800781e+01
3.100000000000000000e+01 1.277260208129882812e+01 -1.184410452842712402e+00 5.695084571838378906e+00 2.921381187438964844e+01 1.047266960144042969e+01 1.372647380828857422e+01
3.200000000000000000e+01 1.272022247314453125e+01 -1.376435637474060059e+00 4.734304904937744141e+00 2.501880645751953125e+01 8.925932884216308594e+00 1.047067546844482422e+01
3.300000000000000000e+01 1.293494224548339844e+01 -8.101450204849243164e-01 7.787864208221435547e+00 5.858211135864257812e+01 1.991099357604980469e+01 1.540548229217529297e+01
3.400000000000000000e+01 1.292094898223876953e+01 -1.008693456649780273e+00 5.565723896026611328e+00 4.300291824340820312e+01 1.457059288024902344e+01 1.294778728485107422e+01
3.500000000000000000e+01 1.290695667266845703e+01 -1.207242012023925781e+00 3.607055187225341797e+00 3.541199874877929688e+01 1.170571613311767578e+01 1.032997894287109375e+01
3.600000000000000000e+01 1.289296436309814453e+01 -1.405790567398071289e+00 2.249062776565551758e+00 3.144906806945800781e+01 1.010943889617919922e+01 8.978831291198730469e+00
3.700000000000000000e+01 1.299332618713378906e+01 -8.085325360298156738e-01 7.915726184844970703e+00 6.333113098144531250e+01 2.137405776977539062e+01 8.644224166870117188e+00
3.800000000000000000e+01 1.301825618743896484e+01 -1.006006121635437012e+00 4.607340812683105469e+00 4.778356552124023438e+01 1.571727180480957031e+01 7.521059513092041016e+00
3.900000000000000000e+01 1.304318618774414062e+01 -1.203479647636413574e+00 2.885834217071533203e+00 3.994945907592773438e+01 1.285058784484863281e+01 6.592241764068603516e+00
4.000000000000000000e+01 1.306811618804931641e+01 -1.400953173637390137e+00 1.368747711181640625e+00 3.467963027954101562e+01 1.081451320648193359e+01 5.443929195404052734e+00
4.100000000000000000e+01 1.305027866363525391e+01 -7.955843210220336914e-01 1.022785186767578125e+01 6.449227142333984375e+01 2.241603660583496094e+01 1.475376725196838379e+00
4.200000000000000000e+01 1.311317729949951172e+01 -9.844256639480590820e-01 5.796786785125732422e+00 5.049392318725585938e+01 1.688721275329589844e+01 2.457366228103637695e+00
4.300000000000000000e+01 1.317607593536376953e+01 -1.173267126083374023e+00 3.499489068984985352e+00 4.190689086914062500e+01 1.362191390991210938e+01 1.437806963920593262e+00
4.400000000000000000e+01 1.323897457122802734e+01 -1.362108469009399414e+00 2.440495967864990234e+00 3.632662582397460938e+01 1.163013648986816406e+01 1.557165861129760742e+00
4.500000000000000000e+01 1.310362052917480469e+01 -7.717958688735961914e-01 1.473411846160888672e+01 6.379726028442382812e+01 2.355941390991210938e+01 -3.598684310913085938e+00
4.600000000000000000e+01 1.320208072662353516e+01 -9.447782635688781738e-01 8.520785331726074219e+00 5.014903640747070312e+01 1.760094642639160156e+01 -2.852779626846313477e+00
4.700000000000000000e+01 1.330054092407226562e+01 -1.117760658264160156e+00 5.803661346435546875e+00 4.259129714965820312e+01 1.451848697662353516e+01 -2.566498517990112305e+00
4.800000000000000000e+01 1.339900112152099609e+01 -1.290743231773376465e+00 4.441100597381591797e+00 3.612244033813476562e+01 1.216906166076660156e+01 -3.503423929214477539e+00
4.900000000000000000e+01 1.315131092071533203e+01 -7.380775213241577148e-01 2.021113586425781250e+01 6.040669250488281250e+01 2.418534851074218750e+01 -7.207260608673095703e+00
5.000000000000000000e+01 1.328156471252441406e+01 -8.885810971260070801e-01 1.248826885223388672e+01 4.901867675781250000e+01 1.845208358764648438e+01 -6.170317649841308594e+00
5.100000000000000000e+01 1.341181755065917969e+01 -1.039084672927856445e+00 9.335346221923828125e+00 4.063921356201171875e+01 1.499236869812011719e+01 -6.257759571075439453e+00
5.200000000000000000e+01 1.354207134246826172e+01 -1.189588308334350586e+00 6.856051921844482422e+00 3.629554367065429688e+01 1.294547939300537109e+01 -6.407896995544433594e+00
5.300000000000000000e+01 1.319152355194091797e+01 -6.957197785377502441e-01 2.543081855773925781e+01 5.758020782470703125e+01 2.490330886840820312e+01 -8.266142845153808594e+00
5.400000000000000000e+01 1.334858608245849609e+01 -8.179848194122314453e-01 1.731668663024902344e+01 4.565289688110351562e+01 1.889087486267089844e+01 -8.019137382507324219e+00
5.500000000000000000e+01 1.350564861297607422e+01 -9.402499198913574219e-01 1.288083267211914062e+01 3.903038406372070312e+01 1.557336425781250000e+01 -7.928743839263916016e+00
5.600000000000000000e+01 1.366271114349365234e+01 -1.062514901161193848e+00 1.045218658447265625e+01 3.381067657470703125e+01 1.327885818481445312e+01 -7.761771202087402344e+00
5.700000000000000000e+01 1.322272109985351562e+01 -6.463435292243957520e-01 3.042093658447265625e+01 5.380208587646484375e+01 2.526690673828125000e+01 -7.250644683837890625e+00
5.800000000000000000e+01 1.340058135986328125e+01 -7.356910705566406250e-01 2.112308883666992188e+01 4.334958648681640625e+01 1.934180259704589844e+01 -7.884654521942138672e+00
5.900000000000000000e+01 1.357844257354736328e+01 -8.250386118888854980e-01 1.682898712158203125e+01 3.608559417724609375e+01 1.587437438964843750e+01 -7.868723869323730469e+00
6.000000000000000000e+01 1.375630283355712891e+01 -9.143861532211303711e-01 1.355523872375488281e+01 3.155010032653808594e+01 1.353160190582275391e+01 -7.674090862274169922e+00
6.100000000000000000e+01 1.324370861053466797e+01 -5.918383598327636719e-01 3.340705871582031250e+01 5.174528121948242188e+01 2.554570198059082031e+01 -5.131523609161376953e+00
6.200000000000000000e+01 1.343556022644042969e+01 -6.448491215705871582e-01 2.444270324707031250e+01 4.083058547973632812e+01 1.958198738098144531e+01 -5.490821361541748047e+00
6.300000000000000000e+01 1.362741279602050781e+01 -6.978598833084106445e-01 1.876405334472656250e+01 3.481243133544921875e+01 1.607294464111328125e+01 -6.639583587646484375e+00
6.400000000000000000e+01 1.381926441192626953e+01 -7.508707046508789062e-01 1.673705482482910156e+01 2.888809013366699219e+01 1.368754386901855469e+01 -6.755912780761718750e+00
6.500000000000000000e+01 1.325368213653564453e+01 -5.342900753021240234e-01 3.497409439086914062e+01 5.039944458007812500e+01 2.561206245422363281e+01 -1.245849251747131348e+00
6.600000000000000000e+01 1.345218372344970703e+01 -5.489352345466613770e-01 2.551729393005371094e+01 4.021974182128906250e+01 1.972111129760742188e+01 -2.721365213394165039e+00
6.700000000000000000e+01 1.365068626403808594e+01 -5.635804533958435059e-01 1.981909179687500000e+01 3.408753967285156250e+01 1.617198944091796875e+01 -3.316810607910156250e+00
6.800000000000000000e+01 1.384918785095214844e+01 -5.782257318496704102e-01 1.611350059509277344e+01 2.938857460021972656e+01 1.365062236785888672e+01 -5.836392879486083984e+00
6.900000000000000000e+01 1.325226211547851562e+01 -4.759008884429931641e-01 3.441370010375976562e+01 5.092660140991210938e+01 2.560209083557128906e+01 2.191280841827392578e+00
7.000000000000000000e+01 1.344981670379638672e+01 -4.516199827194213867e-01 2.461844062805175781e+01 4.085748672485351562e+01 1.964277839660644531e+01 1.357295632362365723e+00
7.100000000000000000e+01 1.364737129211425781e+01 -4.273391067981719971e-01 1.898341941833496094e+01 3.519304656982421875e+01 1.625293922424316406e+01 -6.594444513320922852e-01
7.200000000000000000e+01 1.384492588043212891e+01 -4.030582308769226074e-01 1.405345344543457031e+01 3.132771492004394531e+01 1.361435031890869141e+01 -1.810633778572082520e+00
7.300000000000000000e+01 1.323950099945068359e+01 -4.189055562019348145e-01 3.142399978637695312e+01 5.302753448486328125e+01 2.533545875549316406e+01 6.251234054565429688e+00
7.400000000000000000e+01 1.342854785919189453e+01 -3.566277921199798584e-01 2.195886802673339844e+01 4.306999969482421875e+01 1.950866127014160156e+01 3.939555406570434570e+00
7.500000000000000000e+01 1.361759567260742188e+01 -2.943500280380249023e-01 1.612451171875000000e+01 3.758152770996093750e+01 1.611181259155273438e+01 2.681463718414306641e+00
7.600000000000000000e+01 1.380664253234863281e+01 -2.320722490549087524e-01 1.260564136505126953e+01 3.373394775390625000e+01 1.390187740325927734e+01 1.062997460365295410e+00
7.700000000000000000e+01 1.321588802337646484e+01 -3.654852509498596191e-01 2.705157852172851562e+01 5.602141952514648438e+01 2.492189979553222656e+01 8.418701171875000000e+00
7.800000000000000000e+01 1.338919258117675781e+01 -2.675939500331878662e-01 1.708713722229003906e+01 4.690201568603515625e+01 1.919674682617187500e+01 6.135788917541503906e+00
7.900000000000000000e+01 1.356249809265136719e+01 -1.697026342153549194e-01 1.261694717407226562e+01 4.033427047729492188e+01 1.588536548614501953e+01 3.875547885894775391e+00
8.000000000000000000e+01 1.373580265045166016e+01 -7.181132584810256958e-02 9.668672561645507812e+00 3.678154754638671875e+01 1.393506526947021484e+01 2.965863466262817383e+00
8.100000000000000000e+01 1.318232631683349609e+01 -3.176843225955963135e-01 2.046713256835937500e+01 6.101929473876953125e+01 2.444592857360839844e+01 9.269064903259277344e+00
8.200000000000000000e+01 1.333325672149658203e+01 -1.879257410764694214e-01 1.202267265319824219e+01 4.993970489501953125e+01 1.858871269226074219e+01 5.989163398742675781e+00
8.300000000000000000e+01 1.348418712615966797e+01 -5.816715583205223083e-02 7.604870319366455078e+00 4.450196838378906250e+01 1.563205146789550781e+01 3.972051382064819336e+00
8.400000000000000000e+01 1.363511753082275391e+01 7.159142196178436279e-02 5.966085433959960938e+00 3.910347747802734375e+01 1.352086830139160156e+01 2.066771268844604492e+00
8.500000000000000000e+01 1.314010047912597656e+01 -2.773321270942687988e-01 1.386126804351806641e+01 6.431256103515625000e+01 2.345214843750000000e+01 7.790721893310546875e+00
8.600000000000000000e+01 1.326288032531738281e+01 -1.206720694899559021e-01 6.242843151092529297e+00 5.408544540405273438e+01 1.809848594665527344e+01 3.890396356582641602e+00
8.700000000000000000e+01 1.338566017150878906e+01 3.598798066377639771e-02 3.274427175521850586e+00 4.643295669555664062e+01 1.491221523284912109e+01 2.227288246154785156e+00
8.800000000000000000e+01 1.350844097137451172e+01 1.926480382680892944e-01 7.453437447547912598e-01 4.321135711669921875e+01 1.318700981140136719e+01 2.440419644117355347e-01
8.900000000000000000e+01 1.309082698822021484e+01 -2.459729015827178955e-01 7.493529796600341797e+00 6.860124969482421875e+01 2.282843399047851562e+01 3.206261396408081055e+00
9.000000000000000000e+01 1.318075752258300781e+01 -6.840669363737106323e-02 1.510060310363769531e+00 5.460697555541992188e+01 1.683510971069335938e+01 6.048645973205566406e-01
9.100000000000000000e+01 1.327068805694580078e+01 1.091595068573951721e-01 -7.323453426361083984e-01 4.894584655761718750e+01 1.446405029296875000e+01 -1.489439964294433594e+00
9.200000000000000000e+01 1.336061954498291016e+01 2.867256999015808105e-01 -2.337815284729003906e+00 4.393460083007812500e+01 1.247903537750244141e+01 -1.465358138084411621e+00
9.300000000000000000e+01 1.303639030456542969e+01 -2.248067557811737061e-01 1.795390248298645020e+00 6.823872375488281250e+01 2.101023483276367188e+01 -2.080816984176635742e+00
9.400000000000000000e+01 1.309003067016601562e+01 -3.312978520989418030e-02 -9.864975810050964355e-01 5.512157821655273438e+01 1.624052429199218750e+01 -5.235829353332519531e+00
9.500000000000000000e+01 1.314367008209228516e+01 1.585471779108047485e-01 -3.787166833877563477e+00 4.703001785278320312e+01 1.297285556793212891e+01 -4.616431713104248047e+00
9.600000000000000000e+01 1.319731044769287109e+01 3.502241373062133789e-01 -3.244034051895141602e+00 4.393268203735351562e+01 1.220659351348876953e+01 -5.435739040374755859e+00
9.700000000000000000e+01 1.297887516021728516e+01 -2.146437168121337891e-01 6.930257081985473633e-01 6.673741149902343750e+01 2.022913169860839844e+01 -1.015095615386962891e+01
9.800000000000000000e+01 1.299417114257812500e+01 -1.619138196110725403e-02 -3.748941421508789062e+00 5.094519042968750000e+01 1.415887451171875000e+01 -9.579413414001464844e+00
9.900000000000000000e+01 1.300946807861328125e+01 1.822609454393386841e-01 -3.043767929077148438e+00 4.445490646362304688e+01 1.242334175109863281e+01 -9.788110733032226562e+00
1.000000000000000000e+02 1.302476406097412109e+01 3.807132542133331299e-01 -4.721011161804199219e+00 3.924929046630859375e+01 1.035848331451416016e+01 -8.038259506225585938e+00
1.010000000000000000e+02 1.292048168182373047e+01 -2.158727049827575684e-01 -9.122361540794372559e-01 5.999599456787109375e+01 1.772512817382812500e+01 -1.655149459838867188e+01
1.020000000000000000e+02 1.289684867858886719e+01 -1.823970675468444824e-02 -1.401978731155395508e+00 4.525230026245117188e+01 1.315509605407714844e+01 -1.479922389984130859e+01
1.030000000000000000e+02 1.287321662902832031e+01 1.793932914733886719e-01 -3.949140310287475586e+00 3.812856292724609375e+01 1.025382709503173828e+01 -1.242589950561523438e+01
1.040000000000000000e+02 1.284958362579345703e+01 3.770262897014617920e-01 -2.232709407806396484e+00 3.472589874267578125e+01 9.747956275939941406e+00 -1.183618640899658203e+01
1.050000000000000000e+02 1.286344528198242188e+01 -2.284467071294784546e-01 3.034906625747680664e+00 5.065625762939453125e+01 1.610734939575195312e+01 -2.220608329772949219e+01
1.060000000000000000e+02 1.280178737640380859e+01 -3.919636830687522888e-02 -8.092142343521118164e-01 3.649852371215820312e+01 1.070679283142089844e+01 -1.719381904602050781e+01
1.070000000000000000e+02 1.274013042449951172e+01 1.500539630651473999e-01 -7.389248609542846680e-01 3.047458648681640625e+01 8.920698165893554688e+00 -1.483573246002197266e+01
1.080000000000000000e+02 1.267847347259521484e+01 3.393042981624603271e-01 -2.143357276916503906e+00 2.753045845031738281e+01 7.616130352020263672e+00 -1.196937465667724609e+01
1.090000000000000000e+02 1.280994796752929688e+01 -2.518844902515411377e-01 6.028420448303222656e+00 3.843621063232421875e+01 1.333938980102539062e+01 -2.417383956909179688e+01
1.100000000000000000e+02 1.271262454986572266e+01 -7.825937122106552124e-02 2.651743173599243164e+00 2.624177169799804688e+01 8.668054580688476562e+00 -1.795654487609863281e+01
1.110000000000000000e+02 1.261530303955078125e+01 9.536576271057128906e-02 9.126470983028411865e-02 2.212007522583007812e+01 6.663402080535888672e+00 -1.389153480529785156e+01
1.120000000000000000e+02 1.251798057556152344e+01 2.689909040927886963e-01 4.878201484680175781e-01 1.862767982482910156e+01 5.734650135040283203e+00 -1.210218524932861328e+01
1.130000000000000000e+02 1.276203632354736328e+01 -2.852891385555267334e-01 1.047792243957519531e+01 2.413412666320800781e+01 1.038361549377441406e+01 -2.289694213867187500e+01
1.140000000000000000e+02 1.263277339935302734e+01 -1.339337825775146484e-01 3.461254119873046875e+00 1.663256454467773438e+01 6.028145790100097656e+00 -1.489539813995361328e+01
1.150000000000000000e+02 1.250351142883300781e+01 1.742158457636833191e-02 1.659612298011779785e+00 1.296934890747070312e+01 4.388688087463378906e+00 -1.177449131011962891e+01
1.160000000000000000e+02 1.237424850463867188e+01 1.687769442796707153e-01 -2.031665295362472534e-01 1.232053661346435547e+01 3.635210990905761719e+00 -9.428035736083984375e+00
1.170000000000000000e+02 1.272154617309570312e+01 -3.273822665214538574e-01 1.119417381286621094e+01 1.185674858093261719e+01 6.915276527404785156e+00 -1.694552230834960938e+01
1.180000000000000000e+02 1.256528949737548828e+01 -2.040889710187911987e-01 3.421416282653808594e+00 6.646577835083007812e+00 3.020398139953613281e+00 -9.820415496826171875e+00
1.190000000000000000e+02 1.240903282165527344e+01 -8.079567551612854004e-02 -9.272069931030273438e-01 7.515065670013427734e+00 1.976357698440551758e+00 -6.941400527954101562e+00
1.200000000000000000e+02 1.225277614593505859e+01 4.249761253595352173e-02 -1.381730318069458008e+00 5.735789775848388672e+00 1.306217789649963379e+00 -6.305170536041259766e+00
1.210000000000000000e+02 1.269002532958984375e+01 -3.765529394149780273e-01 8.184950828552246094e+00 -1.293698549270629883e+00 2.067375898361206055e+00 -7.223054409027099609e+00
1.220000000000000000e+02 1.251275539398193359e+01 -2.860401272773742676e-01 -2.682132959365844727e+00 3.194208860397338867e+00 1.536228060722351074e-01 -2.770539999008178711e+00
1.230000000000000000e+02 1.233548450469970703e+01 -1.955272853374481201e-01 -4.172351837158203125e+00 2.235252141952514648e+00 -5.811299085617065430e-01 -3.110319852828979492e+00
1.240000000000000000e+02 1.215821456909179688e+01 -1.050144582986831665e-01 -6.283248901367187500e+00 2.168510198593139648e+00 -1.234421610832214355e+00 -1.415885806083679199e+00
1.250000000000000000e+02 1.266868114471435547e+01 -4.309194982051849365e-01 -8.579567909240722656e+00 -3.455321550369262695e+00 -3.610466957092285156e+00 4.093213081359863281e+00
1.260000000000000000e+02 1.247718048095703125e+01 -3.766509890556335449e-01 -8.407102584838867188e+00 4.992915689945220947e-01 -2.372343301773071289e+00 1.448326557874679565e-01
1.270000000000000000e+02 1.228568077087402344e+01 -3.223825097084045410e-01 -1.105389022827148438e+01 2.054437994956970215e-01 -3.254534006118774414e+00 2.039669036865234375e+00
1.280000000000000000e+02 1.209418106079101562e+01 -2.681140303611755371e-01 -1.212487506866455078e+01 -8.697135448455810547e-01 -3.898376703262329102e+00 1.916144609451293945e+00
1.290000000000000000e+02 9.645315170288085938e+00 -1.004501581192016602e+00 -5.636609196662902832e-01 2.542073130607604980e-01 -9.283608198165893555e-02 1.035677790641784668e-01
1.300000000000000000e+02 8.776053428649902344e+00 -2.852105498313903809e-01 -2.731622219085693359e+00 -2.913216315209865570e-02 -8.282263278961181641e-01 -1.116430237889289856e-01
1.310000000000000000e+02 9.688121795654296875e+00 -5.171761512756347656e-01 -2.358827352523803711e+00 1.310626268386840820e-01 -6.683294177055358887e-01 -1.068824320100247860e-03
1.320000000000000000e+02 9.674839973449707031e+00 -1.257954835891723633e-01 -3.148446559906005859e+00 1.161850988864898682e-01 -9.096783995628356934e-01 -2.538917027413845062e-02
1.330000000000000000e+02 7.883284568786621094e+00 -7.569493651390075684e-01 -1.515952706336975098e+00 -1.982411369681358337e-03 -4.553805589675903320e-01 -2.838947772979736328e-01
1.340000000000000000e+02 7.042307376861572266e+00 -7.570544481277465820e-01 -1.385604739189147949e+00 -1.251398865133523941e-02 -4.194356203079223633e-01 -2.443827539682388306e-01
1.350000000000000000e+02 5.385146617889404297e+00 -7.557314038276672363e-01 -1.004840731620788574e+00 -8.465114980936050415e-03 -3.039917647838592529e-01 -2.479566037654876709e-01
1.360000000000000000e+02 3.734771728515625000e+00 -7.557920217514038086e-01 -5.867909193038940430e-01 -1.377346832305192947e-02 -1.801693141460418701e-01 -2.341931909322738647e-01
1.370000000000000000e+02 2.224075794219970703e+00 -7.464271783828735352e-01 -2.581506371498107910e-01 -3.802324831485748291e-02 -8.885215967893600464e-02 -1.732772439718246460e-01
1.380000000000000000e+02 1.114580273628234863e+00 -3.915979862213134766e-01 -6.927498430013656616e-02 -4.548808094114065170e-03 -2.214713767170906067e-02 -3.761428594589233398e-02
1.390000000000000000e+02 6.953330636024475098e-01 -1.131597995758056641e+00 -3.616648539900779724e-02 -6.822594255208969116e-02 -3.131772950291633606e-02 -7.817493379116058350e-02
1.400000000000000000e+02 3.944948315620422363e-01 -5.615754723548889160e-01 -6.426011212170124054e-03 -2.015794068574905396e-02 -7.975186221301555634e-03 -1.149433106184005737e-02
1.410000000000000000e+02 9.694919586181640625e+00 -1.193886041641235352e+00 2.153244800865650177e-02 2.420060932636260986e-01 7.906156033277511597e-02 7.159748673439025879e-02
1.420000000000000000e+02 8.703740119934082031e+00 -1.234676599502563477e+00 -4.770781695842742920e-01 1.946077644824981689e-01 -8.474112302064895630e-02 -6.742981076240539551e-02
1.430000000000000000e+02 7.841324329376220703e+00 -1.245717048645019531e+00 -7.089859247207641602e-01 -2.964507602155208588e-02 -2.215892970561981201e-01 -2.320265471935272217e-01
1.440000000000000000e+02 7.010179042816162109e+00 -1.250444173812866211e+00 -7.869015336036682129e-01 3.858093917369842529e-02 -2.244961857795715332e-01 -3.070684969425201416e-01
1.450000000000000000e+02 6.185233592987060547e+00 -1.251473307609558105e+00 -7.418938875198364258e-01 -1.604613848030567169e-02 -2.273820042610168457e-01 -3.306217789649963379e-01
1.460000000000000000e+02 5.360512733459472656e+00 -1.251276969909667969e+00 -6.782567501068115234e-01 8.906629867851734161e-03 -2.008050382137298584e-01 -3.557229936122894287e-01
1.470000000000000000e+02 4.535861492156982422e+00 -1.251467108726501465e+00 -5.495664477348327637e-01 -2.201688103377819061e-02 -1.714749932289123535e-01 -3.424306809902191162e-01
1.480000000000000000e+02 3.713999748229980469e+00 -1.252643823623657227e+00 -4.452349245548248291e-01 -1.205600332468748093e-02 -1.371872872114181519e-01 -3.425772786140441895e-01
1.490000000000000000e+02 2.901397943496704102e+00 -1.254498124122619629e+00 -3.038989901542663574e-01 -5.807822570204734802e-02 -1.085931658744812012e-01 -3.033254742622375488e-01
1.500000000000000000e+02 2.113527536392211914e+00 -1.245171427726745605e+00 -1.997241228818893433e-01 -6.472087651491165161e-02 -7.933349907398223877e-02 -2.430679500102996826e-01
1.510000000000000000e+02 9.765568733215332031e+00 -3.265778720378875732e-01 -2.759890794754028320e+00 2.130740284919738770e-01 -7.640450000762939453e-01 -1.232517510652542114e-01
1.520000000000000000e+02 9.599736213684082031e+00 -7.613775134086608887e-01 -1.407743453979492188e+00 1.547449529170989990e-01 -3.758995532989501953e-01 2.826766576617956161e-03
1.530000000000000000e+02 9.391963005065917969e+00 -3.058288097381591797e-01 -2.812242269515991211e+00 2.484126575291156769e-02 -8.362203240394592285e-01 -7.031377404928207397e-02
1.540000000000000000e+02 9.319692611694335938e+00 -1.216012597084045410e+00 -1.764090508222579956e-01 1.901397854089736938e-01 4.119219258427619934e-03 1.516374945640563965e-01
1.550000000000000000e+02 8.786995887756347656e+00 -7.598872184753417969e-01 -1.501409530639648438e+00 4.509968683123588562e-02 -4.368929266929626465e-01 -1.904727220535278320e-01
1.560000000000000000e+02 5.405889034271240234e+00 -2.644544243812561035e-01 -1.366406321525573730e+00 -1.400865614414215088e-02 -4.141245186328887939e-01 -1.048927977681159973e-01
1.570000000000000000e+02 2.932688474655151367e+00 -2.614465355873107910e-01 -4.652169346809387207e-01 3.781644627451896667e-03 -1.384305804967880249e-01 -7.465707510709762573e-02
1.580000000000000000e+02 2.180261850357055664e+00 -2.612557411193847656e-01 -2.527399659156799316e-01 -1.700089499354362488e-02 -8.092225342988967896e-02 -5.127627775073051453e-02
1.590000000000000000e+02 1.670755267143249512e+00 -5.785670280456542969e-01 -1.514589488506317139e-01 -1.814821362495422363e-02 -5.088214948773384094e-02 -9.688883274793624878e-02
1.600000000000000000e+02 9.572628974914550781e+00 -1.394368171691894531e+00 2.057418823242187500e-01 2.210828065872192383e-01 1.280474066734313965e-01 2.497058361768722534e-01
1.610000000000000000e+02 1.373379230499267578e+00 -1.197524905204772949e+00 -9.529164433479309082e-02 -9.516096115112304688e-02 -5.713578313589096069e-02 -1.623636484146118164e-01
1.620000000000000000e+02 2.936487197875976562e+00 -7.559446692466735840e-01 -4.027442932128906250e-01 -1.809166371822357178e-02 -1.262507885694503784e-01 -2.131066620349884033e-01
1.630000000000000000e+02 3.746256828308105469e+00 -2.631481587886810303e-01 -7.404643297195434570e-01 -1.106743421405553818e-02 -2.254595309495925903e-01 -8.852340281009674072e-02
1.640000000000000000e+02 4.574646949768066406e+00 -2.640547156333923340e-01 -1.041262745857238770e+00 7.358890026807785034e-03 -3.101711571216583252e-01 -9.162770211696624756e-02
1.650000000000000000e+02 6.213295459747314453e+00 -7.565545439720153809e-01 -1.220822930335998535e+00 3.601579228416085243e-03 -3.651663959026336670e-01 -2.726285159587860107e-01
1.660000000000000000e+02 6.237202644348144531e+00 -2.650812268257141113e-01 -1.693176746368408203e+00 1.714910008013248444e-02 -5.028083324432373047e-01 -9.542079269886016846e-02
1.670000000000000000e+02 7.069155216217041016e+00 -2.666102945804595947e-01 -2.038208484649658203e+00 -2.880637906491756439e-02 -6.201044321060180664e-01 -1.182506158947944641e-01
1.680000000000000000e+02 7.906872272491455078e+00 -2.712323069572448730e-01 -2.399051189422607422e+00 2.943470142781734467e-02 -7.108849883079528809e-01 -1.113053709268569946e-01
1.690000000000000000e+02 4.557137966156005859e+00 -7.555218338966369629e-01 -8.077086210250854492e-01 -3.232967574149370193e-03 -2.432824671268463135e-01 -2.566147446632385254e-01
1.700000000000000000e+02 1.175608539581298828e+01 1.109509229660034180e+00 2.799090862274169922e+00 8.410820960998535156e+00 3.362973690032958984e+00 -3.624685049057006836e+00
1.710000000000000000e+02 1.019085407257080078e+01 1.175520300865173340e+00 -6.704431772232055664e-02 1.137546747922897339e-01 1.401310786604881287e-02 5.839436650276184082e-01
1.720000000000000000e+02 1.343636417388916016e+01 4.837071299552917480e-01 -2.851674318313598633e+00 4.221143722534179688e+01 1.180792903900146484e+01 -2.734833002090454102e+00
1.730000000000000000e+02 1.365510845184326172e+01 -1.359796166419982910e+00 4.871065616607666016e+00 3.295648956298828125e+01 1.134826660156250000e+01 -6.723431110382080078e+00
1.740000000000000000e+02 1.346589660644531250e+01 -1.465005159378051758e+00 3.839222908020019531e+00 3.222730636596679688e+01 1.081995868682861328e+01 -3.897700309753417969e+00
1.750000000000000000e+02 1.342111587524414062e+01 -1.681640267372131348e+00 1.975793361663818359e+00 2.850601196289062500e+01 9.144541740417480469e+00 -9.274932742118835449e-01
1.760000000000000000e+02 1.261914443969726562e+01 -1.578704953193664551e+00 4.269407272338867188e+00 1.952770423889160156e+01 7.139133453369140625e+00 1.014861679077148438e+01
1.770000000000000000e+02 1.186536788940429688e+01 -4.386148750782012939e-01 -5.241193771362304688e+00 -8.973193913698196411e-02 -1.599277734756469727e+00 6.288513541221618652e-01
1.780000000000000000e+02 1.104852390289306641e+01 -3.363101184368133545e-01 -4.308508396148681641e+00 -1.291648298501968384e-01 -1.331301927566528320e+00 6.442084908485412598e-01
1.790000000000000000e+02 1.009066390991210938e+01 -1.423065960407257080e-01 -3.396299123764038086e+00 -1.612805277109146118e-01 -1.067273855209350586e+00 2.961037755012512207e-01
1.800000000000000000e+02 1.399008274078369141e+01 -3.951575160026550293e-01 1.154616928100585938e+01 2.748126983642578125e+01 1.170823192596435547e+01 -5.013859272003173828e+00
1.810000000000000000e+02 1.375668048858642578e+01 2.119186669588088989e-01 3.629794120788574219e+00 3.661773681640625000e+01 1.207425880432128906e+01 5.857340097427368164e-01
1.820000000000000000e+02 1.011432933807373047e+01 1.123135834932327271e-01 -1.260925579071044922e+01 -7.306305170059204102e-01 -4.001965999603271484e+00 1.841131329536437988e+00
1.830000000000000000e+02 1.032049369812011719e+01 8.569033443927764893e-02 -1.214086151123046875e+01 -7.195480465888977051e-01 -3.858122825622558594e+00 2.382631063461303711e+00
1.840000000000000000e+02 1.035580444335937500e+01 3.194046914577484131e-01 -8.826060295104980469e+00 -6.628887057304382324e-01 -2.846684694290161133e+00 1.793888449668884277e+00
1.850000000000000000e+02 1.091226577758789062e+01 -1.562892086803913116e-02 -1.310048484802246094e+01 -4.700606465339660645e-01 -4.071163654327392578e+00 2.825414896011352539e+00
1.860000000000000000e+02 1.033558750152587891e+01 9.760808944702148438e-01 -1.158475399017333984e+00 -2.317244559526443481e-01 -4.170599579811096191e-01 8.757982850074768066e-01
1.870000000000000000e+02 1.136508274078369141e+01 1.133358597755432129e+00 2.732975482940673828e+00 4.970348358154296875e+00 2.310997247695922852e+00 -2.256395578384399414e+00
1.880000000000000000e+02 1.122323417663574219e+01 7.265255451202392578e-01 -9.279047846794128418e-01 2.536191463470458984e+00 4.824859797954559326e-01 -9.273589253425598145e-01
1.890000000000000000e+02 1.197423934936523438e+01 3.199274241924285889e-01 -1.516185522079467773e+00 4.885262489318847656e+00 1.010723114013671875e+00 -4.449559688568115234e+00
1.900000000000000000e+02 1.189658927917480469e+01 -2.024970799684524536e-01 -1.287390899658203125e+01 1.021359562873840332e-01 -3.831532001495361328e+00 2.270773887634277344e+00
1.910000000000000000e+02 1.407047176361083984e+01 -4.674876928329467773e-01 1.321995639801025391e+01 2.467066001892089844e+01 1.136718463897705078e+01 -5.100689888000488281e+00
1.920000000000000000e+02 1.416550064086914062e+01 -1.971193253993988037e-01 8.230355262756347656e+00 2.717806243896484375e+01 1.062252521514892578e+01 -4.269834041595458984e+00
1.930000000000000000e+02 1.378742980957031250e+01 4.308138489723205566e-01 1.060308050364255905e-02 3.625156021118164062e+01 1.087864875793457031e+01 -4.191147387027740479e-01
1.940000000000000000e+02 1.362322425842285156e+01 3.418668806552886963e-01 -2.086957097053527832e-01 3.953890609741210938e+01 1.179906272888183594e+01 -7.171410322189331055e-01
1.950000000000000000e+02 1.315393733978271484e+01 8.390619754791259766e-01 -1.055668830871582031e+00 3.629739761352539062e+01 1.057251834869384766e+01 -7.241167068481445312e+00
1.960000000000000000e+02 1.273667526245117188e+01 8.903222084045410156e-01 -4.848027527332305908e-01 2.826177787780761719e+01 8.333092689514160156e+00 -9.169749259948730469e+00
1.970000000000000000e+02 1.146587371826171875e+01 -4.090541899204254150e-01 -4.642593383789062500e+00 -7.186268270015716553e-02 -1.414336800575256348e+00 5.400484800338745117e-01
1.980000000000000000e+02 1.225832080841064453e+01 -1.759973645210266113e+00 4.913822650909423828e+00 1.206451129913330078e+01 5.093500137329101562e+00 8.895015716552734375e+00
1.990000000000000000e+02 1.282692050933837891e+01 -1.618152976036071777e+00 2.089670419692993164e+00 2.614657974243164062e+01 8.470874786376953125e+00 6.948904991149902344e+00
2.000000000000000000e+02 1.329670810699462891e+01 -1.541823029518127441e+00 1.688758969306945801e+00 3.100841331481933594e+01 9.809151649475097656e+00 1.472425580024719238e+00
2.010000000000000000e+02 1.392059707641601562e+01 -9.740755558013916016e-01 1.314268779754638672e+01 2.617423057556152344e+01 1.179507541656494141e+01 -7.814028739929199219e+00
2.020000000000000000e+02 1.079986286163330078e+01 -1.526711463928222656e+00 2.722218513488769531e+00 1.207311511039733887e+00 1.178858995437622070e+00 1.802913427352905273e+00
2.030000000000000000e+02 9.981189727783203125e+00 -1.409478306770324707e+00 7.737888097763061523e-01 7.792322635650634766e-01 4.659063220024108887e-01 5.418636798858642578e-01
2.040000000000000000e+02 1.019691085815429688e+01 -1.215283274650573730e+00 4.836434125900268555e-01 4.562038183212280273e-01 2.819541692733764648e-01 5.209829807281494141e-01
2.050000000000000000e+02 1.019470500946044922e+01 -1.010776042938232422e+00 -3.537084460258483887e-01 3.626076579093933105e-01 2.669758861884474754e-03 2.130375206470489502e-01
2.060000000000000000e+02 1.029103279113769531e+01 -1.690030395984649658e-01 -3.778034687042236328e+00 1.790782362222671509e-01 -1.079686999320983887e+00 4.362812936305999756e-01
2.070000000000000000e+02 1.181106281280517578e+01 -1.711948156356811523e+00 5.495971202850341797e+00 5.721044540405273438e+00 3.365104913711547852e+00 6.430436134338378906e+00
2.080000000000000000e+02 1.247047042846679688e+01 -1.811359167098999023e+00 3.564307212829589844e+00 1.743154144287109375e+01 6.298754215240478516e+00 9.060739517211914062e+00
2.090000000000000000e+02 1.211782264709472656e+01 -1.220800995826721191e+00 7.801073074340820312e+00 5.615846157073974609e+00 4.025075912475585938e+00 7.563983917236328125e+00
2.100000000000000000e+02 1.018466091156005859e+01 -1.437924981117248535e+00 1.110974073410034180e+00 4.592090845108032227e-01 4.710549414157867432e-01 8.119938969612121582e-01
2.110000000000000000e+02 1.021389675140380859e+01 1.380375981330871582e+00 1.843153595924377441e+00 8.972845673561096191e-01 8.221314549446105957e-01 -2.121660672128200531e-02
2.120000000000000000e+02 1.320812988281250000e+01 5.709224343299865723e-01 -3.959908962249755859e+00 3.902800369262695312e+01 1.052042865753173828e+01 -4.725852966308593750e+00
2.130000000000000000e+02 1.040225601196289062e+01 1.350135803222656250e+00 1.959537625312805176e+00 5.080807954072952271e-02 6.031036972999572754e-01 -1.498879939317703247e-01
2.140000000000000000e+02 1.036817646026611328e+01 1.155125498771667480e+00 3.881636857986450195e-01 4.380984008312225342e-01 2.478786259889602661e-01 3.920882344245910645e-01
2.150000000000000000e+02 1.110385131835937500e+01 -5.995318293571472168e-02 -1.344306564331054688e+01 -3.692031502723693848e-01 -4.143680572509765625e+00 2.653125524520874023e+00
2.160000000000000000e+02 1.115861034393310547e+01 1.157971143722534180e+00 2.297019720077514648e+00 3.751982927322387695e+00 1.814700841903686523e+00 -2.141548395156860352e+00
2.170000000000000000e+02 1.016314601898193359e+01 5.503623485565185547e-01 -5.543968677520751953e+00 -1.140465736389160156e+00 -2.005330324172973633e+00 1.786967396736145020e+00
2.180000000000000000e+02 1.225499534606933594e+01 3.442272841930389404e-01 2.823858857154846191e-01 1.130545902252197266e+01 3.476353406906127930e+00 -8.717467308044433594e+00
2.190000000000000000e+02 1.300135707855224609e+01 6.024894118309020996e-01 -2.350185871124267578e+00 3.626913070678710938e+01 1.017568302154541016e+01 -8.715698242187500000e+00
2.200000000000000000e+02 1.307561588287353516e+01 -1.840267539024353027e+00 1.670018881559371948e-01 2.698496627807617188e+01 8.145590782165527344e+00 4.201705932617187500e+00
2.210000000000000000e+02 1.307269668579101562e+01 -1.612450957298278809e+00 5.626691579818725586e-01 3.167208099365234375e+01 9.670425415039062500e+00 5.289587497711181641e+00
2.220000000000000000e+02 1.200242233276367188e+01 -1.050703644752502441e+00 6.801353454589843750e+00 2.256552219390869141e+00 2.717371702194213867e+00 5.046762466430664062e+00
2.230000000000000000e+02 1.224888134002685547e+01 -1.384277939796447754e+00 7.367444992065429688e+00 9.503000259399414062e+00 5.061133861541748047e+00 9.495854377746582031e+00
2.240000000000000000e+02 1.429351615905761719e+01 -5.104120373725891113e-01 1.080970478057861328e+01 2.224126243591308594e+01 9.915289878845214844e+00 -6.200248718261718750e+00
2.250000000000000000e+02 1.187307262420654297e+01 -6.518080830574035645e-01 -2.645866572856903076e-01 7.756768725812435150e-03 -7.704897224903106689e-02 8.418463468551635742e-01
2.260000000000000000e+02 1.268330764770507812e+01 -1.852009177207946777e+00 2.665133953094482422e+00 1.895623397827148438e+01 6.486410617828369141e+00 7.759221076965332031e+00
2.270000000000000000e+02 1.120715808868408203e+01 -1.594142794609069824e+00 4.043910980224609375e+00 2.277116298675537109e+00 1.896308183670043945e+00 3.134876251220703125e+00
2.280000000000000000e+02 1.191904544830322266e+01 -8.590123653411865234e-01 3.845498323440551758e+00 8.069577813148498535e-01 1.395736813545227051e+00 2.378793478012084961e+00
2.290000000000000000e+02 1.420841121673583984e+01 -1.055222868919372559e+00 1.032927799224853516e+01 2.103656005859375000e+01 9.409751892089843750e+00 -1.010344219207763672e+01
2.300000000000000000e+02 1.374672794342041016e+01 -1.575752496719360352e+00 3.646564245223999023e+00 2.832772445678710938e+01 9.592287063598632812e+00 -5.189580917358398438e+00
2.310000000000000000e+02 1.397878360748291016e+01 -7.595490813255310059e-01 1.484333038330078125e+01 2.721092987060546875e+01 1.261627769470214844e+01 -8.141800880432128906e+00
2.320000000000000000e+02 1.398872470855712891e+01 -5.685564875602722168e-01 1.499930095672607422e+01 2.690378952026367188e+01 1.257092666625976562e+01 -4.489126205444335938e+00
2.330000000000000000e+02 1.351578426361083984e+01 6.972516775131225586e-01 -2.322038650512695312e+00 3.809407043457031250e+01 1.073160934448242188e+01 -2.711001634597778320e+00
2.340000000000000000e+02 1.211826515197753906e+01 5.058296322822570801e-01 4.519517347216606140e-02 1.145020103454589844e+01 3.448618650436401367e+00 -7.069270610809326172e+00
2.350000000000000000e+02 1.244631099700927734e+01 6.634901165962219238e-01 3.375065624713897705e-01 2.091683959960937500e+01 6.376303672790527344e+00 -9.829212188720703125e+00
2.360000000000000000e+02 1.279037761688232422e+01 6.036754846572875977e-01 -2.779645681381225586e+00 3.052418327331542969e+01 8.323361396789550781e+00 -9.796516418457031250e+00
2.370000000000000000e+02 1.294667816162109375e+01 8.703892230987548828e-01 -2.469183444976806641e+00 3.282568740844726562e+01 9.106950759887695312e+00 -7.694211959838867188e+00
2.380000000000000000e+02 1.210812473297119141e+01 1.769649535417556763e-01 -2.178041696548461914e+00 6.113073825836181641e+00 1.180509686470031738e+00 -4.593924999237060547e+00
2.390000000000000000e+02 1.167720699310302734e+01 9.247796237468719482e-02 -6.770708560943603516e+00 9.557103514671325684e-01 -1.744499444961547852e+00 1.802417933940887451e-01
2.400000000000000000e+02 1.242887306213378906e+01 4.538908302783966064e-01 -9.219763278961181641e-01 1.787296867370605469e+01 5.085297584533691406e+00 -9.805031776428222656e+00
2.410000000000000000e+02 1.125477313995361328e+01 -3.910673856735229492e-01 -4.429200172424316406e+00 -1.691471487283706665e-01 -1.379504203796386719e+00 5.703307986259460449e-01
2.420000000000000000e+02 1.019909763336181641e+01 -8.227502107620239258e-01 -1.062277197837829590e+00 2.585155963897705078e-01 -2.411284893751144409e-01 -6.766470521688461304e-02
2.430000000000000000e+02 1.086224269866943359e+01 -1.044246792793273926e+00 8.635707497596740723e-01 4.242169559001922607e-01 3.863362967967987061e-01 6.934326887130737305e-01
2.440000000000000000e+02 1.008169746398925781e+01 -3.588015437126159668e-01 -2.826400518417358398e+00 1.816883385181427002e-01 -7.934136390686035156e-01 4.137318581342697144e-02
2.450000000000000000e+02 1.146756362915039062e+01 -6.957220435142517090e-01 -8.482478260993957520e-01 -3.288499265909194946e-02 -2.643398344516754150e-01 5.981264710426330566e-01
2.460000000000000000e+02 1.129528808593750000e+01 -1.016604751348495483e-01 -1.358235073089599609e+01 -7.853809595108032227e-01 -4.310319423675537109e+00 2.714096307754516602e+00
2.470000000000000000e+02 1.149328899383544922e+01 9.102631360292434692e-02 -8.826725006103515625e+00 -7.071687281131744385e-02 -2.669232368469238281e+00 1.400521516799926758e+00
2.480000000000000000e+02 1.052322196960449219e+01 5.858200788497924805e-02 -1.239528846740722656e+01 -3.960835635662078857e-01 -3.837411403656005859e+00 2.613741159439086914e+00
2.490000000000000000e+02 1.096343421936035156e+01 1.214951038360595703e+00 1.922554969787597656e+00 2.384032249450683594e+00 1.291976213455200195e+00 -8.037784695625305176e-01
2.500000000000000000e+02 1.141464996337890625e+01 2.626419961452484131e-01 -5.510476589202880859e+00 3.229769170284271240e-01 -1.556249976158142090e+00 7.472324371337890625e-01
2.510000000000000000e+02 1.140713500976562500e+01 -1.637055158615112305e+00 4.670081615447998047e+00 2.789183855056762695e+00 2.237779617309570312e+00 4.071318626403808594e+00
2.520000000000000000e+02 1.203186988830566406e+01 -1.730022311210632324e+00 5.351228713989257812e+00 9.077773094177246094e+00 4.328700542449951172e+00 7.601788997650146484e+00
2.530000000000000000e+02 1.059476184844970703e+01 -1.493511199951171875e+00 2.203117132186889648e+00 7.816609144210815430e-01 8.954334259033203125e-01 1.384825468063354492e+00
2.540000000000000000e+02 1.100479793548583984e+01 -1.559314012527465820e+00 3.433970212936401367e+00 1.413026571273803711e+00 1.454099059104919434e+00 2.446784257888793945e+00
2.550000000000000000e+02 1.204372215270996094e+01 -1.494546771049499512e+00 6.713453769683837891e+00 7.797681808471679688e+00 4.353340625762939453e+00 8.083507537841796875e+00
2.560000000000000000e+02 1.038979911804199219e+01 -1.463977456092834473e+00 1.633038997650146484e+00 7.864907979965209961e-01 7.258589267730712891e-01 1.070968985557556152e+00
2.570000000000000000e+02 1.164859199523925781e+01 -1.446396946907043457e+00 5.568314075469970703e+00 3.267933368682861328e+00 2.650874137878417969e+00 4.857511520385742188e+00
2.580000000000000000e+02 1.194151401519775391e+01 -1.325948596000671387e+00 6.637700557708740234e+00 4.598192691802978516e+00 3.370767831802368164e+00 6.435062408447265625e+00
2.590000000000000000e+02 1.065324211120605469e+01 -3.702237606048583984e-01 -3.512525081634521484e+00 -1.079725753515958786e-02 -1.056996703147888184e+00 4.138750731945037842e-01
2.600000000000000000e+02 1.160744762420654297e+01 -1.678172469139099121e+00 5.117127895355224609e+00 4.610151767730712891e+00 2.918183803558349609e+00 5.161737918853759766e+00
2.610000000000000000e+02 9.996784210205078125e+00 -1.195435881614685059e+00 1.490683704614639282e-01 2.808019518852233887e-01 1.289610862731933594e-01 2.836466729640960693e-01
2.620000000000000000e+02 1.005681896209716797e+01 -5.739775896072387695e-01 -1.864348411560058594e+00 4.090633690357208252e-01 -4.365855157375335693e-01 -6.120746210217475891e-02
2.630000000000000000e+02 1.013900852203369141e+01 3.311199247837066650e-01 -8.668459892272949219e+00 -1.410055875778198242e+00 -3.023554801940917969e+00 1.542232155799865723e+00
2.640000000000000000e+02 1.071993350982666016e+01 2.572434954345226288e-02 -1.273510646820068359e+01 -7.367658615112304688e-01 -4.041561603546142578e+00 2.619249582290649414e+00
2.650000000000000000e+02 1.166788578033447266e+01 -4.245166480541229248e-01 -4.924545764923095703e+00 -4.565839096903800964e-02 -1.491061329841613770e+00 5.806558728218078613e-01
2.660000000000000000e+02 1.224257183074951172e+01 7.302429080009460449e-01 7.039186954498291016e-01 1.479891014099121094e+01 4.650848865509033203e+00 -7.746417045593261719e+00
2.670000000000000000e+02 1.077620124816894531e+01 1.266517043113708496e+00 2.163679122924804688e+00 1.328581929206848145e+00 1.047678351402282715e+00 -1.081318259239196777e+00
2.680000000000000000e+02 1.058987522125244141e+01 1.312619805335998535e+00 1.878604292869567871e+00 1.461315393447875977e+00 1.001975893974304199e+00 -1.696321070194244385e-01
2.690000000000000000e+02 1.156684684753417969e+01 1.129331111907958984e+00 3.299094200134277344e+00 6.823577404022216797e+00 3.036801576614379883e+00 -3.845101356506347656e+00
2.700000000000000000e+02 1.194145774841308594e+01 1.079842686653137207e+00 2.672586441040039062e+00 1.301861476898193359e+01 4.707360267639160156e+00 -5.742917537689208984e+00
2.710000000000000000e+02 1.252093315124511719e+01 9.287678599357604980e-01 -1.136516258120536804e-01 2.274357795715332031e+01 6.788978099822998047e+00 -8.326897621154785156e+00
2.720000000000000000e+02 1.231717205047607422e+01 9.856225848197937012e-01 1.497007369995117188e+00 1.952152442932128906e+01 6.305559635162353516e+00 -7.992386817932128906e+00
2.730000000000000000e+02 1.067607593536376953e+01 -2.169539779424667358e-01 -4.202627658843994141e+00 1.911683194339275360e-02 -1.255053281784057617e+00 6.105093955993652344e-01
2.740000000000000000e+02 1.048594760894775391e+01 -1.899553984403610229e-01 -4.040100097656250000e+00 -1.981198489665985107e-01 -1.271465897560119629e+00 5.720435976982116699e-01
2.750000000000000000e+02 1.053985404968261719e+01 1.112516045570373535e+00 4.292743206024169922e-01 2.494828701019287109e-01 2.036271542310714722e-01 7.009830325841903687e-02
2.760000000000000000e+02 1.035383892059326172e+01 8.166032433509826660e-01 -2.534906148910522461e+00 -5.848881006240844727e-01 -9.359382987022399902e-01 1.348845839500427246e+00
2.770000000000000000e+02 1.156908512115478516e+01 9.022436738014221191e-01 1.309471607208251953e+00 5.825595378875732422e+00 2.140520095825195312e+00 -2.975449562072753906e+00
2.780000000000000000e+02 1.151447105407714844e+01 7.241947650909423828e-01 5.481871590018272400e-02 4.508046627044677734e+00 1.368859648704528809e+00 -2.342572450637817383e+00
2.790000000000000000e+02 1.182967758178710938e+01 4.537073671817779541e-01 -1.026856899261474609e+00 5.522716045379638672e+00 1.348757743835449219e+00 -3.752198457717895508e+00
2.800000000000000000e+02 1.195659923553466797e+01 6.232643127441406250e-01 1.656489521265029907e-01 8.311291694641113281e+00 2.543082237243652344e+00 -5.254091739654541016e+00
2.810000000000000000e+02 1.038000392913818359e+01 -6.982793807983398438e-01 -1.333051681518554688e+00 2.046559154987335205e-01 -3.385187387466430664e-01 -6.523646414279937744e-03
2.820000000000000000e+02 1.132829952239990234e+01 1.034021973609924316e-01 -9.709692955017089844e+00 2.334687560796737671e-01 -2.842867374420166016e+00 1.732730150222778320e+00
2.830000000000000000e+02 1.087423706054687500e+01 9.560065865516662598e-01 2.609364986419677734e-01 1.244978070259094238e+00 4.517743587493896484e-01 -5.139090418815612793e-01
2.840000000000000000e+02 1.105323123931884766e+01 8.630412817001342773e-01 -1.422512531280517578e-01 1.579634189605712891e+00 4.312148988246917725e-01 -4.004823863506317139e-01
2.850000000000000000e+02 1.078537845611572266e+01 3.042217493057250977e-01 -7.910318851470947266e+00 -4.177651405334472656e-01 -2.498425245285034180e+00 2.105636119842529297e+00
2.860000000000000000e+02 1.104610252380371094e+01 -1.294414639472961426e+00 2.645378112792968750e+00 9.618028998374938965e-01 1.082154273986816406e+00 1.671500921249389648e+00
2.870000000000000000e+02 1.154488849639892578e+01 4.163451790809631348e-01 -3.000705957412719727e+00 2.632613658905029297e+00 -1.104277372360229492e-01 -1.250119209289550781e+00
2.880000000000000000e+02 1.150817871093750000e+01 -9.855433702468872070e-01 2.748459577560424805e+00 6.021664738655090332e-01 1.005187869071960449e+00 1.729229569435119629e+00
2.890000000000000000e+02 1.048598575592041016e+01 -3.645073473453521729e-01 -3.222218990325927734e+00 8.743738383054733276e-02 -9.404345154762268066e-01 2.100750356912612915e-01
2.900000000000000000e+02 1.128098583221435547e+01 -1.020444869995117188e+00 2.134945631027221680e+00 5.597883462905883789e-01 8.084201216697692871e-01 1.361322402954101562e+00
2.910000000000000000e+02 1.040933895111083984e+01 -1.216838717460632324e+00 7.404485344886779785e-01 4.561202824115753174e-01 3.589706420898437500e-01 6.351461410522460938e-01
2.920000000000000000e+02 1.017150115966796875e+01 9.722786545753479004e-01 -1.608018398284912109e+00 -4.057869613170623779e-01 -6.041415929794311523e-01 1.526438593864440918e+00
2.930000000000000000e+02 1.017022418975830078e+01 7.660617828369140625e-01 -2.912015199661254883e+00 -1.022122859954833984e+00 -1.180241465568542480e+00 1.705291628837585449e+00
2.940000000000000000e+02 1.070631408691406250e+01 1.042379856109619141e+00 1.908443719148635864e-01 8.287687301635742188e-01 3.058839440345764160e-01 1.195328906178474426e-01
2.950000000000000000e+02 1.045691108703613281e+01 6.925507783889770508e-01 -3.276384353637695312e+00 -6.716032624244689941e-01 -1.184396266937255859e+00 1.351463198661804199e+00
2.960000000000000000e+02 1.037230110168457031e+01 5.324544310569763184e-01 -5.708002090454101562e+00 -1.080297589302062988e+00 -2.036489963531494141e+00 1.722764253616333008e+00
2.970000000000000000e+02 1.029437351226806641e+01 -3.718242943286895752e-01 -2.862281799316406250e+00 1.278295665979385376e-01 -8.203356862068176270e-01 1.336759179830551147e-01
2.980000000000000000e+02 1.002478694915771484e+01 -7.809876203536987305e-01 -1.270837783813476562e+00 2.548979222774505615e-01 -3.047819435596466064e-01 7.939687371253967285e-02
2.990000000000000000e+02 1.000902271270751953e+01 -9.863548874855041504e-01 -6.103042364120483398e-01 4.440045729279518127e-02 -1.697711348533630371e-01 1.073829382658004761e-01
3.000000000000000000e+02 1.086071777343750000e+01 -2.621352970600128174e-01 -4.263150215148925781e+00 -1.341171711683273315e-01 -1.319180250167846680e+00 6.849060654640197754e-01
3.010000000000000000e+02 1.079194259643554688e+01 -4.223769605159759521e-01 -3.508410453796386719e+00 1.106488928198814392e-01 -1.019328474998474121e+00 3.390564918518066406e-01
3.020000000000000000e+02 1.124894809722900391e+01 -7.074489593505859375e-01 -9.540915489196777344e-01 3.285317867994308472e-02 -2.763715088367462158e-01 3.784325122833251953e-01
3.030000000000000000e+02 1.167557907104492188e+01 -6.751705408096313477e-01 -5.611699223518371582e-01 9.953323006629943848e-02 -1.384910047054290771e-01 6.887466311454772949e-01
3.040000000000000000e+02 1.062537288665771484e+01 -1.236201167106628418e+00 1.176442265510559082e+00 6.168347597122192383e-01 5.379831194877624512e-01 8.237017989158630371e-01
3.050000000000000000e+02 1.126200103759765625e+01 -1.317828774452209473e+00 3.514500856399536133e+00 1.248191714286804199e+00 1.428807735443115234e+00 2.433829784393310547e+00
3.060000000000000000e+02 1.146108818054199219e+01 -1.388958930969238281e+00 4.440472602844238281e+00 2.168787002563476562e+00 1.982777953147888184e+00 3.294388532638549805e+00
3.070000000000000000e+02 1.241706657409667969e+01 -1.510149717330932617e+00 5.874898433685302734e+00 1.547861957550048828e+01 6.406055450439453125e+00 1.037619304656982422e+01
3.080000000000000000e+02 1.181245231628417969e+01 -1.146701812744140625e+00 5.653292655944824219e+00 2.311248064041137695e+00 2.389362096786499023e+00 4.158535957336425781e+00
3.090000000000000000e+02 1.073814773559570312e+01 7.134433388710021973e-01 -2.879111528396606445e+00 2.257343754172325134e-02 -8.569614291191101074e-01 9.369110465049743652e-01
3.100000000000000000e+02 1.057442283630371094e+01 3.248069584369659424e-01 -8.004724502563476562e+00 -7.416604757308959961e-01 -2.623915433883666992e+00 1.934920549392700195e+00
3.110000000000000000e+02 1.097668743133544922e+01 2.380574494600296021e-01 -8.299609184265136719e+00 -2.324390560388565063e-01 -2.559614419937133789e+00 1.877616524696350098e+00
3.120000000000000000e+02 1.148781490325927734e+01 -1.323985010385513306e-01 -1.357526874542236328e+01 6.600708700716495514e-03 -4.070600509643554688e+00 2.555345773696899414e+00
3.130000000000000000e+02 1.168975734710693359e+01 -1.538348942995071411e-01 -1.329230880737304688e+01 -7.473974227905273438e-01 -4.211912155151367188e+00 2.338477849960327148e+00
3.140000000000000000e+02 1.198162746429443359e+01 2.719945972785353661e-03 -5.687970161437988281e+00 1.250671148300170898e+00 -1.331189751625061035e+00 -1.442082047462463379e+00
3.150000000000000000e+02 1.139110374450683594e+01 8.807678818702697754e-01 7.664638161659240723e-01 3.667650699615478516e+00 1.330234408378601074e+00 -2.310928821563720703e+00
3.160000000000000000e+02 1.189924716949462891e+01 8.870052695274353027e-01 1.739013314247131348e+00 9.440556526184082031e+00 3.353871107101440430e+00 -4.779318809509277344e+00
3.170000000000000000e+02 1.206097698211669922e+01 8.164672255516052246e-01 1.464139819145202637e+00 1.304717540740966797e+01 4.353394508361816406e+00 -6.678433418273925781e+00
3.180000000000000000e+02 1.212739562988281250e+01 1.035843729972839355e+00 2.127680063247680664e+00 1.421358013153076172e+01 4.902378082275390625e+00 -6.267771244049072266e+00
3.190000000000000000e+02 1.381871509552001953e+01 -1.179952263832092285e+00 7.741231918334960938e+00 3.010448455810546875e+01 1.135371494293212891e+01 -6.880528926849365234e+00
3.200000000000000000e+02 1.260118484497070312e+01 5.385578274726867676e-01 -5.827298164367675781e-01 2.462931823730468750e+01 7.213976383209228516e+00 -1.142318916320800781e+01
3.210000000000000000e+02 1.399507713317871094e+01 -1.274463653564453125e+00 8.481134414672851562e+00 2.232996177673339844e+01 9.243329048156738281e+00 -7.293960094451904297e+00
3.220000000000000000e+02 1.389970302581787109e+01 4.649642482399940491e-02 7.824485301971435547e+00 3.421575927734375000e+01 1.261207389831542969e+01 1.789888620376586914e+00
3.230000000000000000e+02 1.398399543762207031e+01 -1.860616952180862427e-01 9.477108001708984375e+00 3.183637046813964844e+01 1.239404296875000000e+01 1.950524561107158661e-02
3.240000000000000000e+02 1.407096576690673828e+01 -9.893608689308166504e-01 1.142069721221923828e+01 2.606152534484863281e+01 1.124466705322265625e+01 -9.758505821228027344e+00
3.250000000000000000e+02 1.411523818969726562e+01 -6.903569102287292480e-01 1.375543594360351562e+01 2.527054977416992188e+01 1.170779609680175781e+01 -5.744450092315673828e+00
3.260000000000000000e+02 1.034243869781494141e+01 -5.493072271347045898e-01 -2.149544477462768555e+00 1.325997561216354370e-01 -6.050834059715270996e-01 1.339376345276832581e-02
3.270000000000000000e+02 1.067249679565429688e+01 -5.082629919052124023e-01 -2.664699077606201172e+00 1.033660024404525757e-01 -7.683998942375183105e-01 3.817665949463844299e-02
3.280000000000000000e+02 1.092520904541015625e+01 -5.472421646118164062e-01 -2.484737873077392578e+00 4.768705368041992188e-02 -7.311152219772338867e-01 1.169361248612403870e-01
3.290000000000000000e+02 1.073760509490966797e+01 -6.693311333656311035e-01 -1.335639238357543945e+00 1.247411370277404785e-01 -3.632694184780120850e-01 1.276596337556838989e-01
3.300000000000000000e+02 1.060036087036132812e+01 8.444669246673583984e-01 -1.578320860862731934e+00 7.379282265901565552e-02 -4.513584375381469727e-01 5.663895010948181152e-01
3.310000000000000000e+02 1.090009021759033203e+01 5.894855260848999023e-01 -3.715471744537353516e+00 2.631100714206695557e-01 -1.035708546638488770e+00 7.161453962326049805e-01
3.320000000000000000e+02 1.180714702606201172e+01 7.392157912254333496e-01 8.582755327224731445e-01 7.934858322143554688e+00 2.637940168380737305e+00 -4.531747817993164062e+00
3.330000000000000000e+02 1.174125957489013672e+01 9.012288451194763184e-01 1.937567591667175293e+00 7.902313709259033203e+00 2.951964378356933594e+00 -4.212903499603271484e+00
3.340000000000000000e+02 1.138108444213867188e+01 5.661846399307250977e-01 -2.112222909927368164e+00 1.979751348495483398e+00 -3.974147886037826538e-02 -8.448989987373352051e-01
3.350000000000000000e+02 1.184182739257812500e+01 1.549211144447326660e-01 -5.114921569824218750e+00 2.247581005096435547e+00 -8.602021932601928711e-01 -1.147601962089538574e+00
3.360000000000000000e+02 1.102843856811523438e+01 -7.601001262664794922e-01 -8.057332634925842285e-01 1.148781478404998779e-01 -2.072565257549285889e-01 3.404718935489654541e-01
3.370000000000000000e+02 1.172368717193603516e+01 -9.191815853118896484e-01 3.205848455429077148e+00 5.377290248870849609e-01 1.123073220252990723e+00 2.095089197158813477e+00
3.380000000000000000e+02 1.405865573883056641e+01 2.190220654010772705e-01 3.391881227493286133e+00 3.296643829345703125e+01 1.090749645233154297e+01 1.142960414290428162e-01
3.390000000000000000e+02 1.170838069915771484e+01 2.911086976528167725e-01 -4.003762722015380859e+00 2.341469764709472656e+00 -4.986878633499145508e-01 -1.332195520401000977e+00
3.400000000000000000e+02 1.184227657318115234e+01 -1.483778595924377441e+00 6.132336616516113281e+00 4.998751640319824219e+00 3.339326381683349609e+00 5.859099864959716797e+00
3.410000000000000000e+02 1.054835700988769531e+01 -7.091213464736938477e-01 -1.225508809089660645e+00 1.965158283710479736e-01 -3.086979091167449951e-01 9.982175379991531372e-02
3.420000000000000000e+02 1.106218814849853516e+01 -1.029331445693969727e+00 1.358208298683166504e+00 4.012554585933685303e-01 5.278391242027282715e-01 9.796915054321289062e-01
3.430000000000000000e+02 1.047165203094482422e+01 9.386147856712341309e-01 -1.082948327064514160e+00 9.089387208223342896e-02 -2.976163327693939209e-01 6.585680842399597168e-01
3.440000000000000000e+02 1.115869998931884766e+01 1.685226857662200928e-01 -8.958450317382812500e+00 -4.258906841278076172e-01 -2.815302371978759766e+00 2.217951774597167969e+00
3.450000000000000000e+02 1.125342273712158203e+01 3.804208338260650635e-01 -4.799547195434570312e+00 1.022971510887145996e+00 -1.132972717285156250e+00 4.711485505104064941e-01
3.460000000000000000e+02 1.038297176361083984e+01 -1.010159969329833984e+00 2.825283072888851166e-02 3.466514647006988525e-01 1.124712899327278137e-01 2.639055252075195312e-01
3.470000000000000000e+02 1.036327362060546875e+01 -8.497986793518066406e-01 -9.653487205505371094e-01 2.293139994144439697e-01 -2.208104133605957031e-01 1.142520532011985779e-01
3.480000000000000000e+02 1.023174476623535156e+01 -6.471039652824401855e-01 -1.677706599235534668e+00 1.121036857366561890e-01 -4.696808755397796631e-01 -2.672778815031051636e-02
3.490000000000000000e+02 1.052005577087402344e+01 -9.025024771690368652e-01 -3.718485832214355469e-01 3.235521614551544189e-01 -1.448892429471015930e-02 2.772233784198760986e-01
3.500000000000000000e+02 1.051296234130859375e+01 -5.320932269096374512e-01 -2.338585376739501953e+00 1.453238427639007568e-01 -6.579784154891967773e-01 2.360467053949832916e-02
3.510000000000000000e+02 1.068229007720947266e+01 -9.994115829467773438e-01 2.704051733016967773e-01 3.253512978553771973e-01 1.787269413471221924e-01 4.676385521888732910e-01
3.520000000000000000e+02 1.160350418090820312e+01 -1.232960820198059082e+00 4.733617782592773438e+00 1.841755747795104980e+00 1.972612023353576660e+00 3.536159992218017578e+00
3.530000000000000000e+02 1.083572578430175781e+01 -1.273476243019104004e+00 1.937714934349060059e+00 6.053458452224731445e-01 7.629182338714599609e-01 1.233543872833251953e+00
3.540000000000000000e+02 1.108038425445556641e+01 4.893642961978912354e-01 -4.274855613708496094e+00 2.204988747835159302e-01 -1.216307044029235840e+00 9.498846530914306641e-01
3.550000000000000000e+02 1.167392921447753906e+01 5.939995050430297852e-01 -7.741182446479797363e-01 4.569529056549072266e+00 1.138623237609863281e+00 -2.770968437194824219e+00
3.560000000000000000e+02 1.082265281677246094e+01 -8.503373265266418457e-01 -4.202626049518585205e-01 2.408333569765090942e-01 -5.382877588272094727e-02 3.835763633251190186e-01
3.570000000000000000e+02 1.056201457977294922e+01 5.538114309310913086e-01 -5.148451328277587891e+00 -4.748799502849578857e-01 -1.686999440193176270e+00 1.475909590721130371e+00
3.580000000000000000e+02 1.887036132812500000e+01 1.372114777565002441e+00 -8.834410458803176880e-02 -5.088059306144714355e-01 -1.791450083255767822e-01 -4.171373844146728516e-01
3.590000000000000000e+02 1.461962318420410156e+01 -1.155382752418518066e+00 9.193996429443359375e+00 1.837728118896484375e+01 8.271383285522460938e+00 -7.761116504669189453e+00
3.600000000000000000e+02 1.958987236022949219e+01 -9.666010737419128418e-02 5.101903438568115234e+00 5.608930587768554688e-01 1.698838949203491211e+00 6.199080944061279297e-01
3.610000000000000000e+02 1.468082809448242188e+01 -1.841616272926330566e+00 5.361785888671875000e+00 1.643019485473632812e+01 6.537594318389892578e+00 -7.570346832275390625e+00
3.620000000000000000e+02 1.320796775817871094e+01 -2.195351123809814453e+00 -1.150750741362571716e-01 2.277108764648437500e+01 6.796803951263427734e+00 2.569957733154296875e+00
3.630000000000000000e+02 6.114316940307617188e+00 -1.114469814300537109e+01 1.363485306501388550e-01 2.177678585052490234e+00 6.942081451416015625e-01 8.710556626319885254e-01
3.640000000000000000e+02 6.674871444702148438e+00 -1.761916351318359375e+01 -1.798833012580871582e-01 2.601061820983886719e+00 7.263535857200622559e-01 6.794902682304382324e-01
3.650000000000000000e+02 7.228044986724853516e+00 -2.558470916748046875e+01 -1.823626607656478882e-01 2.737465620040893555e+00 7.665309309959411621e-01 4.031814336776733398e-01
3.660000000000000000e+02 4.753867626190185547e+00 -3.357191467285156250e+01 -5.280361697077751160e-02 2.651332139968872070e+00 7.795585393905639648e-01 1.611419767141342163e-01
3.670000000000000000e+02 8.220856666564941406e+00 -4.098663711547851562e+01 -1.048565730452537537e-01 2.751594543457031250e+00 7.940213680267333984e-01 2.622085250914096832e-02
3.680000000000000000e+02 9.522911071777343750e+00 -3.804598617553710938e+01 -1.301538348197937012e-01 2.783407688140869141e+00 7.959761619567871094e-01 8.722380548715591431e-02
3.690000000000000000e+02 2.234265708923339844e+01 -4.085849761962890625e+01 -1.173706427216529846e-01 2.503502607345581055e+00 7.158395648002624512e-01 -3.357517346739768982e-02
3.700000000000000000e+02 2.263514137268066406e+01 -3.772624206542968750e+01 -1.133138835430145264e-01 2.551285505294799805e+00 7.313914895057678223e-01 -1.630065590143203735e-01
3.710000000000000000e+02 1.611818504333496094e+01 -2.898541069030761719e+01 -2.856356203556060791e-01 3.184948682785034180e+00 8.697938919067382812e-01 -5.382445454597473145e-02
3.720000000000000000e+02 1.936734008789062500e+01 -2.480535125732421875e+01 -1.762594133615493774e-01 3.502908706665039062e+00 9.979947805404663086e-01 -4.637041985988616943e-01
3.730000000000000000e+02 1.871034622192382812e+01 -1.768842887878417969e+01 1.936820521950721741e-02 4.586028099060058594e+00 1.381618857383728027e+00 -8.829394578933715820e-01
3.740000000000000000e+02 2.221376609802246094e+01 -1.318425273895263672e+01 1.305326700210571289e+00 4.948500633239746094e+00 1.876148223876953125e+00 -2.570848464965820312e+00
3.750000000000000000e+02 1.986097908020019531e+01 -8.151803016662597656e+00 1.034789323806762695e+00 8.042626380920410156e+00 2.723224878311157227e+00 -2.859798908233642578e+00
3.760000000000000000e+02 1.933373260498046875e+01 -9.840732574462890625e+00 1.174455285072326660e+00 6.736701488494873047e+00 2.373347043991088867e+00 -2.373490810394287109e+00
3.770000000000000000e+02 1.948805999755859375e+01 -6.809856414794921875e+00 9.130444526672363281e-01 7.461876869201660156e+00 2.512476444244384766e+00 -2.172348499298095703e+00
3.780000000000000000e+02 1.918333244323730469e+01 -5.442916393280029297e+00 2.387828528881072998e-01 5.469439983367919922e+00 1.712466955184936523e+00 -1.974878668785095215e+00
3.790000000000000000e+02 1.907073593139648438e+01 -2.543408632278442383e+00 -3.805897384881973267e-02 2.496282607316970825e-01 6.347078830003738403e-02 -6.366798877716064453e-01
3.800000000000000000e+02 2.114433860778808594e+01 3.149268150329589844e+00 -7.848943471908569336e-01 -2.933822572231292725e-01 -3.234829902648925781e-01 -5.783810280263423920e-03
3.810000000000000000e+02 2.457904243469238281e+01 7.913150191307067871e-01 1.404443740844726562e+00 -8.518706262111663818e-02 3.957769870758056641e-01 5.705735087394714355e-01
3.820000000000000000e+02 2.248698997497558594e+01 -1.080742597579956055e+00 2.398509740829467773e+00 3.462654650211334229e-01 8.234325647354125977e-01 -1.053937435150146484e+00
3.830000000000000000e+02 2.449593353271484375e+01 -1.162770390510559082e+00 1.404703140258789062e+00 -3.755868598818778992e-02 4.101433455944061279e-01 -5.034163594245910645e-01
3.840000000000000000e+02 2.832199096679687500e+01 -5.338319301605224609e+00 2.133733630180358887e-01 6.568793952465057373e-02 8.371838927268981934e-02 -2.148719280958175659e-01
3.850000000000000000e+02 3.232149124145507812e+01 -1.106817626953125000e+01 8.188533782958984375e-02 4.828239083290100098e-01 1.694127768278121948e-01 -1.025794818997383118e-01
3.860000000000000000e+02 3.131435775756835938e+01 -1.185158920288085938e+01 -4.162702709436416626e-02 1.203115656971931458e-01 2.360536344349384308e-02 -7.727303355932235718e-02
3.870000000000000000e+02 3.278125000000000000e+01 -1.418649387359619141e+01 1.787014305591583252e-02 3.376043140888214111e-01 1.066423431038856506e-01 -1.806163042783737183e-01
3.880000000000000000e+02 3.420932769775390625e+01 -1.656034278869628906e+01 8.821011334657669067e-02 6.216852068901062012e-01 2.129686027765274048e-01 -3.123366236686706543e-01
3.890000000000000000e+02 3.563674926757812500e+01 -6.455745220184326172e+00 1.493199467658996582e-01 1.327674746513366699e+00 4.430983960628509521e-01 -2.083841562271118164e-01
3.900000000000000000e+02 3.574896240234375000e+01 6.312528133392333984e+00 3.313685059547424316e-01 1.089513897895812988e+00 4.262647330760955811e-01 4.024931192398071289e-01
3.910000000000000000e+02 3.770801544189453125e+01 1.810146141052246094e+01 2.835597991943359375e-01 5.386214256286621094e-01 2.466543614864349365e-01 4.130460321903228760e-01
3.920000000000000000e+02 4.036105728149414062e+01 1.923216056823730469e+01 4.545981884002685547e-01 1.072427749633789062e+00 4.581077694892883301e-01 7.443696260452270508e-01
3.930000000000000000e+02 3.394433212280273438e+01 1.394238853454589844e+01 8.883652836084365845e-02 1.957676112651824951e-01 8.538123965263366699e-02 1.590897738933563232e-01
3.940000000000000000e+02 3.671056747436523438e+01 1.510340881347656250e+01 2.303574681282043457e-01 6.829691529273986816e-01 2.739979922771453857e-01 3.875973522663116455e-01
3.950000000000000000e+02 3.560956573486328125e+01 -1.894671630859375000e+01 1.834869831800460815e-01 9.562677741050720215e-01 3.419264256954193115e-01 -4.835999310016632080e-01
3.960000000000000000e+02 4.047898864746093750e+01 -2.720021629333496094e+01 7.207898497581481934e-01 2.600774049758911133e+00 9.964691996574401855e-01 -1.340708494186401367e+00
3.970000000000000000e+02 4.231100845336914062e+01 -2.740922164916992188e+01 4.774475097656250000e-01 3.884376287460327148e+00 1.308547139167785645e+00 -1.436544418334960938e+00
3.980000000000000000e+02 4.465280532836914062e+01 -3.510519027709960938e+01 8.871231079101562500e-01 1.107173824310302734e+01 3.587658405303955078e+00 -1.279356718063354492e+00
3.990000000000000000e+02 4.578057861328125000e+01 -3.771461105346679688e+01 1.551162600517272949e+00 8.222457885742187500e+00 2.932086229324340820e+00 -1.795282959938049316e-01
4.000000000000000000e+02 4.438186264038085938e+01 -3.756661987304687500e+01 2.149070978164672852e+00 1.086197566986083984e+01 3.903314113616943359e+00 2.092149019241333008e+00
4.010000000000000000e+02 4.714928054809570312e+01 -4.150812530517578125e+01 2.825707495212554932e-01 7.529355525970458984e+00 2.343577861785888672e+00 -1.286271214485168457e-01
4.020000000000000000e+02 4.357090759277343750e+01 -3.960257720947265625e+01 1.338336110115051270e+00 3.519993782043457031e+00 1.457499027252197266e+00 1.690256237983703613e+00
4.030000000000000000e+02 3.828197097778320312e+01 -4.150519943237304688e+01 1.333390116691589355e+00 2.111721783876419067e-01 4.633687138557434082e-01 -5.135185122489929199e-01
4.040000000000000000e+02 3.727360153198242188e+01 -3.762419128417968750e+01 1.141532182693481445e+00 6.153141260147094727e-01 5.270538926124572754e-01 -2.324370741844177246e-01
4.050000000000000000e+02 3.207335662841796875e+01 -3.135909080505371094e+01 6.876205801963806152e-01 1.661426424980163574e+00 7.047141194343566895e-01 -9.171366691589355469e-01
4.060000000000000000e+02 2.651780128479003906e+01 -2.334317779541015625e+01 5.038974881172180176e-01 2.826722145080566406e+00 9.991859197616577148e-01 -1.116962075233459473e+00
4.070000000000000000e+02 2.564456176757812500e+01 -3.271982955932617188e+01 2.149007283151149750e-02 2.443387985229492188e+00 7.394634485244750977e-01 -4.567928314208984375e-01
4.080000000000000000e+02 2.534260177612304688e+01 -2.862485885620117188e+01 1.062272414565086365e-01 2.668278455734252930e+00 8.323516845703125000e-01 -6.948354244232177734e-01
4.090000000000000000e+02 2.617982673645019531e+01 -3.525359725952148438e+01 9.678886830806732178e-02 2.261334657669067383e+00 7.074370980262756348e-01 -3.927312791347503662e-01
4.100000000000000000e+02 3.088221359252929688e+01 -3.480735397338867188e+01 2.250451892614364624e-01 1.706136584281921387e+00 5.793545246124267578e-01 -6.270261406898498535e-01
4.110000000000000000e+02 3.561043930053710938e+01 -4.012104034423828125e+01 8.648147583007812500e-01 4.773638844490051270e-01 4.026536047458648682e-01 -2.317257821559906006e-01
4.120000000000000000e+02 3.592586898803710938e+01 -1.703409004211425781e+01 6.005429103970527649e-02 1.177039504051208496e+00 3.711281418800354004e-01 -4.275559484958648682e-01
4.130000000000000000e+02 4.002886199951171875e+01 -2.410067176818847656e+01 3.035815656185150146e-01 2.488150835037231445e+00 8.375197052955627441e-01 -9.892244935035705566e-01
4.140000000000000000e+02 3.203190994262695312e+01 -3.283026123046875000e+01 4.879626631736755371e-01 1.517464756965637207e+00 6.016282439231872559e-01 -7.097051739692687988e-01
4.150000000000000000e+02 3.001965522766113281e+01 -2.773196220397949219e+01 3.987647891044616699e-01 2.106225013732910156e+00 7.514969110488891602e-01 -9.903322458267211914e-01
4.160000000000000000e+02 2.639061164855957031e+01 -2.033168792724609375e+01 5.741271972656250000e-01 2.890635490417480469e+00 1.039428830146789551e+00 -1.400042176246643066e+00
4.170000000000000000e+02 2.363330078125000000e+01 -1.558401584625244141e+01 1.099090337753295898e+00 3.733833074569702148e+00 1.449877023696899414e+00 -2.096219778060913086e+00
4.180000000000000000e+02 2.591496086120605469e+01 -2.215456390380859375e+01 4.069653749465942383e-01 2.921314716339111328e+00 9.984840154647827148e-01 -1.239341735839843750e+00
4.190000000000000000e+02 2.819554710388183594e+01 -2.401923942565917969e+01 6.053536534309387207e-01 2.595827341079711914e+00 9.603543281555175781e-01 -1.144733667373657227e+00
4.200000000000000000e+02 2.316082000732421875e+01 -1.752454566955566406e+01 5.177398324012756348e-01 3.818797826766967773e+00 1.300961256027221680e+00 -1.684687614440917969e+00
4.210000000000000000e+02 1.579351806640625000e+01 -6.832616329193115234e-01 8.155529975891113281e+00 4.389315128326416016e+00 3.763453483581542969e+00 -3.345949649810791016e+00
4.220000000000000000e+02 5.169278717041015625e+01 4.152764129638671875e+01 -2.493285417556762695e+00 3.335379838943481445e+00 2.526282966136932373e-01 -5.475682020187377930e-01
4.230000000000000000e+02 5.063269424438476562e+01 3.853787612915039062e+01 -4.490390300750732422e+00 -3.799453079700469971e-01 -1.461100697517395020e+00 -1.444326281547546387e+00
4.240000000000000000e+02 4.856463623046875000e+01 3.970528793334960938e+01 -2.665986537933349609e+00 1.990864574909210205e-01 -7.400700449943542480e-01 -7.087916135787963867e-02
4.250000000000000000e+02 5.439189529418945312e+01 3.866853332519531250e+01 -2.524833202362060547e+00 1.410288906097412109e+01 3.473416805267333984e+00 -1.528882384300231934e+00
4.260000000000000000e+02 5.382425689697265625e+01 4.036482238769531250e+01 -4.290088176727294922e+00 7.303182601928710938e+00 9.039283990859985352e-01 -1.324380159378051758e+00
4.270000000000000000e+02 5.558304977416992188e+01 3.563730621337890625e+01 4.119228363037109375e+00 1.823589897155761719e+01 6.706538200378417969e+00 2.297739267349243164e+00
4.280000000000000000e+02 5.343966674804687500e+01 3.377975463867187500e+01 4.311740875244140625e+00 1.406791877746582031e+01 5.513897895812988281e+00 7.052722930908203125e+00
4.290000000000000000e+02 5.253259658813476562e+01 3.272637176513671875e+01 4.351923942565917969e+00 1.033648967742919922e+01 4.406524181365966797e+00 6.154676914215087891e+00
4.300000000000000000e+02 5.435398483276367188e+01 3.242582321166992188e+01 1.746136188507080078e+00 1.441553211212158203e+01 4.848500728607177734e+00 3.529891014099121094e+00
4.310000000000000000e+02 5.333842468261718750e+01 3.150843811035156250e+01 2.413542985916137695e+00 1.099485969543457031e+01 4.022520542144775391e+00 4.491779804229736328e+00
4.320000000000000000e+02 4.825353622436523438e+01 2.674207878112792969e+01 1.665924429893493652e+00 3.707069873809814453e+00 1.611898303031921387e+00 2.572784185409545898e+00
4.330000000000000000e+02 5.042664337158203125e+01 2.082962036132812500e+01 6.107656285166740417e-02 5.499750614166259766e+00 1.668248176574707031e+00 1.742433071136474609e+00
4.340000000000000000e+02 4.871606445312500000e+01 1.293077659606933594e+01 -1.683830618858337402e-01 4.515609741210937500e+00 1.304168105125427246e+00 1.060305237770080566e+00
4.350000000000000000e+02 4.565591812133789062e+01 4.200240612030029297e+00 -4.802512750029563904e-02 3.568713426589965820e+00 1.056206464767456055e+00 5.509934425354003906e-01
4.360000000000000000e+02 5.019615936279296875e+01 -6.503577709197998047e+00 -3.369555473327636719e-01 4.774303913116455078e+00 1.331204533576965332e+00 1.781066060066223145e-01
4.370000000000000000e+02 4.599326324462890625e+01 -1.066105079650878906e+01 -2.573191225528717041e-01 3.978766441345214844e+00 1.116434216499328613e+00 -5.378335341811180115e-02
4.380000000000000000e+02 4.908628082275390625e+01 -1.824676513671875000e+01 -3.644116520881652832e-01 5.121021270751953125e+00 1.426982879638671875e+00 -1.169790606945753098e-02
4.390000000000000000e+02 4.707390594482421875e+01 -2.582721710205078125e+01 -1.824755072593688965e-01 5.749530315399169922e+00 1.670116543769836426e+00 -2.905060350894927979e-01
4.400000000000000000e+02 4.816286849975585938e+01 -3.057425308227539062e+01 4.847779273986816406e-01 6.809088706970214844e+00 2.188159942626953125e+00 2.842061221599578857e-02
4.410000000000000000e+02 4.756720352172851562e+01 -3.844769668579101562e+01 1.208501338958740234e+00 7.661486625671386719e+00 2.660996437072753906e+00 -4.920587241649627686e-01
4.420000000000000000e+02 5.356570053100585938e+01 -3.756116104125976562e+01 1.042324423789978027e+00 6.860656261444091797e+00 2.370894193649291992e+00 -2.256207726895809174e-02
4.430000000000000000e+02 5.510385131835937500e+01 -2.788569259643554688e+01 2.440471798181533813e-01 6.545367717742919922e+00 2.036824464797973633e+00 5.289776325225830078e-01
4.440000000000000000e+02 5.265561294555664062e+01 -1.761545181274414062e+01 -3.813856542110443115e-01 5.730831623077392578e+00 1.604833841323852539e+00 2.108097970485687256e-01
4.450000000000000000e+02 5.422011184692382812e+01 -7.079032897949218750e+00 -3.921994566917419434e-01 5.583374500274658203e+00 1.557352423667907715e+00 2.608584761619567871e-01
4.460000000000000000e+02 5.311302185058593750e+01 -4.109286785125732422e+00 -3.804587423801422119e-01 5.310533523559570312e+00 1.479022383689880371e+00 2.952315509319305420e-01
4.470000000000000000e+02 5.957295227050781250e+01 2.354752302169799805e+00 -4.437095224857330322e-01 6.556666374206542969e+00 1.833887100219726562e+00 2.627441287040710449e-01
4.480000000000000000e+02 5.492860031127929688e+01 1.479326534271240234e+01 -5.393939018249511719e-01 6.491709709167480469e+00 1.785694837570190430e+00 7.525086998939514160e-01
4.490000000000000000e+02 5.532278442382812500e+01 2.003857803344726562e+01 -4.923335909843444824e-01 7.314275741577148438e+00 2.046582698822021484e+00 9.361857175827026367e-01
4.500000000000000000e+02 5.377547836303710938e+01 2.817189788818359375e+01 5.881412625312805176e-01 9.356896400451660156e+00 2.983511447906494141e+00 2.416530847549438477e+00
4.510000000000000000e+02 6.068980026245117188e+01 3.134158134460449219e+01 1.179005146026611328e+00 1.012084579467773438e+01 3.389955282211303711e+00 -1.069446578621864319e-01
4.520000000000000000e+02 7.935266113281250000e+01 2.931281089782714844e+01 -7.367752492427825928e-03 6.314965724945068359e+00 1.892279386520385742e+00 -9.962138533592224121e-02
4.530000000000000000e+02 7.938652801513671875e+01 3.205784606933593750e+01 -1.947948336601257324e-02 5.958297252655029297e+00 1.781645298004150391e+00 -8.052714169025421143e-02
4.540000000000000000e+02 7.918910980224609375e+01 3.758602142333984375e+01 2.982156164944171906e-02 5.668190479278564453e+00 1.709403634071350098e+00 4.027118161320686340e-02
4.550000000000000000e+02 7.755522918701171875e+01 3.903010177612304688e+01 3.964832052588462830e-02 5.886950016021728516e+00 1.777979493141174316e+00 3.769649192690849304e-02
4.560000000000000000e+02 4.554656219482421875e+01 2.590876579284667969e+01 1.499110221862792969e+00 1.932978034019470215e+00 1.029626488685607910e+00 1.723003625869750977e+00
4.570000000000000000e+02 4.048437881469726562e+01 2.116180992126464844e+01 5.598575472831726074e-01 7.206811904907226562e-01 3.841616213321685791e-01 6.339993476867675781e-01
4.580000000000000000e+02 4.302644729614257812e+01 2.026383781433105469e+01 5.518962144851684570e-01 1.872234821319580078e+00 7.272393107414245605e-01 1.185272097587585449e+00
4.590000000000000000e+02 4.065508270263671875e+01 9.964280128479003906e+00 2.316784411668777466e-01 2.075365066528320312e+00 6.921130418777465820e-01 7.102385759353637695e-01
4.600000000000000000e+02 4.279779434204101562e+01 6.472191333770751953e+00 1.349430382251739502e-01 2.770675659179687500e+00 8.716855645179748535e-01 6.322519183158874512e-01
4.610000000000000000e+02 4.072945404052734375e+01 -3.097433328628540039e+00 1.010357961058616638e-01 2.461421012878417969e+00 7.687370777130126953e-01 3.745356202125549316e-02
4.620000000000000000e+02 4.076802062988281250e+01 -1.072222709655761719e+01 -1.208626851439476013e-01 2.687548398971557617e+00 7.700057029724121094e-01 -2.099915742874145508e-01
4.630000000000000000e+02 4.129700469970703125e+01 -1.868510246276855469e+01 -1.311096251010894775e-01 3.021546363830566406e+00 8.671309947967529297e-01 -5.704274773597717285e-01
4.640000000000000000e+02 3.953524398803710938e+01 -1.800561141967773438e+01 -5.476325377821922302e-02 2.346789598464965820e+00 6.876078844070434570e-01 -5.666630864143371582e-01
4.650000000000000000e+02 4.128462219238281250e+01 2.020159721374511719e+01 5.104972124099731445e-01 1.201811790466308594e+00 5.136927366256713867e-01 8.881267905235290527e-01
4.660000000000000000e+02 3.096230697631835938e+01 1.094201946258544922e+01 4.837426170706748962e-02 7.851351797580718994e-02 3.806633502244949341e-02 2.596902847290039062e-02
4.670000000000000000e+02 2.675108528137207031e+01 7.224310874938964844e+00 1.345868408679962158e-01 8.403865993022918701e-02 6.558765470981597900e-02 2.431362308561801910e-02
4.680000000000000000e+02 2.783473968505859375e+01 8.117291450500488281e+00 4.811681807041168213e-02 -3.275189315900206566e-03 1.345248892903327942e-02 7.770597189664840698e-02
4.690000000000000000e+02 2.557087135314941406e+01 -4.112517833709716797e+00 4.675816297531127930e-01 2.086205780506134033e-01 2.028606683015823364e-01 -1.385829299688339233e-01
4.700000000000000000e+02 2.742417335510253906e+01 -6.166270256042480469e+00 1.729005724191665649e-01 6.444039195775985718e-02 7.120228558778762817e-02 1.812436245381832123e-02
4.710000000000000000e+02 3.294837570190429688e+01 -3.090053796768188477e+00 6.071168780326843262e-01 7.162927985191345215e-01 3.970229029655456543e-01 -8.226896822452545166e-02
4.720000000000000000e+02 2.564068222045898438e+01 6.372823715209960938e+00 4.821832850575447083e-02 -7.947478443384170532e-03 1.208125520497560501e-02 1.326308548450469971e-01
4.730000000000000000e+02 2.360883522033691406e+01 -2.095775604248046875e+00 1.307892560958862305e+00 5.199782848358154297e-01 5.483612418174743652e-01 -5.000133514404296875e-01
4.740000000000000000e+02 1.473992443084716797e+01 -5.498961806297302246e-01 1.077447795867919922e+01 1.436767768859863281e+01 7.542646884918212891e+00 -6.606997489929199219e+00
4.750000000000000000e+02 1.434714889526367188e+01 4.434427022933959961e-01 3.392246723175048828e+00 3.118038940429687500e+01 1.037179088592529297e+01 -6.705775260925292969e+00
4.760000000000000000e+02 1.289575862884521484e+01 1.415759563446044922e+00 -5.163114070892333984e-01 3.076412391662597656e+01 9.074343681335449219e+00 -7.520840167999267578e+00
4.770000000000000000e+02 1.062932395935058594e+01 1.654651641845703125e+00 4.296888351440429688e+00 1.657234907150268555e+00 1.786236882209777832e+00 -1.614721059799194336e+00
4.780000000000000000e+02 1.040089321136474609e+01 1.688143014907836914e+00 3.531108856201171875e+00 1.571167707443237305e+00 1.530682921409606934e+00 -1.195327043533325195e+00
4.790000000000000000e+02 1.504574108123779297e+01 5.570314407348632812e+00 3.641216754913330078e+00 1.048769092559814453e+01 4.238672256469726562e+00 5.466684341430664062e+00
4.800000000000000000e+02 1.395357704162597656e+01 5.228004932403564453e+00 2.397591590881347656e+00 1.718550491333007812e+01 5.874928474426269531e+00 4.075574398040771484e+00
4.810000000000000000e+02 1.888123703002929688e+01 9.307760238647460938e+00 1.125719547271728516e+00 2.070506095886230469e+00 9.588676691055297852e-01 1.493629097938537598e+00
4.820000000000000000e+02 1.659935760498046875e+01 1.452492046356201172e+01 -9.187203049659729004e-01 4.182199954986572266e+00 9.790438413619995117e-01 4.057581424713134766e-01
4.830000000000000000e+02 1.888997459411621094e+01 2.460921478271484375e+01 -7.230886816978454590e-01 2.472211360931396484e+00 5.247368216514587402e-01 -1.528076976537704468e-01
4.840000000000000000e+02 1.471280479431152344e+01 3.109875679016113281e+01 -4.616956710815429688e-01 3.146311044692993164e+00 8.053845763206481934e-01 -2.736529707908630371e-01
4.850000000000000000e+02 1.777867889404296875e+01 4.101596069335937500e+01 -3.302502334117889404e-01 2.495972871780395508e+00 6.497167944908142090e-01 -1.414592657238245010e-02
4.860000000000000000e+02 1.307598590850830078e+01 4.075862121582031250e+01 -2.134431898593902588e-01 3.433786630630493164e+00 9.661030173301696777e-01 -5.174683779478073120e-02
4.870000000000000000e+02 8.432267189025878906e+00 4.067158889770507812e+01 -9.957184642553329468e-02 4.351642131805419922e+00 1.275621175765991211e+00 -4.005769267678260803e-02
4.880000000000000000e+02 8.305465698242187500e+00 3.120452308654785156e+01 -2.419929057359695435e-01 4.330070972442626953e+00 1.226423382759094238e+00 -3.013454675674438477e-01
4.890000000000000000e+02 8.383051872253417969e+00 2.337339019775390625e+01 -5.323081612586975098e-01 4.299668312072753906e+00 1.130208015441894531e+00 -7.866278290748596191e-01
4.900000000000000000e+02 6.990517616271972656e+00 1.553563213348388672e+01 -6.357778310775756836e-01 4.316759586334228516e+00 1.104294538497924805e+00 -1.693478226661682129e+00
4.910000000000000000e+02 1.215834617614746094e+01 7.627298831939697266e+00 -6.083712577819824219e-01 1.067144775390625000e+01 3.018923044204711914e+00 -2.083742380142211914e+00
4.920000000000000000e+02 6.639183998107910156e+00 1.855130791664123535e+00 -3.759453892707824707e-01 -1.304522305727005005e-01 -1.519192904233932495e-01 8.459647297859191895e-01
4.930000000000000000e+02 1.015137481689453125e+01 1.733607769012451172e+00 3.028644323348999023e+00 4.361965358257293701e-01 1.039452314376831055e+00 -7.542111277580261230e-01
4.940000000000000000e+02 1.821611595153808594e+01 1.038113975524902344e+01 4.376485347747802734e-01 2.981040716171264648e+00 1.025606751441955566e+00 1.488375425338745117e+00
4.950000000000000000e+02 2.080967330932617188e+01 1.128256130218505859e+01 4.328942000865936279e-01 1.052274584770202637e+00 4.455506205558776855e-01 6.927033066749572754e-01
4.960000000000000000e+02 2.486052513122558594e+01 1.727046585083007812e+01 -4.880017042160034180e-01 2.618275284767150879e-01 -6.785225123167037964e-02 -1.499000787734985352e-01
4.970000000000000000e+02 2.341821861267089844e+01 2.123765373229980469e+01 -6.252599358558654785e-01 1.149659872055053711e+00 1.573199927806854248e-01 -4.560164362192153931e-02
4.980000000000000000e+02 2.534271812438964844e+01 3.270387649536132812e+01 -5.308327078819274902e-01 1.030251622200012207e+00 1.498256772756576538e-01 -1.957641541957855225e-01
4.990000000000000000e+02 2.253278923034667969e+01 4.109313964843750000e+01 -4.221711754798889160e-01 1.615638256072998047e+00 3.580401241779327393e-01 -4.009579494595527649e-02
5.000000000000000000e+02 2.764552879333496094e+01 1.821671485900878906e+01 -6.373253464698791504e-01 -4.302640259265899658e-01 -3.202768266201019287e-01 -5.470703244209289551e-01
5.010000000000000000e+02 3.164065170288085938e+01 2.206500625610351562e+01 -6.971450448036193848e-01 -6.615980863571166992e-01 -4.076229333877563477e-01 -7.340191602706909180e-01
5.020000000000000000e+02 3.255643463134765625e+01 2.308109664916992188e+01 -7.091384530067443848e-01 -7.829639315605163574e-01 -4.476307034492492676e-01 -7.420175075531005859e-01
5.030000000000000000e+02 3.247770690917968750e+01 3.123686218261718750e+01 -6.840762495994567871e-01 -1.862197220325469971e-01 -2.610887885093688965e-01 -5.065121650695800781e-01
5.040000000000000000e+02 2.734129142761230469e+01 4.102796554565429688e+01 -5.150323510169982910e-01 7.784796953201293945e-01 7.903420925140380859e-02 -1.191292516887187958e-02
5.050000000000000000e+02 2.687780952453613281e+01 3.797380447387695312e+01 -5.459413528442382812e-01 8.347255587577819824e-01 8.663526177406311035e-02 -1.334283500909805298e-01
5.060000000000000000e+02 3.019131088256835938e+01 2.517490196228027344e+01 -6.584639549255371094e-01 -2.291878461837768555e-01 -2.662955522537231445e-01 -5.272335410118103027e-01
5.070000000000000000e+02 3.527215576171875000e+01 2.628449821472167969e+01 -7.847947478294372559e-01 -9.773417711257934570e-01 -5.286409854888916016e-01 -9.110601544380187988e-01
5.080000000000000000e+02 3.721982574462890625e+01 3.052758216857910156e+01 -8.747442364692687988e-01 -8.583999276161193848e-01 -5.199432373046875000e-01 -8.647958636283874512e-01
5.090000000000000000e+02 3.756959915161132812e+01 3.790171813964843750e+01 -1.014321923255920410e+00 -3.908134996891021729e-01 -4.215406179428100586e-01 -4.153249859809875488e-01
5.100000000000000000e+02 3.444023132324218750e+01 3.615255355834960938e+01 -8.477515578269958496e-01 -2.725975513458251953e-01 -3.361047506332397461e-01 -3.472294509410858154e-01
5.110000000000000000e+02 4.105168914794921875e+01 3.220044326782226562e+01 -1.084735631942749023e+00 -8.339831233024597168e-01 -5.756155848503112793e-01 -1.013602018356323242e+00
5.120000000000000000e+02 4.294585800170898438e+01 3.635278701782226562e+01 -1.312081694602966309e+00 -7.276668548583984375e-01 -6.119245290756225586e-01 -8.453345894813537598e-01
5.130000000000000000e+02 4.432411575317382812e+01 3.513643646240234375e+01 -1.478258848190307617e+00 -8.433134555816650391e-01 -6.964716911315917969e-01 -8.755046129226684570e-01
5.140000000000000000e+02 4.668846130371093750e+01 3.659695816040039062e+01 -2.088776111602783203e+00 -1.038615107536315918e+00 -9.382174015045166016e-01 -8.929740190505981445e-01
5.150000000000000000e+02 1.156564712524414062e+00 2.140510559082031250e+00 -6.484851241111755371e-02 -3.348707854747772217e-01 -1.199157908558845520e-01 3.364530503749847412e-01
5.160000000000000000e+02 4.833659231662750244e-01 6.332883358001708984e+00 4.260047897696495056e-02 -1.275972247123718262e+00 -3.700115382671356201e-01 -2.739931456744670868e-02
5.170000000000000000e+02 1.629622101783752441e+00 8.978127479553222656e+00 1.398335248231887817e-01 1.729632765054702759e-01 9.383904188871383667e-02 -6.268162727355957031e-01
5.180000000000000000e+02 1.778350353240966797e+00 1.727076721191406250e+01 -4.693347215652465820e-02 3.397812843322753906e+00 1.005263805389404297e+00 -6.582411527633666992e-01
5.190000000000000000e+02 1.808975696563720703e+00 1.866565513610839844e+01 -7.710393518209457397e-02 3.806941032409667969e+00 1.118951201438903809e+00 -5.692206621170043945e-01
5.200000000000000000e+02 6.050178408622741699e-01 1.900402259826660156e+01 1.973577309399843216e-03 3.932011842727661133e+00 1.180195569992065430e+00 -2.064317911863327026e-01
5.210000000000000000e+02 1.990692734718322754e+00 2.572629928588867188e+01 -3.286224231123924255e-02 5.096414089202880859e+00 1.519065618515014648e+00 -2.595044374465942383e-01
5.220000000000000000e+02 2.166177988052368164e+00 3.000080871582031250e+01 -2.752092480659484863e-02 5.436111927032470703e+00 1.622577190399169922e+00 -1.568044573068618774e-01
5.230000000000000000e+02 6.340791702270507812e+00 3.758335494995117188e+01 -1.278211176395416260e-01 4.725078105926513672e+00 1.379177093505859375e+00 -1.336939036846160889e-01
5.240000000000000000e+02 2.014426231384277344e+00 4.159031677246093750e+01 6.289630383253097534e-02 5.821639060974121094e+00 1.765360593795776367e+00 1.751532405614852905e-02
5.250000000000000000e+02 1.015783023834228516e+01 -1.720585346221923828e+00 1.990093588829040527e+00 9.419706463813781738e-01 8.796192407608032227e-01 1.166586995124816895e+00
5.260000000000000000e+02 4.576746940612792969e+00 -1.937562584877014160e+00 -2.491649389266967773e-01 -4.007561597973108292e-03 -7.595174759626388550e-02 -4.051762223243713379e-01
5.270000000000000000e+02 1.673615574836730957e+00 -1.090792655944824219e+01 3.400606289505958557e-02 4.065700247883796692e-02 2.239891886711120605e-02 2.946914732456207275e-01
5.280000000000000000e+02 1.813451170921325684e+00 -1.782245635986328125e+01 -2.225097827613353729e-02 1.212274193763732910e+00 3.570069670677185059e-01 3.117694854736328125e-01
5.290000000000000000e+02 6.284782886505126953e-01 -2.480938339233398438e+01 -7.081089541316032410e-03 1.926578164100646973e+00 5.758491158485412598e-01 6.771817803382873535e-02
5.300000000000000000e+02 7.524979710578918457e-01 -3.183685493469238281e+01 3.624846925958991051e-03 2.484395742416381836e+00 7.464061975479125977e-01 4.103949293494224548e-02
5.310000000000000000e+02 3.033895730972290039e+00 -3.790704727172851562e+01 -1.315348874777555466e-02 2.697920799255371094e+00 8.054302334785461426e-01 5.321173369884490967e-02
5.320000000000000000e+02 8.630857467651367188e-01 -3.728824996948242188e+01 3.404503513593226671e-04 2.680343866348266602e+00 8.042052984237670898e-01 1.358966249972581863e-02
5.330000000000000000e+02 2.719484519958496094e+01 -4.104273986816406250e+01 1.113170161843299866e-01 2.030126094818115234e+00 6.424329280853271484e-01 -9.701765328645706177e-02
5.340000000000000000e+02 3.637367248535156250e+01 -3.668053054809570312e+01 1.177132502198219299e-01 5.578694343566894531e-01 2.026748061180114746e-01 -6.427708268165588379e-01
5.350000000000000000e+02 6.225225448608398438e+01 -4.058980178833007812e+01 6.100974678993225098e-01 6.830812454223632812e+00 2.232272863388061523e+00 1.096981763839721680e-01
5.360000000000000000e+02 6.184246063232421875e+01 -3.207909393310546875e+01 4.358225166797637939e-01 6.802972316741943359e+00 2.171638488769531250e+00 4.915288388729095459e-01
5.370000000000000000e+02 6.499669647216796875e+01 -2.535105705261230469e+01 7.105086743831634521e-02 7.028914451599121094e+00 2.129989624023437500e+00 5.915609598159790039e-01
5.380000000000000000e+02 6.425031280517578125e+01 -1.868870353698730469e+01 -1.579204052686691284e-01 7.022689342498779297e+00 2.059430599212646484e+00 5.497012734413146973e-01
5.390000000000000000e+02 6.514639282226562500e+01 -3.104817867279052734e+00 -3.054064810276031494e-01 7.217889785766601562e+00 2.073745012283325195e+00 2.272723764181137085e-01
5.400000000000000000e+02 6.643696594238281250e+01 2.965488433837890625e+00 -3.327297866344451904e-01 7.489890575408935547e+00 2.147148132324218750e+00 4.854596778750419617e-02
5.410000000000000000e+02 6.722138214111328125e+01 1.330796432495117188e+01 -4.080674648284912109e-01 7.923217296600341797e+00 2.254544973373413086e+00 -3.474762737751007080e-01
5.420000000000000000e+02 6.634383392333984375e+01 1.587534427642822266e+01 -4.217960834503173828e-01 8.014552116394042969e+00 2.277826786041259766e+00 -4.239086210727691650e-01
5.430000000000000000e+02 6.364881896972656250e+01 2.482663726806640625e+01 -7.437849044799804688e-02 8.821083068847656250e+00 2.624011516571044922e+00 -5.734873414039611816e-01
5.440000000000000000e+02 6.487498474121093750e+01 2.303910636901855469e+01 -2.209397703409194946e-01 8.565713882446289062e+00 2.503432035446166992e+00 -6.382815241813659668e-01
5.450000000000000000e+02 6.106686019897460938e+01 -3.679199600219726562e+01 6.201958060264587402e-01 6.793666839599609375e+00 2.224158763885498047e+00 2.733758091926574707e-01
5.460000000000000000e+02 6.717266082763671875e+01 -4.066135787963867188e+01 3.833954334259033203e-01 6.953304290771484375e+00 2.201009988784790039e+00 8.546135574579238892e-02
5.470000000000000000e+02 7.177539062500000000e+01 -3.199187660217285156e+01 1.114462018013000488e-01 7.222371101379394531e+00 2.200145244598388672e+00 3.477244675159454346e-01
5.480000000000000000e+02 7.194489288330078125e+01 -2.380957794189453125e+01 -6.095918361097574234e-03 7.496459484100341797e+00 2.247108936309814453e+00 4.481507539749145508e-01
5.490000000000000000e+02 7.183972930908203125e+01 -1.772204780578613281e+01 -5.092677474021911621e-02 7.692214012145996094e+00 2.292386293411254883e+00 4.111980199813842773e-01
5.500000000000000000e+02 7.145262908935546875e+01 -1.138403415679931641e+01 -1.150182336568832397e-01 7.829025745391845703e+00 2.314202308654785156e+00 3.164902925491333008e-01
5.510000000000000000e+02 6.982247924804687500e+01 -3.728117465972900391e+00 -1.829583346843719482e-01 7.757649898529052734e+00 2.272407531738281250e+00 1.637713909149169922e-01
5.520000000000000000e+02 7.273689270019531250e+01 5.018682956695556641e+00 -1.539403796195983887e-01 8.203965187072753906e+00 2.415007352828979492e+00 -1.233189404010772705e-01
5.530000000000000000e+02 7.285046386718750000e+01 1.170730781555175781e+01 -1.578676253557205200e-01 8.171654701232910156e+00 2.404136180877685547e+00 -3.709129393100738525e-01
5.540000000000000000e+02 7.271286010742187500e+01 1.868338012695312500e+01 -1.454150080680847168e-01 8.017033576965332031e+00 2.361485719680786133e+00 -6.204239726066589355e-01
5.550000000000000000e+02 7.329520416259765625e+01 2.491700553894042969e+01 2.233584597706794739e-02 7.715390682220458984e+00 2.321317911148071289e+00 -7.164629101753234863e-01
5.560000000000000000e+02 7.303857421875000000e+01 2.281375885009765625e+01 -5.034965649247169495e-02 7.845601558685302734e+00 2.338575601577758789e+00 -7.244440913200378418e-01
5.570000000000000000e+02 7.116623687744140625e+01 -3.817374801635742188e+01 1.942664831876754761e-01 7.083688735961914062e+00 2.183386564254760742e+00 1.588606387376785278e-01
5.580000000000000000e+02 7.798560333251953125e+01 -4.166255950927734375e+01 1.113083492964506149e-02 7.072266578674316406e+00 2.125019311904907227e+00 3.032285021618008614e-03
5.590000000000000000e+02 7.761254119873046875e+01 -3.702476119995117188e+01 1.120563875883817673e-02 7.157845497131347656e+00 2.150715351104736328e+00 6.684073060750961304e-02
5.600000000000000000e+02 7.924037933349609375e+01 -3.337258148193359375e+01 -3.951423335820436478e-03 7.285202980041503906e+00 2.184375524520874023e+00 4.030362516641616821e-02
5.610000000000000000e+02 7.779419708251953125e+01 -3.040951538085937500e+01 1.520874258130788803e-02 7.445013999938964844e+00 2.238066911697387695e+00 1.389512419700622559e-01
5.620000000000000000e+02 7.932277679443359375e+01 -2.638276863098144531e+01 7.036869414150714874e-03 7.747868061065673828e+00 2.326471328735351562e+00 5.149629339575767517e-02
5.630000000000000000e+02 7.805726623535156250e+01 -2.341125297546386719e+01 -8.818770758807659149e-03 7.896956920623779297e+00 2.366441488265991211e+00 1.449966281652450562e-01
5.640000000000000000e+02 7.809243011474609375e+01 -1.652643966674804688e+01 1.946456730365753174e-03 8.347092628479003906e+00 2.504711627960205078e+00 1.216044500470161438e-01
5.650000000000000000e+02 7.803371429443359375e+01 -9.554986000061035156e+00 -1.572947017848491669e-02 8.694224357604980469e+00 2.603548526763916016e+00 8.118601143360137939e-02
5.660000000000000000e+02 7.806465148925781250e+01 -2.529061079025268555e+00 -4.467894788831472397e-03 8.887990951538085938e+00 2.665056943893432617e+00 1.832089386880397797e-02
5.670000000000000000e+02 7.807508850097656250e+01 4.441612720489501953e+00 -2.112921513617038727e-02 8.868794441223144531e+00 2.654299497604370117e+00 -5.462998896837234497e-02
5.680000000000000000e+02 7.808052062988281250e+01 1.138930797576904297e+01 -1.012158486992120743e-02 8.576496124267578125e+00 2.569912433624267578e+00 -1.548669189214706421e-01
5.690000000000000000e+02 7.809555816650390625e+01 1.972347640991210938e+01 -7.786972913891077042e-03 7.804926872253417969e+00 2.339142084121704102e+00 -2.710627913475036621e-01
5.700000000000000000e+02 7.684665679931640625e+01 2.255899238586425781e+01 -1.879228465259075165e-02 7.550118923187255859e+00 2.259397983551025391e+00 -4.346547126770019531e-01
5.710000000000000000e+02 7.936040496826171875e+01 2.375739669799804688e+01 1.343817566521465778e-03 7.168664455413818359e+00 2.151002407073974609e+00 -1.169723570346832275e-01
5.720000000000000000e+02 7.064701843261718750e+01 3.767296218872070312e+01 3.452245295047760010e-01 7.968343257904052734e+00 2.494070291519165039e+00 -2.196622937917709351e-01
5.730000000000000000e+02 7.195701599121093750e+01 3.442847061157226562e+01 3.281359970569610596e-01 7.673840999603271484e+00 2.400593042373657227e+00 -4.131362438201904297e-01
5.740000000000000000e+02 5.995470809936523438e+01 3.980530166625976562e+01 -6.688278317451477051e-01 1.222462177276611328e+01 3.466738224029541016e+00 1.252801895141601562e+00
5.750000000000000000e+02 6.401694488525390625e+01 3.781079483032226562e+01 5.934038758277893066e-01 1.000120735168457031e+01 3.178383350372314453e+00 6.053964495658874512e-01
5.760000000000000000e+02 5.987507629394531250e+01 3.335307693481445312e+01 2.140012025833129883e+00 1.043083953857421875e+01 3.771255254745483398e+00 2.243538945913314819e-01
5.770000000000000000e+02 8.745101094245910645e-01 3.466825866699218750e+01 -1.396491564810276031e-02 5.975225925445556641e+00 1.788378238677978516e+00 -9.350518696010112762e-03
5.780000000000000000e+02 6.817743182182312012e-01 2.749053192138671875e+01 -5.242200102657079697e-03 5.569976329803466797e+00 1.669420361518859863e+00 -7.550237327814102173e-02
5.790000000000000000e+02 7.935887145996093750e+01 2.875738382339477539e+00 -1.026904396712779999e-02 9.099764823913574219e+00 2.726848840713500977e+00 -1.863559335470199585e-02
5.800000000000000000e+02 6.589552307128906250e+01 1.963886141777038574e+00 -3.390800654888153076e-01 7.409757614135742188e+00 2.121203422546386719e+00 7.756301015615463257e-02
5.810000000000000000e+02 6.159517288208007812e+01 -4.418479919433593750e+00 -3.681917488574981689e-01 6.733782291412353516e+00 1.909677267074584961e+00 2.927664816379547119e-01
5.820000000000000000e+02 4.556692886352539062e+01 -4.726272106170654297e+00 -1.496986150741577148e-01 3.679885864257812500e+00 1.059056162834167480e+00 1.219172477722167969e-01
5.830000000000000000e+02 4.738882827758789062e+01 7.003189563751220703e+00 -1.280723810195922852e-01 4.036540031433105469e+00 1.172540307044982910e+00 7.143505215644836426e-01
5.840000000000000000e+02 2.991879081726074219e+01 9.994804382324218750e+00 1.851961016654968262e-02 1.231778413057327271e-02 9.251218289136886597e-03 4.954950883984565735e-02
5.850000000000000000e+02 3.445839309692382812e+01 7.038596630096435547e+00 4.326622486114501953e-01 8.216093182563781738e-01 3.762814700603485107e-01 3.454012274742126465e-01
5.860000000000000000e+02 5.680870819091796875e+01 -1.408188247680664062e+01 -3.655525445938110352e-01 6.174789428710937500e+00 1.742771029472351074e+00 3.590764105319976807e-01
5.870000000000000000e+02 4.745852279663085938e+01 -1.136683845520019531e+01 -3.149049282073974609e-01 4.367309093475341797e+00 1.215721249580383301e+00 -2.562499977648258209e-02
5.880000000000000000e+02 6.648250579833984375e+01 -3.429222106933593750e+00 -2.599114477634429932e-01 7.376070499420166016e+00 2.134847640991210938e+00 1.998798847198486328e-01
5.890000000000000000e+02 7.209693908691406250e+01 -5.929503440856933594e+00 -1.173937842249870300e-01 8.015596389770507812e+00 2.369460821151733398e+00 1.849738061428070068e-01
5.900000000000000000e+02 7.935020446777343750e+01 -5.495338439941406250e+00 -8.704491890966892242e-03 9.035599708557128906e+00 2.708068609237670898e+00 1.325722597539424896e-02
5.910000000000000000e+02 3.333232879638671875e+01 -1.027898406982421875e+01 -1.487122150138020515e-03 7.361249327659606934e-01 2.203913480043411255e-01 -2.243123501539230347e-01
5.920000000000000000e+02 5.357672119140625000e+01 -1.621239280700683594e+01 -3.821919858455657959e-01 5.775778770446777344e+00 1.618075966835021973e+00 2.699638009071350098e-01
5.930000000000000000e+02 4.797525787353515625e+01 -1.671482086181640625e+01 -3.908192515373229980e-01 4.788194656372070312e+00 1.319212675094604492e+00 -9.148816764354705811e-02
5.940000000000000000e+02 6.751390838623046875e+01 -1.278388881683349609e+01 -1.855575293302536011e-01 7.358474731445312500e+00 2.151875257492065430e+00 4.255953133106231689e-01
5.950000000000000000e+02 7.283129882812500000e+01 -1.247980976104736328e+01 -7.979828119277954102e-02 7.949871063232421875e+00 2.361021757125854492e+00 3.012315630912780762e-01
5.960000000000000000e+02 7.935422515869140625e+01 -1.247679233551025391e+01 5.471457727253437042e-03 8.740756988525390625e+00 2.623868703842163086e+00 3.212384134531021118e-02
5.970000000000000000e+02 5.958752822875976562e+01 -2.523680877685546875e+01 8.990944921970367432e-02 6.706125259399414062e+00 2.038810491561889648e+00 6.159971952438354492e-01
5.980000000000000000e+02 4.739218902587890625e+01 -2.468614578247070312e+01 -1.299896836280822754e-01 5.529569149017333984e+00 1.619873881340026855e+00 -2.786681652069091797e-01
5.990000000000000000e+02 6.557096099853515625e+01 -1.830107498168945312e+01 -1.356615871191024780e-01 7.137349605560302734e+00 2.100506305694580078e+00 5.454556941986083984e-01
6.000000000000000000e+02 7.303222656250000000e+01 -1.900387191772460938e+01 -3.080880083143711090e-02 7.745414733886718750e+00 2.314381837844848633e+00 3.843905925750732422e-01
6.010000000000000000e+02 7.936270904541015625e+01 -2.220715713500976562e+01 -8.691946975886821747e-03 8.072210311889648438e+00 2.419055700302124023e+00 5.019877478480339050e-02
6.020000000000000000e+02 4.903126525878906250e+01 -3.337392044067382812e+01 1.188767790794372559e+00 7.043772697448730469e+00 2.469762086868286133e+00 1.215398982167243958e-01
6.030000000000000000e+02 6.746696472167968750e+01 -2.303275299072265625e+01 -1.588503643870353699e-02 7.225483894348144531e+00 2.162879705429077148e+00 5.576164722442626953e-01
6.040000000000000000e+02 7.270728302001953125e+01 -2.530990791320800781e+01 9.450134821236133575e-03 7.486448764801025391e+00 2.248769760131835938e+00 4.155024886131286621e-01
6.050000000000000000e+02 4.422716522216796875e+01 -2.760579872131347656e+01 1.971102505922317505e-01 5.119347572326660156e+00 1.594937443733215332e+00 -1.139121174812316895e+00
6.060000000000000000e+02 6.370304870605468750e+01 -3.045646286010742188e+01 2.818201780319213867e-01 6.904967308044433594e+00 2.156036138534545898e+00 5.305727720260620117e-01
6.070000000000000000e+02 7.290765380859375000e+01 -3.387401580810546875e+01 1.099626645445823669e-01 7.205382823944091797e+00 2.194603681564331055e+00 2.862110435962677002e-01
6.080000000000000000e+02 4.562887573242187500e+01 -3.384187698364257812e+01 1.320616483688354492e+00 8.977236747741699219e+00 3.089355945587158203e+00 -8.800963759422302246e-01
6.090000000000000000e+02 3.290644836425781250e+01 -3.238886642456054688e+01 5.928018689155578613e-01 1.197071075439453125e+00 5.369619131088256836e-01 -8.675846457481384277e-01
6.100000000000000000e+02 6.489015579223632812e+00 -3.132164192199707031e+01 -1.028689518570899963e-01 2.693928241729736328e+00 7.773178219795227051e-01 2.311554253101348877e-01
6.110000000000000000e+02 1.665284538269042969e+01 -3.134545516967773438e+01 -2.004764080047607422e-01 3.054290771484375000e+00 8.561443686485290527e-01 -4.870857298374176025e-02
6.120000000000000000e+02 7.339283466339111328e+00 -2.435672569274902344e+01 -1.671329885721206665e-01 2.736654520034790039e+00 7.708564400672912598e-01 4.462933838367462158e-01
6.130000000000000000e+02 2.042574501037597656e+01 -2.732627105712890625e+01 -1.249246075749397278e-01 3.192666292190551758e+00 9.203225374221801758e-01 -4.287148416042327881e-01
6.140000000000000000e+02 6.949636340141296387e-01 -3.041861915588378906e+01 -6.764965597540140152e-03 2.400712013244628906e+00 7.181841135025024414e-01 4.337772354483604431e-02
6.150000000000000000e+02 6.511429309844970703e+00 -1.496409130096435547e+01 -1.221244707703590393e-01 2.518790006637573242e+00 7.189996838569641113e-01 7.863541841506958008e-01
6.160000000000000000e+02 1.932108116149902344e+01 -1.957783889770507812e+01 -7.564986497163772583e-02 4.222184181213378906e+00 1.243960261344909668e+00 -8.169257640838623047e-01
6.170000000000000000e+02 6.217806935310363770e-01 -2.340662384033203125e+01 4.441073542693629861e-05 1.765432119369506836e+00 5.296429395675659180e-01 7.562354952096939087e-02
6.180000000000000000e+02 6.031968593597412109e-01 -1.778510665893554688e+01 -1.550868735648691654e-03 8.967252373695373535e-01 2.685523033142089844e-01 1.117289811372756958e-01
6.190000000000000000e+02 6.857407093048095703e+00 -9.879232406616210938e+00 2.496612519025802612e-01 2.451440572738647461e+00 8.103305101394653320e-01 9.819045066833496094e-01
6.200000000000000000e+02 5.569381117820739746e-01 -1.076272392272949219e+01 7.607783190906047821e-03 -5.399425625801086426e-01 -1.597004383802413940e-01 1.023077219724655151e-01
6.210000000000000000e+02 5.662395095825195312e+01 3.912730026245117188e+01 -1.928406834602355957e+00 1.394368648529052734e+01 3.604583740234375000e+00 3.958707571029663086e+00
6.220000000000000000e+02 5.541792678833007812e+01 3.325365829467773438e+01 2.020770549774169922e+00 1.386796188354492188e+01 4.766619682312011719e+00 1.064581155776977539e+00
6.230000000000000000e+02 4.622860717773437500e+01 2.490201187133789062e+01 1.333703756332397461e+00 2.599997282028198242e+00 1.180110335350036621e+00 1.888118863105773926e+00
6.240000000000000000e+02 5.191945648193359375e+01 1.874064826965332031e+01 -2.887274622917175293e-01 5.985783576965332031e+00 1.709116816520690918e+00 1.341433405876159668e+00
6.250000000000000000e+02 4.987068557739257812e+01 2.177081298828125000e+01 2.231571227312088013e-01 5.211579322814941406e+00 1.630420923233032227e+00 1.880793094635009766e+00
6.260000000000000000e+02 3.960796356201171875e+01 1.075926113128662109e+01 1.996240764856338501e-01 1.754442453384399414e+00 5.862199664115905762e-01 6.947323679924011230e-01
6.270000000000000000e+02 4.730192184448242188e+01 1.290526962280273438e+01 -8.473675698041915894e-02 3.998482465744018555e+00 1.174123764038085938e+00 1.075940370559692383e+00
6.280000000000000000e+02 6.757530212402343750e+01 1.577604007720947266e+01 -3.949183821678161621e-01 8.054876327514648438e+00 2.297987461090087891e+00 -4.658776819705963135e-01
6.290000000000000000e+02 7.268338775634765625e+01 1.724124717712402344e+01 -1.472669988870620728e-01 8.056208610534667969e+00 2.372682571411132812e+00 -5.890679955482482910e-01
6.300000000000000000e+02 7.936267089843750000e+01 1.680183219909667969e+01 -8.177243173122406006e-03 8.180152893066406250e+00 2.451592922210693359e+00 -8.988668024539947510e-02
6.310000000000000000e+02 4.187234115600585938e+01 5.514537811279296875e+00 1.274062097072601318e-01 2.536849498748779297e+00 7.992766499519348145e-01 5.788828730583190918e-01
6.320000000000000000e+02 6.632363891601562500e+01 1.091891288757324219e+01 -4.256340563297271729e-01 7.774542808532714844e+00 2.204672574996948242e+00 -2.164212018251419067e-01
6.330000000000000000e+02 7.287214660644531250e+01 1.038375377655029297e+01 -1.694570332765579224e-01 8.189990043640136719e+00 2.406159877777099609e+00 -3.120875954627990723e-01
6.340000000000000000e+02 7.936251831054687500e+01 8.446210861206054688e+00 -1.067611481994390488e-02 8.911889076232910156e+00 2.670363903045654297e+00 -4.540279880166053772e-02
6.350000000000000000e+02 1.791967201232910156e+01 8.320698738098144531e+00 1.522878885269165039e+00 2.709303855895996094e+00 1.269654750823974609e+00 2.082462787628173828e+00
6.360000000000000000e+02 1.433084487915039062e+01 9.871270179748535156e+00 -7.409998774528503418e-01 7.565104007720947266e+00 2.047231197357177734e+00 6.100011467933654785e-01
6.370000000000000000e+02 6.609683513641357422e+00 1.855683135986328125e+01 -5.422695875167846680e-01 4.273422718048095703e+00 1.119345903396606445e+00 -1.304414868354797363e+00
6.380000000000000000e+02 1.561859416961669922e+01 1.545120143890380859e+01 -1.083660125732421875e+00 4.464301586151123047e+00 1.014192461967468262e+00 8.946966379880905151e-02
6.390000000000000000e+02 7.677451610565185547e+00 2.535153579711914062e+01 -3.912492096424102783e-01 4.352016448974609375e+00 1.188230156898498535e+00 -6.348865628242492676e-01
6.400000000000000000e+02 1.540086936950683594e+01 2.683818435668945312e+01 -6.572568416595458984e-01 3.165251016616821289e+00 7.523982524871826172e-01 -2.883999049663543701e-01
6.410000000000000000e+02 2.293563270568847656e+01 1.533483219146728516e+01 -3.010402917861938477e-01 7.259787321090698242e-01 1.274815350770950317e-01 1.415556669235229492e-01
6.420000000000000000e+02 2.927096366882324219e+01 2.906664657592773438e+01 -5.749636888504028320e-01 1.697855740785598755e-01 -1.215534433722496033e-01 -3.950197696685791016e-01
6.430000000000000000e+02 2.249435997009277344e+01 2.661499977111816406e+01 -6.204314231872558594e-01 1.509373307228088379e+00 2.666825652122497559e-01 -1.555687934160232544e-01
6.440000000000000000e+02 3.813437652587890625e+01 2.936421966552734375e+01 -1.046683073043823242e+00 -1.029188275337219238e+00 -6.227614283561706543e-01 -9.488539099693298340e-01
6.450000000000000000e+02 2.460892295837402344e+01 -3.102266788482666016e+00 5.046083331108093262e-01 1.628172099590301514e-01 2.002276778221130371e-01 -5.070473551750183105e-01
6.460000000000000000e+02 2.835836982727050781e+01 -7.191685676574707031e+00 -2.925202436745166779e-02 -4.471345990896224976e-02 -2.218964509665966034e-02 -6.416561454534530640e-02
6.470000000000000000e+02 3.007884025573730469e+01 -7.557130336761474609e+00 4.376835748553276062e-02 1.807436197996139526e-01 6.735359132289886475e-02 -1.533352881669998169e-01
6.480000000000000000e+02 2.921147155761718750e+01 -8.291690826416015625e+00 6.476491689682006836e-02 3.156396001577377319e-02 2.889866381883621216e-02 5.251253768801689148e-02
6.490000000000000000e+02 3.160369110107421875e+01 -9.895007133483886719e+00 -1.674380339682102203e-02 3.439495563507080078e-01 9.816172719001770020e-02 -1.464939713478088379e-01
6.500000000000000000e+02 3.350277328491210938e+01 -1.536852073669433594e+01 1.293460428714752197e-01 5.161530971527099609e-01 1.936497539281845093e-01 -1.892690658569335938e-01
6.510000000000000000e+02 3.490859985351562500e+01 -1.775491333007812500e+01 1.984438747167587280e-01 8.018486499786376953e-01 3.000877499580383301e-01 -3.439488410949707031e-01
6.520000000000000000e+02 3.629420852661132812e+01 -2.014315795898437500e+01 2.950267493724822998e-01 1.182242274284362793e+00 4.431807100772857666e-01 -5.301673412322998047e-01
6.530000000000000000e+02 3.761553955078125000e+01 -2.254412078857421875e+01 3.615174293518066406e-01 1.473852038383483887e+00 5.506108403205871582e-01 -6.983700990676879883e-01
6.540000000000000000e+02 3.903302001953125000e+01 -2.488225746154785156e+01 5.651416778564453125e-01 2.018549680709838867e+00 7.751073837280273438e-01 -1.001519918441772461e+00
6.550000000000000000e+02 4.030538940429687500e+01 -2.221230316162109375e+01 1.161893755197525024e-01 2.659671545028686523e+00 8.327583074569702148e-01 -8.465424776077270508e-01
6.560000000000000000e+02 4.196455764770507812e+01 -2.947765350341796875e+01 1.023528814315795898e+00 3.724832773208618164e+00 1.424508452415466309e+00 -1.918992280960083008e+00
6.570000000000000000e+02 4.349646377563476562e+01 -3.174128723144531250e+01 1.199663043022155762e+00 5.923187732696533203e+00 2.136855125427246094e+00 -2.490398645401000977e+00
6.580000000000000000e+02 4.431388092041015625e+01 -3.282692718505859375e+01 1.394776701927185059e+00 8.528173446655273438e+00 2.976885080337524414e+00 -2.214432954788208008e+00
6.590000000000000000e+02 4.456634140014648438e+01 -3.627383804321289062e+01 3.673242330551147461e-01 1.230297851562500000e+01 3.801090717315673828e+00 2.656469345092773438e-01
6.600000000000000000e+02 3.812544631958007812e+01 -3.874895477294921875e+01 7.351850867271423340e-01 3.227130174636840820e-01 3.173694312572479248e-01 -7.975338697433471680e-01
6.610000000000000000e+02 3.435548019409179688e+01 -3.455983352661132812e+01 4.387384057044982910e-01 7.407368421554565430e-01 3.538425564765930176e-01 -6.397665739059448242e-01
6.620000000000000000e+02 3.370344543457031250e+01 -3.342765045166015625e+01 6.487909555435180664e-01 9.146101474761962891e-01 4.690203368663787842e-01 -6.802648901939392090e-01
6.630000000000000000e+02 3.062316513061523438e+01 -2.900128173828125000e+01 5.118522047996520996e-01 2.052032709121704102e+00 7.691654562950134277e-01 -9.202095270156860352e-01
6.640000000000000000e+02 3.129456901550292969e+01 -3.023986053466796875e+01 5.092434883117675781e-01 1.897947430610656738e+00 7.221572995185852051e-01 -9.818451404571533203e-01
6.650000000000000000e+02 2.880463409423828125e+01 -2.525789260864257812e+01 4.614080786705017090e-01 2.371097087860107422e+00 8.497515320777893066e-01 -1.136075615882873535e+00
6.660000000000000000e+02 2.700387191772460938e+01 -2.154862213134765625e+01 6.460550427436828613e-01 2.825373172760009766e+00 1.041428446769714355e+00 -1.267848372459411621e+00
6.670000000000000000e+02 2.942153358459472656e+01 -2.648516464233398438e+01 5.059781670570373535e-01 2.225335836410522461e+00 8.193941712379455566e-01 -9.909077882766723633e-01
6.680000000000000000e+02 2.508367156982421875e+01 -1.792887306213378906e+01 7.254222631454467773e-01 3.129492044448852539e+00 1.156474351882934570e+00 -1.628414630889892578e+00
6.690000000000000000e+02 2.290064620971679688e+01 -1.440012168884277344e+01 1.359697818756103516e+00 4.411322593688964844e+00 1.731306195259094238e+00 -2.307786464691162109e+00
6.700000000000000000e+02 2.091908264160156250e+01 -1.071633911132812500e+01 1.473205566406250000e+00 6.290465831756591797e+00 2.329101562500000000e+00 -3.087048530578613281e+00
6.710000000000000000e+02 2.033097076416015625e+01 -9.459723472595214844e+00 1.698754787445068359e+00 7.656616210937500000e+00 2.806611299514770508e+00 -3.101272821426391602e+00
6.720000000000000000e+02 1.391084098815917969e+01 -2.007860898971557617e+00 1.811872482299804688e+00 2.423656654357910156e+01 7.814531803131103516e+00 -5.128042221069335938e+00
6.730000000000000000e+02 5.160066223144531250e+01 3.168674087524414062e+01 4.223062515258789062e+00 7.678564548492431641e+00 3.570488214492797852e+00 5.442834377288818359e+00
6.740000000000000000e+02 4.961829376220703125e+01 2.970705413818359375e+01 3.173300743103027344e+00 4.243638038635253906e+00 2.225081682205200195e+00 3.637004137039184570e+00
6.750000000000000000e+02 4.860088729858398438e+01 2.874720001220703125e+01 2.705648660659790039e+00 3.389971256256103516e+00 1.828685998916625977e+00 2.961529016494750977e+00
6.760000000000000000e+02 4.654551315307617188e+01 2.686703109741210938e+01 1.773734569549560547e+00 2.191662073135375977e+00 1.189619064331054688e+00 1.985700726509094238e+00
6.770000000000000000e+02 4.455553436279296875e+01 2.493950080871582031e+01 1.368320703506469727e+00 1.725571632385253906e+00 9.281677007675170898e-01 1.493580102920532227e+00
6.780000000000000000e+02 4.354144668579101562e+01 2.398893928527832031e+01 1.150646567344665527e+00 1.355933904647827148e+00 7.519741058349609375e-01 1.260193586349487305e+00
6.790000000000000000e+02 4.251852798461914062e+01 2.304775810241699219e+01 9.358786940574645996e-01 1.105930924415588379e+00 6.125429272651672363e-01 1.004161477088928223e+00
6.800000000000000000e+02 3.859908294677734375e+01 1.916314506530761719e+01 3.391197621822357178e-01 6.075899600982666016e-01 2.840129137039184570e-01 4.406452775001525879e-01
6.810000000000000000e+02 3.585028839111328125e+01 1.600849914550781250e+01 1.767040640115737915e-01 3.460977077484130859e-01 1.568405330181121826e-01 2.752531468868255615e-01
6.820000000000000000e+02 3.490112686157226562e+01 1.497368240356445312e+01 1.484995484352111816e-01 2.937788963317871094e-01 1.326835304498672485e-01 1.858577728271484375e-01
6.830000000000000000e+02 3.575216293334960938e+01 1.406289100646972656e+01 1.709730625152587891e-01 5.498678684234619141e-01 2.162522822618484497e-01 3.543588221073150635e-01
6.840000000000000000e+02 3.296455001831054688e+01 1.292910003662109375e+01 7.743755728006362915e-02 1.609388142824172974e-01 7.151290774345397949e-02 8.483621478080749512e-02
6.850000000000000000e+02 2.451734924316406250e+01 5.545923709869384766e+00 1.195814386010169983e-01 1.372818648815155029e-01 7.705899327993392944e-02 -1.604582765139639378e-03
6.860000000000000000e+02 2.338141822814941406e+01 4.747414588928222656e+00 -2.713336646556854248e-01 -5.747337266802787781e-02 -9.864210337400436401e-02 1.590103507041931152e-01
6.870000000000000000e+02 2.108934974670410156e+01 -2.711311280727386475e-01 5.631178855895996094e+00 1.396154165267944336e+00 2.108199834823608398e+00 3.099254369735717773e-01
6.880000000000000000e+02 1.636198043823242188e+01 8.493349075317382812e+00 8.617720007896423340e-01 5.266597270965576172e+00 1.838510751724243164e+00 2.500998258590698242e+00
6.890000000000000000e+02 1.985505104064941406e+01 1.028676605224609375e+01 7.041590213775634766e-01 1.361852645874023438e+00 6.198034882545471191e-01 1.043601632118225098e+00
6.900000000000000000e+02 2.272897720336914062e+01 1.328761100769042969e+01 1.528608379885554314e-03 4.250496625900268555e-01 1.279734820127487183e-01 1.886430680751800537e-01
6.910000000000000000e+02 2.371393966674804688e+01 1.427580833435058594e+01 -1.780697554349899292e-01 1.691277772188186646e-01 -2.682594815269112587e-03 -1.399477664381265640e-02
6.920000000000000000e+02 2.471537208557128906e+01 1.524120044708251953e+01 -3.129078149795532227e-01 -2.781720831990242004e-02 -1.022175103425979614e-01 -1.785102486610412598e-01
6.930000000000000000e+02 2.580848503112792969e+01 1.825221824645996094e+01 -5.419442653656005859e-01 9.791215509176254272e-02 -1.332096308469772339e-01 -2.651838660240173340e-01
6.940000000000000000e+02 2.665985679626464844e+01 1.722174453735351562e+01 -5.569649934768676758e-01 -3.428660929203033447e-01 -2.699493169784545898e-01 -4.410911798477172852e-01
6.950000000000000000e+02 2.863894081115722656e+01 1.921211433410644531e+01 -6.952869296073913574e-01 -5.193948745727539062e-01 -3.644045293331146240e-01 -6.012063026428222656e-01
6.960000000000000000e+02 2.963542175292968750e+01 2.019993209838867188e+01 -7.216809391975402832e-01 -5.759316086769104004e-01 -3.892837762832641602e-01 -6.742746233940124512e-01
6.970000000000000000e+02 3.065042877197265625e+01 2.113271141052246094e+01 -7.624357342720031738e-01 -6.547443270683288574e-01 -4.251540303230285645e-01 -6.950164437294006348e-01
6.980000000000000000e+02 3.146702957153320312e+01 2.414166831970214844e+01 -6.712398529052734375e-01 -5.403878688812255859e-01 -3.634883165359497070e-01 -6.849153637886047363e-01
6.990000000000000000e+02 3.345528411865234375e+01 2.413672828674316406e+01 -7.203847169876098633e-01 -8.602557182312011719e-01 -4.741921126842498779e-01 -8.234730958938598633e-01
7.000000000000000000e+02 3.436669158935546875e+01 2.520590782165527344e+01 -7.861365079879760742e-01 -9.597549438476562500e-01 -5.237674713134765625e-01 -8.429460525512695312e-01
7.010000000000000000e+02 3.507409667968750000e+01 2.854439544677734375e+01 -8.099463582038879395e-01 -7.616394162178039551e-01 -4.714757204055786133e-01 -7.934269905090332031e-01
7.020000000000000000e+02 4.011190795898437500e+01 3.122379302978515625e+01 -1.142286896705627441e+00 -9.744536876678466797e-01 -6.350221633911132812e-01 -9.357932209968566895e-01
7.030000000000000000e+02 3.914577865600585938e+01 3.027936744689941406e+01 -9.977546930313110352e-01 -9.305502772331237793e-01 -5.784915089607238770e-01 -1.038364171981811523e+00
7.040000000000000000e+02 4.206018066406250000e+01 3.316761779785156250e+01 -1.262166261672973633e+00 -8.753949403762817383e-01 -6.412683725357055664e-01 -9.305713176727294922e-01
7.050000000000000000e+02 4.317372894287109375e+01 3.410837173461914062e+01 -1.179417490959167480e+00 -7.596589922904968262e-01 -5.817229747772216797e-01 -1.035201787948608398e+00
7.060000000000000000e+02 4.555821990966796875e+01 3.591524887084960938e+01 -1.316399574279785156e+00 -5.225466489791870117e-01 -5.516838431358337402e-01 -1.201678872108459473e+00
7.070000000000000000e+02 4.780311203002929688e+01 3.746332550048828125e+01 -3.248798131942749023e+00 -5.066063404083251953e-01 -1.126621365547180176e+00 -1.069148302078247070e+00
7.080000000000000000e+02 5.186310577392578125e+01 3.908840942382812500e+01 -4.758657932281494141e+00 -5.426621437072753906e-01 -1.590395927429199219e+00 -2.001351594924926758e+00
7.090000000000000000e+02 9.665842056274414062e+00 1.775438785552978516e+00 2.200482845306396484e+00 1.953869909048080444e-01 7.187609672546386719e-01 -6.182439252734184265e-02
7.100000000000000000e+02 8.174901962280273438e+00 1.816310644149780273e+00 2.668199241161346436e-01 -2.219472527503967285e-01 1.346180308610200882e-02 8.621744513511657715e-01
7.110000000000000000e+02 8.169597625732421875e+00 2.455439567565917969e+00 1.992084264755249023e+00 -2.601273655891418457e-01 5.195870995521545410e-01 1.780106574296951294e-01
7.120000000000000000e+02 7.407668113708496094e+00 1.833137392997741699e+00 -1.271285861730575562e-01 -3.962253034114837646e-01 -1.570061743259429932e-01 8.785628676414489746e-01
7.130000000000000000e+02 5.089938640594482422e+00 1.912730813026428223e+00 -4.237819314002990723e-01 -6.539861857891082764e-02 -1.467541754245758057e-01 7.437295317649841309e-01
7.140000000000000000e+02 2.092878580093383789e+00 4.435600280761718750e+00 2.370791286230087280e-01 -4.051678478717803955e-01 -5.042661726474761963e-02 3.056916296482086182e-01
7.150000000000000000e+02 4.307457923889160156e+00 1.949290633201599121e+00 -3.485239148139953613e-01 -1.438106149435043335e-01 -1.477003544569015503e-01 7.067501544952392578e-01
7.160000000000000000e+02 3.521581172943115234e+00 1.991840362548828125e+00 -3.323522508144378662e-01 -8.597829937934875488e-02 -1.254991590976715088e-01 6.435331106185913086e-01
7.170000000000000000e+02 1.941529393196105957e+00 2.090982437133789062e+00 -1.372184306383132935e-01 -2.378041297197341919e-01 -1.125067695975303650e-01 4.719451367855072021e-01
7.180000000000000000e+02 1.074870014190673828e+01 4.499483585357666016e+00 4.837756633758544922e+00 8.401537895202636719e+00 3.971788406372070312e+00 -5.450080394744873047e+00
7.190000000000000000e+02 1.124935340881347656e+01 1.502600431442260742e+00 5.130130767822265625e+00 5.563558578491210938e+00 3.208106756210327148e+00 -2.931663751602172852e+00
7.200000000000000000e+02 1.145798015594482422e+01 1.483351826667785645e+00 5.132323265075683594e+00 6.737093925476074219e+00 3.560825109481811523e+00 -3.826204776763916016e+00
7.210000000000000000e+02 1.222461700439453125e+01 1.253831267356872559e+00 3.129846572875976562e+00 1.849406814575195312e+01 6.487174034118652344e+00 -6.826598167419433594e+00
7.220000000000000000e+02 1.167698383331298828e+01 1.444011926651000977e+00 5.047194480895996094e+00 8.645158767700195312e+00 4.107706069946289062e+00 -3.470117330551147461e+00
7.230000000000000000e+02 1.258099460601806641e+01 1.494031310081481934e+00 2.417355775833129883e+00 2.761169624328613281e+01 9.008715629577636719e+00 -5.804967880249023438e+00
7.240000000000000000e+02 1.254852008819580078e+01 1.823570847511291504e+00 7.311313152313232422e+00 2.660568428039550781e+01 1.017509937286376953e+01 -4.692296504974365234e+00
7.250000000000000000e+02 1.272509384155273438e+01 1.151397466659545898e+00 -8.469081521034240723e-01 2.731024551391601562e+01 7.939001083374023438e+00 -7.665318489074707031e+00
7.260000000000000000e+02 1.323801803588867188e+01 1.188930034637451172e+00 -1.702700376510620117e+00 3.328310775756835938e+01 9.474122047424316406e+00 -5.382820129394531250e+00
7.270000000000000000e+02 9.955751419067382812e+00 -2.143766641616821289e+00 2.068223953247070312e+00 1.104935288429260254e+00 9.519478082656860352e-01 1.544375538825988770e+00
7.280000000000000000e+02 9.901729583740234375e+00 -1.766439795494079590e+00 1.575427651405334473e+00 7.326589226722717285e-01 6.924259662628173828e-01 1.013561487197875977e+00
7.290000000000000000e+02 9.379220962524414062e+00 -1.796697020530700684e+00 9.673498272895812988e-01 5.537470579147338867e-01 4.563290774822235107e-01 5.708504915237426758e-01
7.300000000000000000e+02 8.554065704345703125e+00 -2.407857656478881836e+00 1.081844925880432129e+00 5.680172443389892578e-01 4.949586391448974609e-01 5.191872715950012207e-01
7.310000000000000000e+02 7.012143611907958984e+00 -1.830765008926391602e+00 -1.461236625909805298e-01 5.001275613903999329e-02 -2.883327007293701172e-02 -2.472875118255615234e-01
7.320000000000000000e+02 7.815821647644042969e+00 -1.806380629539489746e+00 5.729008466005325317e-02 1.428611874580383301e-01 6.004538387060165405e-02 -8.083537220954895020e-02
7.330000000000000000e+02 6.203070640563964844e+00 -1.861835122108459473e+00 -2.437832057476043701e-01 4.943012446165084839e-02 -5.830592289566993713e-02 -3.278526067733764648e-01
7.340000000000000000e+02 2.933550119400024414e+00 -2.024782419204711914e+00 -1.652044504880905151e-01 -7.352495193481445312e-02 -7.161881774663925171e-02 -3.816751539707183838e-01
7.350000000000000000e+02 4.910157203674316406e+00 -3.668776273727416992e+00 4.364445805549621582e-01 1.558099985122680664e-01 1.776763647794723511e-01 -1.851400732994079590e-01
7.360000000000000000e+02 3.758059740066528320e+00 -1.979701519012451172e+00 -2.030224800109863281e-01 -3.481799736618995667e-02 -7.135214656591415405e-02 -3.945503830909729004e-01
7.370000000000000000e+02 2.100931167602539062e+00 -2.080221176147460938e+00 -9.481388330459594727e-02 -1.511024981737136841e-01 -7.377491146326065063e-02 -3.233390152454376221e-01
7.380000000000000000e+02 1.263685226440429688e+00 -2.142729043960571289e+00 -3.872207179665565491e-02 -2.103126645088195801e-01 -7.471042126417160034e-02 -2.252196669578552246e-01
7.390000000000000000e+02 4.223663210868835449e-01 -2.190042972564697266e+00 -1.137886289507150650e-02 -2.465872168540954590e-01 -7.738982141017913818e-02 -7.791152596473693848e-02
7.400000000000000000e+02 2.056035518646240234e+00 -4.165681838989257812e+01 -2.084812708199024200e-02 2.726858615875244141e+00 8.118031024932861328e-01 5.970904603600502014e-03
7.410000000000000000e+02 5.524209976196289062e+00 -3.843603897094726562e+01 -6.069812178611755371e-02 2.751109600067138672e+00 8.071234822273254395e-01 6.676975637674331665e-02
7.420000000000000000e+02 1.090422272682189941e+00 -3.866250991821289062e+01 -3.219403151888400316e-04 2.699652433395385742e+00 8.097991347312927246e-01 1.361084729433059692e-02
7.430000000000000000e+02 7.297440171241760254e-01 -3.473237991333007812e+01 -4.579826723784208298e-03 2.601622819900512695e+00 7.791128754615783691e-01 2.587593719363212585e-02
7.440000000000000000e+02 8.509349822998046875e-01 -3.331270217895507812e+01 -8.337704464793205261e-03 2.552560091018676758e+00 7.632666826248168945e-01 3.630259633064270020e-02
7.450000000000000000e+02 6.635382175445556641e-01 -2.901700019836425781e+01 1.990279415622353554e-03 2.305380344390869141e+00 6.922111511230468750e-01 4.891604185104370117e-02
7.460000000000000000e+02 6.468460559844970703e-01 -2.761643218994140625e+01 -6.349864881485700607e-03 2.194260835647583008e+00 6.563733220100402832e-01 5.330209061503410339e-02
7.470000000000000000e+02 6.362770199775695801e-01 -2.621397399902343750e+01 2.674692077562212944e-04 2.070399999618530273e+00 6.212002635002136230e-01 6.012700498104095459e-02
7.480000000000000000e+02 6.162344217300415039e-01 -2.200431251525878906e+01 -7.462371606379747391e-03 1.581256985664367676e+00 4.721384048461914062e-01 8.429682254791259766e-02
7.490000000000000000e+02 6.119588613510131836e-01 -2.059980773925781250e+01 -1.023256802000105381e-03 1.376675486564636230e+00 4.126956462860107422e-01 9.376168996095657349e-02
7.500000000000000000e+02 1.845363974571228027e+00 -2.061177825927734375e+01 -2.527113631367683411e-02 1.595070123672485352e+00 4.709396958351135254e-01 2.637974321842193604e-01
7.510000000000000000e+02 5.963817834854125977e-01 -1.637784004211425781e+01 -4.103938583284616470e-03 6.234531402587890625e-01 1.858047544956207275e-01 1.185999736189842224e-01
7.520000000000000000e+02 5.862848758697509766e-01 -1.497001552581787109e+01 -2.849001029971987009e-04 3.350297510623931885e-01 1.004234552383422852e-01 1.232966110110282898e-01
7.530000000000000000e+02 5.744625926017761230e-01 -1.356471633911132812e+01 3.641036164481192827e-04 3.347870334982872009e-02 1.015284191817045212e-02 1.231484040617942810e-01
7.540000000000000000e+02 1.727626442909240723e+00 -1.364646530151367188e+01 3.473112359642982483e-03 5.179332494735717773e-01 1.564218997955322266e-01 3.427391052246093750e-01
7.550000000000000000e+02 5.614562630653381348e-01 -9.364515304565429688e+00 1.144300494343042374e-02 -7.608084082603454590e-01 -2.248096317052841187e-01 7.707269489765167236e-02
7.560000000000000000e+02 5.860028266906738281e-01 -7.959012985229492188e+00 2.168320491909980774e-02 -8.901154398918151855e-01 -2.605296671390533447e-01 3.406995534896850586e-02
7.570000000000000000e+02 3.903295755386352539e+00 -2.932460069656372070e+00 7.555529475212097168e-02 -2.282789722084999084e-02 1.581821963191032410e-02 -3.808508813381195068e-01
7.580000000000000000e+02 4.097443103790283203e+00 -3.900473833084106445e+00 3.335852026939392090e-01 6.122885644435882568e-02 1.184442192316055298e-01 -2.363147288560867310e-01
7.590000000000000000e+02 6.864385986328125000e+01 -3.438609313964843750e+01 2.311155945062637329e-01 7.066140174865722656e+00 2.189176797866821289e+00 3.548786640167236328e-01
7.600000000000000000e+02 5.717792892456054688e+01 -3.742676544189453125e+01 8.326960802078247070e-01 6.762491703033447266e+00 2.278556346893310547e+00 1.940366774797439575e-01
7.610000000000000000e+02 1.666001319885253906e+01 -3.767399597167968750e+01 -2.318006306886672974e-01 2.797605514526367188e+00 7.697414755821228027e-01 -5.312611814588308334e-03
7.620000000000000000e+02 7.894216918945312500e+01 4.014405059814453125e+01 9.268620610237121582e-02 5.786774158477783203e+00 1.763838052749633789e+00 6.373551487922668457e-02
7.630000000000000000e+02 7.918324279785156250e+01 3.890999984741210938e+01 -6.387878954410552979e-02 5.709813117980957031e+00 1.693780303001403809e+00 6.464444100856781006e-03
7.640000000000000000e+02 7.637305450439453125e+01 3.667477035522460938e+01 1.553678065538406372e-01 6.449094772338867188e+00 1.981338739395141602e+00 -2.763469815254211426e-01
7.650000000000000000e+02 7.929302978515625000e+01 3.482376480102539062e+01 -2.793109789490699768e-02 5.714728832244873047e+00 1.706039309501647949e+00 -4.840541258454322815e-02
7.660000000000000000e+02 7.810015106201171875e+01 3.337719726562500000e+01 2.666709944605827332e-02 6.192081928253173828e+00 1.865624785423278809e+00 -1.882733851671218872e-01
7.670000000000000000e+02 7.935790252685546875e+01 3.343709945678710938e+01 3.867605701088905334e-02 5.814317226409912109e+00 1.755897998809814453e+00 -5.816541239619255066e-02
7.680000000000000000e+02 7.937441253662109375e+01 3.068641281127929688e+01 2.261631377041339874e-02 6.129696369171142578e+00 1.845693826675415039e+00 -8.455678075551986694e-02
7.690000000000000000e+02 7.799066162109375000e+01 2.805061721801757812e+01 1.522149890661239624e-02 6.753576278686523438e+00 2.030639410018920898e+00 -2.911489903926849365e-01
7.700000000000000000e+02 7.934295654296875000e+01 2.654270744323730469e+01 1.505773747339844704e-03 6.720132827758789062e+00 2.016491651535034180e+00 -1.137791126966476440e-01
7.710000000000000000e+02 7.674985504150390625e+01 2.531562423706054688e+01 1.024673972278833389e-02 7.274635791778564453e+00 2.185464859008789062e+00 -4.552071094512939453e-01
7.720000000000000000e+02 7.935152435302734375e+01 2.515168762207031250e+01 4.226187593303620815e-04 6.941578388214111328e+00 2.082600355148315430e+00 -1.146763414144515991e-01
7.730000000000000000e+02 7.936711883544921875e+01 2.097617530822753906e+01 1.743154716677963734e-03 7.609101772308349609e+00 2.283253431320190430e+00 -1.095021441578865051e-01
7.740000000000000000e+02 7.936585235595703125e+01 1.958495521545410156e+01 -6.608705967664718628e-03 7.812862873077392578e+00 2.341876268386840820e+00 -1.020679697394371033e-01
7.750000000000000000e+02 7.936399078369140625e+01 1.819361495971679688e+01 2.276741201058030128e-03 8.004051208496093750e+00 2.401898384094238281e+00 -9.865700453519821167e-02
7.760000000000000000e+02 7.936212158203125000e+01 1.401994323730468750e+01 -9.502818807959556580e-03 8.487784385681152344e+00 2.543484449386596680e+00 -7.557489722967147827e-02
7.770000000000000000e+02 7.936170196533203125e+01 1.262564468383789062e+01 3.299546893686056137e-03 8.618186950683593750e+00 2.586445808410644531e+00 -7.080287486314773560e-02
7.780000000000000000e+02 7.936204528808593750e+01 1.123219585418701172e+01 -1.050549652427434921e-02 8.731672286987304688e+00 2.616349935531616211e+00 -6.032529845833778381e-02
7.790000000000000000e+02 7.936256408691406250e+01 7.053891658782958984e+00 4.334330093115568161e-03 8.979755401611328125e+00 2.695226907730102539e+00 -4.082375392317771912e-02
7.800000000000000000e+02 7.936173248291015625e+01 5.661458015441894531e+00 -1.058892626315355301e-02 9.032804489135742188e+00 2.706664562225341797e+00 -3.138366714119911194e-02
7.810000000000000000e+02 7.936040496826171875e+01 4.269244670867919922e+00 4.636593163013458252e-03 9.072865486145019531e+00 2.723250627517700195e+00 -2.731847763061523438e-02
7.820000000000000000e+02 7.935910797119140625e+01 8.926686644554138184e-02 -9.794983081519603729e-03 9.119449615478515625e+00 2.732896327972412109e+00 -7.271141279488801956e-03
7.830000000000000000e+02 7.935850524902343750e+01 -1.304993391036987305e+00 4.783369135111570358e-03 9.113613128662109375e+00 2.735518693923950195e+00 -4.131898749619722366e-03
7.840000000000000000e+02 7.805436706542968750e+01 -3.933874607086181641e+00 -1.790488697588443756e-02 8.864580154418945312e+00 2.654002428054809570e+00 3.414437919855117798e-02
7.850000000000000000e+02 7.935403442382812500e+01 -4.097054481506347656e+00 4.477997310459613800e-03 9.071044921875000000e+00 2.722656726837158203e+00 6.812107749283313751e-03
7.860000000000000000e+02 7.934965515136718750e+01 -8.286221504211425781e+00 -8.399673737585544586e-03 8.940538406372070312e+00 2.679641723632812500e+00 2.196489460766315460e-02
7.870000000000000000e+02 7.804498291015625000e+01 -1.096137905120849609e+01 -2.157500013709068298e-03 8.635948181152343750e+00 2.590137243270874023e+00 8.979965746402740479e-02
7.880000000000000000e+02 7.935097503662109375e+01 -1.107966327667236328e+01 -8.614017628133296967e-03 8.814700126647949219e+00 2.641825675964355469e+00 3.031227737665176392e-02
7.890000000000000000e+02 7.936261749267578125e+01 -1.526013851165771484e+01 6.336343474686145782e-03 8.573058128356933594e+00 2.573818445205688477e+00 3.829306364059448242e-02
7.900000000000000000e+02 7.809628295898437500e+01 -1.790856933593750000e+01 -1.215010043233633041e-02 8.263076782226562500e+00 2.475277900695800781e+00 1.293701678514480591e-01
7.910000000000000000e+02 7.936625671386718750e+01 -1.804214859008789062e+01 6.871123798191547394e-03 8.383913040161132812e+00 2.517235040664672852e+00 4.312130436301231384e-02
7.920000000000000000e+02 7.935408782958984375e+01 -2.359570884704589844e+01 7.204113993793725967e-03 7.963877201080322266e+00 2.391324520111083984e+00 4.964260384440422058e-02
7.930000000000000000e+02 7.801711273193359375e+01 -2.479633331298828125e+01 7.840594276785850525e-03 7.800268173217773438e+00 2.342432498931884766e+00 1.462973654270172119e-01
7.940000000000000000e+02 7.934028625488281250e+01 -2.498767662048339844e+01 -7.939956150949001312e-03 7.855279445648193359e+00 2.354201793670654297e+00 5.252206325531005859e-02
7.950000000000000000e+02 7.928680419921875000e+01 -2.917476844787597656e+01 6.858732085675001144e-03 7.542517185211181641e+00 2.264812707901000977e+00 5.080201849341392517e-02
7.960000000000000000e+02 7.772533416748046875e+01 -3.183812141418457031e+01 6.645245477557182312e-03 7.365657329559326172e+00 2.211690664291381836e+00 1.315968632698059082e-01
7.970000000000000000e+02 7.924750518798828125e+01 -3.197959899902343750e+01 9.335656650364398956e-03 7.360960960388183594e+00 2.211089134216308594e+00 4.434734210371971130e-02
7.980000000000000000e+02 7.926172637939453125e+01 -3.611757659912109375e+01 -5.685005802661180496e-03 7.165482521057128906e+00 2.147939205169677734e+00 2.818529121577739716e-02
7.990000000000000000e+02 7.918244934082031250e+01 -3.745524978637695312e+01 1.197345182299613953e-02 7.122950077056884766e+00 2.140477180480957031e+00 1.960520073771476746e-02
8.000000000000000000e+02 7.901265716552734375e+01 -3.878324890136718750e+01 -4.659036174416542053e-03 7.095294475555419922e+00 2.127190589904785156e+00 1.746365614235401154e-02
8.010000000000000000e+02 7.869345092773437500e+01 -4.014026260375976562e+01 7.986330427229404449e-03 7.077348232269287109e+00 2.125600337982177734e+00 1.264615729451179504e-02
8.020000000000000000e+02 1.464522171020507812e+01 3.734413909912109375e+01 -2.927540838718414307e-01 3.150904417037963867e+00 8.574451208114624023e-01 -9.859604388475418091e-02
8.030000000000000000e+02 6.734053802490234375e+01 3.807072067260742188e+01 3.499526083469390869e-01 9.113527297973632812e+00 2.839043855667114258e+00 1.102730073034763336e-02
8.040000000000000000e+02 3.831202387809753418e-01 2.185689687728881836e+00 -1.412466447800397873e-02 -3.970857560634613037e-01 -1.233631297945976257e-01 1.218313798308372498e-01
8.050000000000000000e+02 2.783630371093750000e+00 3.113215684890747070e+00 1.014923006296157837e-01 -2.216047346591949463e-01 -3.603372722864151001e-02 5.523675084114074707e-01
8.060000000000000000e+02 4.724476337432861328e+00 4.583464145660400391e+00 1.149248003959655762e+00 1.896172910928726196e-01 4.016595780849456787e-01 -1.099481433629989624e-01
8.070000000000000000e+02 3.121235609054565430e+00 5.185367107391357422e+00 6.748204231262207031e-01 -9.859078563749790192e-03 1.994884014129638672e-01 -2.712418325245380402e-02
8.080000000000000000e+02 5.464503169059753418e-01 9.168964385986328125e+00 3.682638332247734070e-02 -5.713680386543273926e-01 -1.603625118732452393e-01 -2.171547263860702515e-01
8.090000000000000000e+02 5.594821572303771973e-01 1.198774623870849609e+01 -1.361961243674159050e-03 8.003743290901184082e-01 2.397036999464035034e-01 -2.870270013809204102e-01
8.100000000000000000e+02 1.682042360305786133e+00 1.176217460632324219e+01 3.305160626769065857e-02 1.270370483398437500e+00 3.910266160964965820e-01 -8.373912572860717773e-01
8.110000000000000000e+02 5.867984890937805176e-01 1.618891525268554688e+01 6.390099413692951202e-03 2.875842571258544922e+00 8.646697998046875000e-01 -2.651700079441070557e-01
8.120000000000000000e+02 6.252015233039855957e-01 2.182404136657714844e+01 -6.617770413868129253e-04 4.694119930267333984e+00 1.408037543296813965e+00 -1.530308723449707031e-01
8.130000000000000000e+02 6.360459327697753906e-01 2.323815727233886719e+01 -1.788123324513435364e-02 4.981233119964599609e+00 1.489005565643310547e+00 -1.248775646090507507e-01
8.140000000000000000e+02 1.901123642921447754e+00 2.288091468811035156e+01 -4.251287877559661865e-02 4.714672088623046875e+00 1.401647806167602539e+00 -3.636409342288970947e-01
8.150000000000000000e+02 6.491996049880981445e-01 2.465482139587402344e+01 -1.676937681622803211e-03 5.219189643859863281e+00 1.565253734588623047e+00 -1.092909052968025208e-01
8.160000000000000000e+02 7.026334404945373535e-01 2.890790557861328125e+01 -3.643748350441455841e-03 5.698103904724121094e+00 1.708338022232055664e+00 -6.478125602006912231e-02
8.170000000000000000e+02 7.306804060935974121e-01 3.032797813415527344e+01 -8.778672665357589722e-03 5.800653457641601562e+00 1.737562537193298340e+00 -5.298290029168128967e-02
8.180000000000000000e+02 2.252387285232543945e+00 3.144213676452636719e+01 -2.254580706357955933e-02 5.497220039367675781e+00 1.642402291297912598e+00 -1.355383992195129395e-01
8.190000000000000000e+02 7.688235044479370117e-01 3.175530433654785156e+01 2.242737915366888046e-03 5.884463310241699219e+00 1.766011714935302734e+00 -4.717842489480972290e-02
8.200000000000000000e+02 8.367078304290771484e-01 3.613095092773437500e+01 1.362410932779312134e-02 5.986073493957519531e+00 1.799909353256225586e+00 -1.135875750333070755e-02
8.210000000000000000e+02 7.756681442260742188e-01 3.872069549560546875e+01 1.261974871158599854e-02 5.926890373229980469e+00 1.781852960586547852e+00 2.851199544966220856e-02
8.220000000000000000e+02 1.242725253105163574e+00 3.998550033569335938e+01 -2.914072945713996887e-02 5.848519325256347656e+00 1.745813608169555664e+00 5.869140475988388062e-02
8.230000000000000000e+02 1.347894096374511719e+01 1.888657450675964355e+00 7.162807464599609375e+00 4.299446868896484375e+01 1.504718208312988281e+01 -7.808719158172607422e+00
8.240000000000000000e+02 9.608745574951171875e+00 2.386409759521484375e+00 4.251836776733398438e+00 8.595176935195922852e-01 1.533406257629394531e+00 -1.145034313201904297e+00
8.250000000000000000e+02 8.936107635498046875e+00 1.799437403678894043e+00 1.295131802558898926e+00 -4.882953464984893799e-01 2.420509159564971924e-01 7.269890904426574707e-01
8.260000000000000000e+02 1.086170387268066406e+01 1.636391162872314453e+00 4.518467903137207031e+00 3.388075113296508789e+00 2.371962785720825195e+00 -1.685435295104980469e+00
8.270000000000000000e+02 1.186010837554931641e+01 1.368435978889465332e+00 4.682616233825683594e+00 1.297640895843505859e+01 5.297707557678222656e+00 -4.071683883666992188e+00
8.280000000000000000e+02 1.173371124267578125e+01 2.394530296325683594e+00 8.771224021911621094e+00 1.129855537414550781e+01 6.020933628082275391e+00 -6.436140537261962891e+00
8.290000000000000000e+02 1.216645145416259766e+01 -2.401440620422363281e+00 2.435774564743041992e+00 1.222662258148193359e+01 4.398719310760498047e+00 6.595829963684082031e+00
8.300000000000000000e+02 1.090855503082275391e+01 -1.882903099060058594e+00 3.459570646286010742e+00 2.283061504364013672e+00 1.722789645195007324e+00 2.942707538604736328e+00
8.310000000000000000e+02 1.179228115081787109e+01 -2.078730344772338867e+00 4.272096633911132812e+00 7.947441577911376953e+00 3.665861606597900391e+00 6.356475830078125000e+00
8.320000000000000000e+02 1.222506427764892578e+01 -2.099234819412231445e+00 3.345731496810913086e+00 1.300490570068359375e+01 4.905191421508789062e+00 7.434137344360351562e+00
8.330000000000000000e+02 9.220058441162109375e+00 -2.424615621566772461e+00 1.622381448745727539e+00 9.636178016662597656e-01 7.757997512817382812e-01 1.034469962120056152e+00
8.340000000000000000e+02 1.099096965789794922e+01 -2.338311910629272461e+00 3.457813978195190430e+00 3.853524923324584961e+00 2.193401575088500977e+00 3.877459287643432617e+00
8.350000000000000000e+02 1.112050151824951172e+01 -1.934226393699645996e+00 3.845635652542114258e+00 2.889503955841064453e+00 2.020541906356811523e+00 3.621884107589721680e+00
8.360000000000000000e+02 8.609042167663574219e+00 -1.792982459068298340e+00 4.057085216045379639e-01 2.794824242591857910e-01 2.055572718381881714e-01 1.650318801403045654e-01
8.370000000000000000e+02 1.019098281860351562e+01 -2.004578351974487305e+00 2.244492530822753906e+00 1.206575751304626465e+00 1.035320520401000977e+00 1.615893959999084473e+00
8.380000000000000000e+02 1.411813449859619141e+01 -2.651426792144775391e+00 5.355775952339172363e-01 1.815801239013671875e+01 5.608077049255371094e+00 -3.830545902252197266e+00
8.390000000000000000e+02 1.802164649963378906e+01 -2.006806135177612305e+00 3.309724807739257812e+00 1.681353449821472168e+00 1.497323513031005859e+00 -5.886954069137573242e-01
8.400000000000000000e+02 1.958502197265625000e+01 -1.314350247383117676e+00 3.152730703353881836e+00 3.102241754531860352e-01 1.038886427879333496e+00 1.531846284866333008e+00
8.410000000000000000e+02 5.936842918395996094e+00 2.646806001663208008e+00 5.429157614707946777e-01 -8.180131763219833374e-02 1.383343338966369629e-01 5.927869081497192383e-01
8.420000000000000000e+02 5.867405891418457031e+00 1.881767749786376953e+00 -4.003754854202270508e-01 -2.274860441684722900e-01 -1.883584558963775635e-01 7.964781522750854492e-01
8.430000000000000000e+02 5.167740345001220703e+00 2.735373973846435547e+00 4.091661274433135986e-01 -1.867928951978683472e-01 6.671196967363357544e-02 6.340476870536804199e-01
8.440000000000000000e+02 7.430082798004150391e+00 2.502191543579101562e+00 1.228764295578002930e+00 -8.763641119003295898e-02 3.423383533954620361e-01 4.311959147453308105e-01
8.450000000000000000e+02 1.615064382553100586e+00 7.509260654449462891e+00 1.998326033353805542e-01 -2.868777811527252197e-01 -2.611355297267436981e-02 -3.444811701774597168e-01
8.460000000000000000e+02 3.728776216506958008e+00 3.939866304397583008e+00 5.667132139205932617e-01 -7.734864205121994019e-02 1.468093693256378174e-01 3.270164728164672852e-01
8.470000000000000000e+02 1.168759107589721680e+00 3.424458742141723633e+00 3.862369433045387268e-02 -5.949116349220275879e-01 -1.668863892555236816e-01 3.466029763221740723e-01
8.480000000000000000e+02 2.731955766677856445e+00 2.039968967437744141e+00 -2.036769986152648926e-01 -1.748826056718826294e-01 -1.135678812861442566e-01 5.625109076499938965e-01
8.490000000000000000e+02 8.903915405273437500e+00 2.425043821334838867e+00 2.924911737442016602e+00 2.886656522750854492e-01 9.640732407569885254e-01 -4.152955412864685059e-01
8.500000000000000000e+02 7.828204631805419922e+00 -2.438266992568969727e+00 7.055892944335937500e-01 3.398712873458862305e-01 3.136381804943084717e-01 1.946623176336288452e-01
8.510000000000000000e+02 5.391499519348144531e+00 -1.897866606712341309e+00 -2.598603665828704834e-01 1.041662041097879410e-02 -7.483312487602233887e-02 -3.758871257305145264e-01
8.520000000000000000e+02 6.292172908782958984e+00 -2.592549800872802734e+00 2.910051941871643066e-01 1.268277168273925781e-01 1.253498643636703491e-01 -1.950199007987976074e-01
8.530000000000000000e+02 5.508189201354980469e+00 -2.696099758148193359e+00 1.875969022512435913e-01 9.153641015291213989e-02 8.373999595642089844e-02 -2.844727039337158203e-01
8.540000000000000000e+02 7.069065093994140625e+00 -2.503795385360717773e+00 4.486752748489379883e-01 2.235273867845535278e-01 2.016607969999313354e-01 -3.898464888334274292e-02
8.550000000000000000e+02 1.680808186531066895e+00 -9.557183265686035156e+00 5.227946490049362183e-02 -1.559641659259796143e-01 -3.110541217029094696e-02 2.354618012905120850e-01
8.560000000000000000e+02 6.602736711502075195e-01 -6.503407478332519531e+00 3.174504265189170837e-02 -8.795852065086364746e-01 -2.543520629405975342e-01 -3.012339212000370026e-02
8.570000000000000000e+02 3.272460460662841797e+00 -4.025076389312744141e+00 2.315816432237625122e-01 -4.556576907634735107e-02 5.580475926399230957e-02 -2.762171030044555664e-01
8.580000000000000000e+02 4.715715348720550537e-01 -3.574079275131225586e+00 2.483294229023158550e-04 -5.333116650581359863e-01 -1.599190086126327515e-01 -9.606485068798065186e-02
8.590000000000000000e+02 1.434434890747070312e+01 1.236234426498413086e+00 4.523143768310546875e+00 2.675735092163085938e+01 9.384148597717285156e+00 -8.371164321899414062e+00
8.600000000000000000e+02 1.365831375122070312e+01 2.694774866104125977e+00 6.055415153503417969e+00 5.184684753417968750e+01 1.737067985534667969e+01 -2.850009679794311523e+00
8.610000000000000000e+02 1.500770950317382812e+01 5.116175413131713867e-01 3.790328979492187500e+00 5.976075649261474609e+00 2.929921388626098633e+00 -4.967565059661865234e+00
8.620000000000000000e+02 1.501831722259521484e+01 -4.927762597799301147e-02 7.198983192443847656e+00 7.383361816406250000e+00 4.374703407287597656e+00 -4.714007854461669922e+00
8.630000000000000000e+02 1.761213684082031250e+01 -2.630805373191833496e-01 3.004249572753906250e+00 -1.001565814018249512e+00 6.008051633834838867e-01 1.089614629745483398e+00
8.640000000000000000e+02 2.224388122558593750e+01 3.971843481063842773e+00 -1.816963255405426025e-01 2.047080397605895996e-01 6.903514731675386429e-03 -2.726432979106903076e-01
8.650000000000000000e+02 5.478753280639648438e+01 3.727908325195312500e+01 3.615594148635864258e+00 2.188597679138183594e+01 7.650471210479736328e+00 9.573302865028381348e-01
8.660000000000000000e+02 1.551334381103515625e+01 -1.758328676223754883e+00 6.481880664825439453e+00 9.375586509704589844e+00 4.757239818572998047e+00 -6.020196437835693359e+00
8.670000000000000000e+02 4.367459487915039062e+01 -3.856820678710937500e+01 2.532335519790649414e+00 4.811829566955566406e+00 2.203249692916870117e+00 2.402176618576049805e+00
8.680000000000000000e+02 4.173471832275390625e+01 -3.977828216552734375e+01 1.363056898117065430e+00 1.250901699066162109e+00 7.841875553131103516e-01 7.831656336784362793e-01
8.690000000000000000e+02 1.389915466308593750e+01 3.844651699066162109e+00 4.853515148162841797e+00 3.041573905944824219e+01 1.058077621459960938e+01 7.150277137756347656e+00
8.700000000000000000e+02 1.210085487365722656e+01 2.187985420227050781e+00 9.084110260009765625e+00 1.361768054962158203e+01 6.810537338256835938e+00 -4.542861938476562500e+00
8.710000000000000000e+02 5.681340789794921875e+01 3.395118713378906250e+01 2.905743122100830078e+00 1.243493080139160156e+01 4.602202415466308594e+00 9.723526239395141602e-01
8.720000000000000000e+02 5.425910949707031250e+01 3.482983779907226562e+01 4.033258914947509766e+00 2.022509765625000000e+01 7.277507305145263672e+00 5.393470764160156250e+00
8.730000000000000000e+02 1.827777099609375000e+01 -5.760593414306640625e+00 7.718426585197448730e-01 5.962666988372802734e+00 2.020352840423583984e+00 -2.945039272308349609e+00
8.740000000000000000e+02 1.892269515991210938e+01 -3.989870309829711914e+00 5.786048769950866699e-01 2.395982980728149414e+00 8.923763632774353027e-01 -1.401767611503601074e+00
8.750000000000000000e+02 4.214757156372070312e+01 -4.162376403808593750e+01 1.280798435211181641e+00 2.651504755020141602e+00 1.179690957069396973e+00 6.299840211868286133e-01
8.760000000000000000e+02 4.271166610717773438e+01 -3.062171745300292969e+01 1.146075248718261719e+00 4.639156341552734375e+00 1.735569477081298828e+00 -2.153472661972045898e+00
8.770000000000000000e+02 3.969675827026367188e+01 -3.959369277954101562e+01 7.311222553253173828e-01 5.150126814842224121e-01 3.738404810428619385e-01 -4.998379051685333252e-01
8.780000000000000000e+02 8.867692947387695312e+00 3.074405908584594727e+00 3.928838491439819336e+00 6.299069523811340332e-01 1.367623686790466309e+00 -1.265953421592712402e+00
8.790000000000000000e+02 4.577935028076171875e+01 -3.613162612915039062e+01 1.847407102584838867e+00 8.881725311279296875e+00 3.218739748001098633e+00 -5.424005538225173950e-02
8.800000000000000000e+02 3.061999130249023438e+01 -1.066807174682617188e+01 4.902052134275436401e-02 1.070274561643600464e-01 4.681439325213432312e-02 2.380600012838840485e-02
8.810000000000000000e+02 3.013269424438476562e+01 -5.623554229736328125e+00 2.411794364452362061e-01 2.641835808753967285e-01 1.516088992357254028e-01 -2.247864305973052979e-01
8.820000000000000000e+02 3.831092453002929688e+01 -2.371994781494140625e+01 3.979887366294860840e-01 1.653110384941101074e+00 6.153297424316406250e-01 -8.864012956619262695e-01
8.830000000000000000e+02 3.695827865600585938e+01 -2.134465789794921875e+01 2.680448889732360840e-01 1.329764246940612793e+00 4.793427288532257080e-01 -6.535713076591491699e-01
8.840000000000000000e+02 1.610999488830566406e+01 5.784963369369506836e-01 -2.944737076759338379e-01 -1.077549159526824951e-01 -1.206685900688171387e-01 3.939251303672790527e-01
8.850000000000000000e+02 2.782554244995117188e+01 -2.879260253906250000e+01 2.589444816112518311e-01 2.332814455032348633e+00 7.775276899337768555e-01 -8.620617389678955078e-01
8.860000000000000000e+02 2.155825042724609375e+01 -1.195104217529296875e+01 1.460313081741333008e+00 5.500144481658935547e+00 2.088137388229370117e+00 -2.711327314376831055e+00
8.870000000000000000e+02 2.646539115905761719e+01 -3.246714830398559570e+00 5.471602678298950195e-01 1.396913733333349228e-02 1.683388203382492065e-01 -3.572516143321990967e-01
8.880000000000000000e+02 3.281048583984375000e+01 -3.474415206909179688e+01 4.796889722347259521e-01 1.191408872604370117e+00 5.013293623924255371e-01 -6.085094213485717773e-01
8.890000000000000000e+02 1.894922447204589844e+01 -8.476963043212890625e+00 1.376042127609252930e+00 7.097082138061523438e+00 2.541937351226806641e+00 -2.483387708663940430e+00
8.900000000000000000e+02 3.522105407714843750e+01 -3.806606292724609375e+01 7.672953009605407715e-01 7.304756641387939453e-01 4.493312835693359375e-01 -3.587581217288970947e-01
8.910000000000000000e+02 3.204314041137695312e+01 -1.301877212524414062e+01 6.854937970638275146e-02 2.603497803211212158e-01 9.866975247859954834e-02 -5.898652970790863037e-02
8.920000000000000000e+02 3.022621345520019531e+01 -3.105463600158691406e+01 4.737369120121002197e-01 1.928655385971069336e+00 7.207176685333251953e-01 -7.514711022377014160e-01
8.930000000000000000e+02 3.173339843750000000e+01 -3.412685394287109375e+01 3.706904053688049316e-01 1.637141346931457520e+00 6.023495197296142578e-01 -5.862611532211303711e-01
8.940000000000000000e+02 2.650382804870605469e+01 -5.136893272399902344e+00 1.066322848200798035e-01 -8.393192547373473644e-04 3.173789009451866150e-02 -1.922504156827926636e-01
8.950000000000000000e+02 4.726034545898437500e+01 -3.508785247802734375e+01 1.692664265632629395e+00 7.800567626953125000e+00 2.847969532012939453e+00 -1.267323493957519531e-01
8.960000000000000000e+02 2.392202758789062500e+01 -1.867464828491210938e+01 5.862208008766174316e-01 3.465415716171264648e+00 1.215490937232971191e+00 -1.496929645538330078e+00
8.970000000000000000e+02 2.437925720214843750e+01 -1.674833488464355469e+01 9.392255544662475586e-01 3.305276870727539062e+00 1.273350715637207031e+00 -1.770244002342224121e+00
8.980000000000000000e+02 2.760458755493164062e+01 -2.277523612976074219e+01 4.931838512420654297e-01 2.667844533920288086e+00 9.483084678649902344e-01 -1.252339482307434082e+00
8.990000000000000000e+02 2.709741401672363281e+01 -2.458731269836425781e+01 3.718987703323364258e-01 2.638130903244018555e+00 9.030089378356933594e-01 -1.085229158401489258e+00
9.000000000000000000e+02 2.529296684265136719e+01 -2.098667907714843750e+01 5.399196743965148926e-01 3.095106840133666992e+00 1.090507864952087402e+00 -1.278558492660522461e+00
9.010000000000000000e+02 2.947990608215332031e+01 -2.965418624877929688e+01 3.811633288860321045e-01 2.066788196563720703e+00 7.343854308128356934e-01 -8.693347573280334473e-01
9.020000000000000000e+02 2.101529312133789062e+01 -1.378502273559570312e+01 9.370549321174621582e-01 5.127439022064208984e+00 1.819348096847534180e+00 -1.979102253913879395e+00
9.030000000000000000e+02 2.889561843872070312e+01 -2.830622482299804688e+01 4.218459725379943848e-01 2.261199951171875000e+00 8.049137592315673828e-01 -8.661447167396545410e-01
9.040000000000000000e+02 2.575213623046875000e+01 -1.912500572204589844e+01 7.395802736282348633e-01 3.034075260162353516e+00 1.132096648216247559e+00 -1.446874141693115234e+00
9.050000000000000000e+02 3.931224441528320312e+01 -2.296513938903808594e+01 2.908802032470703125e-01 2.231923103332519531e+00 7.568409442901611328e-01 -8.476797938346862793e-01
9.060000000000000000e+02 3.974926757812500000e+01 -2.604696083068847656e+01 5.657351016998291016e-01 2.262349843978881836e+00 8.484255075454711914e-01 -1.190170764923095703e+00
9.070000000000000000e+02 2.829757308959960938e+01 -2.706864738464355469e+01 3.111850917339324951e-01 2.388455867767333984e+00 8.098922371864318848e-01 -9.988331198692321777e-01
9.080000000000000000e+02 4.303663253784179688e+01 -2.852718544006347656e+01 4.513081312179565430e-01 4.572784900665283203e+00 1.507228016853332520e+00 -1.515073418617248535e+00
9.090000000000000000e+02 4.463134002685546875e+01 -3.060208892822265625e+01 4.262799918651580811e-01 6.930979728698730469e+00 2.207177877426147461e+00 -1.435949921607971191e+00
9.100000000000000000e+02 2.740596199035644531e+01 -4.286551475524902344e+00 5.823344588279724121e-01 1.018115133047103882e-01 2.052437961101531982e-01 -1.318200677633285522e-01
9.110000000000000000e+02 4.570035934448242188e+01 -3.143593215942382812e+01 4.198710024356842041e-01 7.265475273132324219e+00 2.305603742599487305e+00 -4.201633334159851074e-01
9.120000000000000000e+02 4.121739578247070312e+01 -2.834134674072265625e+01 8.141687512397766113e-01 3.032442092895507812e+00 1.153983235359191895e+00 -1.600332260131835938e+00
9.130000000000000000e+02 1.982653427124023438e+01 -1.116946887969970703e+01 1.087684750556945801e+00 6.471059322357177734e+00 2.267623186111450195e+00 -2.216499328613281250e+00
9.140000000000000000e+02 2.040964126586914062e+01 -1.247388553619384766e+01 8.697327971458435059e-01 5.713171482086181641e+00 1.974871397018432617e+00 -2.266557216644287109e+00
9.150000000000000000e+02 3.520774078369140625e+01 -1.582972049713134766e+01 1.139008626341819763e-01 1.020171403884887695e+00 3.402216732501983643e-01 -3.087905943393707275e-01
9.160000000000000000e+02 2.549735832214355469e+01 -2.211598396301269531e+00 1.231156945228576660e+00 6.696505099534988403e-02 3.894366025924682617e-01 -2.496706396341323853e-01
9.170000000000000000e+02 2.107599449157714844e+01 -1.719886207580566406e+01 2.720166444778442383e-01 4.371321678161621094e+00 1.393001556396484375e+00 -1.394574522972106934e+00
9.180000000000000000e+02 2.237347793579101562e+01 -1.634443855285644531e+01 6.536362171173095703e-01 4.265791416168212891e+00 1.475828289985656738e+00 -1.700979471206665039e+00
9.190000000000000000e+02 3.663028335571289062e+01 -1.823832702636718750e+01 1.602756530046463013e-01 1.382605314254760742e+00 4.628643095493316650e-01 -4.581690430641174316e-01
9.200000000000000000e+02 3.448478317260742188e+01 -1.462896919250488281e+01 1.383369322866201401e-02 8.315841555595397949e-01 2.536253631114959717e-01 -2.948396205902099609e-01
9.210000000000000000e+02 3.519588088989257812e+01 -3.572471237182617188e+01 6.255675554275512695e-01 6.880673170089721680e-01 3.940904736518859863e-01 -5.226386785507202148e-01
9.220000000000000000e+02 3.376406860351562500e+01 -1.343309688568115234e+01 7.585219293832778931e-02 7.197849154472351074e-01 2.386911213397979736e-01 -1.859282404184341431e-01
9.230000000000000000e+02 1.861151695251464844e+01 -7.117085933685302734e+00 9.682477116584777832e-01 6.702812671661376953e+00 2.301318168640136719e+00 -2.805672407150268555e+00
9.240000000000000000e+02 3.769311141967773438e+01 -1.752346229553222656e+01 1.359590142965316772e-02 1.751932501792907715e+00 5.296584963798522949e-01 -5.084025859832763672e-01
9.250000000000000000e+02 2.993911743164062500e+01 -9.472653388977050781e+00 -6.258811801671981812e-02 2.403237391263246536e-03 -1.805546320974826813e-02 -3.830488771200180054e-02
9.260000000000000000e+02 3.086738777160644531e+01 -8.723456382751464844e+00 1.309416294097900391e-01 3.048319220542907715e-01 1.307320743799209595e-01 -5.967982113361358643e-02
9.270000000000000000e+02 2.767718315124511719e+01 -2.585486602783203125e+01 4.286677241325378418e-01 2.548800230026245117e+00 8.932403922080993652e-01 -9.615393280982971191e-01
9.280000000000000000e+02 1.599345684051513672e+01 6.409208297729492188e+00 2.704035997390747070e+00 5.397212505340576172e+00 2.430374622344970703e+00 3.870569467544555664e+00
9.290000000000000000e+02 1.354006862640380859e+01 6.692073822021484375e+00 -5.811775326728820801e-01 1.245289993286132812e+01 3.561516761779785156e+00 -7.151936739683151245e-02
9.300000000000000000e+02 1.695950698852539062e+01 7.344483852386474609e+00 2.073778867721557617e+00 4.022376537322998047e+00 1.828846693038940430e+00 2.773761510848999023e+00
9.310000000000000000e+02 1.541243457794189453e+01 7.684531211853027344e+00 8.179262876510620117e-01 8.245799064636230469e+00 2.719117403030395508e+00 3.275670528411865234e+00
9.320000000000000000e+02 4.920922851562500000e+01 3.812155532836914062e+01 -3.840356826782226562e+00 -4.105038344860076904e-01 -1.275258183479309082e+00 -1.179280281066894531e+00
9.330000000000000000e+02 7.816402435302734375e+01 3.207318115234375000e+01 3.285973891615867615e-02 6.290790081024169922e+00 1.897094964981079102e+00 -1.970356106758117676e-01
9.340000000000000000e+02 7.924568176269531250e+01 3.621295547485351562e+01 4.667675867676734924e-02 5.650434494018554688e+00 1.709133267402648926e+00 -2.911428175866603851e-02
9.350000000000000000e+02 7.723067474365234375e+01 -3.817193603515625000e+01 2.701408229768276215e-02 7.137998104095458984e+00 2.149503707885742188e+00 6.162827089428901672e-02
9.360000000000000000e+02 7.925451660156250000e+01 -3.474979782104492188e+01 1.167679391801357269e-02 7.220821857452392578e+00 2.169749736785888672e+00 3.189132735133171082e-02
9.370000000000000000e+02 7.930530548095703125e+01 -2.777811622619628906e+01 -6.545239593833684921e-03 7.643568515777587891e+00 2.291106939315795898e+00 5.265092849731445312e-02
9.380000000000000000e+02 7.936643218994140625e+01 -2.082099723815917969e+01 7.352998945862054825e-03 8.178937911987304688e+00 2.455887079238891602e+00 4.664023593068122864e-02
9.390000000000000000e+02 7.796511077880859375e+01 -2.619307899475097656e+01 -5.137140862643718719e-03 7.705928325653076172e+00 2.310237407684326172e+00 1.481473892927169800e-01
9.400000000000000000e+02 7.926572418212890625e+01 -3.057620429992675781e+01 -4.698628094047307968e-03 7.447312355041503906e+00 2.232784271240234375e+00 4.988233745098114014e-02
9.410000000000000000e+02 7.771942901611328125e+01 -3.462088012695312500e+01 9.339846670627593994e-03 7.241580486297607422e+00 2.175276041030883789e+00 9.760116040706634521e-02
9.420000000000000000e+02 7.766955566406250000e+01 -3.325018692016601562e+01 2.452165260910987854e-02 7.296741485595703125e+00 2.196378946304321289e+00 1.148976832628250122e-01
9.430000000000000000e+02 7.388272857666015625e+01 -3.832336044311523438e+01 1.052533388137817383e-01 7.148667335510253906e+00 2.176176309585571289e+00 1.249650865793228149e-01
9.440000000000000000e+02 7.661138153076171875e+01 -3.929996490478515625e+01 2.549666725099086761e-02 7.119122505187988281e+00 2.143385887145996094e+00 6.089635565876960754e-02
9.450000000000000000e+02 7.810358428955078125e+01 2.110639572143554688e+01 -1.278713159263134003e-02 7.636569023132324219e+00 2.287134408950805664e+00 -2.800290286540985107e-01
9.460000000000000000e+02 7.936597442626953125e+01 2.236604309082031250e+01 -4.593242891132831573e-03 7.392799377441406250e+00 2.216461896896362305e+00 -1.116536110639572144e-01
9.470000000000000000e+02 7.808018493652343750e+01 1.417700958251953125e+01 -1.046146545559167862e-02 8.369001388549804688e+00 2.507561922073364258e+00 -1.975114941596984863e-01
9.480000000000000000e+02 7.936231231689453125e+01 1.541115283966064453e+01 2.701376564800739288e-03 8.342154502868652344e+00 2.503456592559814453e+00 -8.555227518081665039e-02
9.490000000000000000e+02 7.808898925781250000e+01 3.076965141296386719e+01 1.037009991705417633e-02 6.432597160339355469e+00 1.932890176773071289e+00 -2.429201900959014893e-01
9.500000000000000000e+02 7.934129333496093750e+01 2.793008804321289062e+01 9.569251909852027893e-03 6.510900974273681641e+00 1.956140995025634766e+00 -1.025308072566986084e-01
9.510000000000000000e+02 7.805059051513671875e+01 2.526489830017089844e+01 5.070907995104789734e-03 7.102771759033203125e+00 2.132352828979492188e+00 -3.106110095977783203e-01
9.520000000000000000e+02 7.808454895019531250e+01 2.387022972106933594e+01 -3.268516622483730316e-03 7.283567428588867188e+00 2.184089660644531250e+00 -3.006231486797332764e-01
9.530000000000000000e+02 7.808704376220703125e+01 1.833709716796875000e+01 -1.749280840158462524e-02 7.962462425231933594e+00 2.383490800857543945e+00 -2.508145570755004883e-01
9.540000000000000000e+02 7.807999420166015625e+01 1.556364154815673828e+01 -2.076038159430027008e-02 8.245355606079101562e+00 2.467378616333007812e+00 -2.136228233575820923e-01
9.550000000000000000e+02 7.808145904541015625e+01 1.694965744018554688e+01 -9.565530344843864441e-03 8.110882759094238281e+00 2.430395364761352539e+00 -2.374383360147476196e-01
9.560000000000000000e+02 7.807934570312500000e+01 1.278184509277343750e+01 -2.260834537446498871e-02 8.479028701782226562e+00 2.536926031112670898e+00 -1.719769239425659180e-01
9.570000000000000000e+02 7.678610229492187500e+01 1.151849937438964844e+01 -4.767277464270591736e-02 8.447245597839355469e+00 2.519871711730957031e+00 -2.280570864677429199e-01
9.580000000000000000e+02 7.808154296875000000e+01 8.608098983764648438e+00 -8.580502122640609741e-03 8.730686187744140625e+00 2.616631746292114258e+00 -1.132325530052185059e-01
9.590000000000000000e+02 7.936226654052734375e+01 9.838987350463867188e+00 3.936046268790960312e-03 8.829828262329101562e+00 2.650129318237304688e+00 -5.538336932659149170e-02
9.600000000000000000e+02 7.801392364501953125e+01 2.942942047119140625e+01 2.151618525385856628e-02 6.587788105010986328e+00 1.982791185379028320e+00 -2.531912624835968018e-01
9.610000000000000000e+02 7.807301330566406250e+01 2.635357677936553955e-01 -4.520371556282043457e-03 8.909571647644042969e+00 2.671515226364135742e+00 -9.620024822652339935e-03
9.620000000000000000e+02 7.935863494873046875e+01 1.482371211051940918e+00 4.823195282369852066e-03 9.115278244018554688e+00 2.736030340194702148e+00 -1.510591153055429459e-02
9.630000000000000000e+02 7.934917449951171875e+01 -6.891472339630126953e+00 4.459633957594633102e-03 8.992199897766113281e+00 2.698997735977172852e+00 1.605106703937053680e-02
9.640000000000000000e+02 7.935883331298828125e+01 -1.386982059478759766e+01 -8.833030238747596741e-03 8.660001754760742188e+00 2.595350503921508789e+00 3.724266961216926575e-02
9.650000000000000000e+02 7.936705780029296875e+01 -1.943269729614257812e+01 -8.752605877816677094e-03 8.282956123352050781e+00 2.482260942459106445e+00 4.702396318316459656e-02
9.660000000000000000e+02 7.678321838378906250e+01 7.366813659667968750e+00 -3.049715980887413025e-02 8.618807792663574219e+00 2.576493263244628906e+00 -1.402050852775573730e-01
9.670000000000000000e+02 7.461972045898437500e+01 3.743502807617187500e+01 2.211930155754089355e-01 7.063554286956787109e+00 2.185424327850341797e+00 -2.188153564929962158e-01
9.680000000000000000e+02 7.774214172363281250e+01 3.615940093994140625e+01 9.457248449325561523e-02 6.092072010040283203e+00 1.855993390083312988e+00 -8.643251657485961914e-02
9.690000000000000000e+02 7.808171081542968750e+01 9.998747825622558594e+00 -2.301178500056266785e-02 8.659995079040527344e+00 2.591094970703125000e+00 -1.298728287220001221e-01
9.700000000000000000e+02 7.677199554443359375e+01 4.279237091541290283e-01 -3.639920428395271301e-02 8.714040756225585938e+00 2.603292465209960938e+00 -7.495288737118244171e-03
9.710000000000000000e+02 7.807122802734375000e+01 3.048496007919311523e+00 -5.979211535304784775e-03 8.892146110534667969e+00 2.665849924087524414e+00 -4.080038145184516907e-02
9.720000000000000000e+02 7.677310943603515625e+01 -9.605022668838500977e-01 -2.070041559636592865e-02 8.707371711730957031e+00 2.606001377105712891e+00 1.212606113404035568e-02
9.730000000000000000e+02 7.935679626464843750e+01 -2.700250864028930664e+00 -9.605754166841506958e-03 9.097302436828613281e+00 2.726309061050415039e+00 3.384619718417525291e-03
9.740000000000000000e+02 7.802881622314453125e+01 -6.748782634735107422e+00 -1.620417833328247070e-02 8.791482925415039062e+00 2.632583618164062500e+00 5.940164253115653992e-02
9.750000000000000000e+02 7.803869628906250000e+01 -5.343813896179199219e+00 -3.376629902049899101e-03 8.830897331237792969e+00 2.648256063461303711e+00 4.581425338983535767e-02
9.760000000000000000e+02 7.934936523437500000e+01 -9.682696342468261719e+00 4.574053455144166946e-03 8.881540298461914062e+00 2.665834426879882812e+00 2.442747913300991058e-02
9.770000000000000000e+02 7.805865478515625000e+01 -1.236637401580810547e+01 -1.473966147750616074e-02 8.571101188659667969e+00 2.566908359527587891e+00 1.018673330545425415e-01
9.780000000000000000e+02 7.936473846435546875e+01 -1.665150070190429688e+01 -8.851950988173484802e-03 8.480753898620605469e+00 2.541570663452148438e+00 4.273526370525360107e-02
9.790000000000000000e+02 7.809749603271484375e+01 -1.929074859619140625e+01 3.865569829940795898e-03 8.174869537353515625e+00 2.453620433807373047e+00 1.324778646230697632e-01
9.800000000000000000e+02 5.846940994262695312e+01 3.489950180053710938e+01 3.023743152618408203e+00 1.200360107421875000e+01 4.508203506469726562e+00 6.636689305305480957e-01
9.810000000000000000e+02 1.745342826843261719e+01 8.718518018722534180e-01 2.613081037998199463e-01 -3.029527068138122559e-01 -1.249338500201702118e-02 -1.183322668075561523e-01
9.820000000000000000e+02 1.749057579040527344e+01 1.143806552886962891e+01 -1.300751566886901855e-01 3.968345403671264648e+00 1.151481032371520996e+00 1.303982496261596680e+00
9.830000000000000000e+02 2.664196395874023438e+01 2.135794067382812500e+01 -6.184183955192565918e-01 1.930374801158905029e-01 -1.276142746210098267e-01 -2.970272302627563477e-01
9.840000000000000000e+02 2.976085472106933594e+01 2.231347465515136719e+01 -6.302292346954345703e-01 -3.521409630775451660e-01 -2.947110533714294434e-01 -5.793355107307434082e-01
9.850000000000000000e+02 3.951045989990234375e+01 2.019210243225097656e+01 3.900899887084960938e-01 6.015779376029968262e-01 2.975003719329833984e-01 5.322843790054321289e-01
9.860000000000000000e+02 4.122763824462890625e+01 1.833786582946777344e+01 4.046669304370880127e-01 1.475916147232055664e+00 5.641749501228332520e-01 9.186534285545349121e-01
9.870000000000000000e+02 4.369900131225585938e+01 3.808454132080078125e+01 -1.797551274299621582e+00 -4.533849358558654785e-01 -6.752808690071105957e-01 -5.691145062446594238e-01
9.880000000000000000e+02 5.062163925170898438e+01 3.068442535400390625e+01 3.741894483566284180e+00 5.649636268615722656e+00 2.817459344863891602e+00 4.431068897247314453e+00
9.890000000000000000e+02 4.789098358154296875e+01 4.150956726074218750e+01 -1.861763477325439453e+00 -7.982724308967590332e-01 -7.980107665061950684e-01 3.889174759387969971e-01
9.900000000000000000e+02 2.569304275512695312e+01 1.622196960449218750e+01 -4.233997166156768799e-01 -1.895980387926101685e-01 -1.838993281126022339e-01 -3.244908154010772705e-01
9.910000000000000000e+02 2.212751388549804688e+01 1.642682456970214844e+01 -4.385098218917846680e-01 1.217047333717346191e+00 2.335612624883651733e-01 2.099623680114746094e-01
9.920000000000000000e+02 2.176562500000000000e+01 1.228449344635009766e+01 2.012169212102890015e-01 6.934440135955810547e-01 2.683982849121093750e-01 4.296617209911346436e-01
9.930000000000000000e+02 4.723334121704101562e+01 2.582004547119140625e+01 1.479146122932434082e+00 3.034864664077758789e+00 1.354203224182128906e+00 2.244179725646972656e+00
9.940000000000000000e+02 3.477219772338867188e+01 1.302346897125244141e+01 1.735663115978240967e-01 4.842179417610168457e-01 1.973352730274200439e-01 2.613760232925415039e-01
9.950000000000000000e+02 3.113884925842285156e+01 6.023134231567382812e+00 3.603810071945190430e-01 3.418692946434020996e-01 2.106750905513763428e-01 3.048654496669769287e-01
9.960000000000000000e+02 2.850997734069824219e+01 7.139884471893310547e+00 2.730641961097717285e-01 1.321512609720230103e-01 1.215646341443061829e-01 9.471130371093750000e-02
9.970000000000000000e+02 4.224640655517578125e+01 2.116050338745117188e+01 6.540059447288513184e-01 1.407072901725769043e+00 6.183236241340637207e-01 1.001817822456359863e+00
9.980000000000000000e+02 4.149989318847656250e+01 2.210330009460449219e+01 7.385914921760559082e-01 8.831799626350402832e-01 4.865314364433288574e-01 8.293261528015136719e-01
9.990000000000000000e+02 2.203820800781250000e+01 2.157724618911743164e+00 7.841680198907852173e-02 6.393762230873107910e-01 2.153379023075103760e-01 4.115466177463531494e-01
1.000000000000000000e+03 3.197741889953613281e+01 1.192364120483398438e+01 3.427298739552497864e-02 7.861153036355972290e-02 3.386535495519638062e-02 7.964511960744857788e-02
1.001000000000000000e+03 3.276209259033203125e+01 1.097267723083496094e+01 1.637583523988723755e-01 3.182326853275299072e-01 1.445973068475723267e-01 1.712001711130142212e-01
1.002000000000000000e+03 2.520203399658203125e+01 4.543307781219482422e+00 8.925367891788482666e-02 1.003868207335472107e-01 5.689214915037155151e-02 3.278424441814422607e-01
1.003000000000000000e+03 2.867042732238769531e+01 2.147470855712890625e+01 -6.462863087654113770e-01 -2.758766412734985352e-01 -2.766488790512084961e-01 -4.761749804019927979e-01
1.004000000000000000e+03 4.322978973388671875e+01 2.210971641540527344e+01 7.962011098861694336e-01 1.626003861427307129e+00 7.266615033149719238e-01 1.212881565093994141e+00
1.005000000000000000e+03 5.508713912963867188e+01 3.112601852416992188e+01 1.375118851661682129e+00 1.159275341033935547e+01 3.890361785888671875e+00 1.696484923362731934e+00
1.006000000000000000e+03 2.888636398315429688e+01 9.047408103942871094e+00 7.021093368530273438e-02 5.394960194826126099e-02 3.724816069006919861e-02 8.819209411740303040e-03
1.007000000000000000e+03 3.171878051757812500e+01 9.968610763549804688e+00 1.276745200157165527e-01 2.051667422056198120e-01 9.985238313674926758e-02 1.873027086257934570e-01
1.008000000000000000e+03 2.006407737731933594e+01 1.236010646820068359e+01 9.435653686523437500e-02 1.773631572723388672e+00 5.603964328765869141e-01 8.149871230125427246e-01
1.009000000000000000e+03 3.617705154418945312e+01 2.736447525024414062e+01 -8.895955681800842285e-01 -1.064575433731079102e+00 -5.862513184547424316e-01 -9.172514677047729492e-01
1.010000000000000000e+03 3.237407684326171875e+01 2.520046424865722656e+01 -7.229328155517578125e-01 -6.028236746788024902e-01 -3.977269530296325684e-01 -6.749097108840942383e-01
1.011000000000000000e+03 3.377328872680664062e+01 1.199173069000244141e+01 1.297292113304138184e-01 3.611100316047668457e-01 1.472517699003219604e-01 2.501255869865417480e-01
1.012000000000000000e+03 3.679229736328125000e+01 1.704728317260742188e+01 2.563556730747222900e-01 4.713364243507385254e-01 2.183076441287994385e-01 3.237897455692291260e-01
1.013000000000000000e+03 2.307764434814453125e+01 1.738478851318359375e+01 -5.023592710494995117e-01 9.438032507896423340e-01 1.324331909418106079e-01 8.003561943769454956e-02
1.014000000000000000e+03 2.196239280700683594e+01 1.434679222106933594e+01 -1.920162141323089600e-01 1.015309572219848633e+00 2.469880133867263794e-01 3.283815383911132812e-01
1.015000000000000000e+03 2.100405502319335938e+01 1.335398674011230469e+01 -6.093844026327133179e-02 1.408563494682312012e+00 4.042875170707702637e-01 5.430302619934082031e-01
1.016000000000000000e+03 2.138252639770507812e+01 1.140635251998901367e+00 1.300869584083557129e+00 1.212415814399719238e+00 7.539855837821960449e-01 9.604310393333435059e-01
1.017000000000000000e+03 3.712514495849609375e+01 2.840708732604980469e+01 -9.422134160995483398e-01 -1.043338179588317871e+00 -5.956654548645019531e-01 -1.007610678672790527e+00
1.018000000000000000e+03 3.418843841552734375e+01 2.738780593872070312e+01 -7.978435158729553223e-01 -7.481948137283325195e-01 -4.638114869594573975e-01 -7.491182684898376465e-01
1.019000000000000000e+03 2.959391403198242188e+01 8.057882308959960938e+00 1.565716862678527832e-01 1.002214103937149048e-01 7.703793048858642578e-02 1.718600094318389893e-01
1.020000000000000000e+03 3.331302261352539062e+01 2.626565933227539062e+01 -7.138265371322631836e-01 -6.514216661453247070e-01 -4.095744490623474121e-01 -7.446183562278747559e-01
1.021000000000000000e+03 2.410233879089355469e+01 3.723605632781982422e+00 3.677516579627990723e-01 2.377585470676422119e-01 1.816530674695968628e-01 2.788218557834625244e-01
1.022000000000000000e+03 4.893572998046875000e+01 2.567988204956054688e+01 1.202677726745605469e+00 4.439272880554199219e+00 1.692585229873657227e+00 2.543618679046630859e+00
1.023000000000000000e+03 4.757033920288085938e+01 2.780562591552734375e+01 2.208288192749023438e+00 2.626864433288574219e+00 1.450545787811279297e+00 2.428608179092407227e+00
1.024000000000000000e+03 3.907986831665039062e+01 3.571269989013671875e+01 -1.124399542808532715e+00 -6.397699117660522461e-01 -5.292508602142333984e-01 -6.137124300003051758e-01
1.025000000000000000e+03 2.630651855468750000e+01 5.383946895599365234e+00 3.391223251819610596e-01 1.405487507581710815e-01 1.439013183116912842e-01 1.231724098324775696e-01
1.026000000000000000e+03 2.009908485412597656e+01 2.208602190017700195e+00 -4.238472282886505127e-01 1.591431647539138794e-01 -7.941121608018875122e-02 -6.604645252227783203e-01
1.027000000000000000e+03 2.268425941467285156e+01 1.137868881225585938e+00 2.030660867691040039e+00 5.623422265052795410e-01 7.779009342193603516e-01 1.283174633979797363e+00
1.028000000000000000e+03 4.422487640380859375e+01 2.304418182373046875e+01 9.552390575408935547e-01 1.952734827995300293e+00 8.723921775817871094e-01 1.386298656463623047e+00
1.029000000000000000e+03 3.905750274658203125e+01 3.205708694458007812e+01 -9.610726833343505859e-01 -8.185853958129882812e-01 -5.338973999023437500e-01 -8.993701934814453125e-01
1.030000000000000000e+03 5.233541488647460938e+01 3.055137825012207031e+01 2.407044649124145508e+00 8.898720741271972656e+00 3.391729593276977539e+00 4.210270881652832031e+00
1.031000000000000000e+03 1.729340934753417969e+01 9.411661148071289062e+00 6.967879533767700195e-01 4.115122795104980469e+00 1.443573236465454102e+00 1.978093981742858887e+00
1.032000000000000000e+03 3.857238388061523438e+01 1.720403099060058594e+01 3.275155425071716309e-01 8.742132782936096191e-01 3.605186343193054199e-01 5.301182270050048828e-01
1.033000000000000000e+03 2.675607109069824219e+01 1.927678489685058594e+01 -5.975517630577087402e-01 -5.668932572007179260e-02 -1.962723284959793091e-01 -3.470757603645324707e-01
1.034000000000000000e+03 4.522772979736328125e+01 2.397469329833984375e+01 1.121899962425231934e+00 2.222389936447143555e+00 1.003286957740783691e+00 1.617334365844726562e+00
1.035000000000000000e+03 3.610429382324218750e+01 2.962425994873046875e+01 -8.848121762275695801e-01 -8.321704268455505371e-01 -5.150947570800781250e-01 -7.625030279159545898e-01
1.036000000000000000e+03 5.613762283325195312e+01 3.189481925964355469e+01 1.922846436500549316e+00 1.217449855804443359e+01 4.229203701019287109e+00 1.539595484733581543e+00
1.037000000000000000e+03 4.114673233032226562e+01 3.659476470947265625e+01 -1.233426809310913086e+00 -5.618794560432434082e-01 -5.385918617248535156e-01 -7.040396928787231445e-01
1.038000000000000000e+03 2.769113349914550781e+01 2.034754753112792969e+01 -6.061191558837890625e-01 -1.612986326217651367e-01 -2.302253395318984985e-01 -4.460056424140930176e-01
1.039000000000000000e+03 4.928270339965820312e+01 2.767740631103515625e+01 1.917767167091369629e+00 4.442563533782958984e+00 1.908099293708801270e+00 2.987245798110961914e+00
1.040000000000000000e+03 5.030858993530273438e+01 2.862589073181152344e+01 2.175679683685302734e+00 5.592864990234375000e+00 2.330563306808471680e+00 3.454536199569702148e+00
1.041000000000000000e+03 4.066503906250000000e+01 3.432665634155273438e+01 -1.087471961975097656e+00 -7.415263056755065918e-01 -5.486994981765747070e-01 -8.636769056320190430e-01
1.042000000000000000e+03 3.968708419799804688e+01 3.318058013916015625e+01 -1.124346494674682617e+00 -8.412120342254638672e-01 -5.896675586700439453e-01 -8.136593699455261230e-01
1.043000000000000000e+03 3.765378570556640625e+01 1.615303802490234375e+01 2.473558038473129272e-01 7.589454054832458496e-01 3.018903434276580811e-01 4.825658500194549561e-01
1.044000000000000000e+03 1.412628293037414551e+00 -4.008525848388671875e+01 4.597761668264865875e-03 2.718805789947509766e+00 8.170210719108581543e-01 1.721593365073204041e-02
1.045000000000000000e+03 6.876752376556396484e-01 3.750450134277343750e+01 -3.714080899953842163e-02 5.983036041259765625e+00 1.783768653869628906e+00 1.062884368002414703e-02
1.046000000000000000e+03 8.238462805747985840e-01 3.320223999023437500e+01 -1.480881869792938232e-02 5.947412014007568359e+00 1.779780983924865723e+00 -3.474196046590805054e-02
1.047000000000000000e+03 2.559469938278198242e+00 3.625528335571289062e+01 -5.126901343464851379e-02 5.632025718688964844e+00 1.674226999282836914e+00 -6.151444744318723679e-03
1.048000000000000000e+03 6.648670434951782227e-01 2.607327079772949219e+01 -1.167147047817707062e-02 5.413526058197021484e+00 1.620556473731994629e+00 -9.009394049644470215e-02
1.049000000000000000e+03 2.098880290985107422e+00 2.857239151000976562e+01 -2.656397968530654907e-02 5.351009368896484375e+00 1.597333669662475586e+00 -1.835256516933441162e-01
1.050000000000000000e+03 6.525223255157470703e-01 -3.600073623657226562e+01 -3.664436284452676773e-03 2.653373718261718750e+00 7.949127554893493652e-01 1.567369885742664337e-02
1.051000000000000000e+03 2.517803192138671875e+00 -3.302946472167968750e+01 -1.286043599247932434e-02 2.572621822357177734e+00 7.679284214973449707e-01 1.037049815058708191e-01
1.052000000000000000e+03 3.487181901931762695e+00 2.821511268615722656e+01 -8.490761369466781616e-02 5.046000003814697266e+00 1.488327741622924805e+00 -2.971165478229522705e-01
1.053000000000000000e+03 3.312601089477539062e+00 2.535385894775390625e+01 -1.043702885508537292e-01 4.844692230224609375e+00 1.422096610069274902e+00 -4.104111492633819580e-01
1.054000000000000000e+03 2.648209810256958008e+00 3.454792022705078125e+01 -5.110731720924377441e-02 5.562235355377197266e+00 1.653338432312011719e+00 -8.330844342708587646e-02
1.055000000000000000e+03 2.405431032180786133e+00 3.293632125854492188e+01 -3.662963584065437317e-02 5.516592502593994141e+00 1.643988847732543945e+00 -1.028565242886543274e-01
1.056000000000000000e+03 1.940739035606384277e+00 3.779763793945312500e+01 -3.258937224745750427e-02 5.737953662872314453e+00 1.711609244346618652e+00 2.801141329109668732e-02
1.057000000000000000e+03 3.220539569854736328e+00 3.870825576782226562e+01 -3.981187939643859863e-02 5.646089076995849609e+00 1.681883215904235840e+00 -3.857150441035628319e-03
1.058000000000000000e+03 2.006396055221557617e+00 -2.888379669189453125e+01 -1.877185329794883728e-02 2.349345445632934570e+00 6.991720795631408691e-01 1.360168308019638062e-01
1.059000000000000000e+03 1.922767996788024902e+00 -2.614014434814453125e+01 -2.268119156360626221e-02 2.157565832138061523e+00 6.404653787612915039e-01 1.728297024965286255e-01
1.060000000000000000e+03 5.330992341041564941e-01 7.747793197631835938e+00 3.241588547825813293e-02 -1.037866830825805664e+00 -3.016352653503417969e-01 -1.292844414710998535e-01
1.061000000000000000e+03 5.778215527534484863e-01 1.478799152374267578e+01 -2.154537104070186615e-02 2.232999086380004883e+00 6.634361147880554199e-01 -2.751473486423492432e-01
1.062000000000000000e+03 5.683550238609313965e-01 1.338923645019531250e+01 9.491063654422760010e-03 1.536664962768554688e+00 4.638468325138092041e-01 -3.008895516395568848e-01
1.063000000000000000e+03 1.838128447532653809e+00 2.006546020507812500e+01 -4.727279767394065857e-02 4.159478664398193359e+00 1.233661770820617676e+00 -4.994024336338043213e-01
1.064000000000000000e+03 6.151368021965026855e-01 2.041296577453613281e+01 -2.295705489814281464e-02 4.344853878021240234e+00 1.296569108963012695e+00 -1.722361743450164795e-01
1.065000000000000000e+03 2.449218511581420898e+00 -3.659964752197265625e+01 -2.316464670002460480e-02 2.659213304519653320e+00 7.908145785331726074e-01 5.570846796035766602e-02
1.066000000000000000e+03 1.791278719902038574e+00 -1.642722320556640625e+01 -1.088564097881317139e-02 9.981782436370849609e-01 2.961877882480621338e-01 3.314620852470397949e-01
1.067000000000000000e+03 3.681810140609741211e+00 -3.922038269042968750e+01 -2.152763865888118744e-02 2.691200971603393555e+00 8.009020090103149414e-01 3.212430700659751892e-02
1.068000000000000000e+03 4.648474216461181641e+00 -3.703128433227539062e+01 -6.725797057151794434e-02 2.695907115936279297e+00 7.885947227478027344e-01 8.677212148904800415e-02
1.069000000000000000e+03 1.813318014144897461e+00 -3.534254455566406250e+01 -6.045404821634292603e-03 2.632328748703002930e+00 7.878850102424621582e-01 5.991489812731742859e-02
1.070000000000000000e+03 2.226764202117919922e+00 -3.161957550048828125e+01 -2.313015051186084747e-02 2.499180316925048828e+00 7.428150177001953125e-01 1.104876697063446045e-01
1.071000000000000000e+03 1.957261919975280762e+00 -2.751667785644531250e+01 -1.120030973106622696e-02 2.265173673629760742e+00 6.761920452117919922e-01 1.533776968717575073e-01
1.072000000000000000e+03 3.240860939025878906e+00 -2.602522468566894531e+01 -3.551902249455451965e-02 2.276092290878295898e+00 6.721720099449157715e-01 2.647373080253601074e-01
1.073000000000000000e+03 1.860959887504577637e+00 -2.199562644958496094e+01 -1.482669543474912643e-02 1.762661933898925781e+00 5.243505835533142090e-01 2.398131042718887329e-01
1.074000000000000000e+03 1.898980259895324707e+00 -2.475571632385253906e+01 -1.228634640574455261e-02 2.042148113250732422e+00 6.089584827423095703e-01 1.929124444723129272e-01
1.075000000000000000e+03 3.066420316696166992e+00 -1.921090888977050781e+01 -5.500460043549537659e-02 1.700793743133544922e+00 4.937367439270019531e-01 4.343079328536987305e-01
1.076000000000000000e+03 6.079006195068359375e-01 -1.919262123107910156e+01 -6.482935976237058640e-03 1.146919250488281250e+00 3.421308994293212891e-01 1.027760058641433716e-01
1.077000000000000000e+03 1.830232620239257812e+00 -1.921874809265136719e+01 -1.529473625123500824e-02 1.415774345397949219e+00 4.201438724994659424e-01 2.896207869052886963e-01
1.078000000000000000e+03 1.694470643997192383e+00 -1.227137279510498047e+01 9.841299615800380707e-03 2.683290839195251465e-01 8.345111459493637085e-02 3.281252682209014893e-01
1.079000000000000000e+03 5.630908012390136719e-01 -1.216241168975830078e+01 3.779132850468158722e-03 -2.633463144302368164e-01 -7.787015289068222046e-02 1.172594204545021057e-01
1.080000000000000000e+03 3.080975532531738281e+00 -3.047508478164672852e+00 6.186031177639961243e-02 -8.590138703584671021e-02 -7.212322670966386795e-03 -3.725930452346801758e-01
1.081000000000000000e+03 1.381657958030700684e+00 -3.417935609817504883e+00 1.393078919500112534e-02 -3.876634836196899414e-01 -1.121198013424873352e-01 -2.565157115459442139e-01
1.082000000000000000e+03 6.125403046607971191e-01 -5.011209011077880859e+00 1.411850564181804657e-02 -7.726904153823852539e-01 -2.275715768337249756e-01 -7.488242536783218384e-02
1.083000000000000000e+03 4.199825525283813477e-01 4.939568519592285156e+00 1.887253485620021820e-02 -1.226289749145507812e+00 -3.622251749038696289e-01 7.278783619403839111e-02
1.084000000000000000e+03 2.917636632919311523e+00 4.165241718292236328e+00 4.314416348934173584e-01 -2.136255651712417603e-01 6.534481793642044067e-02 3.500228226184844971e-01
1.085000000000000000e+03 1.651009082794189453e+00 1.038047790527343750e+01 5.510383099317550659e-02 6.821679472923278809e-01 2.211815267801284790e-01 -7.379460930824279785e-01
1.086000000000000000e+03 5.515335202217102051e-01 1.058203983306884766e+01 1.289314031600952148e-02 8.125639706850051880e-02 2.824486233294010162e-02 -2.786213755607604980e-01
1.087000000000000000e+03 1.713408470153808594e+00 1.313436126708984375e+01 -2.789844200015068054e-02 1.850538015365600586e+00 5.467919111251831055e-01 -8.195270895957946777e-01
1.088000000000000000e+03 1.737051963806152344e+00 1.450500774383544922e+01 -2.699841931462287903e-02 2.414649009704589844e+00 7.162951827049255371e-01 -8.064912557601928711e-01
1.089000000000000000e+03 5.953763127326965332e-01 1.759540939331054688e+01 -2.761734649538993835e-02 3.441122055053710938e+00 1.024051427841186523e+00 -2.272186726331710815e-01
1.090000000000000000e+03 1.941461205482482910e+00 2.430048561096191406e+01 -5.088483169674873352e-02 4.924925327301025391e+00 1.462212085723876953e+00 -3.029844164848327637e-01
1.091000000000000000e+03 1.294200992584228516e+01 1.162048339843750000e+00 7.331325858831405640e-02 3.060184860229492188e+01 9.202548027038574219e+00 -7.890383720397949219e+00
1.092000000000000000e+03 1.267066192626953125e+01 2.258710861206054688e+00 8.850980758666992188e+00 2.639219093322753906e+01 1.057295131683349609e+01 -3.696285963058471680e+00
1.093000000000000000e+03 1.149191093444824219e+01 -2.441258430480957031e+00 3.480868101119995117e+00 6.734847545623779297e+00 3.064714670181274414e+00 5.315108776092529297e+00
1.094000000000000000e+03 1.071199131011962891e+01 -1.814020991325378418e+00 3.044616222381591797e+00 1.555103778839111328e+00 1.379915952682495117e+00 2.311619281768798828e+00
1.095000000000000000e+03 1.244176006317138672e+01 -2.126910448074340820e+00 2.685214757919311523e+00 1.472011852264404297e+01 5.221600055694580078e+00 7.705664157867431641e+00
1.096000000000000000e+03 1.269399642944335938e+01 -2.173243045806884766e+00 1.094745755195617676e+00 1.924367523193359375e+01 6.101526260375976562e+00 6.232686519622802734e+00
1.097000000000000000e+03 1.106478977203369141e+01 1.569899320602416992e+00 4.913735389709472656e+00 4.616601467132568359e+00 2.859101057052612305e+00 -2.713809490203857422e+00
1.098000000000000000e+03 1.214138317108154297e+01 1.829927444458007812e+00 8.453501701354980469e+00 1.720713806152343750e+01 7.698191642761230469e+00 -3.000277757644653320e+00
1.099000000000000000e+03 1.315467262268066406e+01 1.561925411224365234e+00 9.071385860443115234e-01 3.088126945495605469e+01 9.536522865295410156e+00 -4.979806423187255859e+00
1.100000000000000000e+03 8.519962310791015625e+00 -3.054767847061157227e+00 1.504491567611694336e+00 9.695180654525756836e-01 7.422028779983520508e-01 9.309650063514709473e-01
1.101000000000000000e+03 1.010704708099365234e+01 2.248462915420532227e+00 4.822651863098144531e+00 1.763973355293273926e+00 1.975987553596496582e+00 -1.643494009971618652e+00
1.102000000000000000e+03 1.344542217254638672e+01 -2.744662761688232422e+00 -6.591247916221618652e-01 2.009384918212890625e+01 5.830417633056640625e+00 -1.366305164992809296e-03
1.103000000000000000e+03 6.688708305358886719e+00 2.569505691528320312e+00 8.672971129417419434e-01 -2.889819741249084473e-01 1.734945476055145264e-01 5.653624534606933594e-01
1.104000000000000000e+03 3.589533805847167969e+00 2.970330953598022461e+00 2.095306068658828735e-01 -1.915446519851684570e-01 5.395784042775630951e-03 5.963197946548461914e-01
1.105000000000000000e+03 4.383564949035644531e+00 2.844117403030395508e+00 2.463058382272720337e-01 -8.995893597602844238e-02 4.690406844019889832e-02 6.046422719955444336e-01
1.106000000000000000e+03 5.295988082885742188e+00 3.549004793167114258e+00 1.035795211791992188e+00 2.116694673895835876e-02 3.170886635780334473e-01 2.644953131675720215e-01
1.107000000000000000e+03 8.168818473815917969e+00 3.089031219482421875e+00 2.943522691726684570e+00 4.754819571971893311e-01 1.025701403617858887e+00 -6.711770296096801758e-01
1.108000000000000000e+03 6.774025917053222656e+00 3.294083595275878906e+00 1.733489751815795898e+00 9.431473165750503540e-02 5.483413338661193848e-01 1.213809289038181305e-02
1.109000000000000000e+03 7.476937770843505859e+00 3.169233798980712891e+00 2.293704271316528320e+00 -2.978449873626232147e-02 6.791759133338928223e-01 -1.716979146003723145e-01
1.110000000000000000e+03 1.971592545509338379e+00 3.270013809204101562e+00 8.121423423290252686e-02 -3.949061632156372070e-01 -9.410758316516876221e-02 4.812905192375183105e-01
1.111000000000000000e+03 1.035825824737548828e+01 2.537614107131958008e+00 5.726809501647949219e+00 3.000374555587768555e+00 2.618155241012573242e+00 -2.910693168640136719e+00
1.112000000000000000e+03 8.766848564147949219e+00 3.720556497573852539e+00 4.179186820983886719e+00 1.573472380638122559e+00 1.725797772407531738e+00 -2.054762601852416992e+00
1.113000000000000000e+03 7.159196376800537109e+00 -3.192232131958007812e+00 8.936627507209777832e-01 4.639889001846313477e-01 4.072954952716827393e-01 2.535405457019805908e-01
1.114000000000000000e+03 4.712606906890869141e+00 -2.809970855712890625e+00 1.227898746728897095e-01 3.670113161206245422e-02 4.784730449318885803e-02 -3.427570760250091553e-01
1.115000000000000000e+03 6.424268245697021484e+00 -3.333842992782592773e+00 6.820328235626220703e-01 3.410693407058715820e-01 3.069306612014770508e-01 4.396536201238632202e-02
1.116000000000000000e+03 5.678727626800537109e+00 -3.499823093414306641e+00 5.410180091857910156e-01 2.219098508358001709e-01 2.288783639669418335e-01 -9.660850465297698975e-02
1.117000000000000000e+03 1.918490529060363770e+00 -6.841752529144287109e+00 1.213284432888031006e-01 -3.136055171489715576e-01 -5.768312141299247742e-02 2.095806598663330078e-02
1.118000000000000000e+03 2.242849111557006836e+00 -3.203756093978881836e+00 3.174682706594467163e-02 -2.059345096349716187e-01 -5.225630477070808411e-02 -3.538377583026885986e-01
1.119000000000000000e+03 3.897488594055175781e+00 -8.785028457641601562e+00 2.788734734058380127e-01 7.741663455963134766e-01 3.159119486808776855e-01 4.762851595878601074e-01
1.120000000000000000e+03 1.687398552894592285e+00 -4.701430797576904297e+00 7.699199020862579346e-02 -4.056788682937622070e-01 -9.860605746507644653e-02 -2.235820144414901733e-01
1.121000000000000000e+03 1.018140697479248047e+01 -2.672932624816894531e+00 2.651217222213745117e+00 2.376661539077758789e+00 1.508363604545593262e+00 2.502919435501098633e+00
1.122000000000000000e+03 1.730077362060546875e+01 -3.061820507049560547e+00 1.925759792327880859e+00 5.219408512115478516e+00 2.143550395965576172e+00 -3.213633060455322266e+00
1.123000000000000000e+03 3.857084810733795166e-01 3.559980630874633789e+00 1.040116138756275177e-02 -8.753892183303833008e-01 -2.594964206218719482e-01 1.303249001502990723e-01
1.124000000000000000e+03 1.277807712554931641e+01 5.284179210662841797e+00 8.260642290115356445e-01 1.895246124267578125e+01 5.933557510375976562e+00 -2.491778135299682617e+00
1.125000000000000000e+03 2.754054641723632812e+01 2.252058601379394531e+01 -5.856037139892578125e-01 7.593964040279388428e-02 -1.528992354869842529e-01 -3.886700570583343506e-01
1.126000000000000000e+03 3.068243217468261719e+01 2.308962440490722656e+01 -6.699838042259216309e-01 -5.331207513809204102e-01 -3.609313666820526123e-01 -6.478807926177978516e-01
1.127000000000000000e+03 3.477290725708007812e+01 -1.267445945739746094e+01 -2.453766018152236938e-02 1.012843489646911621e+00 2.964917421340942383e-01 -2.849029600620269775e-01
1.128000000000000000e+03 4.154291534423828125e+01 -2.631603622436523438e+01 3.946820199489593506e-01 3.344449996948242188e+00 1.121739625930786133e+00 -1.297544956207275391e+00
1.129000000000000000e+03 3.962831497192382812e+01 -2.107952690124511719e+01 1.553449630737304688e-01 2.393754720687866211e+00 7.647299170494079590e-01 -7.152292728424072266e-01
1.130000000000000000e+03 4.296575546264648438e+01 1.846900939941406250e+01 3.989253640174865723e-01 2.095657587051391602e+00 7.483749389648437500e-01 1.153638243675231934e+00
1.131000000000000000e+03 2.359249687194824219e+01 -2.057527160644531250e+01 3.804959654808044434e-01 3.435039997100830078e+00 1.144660830497741699e+00 -1.238354086875915527e+00
1.132000000000000000e+03 2.922126960754394531e+01 -6.422038555145263672e+00 2.800531983375549316e-01 1.616851687431335449e-01 1.325215101242065430e-01 -6.873681396245956421e-02
1.133000000000000000e+03 3.017910385131835938e+01 -3.680585145950317383e+00 4.698182940483093262e-01 2.740430533885955811e-01 2.231584042310714722e-01 -2.100270539522171021e-01
1.134000000000000000e+03 3.946703720092773438e+01 1.823508453369140625e+01 3.699186146259307861e-01 9.312745332717895508e-01 3.903579413890838623e-01 6.548659205436706543e-01
1.135000000000000000e+03 2.463310813903808594e+01 -1.982556724548339844e+01 4.695737063884735107e-01 3.230086326599121094e+00 1.109897971153259277e+00 -1.422042131423950195e+00
1.136000000000000000e+03 2.424122047424316406e+01 -2.168691635131835938e+01 2.946642041206359863e-01 3.201128721237182617e+00 1.048737883567810059e+00 -1.201503992080688477e+00
1.137000000000000000e+03 1.448134326934814453e+01 7.068750858306884766e+00 -4.851268827915191650e-01 1.157499313354492188e+01 3.326959848403930664e+00 2.211383581161499023e+00
1.138000000000000000e+03 1.487554454803466797e+01 8.847253799438476562e+00 -7.032938599586486816e-01 8.172677040100097656e+00 2.240814924240112305e+00 1.302485585212707520e+00
1.139000000000000000e+03 1.398678112030029297e+01 8.292243957519531250e+00 -4.418782293796539307e-01 9.290439605712890625e+00 2.654568672180175781e+00 5.153214335441589355e-01
1.140000000000000000e+03 2.116464042663574219e+01 1.544471359252929688e+01 -3.929996490478515625e-01 1.606391429901123047e+00 3.640175461769104004e-01 3.752331137657165527e-01
1.141000000000000000e+03 2.390641975402832031e+01 1.630738067626953125e+01 -3.882156014442443848e-01 4.598326086997985840e-01 2.148510329425334930e-02 -2.632500045001506805e-02
1.142000000000000000e+03 3.304256439208984375e+01 -1.224587440490722656e+01 -2.162353880703449249e-02 5.555368661880493164e-01 1.601739972829818726e-01 -2.000195086002349854e-01
1.143000000000000000e+03 3.548489379882812500e+01 -1.388561534881591797e+01 6.065324321389198303e-02 1.194402098655700684e+00 3.765166103839874268e-01 -2.796506285667419434e-01
1.144000000000000000e+03 3.201393127441406250e+01 -3.573402404785156250e+01 4.383644759654998779e-01 1.421709775924682617e+00 5.580222606658935547e-01 -4.265248775482177734e-01
1.145000000000000000e+03 4.376621627807617188e+01 -2.963192558288574219e+01 5.503858923912048340e-01 5.368546485900878906e+00 1.775679707527160645e+00 -1.697551012039184570e+00
1.146000000000000000e+03 4.758438873291015625e+01 2.290252304077148438e+01 7.385813593864440918e-01 3.823434114456176758e+00 1.368604660034179688e+00 1.945980548858642578e+00
1.147000000000000000e+03 4.961196899414062500e+01 2.462352180480957031e+01 7.907069325447082520e-01 5.123567581176757812e+00 1.774282336235046387e+00 2.375210046768188477e+00
1.148000000000000000e+03 2.205711364746093750e+01 -2.241576004028320312e+01 8.728470653295516968e-02 3.494647502899169922e+00 1.074579715728759766e+00 -9.098792672157287598e-01
1.149000000000000000e+03 2.458574867248535156e+01 -2.448534011840820312e+01 2.744252383708953857e-01 3.004460811614990234e+00 9.836658239364624023e-01 -9.152223467826843262e-01
1.150000000000000000e+03 2.202223587036132812e+01 -1.839351844787597656e+01 3.277610540390014648e-01 4.007605552673339844e+00 1.300609946250915527e+00 -1.334218382835388184e+00
1.151000000000000000e+03 2.643626594543457031e+01 -1.336023688316345215e+00 1.020585536956787109e+00 -9.288913011550903320e-02 2.783088982105255127e-01 -2.299154996871948242e-01
1.152000000000000000e+03 1.913908958435058594e+01 1.136816120147705078e+01 2.660806477069854736e-01 2.403654575347900391e+00 8.009205460548400879e-01 1.139665961265563965e+00
1.153000000000000000e+03 1.662442588806152344e+01 1.046971702575683594e+01 -1.269961893558502197e-01 4.840472221374511719e+00 1.414042830467224121e+00 1.526116251945495605e+00
1.154000000000000000e+03 4.177179718017578125e+01 -2.435046005249023438e+01 1.478109955787658691e-01 3.377795934677124023e+00 1.057682037353515625e+00 -1.015284061431884766e+00
1.155000000000000000e+03 1.862665367126464844e+01 -7.935523390769958496e-01 3.407407045364379883e+00 -9.503692388534545898e-01 7.371113300323486328e-01 1.458685755729675293e+00
1.156000000000000000e+03 3.181414031982421875e+01 -7.928205013275146484e+00 7.292453944683074951e-02 4.928340911865234375e-01 1.697275936603546143e-01 -2.057396471500396729e-01
1.157000000000000000e+03 3.657289123535156250e+01 1.130029392242431641e+01 2.734521031379699707e-01 1.000512123107910156e+00 3.821892738342285156e-01 4.602749347686767578e-01
1.158000000000000000e+03 3.761168289184570312e+01 1.423486328125000000e+01 2.225126028060913086e-01 9.607689380645751953e-01 3.549844622611999512e-01 5.384712815284729004e-01
1.159000000000000000e+03 2.721664237976074219e+01 -2.770265960693359375e+01 3.224990069866180420e-01 2.525124788284301758e+00 8.542870879173278809e-01 -8.071244955062866211e-01
1.160000000000000000e+03 4.473016738891601562e+01 -2.877194023132324219e+01 6.837166845798492432e-02 6.002857685089111328e+00 1.821368813514709473e+00 -1.026753664016723633e+00
1.161000000000000000e+03 3.125630378723144531e+01 2.631070709228515625e+01 -6.517286896705627441e-01 -3.397582769393920898e-01 -2.974460721015930176e-01 -6.025261282920837402e-01
1.162000000000000000e+03 3.696225357055664062e+01 -1.631292915344238281e+01 7.710039615631103516e-02 1.566843867301940918e+00 4.931832849979400635e-01 -4.002625048160552979e-01
1.163000000000000000e+03 4.349882507324218750e+01 -2.641993522644042969e+01 1.020066365599632263e-01 4.570963859558105469e+00 1.401891231536865234e+00 -1.109464049339294434e+00
1.164000000000000000e+03 3.253949737548828125e+01 8.997220039367675781e+00 2.857770621776580811e-01 4.219366312026977539e-01 2.123141139745712280e-01 2.300213277339935303e-01
1.165000000000000000e+03 3.065899658203125000e+01 8.998001098632812500e+00 2.010850310325622559e-01 1.959046870470046997e-01 1.190969124436378479e-01 1.157391294836997986e-01
1.166000000000000000e+03 2.378830909729003906e+01 1.875684976577758789e+00 1.214458346366882324e+00 2.276429533958435059e-01 4.326303601264953613e-01 6.942748427391052246e-01
1.167000000000000000e+03 2.302992248535156250e+01 2.928933858871459961e+00 -4.410776868462562561e-02 4.312277138233184814e-01 1.161359846591949463e-01 5.788571238517761230e-01
1.168000000000000000e+03 4.450815582275390625e+01 -2.523848533630371094e+01 -5.785671621561050415e-02 4.756855487823486328e+00 1.409699559211730957e+00 -7.727959752082824707e-01
1.169000000000000000e+03 4.077149200439453125e+01 -2.521612548828125000e+01 4.153810143470764160e-01 2.865902662277221680e+00 9.843851327896118164e-01 -1.121068596839904785e+00
1.170000000000000000e+03 1.837073135375976562e+01 1.244604110717773438e+01 -2.089546620845794678e-01 3.082037210464477539e+00 8.619247674942016602e-01 1.007204174995422363e+00
1.171000000000000000e+03 3.730803680419921875e+01 -1.943798065185546875e+01 1.372677832841873169e-01 1.538680195808410645e+00 5.027844309806823730e-01 -5.784361362457275391e-01
1.172000000000000000e+03 1.925970649719238281e+01 -1.296355533599853516e+01 6.364697217941284180e-01 5.748608589172363281e+00 1.915523529052734375e+00 -1.604834556579589844e+00
1.173000000000000000e+03 2.812150955200195312e+01 5.245346069335937500e+00 4.845119118690490723e-01 1.612623184919357300e-01 1.937322616577148438e-01 1.816050857305526733e-01
1.174000000000000000e+03 2.741143989562988281e+01 6.247605323791503906e+00 1.813641488552093506e-01 5.331393703818321228e-02 7.040342688560485840e-02 2.070340067148208618e-01
1.175000000000000000e+03 3.862403869628906250e+01 -2.180708694458007812e+01 2.144396901130676270e-01 1.940933823585510254e+00 6.466120481491088867e-01 -7.919369935989379883e-01
1.176000000000000000e+03 3.796423339843750000e+01 -2.062878036499023438e+01 2.442628294229507446e-01 1.738368272781372070e+00 5.947893261909484863e-01 -6.325648427009582520e-01
1.177000000000000000e+03 2.805192375183105469e+01 2.392376327514648438e+01 -6.162067055702209473e-01 5.392040312290191650e-02 -1.686858832836151123e-01 -4.139567315578460693e-01
1.178000000000000000e+03 2.584133911132812500e+01 2.021638488769531250e+01 -5.642242431640625000e-01 3.173134922981262207e-01 -7.407323271036148071e-02 -2.402504235506057739e-01
1.179000000000000000e+03 3.378155517578125000e+01 2.977418518066406250e+01 -7.825213074684143066e-01 -4.996904432773590088e-01 -3.846635222434997559e-01 -6.012499332427978516e-01
1.180000000000000000e+03 7.784320831298828125e+01 -3.590791320800781250e+01 2.410262636840343475e-02 7.193367958068847656e+00 2.165241241455078125e+00 7.716305553913116455e-02
1.181000000000000000e+03 7.506276702880859375e+01 -4.041975021362304688e+01 6.296367943286895752e-02 7.116924762725830078e+00 2.153966665267944336e+00 5.210509896278381348e-02
1.182000000000000000e+03 7.659771728515625000e+01 -3.609101104736328125e+01 4.239024966955184937e-02 7.178793430328369141e+00 2.166355133056640625e+00 1.082058548927307129e-01
1.183000000000000000e+03 7.551942443847656250e+01 -2.174207115173339844e+01 -6.975293508730828762e-04 7.822075843811035156e+00 2.346413373947143555e+00 2.909238338470458984e-01
1.184000000000000000e+03 7.785589599609375000e+01 -2.899473571777343750e+01 -1.517841359600424767e-03 7.527973175048828125e+00 2.257936716079711914e+00 1.443721801042556763e-01
1.185000000000000000e+03 7.545987701416015625e+01 1.438155555725097656e+01 -6.961887329816818237e-02 8.211447715759277344e+00 2.442548513412475586e+00 -3.805481493473052979e-01
1.186000000000000000e+03 7.677797698974609375e+01 1.568345832824707031e+01 -3.413267061114311218e-02 8.179279327392578125e+00 2.443543910980224609e+00 -3.305128216743469238e-01
1.187000000000000000e+03 7.783953094482421875e+01 3.475543212890625000e+01 4.236812144517898560e-02 6.122798442840576172e+00 1.849550008773803711e+00 -1.580088287591934204e-01
1.188000000000000000e+03 7.567898559570312500e+01 3.522692108154296875e+01 1.217393875122070312e-01 6.812475681304931641e+00 2.080264568328857422e+00 -2.780028879642486572e-01
1.189000000000000000e+03 7.808268737792968750e+01 -2.203592681884765625e+01 5.628068931400775909e-03 7.991282463073730469e+00 2.399073123931884766e+00 1.404664069414138794e-01
1.190000000000000000e+03 7.675839996337890625e+01 -2.323225021362304688e+01 5.633049178868532181e-03 7.824497699737548828e+00 2.349039316177368164e+00 2.259116172790527344e-01
1.191000000000000000e+03 7.632742309570312500e+01 -3.022697067260742188e+01 1.251830719411373138e-02 7.428359985351562500e+00 2.232263565063476562e+00 2.153873294591903687e-01
1.192000000000000000e+03 7.529749298095703125e+01 -3.656727981567382812e+01 6.317627429962158203e-02 7.185056209564208984e+00 2.174469709396362305e+00 1.355549395084381104e-01
1.193000000000000000e+03 7.791075897216796875e+01 -2.759271240234375000e+01 1.066741440445184708e-02 7.613868236541748047e+00 2.287360668182373047e+00 1.467260867357254028e-01
1.194000000000000000e+03 7.641947174072265625e+01 -2.880879592895507812e+01 2.194599434733390808e-02 7.497993469238281250e+00 2.255981922149658203e+00 2.228130102157592773e-01
1.195000000000000000e+03 7.651020050048828125e+01 -2.740181732177734375e+01 3.434850368648767471e-03 7.574138164520263672e+00 2.273271799087524414e+00 2.289602607488632202e-01
1.196000000000000000e+03 7.669302368164062500e+01 -2.460410308837890625e+01 -6.200716365128755569e-03 7.741346359252929688e+00 2.320543527603149414e+00 2.300363481044769287e-01
1.197000000000000000e+03 7.538719177246093750e+01 -2.441460418701171875e+01 1.051384862512350082e-02 7.674957275390625000e+00 2.305641412734985352e+00 3.012427687644958496e-01
1.198000000000000000e+03 7.619564819335937500e+01 -3.167041206359863281e+01 3.467134013772010803e-02 7.360260009765625000e+00 2.218479394912719727e+00 2.064482271671295166e-01
1.199000000000000000e+03 7.604987335205078125e+01 -3.467358779907226562e+01 5.825542658567428589e-02 7.230642318725585938e+00 2.186669349670410156e+00 1.701977252960205078e-01
1.200000000000000000e+03 7.336137390136718750e+01 -2.997845458984375000e+01 5.855255946516990662e-02 7.336614608764648438e+00 2.218549966812133789e+00 3.356220126152038574e-01
1.201000000000000000e+03 7.810255432128906250e+01 2.248536682128906250e+01 -5.039704497903585434e-03 7.462854385375976562e+00 2.237344264984130859e+00 -2.970591187477111816e-01
1.202000000000000000e+03 7.681490325927734375e+01 1.983404350280761719e+01 -3.254586458206176758e-02 7.821109771728515625e+00 2.336569070816040039e+00 -4.030230045318603516e-01
1.203000000000000000e+03 7.559255218505859375e+01 2.259893989562988281e+01 -2.503516711294651031e-02 7.645707607269287109e+00 2.286201715469360352e+00 -5.605912208557128906e-01
1.204000000000000000e+03 7.683821868896484375e+01 2.120295906066894531e+01 -2.037943154573440552e-02 7.687523841857910156e+00 2.300143241882324219e+00 -4.285655617713928223e-01
1.205000000000000000e+03 7.678395843505859375e+01 1.290918350219726562e+01 -3.549688681960105896e-02 8.368157386779785156e+00 2.499798059463500977e+00 -2.664037644863128662e-01
1.206000000000000000e+03 7.547290039062500000e+01 8.865940093994140625e+00 -6.530498713254928589e-02 8.432241439819335938e+00 2.510081052780151367e+00 -2.156736850738525391e-01
1.207000000000000000e+03 7.678137969970703125e+01 1.430085277557373047e+01 -4.617216438055038452e-02 8.277893066406250000e+00 2.469516277313232422e+00 -2.928037345409393311e-01
1.208000000000000000e+03 7.682087707519531250e+01 2.392596817016601562e+01 -5.355343222618103027e-03 7.411148548126220703e+00 2.221738100051879883e+00 -4.571221172809600830e-01
1.209000000000000000e+03 7.801099395751953125e+01 2.665965652465820312e+01 1.563731208443641663e-02 6.926562309265136719e+00 2.082659959793090820e+00 -2.968846857547760010e-01
1.210000000000000000e+03 7.656425476074218750e+01 2.815094757080078125e+01 4.650086537003517151e-02 7.008063316345214844e+00 2.116369247436523438e+00 -4.340913593769073486e-01
1.211000000000000000e+03 7.809446716308593750e+01 -2.066649246215820312e+01 -1.082854717969894409e-02 8.084479331970214844e+00 2.422095298767089844e+00 1.385648399591445923e-01
1.212000000000000000e+03 7.679731750488281250e+01 -2.187707710266113281e+01 -1.257358491420745850e-02 7.908884525299072266e+00 2.368893384933471680e+00 2.225118279457092285e-01
1.213000000000000000e+03 7.552168273925781250e+01 -1.502926540374755859e+01 -3.368535265326499939e-02 8.147089958190917969e+00 2.434021472930908203e+00 2.427580356597900391e-01
1.214000000000000000e+03 7.520438385009765625e+01 -7.965864658355712891e+00 -3.767025470733642578e-02 8.364934921264648438e+00 2.498179197311401367e+00 1.529479771852493286e-01
1.215000000000000000e+03 7.808536529541015625e+01 -1.514257431030273438e+01 -1.316679827868938446e-02 8.427160263061523438e+00 2.524197816848754883e+00 1.167571693658828735e-01
1.216000000000000000e+03 7.544689941406250000e+01 -2.197201728820800781e+00 -4.233708232641220093e-02 8.506719589233398438e+00 2.539314746856689453e+00 4.694788902997970581e-02
1.217000000000000000e+03 7.802890014648437500e+01 -8.149524688720703125e+00 -2.349399263039231300e-03 8.746531486511230469e+00 2.623254776000976562e+00 6.850478798151016235e-02
1.218000000000000000e+03 7.807809448242187500e+01 5.830264091491699219e+00 -7.441257126629352570e-03 8.834606170654296875e+00 2.648149490356445312e+00 -7.555869966745376587e-02
1.219000000000000000e+03 7.676770019531250000e+01 3.210235118865966797e+00 -3.999064490199089050e-02 8.701156616210937500e+00 2.598349809646606445e+00 -5.497561767697334290e-02
1.220000000000000000e+03 7.808046722412109375e+01 7.218856334686279297e+00 -2.201997861266136169e-02 8.788385391235351562e+00 2.629909753799438477e+00 -9.068690240383148193e-02
1.221000000000000000e+03 7.677952575683593750e+01 5.985596656799316406e+00 -4.263562336564064026e-02 8.655101776123046875e+00 2.583739757537841797e+00 -1.082504391670227051e-01
1.222000000000000000e+03 7.807147979736328125e+01 -1.130327939987182617e+00 -1.814792864024639130e-02 8.903388977050781250e+00 2.665572166442871094e+00 6.935481447726488113e-03
1.223000000000000000e+03 7.676174926757812500e+01 -2.360711812973022461e+00 -3.342666476964950562e-02 8.691283226013183594e+00 2.597357034683227539e+00 3.554575517773628235e-02
1.224000000000000000e+03 7.667971038818359375e+01 -9.463467597961425781e+00 -1.662559993565082550e-02 8.511132240295410156e+00 2.548352003097534180e+00 1.294334977865219116e-01
1.225000000000000000e+03 7.681643676757812500e+01 -1.643415832519531250e+01 -2.030284330248832703e-02 8.216504096984863281e+00 2.458860397338867188e+00 1.941307485103607178e-01
1.226000000000000000e+03 7.425621795654296875e+01 3.567838287353515625e+01 1.566381752490997314e-01 7.084902286529541016e+00 2.172462224960327148e+00 -2.660041153430938721e-01
1.227000000000000000e+03 7.589379119873046875e+01 3.265149688720703125e+01 1.053577214479446411e-01 6.845260143280029297e+00 2.085185289382934570e+00 -3.723508417606353760e-01
1.228000000000000000e+03 7.679315948486328125e+01 1.845133590698242188e+01 -2.888831496238708496e-02 7.949970245361328125e+00 2.376324653625488281e+00 -3.871344923973083496e-01
1.229000000000000000e+03 7.678711700439453125e+01 1.013340663909912109e+01 -3.406526893377304077e-02 8.514983177185058594e+00 2.544275522232055664e+00 -2.011394649744033813e-01
1.230000000000000000e+03 7.807052612304687500e+01 1.654947996139526367e+00 -1.970774866640567780e-02 8.905733108520507812e+00 2.665807485580444336e+00 -2.202236093580722809e-02
1.231000000000000000e+03 7.665848541259765625e+01 -8.037911415100097656e+00 -2.948816679418087006e-02 8.555403709411621094e+00 2.557774543762207031e+00 1.138868927955627441e-01
1.232000000000000000e+03 7.807319641113281250e+01 -1.375948619842529297e+01 3.971114056184887886e-04 8.501060485839843750e+00 2.550437211990356445e+00 1.079295575618743896e-01
1.233000000000000000e+03 7.680381011962890625e+01 -1.506365776062011719e+01 -7.836265489459037781e-03 8.284482955932617188e+00 2.482993841171264648e+00 1.822652518749237061e-01
1.234000000000000000e+03 7.677394104003906250e+01 4.601697444915771484e+00 -2.798388898372650146e-02 8.682719230651855469e+00 2.596420526504516602e+00 -8.512858301401138306e-02
1.235000000000000000e+03 7.669513702392578125e+01 -5.202127456665039062e+00 -3.268295526504516602e-02 8.634501457214355469e+00 2.580545663833618164e+00 7.732842862606048584e-02
1.236000000000000000e+03 7.666342163085937500e+01 -6.621816635131835938e+00 -1.649583876132965088e-02 8.595849990844726562e+00 2.573806285858154297e+00 9.491367638111114502e-02
1.237000000000000000e+03 7.673522186279296875e+01 -3.776556015014648438e+00 -2.061289735138416290e-02 8.666069984436035156e+00 2.593637228012084961e+00 5.383448675274848938e-02
1.238000000000000000e+03 7.678144073486328125e+01 -1.369110679626464844e+01 -2.328612655401229858e-02 8.348309516906738281e+00 2.497507095336914062e+00 1.728372871875762939e-01
1.239000000000000000e+03 7.671595001220703125e+01 -1.088836765289306641e+01 -2.876354195177555084e-02 8.461101531982421875e+00 2.529701232910156250e+00 1.478130519390106201e-01
1.240000000000000000e+03 7.537368011474609375e+01 -1.088074874877929688e+01 -3.060281649231910706e-02 8.288535118103027344e+00 2.477379560470581055e+00 1.956543773412704468e-01
1.241000000000000000e+03 7.681507873535156250e+01 -2.052918815612792969e+01 5.554906092584133148e-04 7.988153934478759766e+00 2.396612882614135742e+00 2.158052772283554077e-01
1.242000000000000000e+03 7.682121276855468750e+01 -1.780287742614746094e+01 -4.143869504332542419e-03 8.143250465393066406e+00 2.441732168197631836e+00 2.014706432819366455e-01
1.243000000000000000e+03 7.554327392578125000e+01 -1.772691535949707031e+01 -2.795477025210857391e-02 8.025992393493652344e+00 2.399411201477050781e+00 2.682578265666961670e-01
1.244000000000000000e+03 2.549314689636230469e+01 -2.390725898742675781e+01 2.693112492561340332e-01 2.913176298141479492e+00 9.547463059425354004e-01 -1.068361997604370117e+00
1.245000000000000000e+03 2.603911781311035156e+01 -2.511535263061523438e+01 3.569166064262390137e-01 2.796211004257202148e+00 9.459382891654968262e-01 -9.336879849433898926e-01
1.246000000000000000e+03 2.825870132446289062e+01 -3.021426582336425781e+01 3.543870449066162109e-01 2.245148897171020508e+00 7.798607945442199707e-01 -7.118885517120361328e-01
1.247000000000000000e+03 2.284490394592285156e+01 -1.949670982360839844e+01 2.815081775188446045e-01 3.683335065841674805e+00 1.189453005790710449e+00 -1.365302443504333496e+00
1.248000000000000000e+03 2.949046707153320312e+01 2.374606704711914062e+01 -6.067095398902893066e-01 -1.916595101356506348e-01 -2.395107150077819824e-01 -5.087566971778869629e-01
1.249000000000000000e+03 3.789449310302734375e+01 3.405274963378906250e+01 -9.180532097816467285e-01 -6.609153151512145996e-01 -4.736905694007873535e-01 -6.710811853408813477e-01
1.250000000000000000e+03 2.652550888061523438e+01 -2.651011276245117188e+01 2.288088202476501465e-01 2.624406099319458008e+00 8.559644818305969238e-01 -9.295652508735656738e-01
1.251000000000000000e+03 4.107045364379882812e+01 3.852970123291015625e+01 -1.357277631759643555e+00 -6.267364025115966797e-01 -5.952042341232299805e-01 -4.267776012420654297e-01
1.252000000000000000e+03 1.787677574157714844e+01 -4.332901954650878906e+00 7.602694630622863770e-01 5.041212558746337891e+00 1.740444540977478027e+00 -3.475533962249755859e+00
1.253000000000000000e+03 2.164956665039062500e+01 -1.509040355682373047e+01 7.253957390785217285e-01 4.602514743804931641e+00 1.598373174667358398e+00 -1.862273693084716797e+00
1.254000000000000000e+03 2.030107879638671875e+01 -1.579374408721923828e+01 3.960355222225189209e-01 4.829167366027832031e+00 1.567560911178588867e+00 -1.385886788368225098e+00
1.255000000000000000e+03 4.211023330688476562e+01 1.930578041076660156e+01 4.931194782257080078e-01 1.672464370727539062e+00 6.496751308441162109e-01 1.015773653984069824e+00
1.256000000000000000e+03 3.664267349243164062e+01 1.318973731994628906e+01 2.387836426496505737e-01 8.623895049095153809e-01 3.303519487380981445e-01 4.343946874141693115e-01
1.257000000000000000e+03 3.947687530517578125e+01 1.633655738830566406e+01 3.028829693794250488e-01 1.202415466308593750e+00 4.515895247459411621e-01 7.027285099029541016e-01
1.258000000000000000e+03 5.305283355712890625e+01 2.937072944641113281e+01 1.349573135375976562e+00 9.140882492065429688e+00 3.147136688232421875e+00 3.270720958709716797e+00
1.259000000000000000e+03 5.132629013061523438e+01 2.958545875549316406e+01 2.341736555099487305e+00 6.950554370880126953e+00 2.787687301635742188e+00 3.951189994812011719e+00
1.260000000000000000e+03 2.980393600463867188e+01 -3.355739974975585938e+01 3.268204331398010254e-01 1.862160325050354004e+00 6.566942334175109863e-01 -5.872054696083068848e-01
1.261000000000000000e+03 4.493222808837890625e+01 2.210559654235839844e+01 7.727103233337402344e-01 2.432702064514160156e+00 9.616237282752990723e-01 1.517358064651489258e+00
1.262000000000000000e+03 3.656885147094726562e+00 3.108122825622558594e+01 -6.883566081523895264e-02 5.166390895843505859e+00 1.529266595840454102e+00 -2.006717920303344727e-01
1.263000000000000000e+03 2.042430400848388672e+00 2.714958763122558594e+01 -4.029890522360801697e-02 5.239822387695312500e+00 1.559857010841369629e+00 -2.179553657770156860e-01
1.264000000000000000e+03 5.750133037567138672e+00 3.317867660522460938e+01 -1.142179369926452637e-01 4.791738033294677734e+00 1.403256058692932129e+00 -2.114914208650588989e-01
1.265000000000000000e+03 3.221672773361206055e+00 2.392461585998535156e+01 -1.086823567748069763e-01 4.704411506652832031e+00 1.378718733787536621e+00 -4.901490211486816406e-01
1.266000000000000000e+03 3.572698354721069336e+00 2.965197372436523438e+01 -5.897082388401031494e-02 5.124439239501953125e+00 1.519640564918518066e+00 -2.529143989086151123e-01
1.267000000000000000e+03 3.862563848495483398e+00 3.252591705322265625e+01 -6.066711246967315674e-02 5.200889110565185547e+00 1.542066574096679688e+00 -1.816042065620422363e-01
1.268000000000000000e+03 4.296537876129150391e+00 3.403128051757812500e+01 -8.102751523256301880e-02 5.129225730895996094e+00 1.514459490776062012e+00 -1.681909561157226562e-01
1.269000000000000000e+03 7.222805023193359375e+00 3.002583503723144531e+01 -2.044280469417572021e-01 4.472692489624023438e+00 1.280479311943054199e+00 -3.569466471672058105e-01
1.270000000000000000e+03 3.119950532913208008e+00 -3.441484069824218750e+01 -3.209756687283515930e-02 2.610752820968627930e+00 7.735965847969055176e-01 9.670916199684143066e-02
1.271000000000000000e+03 4.074934482574462891e+00 -3.236302185058593750e+01 -5.559822916984558105e-02 2.586102008819580078e+00 7.591511607170104980e-01 1.647021323442459106e-01
1.272000000000000000e+03 2.083843708038330078e+00 -3.024467086791992188e+01 -8.532088249921798706e-03 2.431294679641723633e+00 7.268288135528564453e-01 1.265023946762084961e-01
1.273000000000000000e+03 3.390913248062133789e+00 -2.870570945739746094e+01 -3.614918142557144165e-02 2.433303356170654297e+00 7.191462516784667969e-01 2.116270363330841064e-01
1.274000000000000000e+03 1.867122411727905273e+00 2.147020912170410156e+01 -6.477167457342147827e-02 4.458949565887451172e+00 1.318253397941589355e+00 -4.225912094116210938e-01
1.275000000000000000e+03 2.818769216537475586e+00 1.154592704772949219e+01 4.340111464262008667e-02 1.763967514038085938e+00 5.422105789184570312e-01 -1.248283505439758301e+00
1.276000000000000000e+03 2.989642620086669922e+00 1.833324623107910156e+01 -1.408493369817733765e-01 3.799608707427978516e+00 1.097627758979797363e+00 -8.889257311820983887e-01
1.277000000000000000e+03 3.873221635818481445e+00 -9.931558609008789062e+00 1.655730605125427246e-01 9.184243083000183105e-01 3.251992166042327881e-01 5.638560056686401367e-01
1.278000000000000000e+03 3.029790878295898438e+00 -1.782442665100097656e+01 -3.807913884520530701e-02 1.551395177841186523e+00 4.539948105812072754e-01 4.691753387451171875e-01
1.279000000000000000e+03 1.761187911033630371e+00 -1.503237819671630859e+01 -1.257579959928989410e-02 7.591138482093811035e-01 2.239614129066467285e-01 3.418929576873779297e-01
1.280000000000000000e+03 2.833664178848266602e+00 -1.235599994659423828e+01 3.302713856101036072e-02 7.847731709480285645e-01 2.453400939702987671e-01 5.045185089111328125e-01
1.281000000000000000e+03 1.741261124610900879e+00 -8.211190223693847656e+00 8.528763055801391602e-02 -2.869518697261810303e-01 -6.049926951527595520e-02 1.494526416063308716e-01
1.282000000000000000e+03 2.705974102020263672e+00 8.849060058593750000e+00 2.741655111312866211e-01 7.496615648269653320e-01 3.071481287479400635e-01 -9.273583889007568359e-01
1.283000000000000000e+03 1.466903090476989746e+00 6.058284759521484375e+00 1.754412949085235596e-01 -5.964154005050659180e-01 -1.262922286987304688e-01 -5.005637928843498230e-02
1.284000000000000000e+03 2.877881288528442383e+00 1.288788890838623047e+01 -2.355838008224964142e-02 2.265615940093994141e+00 6.726172566413879395e-01 -1.294093847274780273e+00
1.285000000000000000e+03 1.755440115928649902e+00 1.588207149505615234e+01 -7.051297277212142944e-02 2.928895473480224609e+00 8.575147390365600586e-01 -7.226424813270568848e-01
1.286000000000000000e+03 2.940031290054321289e+00 1.695627212524414062e+01 -1.706064343452453613e-01 3.478714942932128906e+00 9.924325942993164062e-01 -9.967150688171386719e-01
1.287000000000000000e+03 2.755398273468017578e+00 1.020161724090576172e+01 1.937877684831619263e-01 1.254117965698242188e+00 4.343717396259307861e-01 -1.166591644287109375e+00
1.288000000000000000e+03 3.036997795104980469e+00 -7.342154502868652344e+00 2.757425606250762939e-01 2.066382914781570435e-01 1.447142511606216431e-01 1.851880103349685669e-01
1.289000000000000000e+03 2.507495641708374023e+00 -4.208186626434326172e+00 1.414685100317001343e-01 -1.691341698169708252e-01 -8.299695327877998352e-03 -2.713499963283538818e-01
1.290000000000000000e+03 2.415147304534912109e+00 -5.703667640686035156e+00 1.996864378452301025e-01 -1.910704374313354492e-01 2.584800124168395996e-03 -9.202414005994796753e-02
1.291000000000000000e+03 3.304579019546508789e+00 -2.737372779846191406e+01 -4.807706549763679504e-02 2.352868080139160156e+00 6.914373040199279785e-01 2.398811876773834229e-01
1.292000000000000000e+03 3.100988864898681641e+00 -2.058805465698242188e+01 -4.350068047642707825e-02 1.846155524253845215e+00 5.407964587211608887e-01 4.005573391914367676e-01
1.293000000000000000e+03 3.090926647186279297e+00 2.111228752136230469e+01 -1.250457018613815308e-01 4.322687625885009766e+00 1.259292483329772949e+00 -6.703976392745971680e-01
1.294000000000000000e+03 1.878916144371032715e+00 -2.337485885620117188e+01 -2.502219565212726593e-02 1.907417178153991699e+00 5.647184848785400391e-01 2.153626978397369385e-01
1.295000000000000000e+03 3.134785652160644531e+00 -2.195059204101562500e+01 -5.747152492403984070e-02 1.965748310089111328e+00 5.724830627441406250e-01 3.633230924606323242e-01
1.296000000000000000e+03 2.942076683044433594e+00 -1.506182575225830078e+01 -1.747107878327369690e-02 1.193679928779602051e+00 3.528626263141632080e-01 5.151668190956115723e-01
1.297000000000000000e+03 2.788785457611083984e+00 -9.760585784912109375e+00 1.232940182089805603e-01 3.993985652923583984e-01 1.568077653646469116e-01 3.991017639636993408e-01
1.298000000000000000e+03 2.852366924285888672e+00 -8.518334388732910156e+00 1.693338751792907715e-01 2.606562376022338867e-01 1.289970427751541138e-01 3.067045807838439941e-01
1.299000000000000000e+03 3.594788551330566406e+00 -3.127544593811035156e+01 -3.180544450879096985e-02 2.536245107650756836e+00 7.513319253921508789e-01 1.758149415254592896e-01
1.300000000000000000e+03 3.199464321136474609e+00 -2.466587257385253906e+01 -5.410910770297050476e-02 2.181476831436157227e+00 6.382102966308593750e-01 2.967098355293273926e-01
1.301000000000000000e+03 4.533020973205566406e+00 -2.454262161254882812e+01 -7.320585846900939941e-02 2.349466323852539062e+00 6.828781366348266602e-01 3.759672641754150391e-01
1.302000000000000000e+03 2.888617992401123047e+00 -1.369796466827392578e+01 -7.974273525178432465e-03 9.871141910552978516e-01 2.937419712543487549e-01 5.196355581283569336e-01
1.303000000000000000e+03 2.903972148895263672e+00 1.423648643493652344e+01 -1.184869632124900818e-01 2.701450586318969727e+00 7.748891115188598633e-01 -1.201971054077148438e+00
1.304000000000000000e+03 3.040301084518432617e+00 1.971992492675781250e+01 -1.591457724571228027e-01 4.079141616821289062e+00 1.175998687744140625e+00 -7.692868709564208984e-01
1.305000000000000000e+03 3.150085687637329102e+00 2.251095199584960938e+01 -1.338280141353607178e-01 4.527608394622802734e+00 1.318134069442749023e+00 -5.722281932830810547e-01
1.306000000000000000e+03 3.899557876586914062e+01 -1.991168212890625000e+01 7.532481104135513306e-02 2.142323732376098633e+00 6.652945876121520996e-01 -6.704153418540954590e-01
1.307000000000000000e+03 4.996788024902343750e+01 2.659517478942871094e+01 1.279656648635864258e+00 5.381423473358154297e+00 1.998324036598205566e+00 2.825102806091308594e+00
1.308000000000000000e+03 5.677883911132812500e+01 3.068148231506347656e+01 1.035442233085632324e+00 1.127080631256103516e+01 3.691874504089355469e+00 6.995676755905151367e-01
1.309000000000000000e+03 2.343122482299804688e+01 -4.619793593883514404e-02 2.960571050643920898e+00 -1.331368535757064819e-01 8.482302427291870117e-01 1.298262774944305420e-01
1.310000000000000000e+03 4.791315841674804688e+01 2.478294563293457031e+01 1.126573324203491211e+00 3.802583217620849609e+00 1.478746891021728516e+00 2.234008789062500000e+00
1.311000000000000000e+03 2.494235610961914062e+01 1.922710418701171875e+01 -5.694189667701721191e-01 4.737337529659271240e-01 -2.870555780827999115e-02 -1.353761106729507446e-01
1.312000000000000000e+03 5.100110626220703125e+01 2.751917839050292969e+01 1.344432950019836426e+00 6.367177963256835938e+00 2.313483238220214844e+00 3.086249351501464844e+00
1.313000000000000000e+03 3.034354209899902344e+01 7.051214218139648438e+00 3.724719583988189697e-01 2.594419419765472412e-01 1.895741671323776245e-01 1.742708235979080200e-01
1.314000000000000000e+03 3.564484024047851562e+01 1.214015102386474609e+01 1.862354576587677002e-01 7.140490412712097168e-01 2.700853645801544189e-01 4.134112894535064697e-01
1.315000000000000000e+03 3.405943298339843750e+01 -1.147042942047119141e+01 8.228225260972976685e-02 8.981333374977111816e-01 2.941246628761291504e-01 -1.961683183908462524e-01
1.316000000000000000e+03 3.227505111694335938e+01 2.727174568176269531e+01 -7.234219908714294434e-01 -4.398547410964965820e-01 -3.489830195903778076e-01 -5.952305793762207031e-01
1.317000000000000000e+03 4.035919189453125000e+01 1.735200500488281250e+01 3.753973543643951416e-01 1.355036735534667969e+00 5.191302299499511719e-01 7.767342329025268555e-01
1.318000000000000000e+03 1.822008895874023438e+01 -1.019274044036865234e+01 9.447185993194580078e-01 6.539893150329589844e+00 2.245383501052856445e+00 -1.871740221977233887e+00
1.319000000000000000e+03 3.580765914916992188e+01 3.387554168701171875e+01 -8.653181195259094238e-01 -4.921161532402038574e-01 -4.072302877902984619e-01 -5.783703923225402832e-01
1.320000000000000000e+03 3.828654861450195312e+01 3.122989082336425781e+01 -9.932537674903869629e-01 -8.859149813652038574e-01 -5.637506246566772461e-01 -8.234961032867431641e-01
1.321000000000000000e+03 4.591390228271484375e+01 2.300722503662109375e+01 9.090956449508666992e-01 2.823515892028808594e+00 1.119783401489257812e+00 1.711622476577758789e+00
1.322000000000000000e+03 4.546100616455078125e+01 -2.952038192749023438e+01 1.629493832588195801e-01 6.272537708282470703e+00 1.930646181106567383e+00 -6.201478838920593262e-01
1.323000000000000000e+03 5.407041168212890625e+01 3.027463340759277344e+01 1.078448891639709473e+00 1.116921424865722656e+01 3.674298763275146484e+00 2.841744184494018555e+00
1.324000000000000000e+03 2.924195098876953125e+01 -4.514618396759033203e+00 5.826956629753112793e-01 1.906846016645431519e-01 2.320140749216079712e-01 -1.373361200094223022e-01
1.325000000000000000e+03 2.832754707336425781e+01 -3.440589904785156250e+00 5.214052200317382812e-01 7.647944241762161255e-02 1.793653964996337891e-01 -2.593289017677307129e-01
1.326000000000000000e+03 3.144767951965332031e+01 7.999136447906494141e+00 2.351133376359939575e-01 2.928400933742523193e-01 1.583860367536544800e-01 2.637786567211151123e-01
1.327000000000000000e+03 2.020665550231933594e+01 1.445457458496093750e+01 -3.334038853645324707e-01 1.992343425750732422e+00 4.976818561553955078e-01 5.589178800582885742e-01
1.328000000000000000e+03 2.702378082275390625e+01 4.375829219818115234e+00 3.288644850254058838e-01 9.670397639274597168e-02 1.276705414056777954e-01 3.419760167598724365e-01
1.329000000000000000e+03 2.548523521423339844e+01 -2.823473215103149414e-01 1.907448053359985352e+00 -2.358177006244659424e-01 5.014891028404235840e-01 6.256317347288131714e-02
1.330000000000000000e+03 2.485879325866699219e+01 2.686059951782226562e+00 5.152316689491271973e-01 1.382549554109573364e-01 1.960459947586059570e-01 5.804389715194702148e-01
1.331000000000000000e+03 2.593874359130859375e+01 3.523529767990112305e+00 6.595122814178466797e-01 1.383285671472549438e-01 2.393522411584854126e-01 3.281359076499938965e-01
1.332000000000000000e+03 3.120012474060058594e+01 -3.206402969360351562e+01 4.359411001205444336e-01 1.705675363540649414e+00 6.424849033355712891e-01 -7.779434323310852051e-01
1.333000000000000000e+03 3.104993438720703125e+01 -3.309300994873046875e+01 2.988912463188171387e-01 1.709682345390319824e+00 6.025720834732055664e-01 -6.576198935508728027e-01
1.334000000000000000e+03 3.462990951538085938e+01 1.108742904663085938e+01 2.352699041366577148e-01 6.295327544212341309e-01 2.594408094882965088e-01 3.112406134605407715e-01
1.335000000000000000e+03 2.894343566894531250e+01 -3.186212539672851562e+01 2.560996115207672119e-01 2.022326469421386719e+00 6.835278272628784180e-01 -6.549353599548339844e-01
1.336000000000000000e+03 1.738448143005371094e+01 -6.190723419189453125e+00 5.385622978210449219e-01 6.747740745544433594e+00 2.185890913009643555e+00 -3.504806041717529297e+00
1.337000000000000000e+03 4.713435363769531250e+01 -3.229224014282226562e+01 1.093565344810485840e+00 7.062525749206542969e+00 2.446827411651611328e+00 -1.111129671335220337e-01
1.338000000000000000e+03 4.660601043701171875e+01 -3.002026367187500000e+01 5.386226773262023926e-01 6.538011550903320312e+00 2.122990131378173828e+00 -4.465430974960327148e-01
1.339000000000000000e+03 4.551511764526367188e+01 3.738116073608398438e+01 -2.117519378662109375e+00 -6.623106598854064941e-01 -8.339489698410034180e-01 -8.813211321830749512e-01
1.340000000000000000e+03 4.667675399780273438e+01 3.878121948242187500e+01 -2.255381584167480469e+00 -7.580397725105285645e-01 -9.040263891220092773e-01 -3.359977155923843384e-02
1.341000000000000000e+03 1.152087211608886719e+01 6.387341976165771484e+00 9.682633876800537109e-01 1.178623771667480469e+01 3.826350212097167969e+00 -4.043512344360351562e+00
1.342000000000000000e+03 1.771663665771484375e+01 -7.445264339447021484e+00 9.747411012649536133e-01 6.831220149993896484e+00 2.341788291931152344e+00 -2.811180591583251953e+00
1.343000000000000000e+03 1.799262619018554688e+01 -8.768851280212402344e+00 9.474847316741943359e-01 6.658054828643798828e+00 2.281661987304687500e+00 -2.386909246444702148e+00
1.344000000000000000e+03 5.672461318969726562e+01 3.768449401855468750e+01 2.037738800048828125e+00 1.177106952667236328e+01 4.142642498016357422e+00 4.045352458953857422e+00
1.345000000000000000e+03 4.880120849609375000e+01 -3.653076934814453125e+01 1.442942976951599121e+00 7.303493499755859375e+00 2.623930931091308594e+00 -2.021461874246597290e-01
1.346000000000000000e+03 5.025292205810546875e+01 -3.122826766967773438e+01 7.790588736534118652e-01 6.641626358032226562e+00 2.226205587387084961e+00 3.189346790313720703e-01
1.347000000000000000e+03 4.968637847900390625e+01 -3.993261337280273438e+01 8.020249009132385254e-01 7.387212276458740234e+00 2.456771135330200195e+00 -2.477201819419860840e-01
1.348000000000000000e+03 5.041859626770019531e+00 -4.036576080322265625e+01 -3.402550518512725830e-02 2.748623609542846680e+00 8.143794536590576172e-01 4.221355542540550232e-02
1.349000000000000000e+03 5.031802654266357422e+00 4.002378082275390625e+01 -7.301371078938245773e-05 5.143623828887939453e+00 1.543065190315246582e+00 -1.015495657920837402e-01
1.350000000000000000e+03 1.243798065185546875e+01 -2.633657455444335938e+00 1.115322589874267578e+00 1.457446002960205078e+01 4.706934928894042969e+00 5.446366786956787109e+00
1.351000000000000000e+03 1.238099193572998047e+01 1.180177330970764160e+00 2.218184709548950195e+00 1.935886573791503906e+01 6.473115444183349609e+00 -6.705307006835937500e+00
1.352000000000000000e+03 1.210414409637451172e+01 1.542843580245971680e+00 5.031738758087158203e+00 1.667358016967773438e+01 6.511595249176025391e+00 -5.194655895233154297e+00
1.353000000000000000e+03 1.124130344390869141e+01 2.289022445678710938e+00 7.078565120697021484e+00 8.683776855468750000e+00 4.728702545166015625e+00 -4.316858291625976562e+00
1.354000000000000000e+03 1.117415142059326172e+01 -2.734158277511596680e+00 2.987127780914306641e+00 5.646718502044677734e+00 2.590153932571411133e+00 4.446752071380615234e+00
1.355000000000000000e+03 9.748161315917968750e+00 -2.548792839050292969e+00 2.153843402862548828e+00 1.513985991477966309e+00 1.100348830223083496e+00 1.631617069244384766e+00
1.356000000000000000e+03 1.240110206604003906e+01 1.393350720405578613e+00 3.387759447097778320e+00 1.995808029174804688e+01 7.003752231597900391e+00 -5.396238803863525391e+00
1.357000000000000000e+03 1.270229911804199219e+01 3.038265943527221680e+00 8.984576225280761719e+00 2.037010002136230469e+01 8.806403160095214844e+00 -4.847821712493896484e+00
1.358000000000000000e+03 1.266053199768066406e+01 -2.451870679855346680e+00 6.559684872627258301e-01 1.751904487609863281e+01 5.452503681182861328e+00 5.514525890350341797e+00
1.359000000000000000e+03 1.575974655151367188e+01 -4.775277137756347656e+00 -7.942638359963893890e-03 9.672559738159179688e+00 2.899385213851928711e+00 -3.599374532699584961e+00
1.360000000000000000e+03 1.039650154113769531e+01 2.125850439071655273e+00 5.245502948760986328e+00 1.597048521041870117e+00 2.052765369415283203e+00 -2.256863117218017578e+00
1.361000000000000000e+03 7.864463806152343750e+00 -3.096108675003051758e+00 1.154755592346191406e+00 6.689327955245971680e-01 5.471065044403076172e-01 5.262720584869384766e-01
1.362000000000000000e+03 1.232079029083251953e+01 -2.922665596008300781e+00 9.410017132759094238e-01 1.283540630340576172e+01 4.132922172546386719e+00 4.998151779174804688e+00
1.363000000000000000e+03 1.190583229064941406e+01 -3.139053106307983398e+00 1.498381853103637695e+00 9.739910125732421875e+00 3.371487617492675781e+00 4.725937366485595703e+00
1.364000000000000000e+03 6.047262668609619141e+00 3.414012670516967773e+00 1.412773013114929199e+00 -9.034683555364608765e-02 3.967278599739074707e-01 2.064802050590515137e-01
1.365000000000000000e+03 5.002024173736572266e+00 5.384221553802490234e+00 1.460830926895141602e+00 3.800389170646667480e-01 5.522609353065490723e-01 -5.134425163269042969e-01
1.366000000000000000e+03 4.521539688110351562e+00 3.727101087570190430e+00 8.332995176315307617e-01 -1.136467158794403076e-01 2.158958315849304199e-01 3.376158773899078369e-01
1.367000000000000000e+03 7.579332351684570312e+00 3.816157579421997070e+00 2.823296308517456055e+00 7.396311163902282715e-01 1.068878173828125000e+00 -9.278531074523925781e-01
1.368000000000000000e+03 6.918322563171386719e+00 4.051841735839843750e+00 2.480323314666748047e+00 3.272779583930969238e-01 8.422803878784179688e-01 -6.345871686935424805e-01
1.369000000000000000e+03 4.289561271667480469e+00 5.736909389495849609e+00 1.044302105903625488e+00 4.268792271614074707e-01 4.413543939590454102e-01 -4.863502681255340576e-01
1.370000000000000000e+03 3.935057163238525391e+00 4.923837184906005859e+00 9.359048008918762207e-01 1.640321686863899231e-02 2.856924235820770264e-01 -2.866606228053569794e-02
1.371000000000000000e+03 1.259033679962158203e+00 4.718616962432861328e+00 1.087702587246894836e-01 -7.508112788200378418e-01 -1.926123052835464478e-01 2.222649157047271729e-01
1.372000000000000000e+03 5.154435634613037109e+00 -4.497723102569580078e+00 6.120416522026062012e-01 3.613558709621429443e-01 2.920192480087280273e-01 3.540724515914916992e-02
1.373000000000000000e+03 5.898385047912597656e+00 -4.335764884948730469e+00 7.700626850128173828e-01 4.945894181728363037e-01 3.793956339359283447e-01 1.796827614307403564e-01
1.374000000000000000e+03 6.606855392456054688e+00 -4.067855834960937500e+00 9.583961367607116699e-01 6.292114257812500000e-01 4.762822687625885010e-01 3.488114178180694580e-01
1.375000000000000000e+03 3.388857603073120117e+00 -6.315411090850830078e+00 3.208295404911041260e-01 1.612924933433532715e-01 1.446366161108016968e-01 8.490870893001556396e-02
1.376000000000000000e+03 8.527156829833984375e+00 -3.706974983215332031e+00 1.596095323562622070e+00 1.484036803245544434e+00 9.240396618843078613e-01 1.245373249053955078e+00
1.377000000000000000e+03 1.309309768676757812e+01 7.903077602386474609e+00 -5.208573341369628906e-01 1.061531829833984375e+01 3.028338432312011719e+00 -2.260325103998184204e-01
1.378000000000000000e+03 9.594059944152832031e+00 3.087150812149047852e+00 4.863266468048095703e+00 2.069476127624511719e+00 2.079822778701782227e+00 -2.305160760879516602e+00
1.379000000000000000e+03 1.171508216857910156e+01 3.169888734817504883e+00 7.009712219238281250e+00 1.327144336700439453e+01 6.084346294403076172e+00 -6.682410717010498047e+00
1.380000000000000000e+03 1.485918903350830078e+01 -2.571138620376586914e+00 2.167567729949951172e+00 1.498975944519042969e+01 5.147198200225830078e+00 -5.566704273223876953e+00
1.381000000000000000e+03 8.572771072387695312e+00 4.350955963134765625e+00 4.022754669189453125e+00 1.916536927223205566e+00 1.781787395477294922e+00 -2.391180753707885742e+00
1.382000000000000000e+03 1.714188957214355469e+01 -1.172273635864257812e+00 5.667887687683105469e+00 1.924862384796142578e+00 2.277825117111206055e+00 -1.922864198684692383e+00
1.383000000000000000e+03 1.635211372375488281e+01 -1.612922906875610352e+00 5.905006885528564453e+00 4.115979671478271484e+00 3.006295919418334961e+00 -3.732709884643554688e+00
1.384000000000000000e+03 1.278918743133544922e+01 4.090892314910888672e+00 4.560650825500488281e+00 2.189056396484375000e+01 7.935364246368408203e+00 -6.354606151580810547e+00
1.385000000000000000e+03 1.253490638732910156e+01 6.498243331909179688e+00 4.023659825325012207e-01 1.300754356384277344e+01 4.022973060607910156e+00 -1.689890980720520020e+00
1.386000000000000000e+03 4.383159637451171875e+01 1.941485214233398438e+01 4.791747033596038818e-01 2.350436925888061523e+00 8.488834500312805176e-01 1.254372954368591309e+00
1.387000000000000000e+03 1.884061622619628906e+01 -1.616980361938476562e+01 8.360466361045837402e-02 4.859731197357177734e+00 1.483000755310058594e+00 -1.086262702941894531e+00
1.388000000000000000e+03 2.001707839965820312e+01 -1.834279632568359375e+01 6.682208925485610962e-02 4.384742259979248047e+00 1.335469245910644531e+00 -1.034437298774719238e+00
1.389000000000000000e+03 1.842240905761718750e+01 1.456914520263671875e+01 -5.976002812385559082e-01 3.063827276229858398e+00 7.398681044578552246e-01 6.079192757606506348e-01
1.390000000000000000e+03 1.668401145935058594e+01 1.245210742950439453e+01 -6.466947793960571289e-01 4.486125946044921875e+00 1.151829361915588379e+00 8.813560009002685547e-01
1.391000000000000000e+03 2.186038208007812500e+01 -2.045381927490234375e+01 1.838414967060089111e-01 3.770416975021362305e+00 1.186277508735656738e+00 -1.108756184577941895e+00
1.392000000000000000e+03 3.650411605834960938e+01 -1.314920520782470703e+01 -4.940183088183403015e-02 1.495124578475952148e+00 4.337168037891387939e-01 -3.420743644237518311e-01
1.393000000000000000e+03 3.510987472534179688e+01 -1.067501544952392578e+01 -1.046286523342132568e-02 1.169355750083923340e+00 3.476678729057312012e-01 -2.759179472923278809e-01
1.394000000000000000e+03 2.894556617736816406e+01 2.647437858581542969e+01 -6.032192111015319824e-01 9.129390865564346313e-02 -1.535775959491729736e-01 -4.333518445491790771e-01
1.395000000000000000e+03 3.621632385253906250e+01 -1.509796142578125000e+01 -9.837735444307327271e-03 1.356305837631225586e+00 4.039404392242431641e-01 -3.835588991641998291e-01
1.396000000000000000e+03 3.722431564331054688e+01 -1.437114906311035156e+01 2.263717167079448700e-02 1.697919368743896484e+00 5.161669850349426270e-01 -3.443012535572052002e-01
1.397000000000000000e+03 3.436914062500000000e+01 -9.462506294250488281e+00 1.405277550220489502e-01 1.036505699157714844e+00 3.531100451946258545e-01 -2.034358829259872437e-01
1.398000000000000000e+03 1.571060085296630859e+01 -3.311221837997436523e+00 1.416911840438842773e+00 1.041814422607421875e+01 3.550516843795776367e+00 -4.773432731628417969e+00
1.399000000000000000e+03 2.926960754394531250e+01 -2.590929508209228516e+00 8.880205750465393066e-01 1.421116739511489868e-01 3.090396821498870850e-01 -1.139513701200485229e-01
1.400000000000000000e+03 4.473358154296875000e+01 2.031480216979980469e+01 5.223653912544250488e-01 2.611425876617431641e+00 9.401373267173767090e-01 1.425682544708251953e+00
1.401000000000000000e+03 3.359199905395507812e+01 -8.271656036376953125e+00 7.154712826013565063e-02 8.644706606864929199e-01 2.808053493499755859e-01 -2.376430034637451172e-01
1.402000000000000000e+03 3.258956527709960938e+01 -9.098196983337402344e+00 1.538923233747482300e-01 6.434178352355957031e-01 2.391930520534515381e-01 -1.436206698417663574e-01
1.403000000000000000e+03 5.169309234619140625e+01 2.638553047180175781e+01 7.312916517257690430e-01 6.993240833282470703e+00 2.317359685897827148e+00 2.650968790054321289e+00
1.404000000000000000e+03 4.308836746215820312e+01 1.671531677246093750e+01 2.885895371437072754e-01 2.329336404800415039e+00 7.853778004646301270e-01 1.113895058631896973e+00
1.405000000000000000e+03 2.129784202575683594e+01 1.756321716308593750e+01 -5.932771563529968262e-01 1.696412920951843262e+00 3.309407234191894531e-01 2.212727665901184082e-01
1.406000000000000000e+03 4.064273452758789062e+01 -2.038242912292480469e+01 -1.903566904366016388e-02 2.815979719161987305e+00 8.390831947326660156e-01 -7.078089118003845215e-01
1.407000000000000000e+03 2.265953254699707031e+01 -2.135891532897949219e+01 1.437278985977172852e-01 3.554969310760498047e+00 1.109609127044677734e+00 -1.135233521461486816e+00
1.408000000000000000e+03 4.576152038574218750e+01 -2.843097877502441406e+01 2.708639204502105713e-01 5.891776561737060547e+00 1.848792195320129395e+00 -7.270040512084960938e-01
1.409000000000000000e+03 4.562107086181640625e+01 -2.714586448669433594e+01 -1.102462783455848694e-01 5.654894351959228516e+00 1.663394451141357422e+00 -6.035116910934448242e-01
1.410000000000000000e+03 2.651138496398925781e+01 5.878576040267944336e-01 1.074929356575012207e+00 -1.123823598027229309e-01 2.887641191482543945e-01 2.956301271915435791e-01
1.411000000000000000e+03 4.272379302978515625e+01 -2.346532058715820312e+01 3.478250652551651001e-02 3.758983373641967773e+00 1.138129830360412598e+00 -8.613937497138977051e-01
1.412000000000000000e+03 4.259307098388671875e+01 -2.538234901428222656e+01 1.821190118789672852e-01 3.855084419250488281e+00 1.211161017417907715e+00 -1.070632100105285645e+00
1.413000000000000000e+03 2.377318000793457031e+01 -2.354820060729980469e+01 1.507497727870941162e-01 3.173506736755371094e+00 9.972769618034362793e-01 -9.895485043525695801e-01
1.414000000000000000e+03 2.485782432556152344e+01 -2.280257606506347656e+01 3.897854685783386230e-01 3.080742120742797852e+00 1.041158318519592285e+00 -1.099931240081787109e+00
1.415000000000000000e+03 3.360532760620117188e+01 1.003848934173583984e+01 1.946750581264495850e-01 4.855578839778900146e-01 2.040698826313018799e-01 3.166869878768920898e-01
1.416000000000000000e+03 4.354014205932617188e+01 -2.438604545593261719e+01 -3.723718598484992981e-02 4.253185749053955078e+00 1.264784574508666992e+00 -8.907933831214904785e-01
1.417000000000000000e+03 2.401449394226074219e+01 1.830775451660156250e+01 -5.242323875427246094e-01 6.839847564697265625e-01 4.792569950222969055e-02 -4.994878172874450684e-02
1.418000000000000000e+03 2.317402076721191406e+01 1.938625717163085938e+01 -6.028819680213928223e-01 1.096367597579956055e+00 1.480456888675689697e-01 2.112272754311561584e-02
1.419000000000000000e+03 3.883032989501953125e+01 -1.678107643127441406e+01 2.000691927969455719e-02 2.163814067840576172e+00 6.551463007926940918e-01 -4.721138179302215576e-01
1.420000000000000000e+03 2.504022407531738281e+01 -2.548464012145996094e+01 1.667359918355941772e-01 2.876775979995727539e+00 9.130535721778869629e-01 -9.118145704269409180e-01
1.421000000000000000e+03 4.690756988525390625e+01 2.390009498596191406e+01 1.012409210205078125e+00 3.217539072036743164e+00 1.268984556198120117e+00 1.976362347602844238e+00
1.422000000000000000e+03 4.858530807495117188e+01 2.375876426696777344e+01 7.641482353210449219e-01 4.362219333648681641e+00 1.537910342216491699e+00 2.175612926483154297e+00
1.423000000000000000e+03 1.524033927917480469e+01 -1.043434381484985352e+00 8.877772331237792969e+00 7.699479579925537109e+00 4.973175525665283203e+00 -6.530464172363281250e+00
1.424000000000000000e+03 1.496203231811523438e+01 -3.296839237213134766e+00 6.772451996803283691e-01 1.307413291931152344e+01 4.125413417816162109e+00 -4.729538440704345703e+00
1.425000000000000000e+03 2.101939964294433594e+01 -1.941404151916503906e+01 1.125053465366363525e-01 3.996742963790893555e+00 1.232774496078491211e+00 -1.131150722503662109e+00
1.426000000000000000e+03 2.318187332153320312e+01 -2.239787673950195312e+01 2.321777492761611938e-01 3.354912757873535156e+00 1.076127171516418457e+00 -1.016573309898376465e+00
1.427000000000000000e+03 2.738963699340820312e+01 -2.384710073471069336e+00 1.056159496307373047e+00 4.927715286612510681e-03 3.183261752128601074e-01 -1.524666547775268555e-01
1.428000000000000000e+03 5.065021133422851562e+01 2.550192260742187500e+01 7.752065658569335938e-01 5.900517463684082031e+00 2.002717256546020508e+00 2.543598175048828125e+00
1.429000000000000000e+03 2.668407440185546875e+01 2.946762657165527344e+01 -5.373411774635314941e-01 7.387614250183105469e-01 6.042606756091117859e-02 -2.898791432380676270e-01
1.430000000000000000e+03 7.547277069091796875e+01 1.299744224548339844e+01 -8.163978159427642822e-02 8.279729843139648438e+00 2.459426879882812500e+00 -3.315558433532714844e-01
1.431000000000000000e+03 7.545020294189453125e+01 -7.985017895698547363e-01 -5.885200202465057373e-02 8.522033691406250000e+00 2.538954496383666992e+00 2.111865021288394928e-02
1.432000000000000000e+03 7.676651000976562500e+01 1.816311717033386230e+00 -2.381342835724353790e-02 8.710526466369628906e+00 2.606014013290405273e+00 -3.375018015503883362e-02
1.433000000000000000e+03 7.546065521240234375e+01 6.124371051788330078e+00 -5.905815213918685913e-02 8.493206024169921875e+00 2.530244350433349609e+00 -1.416802853345870972e-01
1.434000000000000000e+03 7.412538146972656250e+01 -2.050190448760986328e+00 -8.716814965009689331e-02 8.330821990966796875e+00 2.473096370697021484e+00 6.407900899648666382e-02
1.435000000000000000e+03 7.528539276123046875e+01 -9.430937767028808594e+00 -5.136842280626296997e-02 8.327563285827636719e+00 2.482858419418334961e+00 1.782804578542709351e-01
1.436000000000000000e+03 7.544303131103515625e+01 3.363087415695190430e+00 -5.520789325237274170e-02 8.522593498229980469e+00 2.540215492248535156e+00 -7.360270619392395020e-02
1.437000000000000000e+03 7.543920898437500000e+01 5.809505581855773926e-01 -4.672438651323318481e-02 8.526601791381835938e+00 2.543963193893432617e+00 -9.832802228629589081e-03
1.438000000000000000e+03 7.545319366455078125e+01 4.751529216766357422e+00 -7.042390108108520508e-02 8.511237144470214844e+00 2.532243967056274414e+00 -1.028789877891540527e-01
1.439000000000000000e+03 7.409858703613281250e+01 3.511258125305175781e+00 -1.036896258592605591e-01 8.355793952941894531e+00 2.475631237030029297e+00 -7.742140442132949829e-02
1.440000000000000000e+03 7.531238555908203125e+01 -5.058791637420654297e+00 -4.226535931229591370e-02 8.438855171203613281e+00 2.518976926803588867e+00 1.009907424449920654e-01
1.441000000000000000e+03 7.521541595458984375e+01 -6.508066177368164062e+00 -5.173635110259056091e-02 8.401395797729492188e+00 2.504897832870483398e+00 1.299998611211776733e-01
1.442000000000000000e+03 7.540215301513671875e+01 -3.619820356369018555e+00 -5.456628277897834778e-02 8.478386878967285156e+00 2.527146339416503906e+00 7.684639841318130493e-02
1.443000000000000000e+03 7.387554168701171875e+01 -9.507399559020996094e+00 -5.887555330991744995e-02 8.145484924316406250e+00 2.425982713699340820e+00 2.183301150798797607e-01
1.444000000000000000e+03 7.553864288330078125e+01 -1.637644004821777344e+01 -1.740989647805690765e-02 8.088182449340820312e+00 2.421231746673583984e+00 2.542330324649810791e-01
1.445000000000000000e+03 7.678564453125000000e+01 8.749162673950195312e+00 -4.564220458269119263e-02 8.572453498840332031e+00 2.558043241500854492e+00 -1.655829548835754395e-01
1.446000000000000000e+03 7.546656036376953125e+01 7.493109226226806641e+00 -7.555908709764480591e-02 8.466979026794433594e+00 2.517426013946533203e+00 -1.729796230792999268e-01
1.447000000000000000e+03 7.544023895263671875e+01 -1.229530811309814453e+01 -4.056823998689651489e-02 8.248602867126464844e+00 2.462410211563110352e+00 2.125000953674316406e-01
1.448000000000000000e+03 7.675162506103515625e+01 -1.230142021179199219e+01 -1.167379040271043777e-02 8.405818939208984375e+00 2.518243551254272461e+00 1.594075411558151245e-01
1.449000000000000000e+03 7.548863983154296875e+01 -1.367397880554199219e+01 -2.337820827960968018e-02 8.199746131896972656e+00 2.452910423278808594e+00 2.275675088167190552e-01
1.450000000000000000e+03 7.521438598632812500e+01 3.141487503051757812e+01 1.042238250374794006e-01 7.044511318206787109e+00 2.144620656967163086e+00 -4.505224525928497314e-01
1.451000000000000000e+03 7.696983337402343750e+01 3.214214324951171875e+01 7.240018248558044434e-02 6.577274322509765625e+00 1.994902372360229492e+00 -3.188950121402740479e-01
1.452000000000000000e+03 7.426567077636718750e+01 -1.635470771789550781e+01 -4.447311908006668091e-02 7.963801383972167969e+00 2.375798463821411133e+00 3.106177151203155518e-01
1.453000000000000000e+03 7.547492980957031250e+01 -2.306567382812500000e+01 -1.197041757404804230e-02 7.752958774566650391e+00 2.322296619415283203e+00 2.973461151123046875e-01
1.454000000000000000e+03 7.547901916503906250e+01 1.024135208129882812e+01 -8.124990016222000122e-02 8.391498565673828125e+00 2.493074655532836914e+00 -2.496192157268524170e-01
1.455000000000000000e+03 7.414869689941406250e+01 8.958110809326171875e+00 -1.198721528053283691e-01 8.310901641845703125e+00 2.457308769226074219e+00 -2.422263622283935547e-01
1.456000000000000000e+03 7.544820404052734375e+01 1.576396083831787109e+01 -7.831364125013351440e-02 8.134464263916015625e+00 2.416845321655273438e+00 -4.139144122600555420e-01
1.457000000000000000e+03 7.554158020019531250e+01 -1.908044433593750000e+01 -9.771959856152534485e-03 7.958593368530273438e+00 2.384646415710449219e+00 2.767590284347534180e-01
1.458000000000000000e+03 7.682109069824218750e+01 -1.917158699035644531e+01 -1.664207875728607178e-02 8.067545890808105469e+00 2.415271043777465820e+00 2.111531198024749756e-01
1.459000000000000000e+03 7.553564453125000000e+01 -2.041984176635742188e+01 -2.014272660017013550e-02 7.892600059509277344e+00 2.361737251281738281e+00 2.862946391105651855e-01
1.460000000000000000e+03 7.678041076660156250e+01 1.706676673889160156e+01 -4.133560135960578918e-02 8.068353652954101562e+00 2.408105373382568359e+00 -3.543272018432617188e-01
1.461000000000000000e+03 7.544972229003906250e+01 1.715268135070800781e+01 -6.415174901485443115e-02 8.051405906677246094e+00 2.396176099777221680e+00 -4.607082307338714600e-01
1.462000000000000000e+03 7.550605010986328125e+01 1.992336845397949219e+01 -4.766884818673133850e-02 7.856820583343505859e+00 2.342745542526245117e+00 -5.229271650314331055e-01
1.463000000000000000e+03 7.546916198730468750e+01 1.854135322570800781e+01 -6.546065211296081543e-02 7.957252025604248047e+00 2.367537498474121094e+00 -4.873782992362976074e-01
1.464000000000000000e+03 7.408474731445312500e+01 1.721052169799804688e+01 -1.143094226717948914e-01 8.048421859741210938e+00 2.380233526229858398e+00 -5.264933705329895020e-01
1.465000000000000000e+03 7.486303710937500000e+01 -3.005231666564941406e+01 4.345454648137092590e-02 7.393802642822265625e+00 2.231177091598510742e+00 2.772958576679229736e-01
1.466000000000000000e+03 7.413276672363281250e+01 -2.422802543640136719e+01 -6.018359679728746414e-03 7.612432956695556641e+00 2.281924247741699219e+00 3.625572621822357178e-01
1.467000000000000000e+03 7.555342864990234375e+01 2.127899169921875000e+01 -4.528211429715156555e-02 7.752858638763427734e+00 2.312273025512695312e+00 -5.338569879531860352e-01
1.468000000000000000e+03 7.525773620605468750e+01 -2.579904747009277344e+01 2.639431040734052658e-03 7.600378990173339844e+00 2.280905485153198242e+00 3.035312592983245850e-01
1.469000000000000000e+03 7.660513305664062500e+01 -2.599861526489257812e+01 1.330683566629886627e-02 7.654692173004150391e+00 2.300399780273437500e+00 2.313004732131958008e-01
1.470000000000000000e+03 7.371804046630859375e+01 -2.698765754699707031e+01 2.124549262225627899e-02 7.471210002899169922e+00 2.247736692428588867e+00 3.635739684104919434e-01
1.471000000000000000e+03 7.395724487304687500e+01 2.648817825317382812e+01 6.390738487243652344e-02 7.558052539825439453e+00 2.286587953567504883e+00 -6.800895333290100098e-01
1.472000000000000000e+03 7.433082580566406250e+01 2.264924812316894531e+01 -4.587680101394653320e-02 7.746625900268554688e+00 2.310224771499633789e+00 -6.342560052871704102e-01
1.473000000000000000e+03 7.664665222167968750e+01 2.672379875183105469e+01 3.021502122282981873e-02 7.137829780578613281e+00 2.150413513183593750e+00 -4.654338061809539795e-01
1.474000000000000000e+03 7.527359008789062500e+01 2.669215011596679688e+01 4.603495448827743530e-02 7.363457679748535156e+00 2.222847700119018555e+00 -5.758972167968750000e-01
1.475000000000000000e+03 7.656764221191406250e+01 2.958497810363769531e+01 4.769150912761688232e-02 6.869916915893554688e+00 2.075282573699951172e+00 -4.132068753242492676e-01
1.476000000000000000e+03 7.498818206787109375e+01 2.976994132995605469e+01 1.047508567571640015e-01 7.179000377655029297e+00 2.185125350952148438e+00 -5.204057693481445312e-01
1.477000000000000000e+03 7.344215393066406250e+01 2.801710510253906250e+01 1.073885336518287659e-01 7.571926593780517578e+00 2.303794384002685547e+00 -6.526244878768920898e-01
1.478000000000000000e+03 7.430442810058593750e+01 -3.268204879760742188e+01 6.776982545852661133e-02 7.281841754913330078e+00 2.204883575439453125e+00 2.551716566085815430e-01
1.479000000000000000e+03 7.496666717529296875e+01 -2.863007545471191406e+01 2.287605404853820801e-02 7.454073429107666016e+00 2.243084907531738281e+00 2.919474244117736816e-01
1.480000000000000000e+03 7.593795013427734375e+01 -3.316485977172851562e+01 3.352652862668037415e-02 7.288280010223388672e+00 2.196542024612426758e+00 1.970418095588684082e-01
1.481000000000000000e+03 7.478089904785156250e+01 -3.142293357849121094e+01 3.737894445657730103e-02 7.341497421264648438e+00 2.213662862777709961e+00 2.635965347290039062e-01
1.482000000000000000e+03 7.671185302734375000e+01 3.095654678344726562e+01 4.084960371255874634e-02 6.721083641052246094e+00 2.028579950332641602e+00 -3.523620367050170898e-01
1.483000000000000000e+03 4.566089630126953125e+01 2.117912101745605469e+01 6.045105457305908203e-01 2.968780994415283203e+00 1.071987390518188477e+00 1.566368341445922852e+00
1.484000000000000000e+03 4.396997833251953125e+01 2.119813346862792969e+01 6.670947074890136719e-01 2.162534236907958984e+00 8.488886952400207520e-01 1.312563300132751465e+00
1.485000000000000000e+03 3.758198547363281250e+01 1.235557651519775391e+01 2.133700698614120483e-01 1.130375146865844727e+00 4.031235575675964355e-01 5.687818527221679688e-01
1.486000000000000000e+03 3.856442260742187500e+01 1.340614032745361328e+01 2.722619771957397461e-01 1.295063257217407227e+00 4.701975584030151367e-01 6.086992025375366211e-01
1.487000000000000000e+03 3.951631164550781250e+01 1.445911407470703125e+01 2.498041838407516479e-01 1.428224444389343262e+00 5.034085512161254883e-01 7.241784930229187012e-01
1.488000000000000000e+03 3.856088256835937500e+01 1.529035854339599609e+01 2.894304692745208740e-01 1.107082247734069824e+00 4.189538061618804932e-01 5.835142731666564941e-01
1.489000000000000000e+03 1.575801658630371094e+01 9.586685180664062500e+00 -1.762612611055374146e-01 6.496964931488037109e+00 1.896211028099060059e+00 1.862385153770446777e+00
1.490000000000000000e+03 1.264544963836669922e+01 9.010816574096679688e+00 -9.872804880142211914e-01 8.991047859191894531e+00 2.401130199432373047e+00 -1.227913975715637207e+00
1.491000000000000000e+03 3.837002563476562500e+01 -1.872438430786132812e+01 1.104103624820709229e-01 1.961885929107666016e+00 6.216889023780822754e-01 -5.494771003723144531e-01
1.492000000000000000e+03 2.989075422286987305e+00 -1.644013977050781250e+01 -4.197719320654869080e-02 1.373940348625183105e+00 3.995889425277709961e-01 4.953525960445404053e-01
1.493000000000000000e+03 4.126862525939941406e+00 -1.505458164215087891e+01 -5.111019313335418701e-02 1.619487524032592773e+00 4.705131947994232178e-01 6.451411247253417969e-01
1.494000000000000000e+03 4.387745857238769531e+00 2.212230110168457031e+01 -2.183839827775955200e-01 4.416094303131103516e+00 1.259313106536865234e+00 -7.570281028747558594e-01
1.495000000000000000e+03 4.302150249481201172e+00 2.074396896362304688e+01 -2.550872564315795898e-01 4.259937763214111328e+00 1.201455235481262207e+00 -8.681109547615051270e-01
1.496000000000000000e+03 4.135269165039062500e+00 1.801377868652343750e+01 -2.877712249755859375e-01 3.878217458724975586e+00 1.077133893966674805e+00 -1.124323368072509766e+00
1.497000000000000000e+03 4.220792770385742188e+00 1.937293434143066406e+01 -2.488561719655990601e-01 4.083341598510742188e+00 1.150345683097839355e+00 -9.979360699653625488e-01
1.498000000000000000e+03 2.913181304931640625e+00 1.559121608734130859e+01 -1.156012639403343201e-01 3.105492591857910156e+00 8.969674110412597656e-01 -1.130844473838806152e+00
1.499000000000000000e+03 4.634718418121337891e+00 2.494833755493164062e+01 -1.876315772533416748e-01 4.647406101226806641e+00 1.337932229042053223e+00 -5.536412596702575684e-01
1.500000000000000000e+03 4.782509803771972656e+00 2.639349937438964844e+01 -1.664965301752090454e-01 4.727033615112304688e+00 1.368161082267761230e+00 -4.622256755828857422e-01
1.501000000000000000e+03 3.404812097549438477e+00 2.678418922424316406e+01 -8.185528218746185303e-02 4.953110218048095703e+00 1.461376547813415527e+00 -3.542302846908569336e-01
1.502000000000000000e+03 5.028494834899902344e+00 2.933484458923339844e+01 -1.279425621032714844e-01 4.815732955932617188e+00 1.406337141990661621e+00 -3.258274197578430176e-01
1.503000000000000000e+03 4.250102043151855469e+00 -1.778877449035644531e+01 -8.813840150833129883e-02 1.891779184341430664e+00 5.410922169685363770e-01 5.811844468116760254e-01
1.504000000000000000e+03 4.189167976379394531e+00 -1.641669654846191406e+01 -5.704416334629058838e-02 1.771505594253540039e+00 5.143384337425231934e-01 6.203069686889648438e-01
1.505000000000000000e+03 4.682818889617919922e+00 -2.719350051879882812e+01 -6.775566190481185913e-02 2.477382659912109375e+00 7.228881120681762695e-01 2.994384169578552246e-01
1.506000000000000000e+03 3.166951894760131836e+00 -2.330793190002441406e+01 -4.066056385636329651e-02 2.082902669906616211e+00 6.126726865768432617e-01 3.304620087146759033e-01
1.507000000000000000e+03 4.445362091064453125e+00 -2.187045669555664062e+01 -8.147592842578887939e-02 2.204093217849731445e+00 6.367852091789245605e-01 4.588418602943420410e-01
1.508000000000000000e+03 5.137678623199462891e+00 1.517563915252685547e+01 -3.390606641769409180e-01 3.688510656356811523e+00 1.004835009574890137e+00 -1.627878069877624512e+00
1.509000000000000000e+03 4.082355022430419922e+00 1.265234470367431641e+01 -1.024004817008972168e-01 2.739410400390625000e+00 7.911030054092407227e-01 -1.619706034660339355e+00
1.510000000000000000e+03 4.084345817565917969e+00 1.400463294982910156e+01 -1.482911556959152222e-01 3.079514026641845703e+00 8.793668746948242188e-01 -1.578292846679687500e+00
1.511000000000000000e+03 5.753443241119384766e+00 2.307805824279785156e+01 -3.196548521518707275e-01 4.439408302307128906e+00 1.235926032066345215e+00 -7.774209380149841309e-01
1.512000000000000000e+03 4.492414951324462891e+00 2.351793670654296875e+01 -2.186322510242462158e-01 4.541918754577636719e+00 1.296985983848571777e+00 -6.467301845550537109e-01
1.513000000000000000e+03 4.383800029754638672e+00 -2.052264213562011719e+01 -9.910499304533004761e-02 2.107398033142089844e+00 6.024879217147827148e-01 4.977484643459320068e-01
1.514000000000000000e+03 5.386641025543212891e+00 -1.636314582824707031e+01 -1.124860793352127075e-01 2.161955356597900391e+00 6.148407459259033203e-01 6.983126997947692871e-01
1.515000000000000000e+03 5.902341365814208984e+00 -2.441337394714355469e+01 -1.422647237777709961e-01 2.535091638565063477e+00 7.178480625152587891e-01 4.247387945652008057e-01
1.516000000000000000e+03 4.493572235107421875e+00 -2.320984458923339844e+01 -9.823273867368698120e-02 2.276288032531738281e+00 6.534165740013122559e-01 4.142537415027618408e-01
1.517000000000000000e+03 3.487754583358764648e+00 -3.001855087280273438e+01 -4.047609120607376099e-02 2.480438947677612305e+00 7.319889068603515625e-01 1.845095455646514893e-01
1.518000000000000000e+03 4.818808078765869141e+00 -2.851195526123046875e+01 -8.222482353448867798e-02 2.520557165145874023e+00 7.314996719360351562e-01 2.754594087600708008e-01
1.519000000000000000e+03 5.061645984649658203e+00 9.855658531188964844e+00 5.148136615753173828e-01 2.423515081405639648e+00 8.814985752105712891e-01 -1.984248161315917969e+00
1.520000000000000000e+03 2.792965412139892578e+00 -1.104172229766845703e+01 6.010792776942253113e-02 5.753260850906372070e-01 1.906301975250244141e-01 4.655613303184509277e-01
1.521000000000000000e+03 4.054974555969238281e+00 -1.371281814575195312e+01 -3.657304914668202400e-03 1.467917442321777344e+00 4.392780363559722900e-01 6.603024601936340332e-01
1.522000000000000000e+03 5.171436309814453125e+00 3.201097106933593750e+01 -9.543257206678390503e-02 4.875010013580322266e+00 1.433873295783996582e+00 -2.434559315443038940e-01
1.523000000000000000e+03 6.712616443634033203e+00 3.573012924194335938e+01 -1.243714392185211182e-01 4.632615089416503906e+00 1.352473139762878418e+00 -1.790185272693634033e-01
1.524000000000000000e+03 4.324578285217285156e+00 3.686556625366210938e+01 -9.051880240440368652e-02 5.278734683990478516e+00 1.556464672088623047e+00 -1.336179971694946289e-01
1.525000000000000000e+03 3.986574888229370117e+00 1.132661914825439453e+01 1.219055354595184326e-01 2.343211412429809570e+00 7.395350933074951172e-01 -1.680980801582336426e+00
1.526000000000000000e+03 6.478450298309326172e+00 -2.968590164184570312e+01 -1.169616505503654480e-01 2.656209468841552734e+00 7.617743611335754395e-01 2.777298390865325928e-01
1.527000000000000000e+03 4.890208721160888672e+00 -3.126013946533203125e+01 -6.295224279165267944e-02 2.598401546478271484e+00 7.606347799301147461e-01 1.984128803014755249e-01
1.528000000000000000e+03 3.911031246185302734e+00 -1.114276123046875000e+01 1.098216697573661804e-01 1.104156374931335449e+00 3.641934096813201904e-01 6.191858649253845215e-01
1.529000000000000000e+03 5.203660964965820312e+00 3.528534317016601562e+01 -1.024992018938064575e-01 5.007410526275634766e+00 1.471473336219787598e+00 -1.517804265022277832e-01
1.530000000000000000e+03 5.034602165222167969e+00 3.077106475830078125e+01 -1.081119552254676819e-01 4.874290943145751953e+00 1.429853796958923340e+00 -2.865232527256011963e-01
1.531000000000000000e+03 2.702494382858276367e+00 7.452954769134521484e+00 4.675679206848144531e-01 3.019152879714965820e-01 2.308449596166610718e-01 -6.464587450027465820e-01
1.532000000000000000e+03 3.813564538955688477e+00 8.743256568908691406e+00 5.246092677116394043e-01 1.315346360206604004e+00 5.519866943359375000e-01 -1.329350233078002930e+00
1.533000000000000000e+03 3.868503570556640625e+00 -5.417547225952148438e+00 4.105705916881561279e-01 1.853211373090744019e-01 1.787675172090530396e-01 -2.231118828058242798e-02
1.534000000000000000e+03 2.979685783386230469e+00 6.210730552673339844e+00 5.638138651847839355e-01 9.374023228883743286e-02 1.972662359476089478e-01 -2.971512079238891602e-01
1.535000000000000000e+03 5.467063426971435547e+00 4.343932151794433594e+00 1.553333520889282227e+00 1.247741132974624634e-01 5.034322738647460938e-01 -1.837325245141983032e-01
1.536000000000000000e+03 3.077159643173217773e+00 -4.883006572723388672e+00 2.601044178009033203e-01 -6.283535808324813843e-02 5.918072164058685303e-02 -1.813788115978240967e-01
1.537000000000000000e+03 2.671819686889648438e+01 2.358606529235839844e+01 -5.902496576309204102e-01 4.059638082981109619e-01 -5.528576299548149109e-02 -2.960841953754425049e-01
1.538000000000000000e+03 3.872286319732666016e+00 -3.574415588378906250e+01 -3.113228827714920044e-02 2.670716524124145508e+00 7.918753027915954590e-01 1.103898137807846069e-01
1.539000000000000000e+03 1.376665115356445312e+01 1.074831676483154297e+01 -1.250490665435791016e+00 7.314922332763671875e+00 1.819329500198364258e+00 -9.187473356723785400e-02
1.540000000000000000e+03 4.703527832031250000e+01 -2.856158828735351562e+01 3.911465406417846680e-02 6.304148674011230469e+00 1.902979016304016113e+00 -2.563008964061737061e-01
1.541000000000000000e+03 2.497913360595703125e+01 2.097095489501953125e+01 -6.163328886032104492e-01 6.174491643905639648e-01 3.348858735989779234e-04 -1.564965248107910156e-01
1.542000000000000000e+03 4.101803970336914062e+01 -2.329935836791992188e+01 1.860366612672805786e-01 2.986858844757080078e+00 9.518686532974243164e-01 -9.206047654151916504e-01
1.543000000000000000e+03 8.342788696289062500e+00 5.029718399047851562e+00 3.714670419692993164e+00 2.413946390151977539e+00 1.838585019111633301e+00 -2.853461265563964844e+00
1.544000000000000000e+03 2.741612625122070312e+01 -4.643729925155639648e-01 1.374083518981933594e+00 -1.152615770697593689e-01 3.776465952396392822e-01 3.842193633317947388e-02
1.545000000000000000e+03 2.743013000488281250e+01 -3.244610977172851562e+01 2.250691801309585571e-01 2.256987333297729492e+00 7.446169853210449219e-01 -5.274397730827331543e-01
1.546000000000000000e+03 2.923156929016113281e+01 6.136272907257080078e+00 2.927001714706420898e-01 1.532416492700576782e-01 1.337825506925582886e-01 2.589022219181060791e-01
1.547000000000000000e+03 3.230492782592773438e+01 6.978506088256835938e+00 4.248306453227996826e-01 4.824202358722686768e-01 2.721752524375915527e-01 2.596703171730041504e-01
1.548000000000000000e+03 3.022392463684082031e+01 -1.735799193382263184e+00 6.652099490165710449e-01 2.443512380123138428e-01 2.728683650493621826e-01 -8.820755779743194580e-02
1.549000000000000000e+03 2.834410858154296875e+01 -1.521940231323242188e+00 8.087389469146728516e-01 2.265984937548637390e-02 2.494196444749832153e-01 -1.265235245227813721e-01
1.550000000000000000e+03 4.661137008666992188e+01 2.204135131835937500e+01 6.676326394081115723e-01 3.313734531402587891e+00 1.194410085678100586e+00 1.768488168716430664e+00
1.551000000000000000e+03 4.574107360839843750e+01 -2.572301864624023438e+01 -2.925468795001506805e-02 5.318325042724609375e+00 1.586721062660217285e+00 -6.321315169334411621e-01
1.552000000000000000e+03 1.815871047973632812e+01 -1.344985389709472656e+01 3.360020518302917480e-01 5.538156986236572266e+00 1.762247681617736816e+00 -1.308261513710021973e+00
1.553000000000000000e+03 1.864955139160156250e+01 -1.161341190338134766e+01 6.647065877914428711e-01 6.086673259735107422e+00 2.025413990020751953e+00 -1.771255970001220703e+00
1.554000000000000000e+03 2.754690933227539062e+01 1.453909158706665039e+00 1.131639838218688965e+00 2.314804121851921082e-03 3.401863873004913330e-01 2.643972635269165039e-01
1.555000000000000000e+03 1.588556385040283203e+01 1.146084594726562500e+01 -6.670568585395812988e-01 5.550158977508544922e+00 1.464930653572082520e+00 1.041526436805725098e+00
1.556000000000000000e+03 3.277831649780273438e+01 -7.098829746246337891e+00 2.881507277488708496e-01 7.248157262802124023e-01 3.038899302482604980e-01 -1.654025018215179443e-01
1.557000000000000000e+03 3.296805191040039062e+01 2.840542793273925781e+01 -6.925122141838073730e-01 -4.387762248516082764e-01 -3.393865227699279785e-01 -6.410275697708129883e-01
1.558000000000000000e+03 3.643643569946289062e+01 3.197443962097167969e+01 -8.725352883338928223e-01 -7.033492922782897949e-01 -4.727653861045837402e-01 -6.698737740516662598e-01
1.559000000000000000e+03 2.672160339355468750e+01 2.493439912796020508e+00 6.608042120933532715e-01 3.891833871603012085e-02 2.099167704582214355e-01 4.352321624755859375e-01
1.560000000000000000e+03 4.213093566894531250e+01 1.750239562988281250e+01 3.756228983402252197e-01 1.921619772911071777e+00 6.891728043556213379e-01 1.002906441688537598e+00
1.561000000000000000e+03 4.042733764648437500e+01 1.550070190429687500e+01 3.111860156059265137e-01 1.599183320999145508e+00 5.731108188629150391e-01 7.917267084121704102e-01
1.562000000000000000e+03 3.755633544921875000e+01 1.049653720855712891e+01 2.207153588533401489e-01 1.267290711402893066e+00 4.464018046855926514e-01 5.707591772079467773e-01
1.563000000000000000e+03 2.223242187500000000e+01 1.851429939270019531e+01 -5.830885767936706543e-01 1.353842496871948242e+00 2.312261760234832764e-01 1.067080870270729065e-01
1.564000000000000000e+03 1.752759933471679688e+01 1.350742149353027344e+01 -6.123988032341003418e-01 3.790501356124877930e+00 9.534307122230529785e-01 7.699304223060607910e-01
1.565000000000000000e+03 3.343631744384765625e+01 8.023381233215332031e+00 2.787619233131408691e-01 5.726818442344665527e-01 2.554331421852111816e-01 3.499810397624969482e-01
1.566000000000000000e+03 3.451366806030273438e+01 9.133832931518554688e+00 3.218626976013183594e-01 7.409388422966003418e-01 3.188404738903045654e-01 3.393653631210327148e-01
1.567000000000000000e+03 3.159314537048339844e+01 2.849794769287109375e+01 -6.903229355812072754e-01 -2.382894754409790039e-01 -2.785837054252624512e-01 -5.464626550674438477e-01
1.568000000000000000e+03 3.023627090454101562e+01 2.759469604492187500e+01 -6.527002453804016113e-01 -7.137838751077651978e-02 -2.172235846519470215e-01 -4.684899151325225830e-01
1.569000000000000000e+03 2.887374877929687500e+01 4.226778030395507812e+00 4.504832327365875244e-01 1.606506407260894775e-01 1.833401620388031006e-01 3.223751783370971680e-01
1.570000000000000000e+03 1.695284843444824219e+01 -5.015533924102783203e+00 6.438215374946594238e-01 7.554470539093017578e+00 2.459487676620483398e+00 -3.939252614974975586e+00
1.571000000000000000e+03 5.738872909545898438e+01 3.251132965087890625e+01 1.838340759277343750e+00 1.220103168487548828e+01 4.211811542510986328e+00 6.712726354598999023e-01
1.572000000000000000e+03 5.480500793457031250e+01 2.905491447448730469e+01 7.391504645347595215e-01 1.007300853729248047e+01 3.243647575378417969e+00 1.841052651405334473e+00
1.573000000000000000e+03 7.539376831054687500e+01 3.991194534301757812e+01 5.597019568085670471e-02 6.615063190460205078e+00 2.001310110092163086e+00 -1.866369396448135376e-01
1.574000000000000000e+03 1.702743530273437500e+01 -8.964866638183593750e+00 7.099741101264953613e-01 6.799461364746093750e+00 2.252830743789672852e+00 -2.116470098495483398e+00
1.575000000000000000e+03 3.099410629272460938e+01 -6.767246723175048828e+00 3.017644584178924561e-01 4.018263518810272217e-01 2.110772430896759033e-01 -1.281947940587997437e-01
1.576000000000000000e+03 3.193497085571289062e+01 -5.941616058349609375e+00 2.273848205804824829e-01 5.578034520149230957e-01 2.355564832687377930e-01 -2.272322624921798706e-01
1.577000000000000000e+03 4.183621597290039062e+01 4.109138870239257812e+01 -1.573996663093566895e+00 -4.684749543666839600e-01 -6.127414703369140625e-01 -2.296325415372848511e-01
1.578000000000000000e+03 1.706168937683105469e+01 -1.025178050994873047e+01 4.881270229816436768e-01 6.366806030273437500e+00 2.056479930877685547e+00 -1.672962188720703125e+00
1.579000000000000000e+03 3.184049415588378906e+01 -4.092554473876953125e+01 4.462796151638031006e-01 1.257653117179870605e+00 5.111798048019409180e-01 -9.633634984493255615e-02
1.580000000000000000e+03 3.581502914428710938e+01 -1.191047668457031250e+01 5.844468995928764343e-02 1.344575405120849609e+00 4.209060370922088623e-01 -2.605237364768981934e-01
1.581000000000000000e+03 3.015719413757324219e+01 -3.595750808715820312e+01 1.806255728006362915e-01 1.753532767295837402e+00 5.802475214004516602e-01 -4.060142338275909424e-01
1.582000000000000000e+03 3.055482864379882812e+01 -3.802587127685546875e+01 3.561850488185882568e-01 1.566844105720520020e+00 5.769087672233581543e-01 -4.193502068519592285e-01
1.583000000000000000e+03 5.825404739379882812e+01 3.834504699707031250e+01 -3.816110491752624512e-01 1.327979469299316406e+01 3.869455099105834961e+00 2.027853250503540039e+00
1.584000000000000000e+03 5.733152389526367188e+01 3.623191452026367188e+01 3.695038795471191406e+00 1.253788185119628906e+01 4.869876384735107422e+00 1.485085368156433105e+00
1.585000000000000000e+03 5.774312210083007812e+01 3.135539054870605469e+01 1.466237425804138184e+00 1.118583488464355469e+01 3.795621633529663086e+00 5.970771312713623047e-01
1.586000000000000000e+03 5.057798004150390625e+01 -3.508032226562500000e+01 1.338253259658813477e+00 6.877241134643554688e+00 2.464648246765136719e+00 5.803649872541427612e-02
1.587000000000000000e+03 2.525122261047363281e+01 -2.688061141967773438e+01 2.338392883539199829e-01 2.767088890075683594e+00 9.002784490585327148e-01 -8.074835538864135742e-01
1.588000000000000000e+03 1.979133415222167969e+01 -1.432688236236572266e+01 4.506052434444427490e-01 5.214309692382812500e+00 1.699474453926086426e+00 -1.610312461853027344e+00
1.589000000000000000e+03 5.050763702392578125e+01 -2.884726715087890625e+01 2.615143060684204102e-01 6.496879100799560547e+00 2.027518033981323242e+00 2.670191526412963867e-01
1.590000000000000000e+03 5.273732376098632812e+01 2.727706527709960938e+01 7.050064802169799805e-01 7.975859165191650391e+00 2.604259729385375977e+00 2.608328580856323242e+00
1.591000000000000000e+03 5.203104782104492188e+01 2.844677352905273438e+01 1.343240857124328613e+00 7.797121524810791016e+00 2.742108583450317383e+00 3.242464780807495117e+00
1.592000000000000000e+03 1.927443885803222656e+01 1.345716476440429688e+01 -2.756910324096679688e-01 2.559634447097778320e+00 6.851829886436462402e-01 7.798871397972106934e-01
1.593000000000000000e+03 1.052332115173339844e+01 -2.114318609237670898e+00 2.861723423004150391e+00 2.080637693405151367e+00 1.482708334922790527e+00 2.478831529617309570e+00
1.594000000000000000e+03 1.124487972259521484e+01 -2.380459070205688477e+00 3.637911558151245117e+00 4.806819915771484375e+00 2.533419370651245117e+00 4.555108070373535156e+00
1.595000000000000000e+03 9.105386734008789062e+00 -3.070610284805297852e+00 1.818596959114074707e+00 1.471969246864318848e+00 9.871698617935180664e-01 1.390229582786560059e+00
1.596000000000000000e+03 1.128714084625244141e+01 1.849835515022277832e+00 6.164250850677490234e+00 6.345195293426513672e+00 3.752833843231201172e+00 -3.846652746200561523e+00
1.597000000000000000e+03 1.072956085205078125e+01 2.444929361343383789e+00 6.485501289367675781e+00 3.758419036865234375e+00 3.073176145553588867e+00 -3.741563320159912109e+00
1.598000000000000000e+03 1.294165515899658203e+01 -2.850961923599243164e+00 -5.332345962524414062e-01 1.744366264343261719e+01 5.073128223419189453e+00 3.053544044494628906e+00
1.599000000000000000e+03 7.286387920379638672e+00 -3.873696565628051758e+00 1.147302269935607910e+00 8.113847374916076660e-01 5.876060724258422852e-01 5.631408691406250000e-01
1.600000000000000000e+03 1.039048099517822266e+01 3.168564081192016602e+00 6.409461021423339844e+00 4.270095348358154297e+00 3.203866958618164062e+00 -3.953488826751708984e+00
1.601000000000000000e+03 6.188374996185302734e+00 4.188223838806152344e+00 1.926750898361206055e+00 3.801935911178588867e-01 6.920833587646484375e-01 -4.201264381408691406e-01
1.602000000000000000e+03 3.746600389480590820e+00 7.526895523071289062e+00 7.568901181221008301e-01 8.393459916114807129e-01 4.788708388805389404e-01 -9.815158247947692871e-01
1.603000000000000000e+03 7.953459262847900391e+00 4.221059322357177734e+00 3.514737844467163086e+00 1.211208581924438477e+00 1.417783975601196289e+00 -1.798916459083557129e+00
1.604000000000000000e+03 5.337319850921630859e+00 6.161952018737792969e+00 1.564041018486022949e+00 1.047369241714477539e+00 7.834230661392211914e-01 -1.227073073387145996e+00
1.605000000000000000e+03 7.010861873626708984e+00 4.891073226928710938e+00 2.609104156494140625e+00 1.160817980766296387e+00 1.130976676940917969e+00 -1.441114544868469238e+00
1.606000000000000000e+03 1.052302551269531250e+01 -3.280367612838745117e+00 2.362444400787353516e+00 4.188670635223388672e+00 1.965334534645080566e+00 3.313105583190917969e+00
1.607000000000000000e+03 4.450386047363281250e+00 -4.745354652404785156e+00 4.535529017448425293e-01 2.081019431352615356e-01 1.984964460134506226e-01 -6.837900727987289429e-02
1.608000000000000000e+03 6.284253597259521484e+00 -5.109428882598876953e+00 9.090784192085266113e-01 8.655923604965209961e-01 5.324012041091918945e-01 4.964910745620727539e-01
1.609000000000000000e+03 1.307250022888183594e+01 -3.397550582885742188e+00 -1.033282637596130371e+00 1.628221511840820312e+01 4.574679851531982422e+00 1.564562320709228516e+00
1.610000000000000000e+03 1.373938179016113281e+01 -4.067475318908691406e+00 -1.054793953895568848e+00 1.403648567199707031e+01 3.894507408142089844e+00 -7.588392496109008789e-01
1.611000000000000000e+03 7.932435512542724609e+00 -3.758653640747070312e+00 1.386983156204223633e+00 1.080296397209167480e+00 7.401838898658752441e-01 8.809528350830078125e-01
1.612000000000000000e+03 9.447778701782226562e+00 3.788513183593750000e+00 5.058412075042724609e+00 2.410918712615966797e+00 2.240799188613891602e+00 -2.859310150146484375e+00
1.613000000000000000e+03 1.172255134582519531e+01 5.327655315399169922e+00 3.204497814178466797e+00 1.248239803314208984e+01 4.706068515777587891e+00 -5.470007896423339844e+00
1.614000000000000000e+03 1.101515483856201172e+01 2.903741598129272461e+00 6.715907573699951172e+00 7.005227088928222656e+00 4.116340637207031250e+00 -4.354430198669433594e+00
1.615000000000000000e+03 1.010573196411132812e+01 4.876384258270263672e+00 4.367885589599609375e+00 5.509366512298583984e+00 2.963175535202026367e+00 -4.252289295196533203e+00
1.616000000000000000e+03 2.999171066284179688e+01 5.113649845123291016e+00 5.567959547042846680e-01 2.722296118736267090e-01 2.487076669931411743e-01 2.159736305475234985e-01
1.617000000000000000e+03 1.426157951354980469e+01 -3.332400798797607422e+00 -2.720375359058380127e-01 1.555880641937255859e+01 4.586030483245849609e+00 -2.903152227401733398e+00
1.618000000000000000e+03 1.636057853698730469e+01 -4.254648208618164062e+00 9.335463643074035645e-01 8.296002388000488281e+00 2.768864631652832031e+00 -4.276774883270263672e+00
1.619000000000000000e+03 2.565483283996582031e+01 1.638641953468322754e+00 1.259160041809082031e+00 -3.200691135134547949e-04 3.776519894599914551e-01 4.279543757438659668e-01
1.620000000000000000e+03 2.841581535339355469e+01 4.039512574672698975e-01 8.715635538101196289e-01 1.637764088809490204e-02 2.663823664188385010e-01 1.661142557859420776e-01
1.621000000000000000e+03 4.386030578613281250e+01 1.768709754943847656e+01 3.332009613513946533e-01 2.541153430938720703e+00 8.623062968254089355e-01 1.192207932472229004e+00
1.622000000000000000e+03 3.821062469482421875e+01 -1.366437149047851562e+01 -8.688644319772720337e-02 1.975266337394714355e+00 5.665139555931091309e-01 -3.788942396640777588e-01
1.623000000000000000e+03 4.129500198364257812e+01 1.651603698730468750e+01 3.145653903484344482e-01 1.733670473098754883e+00 6.144707798957824707e-01 9.212532043457031250e-01
1.624000000000000000e+03 4.229112625122070312e+01 1.571902179718017578e+01 2.909666001796722412e-01 2.164464473724365234e+00 7.366293072700500488e-01 9.854953885078430176e-01
1.625000000000000000e+03 3.461371612548828125e+01 -7.399857521057128906e+00 2.482880651950836182e-01 1.113619208335876465e+00 4.085721671581268311e-01 -1.854644119739532471e-01
1.626000000000000000e+03 3.545383834838867188e+01 -8.593304634094238281e+00 4.314420744776725769e-02 1.292588353157043457e+00 4.007197618484497070e-01 -2.545106112957000732e-01
1.627000000000000000e+03 5.371473312377929688e+00 1.241478443145751953e+01 -1.006319895386695862e-01 3.316188097000122070e+00 9.646667838096618652e-01 -1.975122094154357910e+00
1.628000000000000000e+03 1.119005298614501953e+01 7.416110515594482422e+00 5.052129626274108887e-01 9.476469039916992188e+00 2.994504690170288086e+00 -3.254843473434448242e+00
1.629000000000000000e+03 2.092745208740234375e+01 -2.159330749511718750e+01 -2.423538081347942352e-02 3.748977184295654297e+00 1.117422461509704590e+00 -8.734104037284851074e-01
1.630000000000000000e+03 1.651265907287597656e+01 -3.407845973968505859e+00 1.422193408012390137e+00 7.687318325042724609e+00 2.732853651046752930e+00 -4.603956222534179688e+00
1.631000000000000000e+03 1.650682067871093750e+01 -6.645278930664062500e+00 2.775539457798004150e-01 7.825546264648437500e+00 2.430930137634277344e+00 -3.097792625427246094e+00
1.632000000000000000e+03 3.829734802246093750e+00 6.439297676086425781e+00 9.136372804641723633e-01 4.907209873199462891e-01 4.213074743747711182e-01 -6.700443625450134277e-01
1.633000000000000000e+03 1.681481361389160156e+01 -7.766401290893554688e+00 4.647475779056549072e-01 7.019995212554931641e+00 2.245422840118408203e+00 -2.681989908218383789e+00
1.634000000000000000e+03 5.027296066284179688e+01 2.356542587280273438e+01 4.316663444042205811e-01 5.526032924652099609e+00 1.787309765815734863e+00 2.155899763107299805e+00
1.635000000000000000e+03 2.137605094909667969e+01 1.972976493835449219e+01 -6.826373338699340820e-01 1.760329723358154297e+00 3.233077228069305420e-01 1.117436587810516357e-01
1.636000000000000000e+03 4.518931198120117188e+01 -2.405758094787597656e+01 -1.663763374090194702e-01 4.885902404785156250e+00 1.415857791900634766e+00 -6.451633572578430176e-01
1.637000000000000000e+03 2.442882347106933594e+01 2.177874755859375000e+01 -6.016275882720947266e-01 8.678195476531982422e-01 7.985758036375045776e-02 -1.252765357494354248e-01
1.638000000000000000e+03 2.550440597534179688e+01 2.191893768310546875e+01 -5.773891806602478027e-01 5.479353070259094238e-01 -8.836171589791774750e-03 -2.066205888986587524e-01
1.639000000000000000e+03 4.129991149902343750e+01 -2.146949768066406250e+01 5.204728618264198303e-02 3.063761711120605469e+00 9.347427487373352051e-01 -7.656649351119995117e-01
1.640000000000000000e+03 4.008488845825195312e+01 -1.922409439086914062e+01 4.355342686176300049e-02 2.569029331207275391e+00 7.837748527526855469e-01 -5.881431698799133301e-01
1.641000000000000000e+03 2.010403823852539062e+01 -2.307064819335937500e+01 -9.158496558666229248e-02 3.659589290618896484e+00 1.070401310920715332e+00 -6.482434272766113281e-01
1.642000000000000000e+03 3.106715011596679688e+01 -4.799594402313232422e+00 5.254442095756530762e-01 4.219071567058563232e-01 2.842054069042205811e-01 -1.457007080316543579e-01
1.643000000000000000e+03 2.931636619567871094e+01 -6.580548882484436035e-01 1.069772839546203613e+00 9.321395307779312134e-02 3.488960266113281250e-01 2.240595594048500061e-02
1.644000000000000000e+03 4.199567794799804688e+01 -2.249213409423828125e+01 -5.776859354227781296e-03 3.389984130859375000e+00 1.015262126922607422e+00 -8.290598392486572266e-01
1.645000000000000000e+03 4.230875396728515625e+01 -2.072522163391113281e+01 -1.131892204284667969e-01 3.431207180023193359e+00 9.954053759574890137e-01 -6.767894029617309570e-01
1.646000000000000000e+03 4.363222122192382812e+01 -2.260931587219238281e+01 -1.413498967885971069e-01 4.091471195220947266e+00 1.185036301612854004e+00 -7.135266661643981934e-01
1.647000000000000000e+03 5.132121658325195312e+01 2.437901115417480469e+01 3.829945325851440430e-01 6.383116245269775391e+00 2.029833316802978516e+00 2.242272615432739258e+00
1.648000000000000000e+03 4.935396957397460938e+01 1.829641342163085938e+01 -5.168148502707481384e-02 4.845746517181396484e+00 1.438219428062438965e+00 1.480031490325927734e+00
1.649000000000000000e+03 2.154196739196777344e+01 -2.389904403686523438e+01 -7.937646470963954926e-03 3.420346021652221680e+00 1.023722529411315918e+00 -7.669690847396850586e-01
1.650000000000000000e+03 2.092028617858886719e+01 -2.557319259643554688e+01 -8.087931573390960693e-02 3.309808731079101562e+00 9.686788320541381836e-01 -5.583073496818542480e-01
1.651000000000000000e+03 1.599787712097167969e+01 -1.002862834930419922e+01 2.543861567974090576e-01 6.498345851898193359e+00 2.025819778442382812e+00 -1.346355795860290527e+00
1.652000000000000000e+03 3.801381683349609375e+01 -1.557858371734619141e+01 -5.216566845774650574e-02 1.922403573989868164e+00 5.610713362693786621e-01 -4.447173774242401123e-01
1.653000000000000000e+03 4.298562240600585938e+01 -2.169641113281250000e+01 -6.673872470855712891e-02 3.740437746047973633e+00 1.102109670639038086e+00 -6.980043649673461914e-01
1.654000000000000000e+03 7.378864288330078125e+01 3.389444351196289062e+01 1.915795356035232544e-01 7.220639705657958984e+00 2.223665714263916016e+00 -3.841727674007415771e-01
1.655000000000000000e+03 7.346015167236328125e+01 -3.149369621276855469e+01 7.630398124456405640e-02 7.295619010925292969e+00 2.211576938629150391e+00 3.080976903438568115e-01
1.656000000000000000e+03 4.006372070312500000e+01 -1.593819904327392578e+01 -1.315759122371673584e-01 2.581684589385986328e+00 7.350326180458068848e-01 -4.731219410896301270e-01
1.657000000000000000e+03 7.510738372802734375e+01 -2.720696830749511719e+01 2.782994881272315979e-02 7.523092746734619141e+00 2.265276670455932617e+00 3.020076155662536621e-01
1.658000000000000000e+03 7.422826385498046875e+01 2.136958122253417969e+01 -5.578583851456642151e-02 7.823150634765625000e+00 2.330209255218505859e+00 -6.371689438819885254e-01
1.659000000000000000e+03 7.558583831787109375e+01 2.392489433288574219e+01 -1.441579125821590424e-02 7.542257785797119141e+00 2.258352518081665039e+00 -5.583506822586059570e-01
1.660000000000000000e+03 7.410762786865234375e+01 1.861490249633789062e+01 -9.347416460514068604e-02 7.984549999237060547e+00 2.367322683334350586e+00 -5.789539217948913574e-01
1.661000000000000000e+03 7.423082733154296875e+01 -2.291892433166503906e+01 1.965560717508196831e-03 7.675504207611083984e+00 2.303241014480590820e+00 3.559195399284362793e-01
1.662000000000000000e+03 7.547971343994140625e+01 1.161623764038085938e+01 -6.981518864631652832e-02 8.339569091796875000e+00 2.480926275253295898e+00 -2.971269488334655762e-01
1.663000000000000000e+03 7.411737823486328125e+01 1.441682720184326172e+01 -1.248396709561347961e-01 8.162471771240234375e+00 2.411289453506469727e+00 -4.320378899574279785e-01
1.664000000000000000e+03 7.548072052001953125e+01 2.528605270385742188e+01 1.446125563234090805e-02 7.441713809967041016e+00 2.236852407455444336e+00 -5.852428078651428223e-01
1.665000000000000000e+03 7.441333007812500000e+01 2.389987945556640625e+01 -1.250841189175844193e-02 7.661936283111572266e+00 2.294828414916992188e+00 -6.589726805686950684e-01
1.666000000000000000e+03 7.427449798583984375e+01 -1.768219184875488281e+01 -2.583790384232997894e-02 7.908600330352783203e+00 2.364828586578369141e+00 3.225624859333038330e-01
1.667000000000000000e+03 7.424025726318359375e+01 -1.503425216674804688e+01 -3.565845638513565063e-02 8.012982368469238281e+00 2.393197298049926758e+00 2.935480177402496338e-01
1.668000000000000000e+03 7.412358093261718750e+01 7.598887443542480469e+00 -1.010070294141769409e-01 8.328265190124511719e+00 2.468177556991577148e+00 -2.040935754776000977e-01
1.669000000000000000e+03 7.410789489746093750e+01 4.894021034240722656e+00 -9.385843575000762939e-02 8.353233337402343750e+00 2.477812528610229492e+00 -1.229432523250579834e-01
1.670000000000000000e+03 7.404081726074218750e+01 -1.096042919158935547e+01 -6.397418677806854248e-02 8.130195617675781250e+00 2.419866561889648438e+00 2.374986559152603149e-01
1.671000000000000000e+03 7.409099578857421875e+01 -6.542382240295410156e-01 -7.520382851362228394e-02 8.342782020568847656e+00 2.480273485183715820e+00 2.524605207145214081e-02
1.672000000000000000e+03 7.543581390380859375e+01 1.966348290443420410e+00 -6.471287459135055542e-02 8.528857231140136719e+00 2.539243221282958984e+00 -3.603455051779747009e-02
1.673000000000000000e+03 7.407434844970703125e+01 2.109751462936401367e+00 -8.596549928188323975e-02 8.351104736328125000e+00 2.479541778564453125e+00 -4.400710761547088623e-02
1.674000000000000000e+03 7.416767120361328125e+01 1.032474422454833984e+01 -1.108024716377258301e-01 8.282016754150390625e+00 2.451364040374755859e+00 -2.963982224464416504e-01
1.675000000000000000e+03 7.407045745849609375e+01 -3.455355167388916016e+00 -6.366435438394546509e-02 8.303435325622558594e+00 2.471931219100952148e+00 9.228594601154327393e-02
1.676000000000000000e+03 7.390443420410156250e+01 -4.875487804412841797e+00 -8.150948584079742432e-02 8.260133743286132812e+00 2.453587055206298828e+00 1.258133798837661743e-01
1.677000000000000000e+03 7.413538360595703125e+01 -1.235514640808105469e+01 -4.640905559062957764e-02 8.096587181091308594e+00 2.415053367614746094e+00 2.590444087982177734e-01
1.678000000000000000e+03 7.427172851562500000e+01 -1.902327156066894531e+01 -3.365751728415489197e-02 7.853468894958496094e+00 2.345943450927734375e+00 3.367160558700561523e-01
1.679000000000000000e+03 7.409194183349609375e+01 1.580438327789306641e+01 -1.094677820801734924e-01 8.108602523803710938e+00 2.399740457534790039e+00 -4.899140298366546631e-01
1.680000000000000000e+03 7.394963073730468750e+01 -2.558078384399414062e+01 2.466988004744052887e-02 7.538010597229003906e+00 2.268804073333740234e+00 3.647326231002807617e-01
1.681000000000000000e+03 7.411008453369140625e+01 6.250792980194091797e+00 -1.101919412612915039e-01 8.342735290527343750e+00 2.469762802124023438e+00 -1.582637429237365723e-01
1.682000000000000000e+03 7.349456024169921875e+01 -2.845372200012207031e+01 5.452144145965576172e-02 7.399567604064941406e+00 2.236226558685302734e+00 3.593381047248840332e-01
1.683000000000000000e+03 7.505197906494140625e+01 2.818002891540527344e+01 8.004239946603775024e-02 7.277228355407714844e+00 2.207181215286254883e+00 -5.785038471221923828e-01
1.684000000000000000e+03 7.322174072265625000e+01 2.987231826782226562e+01 1.651365607976913452e-01 7.531682491302490234e+00 2.309045791625976562e+00 -6.258949637413024902e-01
1.685000000000000000e+03 7.362778472900390625e+01 -7.962241172790527344e+00 -8.176025748252868652e-02 8.156891822814941406e+00 2.422539472579956055e+00 1.961253583431243896e-01
1.686000000000000000e+03 7.414614868164062500e+01 1.304305648803710938e+01 -1.121834740042686462e-01 8.208801269531250000e+00 2.428985357284545898e+00 -3.909971415996551514e-01
1.687000000000000000e+03 7.416602325439453125e+01 1.168090057373046875e+01 -1.237766146659851074e-01 8.249752044677734375e+00 2.437792778015136719e+00 -3.355138301849365234e-01
1.688000000000000000e+03 7.425877380371093750e+01 -2.163942337036132812e+01 -2.121016941964626312e-02 7.738570213317871094e+00 2.315207958221435547e+00 3.521439135074615479e-01
1.689000000000000000e+03 4.434249496459960938e+01 -2.341257858276367188e+01 -1.257888525724411011e-01 4.458698749542236328e+00 1.299872994422912598e+00 -6.702789664268493652e-01
1.690000000000000000e+03 6.783448028564453125e+01 2.879422760009765625e+01 3.707223534584045410e-01 8.434269905090332031e+00 2.641497611999511719e+00 -7.526884675025939941e-01
1.691000000000000000e+03 7.416064453125000000e+01 2.001399803161621094e+01 -8.404155075550079346e-02 7.908205509185791016e+00 2.347249269485473633e+00 -6.045348644256591797e-01
1.692000000000000000e+03 1.511142635345458984e+01 1.058308029174804688e+01 -8.753394484519958496e-01 6.542049407958984375e+00 1.700013041496276855e+00 7.972454428672790527e-01
1.693000000000000000e+03 1.748661422729492188e+01 1.570484828948974609e+01 -8.570827841758728027e-01 3.564345359802246094e+00 8.121787905693054199e-01 3.776085376739501953e-01
1.694000000000000000e+03 3.957315444946289062e+01 1.260390853881835938e+01 2.158533185720443726e-01 1.614808201789855957e+00 5.491984486579895020e-01 7.218044400215148926e-01
1.695000000000000000e+03 1.404144763946533203e+01 1.319278526306152344e+01 -1.219472527503967285e+00 5.769186973571777344e+00 1.364914298057556152e+00 -1.686970889568328857e-01
1.696000000000000000e+03 7.348651123046875000e+01 3.189775085449218750e+01 2.195060253143310547e-01 7.370795726776123047e+00 2.277090549468994141e+00 -4.952706396579742432e-01
1.697000000000000000e+03 6.183800220489501953e+00 3.116246223449707031e+01 -1.403882056474685669e-01 4.676358222961425781e+00 1.360790967941284180e+00 -2.857074141502380371e-01
1.698000000000000000e+03 2.404498100280761719e+01 -2.536671638488769531e+01 1.531846225261688232e-01 2.998269557952880859e+00 9.454362988471984863e-01 -8.520412445068359375e-01
1.699000000000000000e+03 4.928335666656494141e+00 -2.985574150085449219e+01 -7.510496675968170166e-02 2.584666967391967773e+00 7.528685927391052246e-01 2.387138754129409790e-01
1.700000000000000000e+03 6.288966655731201172e+00 -2.826460266113281250e+01 -1.084440872073173523e-01 2.651859283447265625e+00 7.630245685577392578e-01 3.003760576248168945e-01
1.701000000000000000e+03 5.021729469299316406e+00 -1.118608760833740234e+01 1.176522225141525269e-01 1.615423321723937988e+00 5.199226737022399902e-01 7.646377682685852051e-01
1.702000000000000000e+03 4.922046184539794922e+00 -1.002679252624511719e+01 2.376513332128524780e-01 1.432679772377014160e+00 5.010993480682373047e-01 7.102472186088562012e-01
1.703000000000000000e+03 4.877641201019287109e+00 2.784383392333984375e+01 -1.424855142831802368e-01 4.782104969024658203e+00 1.391885757446289062e+00 -3.963299095630645752e-01
1.704000000000000000e+03 6.414570808410644531e+00 2.884336662292480469e+01 -1.853727549314498901e-01 4.602728366851806641e+00 1.325206637382507324e+00 -3.937986791133880615e-01
1.705000000000000000e+03 4.586268424987792969e+00 -2.587193298339843750e+01 -9.040347486734390259e-02 2.412755250930786133e+00 6.967055201530456543e-01 3.395548164844512939e-01
1.706000000000000000e+03 5.800977230072021484e+00 -2.175895881652832031e+01 -1.479146927595138550e-01 2.449433326721191406e+00 6.904556155204772949e-01 5.134648084640502930e-01
1.707000000000000000e+03 7.370690155029296875e+01 -3.651874542236328125e+01 9.987287223339080811e-02 7.162460327148437500e+00 2.178699970245361328e+00 1.688336133956909180e-01
1.708000000000000000e+03 7.448628234863281250e+01 -3.523868942260742188e+01 9.190751612186431885e-02 7.193670272827148438e+00 2.185673236846923828e+00 1.835583150386810303e-01
1.709000000000000000e+03 5.948472023010253906e+00 2.450069618225097656e+01 -3.086341619491577148e-01 4.490360260009765625e+00 1.254517793655395508e+00 -6.612937450408935547e-01
1.710000000000000000e+03 5.314517021179199219e+00 -1.501554107666015625e+01 -6.189220398664474487e-02 2.070868492126464844e+00 6.026929020881652832e-01 7.411218285560607910e-01
1.711000000000000000e+03 5.469301700592041016e+00 -1.771861648559570312e+01 -1.110448464751243591e-01 2.258286476135253906e+00 6.441724896430969238e-01 6.561769843101501465e-01
1.712000000000000000e+03 4.316033840179443359e+00 -1.916152954101562500e+01 -7.849569618701934814e-02 2.015016317367553711e+00 5.809561610221862793e-01 5.421564579010009766e-01
1.713000000000000000e+03 5.258444309234619141e+00 1.768221092224121094e+01 -3.893525302410125732e-01 4.007760524749755859e+00 1.085522413253784180e+00 -1.308869242668151855e+00
1.714000000000000000e+03 5.400922775268554688e+00 1.899791145324707031e+01 -4.075114428997039795e-01 4.144034385681152344e+00 1.120956778526306152e+00 -1.165775895118713379e+00
1.715000000000000000e+03 5.262730598449707031e+00 1.386748695373535156e+01 -3.197636902332305908e-01 3.581671714782714844e+00 9.785723686218261719e-01 -1.799032330513000488e+00
1.716000000000000000e+03 4.062831878662109375e+00 1.667071533203125000e+01 -2.502587735652923584e-01 3.637879371643066406e+00 1.016286134719848633e+00 -1.274099111557006836e+00
1.717000000000000000e+03 5.132068157196044922e+00 1.641935157775878906e+01 -4.156457483768463135e-01 3.865108966827392578e+00 1.034838914871215820e+00 -1.451428651809692383e+00
1.718000000000000000e+03 6.226692676544189453e+00 2.599852561950683594e+01 -2.682870328426361084e-01 4.529549121856689453e+00 1.278378605842590332e+00 -5.646538138389587402e-01
1.719000000000000000e+03 6.060046672821044922e+00 -2.697224807739257812e+01 -1.335015296936035156e-01 2.606733083724975586e+00 7.419694662094116211e-01 3.504733145236968994e-01
1.720000000000000000e+03 4.049860000610351562e+00 1.534119987487792969e+01 -2.659230828285217285e-01 3.393292427062988281e+00 9.382107853889465332e-01 -1.413335323333740234e+00
1.721000000000000000e+03 3.978486776351928711e+00 -1.240622329711914062e+01 3.128526732325553894e-02 1.279214859008789062e+00 3.931500315666198730e-01 6.538963317871093750e-01
1.722000000000000000e+03 5.135311126708984375e+00 -1.241307067871093750e+01 4.415642470121383667e-02 1.808077335357666016e+00 5.556701421737670898e-01 7.749322652816772461e-01
1.723000000000000000e+03 5.521567344665527344e+00 2.034954071044921875e+01 -3.663774728775024414e-01 4.266546249389648438e+00 1.170050621032714844e+00 -1.033643484115600586e+00
1.724000000000000000e+03 5.630757808685302734e+00 2.170932197570800781e+01 -3.625828623771667480e-01 4.360556125640869141e+00 1.199391961097717285e+00 -8.944165706634521484e-01
1.725000000000000000e+03 1.042695331573486328e+01 -3.289393234252929688e+01 -1.919716745615005493e-01 2.856994867324829102e+00 7.995069622993469238e-01 1.792100071907043457e-01
1.726000000000000000e+03 6.542543888092041016e+00 -3.305400466918945312e+01 -9.492139518260955811e-02 2.688832759857177734e+00 7.781733870506286621e-01 1.862389296293258667e-01
1.727000000000000000e+03 4.282221794128417969e+00 -6.777980327606201172e+00 4.774065911769866943e-01 5.766879916191101074e-01 3.162283897399902344e-01 3.096829056739807129e-01
1.728000000000000000e+03 5.694118499755859375e+00 -2.041625213623046875e+01 -1.258285939693450928e-01 2.403666257858276367e+00 6.833513379096984863e-01 5.615156888961791992e-01
1.729000000000000000e+03 6.265989780426025391e+00 2.749355506896972656e+01 -2.379073053598403931e-01 4.577828407287597656e+00 1.301976323127746582e+00 -4.657137393951416016e-01
1.730000000000000000e+03 3.902113342285156250e+01 -1.481070899963378906e+01 -3.850619494915008545e-02 2.235839128494262695e+00 6.591998934745788574e-01 -3.731434941291809082e-01
1.731000000000000000e+03 2.411249351501464844e+01 2.018881797790527344e+01 -5.817645788192749023e-01 8.284440636634826660e-01 7.400383800268173218e-02 -9.295908361673355103e-02
1.732000000000000000e+03 3.890321969985961914e+00 1.002635860443115234e+01 3.198404908180236816e-01 1.805683374404907227e+00 6.376571655273437500e-01 -1.524011373519897461e+00
1.733000000000000000e+03 7.157836914062500000e+01 3.226471328735351562e+01 2.953966557979583740e-01 7.800593376159667969e+00 2.428797006607055664e+00 -5.321440100669860840e-01
1.734000000000000000e+03 5.004106521606445312e+00 8.575606346130371094e+00 8.045004010200500488e-01 1.933427929878234863e+00 8.213784694671630859e-01 -1.727404713630676270e+00
1.735000000000000000e+03 5.234908580780029297e+00 -1.369229888916015625e+01 -3.552445024251937866e-02 1.935634136199951172e+00 5.700328946113586426e-01 7.621262669563293457e-01
1.736000000000000000e+03 4.026575565338134766e+00 -7.720837116241455078e+00 3.613944351673126221e-01 6.280683875083923340e-01 2.968388497829437256e-01 3.873622417449951172e-01
1.737000000000000000e+03 4.919617176055908203e+00 -7.987831592559814453e+00 4.588833153247833252e-01 1.097023606300354004e+00 4.667720794677734375e-01 5.926378965377807617e-01
1.738000000000000000e+03 4.644781112670898438e+00 -5.960648536682128906e+00 5.632955431938171387e-01 5.275748372077941895e-01 3.272611200809478760e-01 2.415281087160110474e-01
1.739000000000000000e+03 1.437680053710937500e+01 1.147730541229248047e+01 -1.007784366607666016e+00 6.577706813812255859e+00 1.670976758003234863e+00 2.726409137248992920e-01
1.740000000000000000e+03 6.427183628082275391e+00 3.436845397949218750e+01 -1.272985637187957764e-01 4.645317077636718750e+00 1.355405569076538086e+00 -1.968328356742858887e-01
1.741000000000000000e+03 5.256940078735351562e+01 2.191418457031250000e+01 -1.260403990745544434e-01 6.717308521270751953e+00 1.977380394935607910e+00 1.640886425971984863e+00
1.742000000000000000e+03 3.857462692260742188e+01 1.155070209503173828e+01 2.764347493648529053e-01 1.442311525344848633e+00 5.156238675117492676e-01 6.120528578758239746e-01
1.743000000000000000e+03 3.555198669433593750e+01 1.022988128662109375e+01 2.189338654279708862e-01 8.476575613021850586e-01 3.199774324893951416e-01 4.477769434452056885e-01
1.744000000000000000e+03 1.577359008789062500e+01 1.341556835174560547e+01 -9.833078384399414062e-01 4.980122089385986328e+00 1.199044346809387207e+00 4.730579853057861328e-01
1.745000000000000000e+03 1.504262256622314453e+01 1.237921619415283203e+01 -1.068254351615905762e+00 5.666760921478271484e+00 1.379552006721496582e+00 3.436863124370574951e-01
1.746000000000000000e+03 2.238517761230468750e+01 2.056465339660644531e+01 -6.406069993972778320e-01 1.436304450035095215e+00 2.387092411518096924e-01 1.338453311473131180e-02
1.747000000000000000e+03 3.754902267456054688e+01 -1.244196701049804688e+01 1.162326894700527191e-02 1.813870072364807129e+00 5.476480126380920410e-01 -3.070096671581268311e-01
1.748000000000000000e+03 3.690295791625976562e+01 -1.115673637390136719e+01 -4.059299081563949585e-02 1.642998933792114258e+00 4.807217717170715332e-01 -3.005601465702056885e-01
1.749000000000000000e+03 2.778895759582519531e+01 3.354668855667114258e+00 7.655653953552246094e-01 1.248154267668724060e-01 2.671142518520355225e-01 2.769902348518371582e-01
1.750000000000000000e+03 5.487878799438476562e+01 2.360811614990234375e+01 -2.513503730297088623e-01 8.047862052917480469e+00 2.338953495025634766e+00 1.326080560684204102e+00
1.751000000000000000e+03 3.323880004882812500e+01 5.895100116729736328e+00 3.795287907123565674e-01 6.404846906661987305e-01 3.060040473937988281e-01 3.614460229873657227e-01
1.752000000000000000e+03 1.651347351074218750e+01 -2.529231309890747070e+00 3.675695419311523438e+00 5.774096965789794922e+00 2.834937572479248047e+00 -3.690217971801757812e+00
1.753000000000000000e+03 1.565920734405517578e+01 -2.534703254699707031e+00 3.563382387161254883e+00 9.806759834289550781e+00 4.011042594909667969e+00 -5.932071208953857422e+00
1.754000000000000000e+03 2.859229087829589844e+01 2.320912599563598633e+00 6.732763648033142090e-01 1.012058481574058533e-01 2.323446571826934814e-01 3.200824856758117676e-01
1.755000000000000000e+03 2.965792083740234375e+01 3.192861318588256836e+00 7.661516070365905762e-01 2.311645597219467163e-01 2.991948425769805908e-01 2.358227670192718506e-01
1.756000000000000000e+03 3.505615615844726562e+01 3.102076911926269531e+01 -7.849589586257934570e-01 -5.767124295234680176e-01 -4.085014164447784424e-01 -6.801837086677551270e-01
1.757000000000000000e+03 2.386928367614746094e+01 -2.672759819030761719e+01 8.371499925851821899e-02 2.935661315917968750e+00 9.058128595352172852e-01 -7.331426739692687988e-01
1.758000000000000000e+03 2.783040428161621094e+01 2.801527404785156250e+01 -5.896875858306884766e-01 4.138468503952026367e-01 -5.275221541523933411e-02 -3.266190886497497559e-01
1.759000000000000000e+03 1.937282562255859375e+01 1.558099937438964844e+01 -5.897681117057800293e-01 2.589542150497436523e+00 5.999321937561035156e-01 4.811276197433471680e-01
1.760000000000000000e+03 3.193680000305175781e+01 4.963582038879394531e+00 5.663093328475952148e-01 4.890205264091491699e-01 3.165989816188812256e-01 2.458885014057159424e-01
1.761000000000000000e+03 4.924282836914062500e+01 2.275299835205078125e+01 4.834778606891632080e-01 4.881631851196289062e+00 1.609532833099365234e+00 2.039164543151855469e+00
1.762000000000000000e+03 1.855817413330078125e+01 -1.473166847229003906e+01 2.855214476585388184e-01 5.286547183990478516e+00 1.671620607376098633e+00 -1.153813123703002930e+00
1.763000000000000000e+03 1.607690238952636719e+01 -1.621771240234375000e+01 -1.752221137285232544e-01 4.835286617279052734e+00 1.398019433021545410e+00 -4.406152665615081787e-01
1.764000000000000000e+03 5.660744857788085938e+01 2.873060226440429688e+01 4.724415838718414307e-01 1.028311824798583984e+01 3.226667881011962891e+00 8.261393308639526367e-01
1.765000000000000000e+03 5.238110351562500000e+01 2.521045875549316406e+01 3.148113191127777100e-01 7.154285430908203125e+00 2.240729093551635742e+00 2.194742918014526367e+00
1.766000000000000000e+03 5.638742446899414062e+01 2.668670654296875000e+01 1.412408426403999329e-02 9.399096488952636719e+00 2.823966026306152344e+00 9.119749665260314941e-01
1.767000000000000000e+03 5.580703735351562500e+01 2.989959907531738281e+01 8.984327912330627441e-01 1.106715106964111328e+01 3.589675188064575195e+00 1.585248589515686035e+00
1.768000000000000000e+03 1.755392074584960938e+01 -1.226917934417724609e+01 4.128423035144805908e-01 5.964993476867675781e+00 1.913350701332092285e+00 -1.281361937522888184e+00
1.769000000000000000e+03 3.288581466674804688e+01 -5.085355281829833984e+00 4.509547352790832520e-01 7.398874163627624512e-01 3.572526276111602783e-01 -1.465943455696105957e-01
1.770000000000000000e+03 2.539587593078613281e+01 -3.056057548522949219e+01 1.363279521465301514e-01 2.555947780609130859e+00 8.076826930046081543e-01 -5.943555235862731934e-01
1.771000000000000000e+03 2.971489524841308594e+01 3.180048561096191406e+01 -5.899720191955566406e-01 1.777403801679611206e-01 -1.236694902181625366e-01 -3.482104241847991943e-01
1.772000000000000000e+03 3.550736999511718750e+01 8.290712356567382812e+00 2.666404843330383301e-01 9.633999466896057129e-01 3.690121471881866455e-01 4.501737058162689209e-01
1.773000000000000000e+03 2.839406204223632812e+01 -3.459234619140625000e+01 9.890464693307876587e-02 2.003549814224243164e+00 6.307362914085388184e-01 -4.748342931270599365e-01
1.774000000000000000e+03 2.691152572631835938e+01 -3.052357864379882812e+01 1.404910236597061157e-01 2.390553236007690430e+00 7.593132853507995605e-01 -6.542129516601562500e-01
1.775000000000000000e+03 5.839479827880859375e+01 3.040008735656738281e+01 9.932863712310791016e-01 1.093272304534912109e+01 3.577802896499633789e+00 1.564439237117767334e-01
1.776000000000000000e+03 5.903992462158203125e+01 3.655701828002929688e+01 1.666133522987365723e+00 1.126219463348388672e+01 3.878498554229736328e+00 2.169919013977050781e+00
1.777000000000000000e+03 2.377206039428710938e+01 -2.841087532043457031e+01 5.852203443646430969e-02 2.854428529739379883e+00 8.738852143287658691e-01 -6.294516921043395996e-01
1.778000000000000000e+03 4.501646804809570312e+01 4.024569320678710938e+01 -1.775880098342895508e+00 -8.292113542556762695e-01 -7.815274000167846680e-01 -3.332014381885528564e-01
1.779000000000000000e+03 1.089937019348144531e+01 -2.751757144927978516e+00 3.086342096328735352e+00 4.270086765289306641e+00 2.206928730010986328e+00 3.893980741500854492e+00
1.780000000000000000e+03 1.072779083251953125e+01 -2.270720720291137695e+00 3.187185049057006836e+00 2.640787601470947266e+00 1.748391747474670410e+00 3.086744070053100586e+00
1.781000000000000000e+03 1.171317291259765625e+01 -3.548123121261596680e+00 1.266320347785949707e+00 9.064191818237304688e+00 3.099153518676757812e+00 4.247515201568603516e+00
1.782000000000000000e+03 1.323049736022949219e+01 -4.244874000549316406e+00 -1.037975192070007324e+00 1.295005512237548828e+01 3.573623895645141602e+00 5.109153985977172852e-01
1.783000000000000000e+03 1.265728855133056641e+01 -3.417505025863647461e+00 -1.969656944274902344e-01 1.375115680694580078e+01 4.066257476806640625e+00 3.341772556304931641e+00
1.784000000000000000e+03 1.139932060241699219e+01 -2.787849187850952148e+00 2.859160184860229492e+00 6.778832435607910156e+00 2.891397714614868164e+00 4.972398757934570312e+00
1.785000000000000000e+03 1.008390998840332031e+01 -3.218825101852416992e+00 2.328746557235717773e+00 3.084543943405151367e+00 1.623987197875976562e+00 2.623046159744262695e+00
1.786000000000000000e+03 1.533677101135253906e+01 -6.122151851654052734e+00 -3.820005655288696289e-01 9.214312553405761719e+00 2.649693727493286133e+00 -2.605777263641357422e+00
1.787000000000000000e+03 1.360717201232910156e+01 -3.399095296859741211e+00 -1.007014989852905273e+00 1.595484352111816406e+01 4.484348773956298828e+00 -7.724856734275817871e-01
1.788000000000000000e+03 9.617377281188964844e+00 -3.136867523193359375e+00 2.138564586639404297e+00 2.031306266784667969e+00 1.250961303710937500e+00 1.975760340690612793e+00
1.789000000000000000e+03 6.866860866546630859e+00 -4.740381717681884766e+00 1.055300712585449219e+00 9.964884519577026367e-01 6.155367493629455566e-01 6.325685381889343262e-01
1.790000000000000000e+03 8.027338981628417969e+00 -4.405888080596923828e+00 1.401459932327270508e+00 1.545509457588195801e+00 8.840908408164978027e-01 1.134332180023193359e+00
1.791000000000000000e+03 6.309022426605224609e+00 4.998013019561767578e+00 2.159597158432006836e+00 7.052482962608337402e-01 8.594536781311035156e-01 -9.573684334754943848e-01
1.792000000000000000e+03 6.033467769622802734e+00 5.694993019104003906e+00 2.125674724578857422e+00 9.223871827125549316e-01 9.144185185432434082e-01 -1.300755620002746582e+00
1.793000000000000000e+03 7.689600467681884766e+00 4.863155364990234375e+00 3.233825683593750000e+00 1.587789773941040039e+00 1.446484684944152832e+00 -1.941458582878112793e+00
1.794000000000000000e+03 6.620454788208007812e+00 6.364146232604980469e+00 1.986599326133728027e+00 1.964108228683471680e+00 1.185212254524230957e+00 -2.004188060760498047e+00
1.795000000000000000e+03 6.433335304260253906e+00 -6.238615989685058594e+00 8.988948464393615723e-01 1.370193839073181152e+00 6.807266473770141602e-01 7.968544363975524902e-01
1.796000000000000000e+03 5.066401958465576172e+00 -5.240271568298339844e+00 6.584869027137756348e-01 5.009723305702209473e-01 3.478377759456634521e-01 1.959468424320220947e-01
1.797000000000000000e+03 1.610804176330566406e+01 -5.624653816223144531e+00 -4.415985569357872009e-02 8.635374069213867188e+00 2.577364206314086914e+00 -3.443612575531005859e+00
1.798000000000000000e+03 6.844280719757080078e+00 -5.734851360321044922e+00 9.575043320655822754e-01 1.392252206802368164e+00 7.049269676208496094e-01 8.415052890777587891e-01
1.799000000000000000e+03 1.169024848937988281e+01 4.220132827758789062e+00 5.550681591033935547e+00 1.214638137817382812e+01 5.309119224548339844e+00 -5.344883918762207031e+00
1.800000000000000000e+03 1.021230888366699219e+01 3.943629741668701172e+00 5.834094047546386719e+00 5.387112140655517578e+00 3.366361856460571289e+00 -4.725493431091308594e+00
1.801000000000000000e+03 7.449332714080810547e+00 -4.511572837829589844e+00 1.249577164649963379e+00 1.202642917633056641e+00 7.356660366058349609e-01 8.658384680747985840e-01
1.802000000000000000e+03 9.206091880798339844e+00 4.424945831298828125e+00 4.778808593750000000e+00 3.238590955734252930e+00 2.405219793319702148e+00 -3.590056419372558594e+00
1.803000000000000000e+03 9.011344909667968750e+00 5.061087131500244141e+00 3.625140428543090820e+00 3.553664684295654297e+00 2.153641462326049805e+00 -3.288203477859497070e+00
1.804000000000000000e+03 1.505593299865722656e+01 -4.821246623992919922e+00 -5.716484785079956055e-01 1.063480186462402344e+01 3.018946170806884766e+00 -3.141699552536010742e+00
1.805000000000000000e+03 4.482429504394531250e+01 1.697126579284667969e+01 2.345464676618576050e-01 2.966310262680053711e+00 9.602569937705993652e-01 1.270824909210205078e+00
1.806000000000000000e+03 1.056074810028076172e+01 6.279911994934082031e+00 2.530069828033447266e+00 8.157971382141113281e+00 3.206412315368652344e+00 -4.662591457366943359e+00
1.807000000000000000e+03 3.622190475463867188e+01 -9.848297119140625000e+00 1.002421304583549500e-01 1.474669337272644043e+00 4.724734425544738770e-01 -2.414750456809997559e-01
1.808000000000000000e+03 3.662645721435546875e+01 -7.624189853668212891e+00 1.846775114536285400e-01 1.584305524826049805e+00 5.306949019432067871e-01 -1.860263347625732422e-01
1.809000000000000000e+03 4.732656478881835938e+01 2.108175086975097656e+01 4.546583294868469238e-01 3.833471298217773438e+00 1.286438822746276855e+00 1.723141312599182129e+00
1.810000000000000000e+03 4.465332031250000000e+01 1.861597442626953125e+01 3.497187197208404541e-01 2.768897533416748047e+00 9.355849027633666992e-01 1.339968919754028320e+00
1.811000000000000000e+03 1.568337821960449219e+01 -4.053152561187744141e+00 3.866097927093505859e-01 1.027688694000244141e+01 3.199048995971679688e+00 -4.506173133850097656e+00
1.812000000000000000e+03 3.918098449707031250e+01 -1.303278827667236328e+01 -3.180090337991714478e-02 2.269238471984863281e+00 6.712312102317810059e-01 -3.276095986366271973e-01
1.813000000000000000e+03 5.558119964599609375e+01 2.785341644287109375e+01 2.983554601669311523e-01 9.883629798889160156e+00 3.054595470428466797e+00 1.493736267089843750e+00
1.814000000000000000e+03 5.851434326171875000e+01 2.862637329101562500e+01 4.422906339168548584e-01 1.019235134124755859e+01 3.190392494201660156e+00 1.156934499740600586e-01
1.815000000000000000e+03 5.305673980712890625e+01 2.397952270507812500e+01 6.422349542845040560e-05 7.369029045104980469e+00 2.210727930068969727e+00 1.849485993385314941e+00
1.816000000000000000e+03 3.765829849243164062e+01 -6.365407943725585938e+00 1.061837449669837952e-01 1.806708097457885742e+00 5.738675594329833984e-01 -1.786046922206878662e-01
1.817000000000000000e+03 3.375281143188476562e+01 -6.231651782989501953e+00 1.944328248500823975e-01 9.156149625778198242e-01 3.330143392086029053e-01 -2.231233268976211548e-01
1.818000000000000000e+03 4.861522293090820312e+01 -2.702718353271484375e+01 -4.204908385872840881e-02 6.163806915283203125e+00 1.836527347564697266e+00 -2.086040377616882324e-02
1.819000000000000000e+03 4.570631790161132812e+01 -2.314554977416992188e+01 -2.140429764986038208e-01 4.787123203277587891e+00 1.371924042701721191e+00 -4.400556087493896484e-01
1.820000000000000000e+03 1.715139579772949219e+01 -1.387131500244140625e+01 1.571013927459716797e-01 5.511786460876464844e+00 1.700666308403015137e+00 -9.114813804626464844e-01
1.821000000000000000e+03 3.395426177978515625e+01 4.636475563049316406e+00 5.154511928558349609e-01 8.169184923171997070e-01 3.997108936309814453e-01 2.903622090816497803e-01
1.822000000000000000e+03 3.661390686035156250e+01 7.555884838104248047e+00 3.789036571979522705e-01 1.201772809028625488e+00 4.742029309272766113e-01 4.620418548583984375e-01
1.823000000000000000e+03 5.344960403442382812e+01 2.607546424865722656e+01 2.283181101083755493e-01 8.205051422119140625e+00 2.530010700225830078e+00 2.097311019897460938e+00
1.824000000000000000e+03 5.416381072998046875e+01 2.484708786010742188e+01 -4.254756495356559753e-02 8.035593032836914062e+00 2.397913694381713867e+00 1.608558773994445801e+00
1.825000000000000000e+03 2.044547462463378906e+01 1.872893333435058594e+01 -6.849535703659057617e-01 2.041541576385498047e+00 4.069764018058776855e-01 1.653011292219161987e-01
1.826000000000000000e+03 1.633521461486816406e+01 1.960093688964843750e+01 -1.001592874526977539e+00 3.545786857604980469e+00 7.632582187652587891e-01 -1.155487969517707825e-01
1.827000000000000000e+03 3.266648864746093750e+01 3.847558498382568359e+00 4.991252124309539795e-01 5.662352442741394043e-01 3.196081221103668213e-01 3.112951219081878662e-01
1.828000000000000000e+03 4.503598022460937500e+01 -2.262487411499023438e+01 -2.436236441135406494e-01 4.657824516296386719e+00 1.324260234832763672e+00 -5.908533930778503418e-01
1.829000000000000000e+03 4.143994522094726562e+01 1.469625949859619141e+01 2.392160892486572266e-01 1.969532012939453125e+00 6.626244187355041504e-01 9.078965187072753906e-01
1.830000000000000000e+03 7.152986907958984375e+01 -2.489276313781738281e+01 2.558224834501743317e-02 7.432461738586425781e+00 2.237413167953491211e+00 4.546984732151031494e-01
1.831000000000000000e+03 6.946908569335937500e+01 -3.177709960937500000e+01 1.702431440353393555e-01 7.145198345184326172e+00 2.194632530212402344e+00 4.093506932258605957e-01
1.832000000000000000e+03 2.044472312927246094e+01 2.107266044616699219e+01 -7.274562716484069824e-01 2.080978393554687500e+00 4.060566723346710205e-01 2.508451603353023529e-02
1.833000000000000000e+03 2.243796348571777344e+01 -2.624565696716308594e+01 -1.474569784477353096e-03 3.132133007049560547e+00 9.391975402832031250e-01 -6.643968820571899414e-01
1.834000000000000000e+03 1.665625953674316406e+01 -1.145678329467773438e+01 3.861016631126403809e-01 6.092504024505615234e+00 1.943581819534301758e+00 -1.256757020950317383e+00
1.835000000000000000e+03 3.112303924560546875e+01 -2.835273265838623047e+00 7.383171319961547852e-01 3.941614627838134766e-01 3.397435843944549561e-01 -9.683223068714141846e-02
1.836000000000000000e+03 3.076485443115234375e+01 4.071578502655029297e+00 4.935364723205566406e-01 3.228687942028045654e-01 2.449215799570083618e-01 3.103727400302886963e-01
1.837000000000000000e+03 5.196730422973632812e+01 2.319638061523437500e+01 7.734449952840805054e-02 6.531063556671142578e+00 1.982522368431091309e+00 1.896473169326782227e+00
1.838000000000000000e+03 1.042970466613769531e+01 2.876171684265136719e+01 -4.096127152442932129e-01 4.017066955566406250e+00 1.082236170768737793e+00 -4.205567836761474609e-01
1.839000000000000000e+03 9.412086486816406250e+00 3.251263427734375000e+01 -2.311750650405883789e-01 4.115406513214111328e+00 1.165269494056701660e+00 -2.575455605983734131e-01
1.840000000000000000e+03 4.341252517700195312e+01 -1.809603881835937500e+01 -1.847686320543289185e-01 3.645890235900878906e+00 1.038336515426635742e+00 -4.513351023197174072e-01
1.841000000000000000e+03 7.118259429931640625e+01 2.400932502746582031e+01 -3.230127319693565369e-02 8.018872261047363281e+00 2.395971298217773438e+00 -8.035852909088134766e-01
1.842000000000000000e+03 7.277917480468750000e+01 2.596308517456054688e+01 3.071162104606628418e-02 7.741880416870117188e+00 2.331777572631835938e+00 -7.290723323822021484e-01
1.843000000000000000e+03 7.296961212158203125e+01 -2.403895759582519531e+01 1.399755105376243591e-02 7.542932987213134766e+00 2.267079114913940430e+00 4.091296792030334473e-01
1.844000000000000000e+03 2.213902282714843750e+01 -2.794684028625488281e+01 -3.816521540284156799e-02 3.010151147842407227e+00 8.915957808494567871e-01 -5.324976444244384766e-01
1.845000000000000000e+03 7.430324554443359375e+01 2.516227912902832031e+01 3.600608324632048607e-03 7.599437236785888672e+00 2.280911207199096680e+00 -6.515604853630065918e-01
1.846000000000000000e+03 7.124119567871093750e+01 1.724548149108886719e+01 -2.185385972261428833e-01 8.077936172485351562e+00 2.357819318771362305e+00 -6.019005179405212402e-01
1.847000000000000000e+03 7.271775817871093750e+01 1.580075740814208984e+01 -1.738939285278320312e-01 8.095664024353027344e+00 2.376531124114990234e+00 -5.241224765777587891e-01
1.848000000000000000e+03 7.921351432800292969e+00 3.362336730957031250e+01 -1.628675758838653564e-01 4.398241043090820312e+00 1.270612001419067383e+00 -2.152729779481887817e-01
1.849000000000000000e+03 7.300577545166015625e+01 -1.637898254394531250e+01 -4.602563008666038513e-02 7.842093944549560547e+00 2.338820457458496094e+00 3.567649424076080322e-01
1.850000000000000000e+03 7.303489685058593750e+01 -1.767649650573730469e+01 -5.193431675434112549e-02 7.798399448394775391e+00 2.323939561843872070e+00 3.730224668979644775e-01
1.851000000000000000e+03 7.163614654541015625e+01 1.041765403747558594e+01 -2.039950639009475708e-01 8.106328964233398438e+00 2.370700120925903320e+00 -3.260433673858642578e-01
1.852000000000000000e+03 7.282660675048828125e+01 9.038073539733886719e+00 -1.561558991670608521e-01 8.194993019104003906e+00 2.411651134490966797e+00 -2.683534324169158936e-01
1.853000000000000000e+03 7.251065826416015625e+01 -9.761801719665527344e+00 -9.362332522869110107e-02 7.990346908569335938e+00 2.369017124176025391e+00 2.548494338989257812e-01
1.854000000000000000e+03 7.272921752929687500e+01 -1.113930511474609375e+01 -7.703407853841781616e-02 7.975359439849853516e+00 2.369497537612915039e+00 2.795276045799255371e-01
1.855000000000000000e+03 7.284331512451171875e+01 -1.951301097869873047e+00 -1.002705618739128113e-01 8.166518211364746094e+00 2.419874429702758789e+00 6.994007527828216553e-02
1.856000000000000000e+03 7.276213073730468750e+01 -3.268002748489379883e+00 -1.111773401498794556e-01 8.149724960327148438e+00 2.411564350128173828e+00 1.085304915904998779e-01
1.857000000000000000e+03 5.923279762268066406e+00 -1.001653099060058594e+01 2.451622486114501953e-01 1.927940249443054199e+00 6.519307494163513184e-01 8.698814511299133301e-01
1.858000000000000000e+03 7.251601409912109375e+01 -4.572574138641357422e+00 -9.394316375255584717e-02 8.100577354431152344e+00 2.401990413665771484e+00 1.400549411773681641e-01
1.859000000000000000e+03 7.135897827148437500e+01 5.074175834655761719e+00 -1.846997737884521484e-01 8.058161735534667969e+00 2.362038612365722656e+00 -1.239376366138458252e-01
1.860000000000000000e+03 7.269483947753906250e+01 2.260481834411621094e+00 -1.376510262489318848e-01 8.186602592468261719e+00 2.414685487747192383e+00 -3.709632530808448792e-02
1.861000000000000000e+03 7.364022827148437500e+01 -6.377262592315673828e+00 -7.287778705358505249e-02 8.192708969116210938e+00 2.435949325561523438e+00 1.622230857610702515e-01
1.862000000000000000e+03 7.419681549072265625e+01 -1.370546054840087891e+01 -5.350163951516151428e-02 8.057646751403808594e+00 2.401243686676025391e+00 2.776114940643310547e-01
1.863000000000000000e+03 7.426516723632812500e+01 -2.035000038146972656e+01 -1.181890815496444702e-02 7.793487071990966797e+00 2.334500551223754883e+00 3.443543612957000732e-01
1.864000000000000000e+03 5.780211925506591797e+00 -9.005436897277832031e+00 3.894089162349700928e-01 1.690420150756835938e+00 6.239487528800964355e-01 8.131689429283142090e-01
1.865000000000000000e+03 4.872521400451660156e+00 -8.956634521484375000e+00 3.148932456970214844e-01 1.232195138931274414e+00 4.641264975070953369e-01 6.528339385986328125e-01
1.866000000000000000e+03 6.947035980224609375e+01 3.050366592407226562e+01 4.163541793823242188e-01 8.180678367614746094e+00 2.579109907150268555e+00 -6.515113711357116699e-01
1.867000000000000000e+03 7.258010101318359375e+01 2.432937431335449219e+01 -1.626220718026161194e-02 7.828263282775878906e+00 2.343600273132324219e+00 -7.480906844139099121e-01
1.868000000000000000e+03 7.235979461669921875e+01 -2.668507003784179688e+01 4.622484743595123291e-02 7.413591861724853516e+00 2.237945079803466797e+00 4.184526503086090088e-01
1.869000000000000000e+03 8.204498291015625000e+00 2.089283943176269531e+01 -6.551464200019836426e-01 4.377687931060791016e+00 1.116762399673461914e+00 -1.020238995552062988e+00
1.870000000000000000e+03 7.227773189544677734e+00 2.396804428100585938e+01 -4.159682393074035645e-01 4.391057014465332031e+00 1.192526698112487793e+00 -7.406734824180603027e-01
1.871000000000000000e+03 7.845105648040771484e+00 -1.749870681762695312e+01 -1.902172267436981201e-01 2.964658498764038086e+00 8.323323726654052734e-01 6.814130544662475586e-01
1.872000000000000000e+03 6.572591781616210938e+00 -1.629468917846679688e+01 -1.341717839241027832e-01 2.576494693756103516e+00 7.326968908309936523e-01 7.385463714599609375e-01
1.873000000000000000e+03 5.575555324554443359e+00 -1.907111549377441406e+01 -1.436734497547149658e-01 2.324902296066284180e+00 6.543686389923095703e-01 6.054821014404296875e-01
1.874000000000000000e+03 7.372087478637695312e+00 -2.666116333007812500e+01 -1.380488723516464233e-01 2.741719007492065430e+00 7.811010479927062988e-01 3.523891270160675049e-01
1.875000000000000000e+03 4.095434570312500000e+01 -1.729419708251953125e+01 -7.008546590805053711e-02 2.855679512023925781e+00 8.356782197952270508e-01 -4.987943768501281738e-01
1.876000000000000000e+03 6.133625984191894531e+00 1.614874458312988281e+01 -5.043728947639465332e-01 4.077788352966308594e+00 1.072024583816528320e+00 -1.568735241889953613e+00
1.877000000000000000e+03 6.395655632019042969e+00 1.725430870056152344e+01 -5.547778606414794922e-01 4.171663761138916016e+00 1.085065722465515137e+00 -1.444046020507812500e+00
1.878000000000000000e+03 6.138729572296142578e+00 1.514763736724853516e+01 -5.120663642883300781e-01 4.051238059997558594e+00 1.061751484870910645e+00 -1.742377281188964844e+00
1.879000000000000000e+03 8.374974250793457031e+00 -3.107749366760253906e+01 -1.592549532651901245e-01 2.786557674407958984e+00 7.881908416748046875e-01 2.416851073503494263e-01
1.880000000000000000e+03 4.551182556152343750e+01 1.944753646850585938e+01 4.099994897842407227e-01 3.100062370300292969e+00 1.053018569946289062e+00 1.450970411300659180e+00
1.881000000000000000e+03 8.382164001464843750e+00 2.887449455261230469e+01 -3.031816184520721436e-01 4.298897266387939453e+00 1.198714613914489746e+00 -4.184203147888183594e-01
1.882000000000000000e+03 7.424457550048828125e+00 2.783134460449218750e+01 -2.804006636142730713e-01 4.391734123229980469e+00 1.233400106430053711e+00 -4.820973575115203857e-01
1.883000000000000000e+03 6.766356945037841797e+00 1.991953468322753906e+01 -5.440141558647155762e-01 4.322248935699462891e+00 1.133470416069030762e+00 -1.131508708000183105e+00
1.884000000000000000e+03 3.200930023193359375e+01 -3.954093217849731445e+00 4.028677642345428467e-01 5.622779726982116699e-01 2.895437180995941162e-01 -1.816005706787109375e-01
1.885000000000000000e+03 1.308942127227783203e+01 1.033260154724121094e+01 -1.109200000762939453e+00 7.709419727325439453e+00 1.980065941810607910e+00 -7.058278322219848633e-01
1.886000000000000000e+03 3.983872222900390625e+01 -1.399632072448730469e+01 -1.258054077625274658e-01 2.452541589736938477e+00 6.980208754539489746e-01 -4.138647913932800293e-01
1.887000000000000000e+03 1.079439067840576172e+01 8.468019485473632812e+00 -1.628182679414749146e-01 8.134893417358398438e+00 2.391622543334960938e+00 -2.905135393142700195e+00
1.888000000000000000e+03 5.189433097839355469e+00 1.107205104827880859e+01 9.755259752273559570e-02 2.966954708099365234e+00 9.193521738052368164e-01 -1.983812808990478516e+00
1.889000000000000000e+03 1.471231842041015625e+01 1.433050155639648438e+01 -1.207019686698913574e+00 5.134098052978515625e+00 1.178123474121093750e+00 -7.573249191045761108e-02
1.890000000000000000e+03 6.154156684875488281e+00 8.065004348754882812e+00 1.175149440765380859e+00 2.483577251434326172e+00 1.097617983818054199e+00 -2.182980298995971680e+00
1.891000000000000000e+03 3.399722290039062500e+01 3.260991287231445312e+01 -7.641953229904174805e-01 -3.687393367290496826e-01 -3.398803770542144775e-01 -5.027195215225219727e-01
1.892000000000000000e+03 5.104198455810546875e+00 -7.144755840301513672e+00 5.451433062553405762e-01 9.629057645797729492e-01 4.524147212505340576e-01 5.225061178207397461e-01
1.893000000000000000e+03 6.409493923187255859e+00 1.393956661224365234e+01 -4.193514287471771240e-01 3.995476961135864258e+00 1.072837710380554199e+00 -1.914802551269531250e+00
1.894000000000000000e+03 4.329544448852539062e+01 -1.995665740966796875e+01 -1.501800566911697388e-01 3.759429216384887695e+00 1.082774758338928223e+00 -5.339860320091247559e-01
1.895000000000000000e+03 1.034821891784667969e+01 9.559571266174316406e+00 -2.565544843673706055e-01 6.927045822143554688e+00 2.001147270202636719e+00 -2.545546531677246094e+00
1.896000000000000000e+03 1.161209487915039062e+01 1.281375026702880859e+01 -1.206822156906127930e+00 6.131604671478271484e+00 1.477434754371643066e+00 -1.237485647201538086e+00
1.897000000000000000e+03 5.397849559783935547e+00 -6.396226882934570312e+00 6.745908856391906738e-01 9.210740923881530762e-01 4.786995053291320801e-01 4.896066188812255859e-01
1.898000000000000000e+03 6.316333770751953125e+00 -1.236229896545410156e+01 1.332196593284606934e-02 2.322747945785522461e+00 7.008209228515625000e-01 8.602859973907470703e-01
1.899000000000000000e+03 2.034834289550781250e+01 1.657034492492675781e+01 -5.755472779273986816e-01 2.058248043060302734e+00 4.448102712631225586e-01 3.309156298637390137e-01
1.900000000000000000e+03 1.902999305725097656e+01 -2.081956672668457031e+01 -1.279197037220001221e-01 3.980665683746337891e+00 1.155823826789855957e+00 -6.410169601440429688e-01
1.901000000000000000e+03 1.786786270141601562e+01 -2.038594245910644531e+01 -1.896921098232269287e-01 4.123823642730712891e+00 1.180239558219909668e+00 -5.156390666961669922e-01
1.902000000000000000e+03 2.942980766296386719e+01 1.271230936050415039e+00 9.823833703994750977e-01 1.481236666440963745e-01 3.391521275043487549e-01 1.806986331939697266e-01
1.903000000000000000e+03 6.450165748596191406e+00 -1.364254951477050781e+01 -4.673130437731742859e-02 2.461128234863281250e+00 7.243191003799438477e-01 8.394310474395751953e-01
1.904000000000000000e+03 3.858308029174804688e+01 9.713683128356933594e+00 2.933075129985809326e-01 1.553091287612915039e+00 5.539196729660034180e-01 5.939096212387084961e-01
1.905000000000000000e+03 3.653830718994140625e+01 9.423863410949707031e+00 3.256885707378387451e-01 1.108988761901855469e+00 4.304031729698181152e-01 4.677696824073791504e-01
1.906000000000000000e+03 3.757743835449218750e+01 8.661297798156738281e+00 2.402216643095016479e-01 1.380949735641479492e+00 4.863514006137847900e-01 5.457176566123962402e-01
1.907000000000000000e+03 2.168457412719726562e+01 2.191077423095703125e+01 -6.729422807693481445e-01 1.708188533782958984e+00 3.105738759040832520e-01 4.912752658128738403e-03
1.908000000000000000e+03 1.851690101623535156e+01 1.673569488525390625e+01 -7.961243987083435059e-01 2.962094068527221680e+00 6.497908830642700195e-01 3.072125911712646484e-01
1.909000000000000000e+03 5.452075195312500000e+01 2.696327209472656250e+01 2.511992156505584717e-01 8.944728851318359375e+00 2.758778333663940430e+00 1.740755319595336914e+00
1.910000000000000000e+03 4.710079193115234375e+01 -2.712710571289062500e+01 7.062363624572753906e-02 5.880585193634033203e+00 1.785362601280212402e+00 -3.242978453636169434e-01
1.911000000000000000e+03 1.731214332580566406e+01 -1.497195625305175781e+01 5.013193935155868530e-02 5.152830600738525391e+00 1.560888767242431641e+00 -8.632732033729553223e-01
1.912000000000000000e+03 1.730268859863281250e+01 -1.748454666137695312e+01 -1.582539081573486328e-01 4.651408672332763672e+00 1.347946405410766602e+00 -6.213575005531311035e-01
1.913000000000000000e+03 3.866075515747070312e+01 -1.180046653747558594e+01 -9.720513224601745605e-02 2.114660263061523438e+00 6.052365899085998535e-01 -3.243684470653533936e-01
1.914000000000000000e+03 3.803870391845703125e+01 -1.046508789062500000e+01 4.086129739880561829e-02 1.954662322998046875e+00 5.986570715904235840e-01 -2.664907276630401611e-01
1.915000000000000000e+03 4.457423782348632812e+01 -2.190933799743652344e+01 -1.529019325971603394e-01 4.371693134307861328e+00 1.265637397766113281e+00 -5.635595321655273438e-01
1.916000000000000000e+03 3.128862953186035156e+01 1.064152359962463379e+00 8.417240977287292480e-01 3.871339559555053711e-01 3.686574101448059082e-01 1.462691426277160645e-01
1.917000000000000000e+03 3.153177452087402344e+01 3.002742290496826172e+00 7.131963968276977539e-01 4.427265822887420654e-01 3.467769026756286621e-01 2.215562015771865845e-01
1.918000000000000000e+03 9.388012886047363281e+00 9.205973625183105469e+00 9.730712324380874634e-02 6.193885326385498047e+00 1.887357711791992188e+00 -3.000371217727661133e+00
1.919000000000000000e+03 1.173634243011474609e+01 8.731106758117675781e+00 -4.524571895599365234e-01 8.819575309753417969e+00 2.510135412216186523e+00 -1.897212624549865723e+00
1.920000000000000000e+03 4.826169967651367188e+01 2.192657089233398438e+01 4.676750600337982178e-01 4.274934768676757812e+00 1.422782897949218750e+00 1.902064800262451172e+00
1.921000000000000000e+03 5.090016937255859375e+01 2.248305320739746094e+01 1.797256469726562500e-01 5.903391838073730469e+00 1.824935317039489746e+00 1.945505619049072266e+00
1.922000000000000000e+03 2.756540679931640625e+01 2.556211090087890625e+01 -5.932747721672058105e-01 2.797820270061492920e-01 -9.404781460762023926e-02 -3.404926955699920654e-01
1.923000000000000000e+03 3.540658569335937500e+01 4.956757545471191406e+00 4.624907076358795166e-01 1.014571309089660645e+00 4.431186020374298096e-01 3.839997053146362305e-01
1.924000000000000000e+03 3.118007087707519531e+01 -8.789375424385070801e-01 8.653489351272583008e-01 3.658221960067749023e-01 3.693513274192810059e-01 1.761113293468952179e-02
1.925000000000000000e+03 2.410935592651367188e+01 2.283659362792968750e+01 -5.965642929077148438e-01 1.014186978340148926e+00 1.252868026494979858e-01 -1.121847033500671387e-01
1.926000000000000000e+03 2.369226074218750000e+01 -3.031932830810546875e+01 4.751272208523005247e-04 2.727032423019409180e+00 8.182522654533386230e-01 -4.954279661178588867e-01
1.927000000000000000e+03 4.894291305541992188e+01 2.099434089660644531e+01 2.648988664150238037e-01 4.690830230712890625e+00 1.486718654632568359e+00 1.794624567031860352e+00
1.928000000000000000e+03 3.963670730590820312e+01 8.932666778564453125e+00 2.006815522909164429e-01 1.856517434120178223e+00 6.171597242355346680e-01 6.448709368705749512e-01
1.929000000000000000e+03 5.931484985351562500e+01 3.097902679443359375e+01 1.381452322006225586e+00 1.046556282043457031e+01 3.554104566574096680e+00 -4.500835761427879333e-02
1.930000000000000000e+03 7.306027221679687500e+01 -2.281890678405761719e+01 -2.022747509181499481e-02 7.605593681335449219e+00 2.275609731674194336e+00 4.083458185195922852e-01
1.931000000000000000e+03 5.755934906005859375e+01 2.958407783508300781e+01 8.250058293342590332e-01 1.065473937988281250e+01 3.443923711776733398e+00 7.088764905929565430e-01
1.932000000000000000e+03 4.412237167358398438e+01 1.596689796447753906e+01 2.331709414720535278e-01 2.786854982376098633e+00 9.060077667236328125e-01 1.149836540222167969e+00
1.933000000000000000e+03 4.053118515014648438e+01 1.365391445159912109e+01 2.675054669380187988e-01 1.805173993110656738e+00 6.218038201332092285e-01 7.869424223899841309e-01
1.934000000000000000e+03 3.471941375732421875e+01 -5.320711612701416016e+00 3.676018714904785156e-01 1.114806294441223145e+00 4.447224438190460205e-01 -1.377826482057571411e-01
1.935000000000000000e+03 7.295705413818359375e+01 -1.508876705169677734e+01 -6.701917201280593872e-02 7.882469654083251953e+00 2.344635009765625000e+00 3.411202728748321533e-01
1.936000000000000000e+03 6.120242309570312500e+01 3.705133056640625000e+01 1.146508574485778809e+00 1.083922576904296875e+01 3.595720291137695312e+00 9.719964861869812012e-01
1.937000000000000000e+03 7.209712982177734375e+01 -8.329540252685546875e+00 -9.768230468034744263e-02 7.967022895812988281e+00 2.360802173614501953e+00 2.378283441066741943e-01
1.938000000000000000e+03 7.405819702148437500e+01 7.228656411170959473e-01 -9.204579889774322510e-02 8.349509239196777344e+00 2.477238893508911133e+00 -4.033744800835847855e-03
1.939000000000000000e+03 1.468731784820556641e+01 1.630189704895019531e+01 -1.174743056297302246e+00 4.557921409606933594e+00 1.014953494071960449e+00 -2.099736928939819336e-01
1.940000000000000000e+03 7.273652648925781250e+01 7.692256927490234375e+00 -1.594135612249374390e-01 8.200288772583007812e+00 2.412262439727783203e+00 -2.129594385623931885e-01
1.941000000000000000e+03 8.165465354919433594e+00 -2.934797668457031250e+01 -1.513751745223999023e-01 2.803023815155029297e+00 7.954946160316467285e-01 2.799256145954132080e-01
1.942000000000000000e+03 7.811196804046630859e+00 -2.784540176391601562e+01 -1.770113557577133179e-01 2.759156942367553711e+00 7.746436595916748047e-01 3.337210416793823242e-01
1.943000000000000000e+03 2.701342391967773438e+01 3.202415847778320312e+01 -5.255167484283447266e-01 7.415088415145874023e-01 6.479763239622116089e-02 -2.658557891845703125e-01
1.944000000000000000e+03 2.819857025146484375e+01 3.059668540954589844e+01 -5.831502079963684082e-01 4.204363226890563965e-01 -4.881416633725166321e-02 -3.075324892997741699e-01
1.945000000000000000e+03 4.860691452026367188e+01 -2.875584793090820312e+01 3.075459301471710205e-01 6.355850696563720703e+00 1.999019026756286621e+00 4.997871071100234985e-02
1.946000000000000000e+03 4.641273498535156250e+01 2.024247550964355469e+01 4.211603999137878418e-01 3.392937421798706055e+00 1.144229292869567871e+00 1.607197284698486328e+00
1.947000000000000000e+03 7.079909515380859375e+01 2.822819900512695312e+01 1.820282340049743652e-01 7.972539424896240234e+00 2.446370363235473633e+00 -7.567368149757385254e-01
1.948000000000000000e+03 1.057365512847900391e+01 -2.726604700088500977e+00 2.927914619445800781e+00 3.413302421569824219e+00 1.902365088462829590e+00 3.233872413635253906e+00
1.949000000000000000e+03 1.284051799774169922e+01 -5.282870292663574219e+00 -8.754013776779174805e-01 1.057310867309570312e+01 2.909312009811401367e+00 9.310816526412963867e-01
1.950000000000000000e+03 1.208187389373779297e+01 -3.859254598617553711e+00 2.551407814025878906e-01 1.052495574951171875e+01 3.234029054641723633e+00 3.411315917968750000e+00
1.951000000000000000e+03 9.545385360717773438e+00 -3.721079111099243164e+00 1.935840845108032227e+00 2.668482065200805664e+00 1.381296873092651367e+00 2.117713928222656250e+00
1.952000000000000000e+03 1.024146556854248047e+01 -2.265175580978393555e+00 2.558938741683959961e+00 1.862519025802612305e+00 1.326437234878540039e+00 2.181811809539794922e+00
1.953000000000000000e+03 5.712365627288818359e+00 7.025430202484130859e+00 1.520388603210449219e+00 1.579915165901184082e+00 9.300911426544189453e-01 -1.652039766311645508e+00
1.954000000000000000e+03 7.606602191925048828e+00 -5.535629749298095703e+00 1.099010825157165527e+00 1.773614406585693359e+00 8.617875576019287109e-01 1.113017916679382324e+00
1.955000000000000000e+03 8.645998001098632812e+00 -5.023854732513427734e+00 1.321241021156311035e+00 2.545730352401733398e+00 1.160091400146484375e+00 1.593228340148925781e+00
1.956000000000000000e+03 7.338181495666503906e+00 5.608225345611572266e+00 2.769105911254882812e+00 1.878320574760437012e+00 1.394227981567382812e+00 -2.199206829071044922e+00
1.957000000000000000e+03 5.775079250335693359e+00 -5.678994178771972656e+00 7.688516974449157715e-01 8.536022305488586426e-01 4.867361783981323242e-01 4.493220448493957520e-01
1.958000000000000000e+03 9.595987319946289062e+00 5.034995555877685547e+00 3.995454311370849609e+00 4.847523689270019531e+00 2.652893304824829102e+00 -4.107546806335449219e+00
1.959000000000000000e+03 9.130452156066894531e+00 6.431162357330322266e+00 2.654572010040283203e+00 5.025110244750976562e+00 2.303904771804809570e+00 -3.751562118530273438e+00
1.960000000000000000e+03 1.466647338867187500e+01 -6.502448558807373047e+00 -6.742913126945495605e-01 9.026144027709960938e+00 2.505555868148803711e+00 -1.708079814910888672e+00
1.961000000000000000e+03 1.501773738861083984e+01 -4.037244796752929688e+00 -5.104380846023559570e-02 1.194685935974121094e+01 3.568744897842407227e+00 -3.633905172348022461e+00
1.962000000000000000e+03 9.777081489562988281e+00 4.540257930755615234e+00 4.337426662445068359e+00 4.949160575866699219e+00 2.785976171493530273e+00 -3.966704368591308594e+00
1.963000000000000000e+03 7.142609119415283203e+00 1.098989963531494141e+01 5.479961633682250977e-02 4.145319938659667969e+00 1.260035872459411621e+00 -2.447092771530151367e+00
1.964000000000000000e+03 1.145299339294433594e+01 1.647926330566406250e+01 -1.156851768493652344e+00 4.979305267333984375e+00 1.146736025810241699e+00 -9.942448139190673828e-01
1.965000000000000000e+03 1.565950202941894531e+01 -7.055002689361572266e+00 -1.605524122714996338e-01 8.031739234924316406e+00 2.361356019973754883e+00 -2.432829618453979492e+00
1.966000000000000000e+03 1.610720252990722656e+01 -9.082901000976562500e+00 2.337198257446289062e-01 6.827837467193603516e+00 2.118467092514038086e+00 -1.820348143577575684e+00
1.967000000000000000e+03 3.442585754394531250e+01 3.348533868789672852e+00 4.742635786533355713e-01 9.013537764549255371e-01 4.126852154731750488e-01 3.136770725250244141e-01
1.968000000000000000e+03 3.710733032226562500e+01 5.852527618408203125e+00 4.009641706943511963e-01 1.395842790603637695e+00 5.390420556068420410e-01 4.407654702663421631e-01
1.969000000000000000e+03 7.710209369659423828e+00 -1.494481945037841797e+01 -1.398316174745559692e-01 2.986357212066650391e+00 8.539576530456542969e-01 7.846080660820007324e-01
1.970000000000000000e+03 8.110516548156738281e+00 -1.065245628356933594e+01 7.504408061504364014e-02 3.232844352722167969e+00 9.923665523529052734e-01 1.015867829322814941e+00
1.971000000000000000e+03 4.546203613281250000e+01 1.789505004882812500e+01 2.622227668762207031e-01 3.156348466873168945e+00 1.025571346282958984e+00 1.334150552749633789e+00
1.972000000000000000e+03 4.966685104370117188e+01 2.012983322143554688e+01 7.983827590942382812e-02 5.005811214447021484e+00 1.525694847106933594e+00 1.684494256973266602e+00
1.973000000000000000e+03 4.759400177001953125e+01 1.715633392333984375e+01 5.633741244673728943e-02 4.095807075500488281e+00 1.245643258094787598e+00 1.388766527175903320e+00
1.974000000000000000e+03 1.082218742370605469e+01 5.387629985809326172e+00 3.636420965194702148e+00 9.174821853637695312e+00 3.843372821807861328e+00 -5.015711784362792969e+00
1.975000000000000000e+03 1.021988201141357422e+01 7.222090244293212891e+00 1.258101940155029297e+00 7.713379859924316406e+00 2.691444396972656250e+00 -3.970086574554443359e+00
1.976000000000000000e+03 1.604173088073730469e+01 -1.504176235198974609e+01 -7.991335541009902954e-02 5.139358520507812500e+00 1.517833471298217773e+00 -4.914727509021759033e-01
1.977000000000000000e+03 1.739962196350097656e+01 -1.620122909545898438e+01 -2.939649857580661774e-02 4.965085506439208984e+00 1.480706691741943359e+00 -7.086696624755859375e-01
1.978000000000000000e+03 5.703536987304687500e+00 -8.145255088806152344e+00 4.681020379066467285e-01 1.482152223587036133e+00 5.850762724876403809e-01 7.507994771003723145e-01
1.979000000000000000e+03 5.863941669464111328e+00 -7.468899250030517578e+00 6.285960078239440918e-01 1.424435973167419434e+00 6.159095764160156250e-01 7.533617615699768066e-01
1.980000000000000000e+03 3.206548690795898438e+01 -1.980742812156677246e+00 5.497832298278808594e-01 5.386933684349060059e-01 3.265429735183715820e-01 -6.751447170972824097e-02
1.981000000000000000e+03 1.590328884124755859e+01 -8.078463554382324219e+00 1.294128596782684326e-01 7.473659038543701172e+00 2.280921459197998047e+00 -2.137651443481445312e+00
1.982000000000000000e+03 1.526851749420166016e+01 -9.443859100341796875e+00 -6.846635043621063232e-02 6.917348861694335938e+00 2.054664850234985352e+00 -1.287677884101867676e+00
1.983000000000000000e+03 3.891682434082031250e+01 -6.917515277862548828e+00 6.278848648071289062e-02 2.121519088745117188e+00 6.552922725677490234e-01 -1.206765845417976379e-01
1.984000000000000000e+03 4.054382705688476562e+01 -1.185282611846923828e+01 -1.180393919348716736e-01 2.654642343521118164e+00 7.609808444976806641e-01 -3.241014480590820312e-01
1.985000000000000000e+03 4.022929763793945312e+01 -1.297752189636230469e+01 -1.150115653872489929e-01 2.563310146331787109e+00 7.344895601272583008e-01 -3.252080678939819336e-01
1.986000000000000000e+03 5.372112655639648438e+01 2.267615127563476562e+01 -2.219212949275970459e-01 7.289389133453369141e+00 2.120240211486816406e+00 1.475846529006958008e+00
1.987000000000000000e+03 5.602674865722656250e+01 2.458586120605468750e+01 -2.510072886943817139e-01 8.612650871276855469e+00 2.508493185043334961e+00 9.760455489158630371e-01
1.988000000000000000e+03 9.994738578796386719e+00 1.338868141174316406e+01 -9.670761227607727051e-01 5.565699100494384766e+00 1.379586815834045410e+00 -1.701396226882934570e+00
1.989000000000000000e+03 6.862462997436523438e+00 9.048980712890625000e+00 8.649819493293762207e-01 3.424260616302490234e+00 1.286772727966308594e+00 -2.558853626251220703e+00
1.990000000000000000e+03 1.669647598266601562e+01 -1.305773925781250000e+01 1.427620500326156616e-01 5.625731468200683594e+00 1.730548143386840820e+00 -9.354850053787231445e-01
1.991000000000000000e+03 1.622886657714843750e+01 -1.391816329956054688e+01 3.058541798964142799e-03 5.352369785308837891e+00 1.606628417968750000e+00 -6.840603947639465332e-01
1.992000000000000000e+03 2.009872817993164062e+01 -2.048517799377441406e+01 -2.455574274063110352e-02 4.026066303253173828e+00 1.200453162193298340e+00 -8.450820446014404297e-01
1.993000000000000000e+03 7.275955963134765625e+01 1.439911937713623047e+01 -1.622798293828964233e-01 8.124418258666992188e+00 2.388641357421875000e+00 -4.758622944355010986e-01
1.994000000000000000e+03 3.969876861572265625e+01 -1.114101314544677734e+01 -3.093236684799194336e-02 2.390114068984985352e+00 7.077544927597045898e-01 -2.890338897705078125e-01
1.995000000000000000e+03 3.745065307617187500e+01 -8.997786521911621094e+00 -5.048789083957672119e-03 1.787361502647399902e+00 5.346937775611877441e-01 -2.468970865011215210e-01
1.996000000000000000e+03 3.881565856933593750e+01 -8.477766990661621094e+00 6.962727755308151245e-02 2.119447469711303711e+00 6.567224264144897461e-01 -2.279944717884063721e-01
1.997000000000000000e+03 5.718235778808593750e+01 2.556514739990234375e+01 -1.285867840051651001e-01 9.194454193115234375e+00 2.719760179519653320e+00 7.558968067169189453e-01
1.998000000000000000e+03 5.968420410156250000e+01 2.770153999328613281e+01 3.137936592102050781e-01 9.685363769531250000e+00 2.999747276306152344e+00 1.063389703631401062e-02
1.999000000000000000e+03 4.648240280151367188e+01 -2.340633201599121094e+01 -1.854477673768997192e-01 5.083692073822021484e+00 1.469473242759704590e+00 -4.032174050807952881e-01
2.000000000000000000e+03 7.301436614990234375e+01 -2.159640121459960938e+01 -9.760595858097076416e-03 7.649885654449462891e+00 2.292037487030029297e+00 4.017628133296966553e-01
2.001000000000000000e+03 5.144926834106445312e+01 2.132930374145507812e+01 -4.935317113995552063e-02 6.004929065704345703e+00 1.786672830581665039e+00 1.686937689781188965e+00
2.002000000000000000e+03 7.267894744873046875e+01 -5.782076716423034668e-01 -1.275022178888320923e-01 8.161501884460449219e+00 2.410199880599975586e+00 3.912873566150665283e-02
2.003000000000000000e+03 7.077212524414062500e+01 -5.256883144378662109e+00 -1.419892609119415283e-01 7.872803211212158203e+00 2.319244146347045898e+00 1.866338998079299927e-01
2.004000000000000000e+03 7.274838256835937500e+01 3.652212619781494141e+00 -1.289790272712707520e-01 8.198952674865722656e+00 2.420992136001586914e+00 -8.404741436243057251e-02
2.005000000000000000e+03 2.191096687316894531e+01 -2.978902053833007812e+01 -7.872578501701354980e-02 2.928370475769042969e+00 8.548933863639831543e-01 -4.294212460517883301e-01
2.006000000000000000e+03 6.608376026153564453e+00 -8.900856018066406250e+00 4.206521511077880859e-01 2.149379968643188477e+00 7.710096240043640137e-01 9.872310161590576172e-01
2.007000000000000000e+03 1.588790607452392578e+01 -1.248803234100341797e+01 6.986262649297714233e-02 5.727566719055175781e+00 1.739228725433349609e+00 -7.730273008346557617e-01
2.008000000000000000e+03 7.184226226806640625e+01 2.508155250549316406e+01 3.191169723868370056e-02 7.895392894744873047e+00 2.378191471099853516e+00 -7.737787961959838867e-01
2.009000000000000000e+03 6.995426654815673828e+00 2.261838912963867188e+01 -4.663721919059753418e-01 4.379695892333984375e+00 1.173997163772583008e+00 -8.594964742660522461e-01
2.010000000000000000e+03 8.970281600952148438e+00 2.441920280456542969e+01 -5.337939858436584473e-01 4.249114513397216797e+00 1.114596128463745117e+00 -7.023501396179199219e-01
2.011000000000000000e+03 7.737758636474609375e+00 -1.624079513549804688e+01 -2.119020670652389526e-01 2.938487768173217773e+00 8.179756999015808105e-01 7.244777083396911621e-01
2.012000000000000000e+03 7.176009368896484375e+01 -1.647217941284179688e+01 -7.508591562509536743e-02 7.723495960235595703e+00 2.294523000717163086e+00 3.991219401359558105e-01
2.013000000000000000e+03 7.120471191406250000e+01 -7.087950706481933594e+00 -1.321335285902023315e-01 7.894619464874267578e+00 2.328745841979980469e+00 2.250691652297973633e-01
2.014000000000000000e+03 7.270311737060546875e+01 6.358086109161376953e+00 -1.407071053981781006e-01 8.202443122863769531e+00 2.418520689010620117e+00 -1.762396395206451416e-01
2.015000000000000000e+03 7.024600982666015625e+01 3.859061002731323242e+00 -2.055639326572418213e-01 7.939661026000976562e+00 2.320229053497314453e+00 -7.572682946920394897e-02
2.016000000000000000e+03 7.124626159667968750e+01 -1.015449714660644531e+01 -1.100195795297622681e-01 7.826016426086425781e+00 2.314799070358276367e+00 2.961874306201934814e-01
2.017000000000000000e+03 7.280393218994140625e+01 1.303789615631103516e+01 -1.738456785678863525e-01 8.150905609130859375e+00 2.393118143081665039e+00 -4.139565229415893555e-01
2.018000000000000000e+03 7.143395233154296875e+01 1.297453689575195312e+01 -2.152458131313323975e-01 8.098364830017089844e+00 2.364935636520385742e+00 -4.321296811103820801e-01
2.019000000000000000e+03 7.150732421875000000e+01 -3.013867616653442383e+00 -1.366532295942306519e-01 7.993372917175292969e+00 2.357015848159790039e+00 1.163609996438026428e-01
2.020000000000000000e+03 7.279975891113281250e+01 2.011141014099121094e+01 -1.133937686681747437e-01 7.975319862365722656e+00 2.358577728271484375e+00 -6.776429414749145508e-01
2.021000000000000000e+03 6.362516880035400391e+00 -8.034371376037597656e+00 5.481143593788146973e-01 1.826678991317749023e+00 7.124379873275756836e-01 9.057080149650573730e-01
2.022000000000000000e+03 1.789446640014648438e+01 -2.390717315673828125e+01 -2.137854099273681641e-01 3.636425256729125977e+00 1.026791930198669434e+00 -3.372444808483123779e-01
2.023000000000000000e+03 7.324944972991943359e+00 -2.299162101745605469e+01 -1.943374574184417725e-01 2.735207557678222656e+00 7.622609734535217285e-01 4.852072298526763916e-01
2.024000000000000000e+03 5.873506069183349609e+00 -2.309635162353515625e+01 -1.247449666261672974e-01 2.501905441284179688e+00 7.131481766700744629e-01 4.726477861404418945e-01
2.025000000000000000e+03 4.265353012084960938e+01 -1.671035385131835938e+01 -2.349851131439208984e-01 3.353047370910644531e+00 9.354186654090881348e-01 -4.183381199836730957e-01
2.026000000000000000e+03 4.097646713256835938e+01 -1.477042293548583984e+01 -1.351858228445053101e-01 2.799501180648803711e+00 7.992946505546569824e-01 -3.648401200771331787e-01
2.027000000000000000e+03 7.289783477783203125e+01 -1.379076194763183594e+01 -6.052063778042793274e-02 7.918246746063232422e+00 2.357317686080932617e+00 3.213705122470855713e-01
2.028000000000000000e+03 8.756043434143066406e+00 1.607451820373535156e+01 -8.986377120018005371e-01 4.724097728729248047e+00 1.147637963294982910e+00 -1.556585431098937988e+00
2.029000000000000000e+03 3.921418762207031250e+01 -9.914007186889648438e+00 -8.195418119430541992e-02 2.230832099914550781e+00 6.446633934974670410e-01 -2.522798776626586914e-01
2.030000000000000000e+03 8.025342941284179688e+00 1.947281074523925781e+01 -6.825520396232604980e-01 4.415964603424072266e+00 1.120023727416992188e+00 -1.184472203254699707e+00
2.031000000000000000e+03 7.734655380249023438e+00 -1.358183002471923828e+01 -1.188250482082366943e-01 3.014995098114013672e+00 8.688510060310363770e-01 8.320301175117492676e-01
2.032000000000000000e+03 6.836314201354980469e+00 -1.893611717224121094e+01 -1.635519415140151978e-01 2.660607099533081055e+00 7.491165399551391602e-01 6.374869346618652344e-01
2.033000000000000000e+03 7.166714668273925781e+00 7.269917964935302734e+00 1.872261881828308105e+00 2.853195190429687500e+00 1.417637109756469727e+00 -2.573531389236450195e+00
2.034000000000000000e+03 7.153421020507812500e+01 1.167589378356933594e+01 -2.242723107337951660e-01 8.106204986572265625e+00 2.364579677581787109e+00 -3.706769645214080811e-01
2.035000000000000000e+03 1.162311649322509766e+01 2.945402336120605469e+01 -4.450801908969879150e-01 3.773283720016479492e+00 9.984610676765441895e-01 -3.889066576957702637e-01
2.036000000000000000e+03 1.284017944335937500e+01 1.334826946258544922e+01 -1.251409053802490234e+00 5.928456783294677734e+00 1.403114199638366699e+00 -7.521072030067443848e-01
2.037000000000000000e+03 1.131819438934326172e+01 9.870162010192871094e+00 -8.600354194641113281e-01 7.638875007629394531e+00 2.033651828765869141e+00 -2.027353286743164062e+00
2.038000000000000000e+03 6.671150684356689453e+00 1.246229553222656250e+01 -2.907617092132568359e-01 4.024368286132812500e+00 1.120081901550292969e+00 -2.159652709960937500e+00
2.039000000000000000e+03 1.954907989501953125e+01 1.767637443542480469e+01 -7.344740629196166992e-01 2.469226598739624023e+00 5.204257965087890625e-01 2.390445023775100708e-01
2.040000000000000000e+03 7.173817443847656250e+01 -2.993276596069335938e+01 9.922651946544647217e-02 7.275863647460937500e+00 2.212527036666870117e+00 4.025343060493469238e-01
2.041000000000000000e+03 6.810134124755859375e+01 -2.854583358764648438e+01 1.248927935957908630e-01 7.153892040252685547e+00 2.183635473251342773e+00 5.033169388771057129e-01
2.042000000000000000e+03 7.185623168945312500e+01 -1.899679565429687500e+01 -5.629134178161621094e-02 7.653706073760986328e+00 2.279224395751953125e+00 4.283442795276641846e-01
2.043000000000000000e+03 7.299935913085937500e+01 -2.032694435119628906e+01 -3.426217287778854370e-02 7.697555065155029297e+00 2.298987865447998047e+00 3.971785008907318115e-01
2.044000000000000000e+03 1.198636436462402344e+01 1.139442348480224609e+01 -1.171359658241271973e+00 6.852456569671630859e+00 1.704329013824462891e+00 -1.294652819633483887e+00
2.045000000000000000e+03 7.282728576660156250e+01 2.151304626464843750e+01 -8.579660952091217041e-02 7.917503356933593750e+00 2.349512100219726562e+00 -7.008336186408996582e-01
2.046000000000000000e+03 7.126972961425781250e+01 1.879210853576660156e+01 -1.791524440050125122e-01 8.057544708251953125e+00 2.363517522811889648e+00 -6.704546809196472168e-01
2.047000000000000000e+03 7.079745483398437500e+01 -8.998878479003906250e+00 -1.345732212066650391e-01 7.800039768218994141e+00 2.299639940261840820e+00 2.801617383956909180e-01
2.048000000000000000e+03 9.817963600158691406e+00 1.445482444763183594e+01 -1.037317872047424316e+00 5.214475154876708984e+00 1.253147125244140625e+00 -1.614894628524780273e+00
2.049000000000000000e+03 3.865921401977539062e+01 7.913644313812255859e+00 3.119274675846099854e-01 1.651714444160461426e+00 5.890925526618957520e-01 5.616895556449890137e-01
2.050000000000000000e+03 3.975629806518554688e+01 7.136642932891845703e+00 2.127097696065902710e-01 1.957447648048400879e+00 6.510472297668457031e-01 5.840437412261962891e-01
2.051000000000000000e+03 3.213847732543945312e+01 -2.568886801600456238e-02 6.161844134330749512e-01 5.243787169456481934e-01 3.421689271926879883e-01 8.736847341060638428e-02
2.052000000000000000e+03 3.029680061340332031e+01 2.048529982566833496e-01 7.304486036300659180e-01 2.358187586069107056e-01 2.898802161216735840e-01 1.083301976323127747e-01
2.053000000000000000e+03 7.047679138183593750e+01 -2.772248268127441406e+01 7.782676070928573608e-02 7.288990020751953125e+00 2.210045099258422852e+00 4.659810662269592285e-01
2.054000000000000000e+03 1.948593902587890625e+01 1.985152435302734375e+01 -7.977775335311889648e-01 2.465486764907836914e+00 5.003127455711364746e-01 8.027127385139465332e-02
2.055000000000000000e+03 7.200879669189453125e+01 2.721245574951171875e+01 1.402640938758850098e-01 7.795655727386474609e+00 2.380775928497314453e+00 -7.396222352981567383e-01
2.056000000000000000e+03 7.095740509033203125e+01 2.589170074462890625e+01 5.698626860976219177e-02 8.026195526123046875e+00 2.424954652786254883e+00 -8.024340867996215820e-01
2.057000000000000000e+03 3.777960586547851562e+01 6.895285606384277344e+00 2.685772180557250977e-01 1.505471587181091309e+00 5.322146415710449219e-01 5.013921856880187988e-01
2.058000000000000000e+03 4.062451171875000000e+01 1.181074523925781250e+01 2.439037859439849854e-01 1.967138886451721191e+00 6.633127927780151367e-01 7.603899836540222168e-01
2.059000000000000000e+03 4.252687835693359375e+01 1.390571498870849609e+01 2.197642028331756592e-01 2.392107009887695312e+00 7.835614085197448730e-01 9.514721035957336426e-01
2.060000000000000000e+03 6.787570190429687500e+01 2.739766502380371094e+01 1.686413586139678955e-01 8.408630371093750000e+00 2.573181629180908203e+00 -7.440624833106994629e-01
2.061000000000000000e+03 3.566951751708984375e+01 -4.759378731250762939e-01 4.052076637744903564e-01 1.228609561920166016e+00 4.901451468467712402e-01 1.010818704962730408e-01
2.062000000000000000e+03 3.383051681518554688e+01 -4.201636314392089844e+00 3.322521150112152100e-01 9.092811346054077148e-01 3.724599778652191162e-01 -1.571287214756011963e-01
2.063000000000000000e+03 4.619802856445312500e+01 -2.445810890197753906e+01 -2.376717180013656616e-01 5.151726245880126953e+00 1.474216341972351074e+00 -4.228074848651885986e-01
2.064000000000000000e+03 7.258718872070312500e+01 8.444457650184631348e-01 -1.190902292728424072e-01 8.162532806396484375e+00 2.413032770156860352e+00 -8.918363600969314575e-04
2.065000000000000000e+03 7.109970855712890625e+01 1.157330036163330078e+00 -1.758565455675125122e-01 7.999406814575195312e+00 2.347064971923828125e+00 1.011745631694793701e-02
2.066000000000000000e+03 7.054724884033203125e+01 -1.411769539117813110e-02 -1.767638623714447021e-01 7.924201965332031250e+00 2.324231386184692383e+00 4.181986302137374878e-02
2.067000000000000000e+03 3.334030914306640625e+01 2.699847459793090820e+00 6.414282917976379395e-01 7.263627648353576660e-01 4.103372991085052490e-01 2.325316369533538818e-01
2.068000000000000000e+03 8.300439834594726562e+00 1.146967124938964844e+01 -4.016936123371124268e-01 5.066795825958251953e+00 1.399530649185180664e+00 -2.415618181228637695e+00
2.069000000000000000e+03 7.117616271972656250e+01 6.420678615570068359e+00 -2.128346562385559082e-01 8.056371688842773438e+00 2.353061199188232422e+00 -1.669598966836929321e-01
2.070000000000000000e+03 6.998706054687500000e+01 -6.115470409393310547e+00 -1.708274185657501221e-01 7.746698856353759766e+00 2.272761344909667969e+00 2.299704551696777344e-01
2.071000000000000000e+03 3.046375846862792969e+01 2.139479160308837891e+00 6.402131915092468262e-01 2.772608399391174316e-01 2.752422094345092773e-01 2.532458603382110596e-01
2.072000000000000000e+03 7.824265003204345703e+00 9.754855155944824219e+00 3.086245954036712646e-01 4.599036693572998047e+00 1.472298383712768555e+00 -2.775068521499633789e+00
2.073000000000000000e+03 4.513745880126953125e+01 -2.021807670593261719e+01 -2.353912591934204102e-01 4.369453430175781250e+00 1.240218639373779297e+00 -3.962965309619903564e-01
2.074000000000000000e+03 4.248514175415039062e+01 -1.513901042938232422e+01 -1.689170002937316895e-01 3.236994028091430664e+00 9.204231500625610352e-01 -3.852072656154632568e-01
2.075000000000000000e+03 2.651240730285644531e+01 2.702124404907226562e+01 -5.827608108520507812e-01 6.247701644897460938e-01 1.260279864072799683e-02 -2.780740261077880859e-01
2.076000000000000000e+03 2.545508956909179688e+01 2.612033653259277344e+01 -5.908818244934082031e-01 7.851905226707458496e-01 5.829261615872383118e-02 -2.225982546806335449e-01
2.077000000000000000e+03 1.054062652587890625e+01 -2.447148323059082031e+01 -2.437827140092849731e-01 3.168089866638183594e+00 8.772921562194824219e-01 3.454147279262542725e-01
2.078000000000000000e+03 8.437733650207519531e+00 -2.591621017456054688e+01 -2.093898802995681763e-01 2.875044107437133789e+00 7.996962666511535645e-01 3.696096241474151611e-01
2.079000000000000000e+03 9.469972610473632812e+00 2.770228195190429688e+01 -4.130643606185913086e-01 4.126179695129394531e+00 1.113934636116027832e+00 -4.857631027698516846e-01
2.080000000000000000e+03 7.166544342041015625e+01 -1.521196937561035156e+01 -7.387826591730117798e-02 7.750426769256591797e+00 2.302964687347412109e+00 3.820438385009765625e-01
2.081000000000000000e+03 2.117546463012695312e+01 2.359589576721191406e+01 -6.860200762748718262e-01 1.824002861976623535e+00 3.413948416709899902e-01 -7.775891572237014771e-02
2.082000000000000000e+03 3.269795608520507812e+01 3.416473770141601562e+01 -6.276696920394897461e-01 -8.218915015459060669e-02 -2.129576653242111206e-01 -4.172472655773162842e-01
2.083000000000000000e+03 1.915104866027832031e+01 -3.245969009399414062e+01 -1.585064530372619629e-01 2.924739122390747070e+00 8.298698067665100098e-01 -1.509210169315338135e-01
2.084000000000000000e+03 2.159878349304199219e+01 -3.177671623229980469e+01 -8.943954110145568848e-02 2.803101778030395508e+00 8.140987157821655273e-01 -3.067147731781005859e-01
2.085000000000000000e+03 7.154152679443359375e+01 -3.566573715209960938e+01 1.817647516727447510e-01 7.125390529632568359e+00 2.192146539688110352e+00 2.508338093757629395e-01
2.086000000000000000e+03 7.058412933349609375e+01 -2.007473373413085938e+01 -5.046474933624267578e-02 7.516508102416992188e+00 2.239813089370727539e+00 4.776005744934082031e-01
2.087000000000000000e+03 7.150641632080078125e+01 2.019941520690917969e+01 -1.573890000581741333e-01 8.028843879699707031e+00 2.361436367034912109e+00 -6.938731670379638672e-01
2.088000000000000000e+03 3.679236602783203125e+01 4.774002552032470703e+00 3.443545997142791748e-01 1.396430730819702148e+00 5.222355723381042480e-01 3.927656710147857666e-01
2.089000000000000000e+03 1.061259269714355469e+01 3.403528594970703125e+01 -2.399847209453582764e-01 3.954427003860473633e+00 1.114332675933837891e+00 -2.032057642936706543e-01
2.090000000000000000e+03 5.926498794555664062e+01 2.974238204956054688e+01 8.011422753334045410e-01 1.034851741790771484e+01 3.344897747039794922e+00 8.356353640556335449e-02
2.091000000000000000e+03 6.972983551025390625e+01 -2.542574310302734375e+01 3.898291662335395813e-02 7.312676906585693359e+00 2.205497980117797852e+00 5.060914754867553711e-01
2.092000000000000000e+03 7.200317382812500000e+01 -2.820512199401855469e+01 5.087496712803840637e-02 7.348665714263916016e+00 2.219862222671508789e+00 4.155717194080352783e-01
2.093000000000000000e+03 2.086741256713867188e+01 -3.387160873413085938e+01 -1.710161864757537842e-01 2.776764392852783203e+00 7.817244529724121094e-01 -2.036311775445938110e-01
2.094000000000000000e+03 9.444504737854003906e+00 2.998258209228515625e+01 -3.135063052177429199e-01 4.126557350158691406e+00 1.143915414810180664e+00 -3.797183036804199219e-01
2.095000000000000000e+03 7.134174346923828125e+01 3.013586997985839844e+01 2.831755876541137695e-01 7.827028274536132812e+00 2.433061122894287109e+00 -6.286382675170898438e-01
2.096000000000000000e+03 2.289783477783203125e+01 2.244448280334472656e+01 -6.332937479019165039e-01 1.356903195381164551e+00 2.170828282833099365e-01 -6.483026593923568726e-02
2.097000000000000000e+03 8.218266487121582031e+00 -3.499565505981445312e+01 -1.181759759783744812e-01 2.762181282043457031e+00 7.932015657424926758e-01 1.433504223823547363e-01
2.098000000000000000e+03 5.226289272308349609e+00 -3.494223022460937500e+01 -6.839883327484130859e-02 2.672979831695556641e+00 7.813743352890014648e-01 1.271700412034988403e-01
2.099000000000000000e+03 5.180907058715820312e+01 2.007910919189453125e+01 -1.843875050544738770e-01 6.071987152099609375e+00 1.766279935836791992e+00 1.502602815628051758e+00
2.100000000000000000e+03 1.530815696716308594e+01 1.739500999450683594e+01 -1.118235468864440918e+00 4.192758560180664062e+00 9.223569631576538086e-01 -1.646302640438079834e-01
2.101000000000000000e+03 6.930001068115234375e+01 2.871563148498535156e+01 3.073643743991851807e-01 8.182856559753417969e+00 2.547066211700439453e+00 -7.257496714591979980e-01
2.102000000000000000e+03 4.271253204345703125e+01 1.204043102264404297e+01 1.757592856884002686e-01 2.571232795715332031e+00 8.240976333618164062e-01 8.931835889816284180e-01
2.103000000000000000e+03 4.164096832275390625e+01 -1.976300048828125000e+01 -4.114510118961334229e-02 3.138926029205322266e+00 9.293342828750610352e-01 -6.413598060607910156e-01
2.104000000000000000e+03 4.406704711914062500e+01 -2.096346092224121094e+01 -2.449697554111480713e-01 4.135087966918945312e+00 1.167035460472106934e+00 -5.642923116683959961e-01
2.105000000000000000e+03 8.469679832458496094e+00 2.660470199584960938e+01 -4.014496803283691406e-01 4.293447017669677734e+00 1.167599201202392578e+00 -5.544780492782592773e-01
2.106000000000000000e+03 9.739114761352539062e+00 2.550897407531738281e+01 -5.295100808143615723e-01 4.121352672576904297e+00 1.077552795410156250e+00 -6.194000244140625000e-01
2.107000000000000000e+03 2.512785530090332031e+01 2.830747604370117188e+01 -5.897083878517150879e-01 1.003120422363281250e+00 1.240236014127731323e-01 -1.882063299417495728e-01
2.108000000000000000e+03 2.839258766174316406e+01 3.373116302490234375e+01 -6.086972951889038086e-01 4.832378625869750977e-01 -3.763782978057861328e-02 -2.478694915771484375e-01
2.109000000000000000e+03 3.086578559875488281e+01 3.008197975158691406e+01 -6.465189456939697266e-01 -6.010499969124794006e-02 -2.119871824979782104e-01 -4.071093201637268066e-01
2.110000000000000000e+03 9.894390106201171875e+00 -2.884675216674804688e+01 -2.298815548419952393e-01 2.930890321731567383e+00 8.103026151657104492e-01 2.693482041358947754e-01
2.111000000000000000e+03 9.345623016357421875e+00 -2.710370063781738281e+01 -1.968799680471420288e-01 2.946169376373291016e+00 8.247868418693542480e-01 3.247482478618621826e-01
2.112000000000000000e+03 1.809047889709472656e+01 2.199165916442871094e+01 -8.378683328628540039e-01 2.786750316619873047e+00 5.846645832061767578e-01 -1.034512817859649658e-01
2.113000000000000000e+03 1.688753700256347656e+01 1.795513725280761719e+01 -9.949101805686950684e-01 3.518204212188720703e+00 7.569882273674011230e-01 6.075909361243247986e-02
2.114000000000000000e+03 4.828229904174804688e+01 -2.550083351135253906e+01 -1.032032594084739685e-01 5.800434112548828125e+00 1.709169268608093262e+00 -7.312396168708801270e-02
2.115000000000000000e+03 5.291559982299804688e+01 -3.140164375305175781e+01 7.109712958335876465e-01 6.621604919433593750e+00 2.199772834777832031e+00 4.068193435668945312e-01
2.116000000000000000e+03 5.028262329101562500e+01 -2.673446273803710938e+01 6.286451965570449829e-02 6.199800014495849609e+00 1.878799438476562500e+00 2.281294167041778564e-01
2.117000000000000000e+03 1.824855804443359375e+01 -1.908907508850097656e+01 -1.293901652097702026e-01 4.310201168060302734e+00 1.254243373870849609e+00 -6.623485088348388672e-01
2.118000000000000000e+03 1.091889572143554688e+01 -3.213926315307617188e+00 2.356785058975219727e+00 5.419666290283203125e+00 2.332935333251953125e+00 3.872511863708496094e+00
2.119000000000000000e+03 1.144530200958251953e+01 -3.913824558258056641e+00 1.038725018501281738e+00 7.921114444732666016e+00 2.687951803207397461e+00 3.627429485321044922e+00
2.120000000000000000e+03 1.336198902130126953e+01 -4.744130611419677734e+00 -1.115531921386718750e+00 1.218635845184326172e+01 3.321248054504394531e+00 1.820892211981117725e-03
2.121000000000000000e+03 1.387374973297119141e+01 -5.322936058044433594e+00 -9.299113154411315918e-01 1.102556991577148438e+01 3.028697729110717773e+00 -9.924618601799011230e-01
2.122000000000000000e+03 9.079689979553222656e+00 -4.333570480346679688e+00 1.640457749366760254e+00 2.542357921600341797e+00 1.254844665527343750e+00 1.867664575576782227e+00
2.123000000000000000e+03 8.111127853393554688e+00 -5.022723197937011719e+00 1.296802997589111328e+00 1.930124759674072266e+00 9.680783748626708984e-01 1.297079205513000488e+00
2.124000000000000000e+03 1.083992004394531250e+01 -4.050715923309326172e+00 1.506864428520202637e+00 5.880240440368652344e+00 2.216131448745727539e+00 3.355835914611816406e+00
2.125000000000000000e+03 1.249118900299072266e+01 -4.286392211914062500e+00 -4.742960035800933838e-01 1.138046455383300781e+01 3.271850585937500000e+00 2.344932079315185547e+00
2.126000000000000000e+03 7.455008983612060547e+00 -6.075146198272705078e+00 9.721387028694152832e-01 1.964321732521057129e+00 8.809381127357482910e-01 1.148590207099914551e+00
2.127000000000000000e+03 1.208995819091796875e+01 -4.728147029876708984e+00 -2.138068377971649170e-01 9.629549980163574219e+00 2.824722766876220703e+00 2.272624492645263672e+00
2.128000000000000000e+03 1.291592502593994141e+01 -4.658085823059082031e+00 -9.450147747993469238e-01 1.153935813903808594e+01 3.178303003311157227e+00 1.020164012908935547e+00
2.129000000000000000e+03 7.609641075134277344e+00 -5.059941768646240234e+00 1.199317932128906250e+00 1.569997787475585938e+00 8.307947516441345215e-01 1.056154012680053711e+00
2.130000000000000000e+03 7.488044738769531250e+00 -6.773750305175781250e+00 8.542385101318359375e-01 2.223588705062866211e+00 9.233481884002685547e-01 1.170043826103210449e+00
2.131000000000000000e+03 8.119281768798828125e+00 5.850906372070312500e+00 2.793451547622680664e+00 2.955610513687133789e+00 1.724718689918518066e+00 -2.772536993026733398e+00
2.132000000000000000e+03 1.015968322753906250e+01 5.431063652038574219e+00 3.888337850570678711e+00 6.559200286865234375e+00 3.134261369705200195e+00 -4.864482402801513672e+00
2.133000000000000000e+03 1.488888359069824219e+01 -5.505854129791259766e+00 -6.007398962974548340e-01 1.003097438812255859e+01 2.829070329666137695e+00 -2.460049390792846680e+00
2.134000000000000000e+03 1.408309459686279297e+01 -7.486566543579101562e+00 -6.055034399032592773e-01 8.102197647094726562e+00 2.249008417129516602e+00 -9.414997696876525879e-01
2.135000000000000000e+03 8.640303611755371094e+00 -1.177553272247314453e+01 -4.452022910118103027e-02 3.490490198135375977e+00 1.033790946006774902e+00 9.197291731834411621e-01
2.136000000000000000e+03 9.623288154602050781e+00 5.554672718048095703e+00 3.493912458419799805e+00 4.932363510131835938e+00 2.527882814407348633e+00 -3.865989208221435547e+00
2.137000000000000000e+03 8.479275703430175781e+00 7.456094264984130859e+00 1.802953243255615234e+00 4.354636192321777344e+00 1.847276806831359863e+00 -3.254339694976806641e+00
2.138000000000000000e+03 1.404077816009521484e+01 -6.650028705596923828e+00 -7.015587687492370605e-01 9.115112304687500000e+00 2.524065971374511719e+00 -1.040076971054077148e+00
2.139000000000000000e+03 7.724146842956542969e+00 8.122267723083496094e+00 1.297287702560424805e+00 3.976860284805297852e+00 1.582244396209716797e+00 -3.009664297103881836e+00
2.140000000000000000e+03 7.171729278564453125e+01 -1.910434603691101074e+00 -1.371303200721740723e-01 8.042706489562988281e+00 2.371672868728637695e+00 8.818440139293670654e-02
2.141000000000000000e+03 7.133841705322265625e+01 2.468983173370361328e+00 -1.620127558708190918e-01 8.040174484252929688e+00 2.363448381423950195e+00 -4.257012158632278442e-02
2.142000000000000000e+03 1.436169624328613281e+01 -4.028823375701904297e+00 -7.767906785011291504e-01 1.318916988372802734e+01 3.723713636398315430e+00 -2.632417440414428711e+00
2.143000000000000000e+03 9.061676979064941406e+00 1.756751251220703125e+01 -8.740198016166687012e-01 4.624707221984863281e+00 1.125206232070922852e+00 -1.326313853263854980e+00
2.144000000000000000e+03 1.380393505096435547e+01 1.536454677581787109e+01 -1.238842487335205078e+00 5.155450344085693359e+00 1.174982309341430664e+00 -3.982311785221099854e-01
2.145000000000000000e+03 5.441337203979492188e+01 2.125680732727050781e+01 -3.778403103351593018e-01 7.323925971984863281e+00 2.083825588226318359e+00 1.231092453002929688e+00
2.146000000000000000e+03 5.562416458129882812e+01 2.239176368713378906e+01 -4.097195565700531006e-01 7.927455425262451172e+00 2.255320787429809570e+00 9.813030362129211426e-01
2.147000000000000000e+03 3.747055816650390625e+01 -4.241348266601562500e+00 1.983180195093154907e-01 1.719081044197082520e+00 5.752196907997131348e-01 -8.581715077161788940e-02
2.148000000000000000e+03 3.387611770629882812e+01 -2.215241432189941406e+00 4.459911286830902100e-01 8.844712972640991211e-01 3.991387188434600830e-01 -4.726829752326011658e-02
2.149000000000000000e+03 7.003240203857421875e+01 4.905190467834472656e+00 -2.377844154834747314e-01 7.928271770477294922e+00 2.307146072387695312e+00 -1.041612103581428528e-01
2.150000000000000000e+03 8.892281532287597656e+00 -1.624405288696289062e+01 -2.130768895149230957e-01 3.312841653823852539e+00 9.299294352531433105e-01 6.828967928886413574e-01
2.151000000000000000e+03 6.945720672607421875e+01 -4.979872226715087891e+00 -1.911412775516510010e-01 7.703116416931152344e+00 2.253592491149902344e+00 2.034716159105300903e-01
2.152000000000000000e+03 7.116437530517578125e+01 -4.156796932220458984e+00 -1.417401432991027832e-01 7.931303024291992188e+00 2.336868762969970703e+00 1.565456688404083252e-01
2.153000000000000000e+03 3.565873336791992188e+01 -2.364476919174194336e+00 3.522383570671081543e-01 1.259466648101806641e+00 4.835115075111389160e-01 -1.906568929553031921e-02
2.154000000000000000e+03 3.496614074707031250e+01 2.235074996948242188e+00 5.700968503952026367e-01 1.027102112770080566e+00 4.791597127914428711e-01 2.215715795755386353e-01
2.155000000000000000e+03 1.513614082336425781e+01 -1.186790180206298828e+01 2.660753950476646423e-02 5.786537170410156250e+00 1.743943452835083008e+00 -6.978068351745605469e-01
2.156000000000000000e+03 1.530737686157226562e+01 -1.357929325103759766e+01 -5.727363005280494690e-02 5.419868469238281250e+00 1.608778357505798340e+00 -5.022910833358764648e-01
2.157000000000000000e+03 1.566795349121093750e+01 -1.099602317810058594e+01 1.003325879573822021e-01 6.195064544677734375e+00 1.888619065284729004e+00 -1.111269712448120117e+00
2.158000000000000000e+03 3.844775772094726562e+01 -4.990328311920166016e+00 2.086265385150909424e-01 1.974902868270874023e+00 6.550588607788085938e-01 -4.586206749081611633e-02
2.159000000000000000e+03 9.044483184814453125e+00 7.926300525665283203e+00 1.117151737213134766e+00 5.734622955322265625e+00 2.055532455444335938e+00 -3.536578416824340820e+00
2.160000000000000000e+03 1.868633651733398438e+01 -2.231652641296386719e+01 -1.866023540496826172e-01 3.831812143325805664e+00 1.093562960624694824e+00 -5.285720229148864746e-01
2.161000000000000000e+03 1.816092491149902344e+01 -2.874885749816894531e+01 -2.071988880634307861e-01 3.203490495681762695e+00 8.988875150680541992e-01 -1.893242895603179932e-01
2.162000000000000000e+03 4.750819683074951172e+00 7.414337635040283203e+00 1.116421699523925781e+00 1.313167214393615723e+00 7.288766503334045410e-01 -1.410578608512878418e+00
2.163000000000000000e+03 3.565652847290039062e+01 -4.353412151336669922e+00 2.642589807510375977e-01 1.295217514038085938e+00 4.678429663181304932e-01 -1.268147826194763184e-01
2.164000000000000000e+03 3.660229110717773438e+01 -5.387584686279296875e+00 2.773004770278930664e-01 1.529515027999877930e+00 5.420446395874023438e-01 -1.161542311310768127e-01
2.165000000000000000e+03 7.013010406494140625e+01 -1.055939674377441406e+01 -1.462688893079757690e-01 7.697021007537841797e+00 2.265225648880004883e+00 3.270772993564605713e-01
2.166000000000000000e+03 7.022531127929687500e+01 -1.157304382324218750e+01 -1.269903928041458130e-01 7.677920818328857422e+00 2.265279054641723633e+00 3.487198650836944580e-01
2.167000000000000000e+03 7.035592651367187500e+01 -2.615733861923217773e+00 -1.705211699008941650e-01 7.846018314361572266e+00 2.302649259567260742e+00 1.264849007129669189e-01
2.168000000000000000e+03 7.143451690673828125e+01 3.774891614913940430e+00 -1.836818307638168335e-01 8.056404113769531250e+00 2.361816883087158203e+00 -7.543254643678665161e-02
2.169000000000000000e+03 7.116429901123046875e+01 -2.325797080993652344e+01 -4.183104727417230606e-03 7.464909553527832031e+00 2.238217830657958984e+00 4.670727849006652832e-01
2.170000000000000000e+03 6.895057678222656250e+01 -2.686772537231445312e+01 6.521199643611907959e-02 7.233880519866943359e+00 2.189727783203125000e+00 5.190355181694030762e-01
2.171000000000000000e+03 7.068300628662109375e+01 -1.786496734619140625e+01 -7.545764744281768799e-02 7.589062690734863281e+00 2.254081487655639648e+00 4.465303421020507812e-01
2.172000000000000000e+03 7.081023406982421875e+01 -1.898735237121582031e+01 -5.033216997981071472e-02 7.572490215301513672e+00 2.256647348403930664e+00 4.501902163028717041e-01
2.173000000000000000e+03 7.151515960693359375e+01 -1.264892768859863281e+01 -9.038934111595153809e-02 7.805771827697753906e+00 2.314614772796630859e+00 3.411969840526580811e-01
2.174000000000000000e+03 7.156051635742187500e+01 9.150690078735351562e+00 -2.120701670646667480e-01 8.098732948303222656e+00 2.365998983383178711e+00 -2.673519253730773926e-01
2.175000000000000000e+03 7.015672302246093750e+01 2.451356315612792969e+01 2.413822337985038757e-03 8.092935562133789062e+00 2.428604841232299805e+00 -7.876564264297485352e-01
2.176000000000000000e+03 6.985468292236328125e+01 1.922832489013671875e+01 -2.278878837823867798e-01 8.114748001098632812e+00 2.366058111190795898e+00 -6.737804412841796875e-01
2.177000000000000000e+03 7.136019134521484375e+01 1.574422168731689453e+01 -2.120882272720336914e-01 8.081615447998046875e+00 2.360858201980590820e+00 -5.483449101448059082e-01
2.178000000000000000e+03 4.523605728149414062e+01 1.527177429199218750e+01 1.070500984787940979e-01 3.249589443206787109e+00 1.006991863250732422e+00 1.187869548797607422e+00
2.179000000000000000e+03 4.336387634277343750e+01 1.494053554534912109e+01 1.902745515108108521e-01 2.581197023391723633e+00 8.314414620399475098e-01 1.070703268051147461e+00
2.180000000000000000e+03 8.636400222778320312e+00 -5.679312705993652344e+00 1.101776242256164551e+00 2.797947406768798828e+00 1.169917106628417969e+00 1.590875148773193359e+00
2.181000000000000000e+03 1.088595676422119141e+01 2.444594192504882812e+01 -6.572028398513793945e-01 4.052217006683349609e+00 1.018504261970520020e+00 -6.209256649017333984e-01
2.182000000000000000e+03 1.064245414733886719e+01 2.664279937744140625e+01 -5.348297953605651855e-01 3.993419408798217773e+00 1.037576913833618164e+00 -5.193040370941162109e-01
2.183000000000000000e+03 1.409453105926513672e+01 2.561509132385253906e+01 -6.948944926261901855e-01 3.474482059478759766e+00 8.338762521743774414e-01 -4.088781774044036865e-01
2.184000000000000000e+03 1.736160087585449219e+01 -2.164280128479003906e+01 -2.395974844694137573e-01 3.938705682754516602e+00 1.109732508659362793e+00 -3.553861081600189209e-01
2.185000000000000000e+03 7.160364627838134766e+00 -1.097775745391845703e+01 1.135032549500465393e-01 2.690833568572998047e+00 8.413010239601135254e-01 9.678851366043090820e-01
2.186000000000000000e+03 9.036904335021972656e+00 -1.376986980438232422e+01 -1.528552174568176270e-01 3.566056013107299805e+00 1.023960232734680176e+00 7.746164798736572266e-01
2.187000000000000000e+03 3.951363754272460938e+01 -5.497622013092041016e+00 9.112878143787384033e-02 2.225294351577758789e+00 6.949269175529479980e-01 -1.093649938702583313e-01
2.188000000000000000e+03 9.398869514465332031e+00 1.187459945678710938e+01 -6.416839957237243652e-01 5.630229473114013672e+00 1.496563673019409180e+00 -2.164425134658813477e+00
2.189000000000000000e+03 7.833625316619873047e+00 1.805707359313964844e+01 -7.388125061988830566e-01 4.446322441101074219e+00 1.112252950668334961e+00 -1.346360325813293457e+00
2.190000000000000000e+03 3.300420379638671875e+01 -1.122785925865173340e+00 7.066435813903808594e-01 6.898927092552185059e-01 4.189608991146087646e-01 2.248785458505153656e-02
2.191000000000000000e+03 6.888298988342285156e+00 2.128001594543457031e+01 -4.818466901779174805e-01 4.356004238128662109e+00 1.162247300148010254e+00 -9.952293038368225098e-01
2.192000000000000000e+03 7.546642780303955078e+00 1.662118339538574219e+01 -7.013612389564514160e-01 4.440897464752197266e+00 1.121860861778259277e+00 -1.564461350440979004e+00
2.193000000000000000e+03 7.205630302429199219e+00 -2.160859680175781250e+01 -1.753985881805419922e-01 2.734430551528930664e+00 7.677096128463745117e-01 5.325239300727844238e-01
2.194000000000000000e+03 9.293729782104492188e+00 -1.839801597595214844e+01 -2.422690838575363159e-01 3.318238973617553711e+00 9.227909445762634277e-01 5.901916027069091797e-01
2.195000000000000000e+03 4.048483657836914062e+01 -9.517114639282226562e+00 -3.703407943248748779e-02 2.593084573745727539e+00 7.668151855468750000e-01 -2.337065041065216064e-01
2.196000000000000000e+03 4.013977050781250000e+01 -8.295183181762695312e+00 -4.221928119659423828e-02 2.468705892562866211e+00 7.279459834098815918e-01 -1.544166356325149536e-01
2.197000000000000000e+03 4.168601226806640625e+01 1.100327301025390625e+01 1.470985114574432373e-01 2.307935953140258789e+00 7.365103363990783691e-01 8.150758743286132812e-01
2.198000000000000000e+03 4.160597610473632812e+01 1.286165714263916016e+01 1.831831783056259155e-01 2.171412944793701172e+00 7.063788175582885742e-01 8.727425932884216309e-01
2.199000000000000000e+03 7.148236846923828125e+01 -8.572490811347961426e-01 -1.444921791553497314e-01 8.018570899963378906e+00 2.362223625183105469e+00 6.067925691604614258e-02
2.200000000000000000e+03 8.483455657958984375e+00 8.749606132507324219e+00 8.105781674385070801e-01 4.970404148101806641e+00 1.734294652938842773e+00 -3.079284906387329102e+00
2.201000000000000000e+03 4.070409011840820312e+01 8.133984565734863281e+00 2.298725992441177368e-01 2.166836500167846680e+00 7.190127372741699219e-01 6.484345793724060059e-01
2.202000000000000000e+03 4.169142532348632812e+01 -1.213828945159912109e+01 -1.645285338163375854e-01 2.946888685226440430e+00 8.347080349922180176e-01 -2.476583123207092285e-01
2.203000000000000000e+03 4.251596069335937500e+01 -9.613195419311523438e+00 -1.165810003876686096e-01 3.089242219924926758e+00 8.917983770370483398e-01 -1.272308230400085449e-01
2.204000000000000000e+03 3.823458099365234375e+01 5.367540836334228516e+00 2.790517508983612061e-01 1.680595755577087402e+00 5.878942608833312988e-01 4.681839346885681152e-01
2.205000000000000000e+03 7.543448925018310547e+00 -1.222072696685791016e+01 -1.754359900951385498e-02 2.971396207809448242e+00 8.861557841300964355e-01 9.116021990776062012e-01
2.206000000000000000e+03 7.171402740478515625e+01 -2.034449386596679688e+01 -2.911344729363918304e-02 7.589675426483154297e+00 2.268168687820434570e+00 4.420970976352691650e-01
2.207000000000000000e+03 1.048719692230224609e+01 1.228032016754150391e+01 -1.022323012351989746e+00 6.085816383361816406e+00 1.519047975540161133e+00 -1.850194692611694336e+00
2.208000000000000000e+03 7.037281799316406250e+01 2.066923332214355469e+01 -1.724491715431213379e-01 8.099666595458984375e+00 2.378165245056152344e+00 -7.430006861686706543e-01
2.209000000000000000e+03 6.999356079101562500e+01 1.285756015777587891e+01 -2.934181094169616699e-01 8.036050796508789062e+00 2.322789907455444336e+00 -4.094897210597991943e-01
2.210000000000000000e+03 8.823520660400390625e+00 -2.289300346374511719e+01 -2.206515222787857056e-01 3.010977745056152344e+00 8.370978832244873047e-01 4.556992650032043457e-01
2.211000000000000000e+03 4.285395431518554688e+01 -1.237961006164550781e+01 -1.902390271425247192e-01 3.263320446014404297e+00 9.219244122505187988e-01 -2.628608345985412598e-01
2.212000000000000000e+03 5.838068389892578125e+01 2.656724929809570312e+01 -5.327499285340309143e-02 9.515936851501464844e+00 2.838798761367797852e+00 2.502035200595855713e-01
2.213000000000000000e+03 5.748690414428710938e+01 2.763104629516601562e+01 2.306441068649291992e-01 9.916262626647949219e+00 3.044071912765502930e+00 6.995917558670043945e-01
2.214000000000000000e+03 8.680354118347167969e+00 1.454196071624755859e+01 -8.200609087944030762e-01 4.887344360351562500e+00 1.220185041427612305e+00 -1.768482327461242676e+00
2.215000000000000000e+03 1.257524490356445312e+01 1.487041854858398438e+01 -1.286245465278625488e+00 5.451263904571533203e+00 1.249505519866943359e+00 -7.862402796745300293e-01
2.216000000000000000e+03 7.201807403564453125e+01 2.337612915039062500e+01 -4.089473932981491089e-02 7.917485713958740234e+00 2.362977266311645508e+00 -7.570943832397460938e-01
2.217000000000000000e+03 7.103038787841796875e+01 2.278006172180175781e+01 -9.304888546466827393e-02 8.035865783691406250e+00 2.382845163345336914e+00 -7.634221315383911133e-01
2.218000000000000000e+03 4.719917678833007812e+01 1.923682022094726562e+01 2.499477118253707886e-01 3.876789808273315430e+00 1.238021254539489746e+00 1.542910337448120117e+00
2.219000000000000000e+03 4.816807174682617188e+01 1.839084434509277344e+01 8.404114842414855957e-02 4.302767753601074219e+00 1.316042661666870117e+00 1.510564088821411133e+00
2.220000000000000000e+03 1.068454647064208984e+01 3.107703971862792969e+01 -3.562874794006347656e-01 3.936630010604858398e+00 1.074102759361267090e+00 -2.983551919460296631e-01
2.221000000000000000e+03 3.891056442260742188e+01 6.194220542907714844e+00 3.240951299667358398e-01 1.780857205390930176e+00 6.314857006072998047e-01 5.174391269683837891e-01
2.222000000000000000e+03 1.640979576110839844e+01 1.665455436706542969e+01 -1.003904104232788086e+00 3.851190090179443359e+00 8.541858196258544922e-01 1.056523174047470093e-01
2.223000000000000000e+03 1.797667884826660156e+01 1.791025161743164062e+01 -8.734294176101684570e-01 3.149951696395874023e+00 6.829566955566406250e-01 1.940106153488159180e-01
2.224000000000000000e+03 4.242382431030273438e+01 -1.896510696411132812e+01 -1.731990724802017212e-01 3.402607440948486328e+00 9.688224792480468750e-01 -5.582888722419738770e-01
2.225000000000000000e+03 4.267874908447265625e+01 -1.368430805206298828e+01 -2.233015596866607666e-01 3.242465496063232422e+00 9.057492017745971680e-01 -2.744500637054443359e-01
2.226000000000000000e+03 6.963452148437500000e+01 2.299832916259765625e+01 -9.942849725484848022e-02 8.153217315673828125e+00 2.416136503219604492e+00 -7.956563234329223633e-01
2.227000000000000000e+03 4.891581726074218750e+01 -2.305899238586425781e+01 -2.410794049501419067e-01 5.580121517181396484e+00 1.601712584495544434e+00 -3.042768687009811401e-02
2.228000000000000000e+03 4.705720520019531250e+01 -2.208190155029296875e+01 -2.437461316585540771e-01 5.052855014801025391e+00 1.442732691764831543e+00 -2.475942373275756836e-01
2.229000000000000000e+03 3.230010223388671875e+01 1.907265663146972656e+00 5.855195522308349609e-01 5.362200140953063965e-01 3.365218937397003174e-01 2.228109389543533325e-01
2.230000000000000000e+03 3.309622192382812500e+01 8.058238625526428223e-01 7.160918116569519043e-01 6.892230510711669922e-01 4.215944707393646240e-01 1.403887271881103516e-01
2.231000000000000000e+03 7.865261554718017578e+00 1.281144332885742188e+01 -5.044299960136413574e-01 4.725503444671630859e+00 1.266322016716003418e+00 -2.156455039978027344e+00
2.232000000000000000e+03 1.704963684082031250e+01 -1.876683998107910156e+01 -1.576561480760574341e-01 4.394608974456787109e+00 1.271085858345031738e+00 -4.697310030460357666e-01
2.233000000000000000e+03 1.600168418884277344e+01 -1.734711265563964844e+01 -1.654714047908782959e-01 4.574067592620849609e+00 1.322578907012939453e+00 -3.239153623580932617e-01
2.234000000000000000e+03 2.542207908630371094e+01 2.313465881347656250e+01 -6.095409989356994629e-01 6.451302170753479004e-01 1.067677140235900879e-02 -2.015856951475143433e-01
2.235000000000000000e+03 2.620754623413085938e+01 2.492370033264160156e+01 -5.764150023460388184e-01 5.889826416969299316e-01 3.770292038097977638e-03 -2.626383304595947266e-01
2.236000000000000000e+03 6.926114654541015625e+01 1.796517562866210938e+01 -2.810082137584686279e-01 8.117233276367187500e+00 2.350867509841918945e+00 -6.330904960632324219e-01
2.237000000000000000e+03 7.139693450927734375e+01 1.433371162414550781e+01 -2.324876040220260620e-01 8.091906547546386719e+00 2.357825756072998047e+00 -4.817907810211181641e-01
2.238000000000000000e+03 2.496237754821777344e+01 2.440325927734375000e+01 -5.844049453735351562e-01 8.786377906799316406e-01 8.826985210180282593e-02 -1.864503175020217896e-01
2.239000000000000000e+03 5.062744522094726562e+01 1.860547637939453125e+01 -1.374560743570327759e-01 5.423617839813232422e+00 1.585848569869995117e+00 1.465893626213073730e+00
2.240000000000000000e+03 1.385529041290283203e+01 -1.151522731781005859e+01 -1.800829619169235229e-01 5.745008468627929688e+00 1.669477581977844238e+00 -3.357742130756378174e-01
2.241000000000000000e+03 7.102339935302734375e+01 -2.619736289978027344e+01 3.115163370966911316e-02 7.366127967834472656e+00 2.219183921813964844e+00 4.696761667728424072e-01
2.242000000000000000e+03 7.045492553710937500e+01 -2.420229721069335938e+01 4.544035997241735458e-03 7.392427444458007812e+00 2.219091415405273438e+00 4.982899725437164307e-01
2.243000000000000000e+03 6.911225891113281250e+01 -8.732381820678710938e+00 -1.726210117340087891e-01 7.621563434600830078e+00 2.234682798385620117e+00 3.028673231601715088e-01
2.244000000000000000e+03 7.019216918945312500e+01 1.150878143310546875e+01 -2.657702565193176270e-01 8.028807640075683594e+00 2.328911304473876953e+00 -3.637643754482269287e-01
2.245000000000000000e+03 7.047990417480468750e+01 9.382897377014160156e+00 -2.394587099552154541e-01 8.030482292175292969e+00 2.337306976318359375e+00 -2.844911813735961914e-01
2.246000000000000000e+03 1.579955959320068359e+01 1.855900382995605469e+01 -1.052345037460327148e+00 3.817479848861694336e+00 8.295404314994812012e-01 -1.312074214220046997e-01
2.247000000000000000e+03 1.961171150207519531e+01 2.272867774963378906e+01 -7.580102086067199707e-01 2.353666067123413086e+00 4.786967933177947998e-01 -5.277483165264129639e-02
2.248000000000000000e+03 6.955181884765625000e+01 3.260374069213867188e+01 4.723428487777709961e-01 8.175267219543457031e+00 2.594283103942871094e+00 -4.330258965492248535e-01
2.249000000000000000e+03 6.758024597167968750e+01 3.049956893920898438e+01 5.607390999794006348e-01 8.502088546752929688e+00 2.718848228454589844e+00 -5.892717838287353516e-01
2.250000000000000000e+03 8.447081565856933594e+00 -3.295897674560546875e+01 -1.469408422708511353e-01 2.804561614990234375e+00 7.972862124443054199e-01 1.936350762844085693e-01
2.251000000000000000e+03 6.982705688476562500e+01 3.499829483032226562e+01 4.099024832248687744e-01 8.259985923767089844e+00 2.600966453552246094e+00 -3.117939829826354980e-01
2.252000000000000000e+03 1.183393859863281250e+01 2.560238075256347656e+01 -6.264497041702270508e-01 3.852122306823730469e+00 9.677017927169799805e-01 -5.329872369766235352e-01
2.253000000000000000e+03 6.994641113281250000e+01 2.664543533325195312e+01 1.415522247552871704e-01 8.100536346435546875e+00 2.472626447677612305e+00 -7.828927040100097656e-01
2.254000000000000000e+03 2.381238365173339844e+01 3.000132179260253906e+01 -5.364277362823486328e-01 1.301266908645629883e+00 2.294517606496810913e-01 -1.972254961729049683e-01
2.255000000000000000e+03 3.557575988769531250e+01 3.702074050903320312e+00 4.590778946876525879e-01 1.133674025535583496e+00 4.778255522251129150e-01 2.866346836090087891e-01
2.256000000000000000e+03 3.795790863037109375e+01 4.523783683776855469e+00 3.823504745960235596e-01 1.590678811073303223e+00 5.919088125228881836e-01 4.132560491561889648e-01
2.257000000000000000e+03 4.626337814331054688e+01 1.853957176208496094e+01 2.449677586555480957e-01 3.473973274230957031e+00 1.115682244300842285e+00 1.463346362113952637e+00
2.258000000000000000e+03 4.806028747558593750e+01 1.540399456024169922e+01 -5.468765273690223694e-02 4.265214920043945312e+00 1.263158202171325684e+00 1.285338640213012695e+00
2.259000000000000000e+03 5.328531646728515625e+01 -3.442216110229492188e+01 1.027907609939575195e+00 6.686123847961425781e+00 2.314209461212158203e+00 2.819979786872863770e-01
2.260000000000000000e+03 1.005421066284179688e+01 2.340560340881347656e+01 -6.676382422447204590e-01 4.175083637237548828e+00 1.052233576774597168e+00 -7.383320331573486328e-01
2.261000000000000000e+03 7.030053615570068359e+00 -2.025765037536621094e+01 -2.042184919118881226e-01 2.693983078002929688e+00 7.469294071197509766e-01 5.823681950569152832e-01
2.262000000000000000e+03 1.715199851989746094e+01 2.020530319213867188e+01 -9.313718080520629883e-01 3.215446710586547852e+00 6.852224469184875488e-01 -1.213790848851203918e-01
2.263000000000000000e+03 7.246837615966796875e+00 -3.713498306274414062e+01 -1.088893339037895203e-01 2.729657411575317383e+00 7.862303853034973145e-01 1.094441711902618408e-01
2.264000000000000000e+03 1.028433418273925781e+01 -3.532730484008789062e+01 -1.682509183883666992e-01 2.842523574829101562e+00 8.022818565368652344e-01 1.245090514421463013e-01
2.265000000000000000e+03 4.966287994384765625e+01 -2.484708786010742188e+01 -1.738750338554382324e-01 5.960390567779541016e+00 1.735954642295837402e+00 4.244083166122436523e-02
2.266000000000000000e+03 7.184699249267578125e+01 -4.099336242675781250e+01 1.613496690988540649e-01 7.092321395874023438e+00 2.176101207733154297e+00 5.769506841897964478e-02
2.267000000000000000e+03 4.139423370361328125e+01 -1.341232013702392578e+01 -1.577764004468917847e-01 2.941145181655883789e+00 8.350106477737426758e-01 -3.543265759944915771e-01
2.268000000000000000e+03 4.588795852661132812e+01 -1.599819946289062500e+01 -3.592289090156555176e-01 4.264581680297851562e+00 1.171605825424194336e+00 -2.148113548755645752e-01
2.269000000000000000e+03 1.856178665161132812e+01 -2.665391540527343750e+01 -2.092843800783157349e-01 3.336089849472045898e+00 9.380416274070739746e-01 -2.802512645721435547e-01
2.270000000000000000e+03 2.010488700866699219e+01 -2.917862510681152344e+01 -1.442043632268905640e-01 3.054311513900756836e+00 8.730321526527404785e-01 -3.281991779804229736e-01
2.271000000000000000e+03 1.112272453308105469e+01 -3.611126422882080078e+00 1.849437713623046875e+00 6.573588371276855469e+00 2.526907682418823242e+00 3.881328582763671875e+00
2.272000000000000000e+03 9.208992004394531250e+00 -5.784729957580566406e+00 1.008844137191772461e+00 3.664375066757202148e+00 1.401965737342834473e+00 1.871015787124633789e+00
2.273000000000000000e+03 1.393194484710693359e+01 -5.952711105346679688e+00 -9.859183430671691895e-01 9.842555999755859375e+00 2.656991243362426758e+00 -1.098219156265258789e+00
2.274000000000000000e+03 1.027674674987792969e+01 -4.506077289581298828e+00 1.377555847167968750e+00 4.768743991851806641e+00 1.843889951705932617e+00 2.757046222686767578e+00
2.275000000000000000e+03 1.043855285644531250e+01 -3.885871648788452148e+00 1.885440945625305176e+00 4.797883987426757812e+00 2.004997491836547852e+00 3.135501861572265625e+00
2.276000000000000000e+03 1.000008010864257812e+01 -3.789494752883911133e+00 1.979569554328918457e+00 3.492356300354003906e+00 1.641577720642089844e+00 2.644063711166381836e+00
2.277000000000000000e+03 8.105568885803222656e+00 -5.600878715515136719e+00 1.095680356025695801e+00 2.267860174179077148e+00 1.009062170982360840e+00 1.362554669380187988e+00
2.278000000000000000e+03 8.481183052062988281e+00 -6.272004127502441406e+00 9.472562074661254883e-01 2.931349039077758789e+00 1.163581609725952148e+00 1.558957338333129883e+00
2.279000000000000000e+03 8.019563674926757812e+00 -6.134315013885498047e+00 9.994572997093200684e-01 2.392292261123657227e+00 1.017524838447570801e+00 1.340057134628295898e+00
2.280000000000000000e+03 7.038948059082031250e+00 -7.774674892425537109e+00 6.333656311035156250e-01 2.187283515930175781e+00 8.461947441101074219e-01 1.066521406173706055e+00
2.281000000000000000e+03 1.440982723236083984e+01 -4.711422443389892578e+00 -8.619790077209472656e-01 1.190185451507568359e+01 3.311962604522705078e+00 -2.008404731750488281e+00
2.282000000000000000e+03 1.497682285308837891e+01 -8.409200668334960938e+00 -2.293846905231475830e-01 7.310450553894042969e+00 2.124319791793823242e+00 -1.413298606872558594e+00
2.283000000000000000e+03 1.484974098205566406e+01 -7.364355087280273438e+00 -4.090869128704071045e-01 8.350822448730468750e+00 2.382520675659179688e+00 -1.630617260932922363e+00
2.284000000000000000e+03 9.871673583984375000e+00 8.206268310546875000e+00 6.539905667304992676e-01 6.766346931457519531e+00 2.226101160049438477e+00 -3.311547040939331055e+00
2.285000000000000000e+03 1.384714221954345703e+01 -4.702857017517089844e+00 -1.172029972076416016e+00 1.198749637603759766e+01 3.244639873504638672e+00 -1.205130100250244141e+00
2.286000000000000000e+03 9.285431861877441406e+00 7.159643173217773438e+00 1.969631314277648926e+00 5.635558605194091797e+00 2.281556844711303711e+00 -3.860524654388427734e+00
2.287000000000000000e+03 6.891454315185546875e+01 3.112475395202636719e+00 -2.567894160747528076e-01 7.764825344085693359e+00 2.252410650253295898e+00 -2.317111752927303314e-02
2.288000000000000000e+03 6.898928070068359375e+01 -7.020234584808349609e+00 -1.808717101812362671e-01 7.625039100646972656e+00 2.233250379562377930e+00 2.541124820709228516e-01
2.289000000000000000e+03 3.404340362548828125e+01 1.583016276359558105e+00 5.090439915657043457e-01 8.623104691505432129e-01 4.114063382148742676e-01 2.121203392744064331e-01
2.290000000000000000e+03 1.399131393432617188e+01 -1.428319072723388672e+01 -1.799694597721099854e-01 4.962356567382812500e+00 1.434716105461120605e+00 -1.046634167432785034e-01
2.291000000000000000e+03 9.489796638488769531e+00 -1.113789558410644531e+01 -9.751588851213455200e-02 4.078528881072998047e+00 1.194303989410400391e+00 8.921784162521362305e-01
2.292000000000000000e+03 4.452787399291992188e+01 1.416109180450439453e+01 1.358155906200408936e-01 3.030471324920654297e+00 9.498860836029052734e-01 1.079072356224060059e+00
2.293000000000000000e+03 6.927082824707031250e+01 -1.118632316589355469e+01 -1.503740996122360229e-01 7.578819274902343750e+00 2.228533506393432617e+00 3.589016795158386230e-01
2.294000000000000000e+03 7.013982391357421875e+01 -1.279561805725097656e+01 -1.309846788644790649e-01 7.653664112091064453e+00 2.256803750991821289e+00 3.740920424461364746e-01
2.295000000000000000e+03 5.310364532470703125e+01 2.046088600158691406e+01 -3.304711580276489258e-01 6.663309574127197266e+00 1.899851560592651367e+00 1.337553262710571289e+00
2.296000000000000000e+03 1.489442062377929688e+01 -1.477200984954833984e+01 -1.823403090238571167e-01 4.989930152893066406e+00 1.442276954650878906e+00 -2.789644896984100342e-01
2.297000000000000000e+03 1.419385433197021484e+01 -1.240820121765136719e+01 -1.102125644683837891e-01 5.611330986022949219e+00 1.650335550308227539e+00 -3.365069627761840820e-01
2.298000000000000000e+03 1.475641822814941406e+01 -1.103702259063720703e+01 -8.659819513559341431e-02 6.220799446105957031e+00 1.840260386466979980e+00 -6.914433240890502930e-01
2.299000000000000000e+03 3.654925918579101562e+01 -3.341477394104003906e+00 3.860053122043609619e-01 1.473424911499023438e+00 5.578290820121765137e-01 -3.563844040036201477e-02
2.300000000000000000e+03 8.838685035705566406e+00 1.027819633483886719e+01 -6.159073486924171448e-02 5.433370113372802734e+00 1.611533880233764648e+00 -2.661874532699584961e+00
2.301000000000000000e+03 1.092395591735839844e+01 1.106841182708740234e+01 -8.524138927459716797e-01 6.648163318634033203e+00 1.738724708557128906e+00 -1.835688948631286621e+00
2.302000000000000000e+03 6.955859375000000000e+01 -1.818667411804199219e+01 -7.665245234966278076e-02 7.478451251983642578e+00 2.220539569854736328e+00 4.782800078392028809e-01
2.303000000000000000e+03 6.973859405517578125e+01 -2.108834075927734375e+01 -4.086622968316078186e-02 7.431929111480712891e+00 2.217318773269653320e+00 4.987466037273406982e-01
2.304000000000000000e+03 6.850940704345703125e+01 1.986663055419921875e+01 -2.633172571659088135e-01 8.186681747436523438e+00 2.377009391784667969e+00 -6.926802992820739746e-01
2.305000000000000000e+03 3.651042938232421875e+01 3.816655576229095459e-01 4.978924989700317383e-01 1.374802470207214355e+00 5.618084669113159180e-01 1.528248637914657593e-01
2.306000000000000000e+03 4.436879348754882812e+01 -1.630837059020996094e+01 -2.376369088888168335e-01 3.896244287490844727e+00 1.097582221031188965e+00 -3.217676877975463867e-01
2.307000000000000000e+03 4.410683441162109375e+01 -1.371252536773681641e+01 -2.386533468961715698e-01 3.633668899536132812e+00 1.018504619598388672e+00 -2.586801946163177490e-01
2.308000000000000000e+03 4.640903472900390625e+01 1.466394710540771484e+01 3.278613835573196411e-02 3.707182168960571289e+00 1.121990442276000977e+00 1.189369559288024902e+00
2.309000000000000000e+03 4.020148086547851562e+01 -7.045276641845703125e+00 3.146930411458015442e-02 2.448347091674804688e+00 7.439449429512023926e-01 -1.431417912244796753e-01
2.310000000000000000e+03 4.064773941040039062e+01 -5.826057910919189453e+00 3.442137688398361206e-02 2.518511056900024414e+00 7.658797502517700195e-01 -4.133918881416320801e-02
2.311000000000000000e+03 3.392901611328125000e+01 -2.827359437942504883e-01 5.069637894630432129e-01 8.653494119644165039e-01 4.116939604282379150e-01 8.569119870662689209e-02
2.312000000000000000e+03 3.475687408447265625e+01 -3.292510747909545898e+00 4.897933304309844971e-01 1.081471681594848633e+00 4.713795185089111328e-01 -6.451263278722763062e-02
2.313000000000000000e+03 3.901094436645507812e+01 4.604094982147216797e+00 3.056744337081909180e-01 1.907926440238952637e+00 6.640802621841430664e-01 4.321250319480895996e-01
2.314000000000000000e+03 8.891229629516601562e+00 -7.987241744995117188e+00 3.952870070934295654e-01 3.728348016738891602e+00 1.237090468406677246e+00 1.373899817466735840e+00
2.315000000000000000e+03 7.718425750732421875e+00 -9.622014999389648438e+00 2.638596296310424805e-01 2.911921501159667969e+00 9.527342915534973145e-01 1.084915637969970703e+00
2.316000000000000000e+03 4.165336227416992188e+01 -8.937949180603027344e+00 -1.182485222816467285e-01 2.855778694152832031e+00 8.212590217590332031e-01 -1.478966176509857178e-01
2.317000000000000000e+03 8.390005111694335938e+00 -2.001992416381835938e+01 -2.196732759475708008e-01 3.006461143493652344e+00 8.360363245010375977e-01 5.710491538047790527e-01
2.318000000000000000e+03 8.898513793945312500e+00 -1.503032970428466797e+01 -2.201187163591384888e-01 3.378471612930297852e+00 9.475058913230895996e-01 7.153751254081726074e-01
2.319000000000000000e+03 1.079613780975341797e+01 -1.123094367980957031e+01 -2.156424969434738159e-01 4.738014221191406250e+00 1.356711506843566895e+00 6.661726236343383789e-01
2.320000000000000000e+03 7.126794433593750000e+01 7.818262577056884766e+00 -2.039457708597183228e-01 8.068366050720214844e+00 2.359326124191284180e+00 -2.243878692388534546e-01
2.321000000000000000e+03 6.958806610107421875e+01 6.113328456878662109e+00 -2.505220174789428711e-01 7.903447628021240234e+00 2.295877695083618164e+00 -1.387132257223129272e-01
2.322000000000000000e+03 6.949922180175781250e+01 -2.321673011779785156e+01 -9.210743010044097900e-03 7.355442523956298828e+00 2.203869581222534180e+00 5.161764621734619141e-01
2.323000000000000000e+03 4.199400711059570312e+01 -7.502734661102294922e+00 -9.608359634876251221e-02 2.906939029693603516e+00 8.432565927505493164e-01 -9.654883295297622681e-02
2.324000000000000000e+03 7.036457824707031250e+01 -1.540884399414062500e+01 -1.035833731293678284e-01 7.616734504699707031e+00 2.253945350646972656e+00 4.192304611206054688e-01
2.325000000000000000e+03 7.052253723144531250e+01 -1.666647529602050781e+01 -7.897974550724029541e-02 7.602612495422363281e+00 2.257089853286743164e+00 4.333779811859130859e-01
2.326000000000000000e+03 6.820443725585937500e+01 2.365829277038574219e+01 -6.707876920700073242e-02 8.279334068298339844e+00 2.463676691055297852e+00 -7.561092376708984375e-01
2.327000000000000000e+03 7.138416290283203125e+01 2.147606086730957031e+01 -1.022908762097358704e-01 8.018783569335937500e+00 2.374947786331176758e+00 -7.512912750244140625e-01
2.328000000000000000e+03 7.006165313720703125e+01 1.564824867248535156e+01 -2.801282107830047607e-01 8.076831817626953125e+00 2.339011192321777344e+00 -5.340420603752136230e-01
2.329000000000000000e+03 6.996000671386718750e+01 1.700606155395507812e+01 -2.539076209068298340e-01 8.088107109069824219e+00 2.350259780883789062e+00 -6.006652712821960449e-01
2.330000000000000000e+03 5.794171524047851562e+01 2.445573425292968750e+01 -3.125848174095153809e-01 8.912130355834960938e+00 2.579863786697387695e+00 4.240165054798126221e-01
2.331000000000000000e+03 7.079456329345703125e+01 -1.615356206893920898e+00 -1.682935506105422974e-01 7.913414001464843750e+00 2.323536157608032227e+00 9.001600742340087891e-02
2.332000000000000000e+03 7.006000518798828125e+01 -7.959488391876220703e+00 -1.463052779436111450e-01 7.738544940948486328e+00 2.277671813964843750e+00 2.719716429710388184e-01
2.333000000000000000e+03 6.854972839355468750e+01 -1.025036621093750000e+01 -1.836340427398681641e-01 7.513539314270019531e+00 2.198971509933471680e+00 3.483543097972869873e-01
2.334000000000000000e+03 7.054498291015625000e+01 1.037820911407470703e+01 -2.574218511581420898e-01 8.040714263916015625e+00 2.334987640380859375e+00 -3.098570406436920166e-01
2.335000000000000000e+03 7.004338836669921875e+01 1.427503681182861328e+01 -2.777551412582397461e-01 8.056887626647949219e+00 2.333739757537841797e+00 -4.821702539920806885e-01
2.336000000000000000e+03 3.482611465454101562e+01 5.215548276901245117e-01 6.022958755493164062e-01 1.024279832839965820e+00 4.879727065563201904e-01 1.397835314273834229e-01
2.337000000000000000e+03 4.587848663330078125e+01 1.638363456726074219e+01 1.407386362552642822e-01 3.472804307937622070e+00 1.084062814712524414e+00 1.289968609809875488e+00
2.338000000000000000e+03 8.084190368652343750e+00 -1.873703384399414062e+01 -2.424857169389724731e-01 2.974265098571777344e+00 8.195338249206542969e-01 6.159822940826416016e-01
2.339000000000000000e+03 1.310557365417480469e+01 -2.061134338378906250e+01 -3.165425956249237061e-01 3.840220689773559570e+00 1.057103395462036133e+00 1.985950171947479248e-01
2.340000000000000000e+03 1.012578392028808594e+01 2.140268898010253906e+01 -7.891644835472106934e-01 4.300503253936767578e+00 1.053401589393615723e+00 -8.630964756011962891e-01
2.341000000000000000e+03 6.883055877685546875e+01 -1.435241508483886719e+01 -1.367352753877639771e-01 7.489141464233398438e+00 2.205721855163574219e+00 4.300851523876190186e-01
2.342000000000000000e+03 7.157824707031250000e+01 -1.393248081207275391e+01 -9.557385742664337158e-02 7.777335643768310547e+00 2.304528474807739258e+00 3.628115057945251465e-01
2.343000000000000000e+03 4.573186874389648438e+01 -1.485006141662597656e+01 -2.875587046146392822e-01 4.159107208251953125e+00 1.161464452743530273e+00 -1.878216862678527832e-01
2.344000000000000000e+03 1.681250381469726562e+01 -1.993749046325683594e+01 -2.402251660823822021e-01 4.181679248809814453e+00 1.182436227798461914e+00 -3.786094486713409424e-01
2.345000000000000000e+03 8.216353416442871094e+00 2.223823165893554688e+01 -5.866878032684326172e-01 4.347506523132324219e+00 1.128245711326599121e+00 -8.928905129432678223e-01
2.346000000000000000e+03 1.502802467346191406e+01 -1.675193214416503906e+01 -2.473278194665908813e-01 4.682528972625732422e+00 1.330560326576232910e+00 -1.867291033267974854e-01
2.347000000000000000e+03 1.579376029968261719e+01 -1.987459182739257812e+01 -2.646876871585845947e-01 4.195644855499267578e+00 1.179287195205688477e+00 -1.911897808313369751e-01
2.348000000000000000e+03 1.057556915283203125e+01 1.862850952148437500e+01 -9.913693666458129883e-01 4.596375942230224609e+00 1.081502079963684082e+00 -1.017408728599548340e+00
2.349000000000000000e+03 1.239010334014892578e+01 1.616553497314453125e+01 -1.212762951850891113e+00 4.995812416076660156e+00 1.134914755821228027e+00 -8.328905701637268066e-01
2.350000000000000000e+03 6.752603912353515625e+01 -2.564529991149902344e+01 5.870834365487098694e-02 7.177473068237304688e+00 2.170854568481445312e+00 5.515307188034057617e-01
2.351000000000000000e+03 4.709443664550781250e+01 -2.028311157226562500e+01 -3.119446933269500732e-01 4.848973751068115234e+00 1.361108660697937012e+00 -2.049441486597061157e-01
2.352000000000000000e+03 4.606176757812500000e+01 -1.944848823547363281e+01 -3.208453059196472168e-01 4.591140270233154297e+00 1.281088471412658691e+00 -3.326238989830017090e-01
2.353000000000000000e+03 4.864239120483398438e+01 1.649305725097656250e+01 -5.256765335798263550e-02 4.499951362609863281e+00 1.334215164184570312e+00 1.367453694343566895e+00
2.354000000000000000e+03 6.966014099121093750e+01 -9.630475044250488281e+00 -1.450233012437820435e-01 7.664125442504882812e+00 2.255730628967285156e+00 3.123883605003356934e-01
2.355000000000000000e+03 7.526355266571044922e+00 1.429917335510253906e+01 -6.637330055236816406e-01 4.501623630523681641e+00 1.151367187500000000e+00 -1.904582142829895020e+00
2.356000000000000000e+03 9.876214981079101562e+00 1.069572639465332031e+01 -6.345620155334472656e-01 6.286078929901123047e+00 1.695455074310302734e+00 -2.401651620864868164e+00
2.357000000000000000e+03 1.211996078491210938e+01 3.218658828735351562e+01 -3.371219038963317871e-01 3.664920091629028320e+00 9.983394145965576172e-01 -2.935616672039031982e-01
2.358000000000000000e+03 1.407207965850830078e+01 -8.504987716674804688e+00 -4.050409197807312012e-01 7.432785987854003906e+00 2.108323574066162109e+00 -7.328390479087829590e-01
2.359000000000000000e+03 4.368834686279296875e+01 1.308363151550292969e+01 1.119708120822906494e-01 2.805483818054199219e+00 8.752363920211791992e-01 1.006766676902770996e+00
2.360000000000000000e+03 4.083022308349609375e+01 6.314916133880615234e+00 2.332650125026702881e-01 2.269822120666503906e+00 7.509261369705200195e-01 5.775805711746215820e-01
2.361000000000000000e+03 4.176871871948242188e+01 7.312262058258056641e+00 1.319851130247116089e-01 2.474456548690795898e+00 7.819324731826782227e-01 6.661719679832458496e-01
2.362000000000000000e+03 6.891893005371093750e+01 2.724354553222656250e+01 1.401697099208831787e-01 8.249607086181640625e+00 2.516932964324951172e+00 -7.977603673934936523e-01
2.363000000000000000e+03 6.811692810058593750e+01 2.618508338928222656e+01 1.224819570779800415e-01 8.311338424682617188e+00 2.530146121978759766e+00 -7.837027907371520996e-01
2.364000000000000000e+03 6.900177001953125000e+01 2.521214675903320312e+01 9.831133298575878143e-03 8.247462272644042969e+00 2.477188110351562500e+00 -8.094844818115234375e-01
2.365000000000000000e+03 6.711615753173828125e+01 -3.048517227172851562e+01 1.888167858123779297e-01 7.065233707427978516e+00 2.176215171813964844e+00 4.885286986827850342e-01
2.366000000000000000e+03 6.993847656250000000e+01 -2.953022766113281250e+01 9.974582493305206299e-02 7.222957611083984375e+00 2.196810960769653320e+00 4.573684334754943848e-01
2.367000000000000000e+03 1.187321186065673828e+01 1.850982666015625000e+01 -1.070460081100463867e+00 4.549316883087158203e+00 1.043657064437866211e+00 -8.539927005767822266e-01
2.368000000000000000e+03 1.631354331970214844e+01 -2.086276626586914062e+01 -2.863417565822601318e-01 4.027469635009765625e+00 1.122338294982910156e+00 -2.570241093635559082e-01
2.369000000000000000e+03 1.008964061737060547e+01 -2.114812660217285156e+01 -2.629158794879913330e-01 3.306854009628295898e+00 9.131814241409301758e-01 4.517465233802795410e-01
2.370000000000000000e+03 8.642961502075195312e+00 -2.140745544433593750e+01 -2.592800259590148926e-01 3.010730028152465820e+00 8.254350423812866211e-01 5.160910487174987793e-01
2.371000000000000000e+03 1.193673229217529297e+01 2.338692855834960938e+01 -7.773100137710571289e-01 3.977854013442993164e+00 9.601632356643676758e-01 -6.083510518074035645e-01
2.372000000000000000e+03 1.155622863769531250e+01 2.791638946533203125e+01 -5.095601081848144531e-01 3.787963151931762695e+00 9.835209250450134277e-01 -4.476619958877563477e-01
2.373000000000000000e+03 1.426265335083007812e+01 1.805606651306152344e+01 -1.136118650436401367e+00 4.335682868957519531e+00 9.598692059516906738e-01 -3.954302966594696045e-01
2.374000000000000000e+03 4.810633850097656250e+01 -2.147678375244140625e+01 -3.379965126514434814e-01 5.235682010650634766e+00 1.469305634498596191e+00 -1.668876707553863525e-01
2.375000000000000000e+03 5.160452651977539062e+01 -2.139945602416992188e+01 -2.955736219882965088e-01 5.834781646728515625e+00 1.661762356758117676e+00 2.153163254261016846e-01
2.376000000000000000e+03 4.757136154174804688e+01 -2.339805412292480469e+01 -3.058252334594726562e-01 5.398436069488525391e+00 1.527783274650573730e+00 -2.218349277973175049e-01
2.377000000000000000e+03 3.674604415893554688e+01 2.712180376052856445e+00 3.812079727649688721e-01 1.397372484207153320e+00 5.335741043090820312e-01 2.959631979465484619e-01
2.378000000000000000e+03 3.675974273681640625e+01 3.696325778961181641e+00 4.421252310276031494e-01 1.325831890106201172e+00 5.303871035575866699e-01 3.546070754528045654e-01
2.379000000000000000e+03 3.995233917236328125e+01 5.308833122253417969e+00 2.162152230739593506e-01 2.066944837570190430e+00 6.849480271339416504e-01 5.183396935462951660e-01
2.380000000000000000e+03 4.407842254638671875e+01 -1.246665287017822266e+01 -2.584658861160278320e-01 3.583092927932739258e+00 9.973880648612976074e-01 -1.936289668083190918e-01
2.381000000000000000e+03 1.083739185333251953e+01 1.396567916870117188e+01 -1.116084098815917969e+00 5.604793548583984375e+00 1.346612811088562012e+00 -1.409974455833435059e+00
2.382000000000000000e+03 1.125176906585693359e+01 1.512712287902832031e+01 -1.210582733154296875e+00 5.360610008239746094e+00 1.245008230209350586e+00 -1.203416466712951660e+00
2.383000000000000000e+03 2.062121772766113281e+01 2.560157966613769531e+01 -6.561916470527648926e-01 2.000349283218383789e+00 4.032472968101501465e-01 -1.098549664020538330e-01
2.384000000000000000e+03 6.062751388549804688e+01 2.932100868225097656e+01 7.025626897811889648e-01 9.797290802001953125e+00 3.149955987930297852e+00 -3.523185849189758301e-01
2.385000000000000000e+03 6.495728302001953125e+01 3.215364456176757812e+01 9.285828471183776855e-01 9.048668861389160156e+00 2.993175268173217773e+00 -3.321649134159088135e-01
2.386000000000000000e+03 5.859459304809570312e+01 3.219231033325195312e+01 1.801527023315429688e+00 1.132096481323242188e+01 3.936747550964355469e+00 2.803546935319900513e-02
2.387000000000000000e+03 1.255542278289794922e+01 -3.262788391113281250e+01 -1.990209072828292847e-01 2.956198453903198242e+00 8.271532654762268066e-01 1.129586994647979736e-01
2.388000000000000000e+03 1.216049575805664062e+01 -3.031710052490234375e+01 -2.589241862297058105e-01 3.007785797119140625e+00 8.246585130691528320e-01 1.692022383213043213e-01
2.389000000000000000e+03 1.003306198120117188e+01 -1.520328807830810547e+01 -2.321434766054153442e-01 3.809741020202636719e+00 1.073279261589050293e+00 6.124303340911865234e-01
2.390000000000000000e+03 6.732073211669921875e+01 3.263248825073242188e+01 6.907646656036376953e-01 8.598975181579589844e+00 2.786921977996826172e+00 -4.168567061424255371e-01
2.391000000000000000e+03 7.284572601318359375e+01 3.658424377441406250e+01 2.287615239620208740e-01 7.420355319976806641e+00 2.294734954833984375e+00 -2.488305568695068359e-01
2.392000000000000000e+03 1.430078697204589844e+01 -2.505955314636230469e+01 -3.333925902843475342e-01 3.450844526290893555e+00 9.352355599403381348e-01 6.002759560942649841e-02
2.393000000000000000e+03 5.271117019653320312e+01 -2.858820533752441406e+01 3.132136762142181396e-01 6.461860656738281250e+00 2.032522439956665039e+00 4.665846228599548340e-01
2.394000000000000000e+03 4.410527801513671875e+01 -1.136314487457275391e+01 -2.215507775545120239e-01 3.550055265426635742e+00 9.985513687133789062e-01 -1.838941127061843872e-01
2.395000000000000000e+03 1.667627906799316406e+01 2.138923645019531250e+01 -8.927937150001525879e-01 3.262093544006347656e+00 7.107899785041809082e-01 -1.722531467676162720e-01
2.396000000000000000e+03 1.548340129852294922e+01 2.053645324707031250e+01 -9.876704216003417969e-01 3.665481328964233398e+00 8.033432364463806152e-01 -2.782500088214874268e-01
2.397000000000000000e+03 6.985790252685546875e+01 -1.039382100105285645e+00 -1.974671632051467896e-01 7.814372062683105469e+00 2.285071372985839844e+00 9.050949662923812866e-02
2.398000000000000000e+03 7.005815887451171875e+01 2.754861593246459961e+00 -2.175863087177276611e-01 7.902248859405517578e+00 2.305398702621459961e+00 -2.866842970252037048e-02
2.399000000000000000e+03 6.974018859863281250e+01 1.636527419090270996e+00 -2.159180939197540283e-01 7.839405536651611328e+00 2.287046194076538086e+00 7.890259847044944763e-03
2.400000000000000000e+03 4.486213302612304688e+01 -1.753745460510253906e+01 -3.408572077751159668e-01 4.057801723480224609e+00 1.115083336830139160e+00 -3.350623250007629395e-01
2.401000000000000000e+03 1.832829284667968750e+01 -3.080503463745117188e+01 -2.332514077425003052e-01 3.029085636138916016e+00 8.387503027915954590e-01 -1.462825983762741089e-01
2.402000000000000000e+03 6.911625671386718750e+01 2.140190124511718750e+01 -1.716433018445968628e-01 8.172930717468261719e+00 2.400386095046997070e+00 -7.303298711776733398e-01
2.403000000000000000e+03 2.565876579284667969e+01 3.092575454711914062e+01 -5.321824550628662109e-01 9.337384700775146484e-01 1.204667985439300537e-01 -1.975624263286590576e-01
2.404000000000000000e+03 2.043308639526367188e+01 3.150568962097167969e+01 -5.199527740478515625e-01 2.023886203765869141e+00 4.511800408363342285e-01 -1.852792650461196899e-01
2.405000000000000000e+03 6.853329467773437500e+01 -2.435413551330566406e+01 1.387089211493730545e-02 7.263787269592285156e+00 2.183297395706176758e+00 5.462306737899780273e-01
2.406000000000000000e+03 4.640468215942382812e+01 1.750012397766113281e+01 1.684006601572036743e-01 3.611723661422729492e+00 1.134037375450134277e+00 1.414180874824523926e+00
2.407000000000000000e+03 1.118187427520751953e+01 -4.264427661895751953e+00 1.117462277412414551e+00 7.158811569213867188e+00 2.482882261276245117e+00 3.331162452697753906e+00
2.408000000000000000e+03 9.514229774475097656e+00 -4.285478591918945312e+00 1.718399405479431152e+00 3.002541780471801758e+00 1.416282415390014648e+00 2.154841184616088867e+00
2.409000000000000000e+03 1.067403888702392578e+01 -4.635054588317871094e+00 1.149889111518859863e+00 5.756101608276367188e+00 2.071797132492065430e+00 2.832355260848999023e+00
2.410000000000000000e+03 1.341029834747314453e+01 -5.974120616912841797e+00 -9.022239446640014648e-01 9.875869750976562500e+00 2.692093610763549805e+00 -2.281834930181503296e-01
2.411000000000000000e+03 1.439112091064453125e+01 -1.010709571838378906e+01 -1.762101799249649048e-01 6.441299438476562500e+00 1.879526734352111816e+00 -7.207818031311035156e-01
2.412000000000000000e+03 6.806375980377197266e+00 -6.917201519012451172e+00 7.500375509262084961e-01 1.831471085548400879e+00 7.744525671005249023e-01 9.714292287826538086e-01
2.413000000000000000e+03 1.336638736724853516e+01 -5.326093196868896484e+00 -1.086345314979553223e+00 1.081487941741943359e+01 2.918560266494750977e+00 -2.369173914194107056e-01
2.414000000000000000e+03 7.379189491271972656e+00 -8.674683570861816406e+00 4.046803414821624756e-01 2.626759052276611328e+00 9.094318151473999023e-01 1.090487003326416016e+00
2.415000000000000000e+03 1.346463203430175781e+01 -6.658113479614257812e+00 -7.903783321380615234e-01 8.753619194030761719e+00 2.388972282409667969e+00 -4.314627945423126221e-01
2.416000000000000000e+03 9.895909309387207031e+00 -4.343514442443847656e+00 1.623041749000549316e+00 4.013396263122558594e+00 1.690931320190429688e+00 2.523782730102539062e+00
2.417000000000000000e+03 1.005261898040771484e+01 -5.155500888824462891e+00 1.091024994850158691e+00 4.632654190063476562e+00 1.717103838920593262e+00 2.334356784820556641e+00
2.418000000000000000e+03 1.184919643402099609e+01 -1.502236366271972656e+01 -2.999787628650665283e-01 4.407288074493408203e+00 1.232192754745483398e+00 3.737520277500152588e-01
2.419000000000000000e+03 1.417827892303466797e+01 -1.585513496398925781e+01 -2.292623966932296753e-01 4.688318252563476562e+00 1.337716698646545410e+00 -7.697906345129013062e-02
2.420000000000000000e+03 8.936473846435546875e+00 -1.737503242492675781e+01 -2.696877717971801758e-01 3.243443489074707031e+00 8.921267390251159668e-01 6.349821686744689941e-01
2.421000000000000000e+03 8.531828880310058594e+00 -9.276973724365234375e+00 2.099837064743041992e-01 3.496556043624877930e+00 1.111961960792541504e+00 1.155312895774841309e+00
2.422000000000000000e+03 8.479151725769042969e+00 -7.212924003601074219e+00 6.831226944923400879e-01 3.205653667449951172e+00 1.166632890701293945e+00 1.440861940383911133e+00
2.423000000000000000e+03 6.762086486816406250e+01 -1.103579998016357422e+01 -1.870466917753219604e-01 7.421942234039306641e+00 2.170468568801879883e+00 3.764270842075347900e-01
2.424000000000000000e+03 6.874916839599609375e+01 -1.301539993286132812e+01 -1.532828807830810547e-01 7.500545024871826172e+00 2.204178571701049805e+00 4.086811542510986328e-01
2.425000000000000000e+03 6.854760742187500000e+01 1.296098136901855469e+01 -3.423825800418853760e-01 7.976107120513916016e+00 2.290117502212524414e+00 -3.917928040027618408e-01
2.426000000000000000e+03 6.893810272216796875e+01 7.358932495117187500e+00 -3.032671511173248291e-01 7.872366428375244141e+00 2.270729780197143555e+00 -1.748876571655273438e-01
2.427000000000000000e+03 8.966861724853515625e+00 1.312275409698486328e+01 -8.129756450653076172e-01 5.241582870483398438e+00 1.328582167625427246e+00 -2.019778013229370117e+00
2.428000000000000000e+03 1.266691493988037109e+01 -1.127887344360351562e+01 -2.363635897636413574e-01 5.523910045623779297e+00 1.586263895034790039e+00 9.980273246765136719e-02
2.429000000000000000e+03 9.794579505920410156e+00 -1.963741111755371094e+01 -3.048628270626068115e-01 3.332600831985473633e+00 9.083214402198791504e-01 5.063183307647705078e-01
2.430000000000000000e+03 6.808715057373046875e+01 -1.739010810852050781e+01 -1.094788387417793274e-01 7.368232250213623047e+00 2.177625894546508789e+00 4.974163174629211426e-01
2.431000000000000000e+03 6.990550231933593750e+01 -1.928186607360839844e+01 -6.626117974519729614e-02 7.478567123413085938e+00 2.223691701889038086e+00 4.846787452697753906e-01
2.432000000000000000e+03 6.932012176513671875e+01 -2.076547145843505859e+00 -2.045509517192840576e-01 7.737574577331542969e+00 2.259907245635986328e+00 1.210423111915588379e-01
2.433000000000000000e+03 6.636488342285156250e+01 1.725414276123046875e+01 -4.262776970863342285e-01 8.099786758422851562e+00 2.302052736282348633e+00 -4.590420424938201904e-01
2.434000000000000000e+03 6.886280059814453125e+01 1.687434959411621094e+01 -3.221689462661743164e-01 8.098034858703613281e+00 2.332759857177734375e+00 -5.568501949310302734e-01
2.435000000000000000e+03 1.312550735473632812e+01 -1.274860763549804688e+01 -2.504743039608001709e-01 5.132709503173828125e+00 1.464670538902282715e+00 3.307975828647613525e-02
2.436000000000000000e+03 4.125733566284179688e+01 -7.150092601776123047e+00 -3.012277930974960327e-02 2.715854167938232422e+00 8.057194352149963379e-01 -8.474948257207870483e-02
2.437000000000000000e+03 3.826279830932617188e+01 -3.134304046630859375e+00 2.961992621421813965e-01 1.872147679328918457e+00 6.505041122436523438e-01 2.690390869975090027e-02
2.438000000000000000e+03 1.062111568450927734e+01 -1.323490905761718750e+01 -2.146205902099609375e-01 4.270359039306640625e+00 1.216721534729003906e+00 6.117686629295349121e-01
2.439000000000000000e+03 6.876008605957031250e+01 -5.009273886680603027e-01 -2.253365218639373779e-01 7.698925495147705078e+00 2.242076635360717773e+00 8.872893452644348145e-02
2.440000000000000000e+03 6.971616363525390625e+01 9.960981369018554688e+00 -2.693911194801330566e-01 7.978327751159667969e+00 2.312680959701538086e+00 -2.937317490577697754e-01
2.441000000000000000e+03 3.915742111206054688e+01 -3.796930313110351562e+00 1.391007304191589355e-01 2.122079849243164062e+00 6.783542037010192871e-01 -2.445989660918712616e-02
2.442000000000000000e+03 4.197556304931640625e+01 -1.083958148956298828e+01 -1.503686308860778809e-01 2.996913194656372070e+00 8.539633750915527344e-01 -2.401907742023468018e-01
2.443000000000000000e+03 4.250811767578125000e+01 -8.126248359680175781e+00 -7.917165756225585938e-02 3.055184125900268555e+00 8.928037285804748535e-01 -1.022155731916427612e-01
2.444000000000000000e+03 4.414220428466796875e+01 -1.501468276977539062e+01 -2.888315320014953613e-01 3.731310844421386719e+00 1.032743811607360840e+00 -2.834448218345642090e-01
2.445000000000000000e+03 4.310627746582031250e+01 -1.115385437011718750e+01 -1.999487429857254028e-01 3.307277202606201172e+00 9.321985244750976562e-01 -1.690860539674758911e-01
2.446000000000000000e+03 6.627048492431640625e+01 -2.413099288940429688e+01 1.459866203367710114e-02 7.120954036712646484e+00 2.140665769577026367e+00 5.886636972427368164e-01
2.447000000000000000e+03 5.916709899902343750e+01 2.542865371704101562e+01 -9.523732960224151611e-02 9.236196517944335938e+00 2.742287635803222656e+00 1.962774693965911865e-01
2.448000000000000000e+03 4.058501052856445312e+01 3.272945642471313477e+00 1.900171488523483276e-01 2.298067808151245117e+00 7.464255094528198242e-01 4.140933752059936523e-01
2.449000000000000000e+03 4.169618225097656250e+01 9.146255493164062500e+00 1.329334080219268799e-01 2.386585474014282227e+00 7.558556199073791504e-01 7.421661615371704102e-01
2.450000000000000000e+03 4.369551086425781250e+01 9.257453918457031250e+00 4.987420886754989624e-02 2.930801391601562500e+00 8.942027091979980469e-01 8.063952326774597168e-01
2.451000000000000000e+03 5.527802658081054688e+01 2.575861358642578125e+01 -4.818178340792655945e-02 8.884749412536621094e+00 2.650970220565795898e+00 1.404149413108825684e+00
2.452000000000000000e+03 1.387270927429199219e+01 1.702441596984863281e+01 -1.220369577407836914e+00 4.713517665863037109e+00 1.047944426536560059e+00 -4.526003599166870117e-01
2.453000000000000000e+03 1.059214115142822266e+01 -8.775299072265625000e+00 -4.021469876170158386e-02 5.133978843688964844e+00 1.528129339218139648e+00 1.060610055923461914e+00
2.454000000000000000e+03 8.961594581604003906e+00 -1.022078609466552734e+01 6.018405780196189880e-02 3.748203277587890625e+00 1.142516255378723145e+00 1.042362451553344727e+00
2.455000000000000000e+03 1.065468502044677734e+01 2.015516471862792969e+01 -8.988004922866821289e-01 4.384032249450683594e+00 1.045569539070129395e+00 -9.024412035942077637e-01
2.456000000000000000e+03 9.289264678955078125e+00 1.901962661743164062e+01 -8.533861041069030762e-01 4.517047882080078125e+00 1.099098563194274902e+00 -1.151747107505798340e+00
2.457000000000000000e+03 1.001199626922607422e+01 1.568400669097900391e+01 -1.027635097503662109e+00 5.056651115417480469e+00 1.208704829216003418e+00 -1.436251044273376465e+00
2.458000000000000000e+03 1.414339351654052734e+01 -1.760576629638671875e+01 -2.780480980873107910e-01 4.357144355773925781e+00 1.223728775978088379e+00 -1.876285485923290253e-02
2.459000000000000000e+03 6.707850646972656250e+01 -7.778095245361328125e+00 -2.214347422122955322e-01 7.388867378234863281e+00 2.150229692459106445e+00 3.027909994125366211e-01
2.460000000000000000e+03 5.755313873291015625e+01 2.235800933837890625e+01 -4.789478778839111328e-01 8.342677116394042969e+00 2.359118938446044922e+00 5.237555503845214844e-01
2.461000000000000000e+03 4.646287918090820312e+01 -1.724772453308105469e+01 -3.104136586189270020e-01 4.480001926422119141e+00 1.250876545906066895e+00 -2.267684191465377808e-01
2.462000000000000000e+03 4.565597534179687500e+01 -1.357493591308593750e+01 -3.331863284111022949e-01 4.065023422241210938e+00 1.119551181793212891e+00 -1.565347909927368164e-01
2.463000000000000000e+03 6.533605194091796875e+01 2.612182807922363281e+01 1.272701025009155273e-01 8.703494071960449219e+00 2.649229288101196289e+00 -7.373862862586975098e-01
2.464000000000000000e+03 6.766334533691406250e+01 2.198001098632812500e+01 -1.956276446580886841e-01 8.296300888061523438e+00 2.430202007293701172e+00 -7.476539611816406250e-01
2.465000000000000000e+03 6.894548034667968750e+01 -1.994357299804687500e+01 -6.398611515760421753e-02 7.392087459564208984e+00 2.198430538177490234e+00 5.165463089942932129e-01
2.466000000000000000e+03 6.781700897216796875e+01 -2.070639038085937500e+01 -6.142073124647140503e-02 7.293466091156005859e+00 2.169613599777221680e+00 5.393122434616088867e-01
2.467000000000000000e+03 6.908263397216796875e+01 -1.569750785827636719e+01 -1.137268021702766418e-01 7.490698337554931641e+00 2.213091373443603516e+00 4.494504332542419434e-01
2.468000000000000000e+03 4.273514175415039062e+01 8.292618751525878906e+00 1.388074606657028198e-01 2.699859380722045898e+00 8.515999913215637207e-01 7.279418110847473145e-01
2.469000000000000000e+03 3.639418792724609375e+01 1.930928826332092285e+00 5.081529617309570312e-01 1.304942607879638672e+00 5.439286828041076660e-01 2.446085512638092041e-01
2.470000000000000000e+03 5.637147140502929688e+01 1.915573883056640625e+01 -5.630677938461303711e-01 7.475741863250732422e+00 2.073802232742309570e+00 7.347198128700256348e-01
2.471000000000000000e+03 5.643455886840820312e+01 2.128590965270996094e+01 -4.834318161010742188e-01 7.926888465881347656e+00 2.233036994934082031e+00 8.206544518470764160e-01
2.472000000000000000e+03 6.924082946777343750e+01 4.189624786376953125e+00 -2.539434432983398438e-01 7.830405712127685547e+00 2.272938728332519531e+00 -5.978423357009887695e-02
2.473000000000000000e+03 1.032497024536132812e+01 -2.271237945556640625e+01 -3.054249286651611328e-01 3.230214118957519531e+00 8.774367570877075195e-01 3.947581946849822998e-01
2.474000000000000000e+03 5.295183181762695312e+01 1.717069244384765625e+01 -4.251566529273986816e-01 6.196429252624511719e+00 1.731381773948669434e+00 1.105881452560424805e+00
2.475000000000000000e+03 6.643474578857421875e+01 -2.709996414184570312e+01 1.075123399496078491e-01 7.086779594421386719e+00 2.158287525177001953e+00 5.605366230010986328e-01
2.476000000000000000e+03 4.583222198486328125e+01 1.336405086517333984e+01 2.220695605501532555e-03 3.526939630508422852e+00 1.058748126029968262e+00 1.092422842979431152e+00
2.477000000000000000e+03 5.078161621093750000e+01 1.733506202697753906e+01 -2.301039695739746094e-01 5.363385200500488281e+00 1.539984464645385742e+00 1.310169219970703125e+00
2.478000000000000000e+03 4.698260879516601562e+01 1.588823699951171875e+01 2.178778313100337982e-02 3.869416236877441406e+00 1.167361140251159668e+00 1.280554175376892090e+00
2.479000000000000000e+03 4.760392379760742188e+01 1.421798419952392578e+01 -7.873845100402832031e-02 4.114870071411132812e+00 1.210839509963989258e+00 1.173614859580993652e+00
2.480000000000000000e+03 3.795387649536132812e+01 3.507686376571655273e+00 3.113250732421875000e-01 1.676798224449157715e+00 5.964369773864746094e-01 3.678802251815795898e-01
2.481000000000000000e+03 4.106609725952148438e+01 4.475077152252197266e+00 2.314585149288177490e-01 2.351979732513427734e+00 7.750314474105834961e-01 5.031654238700866699e-01
2.482000000000000000e+03 9.244063377380371094e+00 2.250003814697265625e+01 -6.563435792922973633e-01 4.290868282318115234e+00 1.090357422828674316e+00 -8.373249769210815430e-01
2.483000000000000000e+03 6.264462280273437500e+01 3.164898109436035156e+01 1.150748252868652344e+00 9.501583099365234375e+00 3.195699453353881836e+00 -3.975741565227508545e-01
2.484000000000000000e+03 4.702560043334960938e+01 -1.535918235778808594e+01 -3.445601165294647217e-01 4.479932785034179688e+00 1.240611910820007324e+00 -1.272643655538558960e-01
2.485000000000000000e+03 4.663126754760742188e+01 -1.851296424865722656e+01 -3.677916228771209717e-01 4.609163284301757812e+00 1.272411465644836426e+00 -1.940539479255676270e-01
2.486000000000000000e+03 6.434086608886718750e+01 2.847047805786132812e+01 4.257461428642272949e-01 9.004945755004882812e+00 2.829207420349121094e+00 -6.388589739799499512e-01
2.487000000000000000e+03 4.922756195068359375e+01 -2.069398307800292969e+01 -3.361413180828094482e-01 5.379474639892578125e+00 1.513000011444091797e+00 4.338087746873497963e-04
2.488000000000000000e+03 6.567626953125000000e+01 2.993515968322753906e+01 6.498670578002929688e-01 8.793201446533203125e+00 2.832920551300048828e+00 -6.320624947547912598e-01
2.489000000000000000e+03 1.596875286102294922e+01 2.276647567749023438e+01 -8.692155480384826660e-01 3.307959318161010742e+00 7.316231727600097656e-01 -2.624768912792205811e-01
2.490000000000000000e+03 1.288666439056396484e+01 2.697598457336425781e+01 -5.983256101608276367e-01 3.625209093093872070e+00 9.080650806427001953e-01 -4.170504808425903320e-01
2.491000000000000000e+03 1.325735282897949219e+01 1.639813804626464844e+01 -1.257427215576171875e+00 4.930375099182128906e+00 1.101884365081787109e+00 -6.578973531723022461e-01
2.492000000000000000e+03 1.714730644226074219e+01 1.915027236938476562e+01 -9.357422590255737305e-01 3.245300531387329102e+00 6.928675174713134766e-01 -2.331631816923618317e-02
2.493000000000000000e+03 1.469333934783935547e+01 1.934105491638183594e+01 -1.075857281684875488e+00 4.037195205688476562e+00 8.884013891220092773e-01 -3.497925996780395508e-01
2.494000000000000000e+03 3.731909561157226562e+01 1.285285711288452148e+00 3.362184464931488037e-01 1.562677621841430664e+00 5.696688294410705566e-01 2.486510425806045532e-01
2.495000000000000000e+03 3.911768722534179688e+01 2.125243186950683594e+00 2.695566713809967041e-01 1.982073783874511719e+00 6.754891276359558105e-01 3.075156509876251221e-01
2.496000000000000000e+03 5.213771438598632812e+01 -2.618577003479003906e+01 2.064867690205574036e-02 6.318399429321289062e+00 1.901714444160461426e+00 3.305687904357910156e-01
2.497000000000000000e+03 5.138525390625000000e+01 1.631525039672851562e+01 -3.200857043266296387e-01 5.568995952606201172e+00 1.574673056602478027e+00 1.203444361686706543e+00
2.498000000000000000e+03 4.960685348510742188e+01 1.707195281982421875e+01 -1.198548749089241028e-01 4.952924728393554688e+00 1.449921011924743652e+00 1.371400117874145508e+00
2.499000000000000000e+03 6.872228240966796875e+01 1.433346271514892578e+01 -3.459842503070831299e-01 8.027470588684082031e+00 2.304445743560791016e+00 -4.468210339546203613e-01
2.500000000000000000e+03 9.477708816528320312e+00 2.040799140930175781e+01 -7.798155546188354492e-01 4.416941165924072266e+00 1.091137647628784180e+00 -1.004948616027832031e+00
2.501000000000000000e+03 1.107261085510253906e+01 2.229802894592285156e+01 -7.930266261100769043e-01 4.181464672088623047e+00 1.016531348228454590e+00 -7.336894273757934570e-01
2.502000000000000000e+03 2.170870399475097656e+01 2.890193939208984375e+01 -5.713437199592590332e-01 1.721107363700866699e+00 3.449290990829467773e-01 -1.333362013101577759e-01
2.503000000000000000e+03 1.971717071533203125e+01 2.772564506530761719e+01 -6.107571721076965332e-01 2.170849800109863281e+00 4.680277407169342041e-01 -1.839720457792282104e-01
2.504000000000000000e+03 6.199689865112304688e+01 3.431555557250976562e+01 1.598093748092651367e+00 1.001689147949218750e+01 3.484495639801025391e+00 3.898354172706604004e-01
2.505000000000000000e+03 3.478573226928710938e+01 -1.342612743377685547e+00 5.768106579780578613e-01 1.046392798423767090e+00 4.869610369205474854e-01 3.395630791783332825e-02
2.506000000000000000e+03 6.829391479492187500e+01 -8.111955642700195312e+00 -2.054792195558547974e-01 7.519869804382324219e+00 2.194317102432250977e+00 3.037739396095275879e-01
2.507000000000000000e+03 6.716460418701171875e+01 2.036565208435058594e+01 -2.930137813091278076e-01 8.258009910583496094e+00 2.389498949050903320e+00 -6.344869136810302734e-01
2.508000000000000000e+03 6.804360961914062500e+01 5.623828887939453125e+00 -3.133775591850280762e-01 7.734127521514892578e+00 2.226224899291992188e+00 -8.337867259979248047e-02
2.509000000000000000e+03 6.789980316162109375e+01 -4.927418708801269531e+00 -2.213738113641738892e-01 7.526692390441894531e+00 2.191595554351806641e+00 2.223121821880340576e-01
2.510000000000000000e+03 1.657119560241699219e+01 -2.286223220825195312e+01 -2.751592993736267090e-01 3.740380048751831055e+00 1.039566278457641602e+00 -2.240816652774810791e-01
2.511000000000000000e+03 1.686288833618164062e+01 -2.552982330322265625e+01 -2.751325368881225586e-01 3.457717180252075195e+00 9.547753930091857910e-01 -1.727323830127716064e-01
2.512000000000000000e+03 1.988358306884765625e+01 -3.099454689025878906e+01 -1.825429648160934448e-01 2.991882801055908203e+00 8.428019881248474121e-01 -2.368787974119186401e-01
2.513000000000000000e+03 8.644863128662109375e+00 3.528926467895507812e+01 -1.624816805124282837e-01 4.230539321899414062e+00 1.220417261123657227e+00 -1.626580953598022461e-01
2.514000000000000000e+03 4.531948852539062500e+01 -1.228894901275634766e+01 -2.613911926746368408e-01 3.898685455322265625e+00 1.091188311576843262e+00 -1.336086988449096680e-01
2.515000000000000000e+03 4.502061462402343750e+01 -1.119917488098144531e+01 -2.702443003654479980e-01 3.754224538803100586e+00 1.045194149017333984e+00 -1.217666938900947571e-01
2.516000000000000000e+03 1.193739414215087891e+01 2.006689453125000000e+01 -9.728065729141235352e-01 4.340017318725585938e+00 1.010163187980651855e+00 -7.774509191513061523e-01
2.517000000000000000e+03 1.180079364776611328e+01 -2.242817878723144531e+01 -2.827162146568298340e-01 3.475584268569946289e+00 9.578604698181152344e-01 3.137775361537933350e-01
2.518000000000000000e+03 2.266849899291992188e+01 3.518476104736328125e+01 -4.838363230228424072e-01 1.570892095565795898e+00 3.261167109012603760e-01 -1.454577147960662842e-01
2.519000000000000000e+03 6.880822753906250000e+01 1.564314079284667969e+01 -3.268590867519378662e-01 8.064669609069824219e+00 2.321342945098876953e+00 -5.219604969024658203e-01
2.520000000000000000e+03 5.075919723510742188e+01 -3.736970138549804688e+01 1.207613110542297363e+00 6.987684249877929688e+00 2.458589076995849609e+00 -1.240062564611434937e-01
2.521000000000000000e+03 1.025070285797119141e+01 -3.076045227050781250e+01 -1.853329986333847046e-01 2.919664621353149414e+00 8.202995061874389648e-01 2.078618854284286499e-01
2.522000000000000000e+03 1.470130729675292969e+01 -3.207144165039062500e+01 -2.666685581207275391e-01 3.010710000991821289e+00 8.232123851776123047e-01 4.133366420865058899e-02
2.523000000000000000e+03 4.613775634765625000e+01 -2.110825538635253906e+01 -3.126882612705230713e-01 4.770448684692382812e+00 1.337328076362609863e+00 -3.936561346054077148e-01
2.524000000000000000e+03 4.800609588623046875e+01 -1.928697967529296875e+01 -3.617668747901916504e-01 4.995137691497802734e+00 1.390011310577392578e+00 -1.465546637773513794e-01
2.525000000000000000e+03 6.743681335449218750e+01 -3.727904891967773438e+01 3.503520786762237549e-01 6.976769447326660156e+00 2.198136329650878906e+00 2.451637387275695801e-01
2.526000000000000000e+03 1.161784267425537109e+01 -5.014156818389892578e+00 1.413347423076629639e-01 8.080161094665527344e+00 2.466448545455932617e+00 2.493244647979736328e+00
2.527000000000000000e+03 1.106588935852050781e+01 -4.688540935516357422e+00 7.958816885948181152e-01 6.620794773101806641e+00 2.225003004074096680e+00 2.922558069229125977e+00
2.528000000000000000e+03 1.057274246215820312e+01 -5.306139469146728516e+00 7.180729508399963379e-01 5.597280025482177734e+00 1.894605875015258789e+00 2.401871204376220703e+00
2.529000000000000000e+03 1.327029609680175781e+01 -8.480742454528808594e+00 -5.275374054908752441e-01 7.132723808288574219e+00 1.981555938720703125e+00 -2.027267068624496460e-01
2.530000000000000000e+03 8.104188919067382812e+00 -6.642413139343261719e+00 8.440895080566406250e-01 2.722985029220581055e+00 1.070122361183166504e+00 1.399805307388305664e+00
2.531000000000000000e+03 7.775103569030761719e+00 -7.550601482391357422e+00 6.145497560501098633e-01 2.703682422637939453e+00 9.954696893692016602e-01 1.232252001762390137e+00
2.532000000000000000e+03 9.652971267700195312e+00 -4.804844379425048828e+00 1.334195256233215332e+00 3.767357110977172852e+00 1.530465722084045410e+00 2.248647689819335938e+00
2.533000000000000000e+03 9.320187568664550781e+00 -8.881228446960449219e+00 1.681680530309677124e-01 4.114451408386230469e+00 1.284785866737365723e+00 1.202898025512695312e+00
2.534000000000000000e+03 9.824915885925292969e+00 -5.935366630554199219e+00 7.947004437446594238e-01 4.420147418975830078e+00 1.564454317092895508e+00 2.007375955581665039e+00
2.535000000000000000e+03 8.138014793395996094e+00 -8.375469207763671875e+00 4.461847245693206787e-01 3.071562290191650391e+00 1.055324077606201172e+00 1.228543877601623535e+00
2.536000000000000000e+03 1.118101215362548828e+01 -1.448087215423583984e+01 -2.376360744237899780e-01 4.261668682098388672e+00 1.207209825515747070e+00 4.796346724033355713e-01
2.537000000000000000e+03 1.378651142120361328e+01 -9.448987960815429688e+00 -3.582179248332977295e-01 6.747972011566162109e+00 1.916926264762878418e+00 -5.626239776611328125e-01
2.538000000000000000e+03 1.250325965881347656e+01 -9.077261924743652344e+00 -4.432040452957153320e-01 6.509644508361816406e+00 1.819932103157043457e+00 1.922242045402526855e-01
2.539000000000000000e+03 9.758727073669433594e+00 -9.781825065612792969e+00 -2.566299773752689362e-02 4.394749641418457031e+00 1.310726046562194824e+00 1.015826582908630371e+00
2.540000000000000000e+03 9.636972427368164062e+00 -6.829256534576416016e+00 5.399771928787231445e-01 4.377370357513427734e+00 1.475204229354858398e+00 1.681664586067199707e+00
2.541000000000000000e+03 9.522126197814941406e+00 -1.268631076812744141e+01 -1.957752406597137451e-01 3.865940809249877930e+00 1.101049661636352539e+00 7.743278145790100098e-01
2.542000000000000000e+03 1.537786006927490234e+01 -2.168375205993652344e+01 -3.046221733093261719e-01 3.895646572113037109e+00 1.077307343482971191e+00 -7.520572841167449951e-02
2.543000000000000000e+03 3.977481460571289062e+01 -2.749087810516357422e+00 2.094046026468276978e-01 2.226438045501708984e+00 7.307527661323547363e-01 9.347484260797500610e-02
2.544000000000000000e+03 3.740566253662109375e+01 -2.317758798599243164e+00 2.670642733573913574e-01 1.653773546218872070e+00 5.762513279914855957e-01 2.314433827996253967e-02
2.545000000000000000e+03 1.021341896057128906e+01 -1.415704154968261719e+01 -2.611273229122161865e-01 4.022878170013427734e+00 1.128525257110595703e+00 6.072701811790466309e-01
2.546000000000000000e+03 1.311253070831298828e+01 -7.823785305023193359e+00 -5.444603562355041504e-01 7.620772838592529297e+00 2.122893810272216797e+00 -9.456304460763931274e-02
2.547000000000000000e+03 1.218313884735107422e+01 2.143450736999511719e+01 -9.040089249610900879e-01 4.159406185150146484e+00 9.766191840171813965e-01 -6.832787394523620605e-01
2.548000000000000000e+03 1.305395889282226562e+01 -9.977896690368652344e+00 -3.276208341121673584e-01 6.160356998443603516e+00 1.749820828437805176e+00 -9.507634490728378296e-02
2.549000000000000000e+03 1.343891239166259766e+01 -1.071706295013427734e+01 -2.661202251911163330e-01 6.002255916595458984e+00 1.720840692520141602e+00 -1.515372842550277710e-01
2.550000000000000000e+03 1.253613758087158203e+01 -1.791204643249511719e+01 -3.031215965747833252e-01 4.076603889465332031e+00 1.132044672966003418e+00 2.757626473903656006e-01
2.551000000000000000e+03 9.977723121643066406e+00 -1.755408096313476562e+01 -2.700193822383880615e-01 3.539449453353881836e+00 9.808290004730224609e-01 5.557851195335388184e-01
2.552000000000000000e+03 4.284009170532226562e+01 4.781095027923583984e+00 1.262267678976058960e-01 2.817158699035644531e+00 8.830156326293945312e-01 5.482450723648071289e-01
2.553000000000000000e+03 1.329107284545898438e+01 -1.510517883300781250e+01 -2.790507972240447998e-01 4.764297485351562500e+00 1.345574021339416504e+00 5.591610074043273926e-02
2.554000000000000000e+03 1.004098987579345703e+01 -1.634244537353515625e+01 -2.789917886257171631e-01 3.644358158111572266e+00 1.009609937667846680e+00 5.737823843955993652e-01
2.555000000000000000e+03 4.014753341674804688e+01 -4.269028186798095703e+00 1.355174779891967773e-01 2.350464344024658203e+00 7.457945346832275391e-01 2.983226999640464783e-02
2.556000000000000000e+03 4.123161697387695312e+01 -4.647264957427978516e+00 4.476117715239524841e-02 2.617333412170410156e+00 7.986283898353576660e-01 -2.218580618500709534e-02
2.557000000000000000e+03 3.653514480590820312e+01 -1.423557400703430176e+00 4.614668488502502441e-01 1.427315711975097656e+00 5.666347742080688477e-01 5.989684537053108215e-02
2.558000000000000000e+03 6.928822326660156250e+01 5.564735531806945801e-01 -2.220339030027389526e-01 7.775067329406738281e+00 2.265910148620605469e+00 5.170553922653198242e-02
2.559000000000000000e+03 4.271893310546875000e+01 1.015483570098876953e+01 1.484108418226242065e-01 2.641568660736083984e+00 8.369938731193542480e-01 8.076553940773010254e-01
2.560000000000000000e+03 8.885179519653320312e+00 -2.451059150695800781e+01 -2.372541129589080811e-01 2.951339244842529297e+00 8.142255544662475586e-01 4.076140820980072021e-01
2.561000000000000000e+03 6.801888275146484375e+01 1.844363975524902344e+01 -3.221868872642517090e-01 8.150748252868652344e+00 2.348568439483642578e+00 -5.969458818435668945e-01
2.562000000000000000e+03 4.909453201293945312e+01 1.498533058166503906e+01 -1.709774881601333618e-01 4.673900127410888672e+00 1.350876808166503906e+00 1.195479869842529297e+00
2.563000000000000000e+03 1.032670211791992188e+01 1.709161567687988281e+01 -1.069661855697631836e+00 4.829468727111816406e+00 1.127942085266113281e+00 -1.215724825859069824e+00
2.564000000000000000e+03 3.816238021850585938e+01 4.634881913661956787e-01 3.821021616458892822e-01 1.756957173347473145e+00 6.417177915573120117e-01 1.978208124637603760e-01
2.565000000000000000e+03 1.124415302276611328e+01 -1.638104629516601562e+01 -2.771468162536621094e-01 4.032917976379394531e+00 1.126731395721435547e+00 4.507249593734741211e-01
2.566000000000000000e+03 4.379661941528320312e+01 1.114712047576904297e+01 6.034461036324501038e-02 2.926060676574707031e+00 8.959215879440307617e-01 9.056151509284973145e-01
2.567000000000000000e+03 5.060467529296875000e+01 1.313178634643554688e+01 -3.213466107845306396e-01 5.123894691467285156e+00 1.440764307975769043e+00 1.008812427520751953e+00
2.568000000000000000e+03 5.323666000366210938e+01 1.880559730529785156e+01 -3.716251254081726074e-01 6.516574859619140625e+00 1.843484878540039062e+00 1.209425568580627441e+00
2.569000000000000000e+03 1.459614467620849609e+01 -2.024413490295410156e+01 -3.319742083549499512e-01 4.006220817565917969e+00 1.102273941040039062e+00 -3.807931393384933472e-02
2.570000000000000000e+03 1.576090621948242188e+01 -1.860495567321777344e+01 -2.637366950511932373e-01 4.351979732513427734e+00 1.226472973823547363e+00 -2.838810086250305176e-01
2.571000000000000000e+03 6.784886169433593750e+01 -1.608327102661132812e+01 -1.386304199695587158e-01 7.371265888214111328e+00 2.169790506362915039e+00 4.817876815795898438e-01
2.572000000000000000e+03 6.929976654052734375e+01 -1.697404098510742188e+01 -1.030081436038017273e-01 7.485232830047607422e+00 2.214667320251464844e+00 4.676764607429504395e-01
2.573000000000000000e+03 4.646549987792968750e+01 -1.184923458099365234e+01 -3.256762027740478516e-01 4.140074253082275391e+00 1.144319415092468262e+00 -8.561612665653228760e-02
2.574000000000000000e+03 3.923760604858398438e+01 3.442545175552368164e+00 3.062103688716888428e-01 1.926680445671081543e+00 6.698672771453857422e-01 4.250218868255615234e-01
2.575000000000000000e+03 4.179863357543945312e+01 2.904448986053466797e+00 1.696694642305374146e-01 2.579302310943603516e+00 8.246915936470031738e-01 4.606786966323852539e-01
2.576000000000000000e+03 6.900052642822265625e+01 9.167177200317382812e+00 -3.164373040199279785e-01 7.906760215759277344e+00 2.277096748352050781e+00 -2.449443936347961426e-01
2.577000000000000000e+03 4.298985290527343750e+01 -3.835466623306274414e+00 -2.324845828115940094e-02 3.038927078247070312e+00 9.047035574913024902e-01 7.651109993457794189e-02
2.578000000000000000e+03 4.176523971557617188e+01 -6.153432846069335938e+00 -2.269832231104373932e-02 2.803813934326171875e+00 8.343347311019897461e-01 -6.476350128650665283e-02
2.579000000000000000e+03 6.808800506591796875e+01 1.028208851814270020e+00 -2.631741464138031006e-01 7.647558689117431641e+00 2.215315341949462891e+00 5.360092595219612122e-02
2.580000000000000000e+03 6.711255645751953125e+01 -1.102347493171691895e+00 -2.703304886817932129e-01 7.490839004516601562e+00 2.166152477264404297e+00 1.398666799068450928e-01
2.581000000000000000e+03 6.809764099121093750e+01 -9.195116996765136719e+00 -1.852488666772842407e-01 7.478858947753906250e+00 2.188083171844482422e+00 3.285197615623474121e-01
2.582000000000000000e+03 6.743659973144531250e+01 9.442306518554687500e+00 -3.890846669673919678e-01 7.797839164733886719e+00 2.222626209259033203e+00 -2.042284309864044189e-01
2.583000000000000000e+03 6.058641052246093750e+01 2.640227508544921875e+01 -3.896692360285669565e-04 9.358103752136230469e+00 2.807314157485961914e+00 -2.243194282054901123e-01
2.584000000000000000e+03 6.826493835449218750e+01 -1.551445484161376953e+00 -2.405277788639068604e-01 7.611174583435058594e+00 2.211194038391113281e+00 1.361268907785415649e-01
2.585000000000000000e+03 7.022605133056640625e+01 -1.411553668975830078e+01 -1.078899949789047241e-01 7.634540081024169922e+00 2.257995128631591797e+00 4.005771875381469727e-01
2.586000000000000000e+03 1.287032032012939453e+01 2.238447380065917969e+01 -8.439587950706481934e-01 3.925990104675292969e+00 9.246094226837158203e-01 -5.519723892211914062e-01
2.587000000000000000e+03 1.736012077331542969e+01 2.366544151306152344e+01 -7.901831269264221191e-01 2.908766746520996094e+00 6.355750560760498047e-01 -1.843747347593307495e-01
2.588000000000000000e+03 4.321732330322265625e+01 -8.569828033447265625e+00 -1.393701434135437012e-01 3.258592367172241211e+00 9.357666373252868652e-01 -9.489212930202484131e-02
2.589000000000000000e+03 5.002372741699218750e+01 1.456914234161376953e+01 -2.533976435661315918e-01 4.967518806457519531e+00 1.414236307144165039e+00 1.101214766502380371e+00
2.590000000000000000e+03 4.958256149291992188e+01 1.599229240417480469e+01 -1.884888559579849243e-01 4.954791545867919922e+00 1.429890751838684082e+00 1.262272715568542480e+00
2.591000000000000000e+03 5.250765609741210938e+01 1.570152187347412109e+01 -3.957108557224273682e-01 5.842586040496826172e+00 1.634062528610229492e+00 1.039388656616210938e+00
2.592000000000000000e+03 6.523616790771484375e+01 -2.240000152587890625e+01 -4.166517034173011780e-02 7.080427646636962891e+00 2.111628770828247070e+00 5.875750184059143066e-01
2.593000000000000000e+03 6.370555877685546875e+01 -2.335660362243652344e+01 -1.241147704422473907e-02 6.959774971008300781e+00 2.084208965301513672e+00 6.153982877731323242e-01
2.594000000000000000e+03 1.312555408477783203e+01 1.845079994201660156e+01 -1.141378045082092285e+00 4.486392498016357422e+00 1.003504276275634766e+00 -6.246272921562194824e-01
2.595000000000000000e+03 3.783003997802734375e+01 2.362013101577758789e+00 4.129690229892730713e-01 1.610635638236999512e+00 6.070814132690429688e-01 3.139489889144897461e-01
2.596000000000000000e+03 5.677942657470703125e+01 2.345443725585937500e+01 -3.533148467540740967e-01 8.519406318664550781e+00 2.449827432632446289e+00 8.164802193641662598e-01
2.597000000000000000e+03 6.668370056152343750e+01 2.419045448303222656e+01 -4.724534228444099426e-02 8.448863029479980469e+00 2.520485401153564453e+00 -7.785363197326660156e-01
2.598000000000000000e+03 6.860597229003906250e+01 -2.203229522705078125e+01 -2.748500742018222809e-02 7.317733287811279297e+00 2.187074422836303711e+00 5.387904047966003418e-01
2.599000000000000000e+03 6.595187377929687500e+01 -1.992021942138671875e+01 -9.764946252107620239e-02 7.157457351684570312e+00 2.117942333221435547e+00 5.593157410621643066e-01
2.600000000000000000e+03 1.336813640594482422e+01 1.983823394775390625e+01 -1.034082889556884766e+00 4.174780368804931641e+00 9.422092437744140625e-01 -5.523142218589782715e-01
2.601000000000000000e+03 4.120968627929687500e+01 -8.048433303833007812e+00 -3.329049423336982727e-02 2.719902515411376953e+00 8.059836030006408691e-01 -1.603725552558898926e-01
2.602000000000000000e+03 6.650409698486328125e+01 2.847251319885253906e+01 3.006381094455718994e-01 8.637218475341796875e+00 2.681357145309448242e+00 -6.972357034683227539e-01
2.603000000000000000e+03 6.680610656738281250e+01 2.584397888183593750e+01 6.014018878340721130e-02 8.473790168762207031e+00 2.560179233551025391e+00 -7.383792400360107422e-01
2.604000000000000000e+03 2.316217994689941406e+01 2.505143737792968750e+01 -6.154739260673522949e-01 1.348125100135803223e+00 2.197953611612319946e-01 -8.922859281301498413e-02
2.605000000000000000e+03 5.028360366821289062e+01 -2.232623291015625000e+01 -2.988631427288055420e-01 5.765599727630615234e+00 1.640020966529846191e+00 7.634903490543365479e-02
2.606000000000000000e+03 5.034079742431640625e+01 -1.732980537414550781e+01 -3.977503478527069092e-01 5.341570377349853516e+00 1.483146071434020996e+00 6.134995073080062866e-02
2.607000000000000000e+03 6.453356170654296875e+01 3.491201782226562500e+01 1.047471642494201660e+00 9.385528564453125000e+00 3.129899978637695312e+00 6.206375733017921448e-02
2.608000000000000000e+03 1.467959785461425781e+01 2.183200836181640625e+01 -9.196033477783203125e-01 3.715442180633544922e+00 8.387516736984252930e-01 -3.760529160499572754e-01
2.609000000000000000e+03 1.447563743591308594e+01 -1.873484802246093750e+01 -2.814103662967681885e-01 4.280016899108886719e+00 1.199581980705261230e+00 6.903723813593387604e-03
2.610000000000000000e+03 4.116006088256835938e+01 -1.907761335372924805e+00 1.462054401636123657e-01 2.518577575683593750e+00 7.994349002838134766e-01 1.815619170665740967e-01
2.611000000000000000e+03 6.682723999023437500e+01 1.212603759765625000e+01 -4.108631908893585205e-01 7.859532833099365234e+00 2.234600782394409180e+00 -3.009866476058959961e-01
2.612000000000000000e+03 6.742010498046875000e+01 1.051645851135253906e+01 -3.835303485393524170e-01 7.824056148529052734e+00 2.232157707214355469e+00 -2.532486021518707275e-01
2.613000000000000000e+03 5.126351547241210938e+01 -2.414272689819335938e+01 -1.534488052129745483e-01 6.028783321380615234e+00 1.762600302696228027e+00 2.485318779945373535e-01
2.614000000000000000e+03 6.681239318847656250e+01 -1.390894985198974609e+01 -1.810673475265502930e-01 7.289749145507812500e+00 2.132604598999023438e+00 4.418344199657440186e-01
2.615000000000000000e+03 1.350510215759277344e+01 -2.358303642272949219e+01 -2.866214811801910400e-01 3.521512985229492188e+00 9.704674482345581055e-01 1.437667310237884521e-01
2.616000000000000000e+03 9.161506652832031250e+00 3.753535842895507812e+01 -1.830384731292724609e-01 4.174166679382324219e+00 1.197338581085205078e+00 -1.169248446822166443e-01
2.617000000000000000e+03 1.203458786010742188e+01 3.591093063354492188e+01 -2.305786311626434326e-01 3.645370960235595703e+00 1.024437785148620605e+00 -1.782490015029907227e-01
2.618000000000000000e+03 1.930877685546875000e+01 3.462595748901367188e+01 -4.268916249275207520e-01 2.254009246826171875e+00 5.481352806091308594e-01 -1.240608096122741699e-01
2.619000000000000000e+03 1.411722660064697266e+01 -2.971248054504394531e+01 -2.319972217082977295e-01 3.127955436706542969e+00 8.687874674797058105e-01 8.021734654903411865e-02
2.620000000000000000e+03 1.341202354431152344e+01 2.124940490722656250e+01 -9.647969007492065430e-01 3.997525453567504883e+00 9.098185300827026367e-01 -5.388401746749877930e-01
2.621000000000000000e+03 1.294222259521484375e+01 2.445686340332031250e+01 -7.295136451721191406e-01 3.756764411926269531e+00 9.081752300262451172e-01 -4.919728040695190430e-01
2.622000000000000000e+03 7.174328613281250000e+01 -2.168624877929687500e+01 -3.136789798736572266e-02 7.556116580963134766e+00 2.257424592971801758e+00 4.493205845355987549e-01
2.623000000000000000e+03 2.329591751098632812e+01 -3.493380355834960938e+01 -6.292977929115295410e-02 2.540377378463745117e+00 7.432342767715454102e-01 -2.389634847640991211e-01
2.624000000000000000e+03 5.572506713867187500e+01 -3.092592239379882812e+01 5.766720771789550781e-01 6.606980323791503906e+00 2.155095577239990234e+00 5.277069807052612305e-01
2.625000000000000000e+03 1.026379966735839844e+01 -7.729941368103027344e+00 1.396872401237487793e-01 5.212825775146484375e+00 1.605753898620605469e+00 1.421946287155151367e+00
2.626000000000000000e+03 1.344795894622802734e+01 -7.367815971374511719e+00 -6.382107734680175781e-01 8.186550140380859375e+00 2.264502048492431641e+00 -3.258074820041656494e-01
2.627000000000000000e+03 1.289436626434326172e+01 -5.970407485961914062e+00 -8.327536582946777344e-01 9.256924629211425781e+00 2.527251243591308594e+00 4.345543980598449707e-01
2.628000000000000000e+03 1.179639244079589844e+01 -5.533456802368164062e+00 -1.654600948095321655e-01 8.184833526611328125e+00 2.405812025070190430e+00 1.954159498214721680e+00
2.629000000000000000e+03 8.982378959655761719e+00 -6.599459171295166016e+00 7.435666322708129883e-01 3.553932905197143555e+00 1.289249897003173828e+00 1.618389725685119629e+00
2.630000000000000000e+03 1.290467357635498047e+01 -6.641896247863769531e+00 -7.030265927314758301e-01 8.627658843994140625e+00 2.377389669418334961e+00 3.332152068614959717e-01
2.631000000000000000e+03 1.241246032714843750e+01 -6.572827816009521484e+00 -6.071550250053405762e-01 8.085545539855957031e+00 2.243516921997070312e+00 7.479053139686584473e-01
2.632000000000000000e+03 3.899746322631835938e+01 -2.387268692255020142e-01 2.336565405130386353e-01 1.999021530151367188e+00 6.698034405708312988e-01 1.637837588787078857e-01
2.633000000000000000e+03 3.905706024169921875e+01 -2.126838922500610352e+00 1.908585131168365479e-01 2.042384862899780273e+00 6.699730157852172852e-01 9.087958186864852905e-02
2.634000000000000000e+03 1.207543468475341797e+01 -1.277518463134765625e+01 -2.449597716331481934e-01 4.905294895172119141e+00 1.398100614547729492e+00 3.425451517105102539e-01
2.635000000000000000e+03 6.779872131347656250e+01 -3.600800037384033203e+00 -2.381977438926696777e-01 7.539642333984375000e+00 2.190433263778686523e+00 1.960371583700180054e-01
2.636000000000000000e+03 5.452764892578125000e+01 1.847767829895019531e+01 -4.950434565544128418e-01 6.879953384399414062e+00 1.915472984313964844e+00 1.007149934768676758e+00
2.637000000000000000e+03 5.729365158081054688e+01 2.029494094848632812e+01 -5.716743469238281250e-01 7.845569133758544922e+00 2.182168483734130859e+00 5.581361055374145508e-01
2.638000000000000000e+03 1.019407176971435547e+01 -1.061336612701416016e+01 -1.069684699177742004e-01 4.504534721374511719e+00 1.319269776344299316e+00 8.689296841621398926e-01
2.639000000000000000e+03 1.128689289093017578e+01 -9.519532203674316406e+00 -2.079032808542251587e-01 5.564560890197753906e+00 1.606997251510620117e+00 7.157568335533142090e-01
2.640000000000000000e+03 1.124078464508056641e+01 -1.777471542358398438e+01 -3.341625034809112549e-01 3.829163074493408203e+00 1.048500180244445801e+00 4.172825515270233154e-01
2.641000000000000000e+03 1.255733871459960938e+01 -1.430259132385253906e+01 -2.398866862058639526e-01 4.659278392791748047e+00 1.325817584991455078e+00 2.301089614629745483e-01
2.642000000000000000e+03 1.103897666931152344e+01 -1.531266117095947266e+01 -2.977817058563232422e-01 4.102373123168945312e+00 1.141377449035644531e+00 4.728800952434539795e-01
2.643000000000000000e+03 4.494483947753906250e+01 1.216070079803466797e+01 5.810870602726936340e-02 3.279848575592041016e+00 1.001387119293212891e+00 9.898011684417724609e-01
2.644000000000000000e+03 1.152804183959960938e+01 -1.165656661987304688e+01 -2.060080468654632568e-01 4.944879055023193359e+00 1.421661257743835449e+00 4.575242996215820312e-01
2.645000000000000000e+03 1.301905632019042969e+01 -1.190483093261718750e+01 -2.244815379381179810e-01 5.480631351470947266e+00 1.576844930648803711e+00 4.161166772246360779e-02
2.646000000000000000e+03 1.309454917907714844e+01 -9.249798774719238281e+00 -3.507543802261352539e-01 6.660692691802978516e+00 1.892981529235839844e+00 -4.844996705651283264e-02
2.647000000000000000e+03 1.237674140930175781e+01 -7.434415340423583984e+00 -5.279759764671325684e-01 7.520578384399414062e+00 2.097780704498291016e+00 5.332222580909729004e-01
2.648000000000000000e+03 1.337669849395751953e+01 -1.363492774963378906e+01 -2.565761208534240723e-01 5.115971088409423828e+00 1.457818388938903809e+00 2.514833398163318634e-02
2.649000000000000000e+03 1.168225574493408203e+01 -1.367073154449462891e+01 -3.014234304428100586e-01 4.590560436248779297e+00 1.286741137504577637e+00 3.784186840057373047e-01
2.650000000000000000e+03 1.304123210906982422e+01 1.732988548278808594e+01 -1.146697282791137695e+00 4.643889904022216797e+00 1.049157738685607910e+00 -6.848715543746948242e-01
2.651000000000000000e+03 6.545532989501953125e+01 -1.849248528480529785e+00 -2.989812195301055908e-01 7.277983188629150391e+00 2.093700647354125977e+00 1.796627938747406006e-01
2.652000000000000000e+03 6.853364562988281250e+01 2.065529346466064453e+00 -2.578994929790496826e-01 7.713539123535156250e+00 2.236691951751708984e+00 1.856205053627490997e-02
2.653000000000000000e+03 6.759497833251953125e+01 -2.205613255500793457e-02 -2.685450911521911621e-01 7.562502384185791016e+00 2.188187122344970703e+00 1.046306639909744263e-01
2.654000000000000000e+03 4.239166259765625000e+01 -5.042563438415527344e+00 -1.157310511916875839e-02 2.919353008270263672e+00 8.723340034484863281e-01 3.526482358574867249e-02
2.655000000000000000e+03 9.946123123168945312e+00 -8.391806602478027344e+00 7.302826642990112305e-02 4.673417091369628906e+00 1.423933506011962891e+00 1.233708262443542480e+00
2.656000000000000000e+03 1.197948837280273438e+01 -9.428598403930664062e+00 -3.174405992031097412e-01 6.031698226928710938e+00 1.714277267456054688e+00 4.092234075069427490e-01
2.657000000000000000e+03 4.960685729980468750e+01 1.353927707672119141e+01 -2.371342629194259644e-01 4.802306175231933594e+00 1.369551658630371094e+00 1.081786394119262695e+00
2.658000000000000000e+03 5.059155273437500000e+01 1.544797515869140625e+01 -2.792031764984130859e-01 5.217215061187744141e+00 1.481403589248657227e+00 1.139570116996765137e+00
2.659000000000000000e+03 4.439576339721679688e+01 4.738596916198730469e+00 3.603966534137725830e-02 3.221129179000854492e+00 9.771506786346435547e-01 5.825001001358032227e-01
2.660000000000000000e+03 4.221679306030273438e+01 3.865428686141967773e+00 1.158583015203475952e-01 2.652349233627319336e+00 8.304622769355773926e-01 4.825176000595092773e-01
2.661000000000000000e+03 5.868619537353515625e+01 2.332150840759277344e+01 -3.583260774612426758e-01 8.720390319824218750e+00 2.508619308471679688e+00 3.445230722427368164e-01
2.662000000000000000e+03 6.167433166503906250e+01 2.387032890319824219e+01 -2.809157371520996094e-01 8.819139480590820312e+00 2.561466932296752930e+00 -3.180979192256927490e-01
2.663000000000000000e+03 6.662416839599609375e+01 -1.644858169555664062e+01 -1.460379809141159058e-01 7.241672515869140625e+00 2.128690242767333984e+00 5.003368258476257324e-01
2.664000000000000000e+03 6.842664337158203125e+01 -1.869046211242675781e+01 -9.432318061590194702e-02 7.375910282135009766e+00 2.184476137161254883e+00 5.107563138008117676e-01
2.665000000000000000e+03 4.745709609985351562e+01 1.146059226989746094e+01 -1.057162955403327942e-01 4.046447753906250000e+00 1.182219505310058594e+00 9.759986996650695801e-01
2.666000000000000000e+03 6.678085327148437500e+01 -9.208789825439453125e+00 -2.295326441526412964e-01 7.342401027679443359e+00 2.133860588073730469e+00 3.479986190795898438e-01
2.667000000000000000e+03 6.761448669433593750e+01 6.693826675415039062e+00 -3.277850449085235596e-01 7.721244812011718750e+00 2.218038082122802734e+00 -1.096207424998283386e-01
2.668000000000000000e+03 1.320293235778808594e+01 -1.681450462341308594e+01 -3.069787621498107910e-01 4.370671749114990234e+00 1.219107985496520996e+00 1.430804729461669922e-01
2.669000000000000000e+03 1.263753128051757812e+01 -1.914828300476074219e+01 -3.534552454948425293e-01 3.923831939697265625e+00 1.071112990379333496e+00 2.461770325899124146e-01
2.670000000000000000e+03 6.606249237060546875e+01 4.561175346374511719e+00 -3.672315776348114014e-01 7.499519348144531250e+00 2.139686346054077148e+00 2.076074015349149704e-03
2.671000000000000000e+03 1.447730731964111328e+01 -2.272218132019042969e+01 -3.217715024948120117e-01 3.692874670028686523e+00 1.011330962181091309e+00 2.821849100291728973e-02
2.672000000000000000e+03 6.758655548095703125e+01 -6.389897823333740234e+00 -2.244890183210372925e-01 7.474010467529296875e+00 2.174856424331665039e+00 2.675816714763641357e-01
2.673000000000000000e+03 6.456365203857421875e+01 -2.054090499877929688e+01 -8.905003219842910767e-02 7.045595645904541016e+00 2.086963653564453125e+00 5.810903906822204590e-01
2.674000000000000000e+03 6.722975158691406250e+01 -1.929256057739257812e+01 -9.188758581876754761e-02 7.266351699829101562e+00 2.152339220046997070e+00 5.396702885627746582e-01
2.675000000000000000e+03 6.806123352050781250e+01 1.166380310058593750e+01 -3.623913824558258057e-01 7.911793231964111328e+00 2.264820575714111328e+00 -3.149825036525726318e-01
2.676000000000000000e+03 4.181040573120117188e+01 -3.450728893280029297e+00 6.861937046051025391e-02 2.722432851791381836e+00 8.373156785964965820e-01 1.072869747877120972e-01
2.677000000000000000e+03 4.017206954956054688e+01 -5.080277323722839355e-01 2.337415665388107300e-01 2.237716674804687500e+00 7.414374947547912598e-01 2.328526377677917480e-01
2.678000000000000000e+03 4.382835388183593750e+01 7.386790275573730469e+00 2.886050380766391754e-02 3.033283948898315430e+00 9.186433553695678711e-01 7.236793041229248047e-01
2.679000000000000000e+03 6.053141021728515625e+01 -2.330181884765625000e+01 -5.207225307822227478e-02 6.756517410278320312e+00 2.011333465576171875e+00 6.111107468605041504e-01
2.680000000000000000e+03 1.391205978393554688e+01 2.321926307678222656e+01 -8.342750668525695801e-01 3.697999715805053711e+00 8.591173887252807617e-01 -4.686346948146820068e-01
2.681000000000000000e+03 6.759346008300781250e+01 -1.480816650390625000e+01 -1.526633501052856445e-01 7.364896774291992188e+00 2.163670063018798828e+00 4.613347649574279785e-01
2.682000000000000000e+03 6.658329010009765625e+01 -2.152558898925781250e+01 -4.741128161549568176e-02 7.182357311248779297e+00 2.140483856201171875e+00 5.706871151924133301e-01
2.683000000000000000e+03 6.548906707763671875e+01 1.914485359191894531e+01 -4.129085540771484375e-01 8.228098869323730469e+00 2.344557046890258789e+00 -4.807142317295074463e-01
2.684000000000000000e+03 6.620568084716796875e+01 2.247628974914550781e+01 -2.164749503135681152e-01 8.417642593383789062e+00 2.460350275039672852e+00 -6.556856036186218262e-01
2.685000000000000000e+03 1.273722648620605469e+01 -2.578961372375488281e+01 -2.581324875354766846e-01 3.289894819259643555e+00 9.095287322998046875e-01 1.829024851322174072e-01
2.686000000000000000e+03 1.533249950408935547e+01 -2.682872390747070312e+01 -2.533888220787048340e-01 3.349496841430664062e+00 9.288324117660522461e-01 -1.244767848402261734e-02
2.687000000000000000e+03 6.519618988037109375e+01 -2.872663879394531250e+01 1.838323771953582764e-01 7.001785755157470703e+00 2.155685424804687500e+00 5.468217730522155762e-01
2.688000000000000000e+03 3.914388275146484375e+01 8.854337334632873535e-01 3.057959079742431641e-01 1.952589869499206543e+00 6.775157451629638672e-01 2.930789589881896973e-01
2.689000000000000000e+03 6.535974121093750000e+01 8.313654899597167969e+00 -4.358968138694763184e-01 7.573969364166259766e+00 2.141421794891357422e+00 -9.257864207029342651e-02
2.690000000000000000e+03 6.639421844482421875e+01 8.927612304687500000e+00 -3.969924151897430420e-01 7.697844028472900391e+00 2.190255403518676758e+00 -1.559884697198867798e-01
2.691000000000000000e+03 6.746730804443359375e+01 1.452236557006835938e+01 -3.891555964946746826e-01 7.984141349792480469e+00 2.278495788574218750e+00 -4.194397926330566406e-01
2.692000000000000000e+03 4.598017501831054688e+01 1.097138023376464844e+01 -5.373326316475868225e-02 3.601358890533447266e+00 1.064287662506103516e+00 9.631459116935729980e-01
2.693000000000000000e+03 4.901055908203125000e+01 1.169673442840576172e+01 -2.321707457304000854e-01 4.563522815704345703e+00 1.299405574798583984e+00 9.834197759628295898e-01
2.694000000000000000e+03 6.669754028320312500e+01 -1.180276870727539062e+01 -2.180842459201812744e-01 7.292396545410156250e+00 2.122293710708618164e+00 4.029022157192230225e-01
2.695000000000000000e+03 5.410033035278320312e+01 1.680081367492675781e+01 -4.856827259063720703e-01 6.465067863464355469e+00 1.793815612792968750e+00 9.466214776039123535e-01
2.696000000000000000e+03 5.638495635986328125e+01 1.588242340087890625e+01 -5.938767790794372559e-01 6.976622581481933594e+00 1.914823770523071289e+00 6.157783865928649902e-01
2.697000000000000000e+03 6.769014739990234375e+01 1.708734130859375000e+01 -3.557560741901397705e-01 8.102056503295898438e+00 2.323890209197998047e+00 -5.472271442413330078e-01
2.698000000000000000e+03 6.673459625244140625e+01 1.880693626403808594e+01 -3.635323941707611084e-01 8.193805694580078125e+00 2.349081993103027344e+00 -5.796754360198974609e-01
2.699000000000000000e+03 5.209755325317382812e+01 1.425831604003906250e+01 -4.077847898006439209e-01 5.641593933105468750e+00 1.570142745971679688e+00 9.775728583335876465e-01
2.700000000000000000e+03 5.038288116455078125e+01 -1.978160858154296875e+01 -3.701223731040954590e-01 5.542761325836181641e+00 1.551791667938232422e+00 5.958210304379463196e-02
2.701000000000000000e+03 4.045267486572265625e+01 2.001843452453613281e+00 2.513279020786285400e-01 2.245129346847534180e+00 7.489371895790100098e-01 3.650380969047546387e-01
2.702000000000000000e+03 1.799292182922363281e+01 2.646450233459472656e+01 -6.764330267906188965e-01 2.642880678176879883e+00 5.899342894554138184e-01 -1.981752365827560425e-01
2.703000000000000000e+03 6.565945434570312500e+01 2.756524276733398438e+01 2.917544841766357422e-01 8.677184104919433594e+00 2.690681457519531250e+00 -6.755566596984863281e-01
2.704000000000000000e+03 6.222267532348632812e+01 2.684260749816894531e+01 2.112568765878677368e-01 9.160452842712402344e+00 2.811512947082519531e+00 -4.912038147449493408e-01
2.705000000000000000e+03 5.944482421875000000e+01 2.215768051147460938e+01 -4.929503798484802246e-01 8.522529602050781250e+00 2.408873796463012695e+00 1.188266649842262268e-01
2.706000000000000000e+03 6.384534835815429688e+01 2.656543922424316406e+01 1.808254867792129517e-01 8.975442886352539062e+00 2.746880292892456055e+00 -5.802982449531555176e-01
2.707000000000000000e+03 6.251092529296875000e+01 2.906005287170410156e+01 5.796634554862976074e-01 9.364787101745605469e+00 2.983335256576538086e+00 -4.119543433189392090e-01
2.708000000000000000e+03 2.602413940429687500e+01 3.505995941162109375e+01 -4.991044402122497559e-01 9.201635718345642090e-01 1.263177394866943359e-01 -1.505712121725082397e-01
2.709000000000000000e+03 4.038418960571289062e+01 7.694614529609680176e-01 1.943291127681732178e-01 2.291860103607177734e+00 7.458567619323730469e-01 2.669385075569152832e-01
2.710000000000000000e+03 4.816770935058593750e+01 -1.434772396087646484e+01 -3.814752995967864990e-01 4.684678077697753906e+00 1.290960788726806641e+00 -5.768191814422607422e-02
2.711000000000000000e+03 1.214038181304931641e+01 -2.406121063232421875e+01 -3.355614840984344482e-01 3.372695207595825195e+00 9.111400842666625977e-01 2.303528040647506714e-01
2.712000000000000000e+03 1.837844276428222656e+01 2.994648361206054688e+01 -5.551716685295104980e-01 2.454960584640502930e+00 5.699366927146911621e-01 -1.784110069274902344e-01
2.713000000000000000e+03 1.685136795043945312e+01 2.820031356811523438e+01 -5.817309021949768066e-01 2.845977544784545898e+00 6.792739629745483398e-01 -2.402807027101516724e-01
2.714000000000000000e+03 5.372000122070312500e+01 1.525739955902099609e+01 -4.925302267074584961e-01 6.213828086853027344e+00 1.716389417648315430e+00 8.967958688735961914e-01
2.715000000000000000e+03 5.282593536376953125e+01 -2.317630767822265625e+01 -1.932238489389419556e-01 6.134723663330078125e+00 1.782449960708618164e+00 3.113311529159545898e-01
2.716000000000000000e+03 5.748178100585937500e+01 -2.739591979980468750e+01 2.239799499511718750e-01 6.601109981536865234e+00 2.047527074813842773e+00 5.982443094253540039e-01
2.717000000000000000e+03 4.532723617553710938e+01 -9.574890136718750000e+00 -2.533982396125793457e-01 3.758631944656372070e+00 1.051570057868957520e+00 -7.298141717910766602e-02
2.718000000000000000e+03 2.300477790832519531e+01 3.239486694335937500e+01 -4.980167448520660400e-01 1.488912582397460938e+00 2.972687482833862305e-01 -1.504932045936584473e-01
2.719000000000000000e+03 4.466669082641601562e+01 -7.503793239593505859e+00 -1.617673784494400024e-01 3.563685655593872070e+00 1.020575523376464844e+00 -2.714456431567668915e-02
2.720000000000000000e+03 4.359095001220703125e+01 -1.001739501953125000e+01 -2.037478536367416382e-01 3.400125026702880859e+00 9.589131474494934082e-01 -1.635873764753341675e-01
2.721000000000000000e+03 1.125584030151367188e+01 -1.932944297790527344e+01 -2.831536531448364258e-01 3.648902654647827148e+00 1.009724736213684082e+00 3.982620239257812500e-01
2.722000000000000000e+03 1.155393028259277344e+01 -2.087300491333007812e+01 -3.436373174190521240e-01 3.529619455337524414e+00 9.557946324348449707e-01 3.467052876949310303e-01
2.723000000000000000e+03 1.557656097412109375e+01 -2.404971885681152344e+01 -2.931346297264099121e-01 3.632641792297363281e+00 1.001852154731750488e+00 -6.510533392429351807e-02
2.724000000000000000e+03 1.654148483276367188e+01 3.130993270874023438e+01 -4.743256270885467529e-01 2.764146327972412109e+00 6.869462132453918457e-01 -2.039497345685958862e-01
2.725000000000000000e+03 1.384426498413085938e+01 3.331695938110351562e+01 -3.664263188838958740e-01 3.288612604141235352e+00 8.766559362411499023e-01 -2.327072620391845703e-01
2.726000000000000000e+03 1.764259338378906250e+01 -3.368143844604492188e+01 -2.437611669301986694e-01 2.909477233886718750e+00 7.997148036956787109e-01 -7.703802734613418579e-02
2.727000000000000000e+03 5.299897766113281250e+01 -4.084109497070312500e+01 8.447996973991394043e-01 7.073895454406738281e+00 2.375608444213867188e+00 -2.845492772758007050e-02
2.728000000000000000e+03 1.283690166473388672e+01 -3.529084777832031250e+01 -2.165652364492416382e-01 2.868237257003784180e+00 7.955015897750854492e-01 9.392713755369186401e-02
2.729000000000000000e+03 1.548030185699462891e+01 -3.471950912475585938e+01 -1.858730763196945190e-01 2.912602663040161133e+00 8.180188536643981934e-01 3.014777321368455887e-03
2.730000000000000000e+03 2.671749114990234375e+01 -3.810725784301757812e+01 4.709076508879661560e-02 2.096372127532958984e+00 6.430388689041137695e-01 -2.021528184413909912e-01
2.731000000000000000e+03 1.191736602783203125e+01 -6.068351745605468750e+00 -3.432771563529968262e-01 7.925833225250244141e+00 2.274766921997070312e+00 1.524945855140686035e+00
2.732000000000000000e+03 1.044581413269042969e+01 -6.081848621368408203e+00 4.961143136024475098e-01 5.540418148040771484e+00 1.810959696769714355e+00 2.027636766433715820e+00
2.733000000000000000e+03 1.240245628356933594e+01 -5.985569477081298828e+00 -6.405040621757507324e-01 8.924997329711914062e+00 2.485347986221313477e+00 1.046467542648315430e+00
2.734000000000000000e+03 1.110722446441650391e+01 -5.245968341827392578e+00 4.471674859523773193e-01 6.792747497558593750e+00 2.171974420547485352e+00 2.440847396850585938e+00
2.735000000000000000e+03 1.291768360137939453e+01 -7.280631065368652344e+00 -6.711841821670532227e-01 7.899343967437744141e+00 2.168447971343994141e+00 1.424814909696578979e-01
2.736000000000000000e+03 1.124109268188476562e+01 -8.931085586547851562e+00 -2.253135740756988525e-01 5.677055835723876953e+00 1.635522723197937012e+00 8.326755762100219727e-01
2.737000000000000000e+03 1.054501056671142578e+01 -9.546179771423339844e+00 -1.035449653863906860e-01 4.885823726654052734e+00 1.434683680534362793e+00 9.526068568229675293e-01
2.738000000000000000e+03 1.079153919219970703e+01 -1.023660469055175781e+01 -1.777746677398681641e-01 4.954599380493164062e+00 1.433047413825988770e+00 7.726023197174072266e-01
2.739000000000000000e+03 1.125045680999755859e+01 -1.066987991333007812e+01 -1.995807886123657227e-01 5.121076107025146484e+00 1.476448535919189453e+00 6.281823515892028809e-01
2.740000000000000000e+03 1.265190410614013672e+01 -8.534288406372070312e+00 -4.571150541305541992e-01 6.909282684326171875e+00 1.935650348663330078e+00 2.086235284805297852e-01
2.741000000000000000e+03 1.253222465515136719e+01 -7.988379478454589844e+00 -4.988888800144195557e-01 7.057209014892578125e+00 1.967496037483215332e+00 3.154186308383941650e-01
2.742000000000000000e+03 6.607112884521484375e+01 -6.060091972351074219e+00 -2.567809820175170898e-01 7.285166740417480469e+00 2.108515739440917969e+00 2.735055088996887207e-01
2.743000000000000000e+03 6.525303649902343750e+01 -9.041260719299316406e+00 -2.536589205265045166e-01 7.150570869445800781e+00 2.069073438644409180e+00 3.514268696308135986e-01
2.744000000000000000e+03 1.218522071838378906e+01 -8.659703254699707031e+00 -3.607757687568664551e-01 6.371966838836669922e+00 1.803357243537902832e+00 4.602891206741333008e-01
2.745000000000000000e+03 1.021197128295898438e+01 -1.188759708404541016e+01 -1.574607342481613159e-01 4.306155204772949219e+00 1.244608402252197266e+00 7.553506493568420410e-01
2.746000000000000000e+03 1.238538837432861328e+01 -1.593318462371826172e+01 -2.866397500038146973e-01 4.322843074798583984e+00 1.210860967636108398e+00 2.707262933254241943e-01
2.747000000000000000e+03 6.558721923828125000e+01 6.382217407226562500e+00 -3.991686403751373291e-01 7.514247417449951172e+00 2.134523630142211914e+00 -2.920607849955558777e-02
2.748000000000000000e+03 6.695138549804687500e+01 7.760229587554931641e+00 -3.741679191589355469e-01 7.711504459381103516e+00 2.201200962066650391e+00 -1.330941766500473022e-01
2.749000000000000000e+03 3.828947448730468750e+01 -1.296137809753417969e+00 3.512339293956756592e-01 1.839970707893371582e+00 6.573613882064819336e-01 1.196844875812530518e-01
2.750000000000000000e+03 1.227236747741699219e+01 -1.195012378692626953e+01 -2.858706414699554443e-01 5.125066280364990234e+00 1.451758742332458496e+00 2.858869731426239014e-01
2.751000000000000000e+03 1.197326564788818359e+01 -1.091844463348388672e+01 -3.137716054916381836e-01 5.419884681701660156e+00 1.531833887100219727e+00 3.403939604759216309e-01
2.752000000000000000e+03 5.731796264648437500e+01 1.837024307250976562e+01 -6.004502773284912109e-01 7.521926879882812500e+00 2.076442956924438477e+00 5.158327817916870117e-01
2.753000000000000000e+03 5.813142013549804688e+01 1.933003425598144531e+01 -5.860234498977661133e-01 7.845708847045898438e+00 2.177905559539794922e+00 4.460135996341705322e-01
2.754000000000000000e+03 6.579988861083984375e+01 2.077162361145019531e+01 -3.207377791404724121e-01 8.334072113037109375e+00 2.404000282287597656e+00 -6.098176836967468262e-01
2.755000000000000000e+03 9.602216720581054688e+00 -7.693768978118896484e+00 3.609955608844757080e-01 4.272180080413818359e+00 1.389952778816223145e+00 1.466487646102905273e+00
2.756000000000000000e+03 6.633057403564453125e+01 -4.707209587097167969e+00 -2.761565744876861572e-01 7.332210540771484375e+00 2.116816043853759766e+00 2.473122775554656982e-01
2.757000000000000000e+03 6.591474151611328125e+01 -6.617186665534973145e-01 -3.109478652477264404e-01 7.350984096527099609e+00 2.112010717391967773e+00 1.545369625091552734e-01
2.758000000000000000e+03 6.695320892333984375e+01 1.487236380577087402e+00 -3.010145425796508789e-01 7.518450260162353516e+00 2.165230751037597656e+00 7.699102163314819336e-02
2.759000000000000000e+03 6.789020538330078125e+01 3.456464529037475586e+00 -2.879699766635894775e-01 7.678467273712158203e+00 2.217149257659912109e+00 -1.368693634867668152e-02
2.760000000000000000e+03 6.743659210205078125e+01 2.493335485458374023e+00 -2.988769710063934326e-01 7.610188961029052734e+00 2.193393707275390625e+00 2.351080812513828278e-02
2.761000000000000000e+03 6.643650817871093750e+01 4.443236887454986572e-01 -3.047782182693481445e-01 7.437928199768066406e+00 2.139945030212402344e+00 1.066710799932479858e-01
2.762000000000000000e+03 4.322455978393554688e+01 3.327468633651733398e+00 9.693346917629241943e-02 2.964641094207763672e+00 9.184723496437072754e-01 4.745008051395416260e-01
2.763000000000000000e+03 4.369696044921875000e+01 5.610184669494628906e+00 4.067708924412727356e-02 3.001404285430908203e+00 9.126244187355041504e-01 6.296544075012207031e-01
2.764000000000000000e+03 4.602194213867187500e+01 6.791544914245605469e+00 -8.240006119012832642e-02 3.640922069549560547e+00 1.067556619644165039e+00 7.240276932716369629e-01
2.765000000000000000e+03 4.474419021606445312e+01 1.015477085113525391e+01 4.204231500625610352e-02 3.241920471191406250e+00 9.851888418197631836e-01 8.693392276763916016e-01
2.766000000000000000e+03 1.347324562072753906e+01 -1.848499107360839844e+01 -3.226844370365142822e-01 4.161987781524658203e+00 1.151791095733642578e+00 9.946921467781066895e-02
2.767000000000000000e+03 6.633370208740234375e+01 1.476361465454101562e+01 -4.437831938266754150e-01 7.951278686523437500e+00 2.252248764038085938e+00 -3.611260056495666504e-01
2.768000000000000000e+03 6.488986206054687500e+01 1.415070247650146484e+01 -5.050754547119140625e-01 7.857146263122558594e+00 2.205621242523193359e+00 -2.482587993144989014e-01
2.769000000000000000e+03 5.177703857421875000e+01 1.293319416046142578e+01 -3.687367141246795654e-01 5.442399978637695312e+00 1.522099018096923828e+00 9.133749604225158691e-01
2.770000000000000000e+03 5.150058364868164062e+01 1.184773826599121094e+01 -3.787950873374938965e-01 5.329478263854980469e+00 1.485204935073852539e+00 8.710813522338867188e-01
2.771000000000000000e+03 4.361559677124023438e+01 -5.570922374725341797e+00 -9.933853149414062500e-02 3.257926464080810547e+00 9.475763440132141113e-01 2.475022524595260620e-02
2.772000000000000000e+03 4.797557449340820312e+01 9.986088752746582031e+00 -1.812382042407989502e-01 4.205503463745117188e+00 1.207279682159423828e+00 8.872316479682922363e-01
2.773000000000000000e+03 4.176685333251953125e+01 6.541890501976013184e-01 1.456346362829208374e-01 2.615659713745117188e+00 8.283883333206176758e-01 3.248603641986846924e-01
2.774000000000000000e+03 4.474468612670898438e+01 6.340736389160156250e+00 2.468579448759555817e-02 3.309931755065917969e+00 1.000385284423828125e+00 6.651094555854797363e-01
2.775000000000000000e+03 5.155316543579101562e+01 -1.877657890319824219e+01 -3.664586842060089111e-01 5.619221210479736328e+00 1.575828790664672852e+00 1.664801537990570068e-01
2.776000000000000000e+03 6.684935760498046875e+01 -1.785747337341308594e+01 -1.320882290601730347e-01 7.255030632019042969e+00 2.136882781982421875e+00 5.228534340858459473e-01
2.777000000000000000e+03 6.298832702636718750e+01 -2.111562347412109375e+01 -1.056162342429161072e-01 6.919679641723632812e+00 2.044219017028808594e+00 5.877331495285034180e-01
2.778000000000000000e+03 4.278159332275390625e+01 2.348850965499877930e+00 7.229907065629959106e-02 2.843852996826171875e+00 8.748456239700317383e-01 4.243157505989074707e-01
2.779000000000000000e+03 6.651479339599609375e+01 -1.513177776336669922e+01 -1.839664578437805176e-01 7.233786106109619141e+00 2.114945888519287109e+00 4.788986146450042725e-01
2.780000000000000000e+03 4.275326919555664062e+01 -9.437163472175598145e-01 7.781495153903961182e-02 2.886764526367187500e+00 8.893738389015197754e-01 2.561416327953338623e-01
2.781000000000000000e+03 6.534037017822265625e+01 -1.518601417541503906e+01 -1.835303306579589844e-01 7.137405872344970703e+00 2.086162567138671875e+00 4.801071286201477051e-01
2.782000000000000000e+03 6.023233032226562500e+01 2.094119453430175781e+01 -4.845969378948211670e-01 8.324252128601074219e+00 2.351896762847900391e+00 5.670706182718276978e-02
2.783000000000000000e+03 6.243505477905273438e+01 2.281028175354003906e+01 -2.722443640232086182e-01 8.630230903625488281e+00 2.507395982742309570e+00 -3.365215957164764404e-01
2.784000000000000000e+03 6.198521804809570312e+01 1.978803443908691406e+01 -4.946143925189971924e-01 8.253170013427734375e+00 2.327566623687744141e+00 -1.874771863222122192e-01
2.785000000000000000e+03 5.674321365356445312e+01 1.721666526794433594e+01 -6.070999503135681152e-01 7.252124309539794922e+00 1.993507385253906250e+00 6.098335981369018555e-01
2.786000000000000000e+03 1.100632095336914062e+01 -2.636286544799804688e+01 -2.879368960857391357e-01 3.107832670211791992e+00 8.459687232971191406e-01 2.797237932682037354e-01
2.787000000000000000e+03 6.225328826904296875e+01 2.508108329772949219e+01 -1.206794232130050659e-01 8.961658477783203125e+00 2.652293682098388672e+00 -3.616737127304077148e-01
2.788000000000000000e+03 5.984656906127929688e+01 2.420390892028808594e+01 -3.068332970142364502e-01 8.967521667480468750e+00 2.598206520080566406e+00 -2.281506359577178955e-02
2.789000000000000000e+03 1.323649692535400391e+01 -2.218581390380859375e+01 -3.626340925693511963e-01 3.668798446655273438e+00 9.918493628501892090e-01 1.456838697195053101e-01
2.790000000000000000e+03 5.095725250244140625e+01 1.439120197296142578e+01 -3.022883832454681396e-01 5.320882797241210938e+00 1.505578398704528809e+00 1.101572275161743164e+00
2.791000000000000000e+03 4.969741439819335938e+01 -1.025242996215820312e+01 -3.647842407226562500e-01 4.818771839141845703e+00 1.336196303367614746e+00 1.127011254429817200e-01
2.792000000000000000e+03 4.280277252197265625e+01 -6.670525550842285156e+00 -5.314598605036735535e-02 3.104726076126098633e+00 9.154739975929260254e-01 -3.051521629095077515e-02
2.793000000000000000e+03 4.424512863159179688e+01 -4.270663261413574219e+00 -7.647076994180679321e-02 3.367406129837036133e+00 9.872806072235107422e-01 1.309395581483840942e-01
2.794000000000000000e+03 5.285668182373046875e+01 -2.025543403625488281e+01 -3.159760534763336182e-01 5.932990074157714844e+00 1.685104131698608398e+00 2.590787410736083984e-01
2.795000000000000000e+03 1.417580699920654297e+01 2.834279441833496094e+01 -5.531908869743347168e-01 3.328798294067382812e+00 8.326821923255920410e-01 -3.537455797195434570e-01
2.796000000000000000e+03 1.646907043457031250e+01 2.529398727416992188e+01 -7.306444644927978516e-01 3.039426803588867188e+00 6.926347017288208008e-01 -2.584841549396514893e-01
2.797000000000000000e+03 6.676908111572265625e+01 2.725659942626953125e+01 2.381774783134460449e-01 8.510171890258789062e+00 2.624505043029785156e+00 -7.593006491661071777e-01
2.798000000000000000e+03 5.333116149902343750e+01 1.380392360687255859e+01 -4.635675549507141113e-01 5.955819129943847656e+00 1.647675514221191406e+00 8.644782900810241699e-01
2.799000000000000000e+03 6.502642059326171875e+01 1.757254409790039062e+01 -4.596039652824401855e-01 8.097333908081054688e+00 2.291318893432617188e+00 -4.187916219234466553e-01
2.800000000000000000e+03 6.494187927246093750e+01 -4.404142856597900391e+00 -3.002081215381622314e-01 7.169603824615478516e+00 2.060818672180175781e+00 2.497947216033935547e-01
2.801000000000000000e+03 6.364685440063476562e+01 -2.675763893127441406e+01 1.317738592624664307e-01 6.940152645111083984e+00 2.121577978134155273e+00 5.964938402175903320e-01
2.802000000000000000e+03 6.580136871337890625e+01 7.370217323303222656e+00 -3.833855390548706055e-01 7.575294017791748047e+00 2.157572507858276367e+00 -8.798843622207641602e-02
2.803000000000000000e+03 6.544792175292968750e+01 3.443439960479736328e+00 -3.713413178920745850e-01 7.397796630859375000e+00 2.107936620712280273e+00 4.657948762178421021e-02
2.804000000000000000e+03 4.706625366210937500e+01 -1.309909439086914062e+01 -3.262962996959686279e-01 4.368470191955566406e+00 1.212652206420898438e+00 -7.351540774106979370e-02
2.805000000000000000e+03 4.932978057861328125e+01 -1.577989959716796875e+01 -3.725375533103942871e-01 5.023773670196533203e+00 1.395370841026306152e+00 1.565055549144744873e-02
2.806000000000000000e+03 4.340363693237304688e+01 -7.541418552398681641e+00 -1.413589715957641602e-01 3.250508785247802734e+00 9.327449202537536621e-01 -2.657645940780639648e-02
2.807000000000000000e+03 6.039282989501953125e+01 -2.944228172302246094e+01 3.139378130435943604e-01 6.750342845916748047e+00 2.119284152984619141e+00 5.849322080612182617e-01
2.808000000000000000e+03 6.547904968261718750e+01 -1.367874813079833984e+01 -2.217257022857666016e-01 7.159481525421142578e+00 2.081326723098754883e+00 4.542201757431030273e-01
2.809000000000000000e+03 4.713080596923828125e+01 -1.014012241363525391e+01 -3.154444694519042969e-01 4.222017288208007812e+00 1.171971917152404785e+00 -1.463117264211177826e-02
2.810000000000000000e+03 4.653054046630859375e+01 -8.827348709106445312e+00 -2.354473173618316650e-01 4.019620895385742188e+00 1.135252118110656738e+00 5.753926932811737061e-03
2.811000000000000000e+03 1.346968746185302734e+01 -2.764717102050781250e+01 -3.061419129371643066e-01 3.195573568344116211e+00 8.668295145034790039e-01 1.305938512086868286e-01
2.812000000000000000e+03 7.568345642089843750e+01 -3.800540924072265625e+01 4.814829304814338684e-02 7.144788265228271484e+00 2.157881021499633789e+00 9.189532697200775146e-02
2.813000000000000000e+03 6.055894851684570312e+01 2.301454925537109375e+01 -3.349659740924835205e-01 8.670667648315429688e+00 2.500710487365722656e+00 -4.115528240799903870e-02
2.814000000000000000e+03 1.165148258209228516e+01 -2.828272438049316406e+01 -2.231151610612869263e-01 3.076258659362792969e+00 8.559430241584777832e-01 2.080009728670120239e-01
2.815000000000000000e+03 1.127637577056884766e+01 -7.473351001739501953e+00 -1.648045480251312256e-01 6.318379402160644531e+00 1.846072435379028320e+00 1.274434447288513184e+00
2.816000000000000000e+03 1.098297119140625000e+01 -6.200803756713867188e+00 1.980353742837905884e-01 6.265223979949951172e+00 1.938977837562561035e+00 1.910522937774658203e+00
2.817000000000000000e+03 1.145316791534423828e+01 -8.442531585693359375e+00 -2.599084973335266113e-01 6.072889804840087891e+00 1.743894338607788086e+00 8.933792114257812500e-01
2.818000000000000000e+03 1.174639129638671875e+01 -8.887557983398437500e+00 -3.841162919998168945e-01 6.266287803649902344e+00 1.764651417732238770e+00 6.169949769973754883e-01
2.819000000000000000e+03 1.098342323303222656e+01 -6.887753486633300781e+00 2.593566104769706726e-02 6.180378437042236328e+00 1.861894249916076660e+00 1.553708195686340332e+00
2.820000000000000000e+03 1.035308265686035156e+01 -6.922449111938476562e+00 2.555308640003204346e-01 5.255832195281982422e+00 1.653409004211425781e+00 1.659737586975097656e+00
2.821000000000000000e+03 1.194731616973876953e+01 -8.145859718322753906e+00 -4.006587862968444824e-01 6.645608901977539062e+00 1.873484969139099121e+00 6.887755990028381348e-01
2.822000000000000000e+03 1.198434734344482422e+01 -6.568046092987060547e+00 -4.564647972583770752e-01 7.826385498046875000e+00 2.210976123809814453e+00 1.228468775749206543e+00
2.823000000000000000e+03 1.139484882354736328e+01 -1.011878776550292969e+01 -2.609477937221527100e-01 5.318562030792236328e+00 1.517284274101257324e+00 6.560710072517395020e-01
2.824000000000000000e+03 1.109224319458007812e+01 -1.241463756561279297e+01 -2.773047983646392822e-01 4.563781738281250000e+00 1.285943150520324707e+00 5.353751778602600098e-01
2.825000000000000000e+03 6.436387634277343750e+01 3.856359481811523438e+00 -3.968273103237152100e-01 7.284375190734863281e+00 2.066264390945434570e+00 8.512216806411743164e-02
2.826000000000000000e+03 1.216641426086425781e+01 -1.013267707824707031e+01 -2.710818350315093994e-01 5.841053962707519531e+00 1.670991659164428711e+00 3.168727755546569824e-01
2.827000000000000000e+03 5.287504577636718750e+01 1.253856563568115234e+01 -4.451148509979248047e-01 5.766565322875976562e+00 1.596435070037841797e+00 8.302717208862304688e-01
2.828000000000000000e+03 5.525460815429687500e+01 1.633002471923828125e+01 -5.707323551177978516e-01 6.777542591094970703e+00 1.862043023109436035e+00 7.955417633056640625e-01
2.829000000000000000e+03 6.541024017333984375e+01 1.531804180145263672e+01 -4.805527031421661377e-01 7.960095882415771484e+00 2.243862867355346680e+00 -3.515201210975646973e-01
2.830000000000000000e+03 4.530539321899414062e+01 -1.698864459991455078e+00 -8.335094153881072998e-02 3.561745405197143555e+00 1.043518304824829102e+00 2.714392244815826416e-01
2.831000000000000000e+03 6.365237426757812500e+01 2.331199264526367188e+01 -2.685854732990264893e-01 8.698097229003906250e+00 2.528853654861450195e+00 -4.793858826160430908e-01
2.832000000000000000e+03 6.411507415771484375e+01 -1.693485450744628906e+01 -1.933425515890121460e-01 7.008897781372070312e+00 2.044666528701782227e+00 5.266332030296325684e-01
2.833000000000000000e+03 6.411509704589843750e+01 2.213391113281250000e+01 -2.785599827766418457e-01 8.467897415161132812e+00 2.456801176071166992e+00 -4.941244721412658691e-01
2.834000000000000000e+03 6.446269226074218750e+01 2.086861610412597656e+01 -4.034092128276824951e-01 8.392927169799804688e+00 2.396855354309082031e+00 -4.771507978439331055e-01
2.835000000000000000e+03 6.432204437255859375e+01 1.944115257263183594e+01 -4.169646501541137695e-01 8.222289085388183594e+00 2.341597318649291992e+00 -4.371345639228820801e-01
2.836000000000000000e+03 6.523660278320312500e+01 1.144989109039306641e+01 -4.694218337535858154e-01 7.709672451019287109e+00 2.172075271606445312e+00 -1.924998015165328979e-01
2.837000000000000000e+03 6.563293457031250000e+01 9.854181289672851562e+00 -4.491491913795471191e-01 7.670120716094970703e+00 2.166291475296020508e+00 -1.587529629468917847e-01
2.838000000000000000e+03 6.568008422851562500e+01 -7.487183094024658203e+00 -2.626672387123107910e-01 7.226960182189941406e+00 2.089287757873535156e+00 3.209972977638244629e-01
2.839000000000000000e+03 6.565375518798828125e+01 1.256395244598388672e+01 -4.681647121906280518e-01 7.809658527374267578e+00 2.202448129653930664e+00 -2.460030913352966309e-01
2.840000000000000000e+03 6.601035308837890625e+01 1.368757534027099609e+01 -4.462823867797851562e-01 7.888185501098632812e+00 2.232570886611938477e+00 -3.242281675338745117e-01
2.841000000000000000e+03 4.412352752685546875e+01 3.357518434524536133e+00 4.093498364090919495e-02 3.198329925537109375e+00 9.717794656753540039e-01 5.098364353179931641e-01
2.842000000000000000e+03 4.363887405395507812e+01 4.117891311645507812e+00 3.298790380358695984e-02 3.024733543395996094e+00 9.173163771629333496e-01 5.451148152351379395e-01
2.843000000000000000e+03 5.038492584228515625e+01 1.185106849670410156e+01 -2.848267555236816406e-01 4.989093303680419922e+00 1.411279916763305664e+00 9.416786432266235352e-01
2.844000000000000000e+03 6.671633148193359375e+01 -2.233998775482177734e+00 -2.751649916172027588e-01 7.430448055267333984e+00 2.146584749221801758e+00 1.786426752805709839e-01
2.845000000000000000e+03 6.118701171875000000e+01 1.833990859985351562e+01 -5.516887307167053223e-01 7.996046543121337891e+00 2.233307361602783203e+00 -2.495974302291870117e-02
2.846000000000000000e+03 4.664595794677734375e+01 9.612935066223144531e+00 -6.994504481554031372e-02 3.815171718597412109e+00 1.123568058013916016e+00 8.617580533027648926e-01
2.847000000000000000e+03 4.936251831054687500e+01 1.026619434356689453e+01 -2.354233264923095703e-01 4.631022453308105469e+00 1.318679690361022949e+00 8.764263987541198730e-01
2.848000000000000000e+03 4.002987670898437500e+01 -1.713774919509887695e+00 1.891378164291381836e-01 2.266671180725097656e+00 7.367426753044128418e-01 9.120438247919082642e-02
2.849000000000000000e+03 4.532905960083007812e+01 5.225999355316162109e+00 -4.729156196117401123e-02 3.484136819839477539e+00 1.031053543090820312e+00 6.191654801368713379e-01
2.850000000000000000e+03 6.512114715576171875e+01 -1.065761661529541016e+01 -2.597211003303527832e-01 7.141660690307617188e+00 2.064581871032714844e+00 3.901930451393127441e-01
2.851000000000000000e+03 4.548997116088867188e+01 9.126003265380859375e+00 -4.464864358305931091e-02 3.480053663253784180e+00 1.030621528625488281e+00 8.640779852867126465e-01
2.852000000000000000e+03 4.466331863403320312e+01 8.353906631469726562e+00 4.067092761397361755e-02 3.239641904830932617e+00 9.840938448905944824e-01 7.742817997932434082e-01
2.853000000000000000e+03 5.147186279296875000e+01 -1.646941757202148438e+01 -3.838643431663513184e-01 5.447842597961425781e+00 1.519193410873413086e+00 1.491250544786453247e-01
2.854000000000000000e+03 4.919958114624023438e+01 -1.309501838684082031e+01 -3.797999024391174316e-01 4.832749366760253906e+00 1.335884928703308105e+00 4.262251406908035278e-02
2.855000000000000000e+03 5.569215393066406250e+01 1.781070137023925781e+01 -5.545065402984619141e-01 7.084855079650878906e+00 1.959104537963867188e+00 7.676198482513427734e-01
2.856000000000000000e+03 5.234841156005859375e+01 1.154896068572998047e+01 -4.146173298358917236e-01 5.552919387817382812e+00 1.541490674018859863e+00 8.025347590446472168e-01
2.857000000000000000e+03 6.482358551025390625e+01 9.096628189086914062e+00 -4.447046816349029541e-01 7.559871673583984375e+00 2.134550094604492188e+00 -8.897409588098526001e-02
2.858000000000000000e+03 6.489554595947265625e+01 2.456486463546752930e+00 -3.689579367637634277e-01 7.305818080902099609e+00 2.081058025360107422e+00 1.015189811587333679e-01
2.859000000000000000e+03 6.223401260375976562e+01 2.098354530334472656e+01 -4.579304158687591553e-01 8.409750938415527344e+00 2.385546207427978516e+00 -2.234512418508529663e-01
2.860000000000000000e+03 4.147954559326171875e+01 -6.595131158828735352e-01 1.141083762049674988e-01 2.609411001205444336e+00 8.170558214187622070e-01 2.036382704973220825e-01
2.861000000000000000e+03 6.365748596191406250e+01 -4.128825187683105469e+00 -3.362948298454284668e-01 7.003523349761962891e+00 2.000168561935424805e+00 2.719401121139526367e-01
2.862000000000000000e+03 4.601898193359375000e+01 -7.558723449707031250e+00 -2.348338216543197632e-01 3.856816053390502930e+00 1.086594700813293457e+00 3.966608643531799316e-02
2.863000000000000000e+03 6.472052764892578125e+01 -1.639917045831680298e-01 -3.404320478439331055e-01 7.213848590850830078e+00 2.062025070190429688e+00 1.571560353040695190e-01
2.864000000000000000e+03 4.804693603515625000e+01 -1.230202674865722656e+01 -3.642337322235107422e-01 4.543971538543701172e+00 1.253921270370483398e+00 -3.409425914287567139e-02
2.865000000000000000e+03 4.316985702514648438e+01 3.621805608272552490e-01 3.113535046577453613e-02 2.984981298446655273e+00 9.048349857330322266e-01 3.208612799644470215e-01
2.866000000000000000e+03 6.103025436401367188e+01 2.494126319885253906e+01 -9.572499990463256836e-02 8.986457824707031250e+00 2.667219877243041992e+00 -2.006754875183105469e-01
2.867000000000000000e+03 5.544543075561523438e+01 -2.018888473510742188e+01 -2.611100375652313232e-01 6.243440151214599609e+00 1.794699072837829590e+00 4.090645909309387207e-01
2.868000000000000000e+03 5.499355316162109375e+01 -1.731820297241210938e+01 -3.532414734363555908e-01 6.050249576568603516e+00 1.709102511405944824e+00 3.384224772453308105e-01
2.869000000000000000e+03 6.289378738403320312e+01 -1.895469856262207031e+01 -1.643979400396347046e-01 6.903837203979492188e+00 2.021831750869750977e+00 5.582513213157653809e-01
2.870000000000000000e+03 6.222180175781250000e+01 -2.474614334106445312e+01 5.239764228463172913e-02 6.865012168884277344e+00 2.075222969055175781e+00 6.159175038337707520e-01
2.871000000000000000e+03 6.784986114501953125e+01 -2.556977272033691406e+00 -2.448851019144058228e-01 7.550393581390380859e+00 2.191652536392211914e+00 1.638709753751754761e-01
2.872000000000000000e+03 6.539669799804687500e+01 -1.219303512573242188e+01 -2.267385125160217285e-01 7.157683849334716797e+00 2.079283475875854492e+00 4.234016835689544678e-01
2.873000000000000000e+03 6.406255340576171875e+01 -1.528506565093994141e+01 -2.257496863603591919e-01 7.023649215698242188e+00 2.039369821548461914e+00 4.880407452583312988e-01
2.874000000000000000e+03 1.312588214874267578e+01 3.014798545837402344e+01 -4.757004678249359131e-01 3.479540348052978516e+00 9.011519551277160645e-01 -3.269220590591430664e-01
2.875000000000000000e+03 5.910886764526367188e+01 2.016608810424804688e+01 -5.901859402656555176e-01 8.095960617065429688e+00 2.251732349395751953e+00 2.224939912557601929e-01
2.876000000000000000e+03 5.834299850463867188e+01 2.127313804626464844e+01 -5.039622783660888672e-01 8.238210678100585938e+00 2.320274591445922852e+00 4.157526195049285889e-01
2.877000000000000000e+03 6.216634750366210938e+01 -2.822740173339843750e+01 2.189886718988418579e-01 6.846858978271484375e+00 2.119754314422607422e+00 5.887035727500915527e-01
2.878000000000000000e+03 1.558938217163085938e+01 2.957600975036621094e+01 -5.699898600578308105e-01 2.998086690902709961e+00 7.284290790557861328e-01 -2.539527714252471924e-01
2.879000000000000000e+03 6.145188522338867188e+01 -1.574152088165283203e+01 -2.739813923835754395e-01 6.751385211944580078e+00 1.943221092224121094e+00 4.794407784938812256e-01
2.880000000000000000e+03 5.077082443237304688e+01 -1.517139625549316406e+01 -4.088533520698547363e-01 5.242537021636962891e+00 1.450105071067810059e+00 1.016998589038848877e-01
2.881000000000000000e+03 1.216221809387207031e+01 -6.972006797790527344e+00 -4.497230052947998047e-01 7.573925971984863281e+00 2.137260913848876953e+00 8.453719019889831543e-01
2.882000000000000000e+03 1.181158733367919922e+01 -7.624847888946533203e+00 -3.541259467601776123e-01 6.620648860931396484e+00 1.879956960678100586e+00 8.646359443664550781e-01
2.883000000000000000e+03 1.091575336456298828e+01 -8.044038772583007812e+00 -1.166486367583274841e-01 5.692572593688964844e+00 1.672777295112609863e+00 1.166912555694580078e+00
2.884000000000000000e+03 6.407635498046875000e+01 -1.391597986221313477e+00 -3.393318355083465576e-01 7.099702358245849609e+00 2.028111219406127930e+00 2.073213160037994385e-01
2.885000000000000000e+03 4.622141265869140625e+01 -6.402851104736328125e+00 -2.086973786354064941e-01 3.882740736007690430e+00 1.102213025093078613e+00 5.803767964243888855e-02
2.886000000000000000e+03 4.495330810546875000e+01 -6.055242061614990234e+00 -1.420698463916778564e-01 3.583131313323974609e+00 1.032318472862243652e+00 8.274781703948974609e-02
2.887000000000000000e+03 6.327038955688476562e+01 2.075047874450683594e+01 -4.036259353160858154e-01 8.336722373962402344e+00 2.379929065704345703e+00 -3.689566552639007568e-01
2.888000000000000000e+03 6.302977371215820312e+01 1.098492240905761719e+01 -5.409536361694335938e-01 7.480178833007812500e+00 2.081767559051513672e+00 -3.486211597919464111e-02
2.889000000000000000e+03 6.386091232299804688e+01 1.085371971130371094e+01 -4.968914687633514404e-01 7.556141376495361328e+00 2.117774963378906250e+00 -1.007097736001014709e-01
2.890000000000000000e+03 6.302685165405273438e+01 2.172925376892089844e+01 -4.194282591342926025e-01 8.503798484802246094e+00 2.425311088562011719e+00 -3.836850523948669434e-01
2.891000000000000000e+03 5.395869827270507812e+01 1.184840297698974609e+01 -4.945932626724243164e-01 5.994297981262207031e+00 1.649911403656005859e+00 7.174004912376403809e-01
2.892000000000000000e+03 4.546282958984375000e+01 3.310345649719238281e+00 -3.039128519594669342e-02 3.531036615371704102e+00 1.050193548202514648e+00 5.361108779907226562e-01
2.893000000000000000e+03 5.163610839843750000e+01 1.092217731475830078e+01 -3.613334894180297852e-01 5.308271884918212891e+00 1.484081506729125977e+00 8.145699501037597656e-01
2.894000000000000000e+03 4.231997299194335938e+01 -2.213390588760375977e+00 4.389321431517601013e-02 2.834881305694580078e+00 8.636323809623718262e-01 1.400177180767059326e-01
2.895000000000000000e+03 6.533094787597656250e+01 9.352312088012695312e-01 -3.362151086330413818e-01 7.312558650970458984e+00 2.092903137207031250e+00 1.295778006315231323e-01
2.896000000000000000e+03 5.886993408203125000e+01 1.831401634216308594e+01 -6.272816658020019531e-01 7.763558387756347656e+00 2.140882968902587891e+00 2.740008234977722168e-01
2.897000000000000000e+03 6.440397644042968750e+01 1.603565597534179688e+01 -5.147571563720703125e-01 7.968050956726074219e+00 2.235988140106201172e+00 -2.773599028587341309e-01
2.898000000000000000e+03 4.471079635620117188e+01 2.549277067184448242e+00 -3.343449160456657410e-02 3.359252214431762695e+00 9.977452754974365234e-01 4.752074480056762695e-01
2.899000000000000000e+03 6.388964462280273438e+01 6.415186882019042969e+00 -4.406948685646057129e-01 7.322187900543212891e+00 2.064447879791259766e+00 2.911072783172130585e-02
2.900000000000000000e+03 6.364125061035156250e+01 4.530230522155761719e+00 -4.397493600845336914e-01 7.207296371459960938e+00 2.030264139175415039e+00 8.974125236272811890e-02
2.901000000000000000e+03 4.709148788452148438e+01 8.294540405273437500e+00 -1.448850929737091064e-01 3.949754953384399414e+00 1.141461014747619629e+00 7.930727601051330566e-01
2.902000000000000000e+03 6.468096160888671875e+01 -5.736591339111328125e+00 -3.015954494476318359e-01 7.117789268493652344e+00 2.044858217239379883e+00 2.928609549999237061e-01
2.903000000000000000e+03 4.446705627441406250e+01 -9.569770097732543945e-02 -1.476451568305492401e-02 3.326347112655639648e+00 9.934747815132141113e-01 3.352387845516204834e-01
2.904000000000000000e+03 5.976679229736328125e+01 1.900437927246093750e+01 -5.751436352729797363e-01 7.984673976898193359e+00 2.222859144210815430e+00 1.761780828237533569e-01
2.905000000000000000e+03 5.061821365356445312e+01 1.056359195709228516e+01 -3.374593555927276611e-01 4.976498126983642578e+00 1.391711592674255371e+00 8.529475331306457520e-01
2.906000000000000000e+03 6.322737503051757812e+01 1.756346321105957031e+01 -5.570150017738342285e-01 8.060679435729980469e+00 2.251099348068237305e+00 -2.402212917804718018e-01
2.907000000000000000e+03 6.344489669799804688e+01 1.328059959411621094e+01 -5.550286769866943359e-01 7.691962718963623047e+00 2.141080141067504883e+00 -1.211994588375091553e-01
2.908000000000000000e+03 6.414346313476562500e+01 -1.379734897613525391e+01 -2.232612222433090210e-01 7.026136398315429688e+00 2.040862560272216797e+00 4.596823453903198242e-01
2.909000000000000000e+03 6.323206329345703125e+01 1.009368228912353516e+01 -5.075024366378784180e-01 7.443407058715820312e+00 2.080771446228027344e+00 -1.858030259609222412e-02
2.910000000000000000e+03 6.432766723632812500e+01 7.825019836425781250e+00 -4.376359283924102783e-01 7.429902076721191406e+00 2.097679853439331055e+00 -2.478704042732715607e-02
2.911000000000000000e+03 5.220011901855468750e+01 -1.537251186370849609e+01 -3.931046426296234131e-01 5.545085906982421875e+00 1.545594334602355957e+00 1.827081441879272461e-01
2.912000000000000000e+03 5.459035491943359375e+01 1.319759559631347656e+01 -5.257646441459655762e-01 6.256091594696044922e+00 1.719097971916198730e+00 7.226948738098144531e-01
2.913000000000000000e+03 5.768646621704101562e+01 1.675856781005859375e+01 -6.136934161186218262e-01 7.346810817718505859e+00 2.019935131072998047e+00 4.545089006423950195e-01
2.914000000000000000e+03 4.863473129272460938e+01 -7.551750659942626953e+00 -2.735038697719573975e-01 4.511693477630615234e+00 1.271456956863403320e+00 1.274082809686660767e-01
2.915000000000000000e+03 4.402153778076171875e+01 -1.319088816642761230e+00 -2.567174844443798065e-02 3.234500646591186523e+00 9.626486897468566895e-01 2.469506263732910156e-01
2.916000000000000000e+03 6.271826934814453125e+01 -1.532490158081054688e+01 -2.448319643735885620e-01 6.860142230987548828e+00 1.984593152999877930e+00 4.923897683620452881e-01
2.917000000000000000e+03 5.102097702026367188e+01 -1.190158843994140625e+01 -4.018587172031402588e-01 5.131200313568115234e+00 1.418802499771118164e+00 1.422054022550582886e-01
2.918000000000000000e+03 5.700569915771484375e+01 -2.143701744079589844e+01 -1.922911405563354492e-01 6.436840057373046875e+00 1.873364686965942383e+00 5.190878510475158691e-01
2.919000000000000000e+03 4.844037246704101562e+01 -1.130241298675537109e+01 -3.561668395996093750e-01 4.585216999053955078e+00 1.268715023994445801e+00 2.236193045973777771e-02
2.920000000000000000e+03 5.080636596679687500e+01 -1.356653594970703125e+01 -3.912293314933776855e-01 5.159403800964355469e+00 1.430452346801757812e+00 9.975124895572662354e-02
2.921000000000000000e+03 4.840776443481445312e+01 -1.003707313537597656e+01 -3.243763446807861328e-01 4.531628131866455078e+00 1.262175559997558594e+00 4.053296521306037903e-02
2.922000000000000000e+03 6.393687057495117188e+01 -1.252389430999755859e+01 -2.766497433185577393e-01 6.998546123504638672e+00 2.016568899154663086e+00 4.289748072624206543e-01
2.923000000000000000e+03 6.290277099609375000e+01 -1.359414196014404297e+01 -2.684850990772247314e-01 6.885043144226074219e+00 1.984967470169067383e+00 4.622520506381988525e-01
2.924000000000000000e+03 6.287021636962890625e+01 -1.709661483764648438e+01 -2.193278819322586060e-01 6.900318145751953125e+00 2.004297018051147461e+00 5.230143070220947266e-01
2.925000000000000000e+03 6.123102951049804688e+01 -2.108865356445312500e+01 -1.165406033396720886e-01 6.783101558685302734e+00 1.999968290328979492e+00 5.835072398185729980e-01
2.926000000000000000e+03 6.223247528076171875e+01 1.673887634277343750e+01 -5.833816528320312500e-01 7.896481990814208984e+00 2.193930149078369141e+00 -9.427841007709503174e-02
2.927000000000000000e+03 6.238566970825195312e+01 -7.861464977264404297e+00 -3.288972079753875732e-01 6.818702697753906250e+00 1.946941614151000977e+00 3.371711075305938721e-01
2.928000000000000000e+03 6.165367507934570312e+01 -9.128207206726074219e+00 -3.246914148330688477e-01 6.734968662261962891e+00 1.923083186149597168e+00 3.747700452804565430e-01
2.929000000000000000e+03 5.140204620361328125e+01 5.595553398132324219e+00 -3.300229310989379883e-01 5.020094394683837891e+00 1.407021403312683105e+00 5.792427659034729004e-01
2.930000000000000000e+03 4.643608856201171875e+01 5.507339000701904297e+00 -8.168141543865203857e-02 3.782100439071655273e+00 1.110125660896301270e+00 6.207530498504638672e-01
2.931000000000000000e+03 5.811703109741210938e+01 1.762969779968261719e+01 -6.110378503799438477e-01 7.584327220916748047e+00 2.091986894607543945e+00 4.213962256908416748e-01
2.932000000000000000e+03 4.580163955688476562e+01 8.028958320617675781e+00 -4.582241550087928772e-02 3.581557273864746094e+00 1.060720443725585938e+00 7.683846950531005859e-01
2.933000000000000000e+03 6.061411666870117188e+01 -1.689724349975585938e+01 -2.643862068653106689e-01 6.666478157043457031e+00 1.920627593994140625e+00 5.081952214241027832e-01
2.934000000000000000e+03 4.643117904663085938e+01 2.807654619216918945e+00 -1.170846894383430481e-01 3.785609245300292969e+00 1.100557327270507812e+00 4.838195443153381348e-01
2.935000000000000000e+03 4.488142395019531250e+01 3.911196470260620117e+00 -3.348718211054801941e-02 3.370319604873657227e+00 1.001049757003784180e+00 5.398390889167785645e-01
2.936000000000000000e+03 4.843670272827148438e+01 8.558703422546386719e+00 -1.840258985757827759e-01 4.325534820556640625e+00 1.242452740669250488e+00 7.829907536506652832e-01
2.937000000000000000e+03 6.170071029663085938e+01 -1.607279777526855469e+00 -3.736852705478668213e-01 6.794237613677978516e+00 1.926165699958801270e+00 2.468703091144561768e-01
2.938000000000000000e+03 6.373042678833007812e+01 -2.768229246139526367e+00 -3.329216539859771729e-01 7.039478778839111328e+00 2.011967182159423828e+00 2.277194857597351074e-01
2.939000000000000000e+03 5.221353912353515625e+01 1.004413032531738281e+01 -4.136126339435577393e-01 5.398084640502929688e+00 1.495341539382934570e+00 7.491291165351867676e-01
2.940000000000000000e+03 4.353567123413085938e+01 -2.579670906066894531e+00 -4.006261005997657776e-03 3.134815692901611328e+00 9.392427802085876465e-01 1.902530044317245483e-01
2.941000000000000000e+03 4.480875015258789062e+01 -2.983814954757690430e+00 -8.956784009933471680e-02 3.464367628097534180e+00 1.012439966201782227e+00 1.805495321750640869e-01
2.942000000000000000e+03 4.808605194091796875e+01 -6.234969615936279297e+00 -2.907151281833648682e-01 4.330271720886230469e+00 1.211866974830627441e+00 1.321040689945220947e-01
2.943000000000000000e+03 4.765745925903320312e+01 -8.127581596374511719e+00 -2.815532088279724121e-01 4.268162250518798828e+00 1.195982694625854492e+00 7.805444300174713135e-02
2.944000000000000000e+03 6.247356033325195312e+01 1.212707328796386719e+01 -5.564186573028564453e-01 7.526567459106445312e+00 2.091044664382934570e+00 -4.004871100187301636e-02
2.945000000000000000e+03 6.081769561767578125e+01 1.961084365844726562e+01 -5.800598263740539551e-01 8.176486968994140625e+00 2.278928279876708984e+00 -3.745712339878082275e-02
2.946000000000000000e+03 6.280267715454101562e+01 -6.279764771461486816e-01 -3.775607347488403320e-01 6.963225364685058594e+00 1.975699424743652344e+00 2.043906450271606445e-01
2.947000000000000000e+03 4.491380310058593750e+01 1.011594772338867188e+00 -5.278933793306350708e-02 3.415733575820922852e+00 1.008883357048034668e+00 3.709109425544738770e-01
2.948000000000000000e+03 4.381079483032226562e+01 1.608280062675476074e+00 6.199450418353080750e-02 3.128327846527099609e+00 9.570966958999633789e-01 4.080736935138702393e-01
2.949000000000000000e+03 5.308914947509765625e+01 1.087310218811035156e+01 -4.346498250961303711e-01 5.706891536712646484e+00 1.581672549247741699e+00 7.313371896743774414e-01
2.950000000000000000e+03 5.732612991333007812e+01 1.416006565093994141e+01 -6.004202365875244141e-01 6.961995601654052734e+00 1.908472537994384766e+00 4.661948382854461670e-01
2.951000000000000000e+03 6.453502655029296875e+01 1.296900558471679688e+01 -4.987059831619262695e-01 7.745991230010986328e+00 2.174185514450073242e+00 -2.018305659294128418e-01
2.952000000000000000e+03 6.377970886230468750e+01 1.462152576446533203e+01 -5.301326513290405273e-01 7.792726039886474609e+00 2.178777933120727539e+00 -2.011496275663375854e-01
2.953000000000000000e+03 6.359094238281250000e+01 -1.111478519439697266e+01 -2.678046822547912598e-01 6.959642410278320312e+00 2.007551431655883789e+00 4.099161922931671143e-01
2.954000000000000000e+03 6.298447799682617188e+01 -6.619920730590820312e+00 -3.230093419551849365e-01 6.898868560791015625e+00 1.972757816314697266e+00 3.245458006858825684e-01
2.955000000000000000e+03 6.428578186035156250e+01 -7.113614559173583984e+00 -2.849799692630767822e-01 7.059513568878173828e+00 2.032360076904296875e+00 3.107638359069824219e-01
2.956000000000000000e+03 5.081431579589843750e+01 -9.035593986511230469e+00 -3.764945268630981445e-01 4.992175102233886719e+00 1.384704113006591797e+00 1.771911382675170898e-01
2.957000000000000000e+03 6.479025268554687500e+01 4.781592845916748047e+00 -3.986265361309051514e-01 7.391067028045654297e+00 2.097732067108154297e+00 2.954843081533908844e-02
2.958000000000000000e+03 5.948550415039062500e+01 -1.610603141784667969e+01 -2.955255508422851562e-01 6.547432422637939453e+00 1.875572085380554199e+00 4.577816724777221680e-01
2.959000000000000000e+03 5.644047546386718750e+01 -1.847496414184570312e+01 -3.038483560085296631e-01 6.269180297851562500e+00 1.789599537849426270e+00 4.400600492954254150e-01
2.960000000000000000e+03 5.261489868164062500e+01 -1.378388500213623047e+01 -4.070891737937927246e-01 5.535719871520996094e+00 1.538589119911193848e+00 2.143964767456054688e-01
2.961000000000000000e+03 6.150310134887695312e+01 -1.894135856628417969e+01 -2.026939392089843750e-01 6.794203758239746094e+00 1.977452993392944336e+00 5.511109232902526855e-01
2.962000000000000000e+03 6.269684219360351562e+01 1.520275688171386719e+01 -5.702410936355590820e-01 7.783717155456542969e+00 2.164042949676513672e+00 -1.046150699257850647e-01
2.963000000000000000e+03 6.032281875610351562e+01 1.783709144592285156e+01 -6.207249164581298828e-01 7.876188278198242188e+00 2.176639080047607422e+00 5.933066830039024353e-02
2.964000000000000000e+03 5.869177246093750000e+01 -2.244276618957519531e+01 -1.062916666269302368e-01 6.587580680847167969e+00 1.944386720657348633e+00 5.628995895385742188e-01
2.965000000000000000e+03 5.771429061889648438e+01 -2.471217536926269531e+01 -4.524705000221729279e-03 6.589775085449218750e+00 1.975575089454650879e+00 5.827531814575195312e-01
2.966000000000000000e+03 5.424642181396484375e+01 -2.183052635192871094e+01 -2.289552539587020874e-01 6.178038597106933594e+00 1.784724950790405273e+00 4.011587202548980713e-01
2.967000000000000000e+03 6.283322906494140625e+01 8.386558532714843750e+00 -4.817812442779541016e-01 7.293645381927490234e+00 2.043559312820434570e+00 3.036385960876941681e-02
2.968000000000000000e+03 6.407279205322265625e+01 9.579936981201171875e+00 -4.929125010967254639e-01 7.482389450073242188e+00 2.096843004226684570e+00 -7.021283358335494995e-02
2.969000000000000000e+03 5.613403320312500000e+01 1.440611934661865234e+01 -5.973733663558959961e-01 6.752383708953857422e+00 1.846503138542175293e+00 6.178075075149536133e-01
2.970000000000000000e+03 5.947845458984375000e+01 1.715849876403808594e+01 -6.145042777061462402e-01 7.689893722534179688e+00 2.122616767883300781e+00 2.336630672216415405e-01
2.971000000000000000e+03 6.134168243408203125e+01 2.184625053405761719e+01 -4.581706821918487549e-01 8.510848045349121094e+00 2.415803194046020508e+00 -1.745577007532119751e-01
2.972000000000000000e+03 4.613660430908203125e+01 -3.406723022460937500e+00 -1.480213850736618042e-01 3.787766456604003906e+00 1.091923475265502930e+00 2.078833281993865967e-01
2.973000000000000000e+03 4.707004928588867188e+01 -7.071401119232177734e+00 -2.403677254915237427e-01 4.108170986175537109e+00 1.160340905189514160e+00 6.044858694076538086e-02
2.974000000000000000e+03 5.073751068115234375e+01 -7.924896717071533203e+00 -3.439407646656036377e-01 4.954588890075683594e+00 1.383194446563720703e+00 1.733667254447937012e-01
2.975000000000000000e+03 5.434027481079101562e+01 -1.452193164825439453e+01 -3.886724710464477539e-01 5.833048820495605469e+00 1.633312940597534180e+00 2.739076018333435059e-01
2.976000000000000000e+03 4.855007553100585938e+01 -8.775424003601074219e+00 -3.308429419994354248e-01 4.515137672424316406e+00 1.255288481712341309e+00 9.267316758632659912e-02
2.977000000000000000e+03 5.096183013916015625e+01 -1.036932945251464844e+01 -3.586337268352508545e-01 5.077213287353515625e+00 1.415573954582214355e+00 1.448536664247512817e-01
2.978000000000000000e+03 2.358336067199707031e+01 -3.247700500488281250e+01 -2.062482759356498718e-02 2.637049674987792969e+00 7.849274277687072754e-01 -4.152297079563140869e-01
2.979000000000000000e+03 5.377717208862304688e+01 1.003523731231689453e+01 -4.790151715278625488e-01 5.799550533294677734e+00 1.596160650253295898e+00 6.789422035217285156e-01
2.980000000000000000e+03 5.480076980590820312e+01 1.071811199188232422e+01 -4.991488456726074219e-01 6.101381301879882812e+00 1.680669784545898438e+00 6.221936941146850586e-01
2.981000000000000000e+03 4.988316726684570312e+01 8.793075561523437500e+00 -2.970091104507446289e-01 4.735670089721679688e+00 1.331598281860351562e+00 7.807149291038513184e-01
2.982000000000000000e+03 6.190694427490234375e+01 1.427874755859375000e+01 -5.893930196762084961e-01 7.627590656280517578e+00 2.111459255218505859e+00 -4.938780143857002258e-02
2.983000000000000000e+03 5.261587905883789062e+01 -1.194073677062988281e+01 -3.904680311679840088e-01 5.449326038360595703e+00 1.517657399177551270e+00 1.949621289968490601e-01
2.984000000000000000e+03 5.276784133911132812e+01 -8.500965118408203125e+00 -3.925102353096008301e-01 5.362164497375488281e+00 1.490896344184875488e+00 2.260366976261138916e-01
2.985000000000000000e+03 6.230929946899414062e+01 1.756206893920898438e+01 -5.362922549247741699e-01 7.974668502807617188e+00 2.231513023376464844e+00 -1.583495140075683594e-01
2.986000000000000000e+03 4.890762710571289062e+01 5.827292442321777344e+00 -2.080300003290176392e-01 4.418813705444335938e+00 1.263235092163085938e+00 6.364949345588684082e-01
2.987000000000000000e+03 5.119733428955078125e+01 9.283703804016113281e+00 -3.299475312232971191e-01 5.095522880554199219e+00 1.429672598838806152e+00 7.585712075233459473e-01
2.988000000000000000e+03 5.303541946411132812e+01 9.224289894104003906e+00 -4.158143401145935059e-01 5.563476085662841797e+00 1.544298410415649414e+00 6.767997145652770996e-01
2.989000000000000000e+03 6.483588409423828125e+01 7.028007030487060547e+00 -4.515915811061859131e-01 7.444168090820312500e+00 2.097773075103759766e+00 -1.897025853395462036e-02
2.990000000000000000e+03 6.221812820434570312e+01 9.363172531127929688e+00 -5.344827175140380859e-01 7.268268585205078125e+00 2.020135641098022461e+00 4.434313997626304626e-02
2.991000000000000000e+03 4.793227005004882812e+01 -2.380655050277709961e+00 -2.096317112445831299e-01 4.206449031829833984e+00 1.199045181274414062e+00 2.946760654449462891e-01
2.992000000000000000e+03 4.754388046264648438e+01 -3.861297130584716797e+00 -2.177527397871017456e-01 4.146151542663574219e+00 1.178519606590270996e+00 1.936293840408325195e-01
2.993000000000000000e+03 4.572737503051757812e+01 -4.272793531417846680e-01 -9.067676216363906860e-02 3.652554750442504883e+00 1.068563461303710938e+00 3.110643327236175537e-01
2.994000000000000000e+03 5.820010375976562500e+01 -1.516049289703369141e+01 -3.258000910282135010e-01 6.373530864715576172e+00 1.814319252967834473e+00 4.335455596446990967e-01
2.995000000000000000e+03 6.430939483642578125e+01 1.484797596931457520e+00 -3.736304640769958496e-01 7.200045108795166016e+00 2.047924280166625977e+00 1.346235573291778564e-01
2.996000000000000000e+03 5.593177032470703125e+01 1.278821754455566406e+01 -5.525217056274414062e-01 6.513521194458007812e+00 1.788299918174743652e+00 5.856018662452697754e-01
2.997000000000000000e+03 5.859562683105468750e+01 1.540269184112548828e+01 -6.096442341804504395e-01 7.345596313476562500e+00 2.020785570144653320e+00 3.170477747917175293e-01
2.998000000000000000e+03 6.360976028442382812e+01 4.796038866043090820e-01 -3.594497144222259521e-01 7.085463523864746094e+00 2.017804145812988281e+00 1.734144687652587891e-01
2.999000000000000000e+03 6.229347991943359375e+01 -2.850873947143554688e+00 -3.715275228023529053e-01 6.856715202331542969e+00 1.945556402206420898e+00 2.603760957717895508e-01
3.000000000000000000e+03 5.603602218627929688e+01 1.114302635192871094e+01 -5.602211356163024902e-01 6.393422126770019531e+00 1.749960303306579590e+00 5.340236425399780273e-01
3.001000000000000000e+03 6.260654067993164062e+01 1.301815986633300781e+00 -3.957234025001525879e-01 6.977944374084472656e+00 1.974666237831115723e+00 1.720227301120758057e-01
3.002000000000000000e+03 6.318777847290039062e+01 7.266444683074951172e+00 -4.835500121116638184e-01 7.285897731781005859e+00 2.040704488754272461e+00 3.799738734960556030e-02
3.003000000000000000e+03 6.035026931762695312e+01 4.945774555206298828e+00 -4.723811149597167969e-01 6.765123844146728516e+00 1.887822866439819336e+00 2.184520810842514038e-01
3.004000000000000000e+03 6.374901962280273438e+01 -8.589488983154296875e+00 -2.974673807621002197e-01 6.985330104827880859e+00 2.006358861923217773e+00 3.648712038993835449e-01
3.005000000000000000e+03 6.154171371459960938e+01 -1.289177513122558594e+01 -3.040287196636199951e-01 6.734307765960693359e+00 1.929083704948425293e+00 4.291726350784301758e-01
3.006000000000000000e+03 6.342658615112304688e+01 -5.388380050659179688e+00 -3.206072747707366943e-01 6.965110301971435547e+00 1.993350863456726074e+00 2.822486162185668945e-01
3.007000000000000000e+03 5.965178298950195312e+01 1.268983745574951172e+01 -6.273403167724609375e-01 7.217183113098144531e+00 1.976952791213989258e+00 2.141197323799133301e-01
3.008000000000000000e+03 5.749040222167968750e+01 1.555459976196289062e+01 -6.347206830978393555e-01 7.180059909820556641e+00 1.963601708412170410e+00 4.714261889457702637e-01
3.009000000000000000e+03 6.173904037475585938e+01 1.594862937927246094e+01 -5.935006737709045410e-01 7.766486644744873047e+00 2.151895761489868164e+00 -6.466283649206161499e-02
3.010000000000000000e+03 5.793417739868164062e+01 -1.953480529785156250e+01 -2.323116660118103027e-01 6.459814548492431641e+00 1.868250846862792969e+00 4.910421967506408691e-01
3.011000000000000000e+03 5.588654327392578125e+01 -1.568318271636962891e+01 -3.564315736293792725e-01 6.099346160888671875e+00 1.722874402999877930e+00 3.717293441295623779e-01
3.012000000000000000e+03 5.411788940429687500e+01 -1.136155414581298828e+01 -4.129200875759124756e-01 5.680449962615966797e+00 1.580258965492248535e+00 2.549012601375579834e-01
3.013000000000000000e+03 5.170932769775390625e+01 -6.492229938507080078e+00 -3.659290969371795654e-01 5.086698055267333984e+00 1.416230678558349609e+00 2.123811244964599609e-01
3.014000000000000000e+03 4.668600845336914062e+01 4.171325206756591797e+00 -1.073247194290161133e-01 3.851470947265625000e+00 1.123243808746337891e+00 5.759503245353698730e-01
3.015000000000000000e+03 5.779967117309570312e+01 -1.253961753845214844e+01 -3.681083023548126221e-01 6.254374504089355469e+00 1.765879869461059570e+00 3.810917437076568604e-01
3.016000000000000000e+03 5.220148086547851562e+01 -1.025277709960937500e+01 -4.020923078060150146e-01 5.306143760681152344e+00 1.471215367317199707e+00 2.044097632169723511e-01
3.017000000000000000e+03 5.153359603881835938e+01 -7.829514503479003906e+00 -3.764372766017913818e-01 5.095647335052490234e+00 1.415763020515441895e+00 1.966752409934997559e-01
3.018000000000000000e+03 5.412879180908203125e+01 -2.524378013610839844e+01 -9.407293982803821564e-03 6.364887714385986328e+00 1.906644105911254883e+00 4.798144102096557617e-01
3.019000000000000000e+03 5.581812286376953125e+01 -2.353908920288085938e+01 -7.899162173271179199e-02 6.418893814086914062e+00 1.901970624923706055e+00 4.948889911174774170e-01
3.020000000000000000e+03 6.316952514648437500e+01 1.963279342651367188e+01 -4.891933500766754150e-01 8.277271270751953125e+00 2.336423397064208984e+00 -3.146798312664031982e-01
3.021000000000000000e+03 4.934074401855468750e+01 -5.421557426452636719e+00 -2.726715803146362305e-01 4.561183452606201172e+00 1.286553621292114258e+00 2.026391178369522095e-01
3.022000000000000000e+03 6.291802597045898438e+01 -9.902696609497070312e+00 -3.009539544582366943e-01 6.894147872924804688e+00 1.977958083152770996e+00 3.707290887832641602e-01
3.023000000000000000e+03 6.009704971313476562e+01 -1.852087020874023438e+01 -2.191458344459533691e-01 6.650628089904785156e+00 1.929444670677185059e+00 5.184693336486816406e-01
3.024000000000000000e+03 6.159540939331054688e+01 1.735382080078125000e+01 -6.014176011085510254e-01 7.916650295257568359e+00 2.194569826126098633e+00 -7.495590299367904663e-02
3.025000000000000000e+03 6.321982574462890625e+01 1.643495559692382812e+01 -5.359980463981628418e-01 7.931673049926757812e+00 2.218702554702758789e+00 -2.265167534351348877e-01
3.026000000000000000e+03 6.096578598022460938e+01 -2.631306076049804688e+01 1.297585070133209229e-01 6.784284114837646484e+00 2.074212789535522461e+00 6.149399876594543457e-01
3.027000000000000000e+03 6.103214263916015625e+01 1.359748077392578125e+01 -6.017804741859436035e-01 7.467807292938232422e+00 2.059808015823364258e+00 8.576352149248123169e-02
3.028000000000000000e+03 6.329603958129882812e+01 1.205757331848144531e+01 -5.232548117637634277e-01 7.565284252166748047e+00 2.112608909606933594e+00 -8.594831824302673340e-02
3.029000000000000000e+03 6.746150970458984375e+01 4.102799224853515625e+01 3.479454815387725830e-01 9.100974082946777344e+00 2.834676027297973633e+00 -4.446417093276977539e-02
3.030000000000000000e+03 6.724544525146484375e+01 3.520419692993164062e+01 6.554633378982543945e-01 8.738068580627441406e+00 2.818059682846069336e+00 -7.775225490331649780e-02
3.031000000000000000e+03 6.049067306518554688e+01 -1.455986785888671875e+01 -2.943871915340423584e-01 6.632491111755371094e+00 1.901431202888488770e+00 4.653103053569793701e-01
3.032000000000000000e+03 5.524586105346679688e+01 9.381044387817382812e+00 -5.232710838317871094e-01 6.115337371826171875e+00 1.677619934082031250e+00 5.213551521301269531e-01
3.033000000000000000e+03 6.339193344116210938e+01 2.105543851852416992e+00 -3.915643990039825439e-01 7.089102745056152344e+00 2.009261608123779297e+00 1.538437008857727051e-01
3.034000000000000000e+03 6.178092193603515625e+01 6.823871612548828125e+00 -4.925034344196319580e-01 7.080334186553955078e+00 1.976349234580993652e+00 1.242230609059333801e-01
3.035000000000000000e+03 4.660788345336914062e+01 -2.055173158645629883e+00 -1.513248234987258911e-01 3.888557910919189453e+00 1.121169924736022949e+00 2.487336397171020508e-01
3.036000000000000000e+03 6.089300155639648438e+01 -1.049668312072753906e+01 -3.280673623085021973e-01 6.638998985290527344e+00 1.893279433250427246e+00 3.775676190853118896e-01
3.037000000000000000e+03 4.874151611328125000e+01 7.178566455841064453e+00 -2.267292588949203491e-01 4.378479957580566406e+00 1.245525240898132324e+00 7.226598262786865234e-01
3.038000000000000000e+03 6.018084716796875000e+01 6.627411842346191406e+00 -5.216276049613952637e-01 6.820335388183593750e+00 1.889612317085266113e+00 2.213008552789688110e-01
3.039000000000000000e+03 6.342766952514648438e+01 5.549231529235839844e+00 -4.466285109519958496e-01 7.232597827911376953e+00 2.035790681838989258e+00 7.251332700252532959e-02
3.040000000000000000e+03 5.223538970947265625e+01 8.232529640197753906e+00 -4.030331671237945557e-01 5.308784961700439453e+00 1.471725583076477051e+00 6.671299338340759277e-01
3.041000000000000000e+03 4.562591171264648438e+01 1.832867264747619629e+00 -2.927698381245136261e-02 3.592040300369262695e+00 1.068828940391540527e+00 4.330936372280120850e-01
3.042000000000000000e+03 4.764924240112304688e+01 5.692255496978759766e+00 -1.787642538547515869e-01 4.074196338653564453e+00 1.168629646301269531e+00 6.675340533256530762e-01
3.043000000000000000e+03 6.086463165283203125e+01 1.153452205657958984e+01 -6.042668223381042480e-01 7.270259857177734375e+00 1.999797940254211426e+00 1.261410862207412720e-01
3.044000000000000000e+03 6.162538909912109375e+01 8.240332603454589844e+00 -5.319383740425109863e-01 7.134237766265869141e+00 1.980689883232116699e+00 1.208639368414878845e-01
3.045000000000000000e+03 5.849308013916015625e+01 1.264460563659667969e+01 -5.981673598289489746e-01 7.020760536193847656e+00 1.926778078079223633e+00 3.269945681095123291e-01
3.046000000000000000e+03 6.221363449096679688e+01 1.119108867645263672e+01 -5.499128103256225586e-01 7.405020713806152344e+00 2.056532382965087891e+00 2.072028117254376411e-03
3.047000000000000000e+03 4.992632675170898438e+01 4.327780008316040039e-01 -2.482412457466125488e-01 4.643961429595947266e+00 1.318716049194335938e+00 3.811747133731842041e-01
3.048000000000000000e+03 5.726299285888671875e+01 1.268317794799804688e+01 -6.055177450180053711e-01 6.805068016052246094e+00 1.859865069389343262e+00 4.424214363098144531e-01
3.049000000000000000e+03 5.961487960815429688e+01 1.511605453491210938e+01 -6.389887928962707520e-01 7.478391170501708984e+00 2.051820755004882812e+00 2.125462442636489868e-01
3.050000000000000000e+03 6.093896484375000000e+01 1.679977035522460938e+01 -6.016103029251098633e-01 7.811161994934082031e+00 2.162865638732910156e+00 4.812268167734146118e-02
3.051000000000000000e+03 5.334494400024414062e+01 -9.796923637390136719e+00 -3.843270242214202881e-01 5.472430706024169922e+00 1.526431083679199219e+00 2.287080585956573486e-01
3.052000000000000000e+03 6.083295822143554688e+01 -5.094991922378540039e-01 -4.140110015869140625e-01 6.695520877838134766e+00 1.884452939033508301e+00 2.496259659528732300e-01
3.053000000000000000e+03 6.112829589843750000e+01 -7.099822044372558594e+00 -3.494015038013458252e-01 6.658140182495117188e+00 1.892621636390686035e+00 3.431429564952850342e-01
3.054000000000000000e+03 5.951448059082031250e+01 1.396864414215087891e+01 -6.058754920959472656e-01 7.305312633514404297e+00 2.009831190109252930e+00 2.269112318754196167e-01
3.055000000000000000e+03 6.169607543945312500e+01 -1.720714378356933594e+01 -2.177723497152328491e-01 6.794819355010986328e+00 1.973114132881164551e+00 5.239937305450439453e-01
3.056000000000000000e+03 5.183644866943359375e+01 -8.895145416259765625e+00 -3.602164983749389648e-01 5.188107490539550781e+00 1.448367357254028320e+00 2.031524777412414551e-01
3.057000000000000000e+03 6.041910171508789062e+01 -2.382857799530029297e+00 -4.039901196956634521e-01 6.583023548126220703e+00 1.853710055351257324e+00 2.820419967174530029e-01
3.058000000000000000e+03 6.103313827514648438e+01 -3.458278417587280273e+00 -3.716048896312713623e-01 6.651581764221191406e+00 1.883993148803710938e+00 2.843546569347381592e-01
3.059000000000000000e+03 5.436262130737304688e+01 -8.972439765930175781e+00 -4.074674844741821289e-01 5.641994476318359375e+00 1.570358157157897949e+00 2.535486519336700439e-01
3.060000000000000000e+03 5.532505798339843750e+01 -1.287003421783447266e+01 -3.822394013404846191e-01 5.903491497039794922e+00 1.656375646591186523e+00 3.145791888236999512e-01
3.061000000000000000e+03 5.870707321166992188e+01 -1.776210594177246094e+01 -2.781260311603546143e-01 6.490510463714599609e+00 1.863715291023254395e+00 4.892584383487701416e-01
3.062000000000000000e+03 5.016917800903320312e+01 5.798866748809814453e+00 -2.866436541080474854e-01 4.745117664337158203e+00 1.337542295455932617e+00 6.213817596435546875e-01
3.063000000000000000e+03 5.950798034667968750e+01 -2.041075515747070312e+01 -1.885403096675872803e-01 6.624956130981445312e+00 1.930924654006958008e+00 5.541414022445678711e-01
3.064000000000000000e+03 6.251193237304687500e+01 -4.040080070495605469e+00 -3.391335010528564453e-01 6.867980957031250000e+00 1.958654284477233887e+00 2.679403722286224365e-01
3.065000000000000000e+03 5.862885665893554688e+01 1.124709320068359375e+01 -5.959502458572387695e-01 6.922132492065429688e+00 1.897854685783386230e+00 3.022933900356292725e-01
3.066000000000000000e+03 5.103159332275390625e+01 -7.127190113067626953e+00 -3.425411880016326904e-01 4.984498023986816406e+00 1.392587065696716309e+00 2.144546508789062500e-01
3.067000000000000000e+03 6.219660949707031250e+01 -1.120604324340820312e+01 -3.065317273139953613e-01 6.799231052398681641e+00 1.947809815406799316e+00 4.136136472225189209e-01
3.068000000000000000e+03 6.038580703735351562e+01 -8.296433448791503906e+00 -3.569143116474151611e-01 6.561306953430175781e+00 1.861317873001098633e+00 3.401178717613220215e-01
3.069000000000000000e+03 6.311172866821289062e+01 4.090051651000976562e+01 -2.340351939201354980e-01 1.117681503295898438e+01 3.282834053039550781e+00 3.506887257099151611e-01
3.070000000000000000e+03 6.236970901489257812e+01 4.072340011596679688e+00 -4.385705292224884033e-01 7.036084175109863281e+00 1.979254126548767090e+00 1.411935240030288696e-01
3.071000000000000000e+03 6.172181320190429688e+01 1.191641807556152344e+01 -5.625104308128356934e-01 7.411823749542236328e+00 2.054794073104858398e+00 4.071337357163429260e-02
3.072000000000000000e+03 6.149897384643554688e+01 1.284126472473144531e+01 -5.862181782722473145e-01 7.449705123901367188e+00 2.059046030044555664e+00 2.805727347731590271e-02
3.073000000000000000e+03 5.435585784912109375e+01 7.880920410156250000e+00 -4.756014347076416016e-01 5.792861938476562500e+00 1.595178127288818359e+00 5.520079731941223145e-01
3.074000000000000000e+03 5.409506988525390625e+01 9.021278381347656250e+00 -4.559929668903350830e-01 5.804719924926757812e+00 1.604618072509765625e+00 6.161539554595947266e-01
3.075000000000000000e+03 5.017152404785156250e+01 7.274476051330566406e+00 -2.814731001853942871e-01 4.783068656921386719e+00 1.350478649139404297e+00 6.804236173629760742e-01
3.076000000000000000e+03 5.157759094238281250e+01 7.021985054016113281e+00 -3.469320237636566162e-01 5.103293418884277344e+00 1.426908373832702637e+00 6.522715687751770020e-01
3.077000000000000000e+03 5.736486816406250000e+01 1.121490573883056641e+01 -5.659826397895812988e-01 6.686327457427978516e+00 1.836103439331054688e+00 4.190927147865295410e-01
3.078000000000000000e+03 5.846588516235351562e+01 1.402605628967285156e+01 -6.372299194335937500e-01 7.163136005401611328e+00 1.957771897315979004e+00 3.318253159523010254e-01
3.079000000000000000e+03 6.075312805175781250e+01 1.394269227981567383e+00 -4.198715984821319580e-01 6.725770473480224609e+00 1.891769647598266602e+00 2.205879390239715576e-01
3.080000000000000000e+03 6.011993408203125000e+01 9.911769866943359375e+00 -5.741316080093383789e-01 7.051912307739257812e+00 1.943334221839904785e+00 1.932280212640762329e-01
3.081000000000000000e+03 6.137654876708984375e+01 1.035916423797607422e+01 -5.460354685783386230e-01 7.249462127685546875e+00 2.011028051376342773e+00 1.041300520300865173e-01
3.082000000000000000e+03 4.969100952148437500e+01 -1.245390415191650391e+00 -2.756515741348266602e-01 4.587508678436279297e+00 1.293557167053222656e+00 3.413873910903930664e-01
3.083000000000000000e+03 4.788331604003906250e+01 4.295837879180908203e+00 -1.435988396406173706e-01 4.151647567749023438e+00 1.202414631843566895e+00 5.665190219879150391e-01
3.084000000000000000e+03 6.176161575317382812e+01 3.897446691989898682e-01 -3.957824707031250000e-01 6.836536884307861328e+00 1.932226300239562988e+00 2.165446579456329346e-01
3.085000000000000000e+03 5.232139587402343750e+01 -7.329403400421142578e+00 -3.574132323265075684e-01 5.224863529205322266e+00 1.460234999656677246e+00 2.402375489473342896e-01
3.086000000000000000e+03 4.924339294433593750e+01 -2.689397573471069336e+00 -2.574927210807800293e-01 4.485646724700927734e+00 1.268446207046508789e+00 2.602610588073730469e-01
3.087000000000000000e+03 5.008633422851562500e+01 4.401050567626953125e+00 -2.816936373710632324e-01 4.695178031921386719e+00 1.324045300483703613e+00 5.464748740196228027e-01
3.088000000000000000e+03 5.531858825683593750e+01 -1.018038272857666016e+01 -3.853486776351928711e-01 5.838159084320068359e+00 1.635843157768249512e+00 2.959278225898742676e-01
3.089000000000000000e+03 5.959592819213867188e+01 -9.616305351257324219e+00 -3.518707752227783203e-01 6.454861640930175781e+00 1.830897212028503418e+00 3.714371025562286377e-01
3.090000000000000000e+03 5.874632263183593750e+01 -1.104079341888427734e+01 -3.657714724540710449e-01 6.363054752349853516e+00 1.799184918403625488e+00 3.674581944942474365e-01
3.091000000000000000e+03 6.009892272949218750e+01 -1.200957012176513672e+01 -3.445494771003723145e-01 6.543766021728515625e+00 1.859765052795410156e+00 4.151375293731689453e-01
3.092000000000000000e+03 5.915048599243164062e+01 -1.983073204755783081e-01 -4.315873086452484131e-01 6.412163257598876953e+00 1.794172763824462891e+00 2.889821231365203857e-01
3.093000000000000000e+03 5.975136947631835938e+01 -1.286685585975646973e+00 -3.962109088897705078e-01 6.500943660736083984e+00 1.831419825553894043e+00 2.822707593441009521e-01
3.094000000000000000e+03 5.638790512084960938e+01 9.683212280273437500e+00 -5.311031937599182129e-01 6.356368064880371094e+00 1.747579455375671387e+00 4.719908237457275391e-01
3.095000000000000000e+03 4.699687957763671875e+01 -6.798748970031738281e-01 -1.524049490690231323e-01 3.953175067901611328e+00 1.140231013298034668e+00 3.431944549083709717e-01
3.096000000000000000e+03 5.012723922729492188e+01 -3.498206615447998047e+00 -2.945298254489898682e-01 4.732588768005371094e+00 1.331417679786682129e+00 2.709802389144897461e-01
3.097000000000000000e+03 5.916281127929687500e+01 -1.357551479339599609e+01 -3.362430632114410400e-01 6.464493274688720703e+00 1.838474988937377930e+00 4.082031846046447754e-01
3.098000000000000000e+03 6.180536651611328125e+01 -6.014346122741699219e+00 -3.504471182823181152e-01 6.753826141357421875e+00 1.921013712882995605e+00 3.101094961166381836e-01
3.099000000000000000e+03 6.235472488403320312e+01 -5.029437065124511719e+00 -3.478399515151977539e-01 6.832215309143066406e+00 1.945312619209289551e+00 2.994118928909301758e-01
3.100000000000000000e+03 6.080032730102539062e+01 -5.228559494018554688e+00 -3.653081059455871582e-01 6.609849452972412109e+00 1.873362421989440918e+00 3.153457641601562500e-01
3.101000000000000000e+03 6.391854858398437500e+01 8.714345932006835938e+00 -4.850598871707916260e-01 7.426870346069335938e+00 2.082543134689331055e+00 -2.468939684331417084e-02
3.102000000000000000e+03 4.723867797851562500e+01 7.662469148635864258e-01 -1.504375338554382324e-01 3.973650217056274414e+00 1.146963834762573242e+00 3.890971243381500244e-01
3.103000000000000000e+03 5.601258850097656250e+01 -3.517140150070190430e+00 -4.106802046298980713e-01 5.861351966857910156e+00 1.635201573371887207e+00 3.100891709327697754e-01
3.104000000000000000e+03 5.321794891357421875e+01 -5.593134403228759766e+00 -3.641607463359832764e-01 5.345520496368408203e+00 1.494407892227172852e+00 2.661695480346679688e-01
3.105000000000000000e+03 5.834903717041015625e+01 -8.613419532775878906e+00 -3.821825683116912842e-01 6.277061462402343750e+00 1.768463611602783203e+00 3.335733413696289062e-01
3.106000000000000000e+03 5.950274276733398438e+01 -2.717215919494628906e+01 1.846021413803100586e-01 6.714613914489746094e+00 2.069764852523803711e+00 5.986859798431396484e-01
3.107000000000000000e+03 4.600441741943359375e+01 8.387737274169921875e-01 -1.068765893578529358e-01 3.701298236846923828e+00 1.078326463699340820e+00 4.001551568508148193e-01
3.108000000000000000e+03 5.669380187988281250e+01 8.429233551025390625e+00 -5.383616685867309570e-01 6.357230186462402344e+00 1.745660543441772461e+00 4.184432029724121094e-01
3.109000000000000000e+03 5.980981826782226562e+01 1.131825351715087891e+01 -5.769357085227966309e-01 7.116027355194091797e+00 1.961727499961853027e+00 2.052105665206909180e-01
3.110000000000000000e+03 5.758368301391601562e+01 9.845709800720214844e+00 -5.716171860694885254e-01 6.597124099731445312e+00 1.807651996612548828e+00 3.928955793380737305e-01
3.111000000000000000e+03 5.270587158203125000e+01 2.728967428207397461e+00 -3.648176193237304688e-01 5.294354438781738281e+00 1.478861093521118164e+00 4.651403725147247314e-01
3.112000000000000000e+03 5.556313705444335938e+01 8.182443618774414062e+00 -4.878834187984466553e-01 6.109211921691894531e+00 1.686398625373840332e+00 4.854362308979034424e-01
3.113000000000000000e+03 5.328311157226562500e+01 7.394442558288574219e+00 -4.060670733451843262e-01 5.556743621826171875e+00 1.545202970504760742e+00 6.010882258415222168e-01
3.114000000000000000e+03 6.019332122802734375e+01 8.324570655822753906e+00 -5.299889445304870605e-01 6.937879562377929688e+00 1.922367095947265625e+00 1.976622492074966431e-01
3.115000000000000000e+03 5.137594604492187500e+01 -2.920392751693725586e+00 -3.400376439094543457e-01 4.953102588653564453e+00 1.383919477462768555e+00 3.033357858657836914e-01
3.116000000000000000e+03 4.831243896484375000e+01 -9.410340785980224609e-01 -2.028431445360183716e-01 4.251619338989257812e+00 1.214632868766784668e+00 3.298555016517639160e-01
3.117000000000000000e+03 5.629469299316406250e+01 -8.865999221801757812e+00 -4.001773297786712646e-01 5.964546203613281250e+00 1.669310569763183594e+00 3.133243620395660400e-01
3.118000000000000000e+03 5.882297897338867188e+01 9.874155998229980469e+00 -5.543713569641113281e-01 6.837280273437500000e+00 1.884872674942016602e+00 2.813636958599090576e-01
3.119000000000000000e+03 5.998764801025390625e+01 -6.218949317932128906e+00 -3.786663413047790527e-01 6.496462821960449219e+00 1.835338950157165527e+00 3.172267675399780273e-01
3.120000000000000000e+03 5.267821502685546875e+01 4.055219173431396484e+00 -3.644924163818359375e-01 5.296796321868896484e+00 1.479691147804260254e+00 4.963214397430419922e-01
3.121000000000000000e+03 5.648124313354492188e+01 -1.141009616851806641e+01 -3.908899724483489990e-01 6.047848701477050781e+00 1.697087645530700684e+00 3.300088346004486084e-01
3.122000000000000000e+03 5.747256851196289062e+01 -9.980520248413085938e+00 -3.751040995121002197e-01 6.161261081695556641e+00 1.735847115516662598e+00 3.475993275642395020e-01
3.123000000000000000e+03 6.085826110839843750e+01 3.464276790618896484e+00 -4.705348908901214600e-01 6.779388904571533203e+00 1.892656087875366211e+00 2.089340239763259888e-01
3.124000000000000000e+03 5.803165817260742188e+01 -6.278879642486572266e+00 -3.978638947010040283e-01 6.207208633422851562e+00 1.742803454399108887e+00 3.112574815750122070e-01
3.125000000000000000e+03 5.731798171997070312e+01 -1.679175567626953125e+01 -3.200769126415252686e-01 6.320613384246826172e+00 1.800161004066467285e+00 4.174959957599639893e-01
3.126000000000000000e+03 5.801385498046875000e+01 -6.790161132812500000e-01 -4.075857698917388916e-01 6.241075038909912109e+00 1.750046730041503906e+00 2.986549735069274902e-01
3.127000000000000000e+03 4.755047225952148438e+01 2.202738285064697266e+00 -1.412705481052398682e-01 4.049833297729492188e+00 1.172568798065185547e+00 4.761500954627990723e-01
3.128000000000000000e+03 5.128372573852539062e+01 4.106380462646484375e+00 -3.274017870426177979e-01 4.946938037872314453e+00 1.385860919952392578e+00 5.360088348388671875e-01
3.129000000000000000e+03 5.897391891479492188e+01 -5.206083774566650391e+00 -3.827325701713562012e-01 6.337557792663574219e+00 1.786447525024414062e+00 3.166755735874176025e-01
3.130000000000000000e+03 5.109912490844726562e+01 -1.372997283935546875e+00 -2.987808883190155029e-01 4.882468700408935547e+00 1.375106334686279297e+00 3.271774649620056152e-01
3.131000000000000000e+03 5.180742263793945312e+01 -4.317084789276123047e+00 -3.276093602180480957e-01 5.074614524841308594e+00 1.424101471900939941e+00 2.698110640048980713e-01
3.132000000000000000e+03 5.520846176147460938e+01 -7.820410251617431641e+00 -3.915896117687225342e-01 5.754295825958251953e+00 1.608811855316162109e+00 2.894251942634582520e-01
3.133000000000000000e+03 5.459082031250000000e+01 -5.682504653930664062e+00 -3.954954743385314941e-01 5.631968498229980469e+00 1.570941925048828125e+00 2.925477921962738037e-01
3.134000000000000000e+03 5.823725509643554688e+01 -3.029131126403808594e+01 4.353081583976745605e-01 6.673084735870361328e+00 2.132517814636230469e+00 5.355702638626098633e-01
3.135000000000000000e+03 5.943035125732421875e+01 -3.332053375244140625e+01 5.734436511993408203e-01 6.731890678405761719e+00 2.191600322723388672e+00 4.612566530704498291e-01
3.136000000000000000e+03 5.273917770385742188e+01 6.544512271881103516e+00 -3.923895657062530518e-01 5.370428562164306641e+00 1.493411660194396973e+00 5.978705883026123047e-01
3.137000000000000000e+03 5.922751235961914062e+01 -3.182414531707763672e+00 -3.868363201618194580e-01 6.389323234558105469e+00 1.800746083259582520e+00 2.991214692592620850e-01
3.138000000000000000e+03 5.856126785278320312e+01 -1.988878965377807617e+00 -4.162774682044982910e-01 6.297978401184082031e+00 1.764510154724121094e+00 3.004307746887207031e-01
3.139000000000000000e+03 5.547027206420898438e+01 -1.867164611816406250e+00 -3.839382827281951904e-01 5.757379531860351562e+00 1.612032413482666016e+00 3.241232633590698242e-01
3.140000000000000000e+03 5.479529190063476562e+01 6.736428260803222656e+00 -4.454706311225891113e-01 5.843608856201171875e+00 1.619441509246826172e+00 4.927048683166503906e-01
3.141000000000000000e+03 5.374579620361328125e+01 6.426715850830078125e+00 -4.441717863082885742e-01 5.619048118591308594e+00 1.552462935447692871e+00 5.225069522857666016e-01
3.142000000000000000e+03 6.202276992797851562e+01 5.396014690399169922e+00 -4.777804315090179443e-01 7.046278476715087891e+00 1.970549464225769043e+00 1.355093270540237427e-01
3.143000000000000000e+03 5.729211044311523438e+01 6.173259735107421875e+00 -5.046725869178771973e-01 6.315105438232421875e+00 1.743129849433898926e+00 3.662053048610687256e-01
3.144000000000000000e+03 5.765747833251953125e+01 7.366943955421447754e-01 -4.435030817985534668e-01 6.205089092254638672e+00 1.728475689888000488e+00 3.075062632560729980e-01
3.145000000000000000e+03 5.715479660034179688e+01 -7.518468379974365234e+00 -3.844732344150543213e-01 6.087451934814453125e+00 1.710893630981445312e+00 3.229093551635742188e-01
3.146000000000000000e+03 5.917567825317382812e+01 -7.350401401519775391e+00 -3.674300909042358398e-01 6.381227493286132812e+00 1.804139256477355957e+00 3.398627340793609619e-01
3.147000000000000000e+03 5.885211563110351562e+01 8.517727851867675781e+00 -5.510964393615722656e-01 6.734309673309326172e+00 1.854964017868041992e+00 2.934605777263641357e-01
3.148000000000000000e+03 5.777260208129882812e+01 8.639202117919921875e+00 -5.395277738571166992e-01 6.552362442016601562e+00 1.803850412368774414e+00 3.714305162429809570e-01
3.149000000000000000e+03 5.246967697143554688e+01 -1.188287258148193359e+00 -3.557923734188079834e-01 5.192126274108886719e+00 1.450900197029113770e+00 3.469783961772918701e-01
3.150000000000000000e+03 5.116367340087890625e+01 1.798742711544036865e-01 -3.053523004055023193e-01 4.893470287322998047e+00 1.376435399055480957e+00 4.002301692962646484e-01
3.151000000000000000e+03 4.834260177612304688e+01 3.073497295379638672e+00 -2.261021435260772705e-01 4.252020835876464844e+00 1.207775592803955078e+00 5.177903771400451660e-01
3.152000000000000000e+03 5.617856216430664062e+01 6.101720333099365234e+00 -4.697128832340240479e-01 6.103795051574707031e+00 1.690224647521972656e+00 4.182597398757934570e-01
3.153000000000000000e+03 5.864110183715820312e+01 6.379879474639892578e+00 -4.987025558948516846e-01 6.587956905364990234e+00 1.826776266098022461e+00 2.897968292236328125e-01
3.154000000000000000e+03 5.689559936523437500e+01 -5.051055431365966797e+00 -3.886515200138092041e-01 6.008832931518554688e+00 1.686054348945617676e+00 3.108403682708740234e-01
3.155000000000000000e+03 5.362050628662109375e+01 -7.956968784332275391e+00 -3.748655021190643311e-01 5.469312667846679688e+00 1.528334140777587891e+00 2.548236548900604248e-01
3.156000000000000000e+03 5.132418060302734375e+01 2.489475727081298828e+00 -2.894309759140014648e-01 4.942284107208251953e+00 1.395855903625488281e+00 4.658020734786987305e-01
3.157000000000000000e+03 4.993697738647460938e+01 2.141146183013916016e+00 -2.876961529254913330e-01 4.637975215911865234e+00 1.305083751678466797e+00 4.723399579524993896e-01
3.158000000000000000e+03 5.593674468994140625e+01 -6.378535747528076172e+00 -4.026726186275482178e-01 5.867578506469726562e+00 1.639471769332885742e+00 2.968665957450866699e-01
3.159000000000000000e+03 5.646945190429687500e+01 -3.405427551269531250e+01 7.615821361541748047e-01 6.677275180816650391e+00 2.231657028198242188e+00 3.485244810581207275e-01
3.160000000000000000e+03 5.819573211669921875e+01 7.618819713592529297e+00 -5.402101874351501465e-01 6.585095405578613281e+00 1.813465476036071777e+00 3.211889266967773438e-01
3.161000000000000000e+03 5.391246414184570312e+01 4.293897151947021484e+00 -4.265865981578826904e-01 5.562008380889892578e+00 1.540626525878906250e+00 4.629130661487579346e-01
3.162000000000000000e+03 5.807099151611328125e+01 -4.054279327392578125e+00 -4.104812145233154297e-01 6.206690788269042969e+00 1.738862872123718262e+00 3.077648878097534180e-01
3.163000000000000000e+03 5.703045654296875000e+01 7.299939155578613281e+00 -4.896146357059478760e-01 6.345455646514892578e+00 1.756752252578735352e+00 3.799681663513183594e-01
3.164000000000000000e+03 5.278820800781250000e+01 -2.624595403671264648e+00 -3.417611122131347656e-01 5.262281894683837891e+00 1.476156234741210938e+00 3.158823549747467041e-01
3.165000000000000000e+03 5.225712203979492188e+01 1.128569766879081726e-01 -3.272204995155334473e-01 5.146727561950683594e+00 1.445852041244506836e+00 3.637793958187103271e-01
3.166000000000000000e+03 5.459651947021484375e+01 1.033434987068176270e+00 -3.896148502826690674e-01 5.647313117980957031e+00 1.577309489250183105e+00 3.847342431545257568e-01
3.167000000000000000e+03 4.856591415405273438e+01 5.446908473968505859e-01 -2.163563817739486694e-01 4.322513580322265625e+00 1.231847167015075684e+00 4.096040129661560059e-01
3.168000000000000000e+03 5.675316238403320312e+01 -1.280764579772949219e+00 -4.222346544265747070e-01 6.005391597747802734e+00 1.674947023391723633e+00 3.189988136291503906e-01
3.169000000000000000e+03 5.589334869384765625e+01 7.080236911773681641e+00 -5.006720423698425293e-01 6.105688095092773438e+00 1.681504845619201660e+00 4.508439898490905762e-01
3.170000000000000000e+03 5.868952941894531250e+01 4.777157783508300781e+00 -4.880902469158172607e-01 6.513747215270996094e+00 1.807697057723999023e+00 2.858115434646606445e-01
3.171000000000000000e+03 5.732110977172851562e+01 -2.726308107376098633e+00 -3.944826424121856689e-01 6.100896358489990234e+00 1.711924076080322266e+00 3.084034919738769531e-01
3.172000000000000000e+03 4.944902420043945312e+01 3.485337018966674805e+00 -2.030994743108749390e-01 4.530143260955810547e+00 1.298113226890563965e+00 5.211647152900695801e-01
3.173000000000000000e+03 5.456776046752929688e+01 -3.975921392440795898e+00 -3.794644176959991455e-01 5.610012054443359375e+00 1.569164276123046875e+00 2.966120839118957520e-01
3.174000000000000000e+03 5.897129821777343750e+01 9.817487001419067383e-01 -4.345130622386932373e-01 6.415499687194824219e+00 1.794295907020568848e+00 2.835970818996429443e-01
3.175000000000000000e+03 5.816626358032226562e+01 3.176268815994262695e+00 -4.659759700298309326e-01 6.356477260589599609e+00 1.767150402069091797e+00 2.972689867019653320e-01
3.176000000000000000e+03 5.604003143310546875e+01 2.625975131988525391e+00 -4.317484796047210693e-01 5.951148033142089844e+00 1.655819892883300781e+00 3.510341942310333252e-01
3.177000000000000000e+03 5.180715942382812500e+01 1.183048844337463379e+00 -3.643026947975158691e-01 5.045658111572265625e+00 1.404406666755676270e+00 4.121577739715576172e-01
3.178000000000000000e+03 5.677350234985351562e+01 3.766587734222412109e+00 -4.703062772750854492e-01 6.118796825408935547e+00 1.694547176361083984e+00 3.700757622718811035e-01
3.179000000000000000e+03 5.377179718017578125e+01 -8.434211015701293945e-01 -3.578692078590393066e-01 5.456031799316406250e+00 1.529448747634887695e+00 3.541926443576812744e-01
3.180000000000000000e+03 5.467153930664062500e+01 5.010193347930908203e+00 -4.461165964603424072e-01 5.786846637725830078e+00 1.602218985557556152e+00 4.515099525451660156e-01
3.181000000000000000e+03 5.339189529418945312e+01 4.852613210678100586e-01 -3.888829052448272705e-01 5.356286525726318359e+00 1.490221023559570312e+00 3.866311907768249512e-01
3.182000000000000000e+03 5.724149703979492188e+01 4.969696998596191406e+00 -4.696797430515289307e-01 6.236572742462158203e+00 1.730067849159240723e+00 3.553569316864013672e-01
3.183000000000000000e+03 5.711167526245117188e+01 1.962888836860656738e+00 -4.266745150089263916e-01 6.157733440399169922e+00 1.719317793846130371e+00 3.292980492115020752e-01
3.184000000000000000e+03 5.415981292724609375e+01 -2.312324762344360352e+00 -3.900089859962463379e-01 5.528256416320800781e+00 1.541474103927612305e+00 3.270780444145202637e-01
3.185000000000000000e+03 5.291453933715820312e+01 1.615331649780273438e+00 -3.494178652763366699e-01 5.272912502288818359e+00 1.477048397064208984e+00 4.047151803970336914e-01
3.186000000000000000e+03 5.502733612060546875e+01 -3.868616521358489990e-01 -4.133420288562774658e-01 5.699533939361572266e+00 1.585857629776000977e+00 3.500216305255889893e-01
3.187000000000000000e+03 5.630316543579101562e+01 1.273750215768814087e-01 -4.086453914642333984e-01 5.929587364196777344e+00 1.656282544136047363e+00 3.360620439052581787e-01
3.188000000000000000e+03 5.530005264282226562e+01 5.770342350006103516e+00 -4.677127003669738770e-01 5.906535148620605469e+00 1.631646752357482910e+00 4.452758729457855225e-01
3.189000000000000000e+03 5.387910461425781250e+01 2.265796661376953125e+00 -4.045160710811614990e-01 5.519219875335693359e+00 1.534411191940307617e+00 4.100878238677978516e-01
3.190000000000000000e+03 5.587146759033203125e+01 1.440163016319274902e+00 -4.340678453445434570e-01 5.885771751403808594e+00 1.635511279106140137e+00 3.625910580158233643e-01
3.191000000000000000e+03 5.478206634521484375e+01 3.276329040527343750e+00 -4.123400747776031494e-01 5.724881649017333984e+00 1.593762516975402832e+00 4.286894798278808594e-01
3.192000000000000000e+03 6.404331970214843750e+01 -3.505621719360351562e+01 4.284541308879852295e-01 6.888268470764160156e+00 2.195016860961914062e+00 3.595643937587738037e-01
3.193000000000000000e+03 6.582344818115234375e+01 -3.265960693359375000e+01 2.928288280963897705e-01 6.979824542999267578e+00 2.181796073913574219e+00 4.407869875431060791e-01
3.194000000000000000e+03 1.622997856140136719e+01 3.404338073730468750e+01 -4.112280309200286865e-01 2.814929246902465820e+00 7.211103439331054688e-01 -1.819704473018646240e-01
3.195000000000000000e+03 1.291864967346191406e+01 -3.819482803344726562e+01 -1.791097521781921387e-01 2.837754726409912109e+00 7.975934743881225586e-01 4.330240562558174133e-02
3.196000000000000000e+03 1.945171165466308594e+01 -3.608873367309570312e+01 -1.414214223623275757e-01 2.772499084472656250e+00 7.893232703208923340e-01 -9.151645004749298096e-02
3.197000000000000000e+03 3.131704711914062500e+01 3.285858535766601562e+01 -6.540430784225463867e-01 4.466916620731353760e-02 -1.828121691942214966e-01 -3.209989666938781738e-01
3.198000000000000000e+03 3.058642959594726562e+01 3.478796768188476562e+01 -6.242554187774658203e-01 2.114133685827255249e-01 -1.238526180386543274e-01 -3.036846220493316650e-01
3.199000000000000000e+03 7.187306976318359375e+01 4.079019165039062500e+01 2.027265131473541260e-01 7.702878952026367188e+00 2.371681690216064453e+00 -4.251080751419067383e-02
3.200000000000000000e+03 1.269600200653076172e+01 -4.109569931030273438e+01 -1.840082108974456787e-01 2.815843105316162109e+00 7.895504832267761230e-01 1.612307690083980560e-02
3.201000000000000000e+03 5.748566055297851562e+01 -4.084815216064453125e+01 8.350702524185180664e-01 6.814583301544189453e+00 2.294895887374877930e+00 3.907952457666397095e-02
3.202000000000000000e+03 3.720495605468750000e+01 4.090423583984375000e+01 -9.903802275657653809e-01 -3.567180037498474121e-01 -4.041294753551483154e-01 -7.297962158918380737e-02
3.203000000000000000e+03 3.224420547485351562e+01 4.082060241699218750e+01 -7.358198165893554688e-01 1.042218580842018127e-01 -1.894793957471847534e-01 -1.154604479670524597e-01
3.204000000000000000e+03 1.743357086181640625e+01 -4.087568664550781250e+01 -1.864103376865386963e-01 2.760337114334106445e+00 7.721780538558959961e-01 -1.518905069679021835e-02
3.205000000000000000e+03 1.847321891784667969e+01 3.793870162963867188e+01 -3.499293327331542969e-01 2.390783071517944336e+00 6.122561097145080566e-01 -1.028632074594497681e-01
3.206000000000000000e+03 2.259193420410156250e+01 3.817765808105468750e+01 -4.174883067607879639e-01 1.607186079025268555e+00 3.569093346595764160e-01 -5.256682261824607849e-02
3.207000000000000000e+03 3.120854377746582031e+01 3.753848266601562500e+01 -6.330905556678771973e-01 1.582209467887878418e-01 -1.424608826637268066e-01 -1.854977458715438843e-01
3.208000000000000000e+03 5.713860321044921875e+01 4.119588470458984375e+01 -3.307576179504394531e+00 1.430199527740478516e+01 3.298325538635253906e+00 9.002965092658996582e-01
3.209000000000000000e+03 1.089964103698730469e+01 2.108657598495483398e+00 6.384787559509277344e+00 3.740370750427246094e+00 3.037547349929809570e+00 -2.919289588928222656e+00
3.210000000000000000e+03 1.203690338134765625e+01 1.306900262832641602e+00 3.428951501846313477e+00 1.468968963623046875e+01 5.435592174530029297e+00 -5.663231849670410156e+00
3.211000000000000000e+03 1.254072570800781250e+01 1.149361729621887207e+00 1.439118504524230957e+00 2.520563125610351562e+01 7.993424892425537109e+00 -7.484814643859863281e+00
3.212000000000000000e+03 1.249908447265625000e+01 1.273525238037109375e+00 1.077148079872131348e+00 2.389870452880859375e+01 7.492755889892578125e+00 -6.596452713012695312e+00
3.213000000000000000e+03 1.377956390380859375e+01 9.718111157417297363e-01 -7.498738169670104980e-01 3.963706588745117188e+01 1.166615772247314453e+01 -3.629378557205200195e+00
3.214000000000000000e+03 1.040011024475097656e+01 -1.915231347084045410e+00 2.471369266510009766e+00 1.248384714126586914e+00 1.115926265716552734e+00 1.716609597206115723e+00
3.215000000000000000e+03 1.036155414581298828e+01 -1.707151651382446289e+00 2.240461349487304688e+00 7.703872323036193848e-01 9.032546281814575195e-01 1.387576460838317871e+00
3.216000000000000000e+03 1.053688430786132812e+01 -1.738377690315246582e+00 2.502180576324462891e+00 1.334283590316772461e+00 1.150939226150512695e+00 1.767249584197998047e+00
3.217000000000000000e+03 1.133895111083984375e+01 -1.977521419525146484e+00 4.150352001190185547e+00 4.234873771667480469e+00 2.515567779541015625e+00 4.488968849182128906e+00
3.218000000000000000e+03 1.156103706359863281e+01 -2.023893117904663086e+00 4.373064517974853516e+00 5.503344058990478516e+00 2.962922573089599609e+00 5.409873008728027344e+00
3.219000000000000000e+03 1.201109695434570312e+01 -2.083481550216674805e+00 3.996134042739868164e+00 9.921131134033203125e+00 4.175179481506347656e+00 7.107513427734375000e+00
3.220000000000000000e+03 7.752188873291015625e+01 3.751307296752929688e+01 9.377796947956085205e-02 5.959973335266113281e+00 1.816125392913818359e+00 -6.921981275081634521e-02
3.221000000000000000e+03 5.064632797241210938e+01 3.987015151977539062e+01 -3.259807109832763672e+00 4.091013669967651367e-01 -8.552117347717285156e-01 -7.654974460601806641e-01
3.222000000000000000e+03 1.654659461975097656e+01 -3.129284381866455078e-01 5.467977046966552734e+00 1.418649673461914062e+00 2.065988063812255859e+00 -1.202329516410827637e+00
3.223000000000000000e+03 4.464921569824218750e+01 -4.100502777099609375e+01 2.963266074657440186e-01 5.908301830291748047e+00 1.861388444900512695e+00 1.621330082416534424e-01
3.224000000000000000e+03 4.610880279541015625e+01 -3.994474029541015625e+01 4.825025498867034912e-01 7.612305164337158203e+00 2.428442239761352539e+00 -1.003803461790084839e-01
3.225000000000000000e+03 1.162505817413330078e+01 -2.936247587203979492e+00 2.250213623046875000e+00 8.561832427978515625e+00 3.243613719940185547e+00 5.060675621032714844e+00
3.226000000000000000e+03 1.174558544158935547e+01 -2.537809610366821289e+00 3.013060808181762695e+00 8.582164764404296875e+00 3.478567838668823242e+00 5.883404731750488281e+00
3.227000000000000000e+03 1.202622509002685547e+01 -2.716605186462402344e+00 2.006538152694702148e+00 1.115682506561279297e+01 3.949008941650390625e+00 5.579767704010009766e+00
3.228000000000000000e+03 1.267738914489746094e+01 1.339069962501525879e+00 1.575520515441894531e+00 2.725729751586914062e+01 8.649845123291015625e+00 -6.383448600769042969e+00
3.229000000000000000e+03 4.490197753906250000e+01 -3.902870559692382812e+01 6.660999655723571777e-01 8.675951957702636719e+00 2.802615642547607422e+00 8.907987177371978760e-02
3.230000000000000000e+03 7.808047485351562500e+01 4.161596298217773438e+01 -7.983729243278503418e-02 5.824298381805419922e+00 1.723338365554809570e+00 2.239606902003288269e-02
3.231000000000000000e+03 3.327456283569335938e+01 -3.711764144897460938e+01 2.872982025146484375e-01 9.899520874023437500e-01 3.831750750541687012e-01 -5.113351941108703613e-01
3.232000000000000000e+03 1.280289268493652344e+01 1.644014000892639160e+00 3.793044090270996094e+00 2.944223976135253906e+01 9.970584869384765625e+00 -4.868507385253906250e+00
3.233000000000000000e+03 1.158844280242919922e+01 1.896808981895446777e+00 6.452284812927246094e+00 9.733549118041992188e+00 4.855750083923339844e+00 -4.255736827850341797e+00
3.234000000000000000e+03 1.287776279449462891e+01 -3.842541456222534180e+00 -9.784158468246459961e-01 1.386603164672851562e+01 3.866284847259521484e+00 1.721740126609802246e+00
3.235000000000000000e+03 1.261199760437011719e+01 -2.963352203369140625e+00 1.629660576581954956e-01 1.491755104064941406e+01 4.524155139923095703e+00 4.215527534484863281e+00
3.236000000000000000e+03 1.239100646972656250e+01 1.564259648323059082e+00 2.856114387512207031e+00 2.143723869323730469e+01 7.288005828857421875e+00 -5.005051136016845703e+00
3.237000000000000000e+03 1.064982318878173828e+01 2.087064981460571289e+00 5.188742160797119141e+00 2.732483625411987305e+00 2.376367807388305664e+00 -2.231720924377441406e+00
3.238000000000000000e+03 4.193511581420898438e+01 3.526647186279296875e+01 -1.317729592323303223e+00 -7.320290803909301758e-01 -6.149275898933410645e-01 -8.197844624519348145e-01
3.239000000000000000e+03 3.782975769042968750e+01 3.239726257324218750e+01 -9.463952779769897461e-01 -7.486935853958129883e-01 -5.085266828536987305e-01 -7.726665735244750977e-01
3.240000000000000000e+03 1.184850215911865234e+01 1.830806493759155273e+00 7.328989982604980469e+00 1.192280101776123047e+01 5.775537490844726562e+00 -6.129325389862060547e+00
3.241000000000000000e+03 9.061094284057617188e+00 -3.697674751281738281e+00 1.817685246467590332e+00 1.922738552093505859e+00 1.122127056121826172e+00 1.661312937736511230e+00
3.242000000000000000e+03 1.226284599304199219e+01 -3.367662668228149414e+00 4.835186302661895752e-01 1.217804813385009766e+01 3.798470020294189453e+00 4.109725952148437500e+00
3.243000000000000000e+03 5.982281208038330078e+00 -3.602653121948242188e+01 -6.914387643337249756e-02 2.727407693862915039e+00 7.974791526794433594e-01 1.296193748712539673e-01
3.244000000000000000e+03 7.654405975341796875e+01 3.434433364868164062e+01 7.965146005153656006e-02 6.549917221069335938e+00 1.988870620727539062e+00 -2.985133826732635498e-01
3.245000000000000000e+03 3.260575485229492188e+01 -3.375915527343750000e+01 3.929152190685272217e-01 1.263751745223999023e+00 4.970000982284545898e-01 -6.569007635116577148e-01
3.246000000000000000e+03 8.577706336975097656e+00 -4.363444805145263672e+00 1.546515941619873047e+00 1.999660134315490723e+00 1.063852787017822266e+00 1.486161231994628906e+00
3.247000000000000000e+03 6.603924274444580078e+00 -3.467699813842773438e+01 -9.278163313865661621e-02 2.717689275741577148e+00 7.874723076820373535e-01 1.623124182224273682e-01
3.248000000000000000e+03 7.534015655517578125e+01 3.383995056152343750e+01 1.078440397977828979e-01 6.936581134796142578e+00 2.113327503204345703e+00 -3.132214546203613281e-01
3.249000000000000000e+03 8.152756690979003906e+00 3.679420232772827148e+00 3.530882596969604492e+00 6.536111831665039062e-01 1.255348086357116699e+00 -1.260054945945739746e+00
3.250000000000000000e+03 1.122539138793945312e+01 -3.033556699752807617e+00 2.525309085845947266e+00 6.513674736022949219e+00 2.711695194244384766e+00 4.544650077819824219e+00
3.251000000000000000e+03 1.142540645599365234e+01 -3.286027908325195312e+00 1.894091129302978516e+00 7.451482772827148438e+00 2.803672075271606445e+00 4.372772216796875000e+00
3.252000000000000000e+03 1.350979900360107422e+01 9.359802246093750000e+00 -1.078194856643676758e+00 8.711850166320800781e+00 2.290096521377563477e+00 -6.668869755230844021e-04
3.253000000000000000e+03 7.693293762207031250e+01 3.319232177734375000e+01 4.269216582179069519e-02 6.488365173339843750e+00 1.959317207336425781e+00 -2.661008834838867188e-01
3.254000000000000000e+03 2.343758583068847656e+00 5.571498870849609375e+00 3.918361067771911621e-01 -2.589765191078186035e-01 3.985787183046340942e-02 -1.605103537440299988e-02
3.255000000000000000e+03 1.224696922302246094e+01 1.013349533081054688e+01 -9.915342330932617188e-01 7.910004138946533203e+00 2.075540781021118164e+00 -1.097027420997619629e+00
3.256000000000000000e+03 1.300026512145996094e+01 1.134188270568847656e+01 -1.155670642852783203e+00 7.021035194396972656e+00 1.759609341621398926e+00 -5.588729977607727051e-01
3.257000000000000000e+03 1.143033123016357422e+01 -4.560722827911376953e+00 5.213679671287536621e-01 7.881167888641357422e+00 2.520760774612426758e+00 2.875370740890502930e+00
3.258000000000000000e+03 1.176838111877441406e+01 -4.262847900390625000e+00 4.259510338306427002e-01 9.074731826782226562e+00 2.850204944610595703e+00 3.178812265396118164e+00
3.259000000000000000e+03 1.231255912780761719e+01 -5.338232517242431641e+00 -5.040439963340759277e-01 9.344360351562500000e+00 2.652095079421997070e+00 1.609375476837158203e+00
3.260000000000000000e+03 2.670734024047851562e+01 -2.883741188049316406e+01 2.637806832790374756e-01 2.494855403900146484e+00 8.275908231735229492e-01 -7.680937051773071289e-01
3.261000000000000000e+03 7.078247547149658203e+00 3.228538894653320312e+01 -1.610273718833923340e-01 4.493285179138183594e+00 1.299677371978759766e+00 -2.518406510353088379e-01
3.262000000000000000e+03 1.128513336181640625e+01 -5.755380630493164062e+00 1.494316756725311279e-01 6.910823822021484375e+00 2.118076562881469727e+00 2.086260795593261719e+00
3.263000000000000000e+03 9.877693176269531250e+00 6.018981933593750000e+00 2.961370229721069336e+00 6.462275505065917969e+00 2.827093601226806641e+00 -4.493680477142333984e+00
3.264000000000000000e+03 9.192111015319824219e+00 -5.015073776245117188e+00 1.324602127075195312e+00 3.226296901702880859e+00 1.365269780158996582e+00 1.957171678543090820e+00
3.265000000000000000e+03 7.195172786712646484e+00 -5.273013114929199219e+00 1.107213258743286133e+00 1.408673167228698730e+00 7.547659277915954590e-01 9.214303493499755859e-01
3.266000000000000000e+03 4.585427761077880859e+00 6.469219684600830078e+00 1.260412573814392090e+00 7.789420485496520996e-01 6.118063926696777344e-01 -9.513936042785644531e-01
3.267000000000000000e+03 5.662206649780273438e+00 5.089533805847167969e+00 1.638455867767333984e+00 6.070008873939514160e-01 6.736370325088500977e-01 -6.809006929397583008e-01
3.268000000000000000e+03 8.960285186767578125e+00 5.747563362121582031e+00 3.305301904678344727e+00 4.233038902282714844e+00 2.261502265930175781e+00 -3.743176221847534180e+00
3.269000000000000000e+03 6.515071868896484375e+01 2.455038070678710938e+01 -6.145088747143745422e-02 8.638566970825195312e+00 2.573134899139404297e+00 -6.612450480461120605e-01
3.270000000000000000e+03 1.347657585144042969e+01 1.224116134643554688e+01 -1.341786503791809082e+00 6.507290363311767578e+00 1.549651145935058594e+00 -4.753753244876861572e-01
3.271000000000000000e+03 8.148714065551757812e+00 6.717276096343994141e+00 2.279767751693725586e+00 3.633442401885986328e+00 1.773963093757629395e+00 -3.192835569381713867e+00
3.272000000000000000e+03 6.120440006256103516e+00 -6.820451259613037109e+00 7.023857831954956055e-01 1.357598423957824707e+00 6.179952621459960938e-01 7.459788918495178223e-01
3.273000000000000000e+03 2.423088073730468750e+01 2.690437126159667969e+01 -5.591357946395874023e-01 1.139116168022155762e+00 1.739940941333770752e-01 -1.785322427749633789e-01
3.274000000000000000e+03 2.377626991271972656e+01 2.399164009094238281e+01 -6.318620443344116211e-01 1.114656805992126465e+00 1.448384374380111694e-01 -1.087906584143638611e-01
3.275000000000000000e+03 5.929470539093017578e+00 -2.570349121093750000e+01 -1.068767458200454712e-01 2.568296670913696289e+00 7.384259700775146484e-01 3.826691508293151855e-01
3.276000000000000000e+03 2.291010284423828125e+01 -2.469649696350097656e+01 9.573686122894287109e-02 3.197002172470092773e+00 9.878216981887817383e-01 -8.053051829338073730e-01
3.277000000000000000e+03 1.511840629577636719e+01 2.421547508239746094e+01 -7.842315435409545898e-01 3.389668464660644531e+00 7.816310524940490723e-01 -3.266552388668060303e-01
3.278000000000000000e+03 1.144172286987304688e+01 -6.202587604522705078e+00 -1.402818262577056885e-01 7.226029872894287109e+00 2.125724554061889648e+00 1.707564353942871094e+00
3.279000000000000000e+03 2.440938186645507812e+01 2.557205963134765625e+01 -5.938662290573120117e-01 1.099414229393005371e+00 1.516644060611724854e-01 -1.922695487737655640e-01
3.280000000000000000e+03 4.807421493530273438e+01 2.015194892883300781e+01 2.506985068321228027e-01 4.269762516021728516e+00 1.356138348579406738e+00 1.701022863388061523e+00
3.281000000000000000e+03 5.399700927734375000e+01 -1.887624359130859375e+01 -3.332825005054473877e-01 5.978281497955322266e+00 1.693499684333801270e+00 3.257399201393127441e-01
3.282000000000000000e+03 6.099494457244873047e+00 1.025025749206542969e+01 3.216855823993682861e-01 3.272228717803955078e+00 1.078174233436584473e+00 -2.267889738082885742e+00
3.283000000000000000e+03 4.428731155395507812e+01 -1.921259117126464844e+01 -2.736262977123260498e-01 4.027876377105712891e+00 1.126274943351745605e+00 -4.706995785236358643e-01
3.284000000000000000e+03 1.437659454345703125e+01 -5.319905757904052734e+00 -1.029131889343261719e+00 1.079447555541992188e+01 2.929603099822998047e+00 -1.979619622230529785e+00
3.285000000000000000e+03 1.881970405578613281e+01 1.861805534362792969e+01 -8.117617964744567871e-01 2.751781702041625977e+00 5.820059776306152344e-01 1.748532652854919434e-01
3.286000000000000000e+03 1.151628589630126953e+01 -6.715325355529785156e+00 -2.182628363370895386e-01 7.088523864746093750e+00 2.061078310012817383e+00 1.438537836074829102e+00
3.287000000000000000e+03 1.444619750976562500e+01 -5.856550216674804688e+00 -6.856023669242858887e-01 9.889706611633300781e+00 2.761231184005737305e+00 -1.717734575271606445e+00
3.288000000000000000e+03 4.624340057373046875e+01 -2.254359054565429688e+01 -3.056795299053192139e-01 4.985759735107421875e+00 1.404024004936218262e+00 -4.081421792507171631e-01
3.289000000000000000e+03 4.551070404052734375e+01 -2.190231895446777344e+01 -2.444384694099426270e-01 4.621775627136230469e+00 1.313201189041137695e+00 -3.917939960956573486e-01
3.290000000000000000e+03 7.337929534912109375e+01 2.393227195739746094e+01 -2.506602369248867035e-02 7.758128166198730469e+00 2.319918632507324219e+00 -7.004778981208801270e-01
3.291000000000000000e+03 1.169546699523925781e+01 -7.174266815185546875e+00 -2.859537303447723389e-01 6.985855579376220703e+00 2.009970664978027344e+00 1.149415731430053711e+00
3.292000000000000000e+03 7.053575134277343750e+01 -2.223083305358886719e+01 -1.718149147927761078e-02 7.450435161590576172e+00 2.229975938796997070e+00 4.906056225299835205e-01
3.293000000000000000e+03 1.803427314758300781e+01 1.905134010314941406e+01 -9.339184165000915527e-01 3.067760705947875977e+00 6.401526927947998047e-01 5.373107641935348511e-02
3.294000000000000000e+03 5.062144088745117188e+01 1.981505393981933594e+01 -8.806340396404266357e-02 5.469505786895751953e+00 1.614432692527770996e+00 1.565757393836975098e+00
3.295000000000000000e+03 1.208996105194091797e+01 1.722154045104980469e+01 -1.167341828346252441e+00 4.787125110626220703e+00 1.085934877395629883e+00 -8.597198128700256348e-01
3.296000000000000000e+03 1.831062889099121094e+01 2.037293243408203125e+01 -8.402647972106933594e-01 2.825924396514892578e+00 5.956978797912597656e-01 3.526292042806744576e-03
3.297000000000000000e+03 2.259758949279785156e+01 2.387458419799804688e+01 -6.231004595756530762e-01 1.464622378349304199e+00 2.524565756320953369e-01 -9.097149968147277832e-02
3.298000000000000000e+03 5.184836959838867188e+01 1.742671775817871094e+01 -3.115108907222747803e-01 5.876425743103027344e+00 1.669474482536315918e+00 1.252738118171691895e+00
3.299000000000000000e+03 6.537643432617187500e+01 -1.671945381164550781e+01 -1.839224994182586670e-01 7.133049011230468750e+00 2.084738016128540039e+00 5.092061758041381836e-01
3.300000000000000000e+03 4.535943222045898438e+01 -1.861957168579101562e+01 -2.631953954696655273e-01 4.247483730316162109e+00 1.195286512374877930e+00 -3.459005355834960938e-01
3.301000000000000000e+03 6.397204208374023438e+01 1.817494010925292969e+01 -4.956824481487274170e-01 8.132080078125000000e+00 2.290919303894042969e+00 -3.269992172718048096e-01
3.302000000000000000e+03 7.200983428955078125e+01 -2.282837867736816406e+01 -8.396073244512081146e-04 7.527475357055664062e+00 2.257990837097167969e+00 4.449732601642608643e-01
3.303000000000000000e+03 5.859254074096679688e+01 1.668052864074707031e+01 -6.516779065132141113e-01 7.518424034118652344e+00 2.060023784637451172e+00 3.047823607921600342e-01
3.304000000000000000e+03 3.584165191650390625e+01 2.684235572814941406e+00 4.435999989509582520e-01 1.171178340911865234e+00 4.844335019588470459e-01 3.035908937454223633e-01
3.305000000000000000e+03 3.566983413696289062e+01 1.259257316589355469e+00 4.243666827678680420e-01 1.203948259353637695e+00 4.884944856166839600e-01 2.147743254899978638e-01
3.306000000000000000e+03 4.890069580078125000e+01 1.931232261657714844e+01 9.538610279560089111e-02 4.687910556793212891e+00 1.434988975524902344e+00 1.618441820144653320e+00
3.307000000000000000e+03 6.211195755004882812e+01 1.855759429931640625e+01 -5.713633298873901367e-01 8.112912178039550781e+00 2.262464523315429688e+00 -1.535611450672149658e-01
3.308000000000000000e+03 4.961305999755859375e+01 -1.163895511627197266e+01 -3.672052025794982910e-01 4.858952522277832031e+00 1.347524166107177734e+00 7.439850270748138428e-02
3.309000000000000000e+03 6.307456207275390625e+01 1.854856109619140625e+01 -5.062683820724487305e-01 8.157531738281250000e+00 2.295379161834716797e+00 -2.765868604183197021e-01
3.310000000000000000e+03 6.840618896484375000e+01 -1.193698120117187500e+01 -1.722010672092437744e-01 7.492611408233642578e+00 2.196123123168945312e+00 3.819420635700225830e-01
3.311000000000000000e+03 1.433437538146972656e+01 -1.337412834167480469e+01 -1.709838509559631348e-01 5.274542331695556641e+00 1.531067490577697754e+00 -2.966175973415374756e-01
3.312000000000000000e+03 6.994963073730468750e+01 8.311886787414550781e+00 -2.594330310821533203e-01 7.968255043029785156e+00 2.312646627426147461e+00 -2.228426188230514526e-01
3.313000000000000000e+03 6.809107971191406250e+01 8.414877891540527344e+00 -3.298851549625396729e-01 7.816180229187011719e+00 2.245888471603393555e+00 -1.867499500513076782e-01
3.314000000000000000e+03 4.870854568481445312e+01 1.395957469940185547e+01 -1.781101375818252563e-01 4.477778434753417969e+00 1.289900422096252441e+00 1.140306115150451660e+00
3.315000000000000000e+03 4.971136474609375000e+01 -8.943945884704589844e+00 -3.388682007789611816e-01 4.770016670227050781e+00 1.329344511032104492e+00 1.046510487794876099e-01
3.316000000000000000e+03 6.876376342773437500e+01 -3.111005306243896484e+00 -2.139456272125244141e-01 7.647658348083496094e+00 2.230113744735717773e+00 1.665901839733123779e-01
3.317000000000000000e+03 6.020795059204101562e+01 1.607374000549316406e+01 -6.212100386619567871e-01 7.622783660888671875e+00 2.100471973419189453e+00 1.028168648481369019e-01
3.318000000000000000e+03 4.448645782470703125e+01 -1.046061801910400391e+01 -2.115146815776824951e-01 3.588567495346069336e+00 1.013115882873535156e+00 -1.064983457326889038e-01
3.319000000000000000e+03 6.657472229003906250e+01 -1.058203220367431641e+01 -2.121210247278213501e-01 7.295725822448730469e+00 2.125081300735473633e+00 3.714337050914764404e-01
3.320000000000000000e+03 4.429653930664062500e+01 -8.874733924865722656e+00 -1.817110627889633179e-01 3.512301921844482422e+00 9.991772770881652832e-01 -5.329648032784461975e-02
3.321000000000000000e+03 6.107992172241210938e+01 1.516874504089355469e+01 -5.997468829154968262e-01 7.643441677093505859e+00 2.113108396530151367e+00 4.959626868367195129e-02
3.322000000000000000e+03 6.037107086181640625e+01 1.437388420104980469e+01 -6.130592823028564453e-01 7.475408554077148438e+00 2.058704853057861328e+00 1.054514944553375244e-01
3.323000000000000000e+03 3.737263107299804688e+01 -4.760744869709014893e-01 3.208681643009185791e-01 1.589374542236328125e+00 5.730727910995483398e-01 1.470144391059875488e-01
3.324000000000000000e+03 6.906079101562500000e+01 1.090027332305908203e+01 -3.214414119720458984e-01 7.949474334716796875e+00 2.288409948348999023e+00 -3.165932595729827881e-01
3.325000000000000000e+03 4.975027465820312500e+01 -7.624345302581787109e+00 -3.298367857933044434e-01 4.712870597839355469e+00 1.314910173416137695e+00 1.652127355337142944e-01
3.326000000000000000e+03 5.324761581420898438e+01 -6.917370796203613281e+00 -3.936609327793121338e-01 5.390461921691894531e+00 1.499040246009826660e+00 2.566954493522644043e-01
3.327000000000000000e+03 6.667478942871093750e+01 5.786512374877929688e+00 -3.546593785285949707e-01 7.601903438568115234e+00 2.174173355102539062e+00 -5.786053091287612915e-02
3.328000000000000000e+03 4.694661331176757812e+01 -5.258256435394287109e+00 -2.062648534774780273e-01 4.037436008453369141e+00 1.149351358413696289e+00 1.493836343288421631e-01
3.329000000000000000e+03 6.809232330322265625e+01 4.471533298492431641e+00 -2.873057723045349121e-01 7.721663951873779297e+00 2.230307340621948242e+00 -6.142712384462356567e-02
3.330000000000000000e+03 5.106542205810546875e+01 -5.786663532257080078e+00 -3.306764066219329834e-01 4.917795658111572266e+00 1.376135706901550293e+00 2.379031479358673096e-01
3.331000000000000000e+03 6.239794158935546875e+01 1.322505187988281250e+01 -5.538801550865173340e-01 7.582519054412841797e+00 2.108591794967651367e+00 -4.286725819110870361e-02
3.332000000000000000e+03 6.422448730468750000e+01 1.184185123443603516e+01 -5.168734192848205566e-01 7.655958652496337891e+00 2.141725540161132812e+00 -1.313056051731109619e-01
3.333000000000000000e+03 6.828153991699218750e+01 1.001108551025390625e+01 -3.390551805496215820e-01 7.878890514373779297e+00 2.261950492858886719e+00 -2.570911347866058350e-01
3.334000000000000000e+03 6.066035842895507812e+01 1.268686008453369141e+01 -5.904265642166137695e-01 7.343998432159423828e+00 2.026071548461914062e+00 1.270758509635925293e-01
3.335000000000000000e+03 4.176050186157226562e+01 1.872017979621887207e+00 1.470885127782821655e-01 2.635336637496948242e+00 8.347275257110595703e-01 3.602744936943054199e-01
3.336000000000000000e+03 5.996577835083007812e+01 -4.264041900634765625e+00 -3.961341977119445801e-01 6.494868755340576172e+00 1.829620361328125000e+00 2.996633946895599365e-01
3.337000000000000000e+03 6.460409545898437500e+01 5.703423023223876953e+00 -4.081791043281555176e-01 7.389667034149169922e+00 2.094446420669555664e+00 1.197109092026948929e-02
3.338000000000000000e+03 6.470365905761718750e+01 1.043990230560302734e+01 -4.779066741466522217e-01 7.616152286529541016e+00 2.141473770141601562e+00 -1.195273548364639282e-01
3.339000000000000000e+03 4.893067169189453125e+01 -4.010603427886962891e+00 -2.853984832763671875e-01 4.427423954010009766e+00 1.242607593536376953e+00 2.241825014352798462e-01
3.340000000000000000e+03 5.059780502319335938e+01 -4.748332023620605469e+00 -3.284034430980682373e-01 4.834145069122314453e+00 1.351722478866577148e+00 2.591362297534942627e-01
3.341000000000000000e+03 5.203559112548828125e+01 -5.568301677703857422e+00 -3.743256032466888428e-01 5.131301403045654297e+00 1.427092790603637695e+00 2.546854019165039062e-01
3.342000000000000000e+03 6.705427551269531250e+01 3.960176706314086914e+00 -3.280285596847534180e-01 7.602185726165771484e+00 2.182247161865234375e+00 -8.124052546918392181e-03
3.343000000000000000e+03 4.902512359619140625e+01 4.563185691833496094e+00 -2.478533089160919189e-01 4.429950714111328125e+00 1.254629254341125488e+00 5.915873646736145020e-01
3.344000000000000000e+03 5.999867248535156250e+01 4.462886154651641846e-01 -4.277037382125854492e-01 6.600408077239990234e+00 1.851811289787292480e+00 2.647491097450256348e-01
3.345000000000000000e+03 6.388190078735351562e+01 2.955259561538696289e+00 -4.060635268688201904e-01 7.200242042541503906e+00 2.038253545761108398e+00 1.105385273694992065e-01
3.346000000000000000e+03 6.170832443237304688e+01 2.291968107223510742e+00 -4.184658825397491455e-01 6.865207195281982422e+00 1.934022426605224609e+00 1.985811591148376465e-01
3.347000000000000000e+03 6.280035400390625000e+01 2.948368787765502930e+00 -4.317721724510192871e-01 7.046323299407958984e+00 1.984365344047546387e+00 1.477549970149993896e-01
3.348000000000000000e+03 4.867483520507812500e+01 1.935195565223693848e+00 -1.967695951461791992e-01 4.329634666442871094e+00 1.239859461784362793e+00 4.332614839076995850e-01
3.349000000000000000e+03 5.260894393920898438e+01 5.391610622406005859e+00 -3.937477171421051025e-01 5.304823875427246094e+00 1.473322868347167969e+00 5.649013519287109375e-01
3.350000000000000000e+03 5.374211120605468750e+01 5.363040924072265625e+00 -4.088182151317596436e-01 5.566311836242675781e+00 1.547248005867004395e+00 5.069641470909118652e-01
3.351000000000000000e+03 5.610761642456054688e+01 5.225083827972412109e+00 -4.770158827304840088e-01 6.056376934051513672e+00 1.673808336257934570e+00 4.137715697288513184e-01
3.352000000000000000e+03 5.559287643432617188e+01 4.305310249328613281e+00 -4.517479836940765381e-01 5.943783760070800781e+00 1.647610783576965332e+00 4.101065099239349365e-01
3.353000000000000000e+03 9.804491996765136719e+00 3.936877846717834473e-01 -7.445175647735595703e+00 -5.024265050888061523e-01 -2.384280681610107422e+00 1.603810787200927734e+00
3.354000000000000000e+03 9.677793502807617188e+00 1.518839746713638306e-01 -1.036875247955322266e+01 -1.929186135530471802e-01 -3.168501138687133789e+00 8.232422471046447754e-01
3.355000000000000000e+03 9.019652366638183594e+00 2.725524008274078369e-01 -6.711565017700195312e+00 8.073824644088745117e-02 -1.989248037338256836e+00 7.762075066566467285e-01
3.356000000000000000e+03 7.187165737152099609e+00 1.135195255279541016e+00 -1.801207780838012695e+00 -1.696835905313491821e-01 -5.912674069404602051e-01 9.032076001167297363e-01
3.357000000000000000e+03 7.527658462524414062e+00 3.859623670578002930e-01 -4.059391498565673828e+00 -6.808321177959442139e-02 -1.238242387771606445e+00 5.247790217399597168e-01
3.358000000000000000e+03 4.853388309478759766e+00 1.140657186508178711e+00 -1.096004366874694824e+00 -7.646687328815460205e-02 -3.517413735389709473e-01 5.891878008842468262e-01
3.359000000000000000e+03 4.436879634857177734e+00 4.006572067737579346e-01 -1.489579439163208008e+00 4.727190826088190079e-03 -4.454556703567504883e-01 2.508729100227355957e-01
3.360000000000000000e+03 2.095259666442871094e+00 8.065034151077270508e-01 -3.936732113361358643e-01 -2.932166494429111481e-02 -1.268984675407409668e-01 2.634792923927307129e-01
3.361000000000000000e+03 3.632208824157714844e+00 3.977254331111907959e-01 -1.038291335105895996e+00 -2.473045885562896729e-02 -3.189065456390380859e-01 2.124036401510238647e-01
3.362000000000000000e+03 1.991942167282104492e+00 2.972420454025268555e-01 -3.164762854576110840e-01 -9.137611836194992065e-03 -9.768416732549667358e-02 1.070806980133056641e-01
3.363000000000000000e+03 3.701981604099273682e-01 9.577740430831909180e-01 -2.534228004515171051e-02 -8.139152824878692627e-02 -3.202014043927192688e-02 5.062584951519966125e-02
3.364000000000000000e+03 6.527050733566284180e-01 3.899755477905273438e-01 -2.238633669912815094e-02 -9.931672364473342896e-03 -9.695402346551418304e-03 2.687451988458633423e-02
3.365000000000000000e+03 2.788673400878906250e+00 3.459928929805755615e-01 -6.819080710411071777e-01 -2.846939302980899811e-02 -2.131132483482360840e-01 1.594771593809127808e-01
3.366000000000000000e+03 3.343856811523437500e+00 1.222155451774597168e+00 -5.781671404838562012e-01 -7.497048377990722656e-02 -1.959412992000579834e-01 4.702455401420593262e-01
3.367000000000000000e+03 5.984270095825195312e+00 3.988059461116790771e-01 -2.548387050628662109e+00 -1.145220547914505005e-02 -7.679517865180969238e-01 3.288584053516387939e-01
3.368000000000000000e+03 5.212189674377441406e+00 3.999525904655456543e-01 -1.991707801818847656e+00 -3.973627462983131409e-02 -6.094332337379455566e-01 2.581077516078948975e-01
3.369000000000000000e+03 6.410571098327636719e+00 1.138805985450744629e+00 -1.580837845802307129e+00 -1.548714041709899902e-01 -5.207127928733825684e-01 7.420971989631652832e-01
3.370000000000000000e+03 6.755968570709228516e+00 3.951951861381530762e-01 -3.223642110824584961e+00 -7.227038592100143433e-02 -9.887737631797790527e-01 3.745174705982208252e-01
3.371000000000000000e+03 7.963752269744873047e+00 1.125962376594543457e+00 -1.950344800949096680e+00 -3.094209134578704834e-01 -6.779296994209289551e-01 9.922673702239990234e-01
3.372000000000000000e+03 9.403278350830078125e+00 6.139310002326965332e-01 -4.865794658660888672e+00 -4.440077543258666992e-01 -1.592940688133239746e+00 1.411571979522705078e+00
3.373000000000000000e+03 9.951808929443359375e+00 7.691612839698791504e-01 -3.227398157119750977e+00 -9.788012504577636719e-01 -1.261859893798828125e+00 2.000603437423706055e+00
3.374000000000000000e+03 9.723372459411621094e+00 9.768424034118652344e-01 -2.333990573883056641e+00 -8.594428896903991699e-01 -9.580299854278564453e-01 1.762088418006896973e+00
3.375000000000000000e+03 9.936400413513183594e+00 1.142870545387268066e+00 -1.227456927299499512e+00 -7.226776480674743652e-01 -5.850403308868408203e-01 1.150491833686828613e+00
3.376000000000000000e+03 9.819538116455078125e+00 1.365245461463928223e+00 5.931391119956970215e-01 -5.199514627456665039e-01 2.195628359913825989e-02 5.175666809082031250e-01
3.377000000000000000e+03 9.726592063903808594e+00 7.406161427497863770e-01 -3.322809219360351562e+00 -7.507900595664978027e-01 -1.222079873085021973e+00 1.743292331695556641e+00
3.378000000000000000e+03 9.912334442138671875e+00 5.894361138343811035e-01 -4.810023784637451172e+00 -8.051077723503112793e-01 -1.684539437294006348e+00 1.620649933815002441e+00
3.379000000000000000e+03 9.372847557067871094e+00 1.056808352470397949e+00 -2.075282335281372070e+00 -6.733663678169250488e-01 -8.245946168899536133e-01 1.424569725990295410e+00
3.380000000000000000e+03 8.745048522949218750e+00 1.113716602325439453e+00 -1.921546459197998047e+00 -2.575686872005462646e-01 -6.537345647811889648e-01 1.280826568603515625e+00
3.381000000000000000e+03 5.633594512939453125e+00 1.139952540397644043e+00 -1.347101926803588867e+00 -6.488006561994552612e-02 -4.235945940017700195e-01 6.828225851058959961e-01
3.382000000000000000e+03 1.568587660789489746e+00 9.538013339042663574e-01 -2.204765677452087402e-01 -7.759479433298110962e-02 -8.942140638828277588e-02 2.475012540817260742e-01
3.383000000000000000e+03 4.043820858001708984e+00 1.137725472450256348e+00 -8.599773645401000977e-01 -3.404244780540466309e-02 -2.682059407234191895e-01 5.395470857620239258e-01
3.384000000000000000e+03 1.044731378555297852e+00 1.129975557327270508e+00 -1.392136663198471069e-01 -1.354343891143798828e-01 -8.239441365003585815e-02 2.042783796787261963e-01
3.385000000000000000e+03 2.791960954666137695e+00 8.770589828491210938e-01 -5.913416743278503418e-01 -6.345008313655853271e-02 -1.964375376701354980e-01 3.839400112628936768e-01
3.386000000000000000e+03 8.304058074951171875e+00 3.737165331840515137e-01 -5.215280055999755859e+00 -8.059106022119522095e-02 -1.588761329650878906e+00 6.679522991180419922e-01
3.387000000000000000e+03 9.961274147033691406e+00 9.590778350830078125e-01 -1.847937941551208496e+00 -9.865447282791137695e-01 -8.503447771072387695e-01 1.667429566383361816e+00
3.388000000000000000e+03 1.288927912712097168e+00 3.312309682369232178e-01 -1.048798039555549622e-01 -2.424254640936851501e-02 -3.873670473694801331e-02 5.984924361109733582e-02
3.389000000000000000e+03 2.038966417312622070e+00 1.269261360168457031e+00 -3.034497201442718506e-01 -1.396443843841552734e-01 -1.329282373189926147e-01 4.096346795558929443e-01
3.390000000000000000e+03 2.713196277618408203e+00 1.291066050529479980e+00 -3.869829475879669189e-01 -9.342482686042785645e-02 -1.441223323345184326e-01 4.782241582870483398e-01
3.391000000000000000e+03 1.285663414001464844e+01 -5.056523680686950684e-01 3.718021011352539062e+01 3.774775743484497070e+00 1.228649616241455078e+01 1.102072906494140625e+01
3.392000000000000000e+03 1.285723495483398438e+01 -5.251117944717407227e-01 3.934306335449218750e+01 1.617928123474121094e+01 1.665670394897460938e+01 2.836019897460937500e+01
3.393000000000000000e+03 1.286161327362060547e+01 -5.440817475318908691e-01 3.885517883300781250e+01 3.000487899780273438e+01 2.065801620483398438e+01 3.561071777343750000e+01
3.394000000000000000e+03 1.286960124969482422e+01 -5.618363618850708008e-01 3.563100051879882812e+01 4.709823608398437500e+01 2.481877136230468750e+01 4.011058044433593750e+01
3.395000000000000000e+03 1.288089370727539062e+01 -5.776960253715515137e-01 3.153897285461425781e+01 6.228407669067382812e+01 2.814691352844238281e+01 4.060164642333984375e+01
3.396000000000000000e+03 1.289505672454833984e+01 -5.910539031028747559e-01 2.677889442443847656e+01 7.863779449462890625e+01 3.162500762939453125e+01 3.718451690673828125e+01
3.397000000000000000e+03 1.291154956817626953e+01 -6.013988256454467773e-01 2.236487770080566406e+01 9.044036102294921875e+01 3.384157180786132812e+01 3.121633720397949219e+01
3.398000000000000000e+03 1.292974090576171875e+01 -6.083347797393798828e-01 2.022203063964843750e+01 9.993014526367187500e+01 3.604565429687500000e+01 2.201932144165039062e+01
3.399000000000000000e+03 1.294893455505371094e+01 -6.115964651107788086e-01 2.020938491821289062e+01 1.043641433715820312e+02 3.737205886840820312e+01 1.234591770172119141e+01
3.400000000000000000e+03 1.296839523315429688e+01 -6.110589504241943359e-01 2.277967071533203125e+01 1.044741516113281250e+02 3.817614746093750000e+01 2.389443397521972656e+00
3.401000000000000000e+03 1.298738002777099609e+01 -6.067429184913635254e-01 2.798236465454101562e+01 1.012546386718750000e+02 3.877110290527343750e+01 -5.319578170776367188e+00
3.402000000000000000e+03 1.300516128540039062e+01 -5.988134145736694336e-01 3.440646362304687500e+01 9.472682189941406250e+01 3.873998260498046875e+01 -1.113804626464843750e+01
3.403000000000000000e+03 1.302105712890625000e+01 -5.875739455223083496e-01 4.145285797119140625e+01 8.807020568847656250e+01 3.885691833496093750e+01 -1.349381351470947266e+01
3.404000000000000000e+03 1.303446197509765625e+01 -5.734547376632690430e-01 4.840329360961914062e+01 8.029531860351562500e+01 3.860958480834960938e+01 -1.331173038482666016e+01
3.405000000000000000e+03 1.304486083984375000e+01 -5.569959878921508789e-01 5.376812744140625000e+01 7.479758453369140625e+01 3.856971359252929688e+01 -1.080094814300537109e+01
3.406000000000000000e+03 1.305185604095458984e+01 -5.388275980949401855e-01 5.813328552246093750e+01 7.029357147216796875e+01 3.852805709838867188e+01 -6.003565788269042969e+00
3.407000000000000000e+03 1.305518150329589844e+01 -5.196447968482971191e-01 6.017534637451171875e+01 6.865200805664062500e+01 3.864820861816406250e+01 -7.183485627174377441e-01
3.408000000000000000e+03 1.305470752716064453e+01 -5.001817345619201660e-01 6.002598190307617188e+01 6.924452972412109375e+01 3.878115081787109375e+01 5.850537300109863281e+00
3.409000000000000000e+03 1.305045413970947266e+01 -4.811832904815673828e-01 5.780482864379882812e+01 7.244789886474609375e+01 3.907582092285156250e+01 1.121629047393798828e+01
3.410000000000000000e+03 1.304258346557617188e+01 -4.633765220642089844e-01 5.261303329467773438e+01 7.850325012207031250e+01 3.933488464355468750e+01 1.615477752685546875e+01
3.411000000000000000e+03 1.303139591217041016e+01 -4.474428892135620117e-01 4.612508010864257812e+01 8.518036651611328125e+01 3.939163208007812500e+01 1.853988838195800781e+01
3.412000000000000000e+03 1.301732063293457031e+01 -4.339921772480010986e-01 3.768369293212890625e+01 9.430027008056640625e+01 3.959518814086914062e+01 1.808553886413574219e+01
3.413000000000000000e+03 1.300089550018310547e+01 -4.235391020774841309e-01 2.907051658630371094e+01 1.007852172851562500e+02 3.895671844482421875e+01 1.514456367492675781e+01
3.414000000000000000e+03 1.298275089263916016e+01 -4.164837002754211426e-01 2.212774085998535156e+01 1.077564849853515625e+02 3.896526718139648438e+01 7.823362827301025391e+00
3.415000000000000000e+03 1.296357917785644531e+01 -4.130960404872894287e-01 1.482406902313232422e+01 1.093346405029296875e+02 3.724761199951171875e+01 -3.222236037254333496e-01
3.416000000000000000e+03 1.294411468505859375e+01 -4.135057032108306885e-01 1.335083389282226562e+01 1.085689773559570312e+02 3.657594299316406250e+01 -1.116676712036132812e+01
3.417000000000000000e+03 1.292510223388671875e+01 -4.176970124244689941e-01 1.178787612915039062e+01 1.021554946899414062e+02 3.418301010131835938e+01 -2.120026779174804688e+01
3.418000000000000000e+03 1.290726947784423828e+01 -4.255096316337585449e-01 1.538234424591064453e+01 9.158650207519531250e+01 3.209065628051757812e+01 -3.040851402282714844e+01
3.419000000000000000e+03 1.289129924774169922e+01 -4.366444945335388184e-01 1.973784065246582031e+01 7.776849365234375000e+01 2.925189971923828125e+01 -3.642985153198242188e+01
3.420000000000000000e+03 1.287780284881591797e+01 -4.506755471229553223e-01 2.685165596008300781e+01 5.924748611450195312e+01 2.582974243164062500e+01 -3.904227828979492188e+01
3.421000000000000000e+03 1.286729526519775391e+01 -4.670657813549041748e-01 3.360267257690429688e+01 4.148308563232421875e+01 2.252572631835937500e+01 -3.677888870239257812e+01
3.422000000000000000e+03 1.286018085479736328e+01 -4.851879477500915527e-01 4.289769363403320312e+01 1.584836864471435547e+01 1.762381935119628906e+01 -2.505038261413574219e+01
