# el_label, x, y, sXX, sYY, sZZ, sXY
1.000000000000000000e+00 1.565178775787353516e+01 -7.121069431304931641e-01 -2.652488517761230469e+01 -2.046566247940063477e+00 -8.571434974670410156e+00 -4.071880340576171875e+00
2.000000000000000000e+00 1.545292377471923828e+01 -7.204935550689697266e-01 -1.253002166748046875e+01 5.376429557800292969e-01 -3.597713470458984375e+00 -4.558813944458961487e-02
3.000000000000000000e+00 1.525405883789062500e+01 -7.288802266120910645e-01 -1.003880214691162109e+01 -2.747816443443298340e-01 -3.094075202941894531e+00 -4.043606817722320557e-01
4.000000000000000000e+00 1.505519485473632812e+01 -7.372668385505676270e-01 -8.283657073974609375e+00 7.025876641273498535e-02 -2.464019536972045898e+00 -1.351161599159240723e-01
5.000000000000000000e+00 1.565994453430175781e+01 -7.699398398399353027e-01 -6.212375640869140625e+00 -3.473840951919555664e+00 -2.905864953994750977e+00 -3.501853942871093750e+00
6.000000000000000000e+00 1.546651744842529297e+01 -8.168817758560180664e-01 -7.418206214904785156e+00 -7.746731042861938477e-01 -2.457863807678222656e+00 -1.879262328147888184e+00
7.000000000000000000e+00 1.527309131622314453e+01 -8.638237118721008301e-01 -4.547163009643554688e+00 -1.611767709255218506e-02 -1.368984222412109375e+00 -3.169952929019927979e-01
8.000000000000000000e+00 1.507966518402099609e+01 -9.107656478881835938e-01 -4.040981292724609375e+00 -2.611910402774810791e-01 -1.290651679039001465e+00 -5.003179311752319336e-01
9.000000000000000000e+00 1.567920494079589844e+01 -8.250781893730163574e-01 3.444544076919555664e+00 -3.179393112659454346e-01 9.379814267158508301e-01 2.073219299316406250e+00
1.000000000000000000e+01 1.549861812591552734e+01 -9.087790250778198242e-01 9.177190065383911133e-01 -1.176203966140747070e+00 -7.754550129175186157e-02 7.045485377311706543e-01
1.100000000000000000e+01 1.531803131103515625e+01 -9.924798607826232910e-01 -4.602048695087432861e-01 2.879234552383422852e-01 -5.168442800641059875e-02 4.790196716785430908e-01
1.200000000000000000e+01 1.513744449615478516e+01 -1.076180815696716309e+00 -7.062374055385589600e-02 1.741053014993667603e-01 3.104446642100811005e-02 8.181890845298767090e-01
1.300000000000000000e+01 1.570882987976074219e+01 -8.754119277000427246e-01 9.107655525207519531e+00 4.723402976989746094e+00 4.149317741394042969e+00 7.589421272277832031e+00
1.400000000000000000e+01 1.554799461364746094e+01 -9.926686286926269531e-01 4.688836574554443359e+00 2.117964267730712891e+00 2.042040348052978516e+00 4.695412635803222656e+00
1.500000000000000000e+01 1.538715839385986328e+01 -1.109925270080566406e+00 3.664933919906616211e+00 1.744053483009338379e+00 1.622696161270141602e+00 3.311657428741455078e+00
1.600000000000000000e+01 1.522632217407226562e+01 -1.227182030677795410e+00 2.376711606979370117e+00 1.759382009506225586e+00 1.240828037261962891e+00 2.745877265930175781e+00
1.700000000000000000e+01 1.574768829345703125e+01 -9.190149307250976562e-01 9.907749176025390625e+00 1.233123588562011719e+01 6.671695709228515625e+00 1.237773132324218750e+01
1.800000000000000000e+01 1.561275768280029297e+01 -1.065340161323547363e+00 6.663344383239746094e+00 7.507236003875732422e+00 4.251174449920654297e+00 8.077753067016601562e+00
1.900000000000000000e+01 1.547782802581787109e+01 -1.211665511131286621e+00 4.635171890258789062e+00 5.365746498107910156e+00 3.000275373458862305e+00 6.139291286468505859e+00
2.000000000000000000e+01 1.534289646148681641e+01 -1.357990860939025879e+00 4.256240367889404297e+00 4.619606494903564453e+00 2.662754058837890625e+00 5.057611465454101562e+00
2.100000000000000000e+01 1.579429149627685547e+01 -9.542185068130493164e-01 8.914187431335449219e+00 2.211402511596679688e+01 9.308463096618652344e+00 1.469091796875000000e+01
2.200000000000000000e+01 1.569043064117431641e+01 -1.124012827873229980e+00 5.506172657012939453e+00 1.399772453308105469e+01 5.851169109344482422e+00 1.008684444427490234e+01
2.300000000000000000e+01 1.558656883239746094e+01 -1.293807268142700195e+00 4.993910312652587891e+00 1.069347858428955078e+01 4.706216812133789062e+00 7.892485141754150391e+00
2.400000000000000000e+01 1.548270797729492188e+01 -1.463601589202880859e+00 3.351560592651367188e+00 8.597303390502929688e+00 3.584659099578857422e+00 6.556257247924804688e+00
2.500000000000000000e+01 1.584685707092285156e+01 -9.796754717826843262e-01 5.197127342224121094e+00 3.177243232727050781e+01 1.109086799621582031e+01 1.419210815429687500e+01
2.600000000000000000e+01 1.577803993225097656e+01 -1.166441202163696289e+00 4.669933795928955078e+00 2.149945640563964844e+01 7.850816726684570312e+00 9.887557029724121094e+00
2.700000000000000000e+01 1.570922183990478516e+01 -1.353206872940063477e+00 2.966850280761718750e+00 1.618980598449707031e+01 5.746996879577636719e+00 8.070414543151855469e+00
2.800000000000000000e+01 1.564040374755859375e+01 -1.539972662925720215e+00 2.907986164093017578e+00 1.366407680511474609e+01 4.971619129180908203e+00 6.862544536590576172e+00
2.900000000000000000e+01 1.590337276458740234e+01 -9.944117069244384766e-01 3.441542863845825195e+00 4.123555755615234375e+01 1.340313053131103516e+01 1.028604507446289062e+01
3.000000000000000000e+01 1.587223243713378906e+01 -1.191001653671264648e+00 2.192819595336914062e+00 2.767368507385253906e+01 8.959951400756835938e+00 7.783029079437255859e+00
3.100000000000000000e+01 1.584109115600585938e+01 -1.387591481208801270e+00 2.351830482482910156e+00 2.209073257446289062e+01 7.332768917083740234e+00 6.431365489959716797e+00
3.200000000000000000e+01 1.580995082855224609e+01 -1.584181427955627441e+00 9.731619358062744141e-01 1.801573753356933594e+01 5.696670055389404297e+00 5.541402339935302734e+00
3.300000000000000000e+01 1.596167659759521484e+01 -9.978632926940917969e-01 1.352592110633850098e+00 4.730209350585937500e+01 1.459640598297119141e+01 4.208404541015625000e+00
3.400000000000000000e+01 1.596940422058105469e+01 -1.196754217147827148e+00 2.569399118423461914e+00 3.334450149536132812e+01 1.077416992187500000e+01 3.767944335937500000e+00
3.500000000000000000e+01 1.597713279724121094e+01 -1.395645141601562500e+00 6.606839299201965332e-01 2.599794006347656250e+01 7.997587680816650391e+00 3.373864173889160156e+00
3.600000000000000000e+01 1.598486042022705078e+01 -1.594536066055297852e+00 1.130615115165710449e+00 2.221736526489257812e+01 7.004394054412841797e+00 2.894359350204467773e+00
3.700000000000000000e+01 1.601953697204589844e+01 -9.898980855941772461e-01 4.439353942871093750e+00 5.118644332885742188e+01 1.668774032592773438e+01 -3.149684667587280273e+00
3.800000000000000000e+01 1.606583786010742188e+01 -1.183478832244873047e+00 2.037089347839355469e+00 3.593911743164062500e+01 1.139286136627197266e+01 -1.164850950241088867e+00
3.900000000000000000e+01 1.611213874816894531e+01 -1.377059578895568848e+00 2.490906715393066406e+00 2.911362266540527344e+01 9.481359481811523438e+00 -7.329039573669433594e-01
4.000000000000000000e+01 1.615843963623046875e+01 -1.570640444755554199e+00 4.877957701683044434e-01 2.401440811157226562e+01 7.350661277770996094e+00 -5.416703820228576660e-01
4.100000000000000000e+01 1.607473754882812500e+01 -9.708209037780761719e-01 7.175053119659423828e+00 5.055117034912109375e+01 1.731786727905273438e+01 -1.025282859802246094e+01
4.200000000000000000e+01 1.615784072875976562e+01 -1.151683568954467773e+00 6.246484279632568359e+00 3.730208587646484375e+01 1.306457042694091797e+01 -6.145392894744873047e+00
4.300000000000000000e+01 1.624094200134277344e+01 -1.332546234130859375e+00 3.112316846847534180e+00 2.924968910217285156e+01 9.708601951599121094e+00 -5.146719932556152344e+00
4.400000000000000000e+01 1.632404518127441406e+01 -1.513408899307250977e+00 3.731801986694335938e+00 2.489530372619628906e+01 8.588131904602050781e+00 -4.157896041870117188e+00
4.500000000000000000e+01 1.612516975402832031e+01 -9.413618445396423340e-01 1.526267337799072266e+01 4.864990997314453125e+01 1.917377471923828125e+01 -1.522359848022460938e+01
4.600000000000000000e+01 1.624189376831054688e+01 -1.102585196495056152e+00 8.934919357299804688e+00 3.527068328857421875e+01 1.326168060302734375e+01 -1.094916820526123047e+01
4.700000000000000000e+01 1.635861587524414062e+01 -1.263808369636535645e+00 8.290376663208007812e+00 2.849774360656738281e+01 1.103643608093261719e+01 -8.529783248901367188e+00
4.800000000000000000e+01 1.647533988952636719e+01 -1.425031661987304688e+00 5.337737083435058594e+00 2.300423812866210938e+01 8.502592086791992188e+00 -7.615722656250000000e+00
4.900000000000000000e+01 1.616889953613281250e+01 -9.026482105255126953e-01 2.129859352111816406e+01 4.351564788818359375e+01 1.944427299499511719e+01 -1.866968917846679688e+01
5.000000000000000000e+01 1.631477928161621094e+01 -1.038062334060668945e+00 1.578432750701904297e+01 3.304500961303710938e+01 1.464880180358886719e+01 -1.345921134948730469e+01
5.100000000000000000e+01 1.646065711975097656e+01 -1.173476576805114746e+00 1.155116558074951172e+01 2.501915168762207031e+01 1.097109508514404297e+01 -1.159422683715820312e+01
5.200000000000000000e+01 1.660653305053710938e+01 -1.308890700340270996e+00 1.093352317810058594e+01 2.076578330993652344e+01 9.509792327880859375e+00 -9.342477798461914062e+00
5.300000000000000000e+01 1.620425796508789062e+01 -8.561614751815795898e-01 2.960016632080078125e+01 3.988880538940429688e+01 2.084669113159179688e+01 -1.870775985717773438e+01
5.400000000000000000e+01 1.637370872497558594e+01 -9.605845212936401367e-01 2.063017845153808594e+01 2.830434417724609375e+01 1.468035697937011719e+01 -1.517816066741943359e+01
5.500000000000000000e+01 1.654315757751464844e+01 -1.065007448196411133e+00 1.767166519165039062e+01 2.202711677551269531e+01 1.190963459014892578e+01 -1.200000095367431641e+01
5.600000000000000000e+01 1.671260643005371094e+01 -1.169430494308471680e+00 1.420895099639892578e+01 1.674732208251953125e+01 9.286882400512695312e+00 -1.061134338378906250e+01
5.700000000000000000e+01 1.622989082336425781e+01 -8.036806583404541016e-01 3.510663223266601562e+01 3.522116851806640625e+01 2.109834098815917969e+01 -1.751761817932128906e+01
5.800000000000000000e+01 1.641642570495605469e+01 -8.731164336204528809e-01 2.671065902709960938e+01 2.502118873596191406e+01 1.551955413818359375e+01 -1.408155822753906250e+01
5.900000000000000000e+01 1.660296249389648438e+01 -9.425522685050964355e-01 2.166338157653808594e+01 1.772816467285156250e+01 1.181746387481689453e+01 -1.178245067596435547e+01
6.000000000000000000e+01 1.678949928283691406e+01 -1.011988043785095215e+00 1.915827941894531250e+01 1.353421115875244141e+01 9.807747840881347656e+00 -9.255875587463378906e+00
6.100000000000000000e+01 1.624481391906738281e+01 -7.472140192985534668e-01 3.969446945190429688e+01 3.292135238647460938e+01 2.178474617004394531e+01 -1.452711868286132812e+01
6.200000000000000000e+01 1.644129753112792969e+01 -7.790054678916931152e-01 3.076287078857421875e+01 2.154809761047363281e+01 1.569328975677490234e+01 -1.207980823516845703e+01
6.300000000000000000e+01 1.663778305053710938e+01 -8.107968568801879883e-01 2.557736206054687500e+01 1.479012298583984375e+01 1.211024570465087891e+01 -9.243861198425292969e+00
6.400000000000000000e+01 1.683427047729492188e+01 -8.425883054733276367e-01 2.166630935668945312e+01 1.040752887725830078e+01 9.622151374816894531e+00 -7.629391670227050781e+00
6.500000000000000000e+01 1.624845695495605469e+01 -6.889226436614990234e-01 4.238203048706054688e+01 3.220898818969726562e+01 2.237730407714843750e+01 -1.113922405242919922e+01
6.600000000000000000e+01 1.644737243652343750e+01 -6.818531155586242676e-01 3.309302520751953125e+01 1.931937599182128906e+01 1.572372055053710938e+01 -8.651250839233398438e+00
6.700000000000000000e+01 1.664628791809082031e+01 -6.747835874557495117e-01 2.760901451110839844e+01 1.320895767211914062e+01 1.224539184570312500e+01 -6.566249370574951172e+00
6.800000000000000000e+01 1.684520339965820312e+01 -6.677140593528747559e-01 2.338316154479980469e+01 7.975272178649902344e+00 9.407529830932617188e+00 -4.119024276733398438e+00
6.900000000000000000e+01 1.624068260192871094e+01 -6.310371756553649902e-01 4.245130538940429688e+01 3.116253852844238281e+01 2.208415412902832031e+01 -7.680648803710937500e+00
7.000000000000000000e+01 1.643441772460937500e+01 -5.853772759437561035e-01 3.411074447631835938e+01 2.044931221008300781e+01 1.636801719665527344e+01 -5.376971721649169922e+00
7.100000000000000000e+01 1.662814903259277344e+01 -5.397174358367919922e-01 2.721753311157226562e+01 1.158227920532226562e+01 1.163994312286376953e+01 -2.940041065216064453e+00
7.200000000000000000e+01 1.682188224792480469e+01 -4.940575659275054932e-01 2.329093170166015625e+01 8.247891426086425781e+00 9.461647033691406250e+00 -1.768698453903198242e+00
7.300000000000000000e+01 1.622178840637207031e+01 -5.757726430892944336e-01 4.261668014526367188e+01 3.527607345581054688e+01 2.336782646179199219e+01 -5.279373645782470703e+00
7.400000000000000000e+01 1.640292739868164062e+01 -4.932697117328643799e-01 3.157804298400878906e+01 1.965674018859863281e+01 1.537043476104736328e+01 -1.848437309265136719e+00
7.500000000000000000e+01 1.658406257629394531e+01 -4.107668101787567139e-01 2.627025604248046875e+01 1.469977569580078125e+01 1.229100894927978516e+01 -1.033236503601074219e+00
7.600000000000000000e+01 1.676519966125488281e+01 -3.282639384269714355e-01 2.038723945617675781e+01 7.107292652130126953e+00 8.248359680175781250e+00 1.546281218528747559e+00
7.700000000000000000e+01 1.619249725341796875e+01 -5.252438783645629883e-01 3.823080825805664062e+01 3.511723327636718750e+01 2.200441169738769531e+01 -2.282389640808105469e+00
7.800000000000000000e+01 1.635410690307617188e+01 -4.090551733970642090e-01 3.017509078979492188e+01 2.536309051513671875e+01 1.666145515441894531e+01 -1.448387503623962402e+00
7.900000000000000000e+01 1.651571655273437500e+01 -2.928664386272430420e-01 2.153370475769042969e+01 1.417169761657714844e+01 1.071162033081054688e+01 1.710051178932189941e+00
8.000000000000000000e+01 1.667732429504394531e+01 -1.766777187585830688e-01 1.815359306335449219e+01 1.140431690216064453e+01 8.867373466491699219e+00 1.387457370758056641e+00
8.100000000000000000e+01 1.615392875671386719e+01 -4.813845753669738770e-01 3.786142349243164062e+01 4.137491989135742188e+01 2.377090263366699219e+01 -3.195567369461059570e+00
8.200000000000000000e+01 1.628982543945312500e+01 -3.359563648700714111e-01 2.323222351074218750e+01 2.657106590270996094e+01 1.494098663330078125e+01 3.308579623699188232e-01
8.300000000000000000e+01 1.642572212219238281e+01 -1.905281096696853638e-01 1.977212524414062500e+01 1.968604278564453125e+01 1.183745002746582031e+01 -9.004330039024353027e-01
8.400000000000000000e+01 1.656161880493164062e+01 -4.509986191987991333e-02 1.166440296173095703e+01 1.074538230895996094e+01 6.722935676574707031e+00 2.953558683395385742e+00
8.500000000000000000e+01 1.610755920410156250e+01 -4.458731412887573242e-01 2.995862388610839844e+01 4.443809890747070312e+01 2.231901550292968750e+01 -3.332955598831176758e+00
8.600000000000000000e+01 1.621254348754882812e+01 -2.767706215381622314e-01 2.244393539428710938e+01 3.106492233276367188e+01 1.605265808105468750e+01 -3.181727409362792969e+00
8.700000000000000000e+01 1.631752777099609375e+01 -1.076680794358253479e-01 1.183092308044433594e+01 2.197360420227050781e+01 1.014135837554931641e+01 -1.291981816291809082e+00
8.800000000000000000e+01 1.642251205444335938e+01 6.143445894122123718e-02 1.129747486114501953e+01 1.460307312011718750e+01 7.770164489746093750e+00 -2.218639612197875977e+00
8.900000000000000000e+01 1.605516433715820312e+01 -4.200685024261474609e-01 2.872202682495117188e+01 4.738761901855468750e+01 2.283289337158203125e+01 -5.935521602630615234e+00
9.000000000000000000e+01 1.612521934509277344e+01 -2.337628602981567383e-01 1.588591670989990234e+01 3.499826431274414062e+01 1.526525402069091797e+01 -7.181727886199951172e+00
9.100000000000000000e+01 1.619527244567871094e+01 -4.745723307132720947e-02 1.114738368988037109e+01 2.338125801086425781e+01 1.035859203338623047e+01 -5.586847305297851562e+00
9.200000000000000000e+01 1.626532554626464844e+01 1.388484090566635132e-01 3.456444263458251953e+00 1.768788528442382812e+01 6.343298912048339844e+00 -6.403374195098876953e+00
9.300000000000000000e+01 1.599874782562255859e+01 -4.049581289291381836e-01 2.593589210510253906e+01 5.145706176757812500e+01 2.321788597106933594e+01 -1.280993366241455078e+01
9.400000000000000000e+01 1.603119087219238281e+01 -2.085789293050765991e-01 1.319250488281250000e+01 3.471005630493164062e+01 1.437076759338378906e+01 -1.052667045593261719e+01
9.500000000000000000e+01 1.606363296508789062e+01 -1.219971850514411926e-02 8.946474075317382812e+00 2.671498870849609375e+01 1.069843864440917969e+01 -1.258632373809814453e+01
9.600000000000000000e+01 1.609607696533203125e+01 1.841794848442077637e-01 3.742038011550903320e-01 1.749353599548339844e+01 5.360321998596191406e+00 -9.975809097290039062e+00
9.700000000000000000e+01 1.594046878814697266e+01 -4.011203050613403320e-01 2.085165977478027344e+01 4.963860702514648438e+01 2.114707946777343750e+01 -1.683299255371093750e+01
9.800000000000000000e+01 1.593405914306640625e+01 -2.021825313568115234e-01 1.660099983215332031e+01 3.556992721557617188e+01 1.565127754211425781e+01 -1.830735969543457031e+01
9.900000000000000000e+01 1.592764949798583984e+01 -3.244763240218162537e-03 4.303884506225585938e+00 2.498112487792968750e+01 8.785503387451171875e+00 -1.587730312347412109e+01
1.000000000000000000e+02 1.592123985290527344e+01 1.956930011510848999e-01 4.332163810729980469e+00 2.069553184509277344e+01 7.508308887481689453e+00 -1.659157943725585938e+01
1.010000000000000000e+02 1.588255786895751953e+01 -4.087018370628356934e-01 2.817824935913085938e+01 4.821894454956054688e+01 2.291915893554687500e+01 -2.432274055480957031e+01
1.020000000000000000e+02 1.583754158020019531e+01 -2.148184478282928467e-01 1.188641452789306641e+01 3.147103309631347656e+01 1.300723361968994141e+01 -2.221020889282226562e+01
1.030000000000000000e+02 1.579252433776855469e+01 -2.093505300581455231e-02 1.173849773406982422e+01 2.421596336364746094e+01 1.078633880615234375e+01 -2.183950996398925781e+01
1.040000000000000000e+02 1.574750709533691406e+01 1.729483306407928467e-01 6.443760991096496582e-01 1.660150527954101562e+01 5.173764705657958984e+00 -1.957054519653320312e+01
1.050000000000000000e+02 1.582723140716552734e+01 -4.274126589298248291e-01 2.638431549072265625e+01 4.028199768066406250e+01 1.999989318847656250e+01 -2.954403686523437500e+01
1.060000000000000000e+02 1.574532985687255859e+01 -2.460031360387802124e-01 2.076093292236328125e+01 2.736893463134765625e+01 1.443896007537841797e+01 -2.547920036315917969e+01
1.070000000000000000e+02 1.566342830657958984e+01 -6.459362059831619263e-02 8.265194892883300781e+00 2.014419555664062500e+01 8.522817611694335938e+00 -2.461064720153808594e+01
1.080000000000000000e+02 1.558152580261230469e+01 1.168158948421478271e-01 9.545146942138671875e+00 1.558002853393554688e+01 7.537552833557128906e+00 -2.494300651550292969e+01
1.090000000000000000e+02 1.577660560607910156e+01 -4.565367102622985840e-01 3.607555007934570312e+01 3.208092498779296875e+01 2.044694137573242188e+01 -3.161651992797851562e+01
1.100000000000000000e+02 1.566095352172851562e+01 -2.945432364940643311e-01 2.075041770935058594e+01 2.033289718627929688e+01 1.232499408721923828e+01 -2.656849670410156250e+01
1.110000000000000000e+02 1.554530143737792969e+01 -1.325497478246688843e-01 1.544184589385986328e+01 1.555496788024902344e+01 9.299043655395507812e+00 -2.504201126098632812e+01
1.120000000000000000e+02 1.542964935302734375e+01 2.944373898208141327e-02 6.240976810455322266e+00 1.477984619140625000e+01 6.306246757507324219e+00 -2.550545692443847656e+01
1.130000000000000000e+02 1.573261833190917969e+01 -4.949595034122467041e-01 4.088422393798828125e+01 2.118214797973632812e+01 1.861991119384765625e+01 -3.057848358154296875e+01
1.140000000000000000e+02 1.558764266967773438e+01 -3.585811853408813477e-01 2.652570533752441406e+01 1.292037296295166016e+01 1.183382320404052734e+01 -2.407073783874511719e+01
1.150000000000000000e+02 1.544266510009765625e+01 -2.222028970718383789e-01 1.542583274841308594e+01 1.211610126495361328e+01 8.262579917907714844e+00 -2.315943336486816406e+01
1.160000000000000000e+02 1.529768848419189453e+01 -8.582458645105361938e-02 1.070438480377197266e+01 8.911388397216796875e+00 5.884732246398925781e+00 -2.275734329223632812e+01
1.170000000000000000e+02 1.569695377349853516e+01 -5.412106513977050781e-01 4.651450729370117188e+01 8.816755294799804688e+00 1.659937858581542969e+01 -2.514900207519531250e+01
1.180000000000000000e+02 1.552820110321044922e+01 -4.356664121150970459e-01 2.815536308288574219e+01 8.791160583496093750e+00 1.108395671844482422e+01 -1.899725151062011719e+01
1.190000000000000000e+02 1.535944747924804688e+01 -3.301222026348114014e-01 1.771261024475097656e+01 5.424048423767089844e+00 6.940997600555419922e+00 -1.846938514709472656e+01
1.200000000000000000e+02 1.519069290161132812e+01 -2.245780080556869507e-01 9.981258392333984375e+00 8.403892517089843750e+00 5.515545368194580078e+00 -1.916217613220214844e+01
1.210000000000000000e+02 1.567097568511962891e+01 -5.935202240943908691e-01 4.908154678344726562e+01 2.868505954742431641e+00 1.558501625061035156e+01 -1.572797393798828125e+01
1.220000000000000000e+02 1.548490333557128906e+01 -5.228490233421325684e-01 2.751889610290527344e+01 1.818753838539123535e+00 8.801295280456542969e+00 -1.204466724395751953e+01
1.230000000000000000e+02 1.529883098602294922e+01 -4.521778821945190430e-01 1.741238975524902344e+01 5.930973529815673828e+00 7.003009319305419922e+00 -1.320651721954345703e+01
1.240000000000000000e+02 1.511275863647460938e+01 -3.815067112445831299e-01 9.875483512878417969e+00 1.090760707855224609e+00 3.289873361587524414e+00 -1.253025245666503906e+01
1.250000000000000000e+02 1.565567779541015625e+01 -6.498864293098449707e-01 4.028713607788085938e+01 -5.808774471282958984e+00 1.034350776672363281e+01 -5.304747581481933594e+00
1.260000000000000000e+02 1.545940780639648438e+01 -6.167927384376525879e-01 2.870290756225585938e+01 5.667498111724853516e+00 1.031112194061279297e+01 -7.001032829284667969e+00
1.270000000000000000e+02 1.526313686370849609e+01 -5.836990475654602051e-01 1.645106124877929688e+01 -2.366592407226562500e+00 4.225340843200683594e+00 -5.423970222473144531e+00
1.280000000000000000e+02 1.506686687469482422e+01 -5.506053566932678223e-01 6.389424324035644531e+00 3.033471822738647461e+00 2.826868772506713867e+00 -4.968653202056884766e+00
1.290000000000000000e+02 1.181876850128173828e+01 -6.152263879776000977e-01 -2.780382871627807617e+00 -3.203507140278816223e-02 -8.437253832817077637e-01 2.532905042171478271e-01
1.300000000000000000e+02 1.267400169372558594e+01 -1.404699921607971191e+00 -1.847883939743041992e+00 -1.545798182487487793e-01 -6.007391214370727539e-01 -2.636818289756774902e-01
1.310000000000000000e+02 1.025677871704101562e+01 -1.319556713104248047e+00 -1.341792345046997070e+00 1.206841617822647095e-01 -3.663324713706970215e-01 -2.407107651233673096e-01
1.320000000000000000e+02 1.103860664367675781e+01 -9.782841801643371582e-01 -1.854188561439514160e+00 7.039702683687210083e-02 -5.351374745368957520e-01 -1.038394942879676819e-01
1.330000000000000000e+02 1.178621768951416016e+01 -1.153298974037170410e+00 -1.980574250221252441e+00 1.683209650218486786e-02 -5.891226530075073242e-01 -1.541262865066528320e-01
1.340000000000000000e+02 1.257341575622558594e+01 -1.583090305328369141e+00 -1.409085512161254883e+00 -1.158497184514999390e-01 -4.574805796146392822e-01 -1.913488060235977173e-01
1.350000000000000000e+02 1.274712657928466797e+01 -1.033295750617980957e+00 -2.894910335540771484e+00 -1.005323380231857300e-01 -8.986328244209289551e-01 1.736280741170048714e-03
1.360000000000000000e+02 1.233480834960937500e+01 -1.290236473083496094e+00 -1.977563261985778809e+00 -1.062823343090713024e-03 -5.935878157615661621e-01 -1.761099845170974731e-01
1.370000000000000000e+02 1.274292564392089844e+01 -8.283137679100036621e-01 -3.392067909240722656e+00 6.156547367572784424e-02 -9.991506934165954590e-01 -3.434730693697929382e-02
1.380000000000000000e+02 1.237623977661132812e+01 -7.485786080360412598e-01 -3.208429336547851562e+00 -5.086802691221237183e-02 -9.777892231941223145e-01 2.146836370229721069e-01
1.390000000000000000e+02 1.108474349975585938e+01 -4.715946912765502930e-01 -2.251821041107177734e+00 -2.831100299954414368e-02 -6.840396523475646973e-01 2.247961312532424927e-01
1.400000000000000000e+02 1.034607982635498047e+01 -3.337464034557342529e-01 -1.793604969978332520e+00 1.998351886868476868e-02 -5.320864319801330566e-01 1.473450362682342529e-01
1.410000000000000000e+02 1.272546577453613281e+01 -1.218792080879211426e+00 -2.087736368179321289e+00 -1.032050698995590210e-01 -6.572824120521545410e-01 -2.216806262731552124e-01
1.420000000000000000e+02 1.266736316680908203e+01 -5.959880948066711426e-01 -3.770468473434448242e+00 -1.922824233770370483e-02 -1.136909008026123047e+00 3.928712308406829834e-01
1.430000000000000000e+02 1.247143077850341797e+01 -1.055912137031555176e+00 -2.466732025146484375e+00 -7.276594638824462891e-02 -7.618494033813476562e-01 -4.013833776116371155e-02
1.440000000000000000e+02 1.098815155029296875e+01 -1.457283139228820801e+00 -1.371574759483337402e+00 8.186149597167968750e-02 -3.869139552116394043e-01 -3.002697527408599854e-01
1.450000000000000000e+02 1.030167961120605469e+01 -8.297719359397888184e-01 -1.623615980148315430e+00 9.863465279340744019e-02 -4.574944078922271729e-01 -1.075186431407928467e-01
1.460000000000000000e+02 1.173484611511230469e+01 -1.615728735923767090e+00 -1.314734935760498047e+00 6.231448426842689514e-02 -3.757261335849761963e-01 -2.931115925312042236e-01
1.470000000000000000e+02 1.245382404327392578e+01 -1.800899386405944824e+00 -9.764341711997985840e-01 -1.808070950210094452e-02 -2.983544468879699707e-01 -1.704549193382263184e-01
1.480000000000000000e+02 1.422991371154785156e+01 -9.283344745635986328e-01 -4.194450855255126953e+00 -8.506712317466735840e-02 -1.283855319023132324e+00 -1.522361189126968384e-01
1.490000000000000000e+02 1.716565132141113281e+01 1.992663741111755371e-02 9.633096694946289062e+00 1.378630042076110840e+00 3.303518056869506836e+00 4.974990844726562500e+00
1.500000000000000000e+02 1.592416000366210938e+01 4.171639084815979004e-01 -5.348693370819091797e+00 1.107504367828369141e+01 1.717905163764953613e+00 -1.460406303405761719e+01
1.510000000000000000e+02 1.388437175750732422e+01 -4.420555830001831055e-01 -2.369396209716796875e+01 -2.267940342426300049e-01 -7.176227092742919922e+00 1.386106133460998535e+00
1.520000000000000000e+02 1.648016357421875000e+01 -1.990588068962097168e+00 1.015156865119934082e+00 1.770251464843750000e+01 5.615301132202148438e+00 -2.886075258255004883e+00
1.530000000000000000e+02 1.534326267242431641e+01 -1.999562501907348633e+00 1.722400784492492676e+00 8.041547775268554688e+00 2.929184436798095703e+00 4.786416053771972656e+00
1.540000000000000000e+02 1.484932327270507812e+01 -7.494471073150634766e-01 -7.241406440734863281e+00 -4.591084644198417664e-02 -2.186195135116577148e+00 -1.370982676744461060e-01
1.550000000000000000e+02 1.290122318267822266e+01 -1.904554009437561035e+00 -6.043274402618408203e-01 1.188017278909683228e-01 -1.456577181816101074e-01 6.029093265533447266e-02
1.560000000000000000e+02 1.311528491973876953e+01 -1.922250986099243164e+00 -3.551325201988220215e-01 1.519868671894073486e-01 -6.094370037317276001e-02 1.652168780565261841e-01
1.570000000000000000e+02 1.520764255523681641e+01 -1.562858223915100098e+00 2.959171772003173828e+00 4.423012733459472656e+00 2.214655399322509766e+00 4.487336635589599609e+00
1.580000000000000000e+02 1.384790420532226562e+01 -6.933593750000000000e-01 -5.117154598236083984e+00 2.743180096149444580e-02 -1.526916742324829102e+00 1.342354714870452881e-01
1.590000000000000000e+02 1.348335647583007812e+01 -1.963220119476318359e+00 7.082952558994293213e-02 2.238510847091674805e-01 8.840418606996536255e-02 4.083099067211151123e-01
1.600000000000000000e+02 1.651482582092285156e+01 5.425475835800170898e-01 -1.449614763259887695e+00 4.013335332274436951e-02 -4.228444099426269531e-01 -5.104281425476074219e+00
1.610000000000000000e+02 1.665677833557128906e+01 1.530203223228454590e-01 9.039204597473144531e+00 8.273175239562988281e+00 5.193714141845703125e+00 5.453623458743095398e-02
1.620000000000000000e+02 1.682718658447265625e+01 4.274658262729644775e-01 -1.913752555847167969e+00 2.751623392105102539e+00 2.513612806797027588e-01 4.543398857116699219e+00
1.630000000000000000e+02 1.706043052673339844e+01 -3.223845660686492920e-01 1.657296752929687500e+01 3.533644914627075195e+00 6.031983852386474609e+00 1.523460745811462402e+00
1.640000000000000000e+02 1.705183601379394531e+01 -4.835506677627563477e-01 1.974262428283691406e+01 3.881386756896972656e+00 7.087203025817871094e+00 1.823136061429977417e-01
1.650000000000000000e+02 1.715883445739746094e+01 -1.373157024383544922e+00 1.213903808593750000e+01 1.002667236328125000e+01 6.649713039398193359e+00 -6.756915092468261719e+00
1.660000000000000000e+02 1.321945476531982422e+01 8.647053241729736328e-01 8.997835159301757812e+00 5.490035057067871094e+00 4.346360683441162109e+00 -1.157222509384155273e+00
1.670000000000000000e+02 1.320085525512695312e+01 6.470765471458435059e-01 2.831700086593627930e+00 8.526894569396972656e+00 3.407578468322753906e+00 9.192786812782287598e-01
1.680000000000000000e+02 1.395917892456054688e+01 -6.363099068403244019e-02 -1.003188419342041016e+01 5.218654632568359375e+00 -1.443968892097473145e+00 -4.128310680389404297e+00
1.690000000000000000e+02 1.345930767059326172e+01 -1.819677501916885376e-01 -1.702815437316894531e+01 2.783240318298339844e+00 -4.273474216461181641e+00 1.694050908088684082e+00
1.700000000000000000e+02 1.341787528991699219e+01 8.472141623497009277e-01 9.631048202514648438e+00 1.351094150543212891e+01 6.942596912384033203e+00 -1.023565649986267090e+00
1.710000000000000000e+02 1.574791049957275391e+01 6.850475072860717773e-01 -1.193968772888183594e+01 5.117980957031250000e+00 -2.046512126922607422e+00 -1.062511634826660156e+01
1.720000000000000000e+02 1.306932163238525391e+01 -3.947672545909881592e-01 -2.396170234680175781e+01 -1.145897030830383301e+00 -7.532279968261718750e+00 2.624525547027587891e+00
1.730000000000000000e+02 1.326785087585449219e+01 -4.077975749969482422e-01 -2.512141418457031250e+01 5.330936312675476074e-01 -7.376495838165283203e+00 2.954747915267944336e+00
1.740000000000000000e+02 1.425256443023681641e+01 -4.773786067962646484e-01 -1.922578430175781250e+01 1.162832617759704590e+00 -5.418885231018066406e+00 1.614341139793395996e-01
1.750000000000000000e+02 1.465993213653564453e+01 -4.956238865852355957e-01 -8.417301177978515625e+00 1.248497962951660156e+00 -2.150640726089477539e+00 -3.172987222671508789e+00
1.760000000000000000e+02 1.499729824066162109e+01 -8.938787877559661865e-02 5.057796001434326172e+00 6.212976455688476562e+00 3.381231784820556641e+00 -1.917312431335449219e+01
1.770000000000000000e+02 1.486571216583251953e+01 -5.174870491027832031e-01 -1.720993041992187500e+00 -1.606332659721374512e-01 -5.644878745079040527e-01 -3.617961883544921875e+00
1.780000000000000000e+02 1.711596107482910156e+01 -8.395456671714782715e-01 1.861465263366699219e+01 5.665899753570556641e+00 7.284165859222412109e+00 -4.151649951934814453e+00
1.790000000000000000e+02 1.707333374023437500e+01 -6.666181087493896484e-01 1.967986869812011719e+01 5.502541542053222656e+00 7.554723262786865234e+00 -3.132927656173706055e+00
1.800000000000000000e+02 1.691676139831542969e+01 -2.401367425918579102e-01 1.803229522705078125e+01 6.491559505462646484e+00 7.357156276702880859e+00 2.128527879714965820e+00
1.810000000000000000e+02 1.649296951293945312e+01 2.730195522308349609e-01 2.466008998453617096e-02 8.699101448059082031e+00 2.617128610610961914e+00 -8.928568959236145020e-01
1.820000000000000000e+02 1.555907440185546875e+01 7.017784118652343750e-01 -8.876429557800292969e+00 1.119359779357910156e+01 6.951505541801452637e-01 -1.656317329406738281e+01
1.830000000000000000e+02 1.461221885681152344e+01 -1.022896289825439453e+00 -3.005781173706054688e+00 -1.348221302032470703e-01 -9.421809911727905273e-01 -1.721011847257614136e-01
1.840000000000000000e+02 1.555494213104248047e+01 -2.032275438308715820e+00 1.336986541748046875e+00 1.127643966674804688e+01 3.784027814865112305e+00 4.881756782531738281e+00
1.850000000000000000e+02 1.597754669189453125e+01 -1.810690522193908691e+00 4.248908907175064087e-02 1.859147071838378906e+01 5.590187549591064453e+00 2.691388130187988281e+00
1.860000000000000000e+02 1.661288452148437500e+01 -1.593731522560119629e+00 5.805915355682373047e+00 1.972729110717773438e+01 7.659962177276611328e+00 -6.419579505920410156e+00
1.870000000000000000e+02 1.708996963500976562e+01 -1.121750712394714355e+00 1.540176582336425781e+01 8.634722709655761719e+00 7.210946559906005859e+00 -6.777923583984375000e+00
1.880000000000000000e+02 1.388896942138671875e+01 -1.936394929885864258e+00 4.744560122489929199e-01 5.153749585151672363e-01 2.969492971897125244e-01 7.917875647544860840e-01
1.890000000000000000e+02 1.325781631469726562e+01 -8.969215154647827148e-01 -3.652321100234985352e+00 -1.174760684370994568e-01 -1.130939126014709473e+00 7.017710059881210327e-02
1.900000000000000000e+02 1.322853183746337891e+01 -1.106504917144775391e+00 -2.821978807449340820e+00 -1.519725322723388672e-01 -8.921853899955749512e-01 -2.003453969955444336e-01
1.910000000000000000e+02 1.304573917388916016e+01 -6.471585035324096680e-01 -4.565243244171142578e+00 -2.281397432088851929e-01 -1.438014984130859375e+00 3.331961035728454590e-01
1.920000000000000000e+02 1.573418426513671875e+01 4.121131598949432373e-01 -8.150680661201477051e-01 1.578909587860107422e+01 4.492208480834960938e+00 -1.954301261901855469e+01
1.930000000000000000e+02 1.546938133239746094e+01 2.892396748065948486e-01 2.673224806785583496e-01 1.560969161987304688e+01 4.763103961944580078e+00 -2.499800872802734375e+01
1.940000000000000000e+02 1.476443481445312500e+01 7.737646102905273438e-01 2.005193710327148438e+01 2.502517318725585938e+01 1.352313327789306641e+01 -1.834963989257812500e+01
1.950000000000000000e+02 1.340872097015380859e+01 6.180328726768493652e-01 1.532350778579711914e+00 6.529038429260253906e+00 2.418416738510131836e+00 -1.882743477821350098e+00
1.960000000000000000e+02 1.530648708343505859e+01 2.066849470138549805e-01 7.277375221252441406e+00 1.105896186828613281e+01 5.500900745391845703e+00 -2.482201194763183594e+01
1.970000000000000000e+02 1.514389801025390625e+01 8.098246902227401733e-02 4.762756347656250000e+00 1.186833477020263672e+01 4.989327430725097656e+00 -2.415802955627441406e+01
1.980000000000000000e+02 1.630935478210449219e+01 3.501884341239929199e-01 -1.493342041969299316e+00 9.623482704162597656e+00 2.439042091369628906e+00 -5.864660263061523438e+00
1.990000000000000000e+02 1.495472812652587891e+01 7.254350781440734863e-01 1.192470455169677734e+01 1.895050048828125000e+01 9.262561798095703125e+00 -2.287543487548828125e+01
2.000000000000000000e+02 1.700671005249023438e+01 -3.884147852659225464e-02 1.077476596832275391e+01 4.233092784881591797e+00 4.502357482910156250e+00 4.560024261474609375e+00
2.010000000000000000e+02 1.732443618774414062e+01 -6.820409893989562988e-01 1.673232269287109375e+01 1.908418774604797363e+00 5.592222690582275391e+00 -6.672403812408447266e-01
2.020000000000000000e+02 1.445003318786621094e+01 -2.703827023506164551e-01 -8.367493629455566406e+00 3.967671394348144531e+00 -1.319946646690368652e+00 -7.550826549530029297e+00
2.030000000000000000e+02 1.538673973083496094e+01 -1.691536664962768555e+00 3.073928833007812500e+00 7.999974250793457031e+00 3.322170972824096680e+00 5.667375087738037109e+00
2.040000000000000000e+02 1.578094291687011719e+01 -1.799525856971740723e+00 1.206066250801086426e+00 1.596257400512695312e+01 5.150592327117919922e+00 4.827697753906250000e+00
2.050000000000000000e+02 1.596047782897949219e+01 -2.061854124069213867e+00 1.798300147056579590e-01 1.611523437500000000e+01 4.888519763946533203e+00 2.536217451095581055e+00
2.060000000000000000e+02 1.687776756286621094e+01 -1.323302984237670898e+00 1.266619968414306641e+01 1.445125198364257812e+01 8.135235786437988281e+00 -8.479233741760253906e+00
2.070000000000000000e+02 1.616491127014160156e+01 -1.797801494598388672e+00 8.794170618057250977e-01 2.071541786193847656e+01 6.478450775146484375e+00 -9.152819216251373291e-02
2.080000000000000000e+02 1.506391048431396484e+01 -1.385800719261169434e+00 2.451619863510131836e+00 1.818223357200622559e+00 1.280953049659729004e+00 2.690205097198486328e+00
2.090000000000000000e+02 1.662702751159667969e+01 -1.893380284309387207e+00 2.826182842254638672e+00 1.713592720031738281e+01 5.988633155822753906e+00 -4.197661399841308594e+00
2.100000000000000000e+02 1.634413528442382812e+01 -1.843274712562561035e+00 1.198379993438720703e+00 1.978469848632812500e+01 6.294923305511474609e+00 -1.867142558097839355e+00
2.110000000000000000e+02 1.699657630920410156e+01 -9.119330644607543945e-01 1.974699783325195312e+01 8.223058700561523438e+00 8.391016960144042969e+00 -6.423887252807617188e+00
2.120000000000000000e+02 1.677845191955566406e+01 -1.783041477203369141e+00 3.736028432846069336e+00 1.610639572143554688e+01 5.952727317810058594e+00 -5.899445533752441406e+00
2.130000000000000000e+02 1.632574272155761719e+01 6.078969240188598633e-01 -7.382709980010986328e+00 8.358337402343750000e+00 2.926882505416870117e-01 -8.747281074523925781e+00
2.140000000000000000e+02 1.611866569519042969e+01 3.979699015617370605e-01 -2.032348394393920898e+00 1.543653297424316406e+01 4.021255493164062500e+00 -1.040257644653320312e+01
2.150000000000000000e+02 1.704925155639648438e+01 -1.516051054000854492e+00 8.504242897033691406e+00 1.183246612548828125e+01 6.101012706756591797e+00 -7.088374137878417969e+00
2.160000000000000000e+02 1.675617408752441406e+01 -1.465946078300476074e+00 7.940009117126464844e+00 1.704088401794433594e+01 7.494268417358398438e+00 -8.300240516662597656e+00
2.170000000000000000e+02 1.723785209655761719e+01 -1.461299210786819458e-01 1.186513328552246094e+01 1.632241129875183105e+00 4.049212455749511719e+00 3.453630447387695312e+00
2.180000000000000000e+02 1.713560104370117188e+01 -9.885502457618713379e-01 1.633975791931152344e+01 6.778778553009033203e+00 6.935561180114746094e+00 -5.713201999664306641e+00
2.190000000000000000e+02 1.732656860351562500e+01 -8.664969205856323242e-01 1.597986221313476562e+01 4.231980800628662109e+00 6.063552856445312500e+00 -3.306471586227416992e+00
2.200000000000000000e+02 1.674033355712890625e+01 3.213338851928710938e-01 2.361328363418579102e+00 -8.779819011688232422e-01 4.450039565563201904e-01 5.555496215820312500e+00
2.210000000000000000e+02 1.699673271179199219e+01 -1.217824101448059082e+00 1.363582134246826172e+01 1.103643798828125000e+01 7.401678085327148438e+00 -7.893695831298828125e+00
2.220000000000000000e+02 1.692226409912109375e+01 -1.655011177062988281e+00 7.169158458709716797e+00 1.460538101196289062e+01 6.532361984252929688e+00 -6.587529659271240234e+00
2.230000000000000000e+02 1.632477569580078125e+01 -2.043021678924560547e+00 2.638870179653167725e-01 1.804515647888183594e+01 5.492712974548339844e+00 -9.805284738540649414e-01
2.240000000000000000e+02 1.312395954132080078e+01 1.539206691086292267e-02 -1.136710548400878906e+01 7.928135991096496582e-02 -3.386347293853759766e+00 3.309151649475097656e+00
2.250000000000000000e+02 1.445470142364501953e+01 -4.855918884277343750e-01 -1.472726631164550781e+01 9.976757168769836426e-01 -4.118876934051513672e+00 -1.641186237335205078e+00
2.260000000000000000e+02 1.328050231933593750e+01 -2.096076458692550659e-01 -1.897507667541503906e+01 -4.937750995159149170e-01 -5.840655803680419922e+00 2.631147861480712891e+00
2.270000000000000000e+02 1.402114486694335938e+01 -2.981199622154235840e-01 -1.856276321411132812e+01 1.118099451065063477e+00 -5.233399391174316406e+00 -1.811946868896484375e+00
2.280000000000000000e+02 1.380386161804199219e+01 8.169349431991577148e-01 6.608880519866943359e+00 1.861605262756347656e+01 7.567479610443115234e+00 -5.857623100280761719e+00
2.290000000000000000e+02 1.424543571472167969e+01 -7.154276967048645020e-01 -5.618404865264892578e+00 -6.319711450487375259e-03 -1.687417387962341309e+00 1.159767657518386841e-01
2.300000000000000000e+02 1.321008777618408203e+01 -1.292107462882995605e+00 -2.056497812271118164e+00 -1.054902095347642899e-03 -6.172658205032348633e-01 -1.768398135900497437e-01
2.310000000000000000e+02 1.325296497344970703e+01 -6.631999611854553223e-01 -4.554601669311523438e+00 -9.455780498683452606e-03 -1.369217276573181152e+00 1.553870141506195068e-01
2.320000000000000000e+02 1.444263076782226562e+01 -7.339022755622863770e-01 -6.009206771850585938e+00 -8.840724825859069824e-02 -1.829284191131591797e+00 3.587615489959716797e-02
2.330000000000000000e+02 1.576072692871093750e+01 -2.053384304046630859e+00 2.583857178688049316e-01 1.370689105987548828e+01 4.189582824707031250e+00 3.930768251419067383e+00
2.340000000000000000e+02 1.410566043853759766e+01 -1.941598653793334961e+00 7.796497941017150879e-01 7.364842295646667480e-01 4.548402130603790283e-01 1.163593888282775879e+00
2.350000000000000000e+02 1.431782722473144531e+01 -1.952974796295166016e+00 1.107598185539245605e+00 1.326360106468200684e+00 7.301874756813049316e-01 1.662623047828674316e+00
2.360000000000000000e+02 1.494327831268310547e+01 -1.995118379592895508e+00 2.011930704116821289e+00 3.857696056365966797e+00 1.760887980461120605e+00 3.572121381759643555e+00
2.370000000000000000e+02 1.513738346099853516e+01 -2.002329587936401367e+00 2.242291688919067383e+00 6.043934345245361328e+00 2.485867738723754883e+00 4.551744937896728516e+00
2.380000000000000000e+02 1.471866703033447266e+01 -1.704053282737731934e+00 1.756944417953491211e+00 1.791263818740844727e+00 1.064462423324584961e+00 2.285996675491333008e+00
2.390000000000000000e+02 1.485967159271240234e+01 -9.807868599891662598e-01 -3.077463865280151367e+00 -9.517801553010940552e-02 -9.517925977706909180e-01 -2.132814228534698486e-01
2.400000000000000000e+02 1.367525577545166016e+01 -1.942503333091735840e+00 1.406014561653137207e-01 3.651740252971649170e-01 1.517326533794403076e-01 5.345771312713623047e-01
2.410000000000000000e+02 1.452497386932373047e+01 -1.969434261322021484e+00 1.339725136756896973e+00 1.913522481918334961e+00 9.759742617607116699e-01 2.255379915237426758e+00
2.420000000000000000e+02 1.309273147583007812e+01 -1.871464103460311890e-01 -2.000860977172851562e+01 -4.778330624103546143e-01 -6.145933151245117188e+00 2.398954153060913086e+00
2.430000000000000000e+02 1.315701007843017578e+01 2.188082635402679443e-01 -6.566254615783691406e+00 3.467118978500366211e+00 -9.297407269477844238e-01 2.705404281616210938e+00
2.440000000000000000e+02 1.318105316162109375e+01 4.305017292499542236e-01 -2.788357973098754883e+00 2.197097063064575195e+00 -1.773782819509506226e-01 1.508301615715026855e+00
2.450000000000000000e+02 1.298254394531250000e+01 -1.279452681541442871e+00 -2.141498088836669922e+00 -1.425304859876632690e-01 -6.852085590362548828e-01 -2.140128016471862793e-01
2.460000000000000000e+02 1.493654632568359375e+01 -1.198253393173217773e+00 3.303796052932739258e-02 2.478303313255310059e-01 8.426048606634140015e-02 7.716221213340759277e-01
2.470000000000000000e+02 1.406112003326416016e+01 -4.770051538944244385e-01 -2.170398330688476562e+01 -2.313506603240966797e-02 -6.518135070800781250e+00 1.436257958412170410e+00
2.480000000000000000e+02 1.464155387878417969e+01 -7.520834803581237793e-01 -6.539530754089355469e+00 -3.842167556285858154e-02 -1.973385691642761230e+00 -6.440607458353042603e-02
2.490000000000000000e+02 1.339378929138183594e+01 -1.806205272674560547e+00 -4.953561127185821533e-01 9.360942989587783813e-02 -1.205240041017532349e-01 1.806657016277313232e-01
2.500000000000000000e+02 1.333334541320800781e+01 -3.703308850526809692e-02 -1.505573177337646484e+01 1.515940189361572266e+00 -4.061937808990478516e+00 1.399058461189270020e+00
2.510000000000000000e+02 1.368350315093994141e+01 -1.273858845233917236e-01 -1.484752941131591797e+01 3.524792194366455078e-01 -4.348515033721923828e+00 1.743927150964736938e-01
2.520000000000000000e+02 1.365034294128417969e+01 -6.782456636428833008e-01 -4.889822959899902344e+00 -4.350888356566429138e-02 -1.479999542236328125e+00 1.365854442119598389e-01
2.530000000000000000e+02 1.515949916839599609e+01 7.029012441635131836e-01 1.097335720062255859e+01 8.511018753051757812e+00 5.845313072204589844e+00 -2.197714805603027344e+01
2.540000000000000000e+02 1.457901954650878906e+01 7.981828451156616211e-01 1.665511703491210938e+01 1.151560497283935547e+01 8.451216697692871094e+00 -1.988105392456054688e+01
2.550000000000000000e+02 1.400115489959716797e+01 7.836353778839111328e-01 9.553233146667480469e+00 1.891609764099121094e+01 8.540799140930175781e+00 -1.434701347351074219e+01
2.560000000000000000e+02 1.471358013153076172e+01 5.940443873405456543e-01 6.116868972778320312e+00 1.873486518859863281e+01 7.455520629882812500e+00 -1.767988967895507812e+01
2.570000000000000000e+02 1.420222949981689453e+01 7.773271203041076660e-01 7.812942504882812500e+00 1.814734458923339844e+01 7.788086414337158203e+00 -1.279119396209716797e+01
2.580000000000000000e+02 1.519508457183837891e+01 4.282775521278381348e-01 1.374736309051513672e+00 1.382240200042724609e+01 4.559141159057617188e+00 -2.513959884643554688e+01
2.590000000000000000e+02 1.432571029663085938e+01 -1.656114220619201660e+00 5.853821635246276855e-01 5.625215768814086914e-01 3.443711400032043457e-01 1.034590959548950195e+00
2.600000000000000000e+02 1.449144935607910156e+01 9.564387798309326172e-02 -8.858509361743927002e-02 1.029372501373291016e+01 3.061542034149169922e+00 -1.440534877777099609e+01
2.610000000000000000e+02 1.364093112945556641e+01 -8.868169188499450684e-01 -3.909028291702270508e+00 -1.635800488293170929e-02 -1.177615880966186523e+00 -6.237986311316490173e-02
2.620000000000000000e+02 1.489661693572998047e+01 -1.580735325813293457e+00 2.069004058837890625e+00 1.917448878288269043e+00 1.195935845375061035e+00 2.769257783889770508e+00
2.630000000000000000e+02 1.360369682312011719e+01 6.027538180351257324e-01 5.169042587280273438e+00 1.187121009826660156e+01 5.112075805664062500e+00 -4.192022323608398438e+00
2.640000000000000000e+02 1.340192890167236328e+01 3.905664682388305664e-01 -1.627198934555053711e+00 7.409238338470458984e+00 1.734611868858337402e+00 -4.981574416160583496e-01
2.650000000000000000e+02 1.296563243865966797e+01 -1.486870765686035156e+00 -1.583772182464599609e+00 3.351574018597602844e-02 -4.650769531726837158e-01 -1.578610390424728394e-01
2.660000000000000000e+02 1.480413246154785156e+01 1.023372560739517212e-01 1.159542322158813477e+00 1.196077537536621094e+01 3.936095237731933594e+00 -1.840280342102050781e+01
2.670000000000000000e+02 1.409916210174560547e+01 3.697829842567443848e-01 1.167414188385009766e+00 1.487878036499023438e+01 4.813858509063720703e+00 -1.050571632385253906e+01
2.680000000000000000e+02 1.422036743164062500e+01 -3.547108918428421021e-02 -5.521286010742187500e+00 5.890986442565917969e+00 1.109100580215454102e-01 -8.553821563720703125e+00
2.690000000000000000e+02 1.426694107055664062e+01 -1.120850801467895508e+00 -2.503326654434204102e+00 -5.971905589103698730e-02 -7.689136862754821777e-01 -2.455382496118545532e-01
2.700000000000000000e+02 1.318835544586181641e+01 -1.717568159103393555e+00 -8.547415137290954590e-01 3.698309883475303650e-02 -2.453275173902511597e-01 1.854900270700454712e-02
2.710000000000000000e+02 1.404087829589843750e+01 -1.157861828804016113e+00 -2.308475732803344727e+00 -6.166982278227806091e-02 -7.110436558723449707e-01 -1.536704748868942261e-01
2.720000000000000000e+02 1.341514492034912109e+01 -1.225589394569396973e+00 -2.345569849014282227e+00 -1.190542280673980713e-01 -7.393872141838073730e-01 -6.587307900190353394e-02
2.730000000000000000e+02 1.384360218048095703e+01 -1.668908596038818359e+00 -4.381455183029174805e-01 1.890430599451065063e-01 -7.473074644804000854e-02 3.691973984241485596e-01
2.740000000000000000e+02 1.323019504547119141e+01 -1.500817537307739258e+00 -1.391836762428283691e+00 -3.743861615657806396e-02 -4.287826120853424072e-01 -3.557730838656425476e-02
2.750000000000000000e+02 1.461258697509765625e+01 2.598094642162322998e-01 -9.455125927925109863e-01 1.167840003967285156e+01 3.219866275787353516e+00 -1.660036277770996094e+01
2.760000000000000000e+02 1.441683578491210938e+01 3.716571033000946045e-01 4.902505874633789062e+00 1.520858287811279297e+01 6.033326625823974609e+00 -1.567999076843261719e+01
2.770000000000000000e+02 1.383219051361083984e+01 -9.203792810440063477e-01 -3.916926145553588867e+00 -4.500118270516395569e-02 -1.188578248023986816e+00 -1.325528621673583984e-01
2.780000000000000000e+02 1.476540946960449219e+01 -1.380588650703430176e+00 5.591922998428344727e-01 4.128338396549224854e-01 2.916078567504882812e-01 1.092061400413513184e+00
2.790000000000000000e+02 1.378241443634033203e+01 5.980896949768066406e-01 1.901401281356811523e+00 1.292105102539062500e+01 4.446735382080078125e+00 -5.262300491333007812e+00
2.800000000000000000e+02 1.339179801940917969e+01 1.604271382093429565e-01 -7.648300170898437500e+00 1.799545645713806152e+00 -1.754626393318176270e+00 9.117751717567443848e-01
2.810000000000000000e+02 1.293760490417480469e+01 -1.694410681724548340e+00 -1.017036080360412598e+00 9.905740618705749512e-02 -2.753936052322387695e-01 -4.307971894741058350e-02
2.820000000000000000e+02 1.330877685546875000e+01 -1.955651640892028809e+00 -1.697939038276672363e-01 1.571625769138336182e-01 -3.789397655054926872e-03 2.629147469997406006e-01
2.830000000000000000e+02 1.359146213531494141e+01 -1.707259416580200195e+00 -5.029940009117126465e-01 9.670820832252502441e-02 -1.218857392668724060e-01 2.333338856697082520e-01
2.840000000000000000e+02 1.408845424652099609e+01 -1.658055901527404785e+00 -1.925410702824592590e-02 2.760599553585052490e-01 7.704176008701324463e-02 5.943504571914672852e-01
2.850000000000000000e+02 1.300398731231689453e+01 -1.072900652885437012e+00 -2.844827890396118164e+00 -4.348916932940483093e-02 -8.664951324462890625e-01 -1.729387044906616211e-01
2.860000000000000000e+02 1.302815055847167969e+01 -8.634372949600219727e-01 -3.424726247787475586e+00 -2.135447859764099121e-01 -1.091481328010559082e+00 1.297454629093408585e-02
2.870000000000000000e+02 1.346374797821044922e+01 -8.891732096672058105e-01 -3.718032598495483398e+00 -4.173865914344787598e-02 -1.127931356430053711e+00 -5.581204220652580261e-02
2.880000000000000000e+02 1.345376300811767578e+01 -6.698654890060424805e-01 -4.703650474548339844e+00 1.198463258333504200e-03 -1.410735607147216797e+00 1.598220616579055786e-01
2.890000000000000000e+02 1.453400993347167969e+01 -1.694643735885620117e+00 1.294917345046997070e+00 1.160174608230590820e+00 7.365275621414184570e-01 1.636645197868347168e+00
2.900000000000000000e+02 1.473744869232177734e+01 -1.972190499305725098e+00 2.014320373535156250e+00 2.711517810821533203e+00 1.417751431465148926e+00 3.019312858581542969e+00
2.910000000000000000e+02 1.504635715484619141e+01 -1.772945880889892578e+00 2.684112787246704102e+00 4.079211711883544922e+00 2.028997421264648438e+00 3.870611190795898438e+00
2.920000000000000000e+02 1.558349704742431641e+01 -1.760267496109008789e+00 1.755348563194274902e+00 1.190109729766845703e+01 4.096933841705322266e+00 5.717905044555664062e+00
2.930000000000000000e+02 1.346828746795654297e+01 -4.097136557102203369e-01 -2.558782958984375000e+01 8.618184924125671387e-02 -7.650494098663330078e+00 1.914720416069030762e+00
2.940000000000000000e+02 1.368414402008056641e+01 -4.050458073616027832e-01 -2.474544525146484375e+01 5.787052586674690247e-02 -7.406272411346435547e+00 1.569537639617919922e+00
2.950000000000000000e+02 1.490372753143310547e+01 -2.978881597518920898e-01 1.878066301345825195e+00 6.131869316101074219e+00 2.402980566024780273e+00 -1.310083866119384766e+01
2.960000000000000000e+02 1.403638076782226562e+01 -9.317604303359985352e-01 -4.067824840545654297e+00 4.560920596122741699e-02 -1.206664800643920898e+00 -1.633250415325164795e-01
2.970000000000000000e+02 1.361157608032226562e+01 8.331645131111145020e-01 4.035269260406494141e+00 1.076901531219482422e+01 4.441285133361816406e+00 -3.877449750900268555e+00
2.980000000000000000e+02 1.394528102874755859e+01 5.431848764419555664e-01 2.603240907192230225e-01 1.017338085174560547e+01 3.130111455917358398e+00 -6.899947166442871094e+00
2.990000000000000000e+02 1.426687240600585938e+01 5.385602116584777832e-01 5.232550144195556641e+00 1.289362144470214844e+01 5.437851428985595703e+00 -1.382217121124267578e+01
3.000000000000000000e+02 1.442114257812500000e+01 6.213245391845703125e-01 7.997597694396972656e+00 1.715814590454101562e+01 7.546722888946533203e+00 -1.568695163726806641e+01
3.010000000000000000e+02 1.439456939697265625e+01 8.001136779785156250e-01 1.336185836791992188e+01 2.342316246032714844e+01 1.103550624847412109e+01 -2.349796295166015625e+01
3.020000000000000000e+02 1.456233024597167969e+01 6.336458325386047363e-01 1.427948284149169922e+01 1.991949462890625000e+01 1.025969314575195312e+01 -2.040677070617675781e+01
3.030000000000000000e+02 1.467828941345214844e+01 4.339435994625091553e-01 7.655008316040039062e+00 1.626622200012207031e+01 7.176369190216064453e+00 -2.119828605651855469e+01
3.040000000000000000e+02 1.485243701934814453e+01 4.967399239540100098e-01 4.752261161804199219e+00 1.748005867004394531e+01 6.669695854187011719e+00 -2.172423934936523438e+01
3.050000000000000000e+02 1.498788356781005859e+01 3.010104894638061523e-01 4.453323841094970703e+00 1.288836669921875000e+01 5.202507495880126953e+00 -2.349498176574707031e+01
3.060000000000000000e+02 1.538230991363525391e+01 4.775075316429138184e-01 5.905062198638916016e+00 9.072136878967285156e+00 4.493159770965576172e+00 -2.450543212890625000e+01
3.070000000000000000e+02 1.536528396606445312e+01 7.120469212532043457e-01 -3.377782821655273438e+00 4.030338287353515625e+00 1.957665681838989258e-01 -1.254329109191894531e+01
3.080000000000000000e+02 1.593844604492187500e+01 6.713926792144775391e-01 -1.371109294891357422e+01 1.547735500335693359e+01 5.298786163330078125e-01 -1.183242797851562500e+01
3.090000000000000000e+02 1.613301086425781250e+01 6.493039131164550781e-01 -1.422306346893310547e+01 6.689299583435058594e+00 -2.260129213333129883e+00 -1.269440841674804688e+01
3.100000000000000000e+02 1.668460845947265625e+01 4.924333989620208740e-01 -5.508239746093750000e+00 -3.399169683456420898e+00 -2.672222852706909180e+00 3.337655067443847656e+00
3.110000000000000000e+02 1.695727729797363281e+01 3.119379281997680664e-01 1.249670386314392090e+00 1.401283740997314453e+00 7.952862381935119629e-01 7.057603359222412109e+00
3.120000000000000000e+02 1.707248115539550781e+01 1.751708388328552246e-01 6.528120040893554688e+00 3.123362064361572266e+00 2.895444631576538086e+00 5.412367820739746094e+00
3.130000000000000000e+02 1.694823646545410156e+01 1.030790731310844421e-01 8.849802017211914062e+00 2.669814825057983398e+00 3.455884933471679688e+00 4.569901943206787109e+00
3.140000000000000000e+02 1.463060379028320312e+01 -4.483167082071304321e-02 -6.105765700340270996e-01 6.593363761901855469e+00 1.794836044311523438e+00 -1.474125194549560547e+01
3.150000000000000000e+02 1.467257785797119141e+01 -2.612948417663574219e-01 -3.433132410049438477e+00 3.171013832092285156e+00 -7.863555848598480225e-02 -9.865221023559570312e+00
3.160000000000000000e+02 1.457435798645019531e+01 -1.312593936920166016e+00 -4.577249288558959961e-01 1.297111064195632935e-01 -9.840414673089981079e-02 4.164434373378753662e-01
3.170000000000000000e+02 1.404639434814453125e+01 -7.052065730094909668e-01 -5.342892646789550781e+00 -3.339473158121109009e-02 -1.612886309623718262e+00 1.413584798574447632e-01
3.180000000000000000e+02 1.614907455444335938e+01 -2.055544137954711914e+00 -3.286948800086975098e-01 1.673998451232910156e+01 4.923387050628662109e+00 9.199462532997131348e-01
3.190000000000000000e+02 1.645863914489746094e+01 -1.698536992073059082e+00 1.937414646148681641e+00 2.083347320556640625e+01 6.831266403198242188e+00 -4.256885051727294922e+00
3.200000000000000000e+02 1.724662971496582031e+01 -1.218839883804321289e+00 1.334007549285888672e+01 7.354443073272705078e+00 6.208355426788330078e+00 -5.629799365997314453e+00
3.210000000000000000e+02 1.730379486083984375e+01 -1.047146201133728027e+00 1.551556491851806641e+01 5.570811271667480469e+00 6.325912952423095703e+00 -4.819862842559814453e+00
3.220000000000000000e+02 1.730919837951660156e+01 -4.977840185165405273e-01 1.568010425567626953e+01 1.591253638267517090e+00 5.181407451629638672e+00 6.402120590209960938e-01
3.230000000000000000e+02 1.728349113464355469e+01 -3.191984891891479492e-01 1.564867877960205078e+01 8.100299835205078125e-01 4.937612533569335938e+00 2.955234289169311523e+00
3.240000000000000000e+02 1.706112480163574219e+01 -1.814732998609542847e-01 1.491542530059814453e+01 2.009637355804443359e+00 5.077518463134765625e+00 3.949503183364868164e+00
3.250000000000000000e+02 1.555381488800048828e+01 4.485484659671783447e-01 8.711098432540893555e-01 7.254731178283691406e+00 2.437752246856689453e+00 -1.828024101257324219e+01
3.260000000000000000e+02 1.695205116271972656e+01 -1.060344457626342773e+00 1.711552047729492188e+01 1.051219463348388672e+01 8.288314819335937500e+00 -8.264629364013671875e+00
3.270000000000000000e+02 1.684216690063476562e+01 -9.167850017547607422e-02 1.449369716644287109e+01 4.223795413970947266e+00 5.615247726440429688e+00 3.982071399688720703e+00
3.280000000000000000e+02 1.680850601196289062e+01 7.495294511318206787e-02 8.615554809570312500e+00 5.393557548522949219e+00 4.202733993530273438e+00 4.527497291564941406e+00
3.290000000000000000e+02 1.686344528198242188e+01 2.144897282123565674e-01 7.716898441314697266e+00 4.436194896697998047e+00 3.645927906036376953e+00 4.228270053863525391e+00
3.300000000000000000e+02 1.440463829040527344e+01 -9.712732434272766113e-01 -3.668250799179077148e+00 -5.203768610954284668e-02 -1.116086602210998535e+00 -1.693429648876190186e-01
3.310000000000000000e+02 1.432343292236328125e+01 -1.358975648880004883e+00 -8.641769886016845703e-01 6.888397783041000366e-02 -2.385879009962081909e-01 2.819755971431732178e-01
3.320000000000000000e+02 1.351256752014160156e+01 -1.458794593811035156e+00 -1.474888682365417480e+00 -1.850654371082782745e-02 -4.480185508728027344e-01 -3.786529228091239929e-02
3.330000000000000000e+02 1.363972568511962891e+01 1.426484286785125732e-01 -6.966667652130126953e+00 5.911091804504394531e+00 -3.166727125644683838e-01 -2.566315174102783203e+00
3.340000000000000000e+02 1.380374336242675781e+01 4.146789312362670898e-01 2.183023691177368164e+00 1.143128013610839844e+01 4.084291458129882812e+00 -7.673501491546630859e+00
3.350000000000000000e+02 1.357111549377441406e+01 -1.072995305061340332e+00 -2.943028450012207031e+00 -4.392018169164657593e-02 -8.960846066474914551e-01 -1.603578478097915649e-01
3.360000000000000000e+02 1.379658412933349609e+01 -1.155981183052062988e+00 -2.585472106933593750e+00 -2.143261767923831940e-02 -7.820714712142944336e-01 -1.194199249148368835e-01
3.370000000000000000e+02 1.462325954437255859e+01 -1.523192763328552246e+00 8.541435599327087402e-01 8.233984708786010742e-01 5.032626390457153320e-01 1.542957544326782227e+00
3.380000000000000000e+02 1.451591873168945312e+01 5.020585656166076660e-01 2.604966163635253906e+00 1.500090312957763672e+01 5.281760692596435547e+00 -1.374377536773681641e+01
3.390000000000000000e+02 1.428774738311767578e+01 1.948867887258529663e-01 -3.514142274856567383e+00 8.333411216735839844e+00 1.445780754089355469e+00 -1.096330356597900391e+01
3.400000000000000000e+02 1.423592090606689453e+01 -2.672678232192993164e-01 -1.353714752197265625e+01 3.744321823120117188e+00 -2.937847614288330078e+00 -4.459587574005126953e+00
3.410000000000000000e+02 1.406414222717285156e+01 -1.394829034805297852e+00 -1.190121650695800781e+00 7.139950245618820190e-02 -3.356166183948516846e-01 1.562293022871017456e-01
3.420000000000000000e+02 1.389136791229248047e+01 2.066431939601898193e-01 -5.020730495452880859e+00 4.981235504150390625e+00 -1.184845715761184692e-02 -4.593643665313720703e+00
3.430000000000000000e+02 1.379475688934326172e+01 -1.407710552215576172e+00 -1.348195433616638184e+00 -2.729558758437633514e-02 -4.126473069190979004e-01 3.544930368661880493e-02
3.440000000000000000e+02 1.361273574829101562e+01 3.796381950378417969e-01 -2.718409538269042969e+00 5.881315231323242188e+00 9.488717317581176758e-01 -1.653649926185607910e+00
3.450000000000000000e+02 1.443946266174316406e+01 -7.152844965457916260e-02 -5.259562969207763672e+00 5.472938060760498047e+00 6.401249021291732788e-02 -9.033143043518066406e+00
3.460000000000000000e+02 1.113689136505126953e+01 5.648303031921386719e-02 -1.168554496765136719e+01 -7.706891894340515137e-01 -3.736870050430297852e+00 3.448347330093383789e+00
3.470000000000000000e+02 1.043866634368896484e+01 6.852844357490539551e-01 -3.789532184600830078e+00 -1.163571357727050781e+00 -1.485931038856506348e+00 3.079092025756835938e+00
3.480000000000000000e+02 1.039320850372314453e+01 1.976523399353027344e-01 -8.392543792724609375e+00 -9.652584195137023926e-01 -2.807340860366821289e+00 2.304123878479003906e+00
3.490000000000000000e+02 1.189788436889648438e+01 -1.048557311296463013e-01 -1.638028144836425781e+01 -1.344731926918029785e+00 -5.317504405975341797e+00 4.499477386474609375e+00
3.500000000000000000e+02 1.265074729919433594e+01 4.488542079925537109e-01 -5.034758567810058594e+00 1.377449631690979004e-01 -1.469104051589965820e+00 3.249274492263793945e+00
3.510000000000000000e+02 1.285504150390625000e+01 1.031863018870353699e-01 -1.024340915679931641e+01 2.306512117385864258e+00 -2.381069183349609375e+00 5.083909988403320312e+00
3.520000000000000000e+02 1.275271129608154297e+01 -7.525740563869476318e-02 -1.446459960937500000e+01 9.802590608596801758e-01 -4.045302391052246094e+00 4.407934188842773438e+00
3.530000000000000000e+02 1.290556812286376953e+01 2.899781763553619385e-01 -8.605506896972656250e+00 2.307199478149414062e+00 -1.889492273330688477e+00 3.249421119689941406e+00
3.540000000000000000e+02 1.292642974853515625e+01 4.760390520095825195e-01 -1.309503793716430664e+00 4.319398880004882812e+00 9.029685258865356445e-01 1.143710136413574219e+00
3.550000000000000000e+02 1.292048740386962891e+01 6.815828680992126465e-01 2.355294227600097656e+00 6.634434461593627930e-01 9.056212902069091797e-01 1.023350715637207031e+00
3.560000000000000000e+02 1.048326015472412109e+01 1.183082818984985352e+00 2.574597299098968506e-01 -2.581057071685791016e+00 -6.970791816711425781e-01 2.469521999359130859e+00
3.570000000000000000e+02 1.118892478942871094e+01 5.310304760932922363e-01 -5.614017963409423828e+00 -2.084687709808349609e+00 -2.309611797332763672e+00 3.829698324203491211e+00
3.580000000000000000e+02 1.284162044525146484e+01 9.158934950828552246e-01 5.501778602600097656e+00 3.641288280487060547e+00 2.742920160293579102e+00 -1.023612022399902344e+00
3.590000000000000000e+02 1.254971504211425781e+01 7.593261003494262695e-01 1.036162376403808594e+00 3.437699794769287109e+00 1.342158675193786621e+00 1.835555911064147949e+00
3.600000000000000000e+02 1.251411437988281250e+01 2.130011618137359619e-01 -9.597004890441894531e+00 -1.219543695449829102e+00 -3.244964599609375000e+00 3.753043413162231445e+00
3.610000000000000000e+02 1.198168945312500000e+01 8.943247795104980469e-01 3.229445517063140869e-01 -1.333314776420593262e+00 -3.031110763549804688e-01 3.192689895629882812e+00
3.620000000000000000e+02 1.123469257354736328e+01 1.040899395942687988e+00 8.497414588928222656e-01 -1.336954951286315918e+00 -1.461640447378158569e-01 3.142431020736694336e+00
3.630000000000000000e+02 1.195205783843994141e+01 3.522157073020935059e-01 -7.428954124450683594e+00 -7.891966700553894043e-01 -2.465445280075073242e+00 4.121011734008789062e+00
3.640000000000000000e+02 1.262804794311523438e+01 -2.906605303287506104e-01 -2.099918174743652344e+01 -9.308178722858428955e-02 -6.327679157257080078e+00 4.535593032836914062e+00
3.650000000000000000e+02 9.107750892639160156e+00 1.214669466018676758e+00 -9.566359519958496094e-01 -7.594751715660095215e-01 -5.148333311080932617e-01 1.918466329574584961e+00
3.660000000000000000e+02 9.585537910461425781e+00 3.277715146541595459e-01 -5.251974105834960938e+00 -1.756949573755264282e-01 -1.628300786018371582e+00 1.270447015762329102e+00
3.670000000000000000e+02 9.660290718078613281e+00 8.446694612503051758e-01 -2.615673542022705078e+00 -1.501583814620971680e+00 -1.235177159309387207e+00 1.625480890274047852e+00
3.680000000000000000e+02 9.752997398376464844e+00 1.276898026466369629e+00 -3.036912977695465088e-01 -1.507273197174072266e+00 -5.432893633842468262e-01 1.646574139595031738e+00
3.690000000000000000e+02 7.579696655273437500e+00 1.131580829620361328e+00 -1.114367961883544922e+00 -1.990682184696197510e-01 -3.940308392047882080e-01 7.165229320526123047e-01
3.700000000000000000e+02 7.137662887573242188e+00 3.945308327674865723e-01 -1.588317275047302246e+00 -1.797491312026977539e-01 -5.304199457168579102e-01 2.952989041805267334e-01
3.710000000000000000e+02 5.240426063537597656e+00 1.136750578880310059e+00 -4.332577288150787354e-01 -3.257578611373901367e-02 -1.397500485181808472e-01 2.183692008256912231e-01
3.720000000000000000e+02 4.821434974670410156e+00 3.991664648056030273e-01 -6.418448090553283691e-01 3.820800781250000000e-02 -1.810910403728485107e-01 5.719802901148796082e-02
3.730000000000000000e+02 2.134902238845825195e+00 1.141132712364196777e+00 -1.036786511540412903e-01 -3.853378444910049438e-02 -4.266373068094253540e-02 1.221442371606826782e-01
3.740000000000000000e+02 2.507342576980590820e+00 4.011326730251312256e-01 -2.167196720838546753e-01 -1.919225603342056274e-02 -7.077357918024063110e-02 6.681354343891143799e-02
3.750000000000000000e+02 1.373372912406921387e+00 1.136389493942260742e+00 -8.199472725391387939e-02 -3.641317784786224365e-02 -3.552237153053283691e-02 1.023860126733779907e-01
3.760000000000000000e+02 1.750709772109985352e+00 3.963895142078399658e-01 -9.636098146438598633e-02 -2.238987479358911514e-03 -2.957999147474765778e-02 3.232619911432266235e-02
3.770000000000000000e+02 3.728234469890594482e-01 5.563096404075622559e-01 1.573653571540489793e-04 -2.812803490087389946e-03 -7.966314442455768585e-04 7.254044758155941963e-04
3.780000000000000000e+02 6.799783110618591309e-01 1.111651301383972168e+00 -1.725968532264232635e-02 -5.562423542141914368e-02 -2.186517603695392609e-02 4.713667184114456177e-02
3.790000000000000000e+02 4.049607753753662109e+00 3.992538154125213623e-01 -5.063978433609008789e-01 -3.429526463150978088e-02 -1.622079461812973022e-01 9.977105259895324707e-02
3.800000000000000000e+02 2.910330057144165039e+00 1.139203548431396484e+00 -2.200447320938110352e-01 -2.182032540440559387e-02 -7.255951315164566040e-02 1.815235763788223267e-01
3.810000000000000000e+02 4.463684082031250000e+00 1.139166474342346191e+00 -4.131799340248107910e-01 -3.135918453335762024e-02 -1.333617269992828369e-01 2.492052018642425537e-01
3.820000000000000000e+02 6.365135669708251953e+00 3.952618837356567383e-01 -1.103339433670043945e+00 8.362619578838348389e-02 -3.059139549732208252e-01 7.227504998445510864e-02
3.830000000000000000e+02 5.593280792236328125e+00 3.967505395412445068e-01 -9.113491177558898926e-01 -7.822369039058685303e-02 -2.968718409538269043e-01 1.569026261568069458e-01
3.840000000000000000e+02 6.794600963592529297e+00 1.134530782699584961e+00 -7.020457386970520020e-01 -1.009749546647071838e-01 -2.409062087535858154e-01 3.763165175914764404e-01
3.850000000000000000e+02 7.917861938476562500e+00 3.915808498859405518e-01 -1.986112236976623535e+00 1.623563319444656372e-01 -5.471267700195312500e-01 1.570142656564712524e-01
3.860000000000000000e+02 8.396533966064453125e+00 1.129030942916870117e+00 -1.275223731994628906e+00 -4.501601159572601318e-01 -5.176151394844055176e-01 9.523240327835083008e-01
3.870000000000000000e+02 8.729803085327148438e+00 3.890309035778045654e-01 -3.092597484588623047e+00 -4.380753934383392334e-01 -1.059201836585998535e+00 6.900392770767211914e-01
3.880000000000000000e+02 3.686960220336914062e+00 1.139253854751586914e+00 -2.501178979873657227e-01 -1.962315291166305542e-02 -8.092232048511505127e-02 1.669384092092514038e-01
3.890000000000000000e+02 1.062211632728576660e+00 3.716512620449066162e-01 -3.645910322666168213e-02 -1.258437335491180420e-02 -1.471304334700107574e-02 2.544642612338066101e-02
3.900000000000000000e+02 6.017177581787109375e+00 1.135261893272399902e+00 -6.858038902282714844e-01 -8.240344375371932983e-02 -2.304622083902359009e-01 3.865537345409393311e-01
3.910000000000000000e+02 3.277873992919921875e+00 3.992035090923309326e-01 -3.250488638877868652e-01 1.411454472690820694e-02 -9.328030049800872803e-02 5.113292858004570007e-02
3.920000000000000000e+02 6.978249549865722656e-01 -1.128299713134765625e+00 -1.955940388143062592e-02 -2.079118229448795319e-02 -1.210517622530460358e-02 -2.274576574563980103e-02
3.930000000000000000e+02 6.852404594421386719e+00 -3.869649767875671387e-01 -9.676901102066040039e-01 7.683213334530591965e-03 -2.880020737648010254e-01 -8.318593353033065796e-02
3.940000000000000000e+02 9.448759078979492188e+00 -1.209689140319824219e+00 -1.173784494400024414e+00 9.985351562500000000e-02 -3.221792876720428467e-01 -2.416750639677047729e-01
3.950000000000000000e+02 8.941246986389160156e+00 -3.296266794204711914e-01 -1.443812727928161621e+00 1.161202508956193924e-02 -4.296602308750152588e-01 -8.064047247171401978e-02
3.960000000000000000e+02 8.335345268249511719e+00 -6.905412077903747559e-01 -1.203460812568664551e+00 1.820595003664493561e-02 -3.555764555931091309e-01 -1.387116461992263794e-01
3.970000000000000000e+02 8.630537986755371094e+00 -1.226066827774047852e+00 -1.070052862167358398e+00 4.426960647106170654e-02 -3.077349960803985596e-01 -2.420230805873870850e-01
3.980000000000000000e+02 7.656143188476562500e+00 -4.096021056175231934e-01 -1.187973737716674805e+00 -1.557062659412622452e-02 -3.610633015632629395e-01 -1.057047694921493530e-01
3.990000000000000000e+02 7.194459915161132812e+00 -1.149602055549621582e+00 -7.757173776626586914e-01 2.361336722970008850e-03 -2.320068031549453735e-01 -2.581697106361389160e-01
4.000000000000000000e+02 6.023734569549560547e+00 -3.838920295238494873e-01 -7.749692201614379883e-01 -9.821782819926738739e-03 -2.354372888803482056e-01 -9.134160727262496948e-02
4.010000000000000000e+02 4.319018363952636719e+00 -3.891163170337677002e-01 -4.073782563209533691e-01 -1.446364074945449829e-02 -1.265525668859481812e-01 -7.323110848665237427e-02
4.020000000000000000e+02 2.238691329956054688e+00 -7.211341261863708496e-01 -1.024096235632896423e-01 -1.410964690148830414e-02 -3.495578095316886902e-02 -6.989146023988723755e-02
4.030000000000000000e+02 1.676615476608276367e+00 -5.694833993911743164e-01 -4.871020093560218811e-02 -1.190185733139514923e-02 -1.818361692130565643e-02 -3.053890541195869446e-02
4.040000000000000000e+02 3.953647613525390625e-01 -5.602770447731018066e-01 -9.316970244981348515e-04 -2.287247451022267342e-03 -9.656833135522902012e-04 -1.359200337901711464e-03
4.050000000000000000e+02 9.534312248229980469e+00 -6.996266841888427734e-01 -1.418791770935058594e+00 8.607351034879684448e-02 -3.998154997825622559e-01 -6.928563117980957031e-02
4.060000000000000000e+02 6.396026134490966797e+00 -1.126964926719665527e+00 -6.863705515861511230e-01 -1.616646721959114075e-02 -2.107611000537872314e-01 -2.492375820875167847e-01
4.070000000000000000e+02 5.185924053192138672e+00 -3.857116997241973877e-01 -5.783268213272094727e-01 2.492367988452315331e-03 -1.727503389120101929e-01 -7.625102996826171875e-02
4.080000000000000000e+02 3.878553390502929688e+00 -1.129116296768188477e+00 -2.923126518726348877e-01 -2.567305229604244232e-02 -9.539571404457092285e-02 -1.763215363025665283e-01
4.090000000000000000e+02 4.740154266357421875e+00 -1.125711679458618164e+00 -4.216086566448211670e-01 -2.580455876886844635e-02 -1.342239677906036377e-01 -2.058402150869369507e-01
4.100000000000000000e+02 3.574881792068481445e+00 -3.025752305984497070e-01 -2.559915482997894287e-01 -1.283318735659122467e-02 -8.064742386341094971e-02 -4.189323633909225464e-02
4.110000000000000000e+02 2.130129337310791016e+00 -1.226430535316467285e+00 -1.030540391802787781e-01 -4.034197330474853516e-02 -4.301880300045013428e-02 -1.025911942124366760e-01
4.120000000000000000e+02 1.117072105407714844e+00 -3.882997334003448486e-01 -1.529724337160587311e-02 -5.543760955333709717e-03 -6.252301391214132309e-03 -1.064664032310247421e-02
4.130000000000000000e+02 9.606236457824707031e+00 -2.499374747276306152e-01 -1.592152476310729980e+00 4.085434600710868835e-02 -4.653894305229187012e-01 1.334879361093044281e-02
4.140000000000000000e+02 1.379248023033142090e+00 -1.190110325813293457e+00 -4.395876079797744751e-02 -4.099365696310997009e-02 -2.548572421073913574e-02 -5.790571123361587524e-02
4.150000000000000000e+02 7.919063568115234375e+00 -1.227518677711486816e+00 -8.709835410118103027e-01 -8.611895143985748291e-03 -2.638786435127258301e-01 -2.519100308418273926e-01
4.160000000000000000e+02 5.572659969329833984e+00 -1.123892068862915039e+00 -5.441824197769165039e-01 -1.000693626701831818e-02 -1.662568002939224243e-01 -2.208523452281951904e-01
4.170000000000000000e+02 2.979942083358764648e+00 -1.179802298545837402e+00 -1.836423724889755249e-01 -3.307508304715156555e-02 -6.501523405313491821e-02 -1.519946604967117310e-01
4.180000000000000000e+02 2.178275585174560547e+00 -2.547035813331604004e-01 -7.380083948373794556e-02 2.192263724282383919e-03 -2.148257195949554443e-02 -1.969857513904571533e-02
4.190000000000000000e+02 2.901644706726074219e+00 -2.324463427066802979e-01 -1.303478926420211792e-01 1.395359984599053860e-03 -3.868575766682624817e-02 -1.228112634271383286e-02
4.200000000000000000e+02 2.983987569808959961e+00 -6.522486209869384766e-01 -2.076427191495895386e-01 -2.949117915704846382e-03 -6.317754834890365601e-02 -9.092781692743301392e-02
4.210000000000000000e+02 1.020480155944824219e+01 -1.887529492378234863e+00 -9.043300151824951172e-01 9.788392484188079834e-02 -2.419338226318359375e-01 -3.535033762454986572e-01
4.220000000000000000e+02 4.598664760589599609e+00 -1.964395761489868164e+00 -2.974655926227569580e-01 -5.087314918637275696e-02 -1.045016273856163025e-01 -3.019027113914489746e-01
4.230000000000000000e+02 5.626116991043090820e-01 -1.079085636138916016e+01 1.222633291035890579e-02 -9.968274235725402832e-01 -2.953803241252899170e-01 -1.144939567893743515e-02
4.240000000000000000e+02 6.669888973236083984e+00 -1.566639423370361328e+01 1.123305633664131165e-01 5.244799852371215820e-01 1.910431683063507080e-01 2.660999894142150879e-01
4.250000000000000000e+02 1.905112648010253906e+01 -2.168858528137207031e+01 -4.224647954106330872e-02 2.304384946823120117e+00 6.786415576934814453e-01 -3.917868435382843018e-01
4.260000000000000000e+02 2.497488021850585938e+01 -3.526923751831054688e+01 1.435299497097730637e-02 1.519465088844299316e+00 4.601454138755798340e-01 -2.280348986387252808e-01
4.270000000000000000e+02 3.267379379272460938e+01 -3.250560760498046875e+01 5.007741451263427734e-01 1.088850617408752441e+00 4.768874347209930420e-01 -7.189449667930603027e-01
4.280000000000000000e+02 3.825229263305664062e+01 -4.149368667602539062e+01 1.166693329811096191e+00 2.821190059185028076e-01 4.346436858177185059e-01 -2.547549903392791748e-01
4.290000000000000000e+02 4.372588348388671875e+01 -4.048912048339843750e+01 7.208693623542785645e-01 3.254888772964477539e+00 1.192727446556091309e+00 6.313381791114807129e-01
4.300000000000000000e+02 3.966708374023437500e+01 -3.958218002319335938e+01 5.848796367645263672e-01 3.597640991210937500e-01 2.833931148052215576e-01 -4.378394782543182373e-01
4.310000000000000000e+02 1.695945501327514648e+00 -1.100433731079101562e+01 3.287507966160774231e-02 -7.024446129798889160e-01 -2.008708566427230835e-01 -2.190833166241645813e-02
4.320000000000000000e+02 6.003503203392028809e-01 -1.780623435974121094e+01 -2.410226967185735703e-03 -7.309044599533081055e-01 -2.199943959712982178e-01 4.625930637121200562e-02
4.330000000000000000e+02 7.550082683563232422e+00 -2.474306106567382812e+01 -5.997382476925849915e-02 7.962017655372619629e-01 2.208683788776397705e-01 2.606455087661743164e-01
4.340000000000000000e+02 1.628678512573242188e+01 -2.911777114868164062e+01 -1.456717550754547119e-01 1.582103252410888672e+00 4.309294521808624268e-01 -3.689184784889221191e-02
4.350000000000000000e+02 2.348333358764648438e+01 -3.784852981567382812e+01 -6.711436063051223755e-02 1.474289894104003906e+00 4.221526682376861572e-01 -1.092041954398155212e-01
4.360000000000000000e+02 3.197659873962402344e+01 -4.106989669799804688e+01 3.960781097412109375e-01 9.257033467292785645e-01 3.965344429016113281e-01 -1.189536824822425842e-01
4.370000000000000000e+02 3.022961235046386719e+01 -3.643140792846679688e+01 1.576837897300720215e-01 1.245843768119812012e+00 4.210582673549652100e-01 -3.569160699844360352e-01
4.380000000000000000e+02 1.805377960205078125e+00 -1.789586830139160156e+01 7.765669375658035278e-03 -4.531899690628051758e-01 -1.336272954940795898e-01 1.198865100741386414e-01
4.390000000000000000e+02 6.581278443336486816e-01 -2.343005752563476562e+01 -3.542440244928002357e-04 -3.007713258266448975e-01 -9.033767133951187134e-02 4.813729971647262573e-02
4.400000000000000000e+02 5.951538562774658203e+00 -3.209887313842773438e+01 -5.201415345072746277e-02 6.190187335014343262e-01 1.701013743877410889e-01 1.430326253175735474e-01
4.410000000000000000e+02 1.765826225280761719e+01 -4.080041503906250000e+01 -1.489238291978836060e-01 1.376997828483581543e+00 3.684222102165222168e-01 -1.847826992161571980e-03
4.420000000000000000e+02 2.259265327453613281e+01 -4.089167785644531250e+01 -9.547647088766098022e-02 1.456693291664123535e+00 4.083650410175323486e-01 -4.033118486404418945e-02
4.430000000000000000e+02 6.808257699012756348e-01 -2.484140014648437500e+01 -2.291820710524916649e-03 -2.031995654106140137e-01 -6.164741516113281250e-02 4.469426721334457397e-02
4.440000000000000000e+02 7.295641303062438965e-01 -3.051114082336425781e+01 -1.277947099879384041e-03 1.100030243396759033e-01 3.261752426624298096e-02 3.215835243463516235e-02
4.450000000000000000e+02 7.563945055007934570e-01 -3.194258117675781250e+01 -5.194595360080711544e-05 1.716374605894088745e-01 5.147565156221389771e-02 3.149089962244033813e-02
4.460000000000000000e+02 6.789941787719726562e-01 -3.733446121215820312e+01 1.005920954048633575e-02 3.304539620876312256e-01 1.021539494395256042e-01 2.020908333361148834e-02
4.470000000000000000e+02 8.388081550598144531e+00 -4.072010803222656250e+01 -8.106891810894012451e-02 8.190074563026428223e-01 2.213815748691558838e-01 2.482190914452075958e-02
4.480000000000000000e+02 2.376756906509399414e+00 -3.781612014770507812e+01 3.477365709841251373e-03 4.223009049892425537e-01 1.277334839105606079e-01 5.470059067010879517e-02
4.490000000000000000e+02 4.699882888793945312e+01 -4.117902374267578125e+01 9.020046889781951904e-02 7.235156536102294922e+00 2.197607278823852539e+00 -1.637164205312728882e-01
4.500000000000000000e+02 4.151404190063476562e+01 -3.976496124267578125e+01 1.376821994781494141e+00 1.225213289260864258e+00 7.806105613708496094e-01 8.486416339874267578e-01
4.510000000000000000e+02 4.470825958251953125e+01 -3.794733810424804688e+01 2.697475671768188477e+00 8.605998992919921875e+00 3.391042470932006836e+00 1.637557744979858398e+00
4.520000000000000000e+02 4.495508956909179688e+01 -3.562430191040039062e+01 8.725459575653076172e-01 1.002361965179443359e+01 3.268849611282348633e+00 -4.210258424282073975e-01
4.530000000000000000e+02 4.604920959472656250e+01 -3.673902511596679688e+01 1.943856239318847656e+00 8.854844093322753906e+00 3.239610195159912109e+00 7.463297247886657715e-02
4.540000000000000000e+02 4.774180984497070312e+01 -3.180789375305175781e+01 7.846353054046630859e-01 6.669329166412353516e+00 2.236189365386962891e+00 -1.842922158539295197e-02
4.550000000000000000e+02 4.642278289794921875e+01 -2.429622077941894531e+01 -2.106075435876846313e-01 4.939661502838134766e+00 1.418716192245483398e+00 -3.579337894916534424e-01
4.560000000000000000e+02 4.876385879516601562e+01 -2.045368576049804688e+01 -3.853525221347808838e-01 5.080524444580078125e+00 1.408551573753356934e+00 -7.342253625392913818e-02
4.570000000000000000e+02 4.676351547241210938e+01 -1.113278293609619141e+01 -3.258146643638610840e-01 4.079330444335937500e+00 1.126054763793945312e+00 -5.469302833080291748e-02
4.580000000000000000e+02 4.752875900268554688e+01 -1.474958658218383789e+00 -1.448920369148254395e-01 4.029376029968261719e+00 1.165345191955566406e+00 2.573798894882202148e-01
4.590000000000000000e+02 4.810390472412109375e+01 6.493976593017578125e+00 -7.044331729412078857e-02 4.185890197753906250e+00 1.234634160995483398e+00 6.632881164550781250e-01
4.600000000000000000e+02 4.600133514404296875e+01 1.475859737396240234e+01 1.808439791202545166e-01 3.615742206573486328e+00 1.138975858688354492e+00 1.250033259391784668e+00
4.610000000000000000e+02 5.013515090942382812e+01 2.062121391296386719e+01 1.675200909376144409e-01 5.418220996856689453e+00 1.675722360610961914e+00 1.781437397003173828e+00
4.620000000000000000e+02 4.652312469482421875e+01 2.494076347351074219e+01 1.441931605339050293e+00 2.821685075759887695e+00 1.279085040092468262e+00 2.091599941253662109e+00
4.630000000000000000e+02 5.426769256591796875e+01 3.183191490173339844e+01 1.613231182098388672e+00 1.287543106079101562e+01 4.346598625183105469e+00 3.070121526718139648e+00
4.640000000000000000e+02 5.159066772460937500e+01 3.169091415405273438e+01 4.390187740325927734e+00 7.829260349273681641e+00 3.665834426879882812e+00 5.332063198089599609e+00
4.650000000000000000e+02 7.241811370849609375e+01 -4.119449615478515625e+01 1.292577832937240601e-01 7.278189182281494141e+00 2.222234010696411133e+00 3.620751947164535522e-02
4.660000000000000000e+02 7.874114990234375000e+01 -4.041639328002929688e+01 -4.053641576319932938e-03 7.411170482635498047e+00 2.222135066986083984e+00 1.865654811263084412e-02
4.670000000000000000e+02 7.692413330078125000e+01 -3.772482299804687500e+01 2.247939817607402802e-02 7.444804191589355469e+00 2.240185022354125977e+00 7.523248344659805298e-02
4.680000000000000000e+02 7.785375976562500000e+01 -3.059666442871093750e+01 6.480240728706121445e-03 7.708294868469238281e+00 2.314432621002197266e+00 1.170855760574340820e-01
4.690000000000000000e+02 7.806127166748046875e+01 -2.376003837585449219e+01 -2.472044667229056358e-03 8.093841552734375000e+00 2.427410840988159180e+00 1.213363856077194214e-01
4.700000000000000000e+02 7.806607818603515625e+01 -1.678839111328125000e+01 -3.089555306360125542e-03 8.472126007080078125e+00 2.540710926055908203e+00 1.012674421072006226e-01
4.710000000000000000e+02 7.809223175048828125e+01 -9.802892684936523438e+00 -1.340128481388092041e-02 8.756545066833496094e+00 2.622943162918090820e+00 5.598961934447288513e-02
4.720000000000000000e+02 7.807393646240234375e+01 -2.861726760864257812e+00 -3.700868226587772369e-03 8.875144958496093750e+00 2.661433219909667969e+00 -5.403019167715683579e-05
4.730000000000000000e+02 7.808559417724609375e+01 4.125253200531005859e+00 -2.350895293056964874e-02 8.798884391784667969e+00 2.632612705230712891e+00 -7.305629551410675049e-02
4.740000000000000000e+02 7.808574676513671875e+01 1.108108425140380859e+01 3.272021422162652016e-03 8.460595130920410156e+00 2.539160251617431641e+00 -1.608671098947525024e-01
4.750000000000000000e+02 7.804990386962890625e+01 1.946979522705078125e+01 2.530528977513313293e-02 7.646324634552001953e+00 2.301488876342773438e+00 -2.764897048473358154e-01
4.760000000000000000e+02 7.676948547363281250e+01 2.366234588623046875e+01 4.590228572487831116e-02 7.249948978424072266e+00 2.188755273818969727e+00 -4.594822824001312256e-01
4.770000000000000000e+02 7.934822845458984375e+01 3.199832916259765625e+01 5.299894884228706360e-02 5.683933734893798828e+00 1.721079826354980469e+00 -8.422538638114929199e-02
4.780000000000000000e+02 7.714125823974609375e+01 3.919287872314453125e+01 7.187411189079284668e-02 5.780670166015625000e+00 1.755763292312622070e+00 3.671023622155189514e-02
4.790000000000000000e+02 7.902754211425781250e+01 3.746459579467773438e+01 9.732030332088470459e-02 5.478358268737792969e+00 1.672703504562377930e+00 4.300235211849212646e-02
4.800000000000000000e+02 7.153753662109375000e+01 3.841669082641601562e+01 1.822891235351562500e-01 7.827229022979736328e+00 2.402855396270751953e+00 -1.181497350335121155e-01
4.810000000000000000e+02 6.855092620849609375e+01 3.783429336547851562e+01 5.097150802612304688e-01 8.566128730773925781e+00 2.722753047943115234e+00 3.084452764596790075e-04
4.820000000000000000e+02 7.407390594482421875e+01 3.151573944091796875e+01 2.672423124313354492e-01 7.133344650268554688e+00 2.220176219940185547e+00 -5.243955254554748535e-01
4.830000000000000000e+02 7.294739532470703125e+01 1.812070465087890625e+01 -1.569624245166778564e-01 7.918914794921875000e+00 2.328585863113403320e+00 -6.548181772232055664e-01
4.840000000000000000e+02 7.286731719970703125e+01 1.119365215301513672e+01 -1.390071213245391846e-01 8.090698242187500000e+00 2.385507345199584961e+00 -3.873036205768585205e-01
4.850000000000000000e+02 7.260832214355468750e+01 1.337966442108154297e+00 -1.325855255126953125e-01 8.133282661437988281e+00 2.400209188461303711e+00 -7.555503398180007935e-02
4.860000000000000000e+02 7.221488952636718750e+01 -5.544813156127929688e+00 -1.061308160424232483e-01 8.036703109741210938e+00 2.379171609878540039e+00 9.848764538764953613e-02
4.870000000000000000e+02 7.303279113769531250e+01 -1.135331821441650391e+01 -7.265421748161315918e-02 8.043850898742675781e+00 2.391359090805053711e+00 2.069470137357711792e-01
4.880000000000000000e+02 7.281444549560546875e+01 -1.805040740966796875e+01 -4.885499924421310425e-02 7.854286193847656250e+00 2.341629266738891602e+00 3.117932081222534180e-01
4.890000000000000000e+02 7.268462371826171875e+01 -2.395100593566894531e+01 -8.196078124456107616e-04 7.652868270874023438e+00 2.295614719390869141e+00 3.555580675601959229e-01
4.900000000000000000e+02 7.374617004394531250e+01 -3.109269142150878906e+01 5.754134431481361389e-02 7.489614963531494141e+00 2.264146804809570312e+00 2.598063051700592041e-01
4.910000000000000000e+02 6.457571411132812500e+01 -3.738638687133789062e+01 4.103951156139373779e-01 6.878466129302978516e+00 2.186658382415771484e+00 2.143832147121429443e-01
4.920000000000000000e+02 6.773005676269531250e+01 -4.112760925292968750e+01 3.004621267318725586e-01 7.045534133911132812e+00 2.203798770904541016e+00 4.998745769262313843e-02
4.930000000000000000e+02 6.140806198120117188e+01 4.094697189331054688e+01 -9.338019490242004395e-01 1.215887546539306641e+01 3.367522001266479492e+00 6.021041870117187500e-01
4.940000000000000000e+02 6.294095611572265625e+01 3.014521026611328125e+01 7.357964515686035156e-01 9.429885864257812500e+00 3.049704551696777344e+00 -6.069269180297851562e-01
4.950000000000000000e+02 6.711219787597656250e+01 2.650928688049316406e+01 1.623066961765289307e-01 8.412002563476562500e+00 2.572292804718017578e+00 -8.350999951362609863e-01
4.960000000000000000e+02 6.680179595947265625e+01 1.579516220092773438e+01 -3.839688897132873535e-01 8.016902923583984375e+00 2.289880275726318359e+00 -4.660286307334899902e-01
4.970000000000000000e+02 6.655134582519531250e+01 1.023742580413818359e+01 -4.114719033241271973e-01 7.724403381347656250e+00 2.193879365921020508e+00 -2.755726277828216553e-01
4.980000000000000000e+02 6.600975799560546875e+01 3.154605865478515625e+00 -3.271855115890502930e-01 7.406817436218261719e+00 2.123889684677124023e+00 -4.320624098181724548e-02
4.990000000000000000e+02 6.629981994628906250e+01 -2.725130796432495117e+00 -2.807630002498626709e-01 7.334825515747070312e+00 2.116218805313110352e+00 1.041531264781951904e-01
5.000000000000000000e+02 6.689344787597656250e+01 -1.232244586944580078e+01 -1.930053979158401489e-01 7.310348033905029297e+00 2.135202884674072266e+00 3.172797560691833496e-01
5.010000000000000000e+02 6.499743652343750000e+01 -1.680290412902832031e+01 -1.812368035316467285e-01 7.080573558807373047e+00 2.069800853729248047e+00 4.189328253269195557e-01
5.020000000000000000e+02 6.445052337646484375e+01 -3.290493392944335938e+01 2.934102118015289307e-01 6.924522399902343750e+00 2.165379762649536133e+00 3.836483955383300781e-01
5.030000000000000000e+02 5.805023193359375000e+01 -4.059428024291992188e+01 6.968520879745483398e-01 6.641598701477050781e+00 2.201535224914550781e+00 7.261872291564941406e-02
5.040000000000000000e+02 6.296113967895507812e+01 -4.073264694213867188e+01 5.175341963768005371e-01 6.805155754089355469e+00 2.196806907653808594e+00 7.544624805450439453e-02
5.050000000000000000e+02 5.356308364868164062e+01 3.874473190307617188e+01 -3.646949768066406250e+00 9.330922126770019531e+00 1.705191850662231445e+00 -3.088980674743652344e+00
5.060000000000000000e+02 4.883137512207031250e+01 3.824507141113281250e+01 -3.633874893188476562e+00 -9.834297895431518555e-01 -1.385191440582275391e+00 -3.348616957664489746e-01
5.070000000000000000e+02 5.015232467651367188e+01 3.892089462280273438e+01 -4.036545753479003906e+00 1.386515647172927856e-01 -1.169368267059326172e+00 -1.143579840660095215e+00
5.080000000000000000e+02 4.754176330566406250e+01 3.764654159545898438e+01 -2.163182258605957031e+00 -4.773299396038055420e-01 -7.921536564826965332e-01 -1.340290904045104980e+00
5.090000000000000000e+02 4.001471710205078125e+01 3.822374343872070312e+01 -1.275119423866271973e+00 -6.130273938179016113e-01 -5.664440393447875977e-01 -4.729125797748565674e-01
5.100000000000000000e+02 3.317137908935546875e+01 3.786009597778320312e+01 -8.680687546730041504e-01 -3.873023092746734619e-01 -3.766113221645355225e-01 -2.422077953815460205e-01
5.110000000000000000e+02 1.767310142517089844e+01 4.067335510253906250e+01 -2.361247092485427856e-01 1.080148577690124512e+00 2.532071471214294434e-01 -1.938699185848236084e-02
5.120000000000000000e+02 1.233766746520996094e+01 3.770388412475585938e+01 -1.217880100011825562e-01 1.742945909500122070e+00 4.863473773002624512e-01 -8.059194684028625488e-02
5.130000000000000000e+02 2.485699415206909180e+00 3.673077392578125000e+01 -1.781313493847846985e-02 3.368497371673583984e+00 1.005205273628234863e+00 -1.193667482584714890e-02
5.140000000000000000e+02 7.015244364738464355e-01 3.318389892578125000e+01 1.034300681203603745e-02 3.627602100372314453e+00 1.091383457183837891e+00 -1.832067593932151794e-02
5.150000000000000000e+02 2.192364931106567383e+00 3.012032699584960938e+01 -2.085364982485771179e-02 3.270910024642944336e+00 9.750169515609741211e-01 -6.492479890584945679e-02
5.160000000000000000e+02 6.977330446243286133e-01 2.750237464904785156e+01 1.099781366065144539e-03 3.449389457702636719e+00 1.035146832466125488e+00 -4.210351407527923584e-02
5.170000000000000000e+02 2.001232385635375977e+00 2.572300529479980469e+01 -1.739894598722457886e-02 3.102653026580810547e+00 9.255762100219726562e-01 -1.404194384813308716e-01
5.180000000000000000e+02 7.094707012176513672e+00 1.859865951538085938e+01 -3.449045419692993164e-01 2.250388383865356445e+00 5.716452002525329590e-01 -7.761906385421752930e-01
5.190000000000000000e+02 1.879110527038574219e+01 9.281761169433593750e+00 -2.300627380609512329e-01 2.517002522945404053e-01 6.491259206086397171e-03 -2.578489780426025391e-01
5.200000000000000000e+02 1.898380851745605469e+01 1.127043533325195312e+01 -4.807058870792388916e-01 4.658977687358856201e-01 -4.442439880222082138e-03 -2.567446529865264893e-01
5.210000000000000000e+02 2.171483039855957031e+01 1.226034641265869141e+01 -6.753159165382385254e-01 -5.868477821350097656e-01 -3.786491155624389648e-01 -4.966183900833129883e-01
5.220000000000000000e+02 2.370078849792480469e+01 1.626787376403808594e+01 -7.613965272903442383e-01 -5.051814317703247070e-01 -3.799733817577362061e-01 -6.051710844039916992e-01
5.230000000000000000e+02 1.498805046081542969e+01 2.368201637268066406e+01 -5.062563419342041016e-01 1.355158805847167969e+00 2.546707391738891602e-01 -4.042253792285919189e-01
5.240000000000000000e+02 8.908998489379882812e+00 3.061862182617187500e+01 -1.528759151697158813e-01 2.239108085632324219e+00 6.258696913719177246e-01 -2.122275084257125854e-01
5.250000000000000000e+02 7.229764461517333984e+00 2.564113044738769531e+01 -1.942306458950042725e-01 2.350634813308715820e+00 6.469212770462036133e-01 -3.371019065380096436e-01
5.260000000000000000e+02 8.121178627014160156e+00 2.394122505187988281e+01 -2.852236926555633545e-01 2.239136934280395508e+00 5.861740112304687500e-01 -4.195389747619628906e-01
5.270000000000000000e+02 2.078343868255615234e+00 4.163386535644531250e+01 5.725032091140747070e-02 3.486952781677246094e+00 1.063260912895202637e+00 1.563553325831890106e-02
5.280000000000000000e+02 6.117256283760070801e-01 2.041662597656250000e+01 -3.582139266654849052e-03 2.819277524948120117e+00 8.447086215019226074e-01 -8.649913966655731201e-02
5.290000000000000000e+02 1.751829624176025391e+00 1.588245773315429688e+01 -1.799407042562961578e-02 1.940509200096130371e+00 5.767545700073242188e-01 -3.829293847084045410e-01
5.300000000000000000e+02 1.211864757537841797e+01 7.464320182800292969e+00 -3.717023730278015137e-01 4.413804054260253906e+00 1.212630510330200195e+00 -1.936203956604003906e+00
5.310000000000000000e+02 1.491424274444580078e+01 5.192466735839843750e+00 1.018025875091552734e+00 3.467602968215942383e+00 1.345688700675964355e+00 1.556657075881958008e+00
5.320000000000000000e+02 5.726374387741088867e-01 1.478642845153808594e+01 2.313488349318504333e-02 1.703989744186401367e+00 5.181373953819274902e-01 -1.539278030395507812e-01
5.330000000000000000e+02 1.605036020278930664e+00 8.969206809997558594e+00 2.528695389628410339e-02 3.674634993076324463e-01 1.178251355886459351e-01 -3.634881675243377686e-01
5.340000000000000000e+02 8.968672752380371094e+00 1.885706424713134766e+00 6.057642698287963867e-01 -1.039157152175903320e+00 -1.300178617238998413e-01 7.627985477447509766e-01
5.350000000000000000e+02 1.144154262542724609e+01 2.440015316009521484e+00 7.359055042266845703e+00 1.303898990154266357e-01 2.246833562850952148e+00 -3.510862112045288086e+00
5.360000000000000000e+02 1.340894222259521484e+01 1.165421247482299805e+00 1.050009632110595703e+01 1.074592876434326172e+01 6.373807907104492188e+00 -1.608034014701843262e+00
5.370000000000000000e+02 1.214485359191894531e+01 1.524254441261291504e+00 9.743323326110839844e+00 3.093372344970703125e+00 3.851008653640747070e+00 -6.550796031951904297e-01
5.380000000000000000e+02 2.682899713516235352e+00 4.822938442230224609e+00 1.848595887422561646e-01 -7.492240983992815018e-04 5.523310601711273193e-02 -2.299462258815765381e-02
5.390000000000000000e+02 4.977566003799438477e-01 6.342735767364501953e+00 4.971591010689735413e-02 -3.695519268512725830e-01 -9.595079720020294189e-02 -4.644106701016426086e-02
5.400000000000000000e+02 5.037825107574462891e+00 2.788625717163085938e+00 2.927959561347961426e-01 -1.329354494810104370e-01 4.795815050601959229e-02 1.933597028255462646e-01
5.410000000000000000e+02 1.755668449401855469e+01 -4.755477607250213623e-01 1.380948829650878906e+01 2.930769696831703186e-02 4.151638984680175781e+00 2.270224332809448242e+00
5.420000000000000000e+02 1.764170455932617188e+01 -1.079944729804992676e+00 1.324752998352050781e+01 2.679511308670043945e+00 4.778112411499023438e+00 -2.525012016296386719e+00
5.430000000000000000e+02 1.755966377258300781e+01 -1.324940681457519531e+00 1.170814704895019531e+01 4.628954887390136719e+00 4.901130676269531250e+00 -3.642775297164916992e+00
5.440000000000000000e+02 1.715802764892578125e+01 4.798788726329803467e-01 -1.499801278114318848e+00 2.666400671005249023e+00 3.499798178672790527e-01 5.072066307067871094e+00
5.450000000000000000e+02 1.927108001708984375e+01 -2.622687816619873047e+00 -1.607909321784973145e+00 -1.679818272590637207e+00 -9.863182902336120605e-01 -1.961228013038635254e+00
5.460000000000000000e+02 1.919442939758300781e+01 -1.004018402099609375e+01 6.650660037994384766e-01 4.944623947143554688e+00 1.682907104492187500e+00 -1.356703042984008789e+00
5.470000000000000000e+02 1.772296142578125000e+01 -1.713080406188964844e+01 4.896838963031768799e-02 2.769490718841552734e+00 8.455377817153930664e-01 -3.438155949115753174e-01
5.480000000000000000e+02 2.699840354919433594e+01 -2.159059333801269531e+01 4.735286831855773926e-01 2.072774171829223633e+00 7.638908028602600098e-01 -9.512406587600708008e-01
5.490000000000000000e+02 2.820146369934082031e+01 -2.403499794006347656e+01 4.529131948947906494e-01 1.960304617881774902e+00 7.239653468132019043e-01 -8.938689827919006348e-01
5.500000000000000000e+02 3.123206329345703125e+01 -3.021372604370117188e+01 4.394316673278808594e-01 1.581207275390625000e+00 6.061916947364807129e-01 -8.094142675399780273e-01
5.510000000000000000e+02 2.993771934509277344e+01 -2.780507850646972656e+01 3.595143556594848633e-01 1.682338356971740723e+00 6.125558018684387207e-01 -7.913837432861328125e-01
5.520000000000000000e+02 1.091808795928955078e+01 -1.996844053268432617e+00 -8.607392311096191406e-01 1.136681884527206421e-01 -2.241213023662567139e-01 -3.276730179786682129e-01
5.530000000000000000e+02 9.501951217651367188e+00 -6.668836593627929688e+00 5.645406842231750488e-01 6.408023834228515625e-01 3.616029322147369385e-01 7.492250204086303711e-02
5.540000000000000000e+02 5.403342437744140625e+01 4.004825210571289062e+01 -5.067877292633056641e+00 1.145401096343994141e+01 1.915840268135070801e+00 -2.985837459564208984e+00
5.550000000000000000e+02 5.508979415893554688e+01 3.588042831420898438e+01 4.025225639343261719e+00 1.985428428649902344e+01 7.163853168487548828e+00 3.725364446640014648e+00
5.560000000000000000e+02 5.344524002075195312e+01 3.353525161743164062e+01 4.385000228881835938e+00 1.443159770965576172e+01 5.644979476928710938e+00 6.366647243499755859e+00
5.570000000000000000e+02 5.252959060668945312e+01 3.263213729858398438e+01 4.284467220306396484e+00 9.472302436828613281e+00 4.127030849456787109e+00 6.233405113220214844e+00
5.580000000000000000e+02 5.542529296875000000e+01 3.221259689331054688e+01 1.672318696975708008e+00 1.227298164367675781e+01 4.183590412139892578e+00 2.045588731765747070e+00
5.590000000000000000e+02 5.502439498901367188e+01 2.738345336914062500e+01 2.151004523038864136e-01 9.670702934265136719e+00 2.965740919113159180e+00 1.717022657394409180e+00
5.600000000000000000e+02 5.440994644165039062e+01 2.846096801757812500e+01 8.980945944786071777e-01 9.656886100769042969e+00 3.166494131088256836e+00 2.385881423950195312e+00
5.610000000000000000e+02 5.228306961059570312e+01 2.047498703002929688e+01 -1.489990949630737305e-01 6.427325248718261719e+00 1.883497953414916992e+00 1.523130416870117188e+00
5.620000000000000000e+02 5.905939865112304688e+01 1.117012786865234375e+01 -5.230829119682312012e-01 6.961108684539794922e+00 1.931407809257507324e+00 2.448821812868118286e-01
5.630000000000000000e+02 5.856154632568359375e+01 6.158393621444702148e-01 -4.005953073501586914e-01 6.305837631225585938e+00 1.771572589874267578e+00 1.962217539548873901e-01
5.640000000000000000e+02 5.896508026123046875e+01 -5.197997689247131348e-01 -3.818929791450500488e-01 6.348604202270507812e+00 1.790013313293457031e+00 2.035239934921264648e-01
5.650000000000000000e+02 5.976074981689453125e+01 -3.678165197372436523e+00 -3.702730238437652588e-01 6.438169002532958984e+00 1.820368766784667969e+00 2.002834677696228027e-01
5.660000000000000000e+02 5.446250152587890625e+01 -1.593949985504150391e+01 -3.752856552600860596e-01 5.788530826568603516e+00 1.623973608016967773e+00 2.365405112504959106e-01
5.670000000000000000e+02 5.908920288085937500e+01 -2.445071792602539062e+01 -1.429488789290189743e-02 6.562043190002441406e+00 1.964324474334716797e+00 5.194395184516906738e-01
5.680000000000000000e+02 5.758721160888671875e+01 -3.387800216674804688e+01 5.942653417587280273e-01 6.517794609069824219e+00 2.133617877960205078e+00 3.239148259162902832e-01
5.690000000000000000e+02 4.787019729614257812e+01 -3.797869873046875000e+01 1.306641578674316406e+00 6.822091579437255859e+00 2.438620090484619141e+00 -4.572481215000152588e-01
5.700000000000000000e+02 4.845933151245117188e+01 2.693586349487304688e+01 1.822151780128479004e+00 3.850765943527221680e+00 1.701875329017639160e+00 2.781376600265502930e+00
5.710000000000000000e+02 4.563899612426757812e+01 2.592347717285156250e+01 1.629790306091308594e+00 2.110277414321899414e+00 1.122020244598388672e+00 1.852251768112182617e+00
5.720000000000000000e+02 4.137942504882812500e+01 2.014251899719238281e+01 6.572130918502807617e-01 1.385822772979736328e+00 6.129107475280761719e-01 1.017724514007568359e+00
5.730000000000000000e+02 4.040681838989257812e+01 1.915792465209960938e+01 5.733645558357238770e-01 1.200834393501281738e+00 5.322597026824951172e-01 9.102742671966552734e-01
5.740000000000000000e+02 3.393772888183593750e+01 1.394345664978027344e+01 3.399658501148223877e-01 4.435964226722717285e-01 2.350686788558959961e-01 3.561582863330841064e-01
5.750000000000000000e+02 3.095906066894531250e+01 1.095609569549560547e+01 3.552069664001464844e-01 3.007759451866149902e-01 1.967948675155639648e-01 3.435176014900207520e-01
5.760000000000000000e+02 2.564976310729980469e+01 6.354928970336914062e+00 6.941735148429870605e-01 3.909808099269866943e-01 3.255462944507598877e-01 4.578967690467834473e-01
5.770000000000000000e+02 2.442124748229980469e+01 6.612713932991027832e-01 2.100403308868408203e+00 -2.533944845199584961e-01 5.541025996208190918e-01 1.268121242523193359e+00
5.780000000000000000e+02 2.252666091918945312e+01 -1.215362668037414551e+00 2.059139013290405273e+00 3.089688345789909363e-02 6.270107626914978027e-01 -1.301235675811767578e+00
5.790000000000000000e+02 2.357905006408691406e+01 -2.138695001602172852e+00 1.405845642089843750e+00 4.166978597640991211e-01 5.467630624771118164e-01 -1.445449888706207275e-01
5.800000000000000000e+02 2.555037117004394531e+01 -4.077890872955322266e+00 3.131268918514251709e-01 -9.316618554294109344e-03 9.114308655261993408e-02 1.896322071552276611e-01
5.810000000000000000e+02 3.376727676391601562e+01 -3.831095695495605469e+00 3.754031658172607422e-01 7.882179617881774902e-01 3.490863442420959473e-01 -1.055768877267837524e-01
5.820000000000000000e+02 4.105867767333984375e+01 -3.173119783401489258e+00 1.133859679102897644e-01 2.509694337844848633e+00 7.869240641593933105e-01 7.152144610881805420e-02
5.830000000000000000e+02 4.804272079467773438e+01 -5.197353959083557129e-01 -1.355690956115722656e-01 4.137463569641113281e+00 1.200568437576293945e+00 3.107657432556152344e-01
5.840000000000000000e+02 4.004555892944335938e+01 -4.442001342773437500e+00 9.556458145380020142e-02 2.264381170272827148e+00 7.079837322235107422e-01 -6.977969780564308167e-03
5.850000000000000000e+02 4.246370315551757812e+01 5.939239025115966797e+00 2.646726071834564209e-01 2.694284915924072266e+00 8.876872658729553223e-01 6.102518439292907715e-01
5.860000000000000000e+02 4.013921356201171875e+01 6.336369037628173828e+00 4.031162858009338379e-01 2.055063962936401367e+00 7.374541163444519043e-01 6.069463491439819336e-01
5.870000000000000000e+02 2.100177001953125000e+01 3.123228311538696289e+00 -1.224408507347106934e+00 3.549244999885559082e-01 -2.608452141284942627e-01 -1.778530776500701904e-01
5.880000000000000000e+02 1.560256385803222656e+01 8.393689990043640137e-01 -1.401823043823242188e+01 -1.165058612823486328e+00 -4.554986476898193359e+00 -1.182979106903076172e+01
5.890000000000000000e+02 1.315060043334960938e+01 1.447003006935119629e+00 1.130252933502197266e+01 6.092365741729736328e+00 5.218468666076660156e+00 -2.894650220870971680e+00
5.900000000000000000e+02 1.132720947265625000e+01 1.680380105972290039e+00 5.962819576263427734e+00 -2.044676065444946289e+00 1.175443053245544434e+00 6.479437351226806641e-01
5.910000000000000000e+02 2.565863418579101562e+01 1.827632331848144531e+01 -7.979235649108886719e-01 -6.178246736526489258e-01 -4.247244596481323242e-01 -6.696363091468811035e-01
5.920000000000000000e+02 2.240884208679199219e+01 2.414906311035156250e+01 -5.454453825950622559e-01 2.428240627050399780e-01 -9.078639745712280273e-02 -3.925700485706329346e-01
5.930000000000000000e+02 2.051767730712890625e+01 3.091355323791503906e+01 -4.199308156967163086e-01 5.790846347808837891e-01 4.774613678455352783e-02 -3.227487504482269287e-01
5.940000000000000000e+02 2.258060264587402344e+01 4.082355499267578125e+01 -3.764295876026153564e-01 4.462512731552124023e-01 2.094650827348232269e-02 -8.006417751312255859e-02
5.950000000000000000e+02 3.117821311950683594e+01 2.612881851196289062e+01 -6.918112635612487793e-01 -7.027617692947387695e-01 -4.183719158172607422e-01 -7.458750009536743164e-01
5.960000000000000000e+02 3.603983688354492188e+01 2.740629005432128906e+01 -8.552816510200500488e-01 -1.055013179779052734e+00 -5.730884671211242676e-01 -9.176514148712158203e-01
5.970000000000000000e+02 3.790378570556640625e+01 2.959931182861328125e+01 -9.968084096908569336e-01 -9.935016036033630371e-01 -5.970929861068725586e-01 -9.324275851249694824e-01
5.980000000000000000e+02 2.777309989929199219e+01 3.015492630004882812e+01 -5.309837460517883301e-01 -2.521277368068695068e-01 -2.349334508180618286e-01 -4.838459193706512451e-01
5.990000000000000000e+02 2.942384719848632812e+01 2.892577552795410156e+01 -6.604156494140625000e-01 -4.139348864555358887e-01 -3.223051726818084717e-01 -5.829311609268188477e-01
6.000000000000000000e+02 3.251413726806640625e+01 2.308239364624023438e+01 -7.427209019660949707e-01 -8.878823518753051758e-01 -4.891809821128845215e-01 -8.377134799957275391e-01
6.010000000000000000e+02 3.157482719421386719e+01 2.207531547546386719e+01 -7.881425023078918457e-01 -8.264348506927490234e-01 -4.843732118606567383e-01 -8.357998132705688477e-01
6.020000000000000000e+02 2.760144615173339844e+01 1.820004653930664062e+01 -9.301374554634094238e-01 -8.549693226814270020e-01 -5.355320572853088379e-01 -8.525158166885375977e-01
6.030000000000000000e+02 3.761869049072265625e+01 3.231967544555664062e+01 -9.926123619079589844e-01 -8.335019350051879883e-01 -5.478342771530151367e-01 -7.421104907989501953e-01
6.040000000000000000e+02 3.682778167724609375e+01 3.839180755615234375e+01 -1.172288417816162109e+00 -5.322380065917968750e-01 -5.113579630851745605e-01 -4.358234703540802002e-01
6.050000000000000000e+02 2.861734771728515625e+01 -4.911949634552001953e+00 8.273062855005264282e-02 -9.211881458759307861e-02 -2.816455904394388199e-03 -8.289087563753128052e-02
6.060000000000000000e+02 3.248968124389648438e+01 -1.128829097747802734e+01 -2.044825628399848938e-02 2.734287381172180176e-01 7.589414715766906738e-02 3.011985123157501221e-02
6.070000000000000000e+02 3.282886886596679688e+01 -1.425459384918212891e+01 -7.813780754804611206e-02 1.199222579598426819e-01 1.253533642739057541e-02 -2.227725461125373840e-02
6.080000000000000000e+02 3.564790344238281250e+01 -1.898909187316894531e+01 1.206209957599639893e-01 7.497060894966125488e-01 2.610981166362762451e-01 -3.383271992206573486e-01
6.090000000000000000e+02 4.049743270874023438e+01 -2.727618789672851562e+01 6.051579117774963379e-01 2.329685449600219727e+00 8.804529905319213867e-01 -1.216876745223999023e+00
6.100000000000000000e+02 4.159798431396484375e+01 -2.655349731445312500e+01 3.684529662132263184e-01 3.062817811965942383e+00 1.029381275177001953e+00 -1.163212180137634277e+00
6.110000000000000000e+02 4.591963577270507812e+01 -3.346611022949218750e+01 1.101195216178894043e+00 7.782109737396240234e+00 2.664991378784179688e+00 -4.531500339508056641e-01
6.120000000000000000e+02 4.752809906005859375e+01 -2.996744346618652344e+01 2.987741231918334961e-01 6.228938102722167969e+00 1.958313703536987305e+00 -1.005033105611801147e-01
6.130000000000000000e+02 3.602919769287109375e+01 -1.717883682250976562e+01 -7.173236925154924393e-03 9.956517219543457031e-01 2.965435385704040527e-01 -2.929896712303161621e-01
6.140000000000000000e+02 4.019178771972656250e+01 -2.425900840759277344e+01 2.556692659854888916e-01 2.315792322158813477e+00 7.714384794235229492e-01 -8.592437505722045898e-01
6.150000000000000000e+02 3.816125106811523438e+01 -3.875925445556640625e+01 6.610420942306518555e-01 3.308136761188507080e-01 2.975567281246185303e-01 -5.655216574668884277e-01
6.160000000000000000e+02 3.732536697387695312e+01 -3.764900970458984375e+01 7.347657084465026855e-01 4.872938394546508789e-01 3.666178584098815918e-01 -3.047904074192047119e-01
6.170000000000000000e+02 2.638633537292480469e+01 -2.037153816223144531e+01 4.413507580757141113e-01 2.089255332946777344e+00 7.591818571090698242e-01 -1.026836037635803223e+00
6.180000000000000000e+02 2.369483757019042969e+01 -1.560628032684326172e+01 7.708166837692260742e-01 2.539840698242187500e+00 9.931972622871398926e-01 -1.486690402030944824e+00
6.190000000000000000e+02 2.330331420898437500e+01 -1.754014015197753906e+01 4.084699153900146484e-01 2.531701803207397461e+00 8.820515275001525879e-01 -1.195559501647949219e+00
6.200000000000000000e+02 2.220898628234863281e+01 -1.326379966735839844e+01 8.777002692222595215e-01 3.419822454452514648e+00 1.289256811141967773e+00 -1.790773034095764160e+00
6.210000000000000000e+02 1.979047203063964844e+01 -8.210329055786132812e+00 5.859396457672119141e-01 6.539696216583251953e+00 2.137690782546997070e+00 -2.151427745819091797e+00
6.220000000000000000e+02 1.937844276428222656e+01 -6.825244426727294922e+00 8.677065968513488770e-01 6.996426582336425781e+00 2.359240055084228516e+00 -1.580282568931579590e+00
6.230000000000000000e+02 1.820079612731933594e+01 6.794773340225219727e-01 3.461422398686408997e-02 -1.269812822341918945e+00 -3.705595731735229492e-01 4.519831657409667969e+00
6.240000000000000000e+02 1.420129871368408203e+01 1.360230326652526855e+00 2.621616554260253906e+01 3.900614929199218750e+01 1.956669425964355469e+01 -2.341639137268066406e+01
6.250000000000000000e+02 6.679802894592285156e+00 -1.825895500183105469e+01 2.724845707416534424e-02 6.064643859863281250e-01 1.901138573884963989e-01 2.922825515270233154e-01
6.260000000000000000e+02 1.859494972229003906e+01 -1.805341529846191406e+01 3.350763395428657532e-02 2.754951000213623047e+00 8.365375995635986328e-01 -4.605521559715270996e-01
6.270000000000000000e+02 2.760439872741699219e+01 -2.280947303771972656e+01 4.035417735576629639e-01 1.988137125968933105e+00 7.175036668777465820e-01 -9.424182772636413574e-01
6.280000000000000000e+02 7.604444980621337891e+00 -2.608638191223144531e+01 -7.636146247386932373e-02 7.937965393066406250e-01 2.152305245399475098e-01 2.335519045591354370e-01
6.290000000000000000e+02 1.737968826293945312e+01 -2.390884399414062500e+01 -1.104673445224761963e-01 1.998290061950683594e+00 5.663468241691589355e-01 -1.674674004316329956e-01
6.300000000000000000e+02 5.216783046722412109e+00 -3.352102661132812500e+01 -4.431226477026939392e-02 5.694301128387451172e-01 1.575353443622589111e-01 1.247289776802062988e-01
6.310000000000000000e+02 1.740567588806152344e+01 -3.115558242797851562e+01 -1.252096295356750488e-01 1.573877215385437012e+00 4.346002638339996338e-01 -5.993296205997467041e-02
6.320000000000000000e+02 2.462206459045410156e+01 -3.164885330200195312e+01 6.086703762412071228e-02 1.659745812416076660e+00 5.161838531494140625e-01 -3.436400294303894043e-01
6.330000000000000000e+02 3.193890190124511719e+01 -3.136742782592773438e+01 5.477529764175415039e-01 1.391723275184631348e+00 5.818428993225097656e-01 -7.826429009437561035e-01
6.340000000000000000e+02 7.214312744140625000e+01 -3.164495277404785156e+01 9.289810806512832642e-02 7.379962444305419922e+00 2.241858243942260742e+00 3.091915547847747803e-01
6.350000000000000000e+02 7.913671112060546875e+01 -3.346076583862304688e+01 1.731340540573000908e-03 7.609036922454833984e+00 2.283230543136596680e+00 3.933585807681083679e-02
6.360000000000000000e+02 7.051473236083984375e+01 -2.431630325317382812e+01 4.965636879205703735e-03 7.495849609375000000e+00 2.250244617462158203e+00 4.116239845752716064e-01
6.370000000000000000e+02 7.935733795166015625e+01 -2.648593711853027344e+01 1.134509569965302944e-03 8.017979621887207031e+00 2.405734062194824219e+00 4.146578907966613770e-02
6.380000000000000000e+02 6.636135101318359375e+01 -3.087849044799804688e+01 1.884866058826446533e-01 7.048638343811035156e+00 2.171137571334838867e+00 4.219435155391693115e-01
6.390000000000000000e+02 5.684587860107421875e+01 -3.110773277282714844e+01 4.861099421977996826e-01 6.463788986206054688e+00 2.084969758987426758e+00 4.647718369960784912e-01
6.400000000000000000e+02 4.345724868774414062e+01 -2.682399749755859375e+01 1.321115791797637939e-01 4.220637321472167969e+00 1.305824637413024902e+00 -1.022424101829528809e+00
6.410000000000000000e+02 4.696168899536132812e+01 -2.576307487487792969e+01 -1.613977104425430298e-01 5.288022041320800781e+00 1.537987232208251953e+00 -3.361637890338897705e-01
6.420000000000000000e+02 7.165404510498046875e+01 -1.770941543579101562e+01 -6.011932715773582458e-02 7.755416393280029297e+00 2.308589220046997070e+00 3.356914222240447998e-01
6.430000000000000000e+02 7.935386657714843750e+01 -2.232138442993164062e+01 -1.568463165313005447e-03 8.292446136474609375e+00 2.487263441085815430e+00 4.052869603037834167e-02
6.440000000000000000e+02 6.222179412841796875e+01 -2.491234397888183594e+01 2.145701833069324493e-02 6.819294929504394531e+00 2.052225589752197266e+00 5.297848582267761230e-01
6.450000000000000000e+02 5.930307388305664062e+01 -2.151671600341796875e+01 -1.555458903312683105e-01 6.541872024536132812e+00 1.915897846221923828e+00 4.809246957302093506e-01
6.460000000000000000e+02 3.895107650756835938e+01 -1.697860145568847656e+01 -6.984917074441909790e-02 1.976696848869323730e+00 5.720543265342712402e-01 -3.875921964645385742e-01
6.470000000000000000e+02 4.082502746582031250e+01 -1.741066169738769531e+01 -1.400475502014160156e-01 2.591123819351196289e+00 7.353228926658630371e-01 -4.231027364730834961e-01
6.480000000000000000e+02 7.179010009765625000e+01 -1.144271087646484375e+01 -1.007771939039230347e-01 7.889338970184326172e+00 2.336568593978881836e+00 2.321558147668838501e-01
6.490000000000000000e+02 7.936531829833984375e+01 -1.255951499938964844e+01 2.438821364194154739e-03 8.843461990356445312e+00 2.653770208358764648e+00 2.321182005107402802e-02
6.500000000000000000e+02 6.412956237792968750e+01 -1.849580001831054688e+01 -1.631452143192291260e-01 6.998604297637939453e+00 2.050637722015380859e+00 4.527280628681182861e-01
6.510000000000000000e+02 5.561832046508789062e+01 -1.952490615844726562e+01 -3.161216378211975098e-01 6.080174922943115234e+00 1.729216098785400391e+00 3.360813856124877930e-01
6.520000000000000000e+02 4.717473602294921875e+01 -9.587217330932617188e+00 -3.197756409645080566e-01 4.111514568328857422e+00 1.137521743774414062e+00 -2.726245671510696411e-02
6.530000000000000000e+02 3.996229553222656250e+01 -1.059880924224853516e+01 -1.435003429651260376e-01 2.315981149673461914e+00 6.517442464828491211e-01 -2.151192873716354370e-01
6.540000000000000000e+02 3.137368011474609375e+01 -1.191819190979003906e+01 -1.385299265384674072e-01 -9.899106621742248535e-02 -7.125630229711532593e-02 8.025181293487548828e-02
6.550000000000000000e+02 3.358649444580078125e+01 -1.070154953002929688e+01 -1.209741160273551941e-01 6.074554920196533203e-01 1.459444165229797363e-01 -7.261985540390014648e-02
6.560000000000000000e+02 3.424906921386718750e+01 -1.661932754516601562e+01 1.440509315580129623e-02 4.092362225055694580e-01 1.270923912525177002e-01 -1.652064770460128784e-01
6.570000000000000000e+02 6.959430694580078125e+01 -3.630926132202148438e+00 -1.908567994832992554e-01 7.718473434448242188e+00 2.258285045623779297e+00 8.223437517881393433e-02
6.580000000000000000e+02 7.936032867431640625e+01 -5.596018791198730469e+00 -7.695354986935853958e-03 9.056512832641601562e+00 2.714645385742187500e+00 2.645280910655856133e-03
6.590000000000000000e+02 6.651837158203125000e+01 -9.367620468139648438e+00 -2.176500707864761353e-01 7.305641174316406250e+00 2.126397371292114258e+00 2.490593045949935913e-01
6.600000000000000000e+02 5.490174865722656250e+01 -1.020176601409912109e+01 -3.938113451004028320e-01 5.676208496093750000e+00 1.584719181060791016e+00 2.030405700206756592e-01
6.610000000000000000e+02 7.278144836425781250e+01 5.635053157806396484e+00 -1.292862743139266968e-01 8.145895004272460938e+00 2.404982566833496094e+00 -1.976129710674285889e-01
6.620000000000000000e+02 7.936267852783203125e+01 2.765388727188110352e+00 -1.115324534475803375e-02 9.030247688293457031e+00 2.705728292465209961e+00 -2.786634303629398346e-02
6.630000000000000000e+02 6.508650207519531250e+01 -1.158774018287658691e+00 -3.045375049114227295e-01 7.213811874389648438e+00 2.072782278060913086e+00 9.306930750608444214e-02
6.640000000000000000e+02 6.019261932373046875e+01 1.230095475912094116e-01 -3.870888054370880127e-01 6.556336879730224609e+00 1.850774407386779785e+00 1.682059317827224731e-01
6.650000000000000000e+02 3.576155471801757812e+01 -6.851097106933593750e+00 1.318762451410293579e-01 1.265598416328430176e+00 4.192424118518829346e-01 -1.395897716283798218e-01
6.660000000000000000e+02 3.338885116577148438e+01 5.319175243377685547e+00 7.585350275039672852e-01 7.219657897949218750e-01 4.441502392292022705e-01 3.978518545627593994e-01
6.670000000000000000e+02 2.784235572814941406e+01 8.114953994750976562e+00 5.689960718154907227e-01 3.688120841979980469e-01 2.813424468040466309e-01 3.949791491031646729e-01
6.680000000000000000e+02 2.676085472106933594e+01 7.213791370391845703e+00 6.176293492317199707e-01 3.137243986129760742e-01 2.794061303138732910e-01 4.892375171184539795e-01
6.690000000000000000e+02 2.851665115356445312e+01 7.139329433441162109e+00 6.518912911415100098e-01 3.030900657176971436e-01 2.864944040775299072e-01 4.429206550121307373e-01
6.700000000000000000e+02 2.752082633972167969e+01 -6.047989845275878906e+00 -5.228308495134115219e-03 -1.808144450187683105e-01 -5.581282451748847961e-02 2.632966935634613037e-01
6.710000000000000000e+02 7.290607452392578125e+01 1.259331703186035156e+01 -1.776964366436004639e-01 8.072343826293945312e+00 2.368394374847412109e+00 -4.489878118038177490e-01
6.720000000000000000e+02 7.936558532714843750e+01 8.338260650634765625e+00 -1.700494810938835144e-02 8.792551994323730469e+00 2.632663965225219727e+00 -5.406245961785316467e-02
6.730000000000000000e+02 6.467726898193359375e+01 3.899378299713134766e+00 -3.794339299201965332e-01 7.280732154846191406e+00 2.070389509201049805e+00 -2.258497104048728943e-02
6.740000000000000000e+02 5.466532135009765625e+01 6.959954261779785156e+00 -3.945278823375701904e-01 5.816002845764160156e+00 1.626442432403564453e+00 4.653326869010925293e-01
6.750000000000000000e+02 4.740090179443359375e+01 1.197446441650390625e+01 2.772100642323493958e-02 4.056815147399902344e+00 1.225360870361328125e+00 1.033053398132324219e+00
6.760000000000000000e+02 3.989621353149414062e+01 1.092125797271728516e+01 4.343207776546478271e-01 1.854797124862670898e+00 6.867353916168212891e-01 7.907490730285644531e-01
6.770000000000000000e+02 3.771230316162109375e+01 1.808854866027832031e+01 4.481221139430999756e-01 7.375048398971557617e-01 3.556880950927734375e-01 5.492691397666931152e-01
6.780000000000000000e+02 3.668829727172851562e+01 1.505891704559326172e+01 4.049494564533233643e-01 8.177240490913391113e-01 3.668020665645599365e-01 5.801907181739807129e-01
6.790000000000000000e+02 3.450222396850585938e+01 6.213746547698974609e+00 6.657007932662963867e-01 8.875484466552734375e-01 4.659747481346130371e-01 4.905422329902648926e-01
6.800000000000000000e+02 4.167164993286132812e+01 1.050830554962158203e+01 3.677342534065246582e-01 2.338642358779907227e+00 8.119129538536071777e-01 8.622767329216003418e-01
6.810000000000000000e+02 7.293606567382812500e+01 1.673664093017578125e+01 -1.144139915704727173e-01 7.962556362152099609e+00 2.354442596435546875e+00 -5.811337232589721680e-01
6.820000000000000000e+02 7.935733032226562500e+01 1.670051193237304688e+01 -3.203992173075675964e-02 8.001161575317382812e+00 2.390736341476440430e+00 -9.882342815399169922e-02
6.830000000000000000e+02 6.471528625488281250e+01 1.147063541412353516e+01 -4.631501436233520508e-01 7.627428054809570312e+00 2.149283409118652344e+00 -2.173764258623123169e-01
6.840000000000000000e+02 5.380316162109375000e+01 1.077629089355468750e+01 -3.925843536853790283e-01 5.856327056884765625e+00 1.639122724533081055e+00 6.799368858337402344e-01
6.850000000000000000e+02 5.125704574584960938e+01 2.036664962768554688e+01 7.460782304406166077e-03 5.864078521728515625e+00 1.761461853981018066e+00 1.686938166618347168e+00
6.860000000000000000e+02 4.052236938476562500e+01 2.114957618713378906e+01 6.746041774749755859e-01 8.364544510841369629e-01 4.533175826072692871e-01 7.866507768630981445e-01
6.870000000000000000e+02 4.325103759765625000e+01 2.009358024597167969e+01 6.803592443466186523e-01 2.121292352676391602e+00 8.404954671859741211e-01 1.322045803070068359e+00
6.880000000000000000e+02 7.315991973876953125e+01 2.482921600341796875e+01 3.611703217029571533e-02 7.644587039947509766e+00 2.304211139678955078e+00 -7.052426338195800781e-01
6.890000000000000000e+02 7.935681915283203125e+01 2.367332839965820312e+01 5.177104845643043518e-02 6.963979244232177734e+00 2.104725122451782227e+00 -1.144043952226638794e-01
6.900000000000000000e+02 6.669655609130859375e+01 1.750562286376953125e+01 -4.039935171604156494e-01 8.082334518432617188e+00 2.303502321243286133e+00 -5.639287829399108887e-01
6.910000000000000000e+02 5.320351409912109375e+01 2.119571876525878906e+01 -1.779648959636688232e-01 6.925383567810058594e+00 2.024225711822509766e+00 1.530990242958068848e+00
6.920000000000000000e+02 7.364436340332031250e+01 3.449252700805664062e+01 3.171266913414001465e-01 7.165901660919189453e+00 2.244908571243286133e+00 -3.884625732898712158e-01
6.930000000000000000e+02 7.935739135742187500e+01 2.922645759582519531e+01 5.772678181529045105e-02 6.062923908233642578e+00 1.836195230484008789e+00 -1.062230542302131653e-01
6.940000000000000000e+02 6.228335189819335938e+01 2.501894378662109375e+01 -1.209005787968635559e-01 9.054185867309570312e+00 2.679985523223876953e+00 -4.782862663269042969e-01
6.950000000000000000e+02 6.145299911499023438e+01 3.317456054687500000e+01 1.520723938941955566e+00 1.017715358734130859e+01 3.509363412857055664e+00 -7.436840981245040894e-02
6.960000000000000000e+02 5.247390747070312500e+00 4.038026428222656250e+01 9.352465160191059113e-03 2.908730506896972656e+00 8.754249215126037598e-01 -7.044846564531326294e-02
6.970000000000000000e+02 7.262084960937500000e+00 3.332470703125000000e+01 -9.740975499153137207e-02 2.484731197357177734e+00 7.161964178085327148e-01 -1.577336937189102173e-01
6.980000000000000000e+02 1.842394065856933594e+01 2.319096183776855469e+01 -5.397390723228454590e-01 8.627380132675170898e-01 9.689968824386596680e-02 -3.160563111305236816e-01
6.990000000000000000e+02 2.755897521972656250e+01 2.457238388061523438e+01 -6.202266216278076172e-01 -4.597006142139434814e-01 -3.239781856536865234e-01 -6.266947388648986816e-01
7.000000000000000000e+02 1.276145935058593750e+01 4.080870056152343750e+01 -1.424724012613296509e-01 1.683432221412658691e+00 4.622879624366760254e-01 -5.111036077141761780e-02
7.010000000000000000e+02 1.974858856201171875e+01 3.379995346069335938e+01 -3.440857827663421631e-01 7.757986187934875488e-01 1.295138448476791382e-01 -1.857574880123138428e-01
7.020000000000000000e+02 2.295715141296386719e+01 3.127708435058593750e+01 -4.142498075962066650e-01 3.243339955806732178e-01 -2.697474509477615356e-02 -2.866967320442199707e-01
7.030000000000000000e+02 4.230780792236328125e+01 3.323883438110351562e+01 -1.203316569328308105e+00 -9.074162840843200684e-01 -6.332198381423950195e-01 -8.830601572990417480e-01
7.040000000000000000e+02 4.490344619750976562e+01 3.721688079833984375e+01 -2.197488546371459961e+00 -5.902410149574279785e-01 -8.363188505172729492e-01 -8.670375943183898926e-01
7.050000000000000000e+02 5.651834106445312500e+01 3.921260070800781250e+01 -2.118244647979736328e+00 1.454601669311523438e+01 3.728331804275512695e+00 3.040305852890014648e+00
7.060000000000000000e+02 1.476250553131103516e+01 2.796911239624023438e+01 -3.682728707790374756e-01 1.421399593353271484e+00 3.159380257129669189e-01 -3.037664890289306641e-01
7.070000000000000000e+02 1.536004829406738281e+01 1.453530597686767578e+01 -8.677060008049011230e-01 1.738478899002075195e+00 2.612318694591522217e-01 -3.944933414459228516e-01
7.080000000000000000e+02 1.668386650085449219e+01 1.396880817413330078e+01 -8.005809783935546875e-01 1.302948236465454102e+00 1.507101953029632568e-01 -2.045862674713134766e-01
7.090000000000000000e+02 8.639966011047363281e+00 1.500220680236816406e+01 -5.148500204086303711e-01 2.301705121994018555e+00 5.360565185546875000e-01 -1.099716901779174805e+00
7.100000000000000000e+02 8.182575225830078125e+00 5.886697292327880859e+00 1.658265113830566406e+00 8.802939653396606445e-01 7.615677118301391602e-01 -1.891194581985473633e+00
7.110000000000000000e+02 2.219044876098632812e+01 3.914067268371582031e+00 -3.259063363075256348e-01 2.483060359954833984e-01 -2.328008972108364105e-02 3.471536040306091309e-01
7.120000000000000000e+02 9.454208374023437500e+00 -1.833301544189453125e+00 -8.816247582435607910e-01 1.157452389597892761e-01 -2.297638654708862305e-01 -3.285877406597137451e-01
7.130000000000000000e+02 8.659748077392578125e+00 -1.831844568252563477e+00 -7.666088342666625977e-01 3.703390434384346008e-02 -2.188724726438522339e-01 -3.277435302734375000e-01
7.140000000000000000e+02 7.854437351226806641e+00 -1.843111753463745117e+00 -6.793845891952514648e-01 1.239125058054924011e-02 -2.000980079174041748e-01 -3.421341180801391602e-01
7.150000000000000000e+02 7.044143199920654297e+00 -1.862670421600341797e+00 -5.687066912651062012e-01 -8.225557394325733185e-03 -1.730796694755554199e-01 -3.393438160419464111e-01
7.160000000000000000e+02 6.231026649475097656e+00 -1.890288472175598145e+00 -4.667937755584716797e-01 -2.366055361926555634e-02 -1.471363008022308350e-01 -3.383696079254150391e-01
7.170000000000000000e+02 2.952831506729125977e+00 -2.048240900039672852e+00 -1.576026827096939087e-01 -8.278995752334594727e-02 -7.211779057979583740e-02 -2.304841727018356323e-01
7.180000000000000000e+02 5.052813529968261719e+00 -3.813283920288085938e+00 -7.156996428966522217e-02 -1.002333313226699829e-01 -5.154098942875862122e-02 -4.035513103008270264e-01
7.190000000000000000e+02 3.779270410537719727e+00 -2.004951715469360352e+00 -2.192705273628234863e-01 -5.548461526632308960e-02 -8.242654055356979370e-02 -2.766727209091186523e-01
7.200000000000000000e+02 2.115980625152587891e+00 -2.099733829498291016e+00 -8.898066729307174683e-02 -9.993842244148254395e-02 -5.667572841048240662e-02 -1.731896102428436279e-01
7.210000000000000000e+02 1.274543285369873047e+00 -2.155987739562988281e+00 -3.763112798333168030e-02 -1.137341111898422241e-01 -4.540957137942314148e-02 -1.060150191187858582e-01
7.220000000000000000e+02 4.267374277114868164e-01 -2.194870233535766602e+00 -5.793776363134384155e-03 -8.753572404384613037e-02 -2.799884974956512451e-02 -3.452825918793678284e-02
7.230000000000000000e+02 2.040733098983764648e+00 -4.159118652343750000e+01 -3.040957450866699219e-02 4.242143034934997559e-01 1.181414201855659485e-01 8.481094613671302795e-03
7.240000000000000000e+02 5.984655857086181641e+00 -3.739300155639648438e+01 -4.456476867198944092e-02 6.836293935775756836e-01 1.917193830013275146e-01 5.966477096080780029e-02
7.250000000000000000e+02 9.028809070587158203e-01 -3.864329910278320312e+01 -7.465933449566364288e-04 3.745358288288116455e-01 1.121367737650871277e-01 2.466042712330818176e-02
7.260000000000000000e+02 6.544604897499084473e-01 -3.482543563842773438e+01 -4.393085255287587643e-04 2.579043507575988770e-01 7.723951339721679688e-02 1.560602709650993347e-02
7.270000000000000000e+02 8.106279969215393066e-01 -3.343647766113281250e+01 -8.098277263343334198e-03 2.225385308265686035e-01 6.433207541704177856e-02 2.408625744283199310e-02
7.280000000000000000e+02 7.279196381568908691e-01 -2.909473609924316406e+01 -1.867673941887915134e-03 4.383219033479690552e-02 1.258935499936342239e-02 3.588258102536201477e-02
7.290000000000000000e+02 7.234869003295898438e-01 -2.768006324768066406e+01 -3.341143252328038216e-03 -3.038363158702850342e-02 -1.011743210256099701e-02 4.032176733016967773e-02
7.300000000000000000e+02 7.048082947731018066e-01 -2.625945854187011719e+01 5.550446221604943275e-04 -1.128749027848243713e-01 -3.369595855474472046e-02 4.359085857868194580e-02
7.310000000000000000e+02 6.388313770294189453e-01 -2.202316093444824219e+01 5.936021625529974699e-05 -4.054003357887268066e-01 -1.216022893786430359e-01 4.765344783663749695e-02
7.320000000000000000e+02 6.234137415885925293e-01 -2.061781501770019531e+01 -1.495646894909441471e-03 -5.140352249145507812e-01 -1.546592563390731812e-01 5.004400387406349182e-02
7.330000000000000000e+02 1.877103567123413086e+00 -2.067059516906738281e+01 -1.970621058717370033e-03 -2.757320106029510498e-01 -8.331079035997390747e-02 1.306724846363067627e-01
7.340000000000000000e+02 5.913003087043762207e-01 -1.640033721923828125e+01 7.432649843394756317e-03 -8.299455642700195312e-01 -2.467538714408874512e-01 3.859532251954078674e-02
7.350000000000000000e+02 5.819518566131591797e-01 -1.499543094635009766e+01 -1.661892747506499290e-03 -9.134703874588012695e-01 -2.745396792888641357e-01 3.327179327607154846e-02
7.360000000000000000e+02 5.728515386581420898e-01 -1.359178638458251953e+01 1.016631536185741425e-02 -9.761312603950500488e-01 -2.897894978523254395e-01 2.060967311263084412e-02
7.370000000000000000e+02 1.728001236915588379e+00 -1.374145793914794922e+01 2.026606164872646332e-02 -6.606099009513854980e-01 -1.921031475067138672e-01 6.073867529630661011e-02
7.380000000000000000e+02 5.707921981811523438e-01 -9.391843795776367188e+00 4.746659658849239349e-03 -9.366258382797241211e-01 -2.795637547969818115e-01 -3.049525059759616852e-02
7.390000000000000000e+02 5.990084409713745117e-01 -7.985704898834228516e+00 1.652131602168083191e-02 -8.177518248558044434e-01 -2.403691411018371582e-01 -5.952109768986701965e-02
7.400000000000000000e+02 3.972433090209960938e+00 -3.015047550201416016e+00 -1.460135281085968018e-01 -1.083410456776618958e-01 -7.630637288093566895e-02 -3.412356674671173096e-01
7.410000000000000000e+02 4.229429244995117188e+00 -4.065352916717529297e+00 -3.341224044561386108e-02 -1.409965008497238159e-01 -5.232262238860130310e-02 -3.807267248630523682e-01
7.420000000000000000e+02 7.237850952148437500e+01 -3.621594238281250000e+01 1.255197823047637939e-01 7.310111999511718750e+00 2.230689525604248047e+00 1.907875388860702515e-01
7.430000000000000000e+02 4.605337142944335938e+01 -3.912066268920898438e+01 5.624507553875446320e-03 7.530976772308349609e+00 2.260980367660522461e+00 -1.135819435119628906e+00
7.440000000000000000e+02 3.571286773681640625e+01 -4.017974090576171875e+01 5.680801868438720703e-01 4.379148185253143311e-01 3.017984926700592041e-01 -2.279697656631469727e-01
7.450000000000000000e+02 1.286196041107177734e+01 -4.094728088378906250e+01 -1.388657391071319580e-01 1.143001317977905273e+00 3.012406826019287109e-01 7.554223760962486267e-03
7.460000000000000000e+02 7.881006622314453125e+01 4.018356323242187500e+01 2.002817690372467041e-01 5.571403980255126953e+00 1.731505751609802246e+00 9.091738611459732056e-02
7.470000000000000000e+02 7.895605468750000000e+01 3.885531616210937500e+01 -1.343823224306106567e-01 5.496138572692871094e+00 1.608526825904846191e+00 -1.062944158911705017e-02
7.480000000000000000e+02 7.932923126220703125e+01 3.474010086059570312e+01 7.014897465705871582e-02 5.467999935150146484e+00 1.661444664001464844e+00 -1.646756008267402649e-02
7.490000000000000000e+02 7.665709686279296875e+01 3.449619674682617188e+01 1.533938348293304443e-01 6.317326068878173828e+00 1.941215991973876953e+00 -2.842895090579986572e-01
7.500000000000000000e+02 7.934309387207031250e+01 3.337621688842773438e+01 -3.167334571480751038e-02 5.540889263153076172e+00 1.652764678001403809e+00 -6.609266996383666992e-02
7.510000000000000000e+02 7.935298156738281250e+01 3.061347007751464844e+01 -4.518028721213340759e-02 5.864130496978759766e+00 1.745685100555419922e+00 -9.665279090404510498e-02
7.520000000000000000e+02 7.679139709472656250e+01 2.908409690856933594e+01 1.002406775951385498e-01 6.685069084167480469e+00 2.035593032836914062e+00 -4.275349974632263184e-01
7.530000000000000000e+02 7.936093139648437500e+01 2.645083427429199219e+01 5.831706896424293518e-02 6.505782127380371094e+00 1.969229817390441895e+00 -1.135572046041488647e-01
7.540000000000000000e+02 7.680818939208984375e+01 2.637869834899902344e+01 6.918552517890930176e-02 6.953305721282958984e+00 2.106747388839721680e+00 -4.555113315582275391e-01
7.550000000000000000e+02 7.935964965820312500e+01 2.506209754943847656e+01 -5.459266155958175659e-02 6.737489223480224609e+00 2.004868984222412109e+00 -1.191816926002502441e-01
7.560000000000000000e+02 7.935162353515625000e+01 2.088871955871582031e+01 4.008044674992561340e-02 7.407755374908447266e+00 2.234350681304931641e+00 -1.101486161351203918e-01
7.570000000000000000e+02 7.935204315185546875e+01 1.949314117431640625e+01 -3.891185671091079712e-02 7.617950916290283203e+00 2.273711681365966797e+00 -1.113375723361968994e-01
7.580000000000000000e+02 7.804645538330078125e+01 2.087314796447753906e+01 -4.918080940842628479e-02 7.476826667785644531e+00 2.228293657302856445e+00 -3.010004162788391113e-01
7.590000000000000000e+02 7.935448455810546875e+01 1.809653091430664062e+01 2.999008633196353912e-02 7.814950942993164062e+00 2.353482246398925781e+00 -1.006035581231117249e-01
7.600000000000000000e+02 7.936199188232421875e+01 1.391051101684570312e+01 -2.649580873548984528e-02 8.327592849731445312e+00 2.490329027175903320e+00 -8.383354544639587402e-02
7.610000000000000000e+02 7.936251831054687500e+01 1.251705932617187500e+01 1.736712269484996796e-02 8.466335296630859375e+00 2.545110702514648438e+00 -7.270057499408721924e-02
7.620000000000000000e+02 7.936340332031250000e+01 1.112355327606201172e+01 -2.138753049075603485e-02 8.590602874755859375e+00 2.570764780044555664e+00 -6.872886419296264648e-02
7.630000000000000000e+02 7.936579132080078125e+01 6.945765972137451172e+00 9.174208156764507294e-03 8.871512413024902344e+00 2.664206027984619141e+00 -4.496170580387115479e-02
7.640000000000000000e+02 7.936491394042968750e+01 5.552872657775878906e+00 -1.344211678951978683e-02 8.937238693237304688e+00 2.677138805389404297e+00 -4.026955738663673401e-02
7.650000000000000000e+02 7.808975982666015625e+01 5.519310951232910156e+00 -1.716594910249114037e-03 8.754135131835937500e+00 2.625725746154785156e+00 -8.721187710762023926e-02
7.660000000000000000e+02 7.936370086669921875e+01 4.159305095672607422e+00 6.772380787879228592e-03 8.989561080932617188e+00 2.698899984359741211e+00 -3.270291537046432495e-02
7.670000000000000000e+02 7.936266326904296875e+01 -2.437359094619750977e-02 -9.870531968772411346e-03 9.078376770019531250e+00 2.720551729202270508e+00 -1.692659221589565277e-02
7.680000000000000000e+02 7.936123657226562500e+01 -1.418573737144470215e+00 4.661683924496173859e-03 9.086727142333984375e+00 2.727416753768920898e+00 -1.107788830995559692e-02
7.690000000000000000e+02 7.935998535156250000e+01 -4.205930233001708984e+00 4.026816226541996002e-03 9.075304985046386719e+00 2.723799467086791992e+00 -1.305274548940360546e-03
7.700000000000000000e+02 7.936324310302734375e+01 -8.378122329711914062e+00 -6.908863317221403122e-03 8.994350433349609375e+00 2.696232318878173828e+00 1.125603262335062027e-02
7.710000000000000000e+02 7.936560058593750000e+01 -1.116558074951171875e+01 -6.074479781091213226e-03 8.901024818420410156e+00 2.668485164642333984e+00 1.929897814989089966e-02
7.720000000000000000e+02 7.936038208007812500e+01 -1.535067749023437500e+01 1.805395819246768951e-03 8.709754943847656250e+00 2.613468170166015625e+00 3.013409115374088287e-02
7.730000000000000000e+02 7.935172271728515625e+01 -1.814191436767578125e+01 1.541712903417646885e-03 8.553461074829101562e+00 2.566500663757324219e+00 3.635578230023384094e-02
7.740000000000000000e+02 7.935771942138671875e+01 -2.371214485168457031e+01 8.694374118931591511e-04 8.201588630676269531e+00 2.460737466812133789e+00 4.113256186246871948e-02
7.750000000000000000e+02 7.935963439941406250e+01 -2.510000419616699219e+01 -1.167198410257697105e-03 8.109744071960449219e+00 2.432573080062866211e+00 4.161927849054336548e-02
7.760000000000000000e+02 7.932182312011718750e+01 -2.925967788696289062e+01 5.167466006241738796e-04 7.838998317718505859e+00 2.351854562759399414e+00 4.192868247628211975e-02
7.770000000000000000e+02 7.921418762207031250e+01 -3.205147552490234375e+01 7.844408974051475525e-04 7.677312374114990234e+00 2.303429126739501953e+00 4.128211736679077148e-02
7.780000000000000000e+02 7.900331878662109375e+01 -3.627376174926757812e+01 2.194347791373729706e-03 7.501554489135742188e+00 2.251124620437622070e+00 3.285920247435569763e-02
7.790000000000000000e+02 7.894454956054687500e+01 -3.767580413818359375e+01 7.576245348900556564e-03 7.461112499237060547e+00 2.240606784820556641e+00 2.627624198794364929e-02
7.800000000000000000e+02 7.882526397705078125e+01 -3.907490921020507812e+01 3.721135668456554413e-03 7.431825637817382812e+00 2.230664014816284180e+00 1.894397474825382233e-02
7.810000000000000000e+02 7.812176513671875000e+01 -4.178121566772460938e+01 2.407057210803031921e-02 7.397289276123046875e+00 2.226408004760742188e+00 6.780037190765142441e-03
7.820000000000000000e+02 9.040211677551269531e+00 3.859150314331054688e+01 -9.862393885850906372e-02 2.264619350433349609e+00 6.497986316680908203e-01 -7.479361444711685181e-02
7.830000000000000000e+02 2.751981353759765625e+01 4.069969177246093750e+01 -5.615899562835693359e-01 -1.667765155434608459e-02 -1.734802722930908203e-01 -4.221517965197563171e-02
7.840000000000000000e+02 4.847317504882812500e+01 4.122552490234375000e+01 -2.534234523773193359e+00 -6.517724990844726562e-01 -9.558021426200866699e-01 3.024737834930419922e-01
7.850000000000000000e+02 6.784986114501953125e+01 4.085731887817382812e+01 1.697251349687576294e-01 9.236310005187988281e+00 2.821810722351074219e+00 1.756533086299896240e-01
7.860000000000000000e+02 3.826239407062530518e-01 2.180207252502441406e+00 -1.937176473438739777e-02 -1.453909873962402344e-01 -4.942882433533668518e-02 5.252019688487052917e-02
7.870000000000000000e+02 2.724679708480834961e+00 3.000836133956909180e+00 5.082987248897552490e-02 -8.136206865310668945e-02 -9.159659035503864288e-03 2.031968533992767334e-01
7.880000000000000000e+02 5.357357859611511230e-01 9.172327041625976562e+00 5.748014524579048157e-02 1.099606975913047791e-01 5.023225396871566772e-02 -1.403415799140930176e-01
7.890000000000000000e+02 5.532464981079101562e-01 1.198084735870361328e+01 4.298561066389083862e-02 9.044207930564880371e-01 2.842219173908233643e-01 -1.703541576862335205e-01
7.900000000000000000e+02 1.661786913871765137e+00 1.173555088043212891e+01 -2.488925494253635406e-02 1.022782444953918457e+00 2.993679344654083252e-01 -4.759748578071594238e-01
7.910000000000000000e+02 5.842038989067077637e-01 1.619207382202148438e+01 -2.703919075429439545e-02 2.054716587066650391e+00 6.083032488822937012e-01 -1.390192657709121704e-01
7.920000000000000000e+02 1.787506341934204102e+00 1.727699089050292969e+01 -4.907984286546707153e-02 2.214222908020019531e+00 6.495428681373596191e-01 -3.610400557518005371e-01
7.930000000000000000e+02 5.948663353919982910e-01 1.760017204284667969e+01 6.918933242559432983e-03 2.349181175231933594e+00 7.068300247192382812e-01 -1.199763342738151550e-01
7.940000000000000000e+02 6.197102069854736328e-01 2.182380867004394531e+01 -4.540359135717153549e-03 3.003090858459472656e+00 8.995651602745056152e-01 -8.012247085571289062e-02
7.950000000000000000e+02 6.309845447540283203e-01 2.323352241516113281e+01 -8.185752667486667633e-03 3.146899700164794922e+00 9.416142106056213379e-01 -6.096830964088439941e-02
7.960000000000000000e+02 1.888639807701110840e+00 2.286635208129882812e+01 -2.505034208297729492e-02 2.908204555511474609e+00 8.649462461471557617e-01 -1.953762173652648926e-01
7.970000000000000000e+02 6.483982205390930176e-01 2.464919281005859375e+01 -2.571914810687303543e-04 3.271044731140136719e+00 9.812362790107727051e-01 -5.717214569449424744e-02
7.980000000000000000e+02 7.180119156837463379e-01 2.893322181701660156e+01 -1.018763612955808640e-02 3.508827209472656250e+00 1.049591898918151855e+00 -2.753899246454238892e-02
7.990000000000000000e+02 7.263000607490539551e-01 3.035962486267089844e+01 6.407690234482288361e-03 3.560925722122192383e+00 1.070200085639953613e+00 -2.976856008172035217e-02
8.000000000000000000e+02 3.692407369613647461e+00 2.989125442504882812e+01 -4.577866196632385254e-02 3.004420042037963867e+00 8.875924348831176758e-01 -1.426096111536026001e-01
8.010000000000000000e+02 7.182179093360900879e-01 3.177720260620117188e+01 -1.459591090679168701e-02 3.597070217132568359e+00 1.074742317199707031e+00 -1.530629675835371017e-02
8.020000000000000000e+02 7.514130473136901855e-01 3.595218658447265625e+01 1.016563922166824341e-02 3.636622905731201172e+00 1.094036579132080078e+00 -5.149819771759212017e-04
8.030000000000000000e+02 8.772161602973937988e-01 3.731189346313476562e+01 -2.533636242151260376e-02 3.605823516845703125e+00 1.074146151542663574e+00 2.501730434596538544e-02
8.040000000000000000e+02 1.093780398368835449e+00 3.866211700439453125e+01 2.459032693877816200e-03 3.560862779617309570e+00 1.068996548652648926e+00 3.162328898906707764e-02
8.050000000000000000e+02 1.442231297492980957e+00 4.005263519287109375e+01 -1.846219226717948914e-02 3.509172916412353516e+00 1.047213196754455566e+00 4.863090440630912781e-02
8.060000000000000000e+02 9.755508422851562500e+00 1.860782384872436523e+00 1.694463133811950684e+00 -1.684635758399963379e+00 2.948196837678551674e-03 1.457222938537597656e+00
8.070000000000000000e+02 8.181743621826171875e+00 1.898254632949829102e+00 3.149311840534210205e-01 -7.560027837753295898e-01 -1.323214769363403320e-01 9.089888930320739746e-01
8.080000000000000000e+02 8.191476821899414062e+00 2.699387550354003906e+00 1.474019408226013184e+00 -8.004347681999206543e-01 2.020754218101501465e-01 1.963438093662261963e-01
8.090000000000000000e+02 7.395623207092285156e+00 1.903802275657653809e+00 9.887961298227310181e-02 -3.431581854820251465e-01 -7.328357547521591187e-02 5.653536319732666016e-01
8.100000000000000000e+02 5.052123069763183594e+00 1.927801847457885742e+00 -1.523625701665878296e-01 -1.134980469942092896e-01 -7.975818216800689697e-02 3.510064482688903809e-01
8.110000000000000000e+02 4.273442745208740234e+00 1.945746779441833496e+00 -6.880162656307220459e-02 -4.334519058465957642e-02 -3.364404663443565369e-02 2.318861931562423706e-01
8.120000000000000000e+02 3.495297670364379883e+00 1.970053791999816895e+00 -1.099675074219703674e-01 -5.827392637729644775e-02 -5.047243088483810425e-02 2.569212913513183594e-01
8.130000000000000000e+02 1.930384755134582520e+00 2.060362339019775391e+00 -5.835649371147155762e-02 -8.779016882181167603e-02 -4.384399950504302979e-02 1.915213465690612793e-01
8.140000000000000000e+02 1.152661681175231934e+00 2.122578859329223633e+00 -6.559881847351789474e-03 -1.185299456119537354e-01 -3.752695024013519287e-02 1.108809337019920349e-01
8.150000000000000000e+02 1.236374568939208984e+01 2.278519153594970703e+00 1.108309936523437500e+01 5.892571926116943359e+00 5.092701435089111328e+00 -4.053580284118652344e+00
8.160000000000000000e+02 1.283096599578857422e+01 1.284639835357666016e+00 1.027229499816894531e+01 4.373721122741699219e+00 4.393804550170898438e+00 -1.998288273811340332e+00
8.170000000000000000e+02 1.464560413360595703e+01 1.053969383239746094e+00 1.605645942687988281e+01 1.695040321350097656e+01 9.902058601379394531e+00 -2.237358283996582031e+01
8.180000000000000000e+02 1.468261432647705078e+01 1.221923232078552246e+00 3.112779045104980469e+01 2.643863868713378906e+01 1.726992988586425781e+01 -3.118881225585937500e+01
8.190000000000000000e+02 1.510627174377441406e+01 9.191965460777282715e-01 5.372142028808593750e+01 5.808793306350708008e-01 1.629068946838378906e+01 -2.161720275878906250e+01
8.200000000000000000e+02 1.592945861816406250e+01 8.179079294204711914e-01 -2.458009338378906250e+01 9.252482414245605469e+00 -4.598283290863037109e+00 -9.598256111145019531e+00
8.210000000000000000e+02 1.577155399322509766e+01 8.253117203712463379e-01 -1.525582313537597656e+01 1.389526462554931641e+01 -4.081677198410034180e-01 -8.511420249938964844e+00
8.220000000000000000e+02 1.566436004638671875e+01 8.649803400039672852e-01 -1.195586490631103516e+01 5.929160118103027344e+00 -1.808011531829833984e+00 -6.067434787750244141e+00
8.230000000000000000e+02 1.662165641784667969e+01 8.579308390617370605e-01 -2.328867149353027344e+01 -1.014622974395751953e+01 -1.003047084808349609e+01 -1.064359307289123535e+00
8.240000000000000000e+02 1.681115150451660156e+01 7.161712050437927246e-01 -9.266768455505371094e+00 -7.427069544792175293e-01 -3.002842664718627930e+00 3.424309492111206055e+00
8.250000000000000000e+02 1.713166046142578125e+01 8.538966178894042969e-01 -8.928925514221191406e+00 1.846520900726318359e+00 -2.124721288681030273e+00 3.741699218750000000e+00
8.260000000000000000e+02 1.758280563354492188e+01 -6.557657122611999512e-01 1.400649356842041016e+01 8.379060029983520508e-01 4.453320026397705078e+00 -3.066537082195281982e-01
8.270000000000000000e+02 1.743065071105957031e+01 -1.535465955734252930e+00 8.728111267089843750e+00 7.167730331420898438e+00 4.768752574920654297e+00 -4.657541751861572266e+00
8.280000000000000000e+02 1.729536437988281250e+01 -1.722799420356750488e+00 7.068133831024169922e+00 1.015226364135742188e+01 5.166119098663330078e+00 -5.278892517089843750e+00
8.290000000000000000e+02 1.640900993347167969e+01 -2.344069480895996094e+00 -2.601090371608734131e-01 1.488294410705566406e+01 4.386850357055664062e+00 -8.346541523933410645e-01
8.300000000000000000e+02 1.916319656372070312e+01 -5.376327514648437500e+00 -1.010457202792167664e-01 6.520574569702148438e+00 1.925858616828918457e+00 -1.678314566612243652e+00
8.310000000000000000e+02 1.575375080108642578e+01 -2.381932497024536133e+00 4.149057343602180481e-02 1.212289619445800781e+01 3.649316072463989258e+00 3.295680046081542969e+00
8.320000000000000000e+02 1.453562355041503906e+01 -2.259629964828491211e+00 1.840134859085083008e+00 2.736654996871948242e+00 1.373036980628967285e+00 2.673180580139160156e+00
8.330000000000000000e+02 1.336286067962646484e+01 -2.487063884735107422e+00 6.217926740646362305e-01 6.869615912437438965e-01 3.926262855529785156e-01 7.716730833053588867e-01
8.340000000000000000e+02 1.283082675933837891e+01 -2.203225612640380859e+00 -6.246982142329216003e-02 1.932174712419509888e-01 3.922429308295249939e-02 1.848923712968826294e-01
8.350000000000000000e+02 1.306406211853027344e+01 -2.163861751556396484e+00 -3.199307247996330261e-02 2.675558626651763916e-01 7.066883891820907593e-02 2.636749446392059326e-01
8.360000000000000000e+02 1.163843441009521484e+01 -2.136018276214599609e+00 -6.300033926963806152e-01 9.585128724575042725e-02 -1.602456271648406982e-01 -2.558710873126983643e-01
8.370000000000000000e+02 1.082043075561523438e+01 -2.611172914505004883e+00 -3.437363207340240479e-01 1.304776072502136230e-01 -6.397761404514312744e-02 -3.106445968151092529e-01
8.380000000000000000e+02 4.962772750854492188e+01 2.978408432006835938e+01 3.349604845046997070e+00 4.413859367370605469e+00 2.329039335250854492e+00 3.680404424667358398e+00
8.390000000000000000e+02 4.863790893554687500e+01 2.882199096679687500e+01 2.840296506881713867e+00 3.379557132720947266e+00 1.865956068038940430e+00 3.126536607742309570e+00
8.400000000000000000e+02 4.662769317626953125e+01 2.690528869628906250e+01 1.889639973640441895e+00 2.297264575958251953e+00 1.256071448326110840e+00 2.143101930618286133e+00
8.410000000000000000e+02 4.465183639526367188e+01 2.493451118469238281e+01 1.490029454231262207e+00 1.876617550849914551e+00 1.009994029998779297e+00 1.651594042778015137e+00
8.420000000000000000e+02 4.363435363769531250e+01 2.397388648986816406e+01 1.296899318695068359e+00 1.547445297241210938e+00 8.533033728599548340e-01 1.398788928985595703e+00
8.430000000000000000e+02 4.259748077392578125e+01 2.303224563598632812e+01 1.062102198600769043e+00 1.254269361495971680e+00 6.949114799499511719e-01 1.166313648223876953e+00
8.440000000000000000e+02 3.860938262939453125e+01 1.914553070068359375e+01 4.461224675178527832e-01 7.402046322822570801e-01 3.558981418609619141e-01 6.022580265998840332e-01
8.450000000000000000e+02 3.584853363037109375e+01 1.600181770324707031e+01 3.775361776351928711e-01 5.599831938743591309e-01 2.812558114528656006e-01 4.385199248790740967e-01
8.460000000000000000e+02 3.489673614501953125e+01 1.497039413452148438e+01 3.277286589145660400e-01 4.735901653766632080e-01 2.403956502676010132e-01 4.090653061866760254e-01
8.470000000000000000e+02 3.571484375000000000e+01 1.402641391754150391e+01 4.171192646026611328e-01 7.303427457809448242e-01 3.442385792732238770e-01 5.144510865211486816e-01
8.480000000000000000e+02 3.295797729492187500e+01 1.293529891967773438e+01 3.077388405799865723e-01 3.625689446926116943e-01 2.010923326015472412e-01 3.517329394817352295e-01
8.490000000000000000e+02 2.992040824890136719e+01 1.000714588165283203e+01 4.024114012718200684e-01 3.129930496215820312e-01 2.146213352680206299e-01 3.162614405155181885e-01
8.500000000000000000e+02 2.452098083496093750e+01 5.519549846649169922e+00 6.025212407112121582e-01 3.077716827392578125e-01 2.730878889560699463e-01 5.260590314865112305e-01
8.510000000000000000e+02 2.336852836608886719e+01 4.707284450531005859e+00 3.884623050689697266e-01 3.922779858112335205e-01 2.342220842838287354e-01 4.196350276470184326e-01
8.520000000000000000e+02 2.136734962463378906e+01 -4.122868478298187256e-01 7.631097793579101562e+00 1.344569802284240723e+00 2.692700386047363281e+00 4.534399211406707764e-01
8.530000000000000000e+02 1.747671699523925781e+01 7.699090242385864258e-01 -7.320115089416503906e+00 -3.917698934674263000e-02 -2.207787513732910156e+00 4.623165130615234375e+00
8.540000000000000000e+02 1.583507061004638672e+01 6.272508144378662109e+00 2.480664849281311035e-01 1.629815936088562012e+00 5.633647441864013672e-01 1.060043811798095703e+00
8.550000000000000000e+02 1.979476356506347656e+01 1.025715541839599609e+01 -4.967142343521118164e-01 -3.056329786777496338e-01 -2.407041639089584351e-01 -2.200512588024139404e-01
8.560000000000000000e+02 1.693171119689941406e+01 9.373426437377929688e+00 -3.609465956687927246e-01 1.381495475769042969e+00 3.061646521091461182e-01 9.176172316074371338e-02
8.570000000000000000e+02 2.076191329956054688e+01 1.125532245635986328e+01 -4.740220308303833008e-01 -2.238328754901885986e-01 -2.093564718961715698e-01 -5.395476222038269043e-01
8.580000000000000000e+02 2.364476966857910156e+01 1.425409507751464844e+01 -8.450977802276611328e-01 -7.212067842483520508e-01 -4.698913693428039551e-01 -6.828413605690002441e-01
8.590000000000000000e+02 2.464580726623535156e+01 1.522466087341308594e+01 -7.755736112594604492e-01 -6.335431933403015137e-01 -4.227350354194641113e-01 -7.974923253059387207e-01
8.600000000000000000e+02 2.663527870178222656e+01 1.927847099304199219e+01 -7.759273648262023926e-01 -6.144459247589111328e-01 -4.171119928359985352e-01 -7.383224964141845703e-01
8.610000000000000000e+02 2.959773635864257812e+01 2.014443397521972656e+01 -8.936513066291809082e-01 -8.528711795806884766e-01 -5.239567756652832031e-01 -8.629012703895568848e-01
8.620000000000000000e+02 3.058908271789550781e+01 2.111252593994140625e+01 -8.686264753341674805e-01 -8.372623920440673828e-01 -5.117666721343994141e-01 -8.656119704246520996e-01
8.630000000000000000e+02 3.228466415405273438e+01 2.517682838439941406e+01 -7.374999523162841797e-01 -8.137407898902893066e-01 -4.653722345829010010e-01 -8.015565276145935059e-01
8.640000000000000000e+02 3.429510879516601562e+01 2.522368431091308594e+01 -7.786383032798767090e-01 -1.011343836784362793e+00 -5.369946360588073730e-01 -8.823722600936889648e-01
8.650000000000000000e+02 3.516908645629882812e+01 2.631186485290527344e+01 -7.893443703651428223e-01 -1.022125244140625000e+00 -5.434408783912658691e-01 -9.036955833435058594e-01
8.660000000000000000e+02 3.894332504272460938e+01 3.063102340698242188e+01 -9.921578764915466309e-01 -9.196805953979492188e-01 -5.735515356063842773e-01 -9.783347249031066895e-01
8.670000000000000000e+02 3.552476501464843750e+01 2.978594017028808594e+01 -8.730790019035339355e-01 -8.680719733238220215e-01 -5.223453044891357422e-01 -7.513623237609863281e-01
8.680000000000000000e+02 4.005790328979492188e+01 3.157518386840820312e+01 -1.114461898803710938e+00 -9.450084567070007324e-01 -6.178411245346069336e-01 -8.946979045867919922e-01
8.690000000000000000e+02 4.444757080078125000e+01 3.499982833862304688e+01 -1.437594294548034668e+00 -7.973211407661437988e-01 -6.704746484756469727e-01 -9.768100976943969727e-01
8.700000000000000000e+02 4.642211151123046875e+01 3.680692291259765625e+01 -2.241019487380981445e+00 -9.029120206832885742e-01 -9.431794881820678711e-01 -9.163458347320556641e-01
8.710000000000000000e+02 5.189044952392578125e+01 3.919668960571289062e+01 -6.523036956787109375e+00 -1.253242731094360352e+00 -2.332883834838867188e+00 -8.150065690279006958e-02
8.720000000000000000e+02 2.456864356994628906e+01 -3.105144023895263672e+00 1.392666101455688477e-01 -1.892648786306381226e-01 -1.499947998672723770e-02 -3.681575357913970947e-01
8.730000000000000000e+02 2.848626899719238281e+01 -7.092317104339599609e+00 -2.515693008899688721e-01 -3.278224170207977295e-01 -1.738175153732299805e-01 1.706210374832153320e-01
8.740000000000000000e+02 3.043406295776367188e+01 -7.525641918182373047e+00 -1.374903023242950439e-01 5.593474954366683960e-02 -2.446666546165943146e-02 3.763071494176983833e-03
8.750000000000000000e+02 2.932471084594726562e+01 -8.257669448852539062e+00 -1.136180832982063293e-01 -2.929546535015106201e-01 -1.219718232750892639e-01 2.714970111846923828e-01
8.760000000000000000e+02 3.180906677246093750e+01 -1.008709907531738281e+01 -1.465671807527542114e-01 1.700794398784637451e-01 7.053676526993513107e-03 2.658422105014324188e-02
8.770000000000000000e+02 3.354708480834960938e+01 -1.543285942077636719e+01 3.353622928261756897e-02 2.754004299640655518e-01 9.268099814653396606e-02 -5.961954966187477112e-02
8.780000000000000000e+02 3.494589996337890625e+01 -1.780598640441894531e+01 1.078586578369140625e-01 5.729748606681823730e-01 2.042500674724578857e-01 -2.265601009130477905e-01
8.790000000000000000e+02 3.633960723876953125e+01 -2.017969131469726562e+01 1.994199007749557495e-01 9.492661356925964355e-01 3.446058034896850586e-01 -4.175142347812652588e-01
8.800000000000000000e+02 3.767771148681640625e+01 -2.258262252807617188e+01 2.662590444087982178e-01 1.250471830368041992e+00 4.550192654132843018e-01 -5.984435081481933594e-01
8.810000000000000000e+02 3.908456039428710938e+01 -2.493404579162597656e+01 4.487267434597015381e-01 1.763745665550231934e+00 6.637417078018188477e-01 -8.906053304672241211e-01
8.820000000000000000e+02 4.061958312988281250e+01 -2.240352249145507812e+01 6.739653646945953369e-02 2.547846317291259766e+00 7.845728397369384766e-01 -7.262119650840759277e-01
8.830000000000000000e+02 4.233078384399414062e+01 -2.765851593017578125e+01 3.982676863670349121e-01 3.616706609725952148e+00 1.204492330551147461e+00 -1.314590930938720703e+00
8.840000000000000000e+02 4.197526168823242188e+01 -2.956094169616699219e+01 9.203702807426452637e-01 3.459259510040283203e+00 1.313888907432556152e+00 -1.759795069694519043e+00
8.850000000000000000e+02 4.342624664306640625e+01 -3.188576316833496094e+01 1.113423943519592285e+00 5.617974281311035156e+00 2.019419431686401367e+00 -2.388202428817749023e+00
8.860000000000000000e+02 4.409351730346679688e+01 -3.309427642822265625e+01 1.284887790679931641e+00 8.009272575378417969e+00 2.788248062133789062e+00 -2.359534263610839844e+00
8.870000000000000000e+02 4.457703781127929688e+01 -3.437275695800781250e+01 8.890199661254882812e-01 9.460469245910644531e+00 3.104846954345703125e+00 -1.729305744171142578e+00
8.880000000000000000e+02 3.532429885864257812e+01 -3.582754516601562500e+01 4.571198821067810059e-01 5.890427827835083008e-01 3.138487935066223145e-01 -4.767503738403320312e-01
8.890000000000000000e+02 3.434002685546875000e+01 -3.474755477905273438e+01 4.454350173473358154e-01 6.903676390647888184e-01 3.407407999038696289e-01 -5.230903029441833496e-01
8.900000000000000000e+02 3.347339630126953125e+01 -3.362628173828125000e+01 4.714473485946655273e-01 8.551621437072753906e-01 3.979828357696533203e-01 -5.924122929573059082e-01
8.910000000000000000e+02 3.054067802429199219e+01 -2.904378890991210938e+01 4.153080582618713379e-01 1.658151507377624512e+00 6.220378875732421875e-01 -7.787466049194335938e-01
8.920000000000000000e+02 2.525506973266601562e+01 -2.109085845947265625e+01 3.957179784774780273e-01 2.161684274673461914e+00 7.672206759452819824e-01 -9.260995984077453613e-01
8.930000000000000000e+02 2.587466049194335938e+01 -2.228125381469726562e+01 3.376922607421875000e-01 2.053357839584350586e+00 7.173150181770324707e-01 -9.036290049552917480e-01
8.940000000000000000e+02 2.511067390441894531e+01 -1.795564842224121094e+01 5.301198363304138184e-01 2.187246084213256836e+00 8.152098059654235840e-01 -1.170228362083435059e+00
8.950000000000000000e+02 2.294434738159179688e+01 -1.444488525390625000e+01 9.850147366523742676e-01 3.057325363159179688e+00 1.212702035903930664e+00 -1.574829578399658203e+00
8.960000000000000000e+02 2.085028266906738281e+01 -1.082112026214599609e+01 9.186232686042785645e-01 4.474707603454589844e+00 1.617999196052551270e+00 -2.170160293579101562e+00
8.970000000000000000e+02 2.027486419677734375e+01 -9.533868789672851562e+00 1.254606366157531738e+00 5.809353828430175781e+00 2.119188070297241211e+00 -2.056456565856933594e+00
8.980000000000000000e+02 1.444339275360107422e+01 1.010824799537658691e+00 1.696974754333496094e+01 1.188531112670898438e+01 8.656517028808593750e+00 -2.426723098754882812e+01
8.990000000000000000e+02 1.819124412536621094e+01 -1.047101736068725586e+00 1.071812725067138672e+01 -3.937906324863433838e-01 3.097301006317138672e+00 1.078773960471153259e-01
9.000000000000000000e+02 1.908488464355468750e+01 -1.133908182382583618e-01 6.630014896392822266e+00 -2.409347534179687500e+00 1.266200184822082520e+00 3.349533081054687500e+00
9.010000000000000000e+02 1.730373573303222656e+01 3.144539594650268555e-01 2.265072107315063477e+00 1.160790443420410156e+00 1.027758836746215820e+00 5.645809173583984375e+00
9.020000000000000000e+02 1.754448318481445312e+01 -2.755531668663024902e-01 1.217028427124023438e+01 -1.327410787343978882e-01 3.611262798309326172e+00 3.357623338699340820e+00
9.030000000000000000e+02 1.763913536071777344e+01 -8.445197343826293945e-01 1.418304824829101562e+01 9.842672348022460938e-01 4.550194740295410156e+00 -1.078611731529235840e+00
9.040000000000000000e+02 1.801124763488769531e+01 -1.493407368659973145e+00 8.712685585021972656e+00 2.070525646209716797e+00 3.234963417053222656e+00 -1.824490785598754883e+00
9.050000000000000000e+02 1.714912796020507812e+01 -1.890940070152282715e+00 4.535140514373779297e+00 1.181262111663818359e+01 4.904328346252441406e+00 -5.645492553710937500e+00
9.060000000000000000e+02 1.742868423461914062e+01 -2.197482585906982422e+00 3.680712461471557617e+00 1.033987808227539062e+01 4.206177234649658203e+00 -4.246596336364746094e+00
9.070000000000000000e+02 1.697323036193847656e+01 5.992234945297241211e-01 -6.043616294860839844e+00 1.736826658248901367e+00 -1.292036890983581543e+00 4.715345859527587891e+00
9.080000000000000000e+02 1.618899154663085938e+01 -2.382962465286254883e+00 -4.747146070003509521e-01 1.472089385986328125e+01 4.273853778839111328e+00 8.577095866203308105e-01
9.090000000000000000e+02 1.787962150573730469e+01 -2.287179380655288696e-01 1.055024909973144531e+01 -1.298944473266601562e+00 2.775391340255737305e+00 4.054711818695068359e+00
9.100000000000000000e+02 1.740743637084960938e+01 1.243408620357513428e-01 6.060122013092041016e+00 1.485165953636169434e-01 1.862591624259948730e+00 4.547722816467285156e+00
9.110000000000000000e+02 1.843222427368164062e+01 -1.862272381782531738e+00 5.907099723815917969e+00 2.526699781417846680e+00 2.530139923095703125e+00 -7.207229137420654297e-01
9.120000000000000000e+02 1.553953266143798828e+01 -2.362479686737060547e+00 2.323618829250335693e-01 1.033290290832519531e+01 3.169579267501831055e+00 3.792907953262329102e+00
9.130000000000000000e+02 1.235286140441894531e+01 -2.227187156677246094e+00 -3.772034347057342529e-01 1.614862233400344849e-01 -6.471516191959381104e-02 -7.137396186590194702e-02
9.140000000000000000e+02 1.434740161895751953e+01 -2.287647008895874023e+00 1.456086874008178711e+00 2.134685516357421875e+00 1.077231764793395996e+00 2.133706569671630859e+00
9.150000000000000000e+02 1.368193721771240234e+01 -2.278656005859375000e+00 7.198306918144226074e-01 7.385304570198059082e-01 4.375083446502685547e-01 9.710040688514709473e-01
9.160000000000000000e+02 1.238676452636718750e+01 -2.783041954040527344e+00 2.426474392414093018e-01 4.035190939903259277e-01 1.938499510288238525e-01 1.947441995143890381e-01
9.170000000000000000e+02 1.321791744232177734e+01 -2.400437831878662109e+00 3.075727522373199463e-01 5.022422671318054199e-01 2.429445087909698486e-01 5.138024091720581055e-01
9.180000000000000000e+02 1.512091255187988281e+01 -2.307047843933105469e+00 1.228768348693847656e+00 6.497185230255126953e+00 2.317785978317260742e+00 3.990287303924560547e+00
9.190000000000000000e+02 1.366349601745605469e+01 -2.704022407531738281e+00 9.187844395637512207e-01 1.239166021347045898e+00 6.473851203918457031e-01 1.328462600708007812e+00
9.200000000000000000e+02 1.012844085693359375e+01 -3.171061038970947266e+00 -7.312990725040435791e-02 1.577119827270507812e-01 2.537462301552295685e-02 -3.064453601837158203e-01
9.210000000000000000e+02 1.146322345733642578e+01 -2.753101110458374023e+00 -1.056128144264221191e-01 2.319211661815643311e-01 3.789250552654266357e-02 -1.392289102077484131e-01
9.220000000000000000e+02 9.455151557922363281e+00 -2.496431589126586914e+00 -4.902819991111755371e-01 8.844869583845138550e-02 -1.205499917268753052e-01 -3.821867704391479492e-01
9.230000000000000000e+02 1.356364536285400391e+01 2.840831995010375977e+00 5.671489238739013672e+00 2.969329452514648438e+01 1.060943508148193359e+01 -6.505625724792480469e+00
9.240000000000000000e+02 9.002986907958984375e+00 2.667688846588134766e+00 2.189038753509521484e+00 -9.921399354934692383e-01 3.590696454048156738e-01 3.652791380882263184e-01
9.250000000000000000e+02 1.054017448425292969e+01 1.793010592460632324e+00 3.165100812911987305e+00 -1.716342568397521973e+00 4.346275031566619873e-01 4.409785866737365723e-01
9.260000000000000000e+02 1.144700241088867188e+01 3.266675233840942383e+00 5.998669147491455078e+00 3.189750909805297852e+00 2.756525993347167969e+00 -4.074689865112304688e+00
9.270000000000000000e+02 5.832032203674316406e+00 1.916046380996704102e+00 -5.402022227644920349e-02 -1.091432869434356689e-01 -4.894905164837837219e-02 3.177187442779541016e-01
9.280000000000000000e+02 6.612750053405761719e+00 1.908923983573913574e+00 -1.318117231130599976e-01 -2.722659111022949219e-01 -1.212232932448387146e-01 5.337273478507995605e-01
9.290000000000000000e+02 8.207704544067382812e+00 3.506979227066040039e+00 1.983154892921447754e+00 -3.437189161777496338e-01 4.918307960033416748e-01 -3.284018337726593018e-01
9.300000000000000000e+02 1.565836071968078613e+00 7.565978527069091797e+00 1.263861507177352905e-01 7.360187917947769165e-02 5.999641120433807373e-02 -2.631105482578277588e-01
9.310000000000000000e+02 5.042238235473632812e+00 3.659283399581909180e+00 4.727070033550262451e-01 -6.978555768728256226e-02 1.208764314651489258e-01 1.045140847563743591e-01
9.320000000000000000e+02 1.174467325210571289e+00 3.377580642700195312e+00 -4.066552966833114624e-03 -2.072145193815231323e-01 -6.338432431221008301e-02 1.427314281463623047e-01
9.330000000000000000e+02 2.713375329971313477e+00 2.006637811660766602e+00 -5.170933529734611511e-02 -4.437820613384246826e-02 -2.882626280188560486e-02 1.898510903120040894e-01
9.340000000000000000e+02 1.951220273971557617e+00 3.170702457427978516e+00 5.148959904909133911e-02 -1.137129813432693481e-01 -1.866701431572437286e-02 1.387982070446014404e-01
9.350000000000000000e+02 7.387688159942626953e+00 2.712902069091796875e+00 8.362244963645935059e-01 -4.412716627120971680e-01 1.184858456254005432e-01 3.913047313690185547e-01
9.360000000000000000e+02 1.059992694854736328e+01 2.508609294891357422e+00 4.903643131256103516e+00 -7.857022285461425781e-01 1.235382199287414551e+00 -5.797086954116821289e-01
9.370000000000000000e+02 9.800036430358886719e+00 2.589774847030639648e+00 3.313557386398315430e+00 -1.403740167617797852e+00 5.729451775550842285e-01 -5.250604748725891113e-01
9.380000000000000000e+02 8.714416503906250000e+00 -2.501209974288940430e+00 -4.867640435695648193e-01 6.553079932928085327e-02 -1.263699680566787720e-01 -3.823021948337554932e-01
9.390000000000000000e+02 7.948841571807861328e+00 -2.535299062728881836e+00 -4.211603403091430664e-01 1.473748125135898590e-02 -1.219268590211868286e-01 -3.970060050487518311e-01
9.400000000000000000e+02 5.416013240814208984e+00 -1.925669431686401367e+00 -3.828437626361846924e-01 -3.341754525899887085e-02 -1.248783916234970093e-01 -3.277661204338073730e-01
9.410000000000000000e+02 6.381599903106689453e+00 -2.671823501586914062e+00 -3.071261942386627197e-01 -2.818640321493148804e-02 -1.005937829613685608e-01 -4.030757844448089600e-01
9.420000000000000000e+02 5.587812423706054688e+00 -2.775059461593627930e+00 -2.445886582136154175e-01 -5.575506016612052917e-02 -9.010311961174011230e-02 -3.909786641597747803e-01
9.430000000000000000e+02 7.169246196746826172e+00 -2.592087268829345703e+00 -3.726382851600646973e-01 -7.513490505516529083e-03 -1.140455305576324463e-01 -4.043408334255218506e-01
9.440000000000000000e+02 1.715055227279663086e+00 -9.650613784790039062e+00 4.181886464357376099e-02 -6.727250814437866211e-01 -1.892718672752380371e-01 -7.631435990333557129e-02
9.450000000000000000e+02 6.770106554031372070e-01 -6.533034801483154297e+00 1.161265466362237930e-02 -6.385262012481689453e-01 -1.880740672349929810e-01 -8.971794694662094116e-02
9.460000000000000000e+02 3.369170665740966797e+00 -4.161844730377197266e+00 -2.438760548830032349e-02 -1.917894780635833740e-01 -6.485312432050704956e-02 -3.383608460426330566e-01
9.470000000000000000e+02 4.835716485977172852e-01 -3.588145971298217773e+00 -1.274076569825410843e-02 -2.469082623720169067e-01 -7.789471000432968140e-02 -6.387555599212646484e-02
9.480000000000000000e+02 1.968803596496582031e+01 -1.360857367515563965e+00 5.686569213867187500e+00 -2.126174122095108032e-01 1.642185449600219727e+00 2.604917764663696289e+00
9.490000000000000000e+02 2.237808609008789062e+01 7.304363846778869629e-01 3.145938634872436523e+00 5.258426666259765625e-01 1.101534366607666016e+00 2.270837545394897461e+00
9.500000000000000000e+02 1.980513572692871094e+01 2.408445835113525391e+00 -3.063205480575561523e+00 -1.838175058364868164e-01 -9.741068482398986816e-01 -6.320923566818237305e-01
9.510000000000000000e+02 5.482310104370117188e+01 3.753269195556640625e+01 2.770091772079467773e+00 1.958386421203613281e+01 6.706186771392822266e+00 9.758530259132385254e-01
9.520000000000000000e+02 4.401721191406250000e+01 -3.895166015625000000e+01 5.121630430221557617e-01 4.326839447021484375e+00 1.451700806617736816e+00 2.565019130706787109e+00
9.530000000000000000e+02 1.334692478179931641e+01 1.888936042785644531e+00 1.766553306579589844e+01 2.301846122741699219e+01 1.220519828796386719e+01 -1.246655845642089844e+01
9.540000000000000000e+02 1.400345897674560547e+01 4.083800315856933594e+00 1.306243658065795898e+00 1.144318103790283203e+01 3.824827432632446289e+00 2.900895833969116211e+00
9.550000000000000000e+02 5.718488693237304688e+01 3.361929702758789062e+01 2.889905929565429688e+00 1.377222251892089844e+01 4.998638629913330078e+00 3.530305027961730957e-01
9.560000000000000000e+02 1.531968116760253906e+01 -3.198607921600341797e+00 -2.668366730213165283e-01 7.634239196777343750e+00 2.210220813751220703e+00 2.506748437881469727e+00
9.570000000000000000e+02 1.912038803100585938e+01 -3.954427242279052734e+00 6.768534779548645020e-01 3.565331220626831055e+00 1.272655367851257324e+00 -1.428501605987548828e+00
9.580000000000000000e+02 4.192689514160156250e+01 -4.161043930053710938e+01 8.800989389419555664e-01 2.348348140716552734e+00 9.685341715812683105e-01 3.855741620063781738e-01
9.590000000000000000e+02 4.270701980590820312e+01 -3.071170806884765625e+01 1.058260440826416016e+00 4.357402801513671875e+00 1.624698877334594727e+00 -2.004462480545043945e+00
9.600000000000000000e+02 1.245626163482666016e+01 3.257099628448486328e+00 6.872500896453857422e+00 6.610756874084472656e+00 4.044977188110351562e+00 -6.193007946014404297e+00
9.610000000000000000e+02 4.647026824951171875e+01 -3.450510406494140625e+01 1.625829815864562988e+00 7.775654792785644531e+00 2.820445299148559570e+00 -1.791461706161499023e-01
9.620000000000000000e+02 3.069110679626464844e+01 -1.072052764892578125e+01 -4.094518348574638367e-02 -1.588827073574066162e-01 -5.994836613535881042e-02 1.751145273447036743e-01
9.630000000000000000e+02 3.103769111633300781e+01 -5.446325302124023438e+00 1.596203595399856567e-01 2.799410223960876465e-01 1.318684220314025879e-01 -4.582487419247627258e-02
9.640000000000000000e+02 3.837177276611328125e+01 -2.376291275024414062e+01 3.510232269763946533e-01 1.463206768035888672e+00 5.442689657211303711e-01 -7.338829040527343750e-01
9.650000000000000000e+02 3.701377868652343750e+01 -2.138025474548339844e+01 2.172736525535583496e-01 1.126536011695861816e+00 4.031428992748260498e-01 -5.106405019760131836e-01
9.660000000000000000e+02 2.631960487365722656e+01 -3.017729568481445312e+01 1.729528456926345825e-01 1.655586481094360352e+00 5.485618114471435547e-01 -5.007793903350830078e-01
9.670000000000000000e+02 3.120888900756835938e+01 -3.308567047119140625e+01 3.343819975852966309e-01 1.306301236152648926e+00 4.922049641609191895e-01 -5.495588779449462891e-01
9.680000000000000000e+02 2.150074195861816406e+01 -1.206163120269775391e+01 1.034232974052429199e+00 3.936041593551635742e+00 1.491082429885864258e+00 -1.812958359718322754e+00
9.690000000000000000e+02 2.635884666442871094e+01 -3.118979692459106445e+00 3.416641354560852051e-01 -2.047037035226821899e-01 4.108812287449836731e-02 -2.403557151556015015e-01
9.700000000000000000e+02 2.438300132751464844e+01 -1.237856626510620117e+00 1.371694326400756836e+00 -2.366738766431808472e-01 3.405061364173889160e-01 -3.665780723094940186e-01
9.710000000000000000e+02 3.179013633728027344e+01 -3.437470245361328125e+01 2.689358890056610107e-01 1.181627035140991211e+00 4.351688921451568604e-01 -5.207291245460510254e-01
9.720000000000000000e+02 1.873478889465332031e+01 -8.694543838500976562e+00 8.360349535942077637e-01 5.626487731933593750e+00 1.938756823539733887e+00 -1.215387821197509766e+00
9.730000000000000000e+02 3.644121170043945312e+01 -3.672449874877929688e+01 2.698005139827728271e-01 5.003009438514709473e-01 2.310304343700408936e-01 -4.876219332218170166e-01
9.740000000000000000e+02 3.538402938842773438e+01 -3.817213058471679688e+01 5.982507467269897461e-01 5.967835783958435059e-01 3.585102856159210205e-01 -3.397425711154937744e-01
9.750000000000000000e+02 3.209476089477539062e+01 -1.308879470825195312e+01 -2.668036334216594696e-02 2.152891643345355988e-02 -1.545434119179844856e-03 8.088023960590362549e-02
9.760000000000000000e+02 3.009270477294921875e+01 -3.092774391174316406e+01 3.916419744491577148e-01 1.502398967742919922e+00 5.682122707366943359e-01 -6.261934638023376465e-01
9.770000000000000000e+02 2.653442192077636719e+01 -5.056513309478759766e+00 -1.728359460830688477e-01 -2.898158133029937744e-01 -1.387955248355865479e-01 1.089657470583915710e-02
9.780000000000000000e+02 2.397929382324218750e+01 -1.871653938293457031e+01 4.358231723308563232e-01 2.369279861450195312e+00 8.415309190750122070e-01 -1.059366822242736816e+00
9.790000000000000000e+02 2.442939186096191406e+01 -1.676845359802246094e+01 6.831864714622497559e-01 2.300175666809082031e+00 8.950086236000061035e-01 -1.236649274826049805e+00
9.800000000000000000e+02 2.648552513122558594e+01 -2.346320343017578125e+01 3.739492595195770264e-01 2.015543222427368164e+00 7.168477773666381836e-01 -8.388903141021728516e-01
9.810000000000000000e+02 2.938695716857910156e+01 -2.652310752868652344e+01 3.856748342514038086e-01 1.730477452278137207e+00 6.348456740379333496e-01 -8.023876547813415527e-01
9.820000000000000000e+02 2.914324951171875000e+01 -2.991162872314453125e+01 3.266431689262390137e-01 1.592961907386779785e+00 5.758815407752990723e-01 -6.618065237998962402e-01
9.830000000000000000e+02 2.102918624877929688e+01 -1.407089805603027344e+01 6.183169484138488770e-01 3.472487926483154297e+00 1.227241516113281250e+00 -1.250806093215942383e+00
9.840000000000000000e+02 2.853535652160644531e+01 -2.854017257690429688e+01 3.239719569683074951e-01 1.684055685997009277e+00 6.024082899093627930e-01 -6.864318847656250000e-01
9.850000000000000000e+02 2.575887107849121094e+01 -1.915902900695800781e+01 5.372989773750305176e-01 2.166563987731933594e+00 8.111588954925537109e-01 -1.048728823661804199e+00
9.860000000000000000e+02 3.949688339233398438e+01 -2.308975982666015625e+01 2.042857557535171509e-01 2.046369314193725586e+00 6.751965284347534180e-01 -7.505623698234558105e-01
9.870000000000000000e+02 3.978494262695312500e+01 -2.611136054992675781e+01 5.189608931541442871e-01 2.029006004333496094e+00 7.643900513648986816e-01 -1.024996757507324219e+00
9.880000000000000000e+02 2.880390739440917969e+01 -2.526692771911621094e+01 3.923005759716033936e-01 1.825181484222412109e+00 6.652446389198303223e-01 -8.764172792434692383e-01
9.890000000000000000e+02 2.819057273864746094e+01 -2.710838890075683594e+01 2.864326238632202148e-01 1.785089969635009766e+00 6.214568018913269043e-01 -7.573531866073608398e-01
9.900000000000000000e+02 4.307819366455078125e+01 -2.874260902404785156e+01 4.387025237083435059e-01 4.290836811065673828e+00 1.418861746788024902e+00 -1.377529621124267578e+00
9.910000000000000000e+02 4.382601547241210938e+01 -2.984671592712402344e+01 4.766364395618438721e-01 5.096904754638671875e+00 1.672062397003173828e+00 -1.498844861984252930e+00
9.920000000000000000e+02 2.743510055541992188e+01 -4.002712249755859375e+00 5.490968227386474609e-01 -8.640970289707183838e-02 1.388061344623565674e-01 8.597501367330551147e-02
9.930000000000000000e+02 4.458625793457031250e+01 -3.099083709716796875e+01 4.745015799999237061e-01 6.283380508422851562e+00 2.027364730834960938e+00 -1.290595412254333496e+00
9.940000000000000000e+02 4.537872695922851562e+01 -3.218740081787109375e+01 6.722297668457031250e-01 7.025376796722412109e+00 2.309281826019287109e+00 -7.622601389884948730e-01
9.950000000000000000e+02 4.122790527343750000e+01 -2.842525482177734375e+01 7.604878544807434082e-01 2.760561704635620117e+00 1.056314826011657715e+00 -1.438227415084838867e+00
9.960000000000000000e+02 1.957992172241210938e+01 -1.147792625427246094e+01 6.221226453781127930e-01 4.570282459259033203e+00 1.557721614837646484e+00 -1.164516448974609375e+00
9.970000000000000000e+02 2.019161796569824219e+01 -1.285886669158935547e+01 5.207896828651428223e-01 3.845412969589233398e+00 1.309860825538635254e+00 -1.348019719123840332e+00
9.980000000000000000e+02 3.532269668579101562e+01 -1.600393676757812500e+01 1.974251866340637207e-02 8.199741244316101074e-01 2.519149780273437500e-01 -2.015272527933120728e-01
9.990000000000000000e+02 2.535253715515136719e+01 -2.198812246322631836e+00 1.333485603332519531e+00 -1.308851540088653564e-01 3.607801496982574463e-01 -2.764507941901683807e-02
1.000000000000000000e+03 2.149288749694824219e+01 -1.716298484802246094e+01 2.725733518600463867e-01 2.813356399536132812e+00 9.257789254188537598e-01 -1.002321362495422363e+00
1.001000000000000000e+03 2.258219337463378906e+01 -1.637979316711425781e+01 4.911003112792968750e-01 2.852284431457519531e+00 1.003015398979187012e+00 -1.173579812049865723e+00
1.002000000000000000e+03 3.673344802856445312e+01 -1.835402107238769531e+01 7.210671901702880859e-02 1.177868604660034180e+00 3.749925792217254639e-01 -3.553374409675598145e-01
1.003000000000000000e+03 3.461251831054687500e+01 -1.482493782043457031e+01 -7.306110113859176636e-02 6.580883860588073730e-01 1.755081862211227417e-01 -1.540714800357818604e-01
1.004000000000000000e+03 3.389821624755859375e+01 -1.364567565917968750e+01 -1.845828816294670105e-02 5.175073146820068359e-01 1.497147083282470703e-01 -7.104957848787307739e-02
1.005000000000000000e+03 1.831762695312500000e+01 -7.330330848693847656e+00 5.662645101547241211e-01 5.824868679046630859e+00 1.917339920997619629e+00 -1.431380391120910645e+00
1.006000000000000000e+03 3.711709594726562500e+01 -1.652946090698242188e+01 -1.603692583739757538e-02 1.388880491256713867e+00 4.118530452251434326e-01 -3.094051480293273926e-01
1.007000000000000000e+03 3.002855300903320312e+01 -9.493262290954589844e+00 -1.927986443042755127e-01 -2.766054868698120117e-01 -1.408212482929229736e-01 1.493105292320251465e-01
1.008000000000000000e+03 3.113375663757324219e+01 -8.842140197753906250e+00 -2.286327257752418518e-02 1.062906756997108459e-01 2.502821944653987885e-02 8.749822527170181274e-02
1.009000000000000000e+03 2.709532165527343750e+01 -2.464451599121093750e+01 3.299236893653869629e-01 1.904255628585815430e+00 6.702538132667541504e-01 -8.152074217796325684e-01
1.010000000000000000e+03 1.400529575347900391e+01 6.102840423583984375e+00 -6.401332616806030273e-01 6.280882835388183594e+00 1.692224860191345215e+00 1.120269894599914551e+00
1.011000000000000000e+03 1.679230117797851562e+01 7.307390213012695312e+00 2.208313792943954468e-01 1.175361394882202148e+00 4.188578426837921143e-01 2.862669825553894043e-01
1.012000000000000000e+03 1.482229900360107422e+01 7.329583644866943359e+00 -2.531654834747314453e-01 3.609769582748413086e+00 1.006981253623962402e+00 4.626067280769348145e-01
1.013000000000000000e+03 4.675774002075195312e+01 3.979679870605468750e+01 -2.430166959762573242e+00 -8.239182829856872559e-01 -9.762255549430847168e-01 -2.082782089710235596e-01
1.014000000000000000e+03 7.801348114013671875e+01 3.325126647949218750e+01 9.893129765987396240e-02 5.981477737426757812e+00 1.824122667312622070e+00 -1.905804574489593506e-01
1.015000000000000000e+03 7.926420593261718750e+01 3.609624099731445312e+01 -5.579327419400215149e-02 5.442182064056396484e+00 1.615916609764099121e+00 -2.004801481962203979e-02
1.016000000000000000e+03 7.698450469970703125e+01 -3.633872222900390625e+01 2.077360637485980988e-02 7.477104663848876953e+00 2.249363422393798828e+00 8.526074886322021484e-02
1.017000000000000000e+03 7.906265258789062500e+01 -3.487132263183593750e+01 2.385670319199562073e-03 7.551025390625000000e+00 2.266023159027099609e+00 3.600860387086868286e-02
1.018000000000000000e+03 7.797673034667968750e+01 -2.922690010070800781e+01 2.660372294485569000e-03 7.782875537872314453e+00 2.335660696029663086e+00 1.172144711017608643e-01
1.019000000000000000e+03 7.934670257568359375e+01 -2.787203979492187500e+01 -1.053992775268852711e-03 7.927440643310546875e+00 2.377916097640991211e+00 4.158362746238708496e-02
1.020000000000000000e+03 7.935016632080078125e+01 -2.092878723144531250e+01 1.040663453750312328e-03 8.381961822509765625e+00 2.514900684356689453e+00 3.983860835433006287e-02
1.021000000000000000e+03 7.806901550292968750e+01 -2.513616943359375000e+01 1.570218475535511971e-03 8.015324592590332031e+00 2.405068397521972656e+00 1.206223294138908386e-01
1.022000000000000000e+03 7.806700897216796875e+01 -2.650285530090332031e+01 4.711766450782306492e-05 7.937275886535644531e+00 2.381196975708007812e+00 1.200560480356216431e-01
1.023000000000000000e+03 7.766406250000000000e+01 -3.199346733093261719e+01 1.003945060074329376e-02 7.635352134704589844e+00 2.293617486953735352e+00 1.153491884469985962e-01
1.024000000000000000e+03 7.927796173095703125e+01 -3.065130615234375000e+01 -3.019835567101836205e-04 7.754699230194091797e+00 2.326319217681884766e+00 4.192988947033882141e-02
1.025000000000000000e+03 7.741958618164062500e+01 -3.342790603637695312e+01 1.586512476205825806e-02 7.569479465484619141e+00 2.275603294372558594e+00 1.096102595329284668e-01
1.026000000000000000e+03 7.502185058593750000e+01 -3.817090988159179688e+01 5.825151503086090088e-02 7.394179344177246094e+00 2.235729217529296875e+00 8.706988394260406494e-02
1.027000000000000000e+03 7.611601257324218750e+01 -4.078622436523437500e+01 4.110651463270187378e-02 7.399785518646240234e+00 2.232267618179321289e+00 2.802334725856781006e-02
1.028000000000000000e+03 7.807734680175781250e+01 1.526344108581542969e+01 -4.174765944480895996e-02 8.111102104187011719e+00 2.420806169509887695e+00 -2.297325730323791504e-01
1.029000000000000000e+03 7.936028289794921875e+01 1.530480861663818359e+01 2.270899899303913116e-02 8.171222686767578125e+00 2.458179473876953125e+00 -8.734872192144393921e-02
1.030000000000000000e+03 7.935353088378906250e+01 2.228248023986816406e+01 -4.752346128225326538e-02 7.190927505493164062e+00 2.143021106719970703e+00 -1.189699321985244751e-01
1.031000000000000000e+03 7.803233337402343750e+01 3.189820289611816406e+01 -2.105234935879707336e-02 6.103157997131347656e+00 1.824631690979003906e+00 -2.231567949056625366e-01
1.032000000000000000e+03 7.808129119873046875e+01 2.778113365173339844e+01 6.629579514265060425e-02 6.557638168334960938e+00 1.987180113792419434e+00 -2.986210584640502930e-01
1.033000000000000000e+03 7.936039733886718750e+01 2.783882713317871094e+01 -5.465968325734138489e-02 6.283128261566162109e+00 1.868540644645690918e+00 -1.126756221055984497e-01
1.034000000000000000e+03 7.807782745361328125e+01 2.503095436096191406e+01 5.473775044083595276e-02 6.921037673950195312e+00 2.092732667922973633e+00 -3.058641254901885986e-01
1.035000000000000000e+03 7.806613159179687500e+01 2.365310478210449219e+01 -5.139915272593498230e-02 7.115341186523437500e+00 2.119182586669921875e+00 -3.130508065223693848e-01
1.036000000000000000e+03 7.805924224853515625e+01 1.806480026245117188e+01 -4.555651545524597168e-02 7.814245223999023438e+00 2.330606698989868164e+00 -2.700417041778564453e-01
1.037000000000000000e+03 7.806912994384765625e+01 1.666295814514160156e+01 1.490358263254165649e-02 7.965965270996093750e+00 2.394260644912719727e+00 -2.416723668575286865e-01
1.038000000000000000e+03 7.808089447021484375e+01 1.386893463134765625e+01 7.926853373646736145e-03 8.238724708557128906e+00 2.473995685577392578e+00 -2.015569508075714111e-01
1.039000000000000000e+03 7.679221343994140625e+01 1.245098400115966797e+01 -1.840672641992568970e-02 8.264243125915527344e+00 2.473751068115234375e+00 -2.715886235237121582e-01
1.040000000000000000e+03 7.808905029296875000e+01 9.689585685729980469e+00 -3.196004778146743774e-02 8.553302764892578125e+00 2.556402921676635742e+00 -1.466796845197677612e-01
1.041000000000000000e+03 7.936448669433593750e+01 9.730803489685058594e+00 1.280848775058984756e-02 8.698560714721679688e+00 2.613410711288452148e+00 -5.848130211234092712e-02
1.042000000000000000e+03 7.934932708740234375e+01 -1.953572845458984375e+01 -2.936196979135274887e-03 8.469095230102539062e+00 2.539847612380981445e+00 3.789933025836944580e-02
1.043000000000000000e+03 7.804950714111328125e+01 -2.237316131591796875e+01 -4.943761741742491722e-04 8.172631263732910156e+00 2.451641082763671875e+00 1.199840381741523743e-01
1.044000000000000000e+03 7.808248138427734375e+01 -1.538691329956054688e+01 -1.034916378557682037e-02 8.541218757629394531e+00 2.559260845184326172e+00 9.235750883817672729e-02
1.045000000000000000e+03 7.936367797851562500e+01 -1.395478916168212891e+01 -5.283192265778779984e-03 8.779770851135253906e+00 2.632346153259277344e+00 2.639019489288330078e-02
1.046000000000000000e+03 7.808404541015625000e+01 -8.408406257629394531e+00 -3.609572770074009895e-03 8.793663024902343750e+00 2.637016057968139648e+00 4.565009474754333496e-02
1.047000000000000000e+03 7.936167144775390625e+01 -6.986096858978271484e+00 3.384054405614733696e-03 9.029263496398925781e+00 2.709794282913208008e+00 7.330173160880804062e-03
1.048000000000000000e+03 7.808196258544921875e+01 -6.532469391822814941e-02 -2.941257553175091743e-03 8.871439933776855469e+00 2.660549640655517578e+00 -2.695121802389621735e-02
1.049000000000000000e+03 7.936287689208984375e+01 1.370280504226684570e+00 5.567896179854869843e-03 9.059237480163574219e+00 2.719441652297973633e+00 -2.159333601593971252e-02
1.050000000000000000e+03 7.680613708496093750e+01 8.278346061706542969e+00 -5.212082341313362122e-02 8.489414215087890625e+00 2.531188011169433594e+00 -1.878545284271240234e-01
1.051000000000000000e+03 7.807155609130859375e+01 2.915496826171875000e+01 -4.133958742022514343e-02 6.400333404541015625e+00 1.907698035240173340e+00 -2.779640555381774902e-01
1.052000000000000000e+03 7.413265228271484375e+01 3.824056625366210938e+01 2.539373040199279785e-01 6.998505115509033203e+00 2.175732612609863281e+00 -3.037047386169433594e-01
1.053000000000000000e+03 7.678778076171875000e+01 1.308251142501831055e+00 -1.942854747176170349e-02 8.667551040649414062e+00 2.594436883926391602e+00 -5.598012357950210571e-02
1.054000000000000000e+03 7.808360290527343750e+01 1.330979824066162109e+00 -2.000713348388671875e-02 8.857310295104980469e+00 2.651190996170043945e+00 -4.161481559276580811e-02
1.055000000000000000e+03 7.678622436523437500e+01 -8.947877585887908936e-02 -3.530417382717132568e-02 8.678687095642089844e+00 2.593014955520629883e+00 -3.502339124679565430e-02
1.056000000000000000e+03 7.807003784179687500e+01 -4.254322528839111328e+00 -1.627909950911998749e-02 8.865610122680664062e+00 2.654799222946166992e+00 1.193317212164402008e-02
1.057000000000000000e+03 7.936029815673828125e+01 -2.813224792480468750e+00 -8.792117238044738770e-03 9.085877418518066406e+00 2.723125457763671875e+00 -6.651600822806358337e-03
1.058000000000000000e+03 7.806977081298828125e+01 -5.638298034667968750e+00 -3.133824560791254044e-03 8.847841262817382812e+00 2.653412103652954102e+00 2.404677309095859528e-02
1.059000000000000000e+03 7.809745025634765625e+01 -1.119705009460449219e+01 -3.276411211118102074e-03 8.711457252502441406e+00 2.612454414367675781e+00 6.625599414110183716e-02
1.060000000000000000e+03 7.936462402343750000e+01 -9.771718025207519531e+00 2.818507375195622444e-03 8.951290130615234375e+00 2.686232566833496094e+00 1.565591618418693542e-02
1.061000000000000000e+03 7.809817504882812500e+01 -1.259099197387695312e+01 -1.078379526734352112e-02 8.660973548889160156e+00 2.595057010650634766e+00 7.461565732955932617e-02
1.062000000000000000e+03 7.804944610595703125e+01 -1.818924522399902344e+01 -7.609029300510883331e-03 8.400338172912597656e+00 2.517818927764892578e+00 1.078684180974960327e-01
1.063000000000000000e+03 7.935588836669921875e+01 -1.674659156799316406e+01 -4.547259770333766937e-03 8.634231567382812500e+00 2.588905096054077148e+00 3.313829749822616577e-02
1.064000000000000000e+03 7.803951263427734375e+01 -1.958646011352539062e+01 -1.406016061082482338e-03 8.325436592102050781e+00 2.497209072113037109e+00 1.144460365176200867e-01
1.065000000000000000e+03 1.717568016052246094e+01 1.230050683021545410e+00 -1.766937446594238281e+01 -1.732576727867126465e+00 -5.820585727691650391e+00 -3.756146669387817383e+00
1.066000000000000000e+03 1.817420196533203125e+01 1.225450897216796875e+01 -6.338835954666137695e-01 6.509948968887329102e-01 5.133380647748708725e-03 -8.608398586511611938e-02
1.067000000000000000e+03 2.757637786865234375e+01 2.239567375183105469e+01 -6.732461452484130859e-01 -5.809475183486938477e-01 -3.762580752372741699e-01 -6.757696270942687988e-01
1.068000000000000000e+03 3.051078605651855469e+01 2.315791893005371094e+01 -7.169542312622070312e-01 -7.723857164382934570e-01 -4.468019604682922363e-01 -8.084727525711059570e-01
1.069000000000000000e+03 1.778717041015625000e+01 8.298762321472167969e+00 -2.292231321334838867e-01 2.783768773078918457e-01 1.474612113088369370e-02 2.367745637893676758e-01
1.070000000000000000e+03 3.953181838989257812e+01 2.017548179626464844e+01 5.270619392395019531e-01 7.584202289581298828e-01 3.856446444988250732e-01 6.447704434394836426e-01
1.071000000000000000e+03 4.125934982299804688e+01 1.815647506713867188e+01 5.641202926635742188e-01 1.630171656608581543e+00 6.582875847816467285e-01 1.027563214302062988e+00
1.072000000000000000e+03 4.553584671020507812e+01 3.581044006347656250e+01 -1.344039201736450195e+00 -7.025761008262634277e-01 -6.139845848083496094e-01 -1.135164141654968262e+00
1.073000000000000000e+03 1.581256484985351562e+01 8.450230598449707031e+00 -4.258789122104644775e-01 2.022335290908813477e+00 4.789368808269500732e-01 5.148578882217407227e-01
1.074000000000000000e+03 5.061277008056640625e+01 3.074346923828125000e+01 3.851558446884155273e+00 5.415053844451904297e+00 2.779983758926391602e+00 4.613070964813232422e+00
1.075000000000000000e+03 5.326226043701171875e+01 3.122947311401367188e+01 2.402478456497192383e+00 1.133399391174316406e+01 4.120941638946533203e+00 4.656173706054687500e+00
1.076000000000000000e+03 2.563080596923828125e+01 1.621424484252929688e+01 -8.504129052162170410e-01 -7.994202375411987305e-01 -4.949499368667602539e-01 -7.736584544181823730e-01
1.077000000000000000e+03 2.274613189697265625e+01 1.733217430114746094e+01 -6.961894035339355469e-01 -1.100178137421607971e-01 -2.418621778488159180e-01 -5.311114192008972168e-01
1.078000000000000000e+03 4.749480056762695312e+01 2.594396972656250000e+01 1.610696196556091309e+00 3.361882448196411133e+00 1.491773605346679688e+00 2.409845352172851562e+00
1.079000000000000000e+03 3.472746658325195312e+01 1.300367259979248047e+01 3.907621502876281738e-01 6.241971254348754883e-01 3.044877946376800537e-01 4.821494519710540771e-01
1.080000000000000000e+03 3.096744155883789062e+01 6.181235313415527344e+00 7.643638849258422852e-01 4.183211922645568848e-01 3.548055291175842285e-01 4.430568814277648926e-01
1.081000000000000000e+03 4.240637969970703125e+01 2.109862136840820312e+01 7.653185129165649414e-01 1.590895771980285645e+00 7.068642973899841309e-01 1.176854491233825684e+00
1.082000000000000000e+03 4.155823516845703125e+01 2.209029769897460938e+01 8.924030065536499023e-01 1.051303267478942871e+00 5.831118822097778320e-01 9.548361301422119141e-01
1.083000000000000000e+03 2.286183357238769531e+01 2.767014503479003906e+00 4.957285523414611816e-01 7.611504793167114258e-01 3.770637214183807373e-01 1.013903975486755371e+00
1.084000000000000000e+03 3.197060775756835938e+01 1.193459415435791016e+01 3.494090437889099121e-01 3.633183836936950684e-01 2.138182371854782104e-01 3.165505230426788330e-01
1.085000000000000000e+03 3.271331787109375000e+01 1.099600124359130859e+01 4.328336715698242188e-01 4.685831665992736816e-01 2.704250514507293701e-01 4.256460070610046387e-01
1.086000000000000000e+03 2.266815757751464844e+01 1.326493644714355469e+01 -6.867220401763916016e-01 -5.208004713058471680e-01 -3.622567653656005859e-01 -7.172415256500244141e-01
1.087000000000000000e+03 2.519934654235839844e+01 4.477750778198242188e+00 6.922143101692199707e-01 3.940633535385131836e-01 3.258832991123199463e-01 5.523329377174377441e-01
1.088000000000000000e+03 2.956044769287109375e+01 2.221288490295410156e+01 -7.300918698310852051e-01 -7.535555958747863770e-01 -4.450942277908325195e-01 -7.708050608634948730e-01
1.089000000000000000e+03 4.346181488037109375e+01 2.203630065917968750e+01 9.370412826538085938e-01 1.886235237121582031e+00 8.469829559326171875e-01 1.364938855171203613e+00
1.090000000000000000e+03 5.486288070678710938e+01 3.037101554870605469e+01 1.406023979187011719e+00 1.080055809020996094e+01 3.661974430084228516e+00 2.333275318145751953e+00
1.091000000000000000e+03 2.889009284973144531e+01 9.053309440612792969e+00 4.346433281898498535e-01 2.941721081733703613e-01 2.186446338891983032e-01 3.901309072971343994e-01
1.092000000000000000e+03 3.168325805664062500e+01 1.000963497161865234e+01 4.869543612003326416e-01 4.298015534877777100e-01 2.750267684459686279e-01 3.934817612171173096e-01
1.093000000000000000e+03 2.084357452392578125e+01 1.328247833251953125e+01 -6.277981400489807129e-01 1.486616488546133041e-02 -1.838795840740203857e-01 -4.673528969287872314e-01
1.094000000000000000e+03 3.309588241577148438e+01 2.629528617858886719e+01 -7.414273619651794434e-01 -8.497633934020996094e-01 -4.773572385311126709e-01 -8.150202035903930664e-01
1.095000000000000000e+03 3.011217498779296875e+01 2.695250701904296875e+01 -6.640565395355224609e-01 -5.966975688934326172e-01 -3.782262504100799561e-01 -6.867727637290954590e-01
1.096000000000000000e+03 3.372651290893554688e+01 1.199395179748535156e+01 4.282239973545074463e-01 5.616793632507324219e-01 2.969709932804107666e-01 4.365226626396179199e-01
1.097000000000000000e+03 3.679310226440429688e+01 1.703767204284667969e+01 4.038491249084472656e-01 6.334502100944519043e-01 3.111898005008697510e-01 5.167679786682128906e-01
1.098000000000000000e+03 4.338471221923828125e+01 3.409069824218750000e+01 -1.282108783721923828e+00 -6.786830425262451172e-01 -5.882375240325927734e-01 -9.940751194953918457e-01
1.099000000000000000e+03 2.660734176635742188e+01 1.721619606018066406e+01 -8.763248324394226074e-01 -7.982013821601867676e-01 -5.023578405380249023e-01 -8.768330216407775879e-01
1.100000000000000000e+03 2.272063827514648438e+01 1.527654552459716797e+01 -6.912228465080261230e-01 -2.851865291595458984e-01 -2.929228246212005615e-01 -5.891574621200561523e-01
1.101000000000000000e+03 2.176587486267089844e+01 1.428509998321533203e+01 -7.259542346000671387e-01 -3.154676556587219238e-01 -3.124265670776367188e-01 -4.451510310173034668e-01
1.102000000000000000e+03 1.865721130371093750e+01 1.780689954757690430e+00 -4.219421386718750000e+00 -3.216082155704498291e-01 -1.362308859825134277e+00 -2.461122512817382812e+00
1.103000000000000000e+03 1.787479400634765625e+01 1.209583759307861328e+00 -9.106678009033203125e+00 -1.530099630355834961e+00 -3.191033363342285156e+00 -7.043218016624450684e-01
1.104000000000000000e+03 3.341283798217773438e+01 2.414121437072753906e+01 -7.564618587493896484e-01 -9.679872393608093262e-01 -5.173346996307373047e-01 -8.665540218353271484e-01
1.105000000000000000e+03 3.466505813598632812e+01 2.859964752197265625e+01 -8.031397461891174316e-01 -8.699242472648620605e-01 -5.019192099571228027e-01 -8.181326389312744141e-01
1.106000000000000000e+03 2.958630180358886719e+01 8.082971572875976562e+00 6.219806075096130371e-01 3.358554542064666748e-01 2.873508334159851074e-01 3.992075324058532715e-01
1.107000000000000000e+03 3.387421798706054688e+01 2.744738006591796875e+01 -7.942291498184204102e-01 -8.823740482330322266e-01 -5.029809474945068359e-01 -8.094381093978881836e-01
1.108000000000000000e+03 2.404992485046386719e+01 3.626805782318115234e+00 3.661241233348846436e-01 4.072230756282806396e-01 2.320041656494140625e-01 8.225300908088684082e-01
1.109000000000000000e+03 4.932011413574218750e+01 2.603698158264160156e+01 1.352984070777893066e+00 4.921351909637451172e+00 1.882300734519958496e+00 2.763081550598144531e+00
1.110000000000000000e+03 4.763330078125000000e+01 2.786585617065429688e+01 2.360291957855224609e+00 2.800619840621948242e+00 1.548273563385009766e+00 2.537920236587524414e+00
1.111000000000000000e+03 3.977836227416992188e+01 3.590096282958984375e+01 -1.226611852645874023e+00 -6.692552566528320312e-01 -5.687600970268249512e-01 -7.570008635520935059e-01
1.112000000000000000e+03 4.119116210937500000e+01 3.243311309814453125e+01 -1.074572086334228516e+00 -7.572296857833862305e-01 -5.495405197143554688e-01 -1.006600379943847656e+00
1.113000000000000000e+03 2.632133293151855469e+01 5.336506366729736328e+00 6.921975016593933105e-01 3.023219704627990723e-01 2.983558475971221924e-01 5.347165465354919434e-01
1.114000000000000000e+03 4.451124572753906250e+01 2.297648429870605469e+01 1.053537726402282715e+00 2.200494766235351562e+00 9.762097001075744629e-01 1.574658751487731934e+00
1.115000000000000000e+03 4.036357498168945312e+01 3.401319885253906250e+01 -1.146529555320739746e+00 -8.383300304412841797e-01 -5.954578518867492676e-01 -7.990531921386718750e-01
1.116000000000000000e+03 5.226221466064453125e+01 3.055299758911132812e+01 2.616310358047485352e+00 8.438924789428710938e+00 3.316570520401000977e+00 4.406247138977050781e+00
1.117000000000000000e+03 1.798281478881835938e+01 1.030538940429687500e+01 -4.747291505336761475e-01 5.273755788803100586e-01 1.579392887651920319e-02 5.961747840046882629e-02
1.118000000000000000e+03 3.857195281982421875e+01 1.712940216064453125e+01 4.731260836124420166e-01 9.952637553215026855e-01 4.405169486999511719e-01 6.995123028755187988e-01
1.119000000000000000e+03 2.761171913146972656e+01 2.027166557312011719e+01 -7.831757068634033203e-01 -7.082442045211791992e-01 -4.474259614944458008e-01 -7.447552680969238281e-01
1.120000000000000000e+03 4.553297424316406250e+01 2.394336700439453125e+01 1.245752096176147461e+00 2.523130655288696289e+00 1.130664825439453125e+00 1.780373811721801758e+00
1.121000000000000000e+03 3.642586517333984375e+01 3.111891937255859375e+01 -8.485739231109619141e-01 -8.404763340950012207e-01 -5.067150592803955078e-01 -7.979988455772399902e-01
1.122000000000000000e+03 3.693963241577148438e+01 2.851138687133789062e+01 -9.298423528671264648e-01 -1.045032143592834473e+00 -5.924623608589172363e-01 -9.598881006240844727e-01
1.123000000000000000e+03 5.593258666992187500e+01 3.087313842773437500e+01 1.445798158645629883e+00 1.184389877319335938e+01 3.986909151077270508e+00 1.817361116409301758e+00
1.124000000000000000e+03 5.508413696289062500e+01 3.397266387939453125e+01 4.098474979400634766e+00 1.605687332153320312e+01 6.046604156494140625e+00 3.699356317520141602e+00
1.125000000000000000e+03 2.860292625427246094e+01 1.917206764221191406e+01 -8.900743722915649414e-01 -8.049685359001159668e-01 -5.085128545761108398e-01 -8.811001777648925781e-01
1.126000000000000000e+03 2.858863067626953125e+01 2.125235366821289062e+01 -7.656721472740173340e-01 -6.887567639350891113e-01 -4.363286793231964111e-01 -7.677296400070190430e-01
1.127000000000000000e+03 2.023676872253417969e+01 1.248901367187500000e+00 7.378876209259033203e-01 2.172488451004028320e+00 8.731128573417663574e-01 9.250305891036987305e-01
1.128000000000000000e+03 2.158201217651367188e+01 1.875848650932312012e+00 -1.444042623043060303e-01 1.087593078613281250e+00 2.829566597938537598e-01 1.742916703224182129e+00
1.129000000000000000e+03 4.941163635253906250e+01 2.791314888000488281e+01 2.129611253738403320e+00 4.730507850646972656e+00 2.058035850524902344e+00 3.161632061004638672e+00
1.130000000000000000e+03 5.034559631347656250e+01 2.886727142333984375e+01 2.472636222839355469e+00 5.431563854217529297e+00 2.371260166168212891e+00 3.678551673889160156e+00
1.131000000000000000e+03 4.159339141845703125e+01 3.450529861450195312e+01 -1.251828074455261230e+00 -6.661891937255859375e-01 -5.754051804542541504e-01 -9.259489774703979492e-01
1.132000000000000000e+03 3.764302825927734375e+01 1.609606742858886719e+01 4.444332718849182129e-01 9.332085847854614258e-01 4.132925570011138916e-01 6.206611990928649902e-01
1.133000000000000000e+03 1.320736765861511230e+00 -3.998464965820312500e+01 4.340339917689561844e-03 4.123387634754180908e-01 1.250037252902984619e-01 2.941077388823032379e-02
1.134000000000000000e+03 3.017115116119384766e+00 3.786610031127929688e+01 -5.424508079886436462e-02 3.292268276214599609e+00 9.714069366455078125e-01 2.651653811335563660e-02
1.135000000000000000e+03 7.004745602607727051e-01 3.457582473754882812e+01 -1.959612965583801270e-02 3.638649702072143555e+00 1.085716128349304199e+00 1.978722320927772671e-05
1.136000000000000000e+03 6.723990440368652344e-01 2.607288742065429688e+01 -7.457657717168331146e-03 3.366425514221191406e+00 1.007690429687500000e+00 -4.347421601414680481e-02
1.137000000000000000e+03 2.152536630630493164e+00 2.865587997436523438e+01 -1.634555682539939880e-02 3.228462934494018555e+00 9.636352062225341797e-01 -1.021070182323455811e-01
1.138000000000000000e+03 5.396058559417724609e-01 -3.605487060546875000e+01 -3.718161489814519882e-03 2.940129637718200684e-01 8.708844333887100220e-02 8.266475982964038849e-03
1.139000000000000000e+03 2.388574838638305664e+00 -3.345940399169921875e+01 -9.968445636332035065e-03 3.415284752845764160e-01 9.946800768375396729e-02 7.125348597764968872e-02
1.140000000000000000e+03 3.435990095138549805e+00 2.683847236633300781e+01 -4.562477394938468933e-02 2.926792144775390625e+00 8.643501996994018555e-01 -1.931261867284774780e-01
1.141000000000000000e+03 3.297312021255493164e+00 2.534873008728027344e+01 -5.493184924125671387e-02 2.860946655273437500e+00 8.418044447898864746e-01 -2.093762010335922241e-01
1.142000000000000000e+03 2.177821636199951172e+00 3.156022644042968750e+01 -4.841908346861600876e-03 3.322745084762573242e+00 9.953709840774536133e-01 -6.557763367891311646e-02
1.143000000000000000e+03 2.116326332092285156e+00 3.295796585083007812e+01 -2.345873601734638214e-02 3.364708423614501953e+00 1.002374887466430664e+00 -3.450003266334533691e-02
1.144000000000000000e+03 5.505980014801025391e+00 3.748961639404296875e+01 -5.009518191218376160e-02 2.816214323043823242e+00 8.298357129096984863e-01 -1.105482727289199829e-01
1.145000000000000000e+03 3.857634067535400391e+00 3.902659606933593750e+01 -8.972756564617156982e-03 3.258983612060546875e+00 9.750032424926757812e-01 -2.886713296175003052e-02
1.146000000000000000e+03 2.193975210189819336e+00 -2.915441894531250000e+01 -1.317734736949205399e-02 1.826422661542892456e-01 5.083947628736495972e-02 9.896954894065856934e-02
1.147000000000000000e+03 2.117008686065673828e+00 -2.627606773376464844e+01 -9.568942710757255554e-03 6.040277332067489624e-02 1.525015011429786682e-02 1.160496771335601807e-01
1.148000000000000000e+03 1.779030799865722656e+00 -1.650800514221191406e+01 9.414684958755970001e-03 -5.323647260665893555e-01 -1.568850129842758179e-01 1.116177141666412354e-01
1.149000000000000000e+03 1.896982908248901367e+00 -3.681454849243164062e+01 -7.109749130904674530e-04 3.721088171005249023e-01 1.114193573594093323e-01 4.521692916750907898e-02
1.150000000000000000e+03 6.041181683540344238e-01 1.900893020629882812e+01 -1.450740359723567963e-02 2.609970092773437500e+00 7.786388397216796875e-01 -1.083336547017097473e-01
1.151000000000000000e+03 5.619663596153259277e-01 1.338310337066650391e+01 -3.769504278898239136e-02 1.322232127189636230e+00 3.853611350059509277e-01 -1.610501557588577271e-01
1.152000000000000000e+03 5.234636068344116211e-01 7.762157440185546875e+00 -1.900465413928031921e-02 -1.883879750967025757e-01 -6.221778690814971924e-02 -7.793856412172317505e-02
1.153000000000000000e+03 3.386180400848388672e+00 -3.875234603881835938e+01 -1.253900397568941116e-02 4.299713969230651855e-01 1.252297163009643555e-01 4.308179393410682678e-02
1.154000000000000000e+03 3.051349163055419922e+00 -3.658315658569335938e+01 -2.406300045549869537e-03 4.309426546096801758e-01 1.285609155893325806e-01 6.653131544589996338e-02
1.155000000000000000e+03 1.556145429611206055e+00 -3.557184982299804688e+01 -1.445672096451744437e-04 3.276419639587402344e-01 9.824921935796737671e-02 4.817352443933486938e-02
1.156000000000000000e+03 2.226392269134521484e+00 -3.196681976318359375e+01 -1.582274399697780609e-02 2.833859622478485107e-01 8.026896417140960693e-02 7.247418910264968872e-02
1.157000000000000000e+03 2.187792539596557617e+00 -2.772472190856933594e+01 -8.061548694968223572e-03 1.282104849815368652e-01 3.604468330740928650e-02 1.097725778818130493e-01
1.158000000000000000e+03 3.514617681503295898e+00 -2.623897361755371094e+01 -1.777815818786621094e-02 2.358126491308212280e-01 6.541034579277038574e-02 1.767307072877883911e-01
1.159000000000000000e+03 1.924013733863830566e+00 -2.205645370483398438e+01 -3.137457184493541718e-03 -1.873727142810821533e-01 -5.715304985642433167e-02 1.346498280763626099e-01
1.160000000000000000e+03 2.043198108673095703e+00 -2.484922790527343750e+01 -6.198508199304342270e-03 -1.844526827335357666e-02 -7.393132895231246948e-03 1.255105584859848022e-01
1.161000000000000000e+03 1.837366700172424316e+00 -1.928403663635253906e+01 2.080799313262104988e-03 -3.646170198917388916e-01 -1.087608635425567627e-01 1.339646577835083008e-01
1.162000000000000000e+03 6.106561422348022461e-01 -1.921228790283203125e+01 3.596654860302805901e-03 -6.241909265518188477e-01 -1.861782968044281006e-01 4.649573937058448792e-02
1.163000000000000000e+03 2.866326808929443359e+00 -1.255174064636230469e+01 6.878081709146499634e-02 -4.138216376304626465e-01 -1.035122498869895935e-01 4.928553104400634766e-02
1.164000000000000000e+03 5.651667118072509766e-01 -1.219057846069335938e+01 1.377785345539450645e-03 -1.006801605224609375e+00 -3.016271591186523438e-01 8.222036063671112061e-03
1.165000000000000000e+03 1.705716133117675781e+00 -1.236846637725830078e+01 3.197325766086578369e-02 -6.975836157798767090e-01 -1.996830999851226807e-01 2.135701477527618408e-02
1.166000000000000000e+03 3.140183687210083008e+00 -3.121375322341918945e+00 -9.633569419384002686e-02 -1.320317834615707397e-01 -6.851024180650711060e-02 -3.084524273872375488e-01
1.167000000000000000e+03 1.411436796188354492e+00 -3.458162069320678711e+00 -2.227975428104400635e-02 -2.407151013612747192e-01 -7.889845222234725952e-02 -1.675724536180496216e-01
1.168000000000000000e+03 6.296225786209106445e-01 -5.037015438079833984e+00 -7.816586643457412720e-03 -4.615618884563446045e-01 -1.408135443925857544e-01 -9.240174293518066406e-02
1.169000000000000000e+03 4.428922832012176514e-01 4.932482719421386719e+00 -1.130620017647743225e-02 -4.190770983695983887e-01 -1.291149854660034180e-01 2.132012508809566498e-02
1.170000000000000000e+03 5.828629016876220703e+00 4.442032814025878906e+00 9.251018166542053223e-01 3.938267938792705536e-03 2.787120342254638672e-01 -2.655997872352600098e-01
1.171000000000000000e+03 1.635180115699768066e+00 1.035673999786376953e+01 6.670133769512176514e-02 6.571999788284301758e-01 2.171703875064849854e-01 -4.376357793807983398e-01
1.172000000000000000e+03 5.448890328407287598e-01 1.057795047760009766e+01 -3.760059550404548645e-02 4.943548440933227539e-01 1.370262652635574341e-01 -1.500528007745742798e-01
1.173000000000000000e+03 1.688697934150695801e+00 1.311159896850585938e+01 1.042850688099861145e-02 1.334258198738098145e+00 4.034060239791870117e-01 -4.526116251945495605e-01
1.174000000000000000e+03 1.839979052543640137e+00 2.007357406616210938e+01 -3.703857585787773132e-02 2.619796276092529297e+00 7.748273015022277832e-01 -2.715333402156829834e-01
1.175000000000000000e+03 1.817453026771545410e+00 1.867660903930664062e+01 -2.752613462507724762e-02 2.416029453277587891e+00 7.165510058403015137e-01 -2.919936776161193848e-01
1.176000000000000000e+03 1.933565020561218262e+00 2.428278160095214844e+01 -2.611140720546245575e-02 3.008917093276977539e+00 8.948417305946350098e-01 -1.520228683948516846e-01
1.177000000000000000e+03 1.362020969390869141e+01 1.155147194862365723e+00 1.329655551910400391e+01 2.436123847961425781e+01 1.129733848571777344e+01 -4.741741657257080078e+00
1.178000000000000000e+03 1.320171546936035156e+01 1.130767107009887695e+00 9.596270561218261719e+00 5.508775711059570312e+00 4.531514167785644531e+00 -3.115723609924316406e+00
1.179000000000000000e+03 1.413698577880859375e+01 -2.313192605972290039e+00 1.259565472602844238e+00 1.676017761230468750e+00 8.806749582290649414e-01 1.747532367706298828e+00
1.180000000000000000e+03 1.442511367797851562e+01 -2.917770624160766602e+00 1.130525350570678711e+00 3.632934331893920898e+00 1.429037928581237793e+00 2.456701517105102539e+00
1.181000000000000000e+03 1.540419483184814453e+01 -2.634814262390136719e+00 2.173459976911544800e-01 8.853528022766113281e+00 2.721262216567993164e+00 3.319982528686523438e+00
1.182000000000000000e+03 1.346893024444580078e+01 -2.230157852172851562e+00 3.634957969188690186e-01 5.045006275177001953e-01 2.603989243507385254e-01 6.885561943054199219e-01
1.183000000000000000e+03 1.493088436126708984e+01 -2.270692586898803711e+00 1.799471259117126465e+00 4.581498622894287109e+00 1.914291024208068848e+00 3.776714086532592773e+00
1.184000000000000000e+03 1.498790168762207031e+01 -2.518815279006958008e+00 1.151430130004882812e+00 5.785374641418457031e+00 2.081041336059570312e+00 3.435580968856811523e+00
1.185000000000000000e+03 1.597512054443359375e+01 -2.393909454345703125e+00 -6.551394462585449219e-01 1.360905265808105469e+01 3.886173963546752930e+00 1.964854955673217773e+00
1.186000000000000000e+03 1.698073387145996094e+01 -2.022865533828735352e+00 3.761080265045166016e+00 1.350805568695068359e+01 5.180740833282470703e+00 -4.981079101562500000e+00
1.187000000000000000e+03 1.813156700134277344e+01 2.190823704004287720e-01 3.597387552261352539e+00 -1.272228360176086426e+00 6.975477337837219238e-01 5.670677185058593750e+00
1.188000000000000000e+03 1.776344299316406250e+01 -1.742137193679809570e+00 7.516459465026855469e+00 5.178063392639160156e+00 3.808357000350952148e+00 -3.066655397415161133e+00
1.189000000000000000e+03 1.718893241882324219e+01 -2.323305606842041016e+00 1.893462300300598145e+00 1.153827095031738281e+01 4.029520034790039062e+00 -4.053298950195312500e+00
1.190000000000000000e+03 1.748814582824707031e+01 -7.315515726804733276e-02 1.036403942108154297e+01 -5.829529762268066406e-01 2.934325933456420898e+00 4.756127834320068359e+00
1.191000000000000000e+03 1.617874336242675781e+01 -2.993612289428710938e+00 -8.281646370887756348e-01 1.163910293579101562e+01 3.243281602859497070e+00 7.178868055343627930e-01
1.192000000000000000e+03 1.384209632873535156e+01 1.105006575584411621e+00 1.449635410308837891e+01 2.206663513183593750e+01 1.096889686584472656e+01 -1.328408336639404297e+01
1.193000000000000000e+03 1.775015258789062500e+01 2.469086498022079468e-01 3.875539302825927734e+00 -1.160082101821899414e+00 8.146371841430664062e-01 5.377906322479248047e+00
1.194000000000000000e+03 1.589901256561279297e+01 -3.274327278137207031e+00 -1.202156782150268555e+00 9.813969612121582031e+00 2.583544015884399414e+00 1.204383730888366699e+00
1.195000000000000000e+03 1.639081192016601562e+01 -2.694886684417724609e+00 -1.055950164794921875e+00 1.322288608551025391e+01 3.650080680847167969e+00 -3.377452790737152100e-01
1.196000000000000000e+03 1.015519142150878906e+01 -2.531231880187988281e+00 -4.737412035465240479e-01 1.346755921840667725e-01 -1.017196848988533020e-01 -3.513045907020568848e-01
1.197000000000000000e+03 1.072794246673583984e+01 -3.224576950073242188e+00 5.025941133499145508e-02 2.409866303205490112e-01 8.737380802631378174e-02 -1.920814663171768188e-01
1.198000000000000000e+03 9.481167793273925781e+00 -3.157434701919555664e+00 -1.697419136762619019e-01 1.291444897651672363e-01 -1.217922661453485489e-02 -3.467227518558502197e-01
1.199000000000000000e+03 1.126713657379150391e+01 -3.331159591674804688e+00 2.508042156696319580e-01 3.587710857391357422e-01 1.828725934028625488e-01 -4.494492709636688232e-02
1.200000000000000000e+03 1.196840190887451172e+01 -3.056171655654907227e+00 2.614420950412750244e-01 3.859695792198181152e-01 1.942235082387924194e-01 8.665489405393600464e-02
1.201000000000000000e+03 9.091395378112792969e+00 3.495529651641845703e+00 3.155953645706176758e+00 -8.341325521469116211e-01 6.965463757514953613e-01 -1.045002341270446777e+00
1.202000000000000000e+03 5.816916942596435547e+00 2.751800060272216797e+00 3.081019520759582520e-01 -1.769104897975921631e-01 3.935743495821952820e-02 3.208169341087341309e-01
1.203000000000000000e+03 4.271446704864501953e+00 3.750947952270507812e+00 4.291305541992187500e-01 -9.617038816213607788e-02 9.988804906606674194e-02 4.594453051686286926e-02
1.204000000000000000e+03 3.495443582534790039e+00 2.906307458877563477e+00 1.437611877918243408e-01 -7.664063572883605957e-02 2.013616450130939484e-02 1.768635362386703491e-01
1.205000000000000000e+03 4.262837409973144531e+00 2.842074632644653320e+00 1.175967678427696228e-01 -8.247940242290496826e-02 1.053520943969488144e-02 2.612553238868713379e-01
1.206000000000000000e+03 5.817273616790771484e+00 3.594171047210693359e+00 8.133785724639892578e-01 -2.362413555383682251e-01 1.731411665678024292e-01 -1.611863821744918823e-02
1.207000000000000000e+03 6.593985557556152344e+00 3.553151607513427734e+00 9.716085791587829590e-01 -1.908754408359527588e-01 2.342199385166168213e-01 9.263799525797367096e-03
1.208000000000000000e+03 8.193123817443847656e+00 4.310777664184570312e+00 2.377616405487060547e+00 -4.302448928356170654e-01 5.842114686965942383e-01 -9.593396186828613281e-01
1.209000000000000000e+03 1.341056942939758301e+00 4.680034637451171875e+00 9.243346750736236572e-02 -2.033584862947463989e-01 -3.327750787138938904e-02 2.351562120020389557e-02
1.210000000000000000e+03 3.910677134990692139e-01 3.547654867172241211e+00 2.470746263861656189e-02 -3.226730227470397949e-01 -8.938966691493988037e-02 4.013074561953544617e-02
1.211000000000000000e+03 6.598381519317626953e+00 2.728801488876342773e+00 6.441435813903808594e-01 -3.447891175746917725e-01 8.980634808540344238e-02 2.400806099176406860e-01
1.212000000000000000e+03 9.899847030639648438e+00 3.333703994750976562e+00 3.736583232879638672e+00 -2.386992275714874268e-01 1.049365162849426270e+00 -1.099105834960937500e+00
1.213000000000000000e+03 7.335303783416748047e+00 -3.323402166366577148e+00 -1.627873480319976807e-01 1.274647656828165054e-03 -4.845380783081054688e-02 -4.225707054138183594e-01
1.214000000000000000e+03 4.784428596496582031e+00 -2.893272161483764648e+00 -1.866659224033355713e-01 -7.579322159290313721e-02 -7.873774319887161255e-02 -3.772159814834594727e-01
1.215000000000000000e+03 6.586967468261718750e+00 -3.447668552398681641e+00 -1.405341625213623047e-01 -3.106789290904998779e-02 -5.148061737418174744e-02 -4.226496517658233643e-01
1.216000000000000000e+03 5.829618930816650391e+00 -3.609756231307983398e+00 -1.013313829898834229e-01 -5.789972469210624695e-02 -4.776933416724205017e-02 -4.226711988449096680e-01
1.217000000000000000e+03 1.978289008140563965e+00 -6.938953876495361328e+00 4.180936515331268311e-02 -4.935646355152130127e-01 -1.355265825986862183e-01 -1.965615302324295044e-01
1.218000000000000000e+03 2.285389184951782227e+00 -3.263830423355102539e+00 -5.448604375123977661e-02 -1.960769146680831909e-01 -7.516888529062271118e-02 -2.533746957778930664e-01
1.219000000000000000e+03 1.730395913124084473e+00 -4.773396968841552734e+00 -9.180257096886634827e-03 -3.490568101406097412e-01 -1.074711158871650696e-01 -2.258072793483734131e-01
1.220000000000000000e+03 8.791133880615234375e+00 -3.178534269332885742e+00 -1.815591156482696533e-01 7.358143478631973267e-02 -3.239330276846885681e-02 -3.900512158870697021e-01
1.221000000000000000e+03 1.036813354492187500e+01 3.869036197662353516e+00 4.538815975189208984e+00 1.148335456848144531e+00 1.706145405769348145e+00 -3.208274602890014648e+00
1.222000000000000000e+03 1.314518642425537109e+01 5.037290096282958984e+00 -4.067452549934387207e-01 1.074726390838623047e+01 3.102155447006225586e+00 -2.323155164718627930e+00
1.223000000000000000e+03 2.854444885253906250e+01 2.335410499572753906e+01 -6.688705682754516602e-01 -5.892683863639831543e-01 -3.774416744709014893e-01 -7.084380984306335449e-01
1.224000000000000000e+03 3.142327117919921875e+01 2.413163566589355469e+01 -7.331427335739135742e-01 -7.855628132820129395e-01 -4.556116759777069092e-01 -8.157050013542175293e-01
1.225000000000000000e+03 3.427025604248046875e+01 -1.187986469268798828e+01 -2.528845146298408508e-02 7.306174039840698242e-01 2.115986943244934082e-01 -9.103477001190185547e-02
1.226000000000000000e+03 3.992695999145507812e+01 -2.123087310791015625e+01 5.827621370553970337e-02 2.263266086578369141e+00 6.964626908302307129e-01 -6.297900676727294922e-01
1.227000000000000000e+03 4.302877044677734375e+01 1.818274497985839844e+01 5.411974787712097168e-01 2.265087366104125977e+00 8.418854475021362305e-01 1.256101012229919434e+00
1.228000000000000000e+03 2.287055587768554688e+01 -1.945808982849121094e+01 2.427553534507751465e-01 2.418586015701293945e+00 7.984023690223693848e-01 -9.580937623977661133e-01
1.229000000000000000e+03 2.965857124328613281e+01 -6.115194320678710938e+00 2.048010379076004028e-01 -2.175957197323441505e-03 6.078752502799034119e-02 4.519586265087127686e-02
1.230000000000000000e+03 2.989698791503906250e+01 -1.973908305168151855e+00 6.887282133102416992e-01 9.078133851289749146e-02 2.338528633117675781e-01 -5.131287872791290283e-02
1.231000000000000000e+03 3.948259735107421875e+01 1.815109062194824219e+01 5.381168127059936523e-01 1.090177059173583984e+00 4.884881675243377686e-01 7.792959213256835938e-01
1.232000000000000000e+03 4.211466598510742188e+01 1.717882728576660156e+01 4.975558221340179443e-01 2.039778709411621094e+00 7.612003684043884277e-01 1.128072500228881836e+00
1.233000000000000000e+03 2.462331008911132812e+01 -1.990225028991699219e+01 3.635119199752807617e-01 2.216867208480834961e+00 7.741137146949768066e-01 -1.019440412521362305e+00
1.234000000000000000e+03 2.412368583679199219e+01 -2.182012367248535156e+01 2.424705028533935547e-01 2.165240049362182617e+00 7.223131656646728516e-01 -8.527888059616088867e-01
1.235000000000000000e+03 2.016923713684082031e+01 -6.533983349800109863e-02 7.821089267730712891e+00 3.130002260208129883e+00 3.285327434539794922e+00 2.440731763839721680e+00
1.236000000000000000e+03 1.501019096374511719e+01 9.804117202758789062e+00 -8.261610865592956543e-01 2.770872354507446289e+00 5.834134221076965332e-01 -4.003940150141716003e-03
1.237000000000000000e+03 1.615583419799804688e+01 1.052737617492675781e+01 -6.281368732452392578e-01 1.628038406372070312e+00 2.999704778194427490e-01 1.210729107260704041e-01
1.238000000000000000e+03 2.174937248229980469e+01 1.634424018859863281e+01 -7.098003029823303223e-01 -9.447561204433441162e-02 -2.412827759981155396e-01 -4.308697581291198730e-01
1.239000000000000000e+03 2.468179321289062500e+01 1.726860427856445312e+01 -7.698020339012145996e-01 -4.644846022129058838e-01 -3.702859878540039062e-01 -7.009221315383911133e-01
1.240000000000000000e+03 3.291627883911132812e+01 -9.503943443298339844e+00 4.809621721506118774e-03 4.974649250507354736e-01 1.506823599338531494e-01 -2.920874953269958496e-02
1.241000000000000000e+03 3.318713378906250000e+01 -1.246948909759521484e+01 -1.178954765200614929e-01 3.775550723075866699e-01 7.789787650108337402e-02 -5.027642101049423218e-02
1.242000000000000000e+03 3.496905517578125000e+01 -1.304898834228515625e+01 -1.148285791277885437e-01 8.743366599082946777e-01 2.278524190187454224e-01 -1.530951559543609619e-01
1.243000000000000000e+03 3.356153106689453125e+01 -3.734542465209960938e+01 3.153401017189025879e-01 8.002787232398986816e-01 3.346856534481048584e-01 -3.892287909984588623e-01
1.244000000000000000e+03 4.844456100463867188e+01 2.304082107543945312e+01 7.598217129707336426e-01 4.401499748229980469e+00 1.548396468162536621e+00 2.160586118698120117e+00
1.245000000000000000e+03 4.932397842407226562e+01 2.415101814270019531e+01 8.457384705543518066e-01 5.013050079345703125e+00 1.757636547088623047e+00 2.386601924896240234e+00
1.246000000000000000e+03 2.231687355041503906e+01 -2.141277313232421875e+01 1.344192326068878174e-01 2.289637804031372070e+00 7.272171378135681152e-01 -7.551916837692260742e-01
1.247000000000000000e+03 2.354744529724121094e+01 -2.370478248596191406e+01 1.525886952877044678e-01 2.060225248336791992e+00 6.638442277908325195e-01 -6.875277757644653320e-01
1.248000000000000000e+03 2.613551139831542969e+01 -1.296557664871215820e+00 1.081278800964355469e+00 -2.602803111076354980e-01 2.462995499372482300e-01 -6.928337365388870239e-02
1.249000000000000000e+03 2.717576980590820312e+01 -2.873926734924316406e+01 2.389470636844635010e-01 1.710876941680908203e+00 5.849472284317016602e-01 -6.131623387336730957e-01
1.250000000000000000e+03 1.992839431762695312e+01 1.226981067657470703e+01 -6.080785989761352539e-01 -3.700305894017219543e-02 -1.935244947671890259e-01 -2.537816762924194336e-01
1.251000000000000000e+03 1.720281982421875000e+01 1.134202289581298828e+01 -5.975554585456848145e-01 1.297315359115600586e+00 2.099279910326004028e-01 -5.914675444364547729e-02
1.252000000000000000e+03 4.131366729736328125e+01 -2.356513595581054688e+01 1.042197197675704956e-01 2.861397266387939453e+00 8.896850943565368652e-01 -8.234057426452636719e-01
1.253000000000000000e+03 3.226065826416015625e+01 -8.263269424438476562e+00 -9.218181669712066650e-02 4.148769676685333252e-01 9.680854529142379761e-02 -4.606606438755989075e-02
1.254000000000000000e+03 3.522352600097656250e+01 1.007780742645263672e+01 5.368578433990478516e-01 8.937932252883911133e-01 4.291953146457672119e-01 5.585784316062927246e-01
1.255000000000000000e+03 3.752580261230468750e+01 1.408756637573242188e+01 4.588122963905334473e-01 1.095153689384460449e+00 4.661898016929626465e-01 6.670891642570495605e-01
1.256000000000000000e+03 2.710633850097656250e+01 -2.751586914062500000e+01 2.796155810356140137e-01 1.783565163612365723e+00 6.189542412757873535e-01 -6.748727560043334961e-01
1.257000000000000000e+03 2.768319702148437500e+01 -2.584573745727539062e+01 3.320847749710083008e-01 1.867597341537475586e+00 6.599046587944030762e-01 -7.633386850357055664e-01
1.258000000000000000e+03 4.423963165283203125e+01 -2.782541084289550781e+01 1.321802586317062378e-01 4.790462493896484375e+00 1.476792812347412109e+00 -1.037408947944641113e+00
1.259000000000000000e+03 3.186192131042480469e+01 2.726651382446289062e+01 -7.295956611633300781e-01 -7.000309228897094727e-01 -4.288879632949829102e-01 -7.286761403083801270e-01
1.260000000000000000e+03 3.639913558959960938e+01 -1.537502956390380859e+01 -9.006375074386596680e-02 1.210512161254882812e+00 3.361344933509826660e-01 -2.576708197593688965e-01
1.261000000000000000e+03 4.270180892944335938e+01 -2.579853248596191406e+01 1.347449719905853271e-01 3.652574300765991211e+00 1.136195778846740723e+00 -1.004015803337097168e+00
1.262000000000000000e+03 4.088831710815429688e+01 -2.541735458374023438e+01 3.259187340736389160e-01 2.645642518997192383e+00 8.914683461189270020e-01 -1.021232366561889648e+00
1.263000000000000000e+03 3.240287780761718750e+01 9.064467430114746094e+00 5.577849745750427246e-01 5.237548947334289551e-01 3.244619369506835938e-01 4.586466550827026367e-01
1.264000000000000000e+03 3.063850212097167969e+01 9.039968490600585938e+00 5.166557431221008301e-01 3.624230027198791504e-01 2.637236118316650391e-01 4.215562343597412109e-01
1.265000000000000000e+03 2.359794807434082031e+01 1.691268920898437500e+00 9.677165746688842773e-01 4.221893250942230225e-01 4.169717729091644287e-01 1.342705965042114258e+00
1.266000000000000000e+03 1.783966064453125000e+01 -2.563620805740356445e+00 1.641841769218444824e+00 7.130513668060302734e+00 2.631706714630126953e+00 -3.579498767852783203e+00
1.267000000000000000e+03 4.376366043090820312e+01 -2.503799438476562500e+01 -5.132965743541717529e-02 4.043178558349609375e+00 1.197554707527160645e+00 -8.110564351081848145e-01
1.268000000000000000e+03 1.906053924560546875e+01 1.326370525360107422e+01 -6.378566622734069824e-01 6.121438145637512207e-01 -7.713840343058109283e-03 -2.915081679821014404e-01
1.269000000000000000e+03 3.743236923217773438e+01 -1.953629684448242188e+01 7.830282300710678101e-02 1.370976448059082031e+00 4.347837865352630615e-01 -4.459983110427856445e-01
1.270000000000000000e+03 3.783089065551757812e+01 -1.768753814697265625e+01 -4.432359337806701660e-02 1.592048764228820801e+00 4.643175601959228516e-01 -3.868723511695861816e-01
1.271000000000000000e+03 1.783945274353027344e+01 -1.312774276733398438e+01 3.787719011306762695e-01 3.657118558883666992e+00 1.210767149925231934e+00 -5.226355791091918945e-01
1.272000000000000000e+03 1.897951507568359375e+01 -1.390932178497314453e+01 2.824114859104156494e-01 3.653211832046508789e+00 1.180686950683593750e+00 -7.785586118698120117e-01
1.273000000000000000e+03 2.811468315124511719e+01 5.212567329406738281e+00 7.791448831558227539e-01 2.938823401927947998e-01 3.219081759452819824e-01 4.774787724018096924e-01
1.274000000000000000e+03 2.742654609680175781e+01 6.220967769622802734e+00 7.390903234481811523e-01 3.234404623508453369e-01 3.187592327594757080e-01 4.382484853267669678e-01
1.275000000000000000e+03 3.119104766845703125e+01 -2.264990329742431641e+00 7.063906788825988770e-01 3.449057936668395996e-01 3.153889477252960205e-01 5.192621424794197083e-02
1.276000000000000000e+03 3.880767440795898438e+01 -2.191370391845703125e+01 1.602827608585357666e-01 1.793437004089355469e+00 5.861158967018127441e-01 -6.591953039169311523e-01
1.277000000000000000e+03 3.812287902832031250e+01 -2.072557830810546875e+01 1.481689512729644775e-01 1.550414681434631348e+00 5.095751285552978516e-01 -5.389347672462463379e-01
1.278000000000000000e+03 2.949194335937500000e+01 2.425415039062500000e+01 -6.768046617507934570e-01 -6.454885005950927734e-01 -3.966879546642303467e-01 -7.263100743293762207e-01
1.279000000000000000e+03 2.660628509521484375e+01 2.139112281799316406e+01 -6.914612054824829102e-01 -4.703685343265533447e-01 -3.485489189624786377e-01 -6.506269574165344238e-01
1.280000000000000000e+03 3.902795791625976562e+01 3.325855255126953125e+01 -1.015496492385864258e+00 -7.814610600471496582e-01 -5.390872359275817871e-01 -8.586040139198303223e-01
1.281000000000000000e+03 3.405623626708984375e+01 3.089469909667968750e+01 -7.320036888122558594e-01 -7.646047472953796387e-01 -4.489825367927551270e-01 -7.450136542320251465e-01
1.282000000000000000e+03 7.222023773193359375e+01 -3.863482666015625000e+01 1.350306123495101929e-01 7.276572704315185547e+00 2.223480939865112305e+00 1.175991892814636230e-01
1.283000000000000000e+03 7.426773071289062500e+01 -3.281233978271484375e+01 5.486039072275161743e-02 7.478426933288574219e+00 2.259986162185668945e+00 2.242421209812164307e-01
1.284000000000000000e+03 7.716912841796875000e+01 -3.488627243041992188e+01 1.871272921562194824e-02 7.515058994293212891e+00 2.260131597518920898e+00 1.000988632440567017e-01
1.285000000000000000e+03 7.533418273925781250e+01 -2.106761550903320312e+01 -1.360061764717102051e-02 7.988233089447021484e+00 2.392389774322509766e+00 2.471370398998260498e-01
1.286000000000000000e+03 7.804279327392578125e+01 -2.786527442932128906e+01 3.428164869546890259e-03 7.859121799468994141e+00 2.358765125274658203e+00 1.183406263589859009e-01
1.287000000000000000e+03 7.549326324462890625e+01 1.524019622802734375e+01 -9.564230591058731079e-02 8.037056922912597656e+00 2.382424354553222656e+00 -4.355196952819824219e-01
1.288000000000000000e+03 7.677559661865234375e+01 1.663843727111816406e+01 -6.573641300201416016e-02 7.952625274658203125e+00 2.366066694259643555e+00 -3.749069571495056152e-01
1.289000000000000000e+03 7.680235290527343750e+01 3.576191329956054688e+01 1.367437094449996948e-01 6.094377994537353516e+00 1.869336485862731934e+00 -2.256276309490203857e-01
1.290000000000000000e+03 7.671952819824218750e+01 -2.242344665527343750e+01 -6.606408394873142242e-03 8.051764488220214844e+00 2.413547515869140625e+00 1.903374493122100830e-01
1.291000000000000000e+03 7.666191864013671875e+01 -2.914837074279785156e+01 1.103484444320201874e-02 7.722040176391601562e+00 2.319922447204589844e+00 1.814174056053161621e-01
1.292000000000000000e+03 7.524282836914062500e+01 -3.476118087768554688e+01 5.489797145128250122e-02 7.451304435729980469e+00 2.251860857009887695e+00 1.556901335716247559e-01
1.293000000000000000e+03 7.674664306640625000e+01 -2.784257316589355469e+01 5.630104336887598038e-03 7.788089275360107422e+00 2.338115692138671875e+00 1.837501674890518188e-01
1.294000000000000000e+03 7.540933990478515625e+01 -2.524023437500000000e+01 6.258501205593347549e-03 7.816480159759521484e+00 2.346821546554565430e+00 2.534750699996948242e-01
1.295000000000000000e+03 7.676502227783203125e+01 -2.652068519592285156e+01 6.303364410996437073e-03 7.851751804351806641e+00 2.357416629791259766e+00 1.876294314861297607e-01
1.296000000000000000e+03 7.673809051513671875e+01 -2.381175422668457031e+01 -9.080164018087089062e-04 7.985665321350097656e+00 2.395427227020263672e+00 1.917551755905151367e-01
1.297000000000000000e+03 7.575571441650390625e+01 -3.323376083374023438e+01 3.723478689789772034e-02 7.517178535461425781e+00 2.266324043273925781e+00 1.741646528244018555e-01
1.298000000000000000e+03 7.546179962158203125e+01 -2.783373069763183594e+01 1.454274356365203857e-02 7.709438800811767578e+00 2.317194461822509766e+00 2.408090084791183472e-01
1.299000000000000000e+03 7.648673248291015625e+01 -3.045464324951171875e+01 1.532903499901294708e-02 7.656089782714843750e+00 2.301425695419311523e+00 1.786022782325744629e-01
1.300000000000000000e+03 7.645912170410156250e+01 -3.910175323486328125e+01 3.592257946729660034e-02 7.406495094299316406e+00 2.232725381851196289e+00 5.673244222998619080e-02
1.301000000000000000e+03 7.805314636230468750e+01 2.226886749267578125e+01 3.981462866067886353e-02 7.292565822601318359e+00 2.199714183807373047e+00 -2.987873852252960205e-01
1.302000000000000000e+03 7.672590637207031250e+01 2.088283920288085938e+01 1.758468151092529297e-02 7.547453880310058594e+00 2.269511461257934570e+00 -4.377083182334899902e-01
1.303000000000000000e+03 7.547103881835937500e+01 2.372508239746093750e+01 -6.179094314575195312e-02 7.420890331268310547e+00 2.207729816436767578e+00 -5.910012722015380859e-01
1.304000000000000000e+03 7.673632812500000000e+01 2.228784370422363281e+01 -5.964830890297889709e-02 7.411957740783691406e+00 2.205692768096923828e+00 -4.663430154323577881e-01
1.305000000000000000e+03 7.679080200195312500e+01 1.384396743774414062e+01 -6.316260248422622681e-02 8.172200202941894531e+00 2.432711124420166016e+00 -3.127624392509460449e-01
1.306000000000000000e+03 7.808288574218750000e+01 1.247517967224121094e+01 -3.696884959936141968e-02 8.357681274414062500e+00 2.496213674545288086e+00 -1.879888325929641724e-01
1.307000000000000000e+03 7.549460601806640625e+01 9.660859107971191406e+00 -8.700419962406158447e-02 8.311685562133789062e+00 2.467404365539550781e+00 -2.744433879852294922e-01
1.308000000000000000e+03 7.678702545166015625e+01 1.523756313323974609e+01 -1.144732162356376648e-02 8.063984870910644531e+00 2.415761232376098633e+00 -3.325646817684173584e-01
1.309000000000000000e+03 7.679842376708984375e+01 2.502207565307617188e+01 -4.970078542828559875e-02 7.117507934570312500e+00 2.120342254638671875e+00 -4.646647870540618896e-01
1.310000000000000000e+03 7.808263397216796875e+01 2.640735054016113281e+01 -5.050479993224143982e-02 6.746563434600830078e+00 2.008817672729492188e+00 -3.047741651535034180e-01
1.311000000000000000e+03 7.804036712646484375e+01 -2.098082351684570312e+01 -4.586155060678720474e-03 8.249103546142578125e+00 2.473355293273925781e+00 1.171883866190910339e-01
1.312000000000000000e+03 7.670590972900390625e+01 -2.102685737609863281e+01 -4.785482306033372879e-03 8.120055198669433594e+00 2.434581041336059570e+00 1.870860606431961060e-01
1.313000000000000000e+03 7.805369567871093750e+01 3.052849006652832031e+01 7.938558608293533325e-02 6.234899044036865234e+00 1.894285321235656738e+00 -2.673085927963256836e-01
1.314000000000000000e+03 7.433133697509765625e+01 -1.537791824340820312e+01 -4.010241478681564331e-02 8.093237876892089844e+00 2.415940523147583008e+00 2.348592430353164673e-01
1.315000000000000000e+03 7.670953369140625000e+01 -1.962714958190917969e+01 -1.107276882976293564e-02 8.185729026794433594e+00 2.452396631240844727e+00 1.800024807453155518e-01
1.316000000000000000e+03 7.537725067138671875e+01 -7.095345973968505859e+00 -4.966545477509498596e-02 8.433342933654785156e+00 2.515103340148925781e+00 8.466423302888870239e-02
1.317000000000000000e+03 7.809376525878906250e+01 -1.398788166046142578e+01 -3.394224913790822029e-03 8.603912353515625000e+00 2.580155611038208008e+00 8.349345624446868896e-02
1.318000000000000000e+03 7.546657562255859375e+01 -1.508409857749938965e+00 -5.617505684494972229e-02 8.495376586914062500e+00 2.531760454177856445e+00 -1.146856788545846939e-02
1.319000000000000000e+03 7.807564544677734375e+01 -7.020218849182128906e+00 -1.468564011156558990e-02 8.824572563171386719e+00 2.642966032028198242e+00 3.459040820598602295e-02
1.320000000000000000e+03 7.679219055175781250e+01 4.110881328582763672e+00 -2.123831771314144135e-02 8.621452331542968750e+00 2.580064058303833008e+00 -1.027108952403068542e-01
1.321000000000000000e+03 7.615628814697265625e+01 3.764717864990234375e+01 1.469033658504486084e-01 6.171456336975097656e+00 1.895507931709289551e+00 -1.377329826354980469e-01
1.322000000000000000e+03 7.748937988281250000e+01 3.683923339843750000e+01 2.528824284672737122e-02 5.772401332855224609e+00 1.739306807518005371e+00 -1.115764230489730835e-01
1.323000000000000000e+03 7.809214782714843750e+01 6.911170959472656250e+00 -2.747408859431743622e-02 8.699237823486328125e+00 2.601529121398925781e+00 -1.082524135708808899e-01
1.324000000000000000e+03 7.680532073974609375e+01 6.896575450897216797e+00 -2.080365270376205444e-02 8.542248725891113281e+00 2.556433677673339844e+00 -1.540673226118087769e-01
1.325000000000000000e+03 7.807749938964843750e+01 -1.462550282478332520e+00 -1.833955384790897369e-02 8.878149032592773438e+00 2.657942771911621094e+00 -1.414894219487905502e-02
1.326000000000000000e+03 7.677981567382812500e+01 -1.492723941802978516e+00 -1.853224448859691620e-02 8.679155349731445312e+00 2.598186969757080078e+00 -1.392370555549860001e-02
1.327000000000000000e+03 7.678752136230468750e+01 -8.434432029724121094e+00 -2.784253284335136414e-02 8.603061676025390625e+00 2.572565793991088867e+00 7.674926519393920898e-02
1.328000000000000000e+03 7.681145477294921875e+01 -1.540272140502929688e+01 -1.294580660760402679e-02 8.381689071655273438e+00 2.510622978210449219e+00 1.471967995166778564e-01
1.329000000000000000e+03 7.368539428710937500e+01 3.627191543579101562e+01 1.414232552051544189e-01 7.155971527099609375e+00 2.189218282699584961e+00 -2.472478300333023071e-01
1.330000000000000000e+03 7.669923400878906250e+01 3.180158233642578125e+01 1.357438713312149048e-01 6.479628562927246094e+00 1.984611749649047852e+00 -3.639459013938903809e-01
1.331000000000000000e+03 7.673818206787109375e+01 1.946297264099121094e+01 -6.295860558748245239e-02 7.694244384765625000e+00 2.289385557174682617e+00 -4.320667088031768799e-01
1.332000000000000000e+03 7.809193420410156250e+01 8.300194740295410156e+00 3.442296874709427357e-04 8.631458282470703125e+00 2.589540719985961914e+00 -1.222332194447517395e-01
1.333000000000000000e+03 7.679557800292968750e+01 1.105544757843017578e+01 -5.809544399380683899e-02 8.351255416870117188e+00 2.487947940826416016e+00 -2.489295005798339844e-01
1.334000000000000000e+03 7.683171844482421875e+01 -1.400618934631347656e+01 -2.047864720225334167e-02 8.439551353454589844e+00 2.525721788406372070e+00 1.336244791746139526e-01
1.335000000000000000e+03 7.675900268554687500e+01 -7.050891876220703125e+00 -1.637971028685569763e-02 8.627156257629394531e+00 2.583232879638671875e+00 6.004734709858894348e-02
1.336000000000000000e+03 7.799807739257812500e+01 3.456068038940429688e+01 2.317151799798011780e-02 5.829021930694580078e+00 1.755658030509948730e+00 -1.489642411470413208e-01
1.337000000000000000e+03 7.808278656005859375e+01 2.729339599609375000e+00 -2.703464357182383537e-03 8.832175254821777344e+00 2.648841381072998047e+00 -5.541311949491500854e-02
1.338000000000000000e+03 7.679943084716796875e+01 5.508077144622802734e+00 -4.618356376886367798e-02 8.587031364440917969e+00 2.562254190444946289e+00 -1.321588456630706787e-01
1.339000000000000000e+03 7.675041198730468750e+01 -4.297564506530761719e+00 -1.783644594252109528e-02 8.663200378417968750e+00 2.593609094619750977e+00 2.630153112113475800e-02
1.340000000000000000e+03 7.674426269531250000e+01 -5.678875923156738281e+00 -2.877127006649971008e-02 8.647202491760253906e+00 2.585529327392578125e+00 4.334281384944915771e-02
1.341000000000000000e+03 7.676721191406250000e+01 -2.900022745132446289e+00 -3.357992693781852722e-02 8.676126480102539062e+00 2.592763900756835938e+00 5.592160392552614212e-03
1.342000000000000000e+03 7.683611297607421875e+01 -1.261347198486328125e+01 -1.289725117385387421e-02 8.489390373229980469e+00 2.542947769165039062e+00 1.200078874826431274e-01
1.343000000000000000e+03 7.681392669677734375e+01 -9.829889297485351562e+00 -1.557760592550039291e-02 8.569729804992675781e+00 2.566245555877685547e+00 9.367937594652175903e-02
1.344000000000000000e+03 7.553314208984375000e+01 -9.867055892944335938e+00 -3.922310099005699158e-02 8.392595291137695312e+00 2.506011486053466797e+00 1.243615597486495972e-01
1.345000000000000000e+03 7.673582458496093750e+01 -1.821993827819824219e+01 -8.917267434298992157e-03 8.252066612243652344e+00 2.472944736480712891e+00 1.728033572435379028e-01
1.346000000000000000e+03 2.221537590026855469e+01 -1.828912162780761719e+01 2.792718708515167236e-01 2.654791831970214844e+00 8.802191019058227539e-01 -9.449779987335205078e-01
1.347000000000000000e+03 3.657099533081054688e+01 3.605569076538085938e+01 -9.123904109001159668e-01 -6.235212087631225586e-01 -4.607734978199005127e-01 -4.765074253082275391e-01
1.348000000000000000e+03 4.145616531372070312e+01 3.588241577148437500e+01 -1.213443398475646973e+00 -7.080144882202148438e-01 -5.764373540878295898e-01 -7.962052822113037109e-01
1.349000000000000000e+03 1.826139831542968750e+01 -5.230437755584716797e+00 5.651649832725524902e-01 6.182488441467285156e+00 2.024296045303344727e+00 -1.912351727485656738e+00
1.350000000000000000e+03 2.182349014282226562e+01 -1.522986030578613281e+01 5.235588550567626953e-01 3.055585145950317383e+00 1.073743224143981934e+00 -1.277308940887451172e+00
1.351000000000000000e+03 2.071937942504882812e+01 -1.607432937622070312e+01 3.082951605319976807e-01 3.124292135238647461e+00 1.029776215553283691e+00 -9.434679150581359863e-01
1.352000000000000000e+03 4.221796798706054688e+01 1.915032768249511719e+01 5.981497764587402344e-01 1.833254218101501465e+00 7.294211983680725098e-01 1.172603011131286621e+00
1.353000000000000000e+03 3.651951217651367188e+01 1.306303215026855469e+01 4.383036196231842041e-01 9.540407061576843262e-01 4.177033007144927979e-01 6.132387518882751465e-01
1.354000000000000000e+03 2.348834419250488281e+01 -2.064727401733398438e+01 2.843472957611083984e-01 2.310308456420898438e+00 7.783967256546020508e-01 -8.750675320625305176e-01
1.355000000000000000e+03 3.944988250732421875e+01 1.612307357788085938e+01 4.910537004470825195e-01 1.346980810165405273e+00 5.514103770256042480e-01 8.220515847206115723e-01
1.356000000000000000e+03 5.279078674316406250e+01 2.934952926635742188e+01 1.543643951416015625e+00 9.114308357238769531e+00 3.197385549545288086e+00 3.595226049423217773e+00
1.357000000000000000e+03 5.128494644165039062e+01 2.977144432067871094e+01 2.589616775512695312e+00 7.092240333557128906e+00 2.904557228088378906e+00 4.105023860931396484e+00
1.358000000000000000e+03 3.073556518554687500e+01 -3.190949821472167969e+01 3.621420264244079590e-01 1.387814402580261230e+00 5.249869227409362793e-01 -5.978876352310180664e-01
1.359000000000000000e+03 4.543748855590820312e+01 2.191557884216308594e+01 8.724884390830993652e-01 2.844398260116577148e+00 1.115066051483154297e+00 1.690671920776367188e+00
1.360000000000000000e+03 6.901596069335937500e+00 3.835554122924804688e+01 -5.094195157289505005e-02 2.633584737777709961e+00 7.747928500175476074e-01 -5.071097612380981445e-02
1.361000000000000000e+03 5.224921703338623047e+00 3.306315231323242188e+01 -4.977579787373542786e-02 2.831803083419799805e+00 8.346081972122192383e-01 -9.807462245225906372e-02
1.362000000000000000e+03 3.795288801193237305e+00 3.602326202392578125e+01 -3.713746741414070129e-02 3.159497737884521484e+00 9.367080926895141602e-01 -2.169627323746681213e-02
1.363000000000000000e+03 3.714619159698486328e+00 3.140850067138671875e+01 -3.619289025664329529e-02 3.046749830245971680e+00 9.031670689582824707e-01 -8.821874111890792847e-02
1.364000000000000000e+03 2.080637693405151367e+00 2.718432617187500000e+01 -2.103086560964584351e-02 3.161246538162231445e+00 9.420647621154785156e-01 -1.078610718250274658e-01
1.365000000000000000e+03 3.195624828338623047e+00 2.390193176269531250e+01 -5.666219443082809448e-02 2.801420211791992188e+00 8.234274387359619141e-01 -2.674816846847534180e-01
1.366000000000000000e+03 2.074682474136352539e+00 3.428495788574218750e+01 -1.016462035477161407e-02 3.398720741271972656e+00 1.016566872596740723e+00 -3.090482018887996674e-02
1.367000000000000000e+03 3.581737995147705078e+00 2.835951995849609375e+01 -4.302708432078361511e-02 2.949370384216308594e+00 8.719030022621154785e-01 -1.490368992090225220e-01
1.368000000000000000e+03 3.446296453475952148e+00 3.508900833129882812e+01 -3.622683510184288025e-02 3.210151195526123047e+00 9.521773457527160645e-01 -4.838110879063606262e-02
1.369000000000000000e+03 5.348950386047363281e+00 3.133073806762695312e+01 -7.859679311513900757e-02 2.756716489791870117e+00 8.034358620643615723e-01 -1.683507114648818970e-01
1.370000000000000000e+03 3.599337577819824219e+00 3.285182952880859375e+01 -2.105243876576423645e-02 3.102285861968994141e+00 9.243700504302978516e-01 -8.908291161060333252e-02
1.371000000000000000e+03 2.815047264099121094e+00 -3.505054855346679688e+01 -7.806016132235527039e-03 3.980906307697296143e-01 1.170853823423385620e-01 6.334161758422851562e-02
1.372000000000000000e+03 3.876094579696655273e+00 -3.319738388061523438e+01 -2.736581116914749146e-02 4.464840292930603027e-01 1.257354617118835449e-01 9.863603115081787109e-02
1.373000000000000000e+03 2.160009860992431641e+00 -3.055867004394531250e+01 -4.314697813242673874e-03 2.365770936012268066e-01 6.967872381210327148e-02 8.973675966262817383e-02
1.374000000000000000e+03 3.717869281768798828e+00 -2.928376388549804688e+01 -2.051181718707084656e-02 3.474133014678955078e-01 9.807044267654418945e-02 1.482676863670349121e-01
1.375000000000000000e+03 1.860762238502502441e+00 2.146675682067871094e+01 -2.887088805437088013e-02 2.765946865081787109e+00 8.211227655410766602e-01 -2.113366425037384033e-01
1.376000000000000000e+03 2.844301223754882812e+00 -1.123377227783203125e+01 8.361709862947463989e-02 -4.408614635467529297e-01 -1.071733087301254272e-01 -1.417539175599813461e-02
1.377000000000000000e+03 3.017491817474365234e+00 -1.797416305541992188e+01 1.696632988750934601e-02 -1.828821301460266113e-01 -4.977473989129066467e-02 1.897507458925247192e-01
1.378000000000000000e+03 1.753172755241394043e+00 -1.512282276153564453e+01 1.907539553940296173e-02 -6.066697835922241211e-01 -1.762783229351043701e-01 8.644665032625198364e-02
1.379000000000000000e+03 2.983640670776367188e+00 1.694099998474121094e+01 -8.475805819034576416e-02 2.107322216033935547e+00 6.067692041397094727e-01 -5.306804776191711426e-01
1.380000000000000000e+03 2.816391468048095703e+00 1.283991146087646484e+01 -4.987748712301254272e-02 1.436995863914489746e+00 4.161355197429656982e-01 -7.349350452423095703e-01
1.381000000000000000e+03 3.073273420333862305e+00 -1.933794975280761719e+01 2.911967225372791290e-03 -1.114364936947822571e-01 -3.255735710263252258e-02 1.909424811601638794e-01
1.382000000000000000e+03 1.788436770439147949e+00 -8.301567077636718750e+00 4.345463961362838745e-02 -6.038764715194702148e-01 -1.681265383958816528e-01 -1.322544813156127930e-01
1.383000000000000000e+03 2.677583217620849609e+00 8.776867866516113281e+00 1.912368535995483398e-01 5.066990852355957031e-01 2.093807905912399292e-01 -5.698082447052001953e-01
1.384000000000000000e+03 1.506944537162780762e+00 6.103738307952880859e+00 6.065013259649276733e-02 -1.027242317795753479e-01 -1.262222975492477417e-02 -7.817545533180236816e-02
1.385000000000000000e+03 1.717621922492980957e+00 1.449417877197265625e+01 -4.924070835113525391e-02 1.672802686691284180e+00 4.870685935020446777e-01 -4.460491538047790527e-01
1.386000000000000000e+03 2.918058395385742188e+00 1.556262302398681641e+01 -9.583739191293716431e-02 1.931785225868225098e+00 5.507843494415283203e-01 -6.365533471107482910e-01
1.387000000000000000e+03 2.728749752044677734e+00 1.014325046539306641e+01 5.390299111604690552e-02 8.679180741310119629e-01 2.765463292598724365e-01 -6.973130702972412109e-01
1.388000000000000000e+03 3.153288125991821289e+00 -7.531874179840087891e+00 1.066437512636184692e-01 -3.454935848712921143e-01 -7.165495306253433228e-02 -2.302064299583435059e-01
1.389000000000000000e+03 2.569186687469482422e+00 -4.313081264495849609e+00 -1.665333472192287445e-02 -2.382630854845046997e-01 -7.647492736577987671e-02 -2.879471778869628906e-01
1.390000000000000000e+03 2.492059946060180664e+00 -5.833345413208007812e+00 4.345851764082908630e-02 -3.573932349681854248e-01 -9.418042004108428955e-02 -2.588683068752288818e-01
1.391000000000000000e+03 3.704455375671386719e+00 -2.775408363342285156e+01 -2.748043835163116455e-02 3.076935112476348877e-01 8.406392484903335571e-02 1.605437248945236206e-01
1.392000000000000000e+03 3.145420789718627930e+00 -2.070094490051269531e+01 -1.808487111702561378e-03 -3.585667535662651062e-02 -1.129954867064952850e-02 2.027842998504638672e-01
1.393000000000000000e+03 2.859768867492675781e+00 -9.944381713867187500e+00 9.347351640462875366e-02 -4.377822577953338623e-01 -1.032926216721534729e-01 -8.093658834695816040e-02
1.394000000000000000e+03 2.944828271865844727e+00 -8.694930076599121094e+00 9.994949400424957275e-02 -4.091080427169799805e-01 -9.274756908416748047e-02 -1.543493866920471191e-01
1.395000000000000000e+03 2.941573858261108398e+00 -1.524933052062988281e+01 3.946199268102645874e-02 -3.142451345920562744e-01 -8.243494480848312378e-02 1.411128938198089600e-01
1.396000000000000000e+03 1.979495048522949219e+00 -2.344651031494140625e+01 -7.439494598656892776e-03 -1.023239791393280029e-01 -3.292904421687126160e-02 1.266748011112213135e-01
1.397000000000000000e+03 3.227174997329711914e+00 -2.206435012817382812e+01 -1.402546372264623642e-02 3.664779290556907654e-02 6.786698475480079651e-03 1.924116313457489014e-01
1.398000000000000000e+03 4.331817150115966797e+00 -3.707337188720703125e+01 -8.224076591432094574e-03 5.114877223968505859e-01 1.509790867567062378e-01 3.421911969780921936e-02
1.399000000000000000e+03 3.108625173568725586e+00 2.110448646545410156e+01 -7.540287822484970093e-02 2.597774267196655273e+00 7.567113637924194336e-01 -3.733962774276733398e-01
1.400000000000000000e+03 4.666419029235839844e+00 -3.116468429565429688e+01 -3.825446963310241699e-02 4.795921742916107178e-01 1.324013173580169678e-01 1.403963565826416016e-01
1.401000000000000000e+03 3.402722358703613281e+00 -2.481816291809082031e+01 -1.950839348137378693e-02 1.680281907320022583e-01 4.455593973398208618e-02 1.797468662261962891e-01
1.402000000000000000e+03 4.764458179473876953e+00 -2.476220512390136719e+01 -2.604429051280021667e-02 3.676766455173492432e-01 1.024897098541259766e-01 2.247731536626815796e-01
1.403000000000000000e+03 2.903465509414672852e+00 -1.389282798767089844e+01 5.524270609021186829e-02 -3.747887611389160156e-01 -9.586381167173385620e-02 9.682262688875198364e-02
1.404000000000000000e+03 2.773921251296997070e+00 1.149422645568847656e+01 3.451370075345039368e-02 1.113613486289978027e+00 3.444381356239318848e-01 -7.022108435630798340e-01
1.405000000000000000e+03 3.941311836242675781e+00 1.257835865020751953e+01 -5.591806024312973022e-02 1.503247857093811035e+00 4.341989457607269287e-01 -8.972918987274169922e-01
1.406000000000000000e+03 2.861436128616333008e+00 1.419678401947021484e+01 -5.543205887079238892e-02 1.661931872367858887e+00 4.819499254226684570e-01 -6.530759334564208984e-01
1.407000000000000000e+03 3.080856561660766602e+00 1.972385597229003906e+01 -8.184425532817840576e-02 2.447618246078491211e+00 7.097321748733520508e-01 -3.989696502685546875e-01
1.408000000000000000e+03 3.138769865036010742e+00 2.249188423156738281e+01 -6.988933682441711426e-02 2.697777271270751953e+00 7.883663773536682129e-01 -2.897432744503021240e-01
1.409000000000000000e+03 3.040617942810058594e+00 1.833400344848632812e+01 -9.496314823627471924e-02 2.315732240676879883e+00 6.662307381629943848e-01 -5.021823644638061523e-01
1.410000000000000000e+03 3.923463058471679688e+01 -2.004582405090332031e+01 1.374917384237051010e-02 2.022732257843017578e+00 6.109444499015808105e-01 -5.485268831253051758e-01
1.411000000000000000e+03 5.022815704345703125e+01 2.702396202087402344e+01 1.499379158020019531e+00 5.556916236877441406e+00 2.116888523101806641e+00 3.060946464538574219e+00
1.412000000000000000e+03 5.648159027099609375e+01 2.947694969177246094e+01 6.947528719902038574e-01 1.068533325195312500e+01 3.414026021957397461e+00 1.186602354049682617e+00
1.413000000000000000e+03 2.339624595642089844e+01 -2.572442591190338135e-01 3.913168191909790039e+00 -4.863384366035461426e-01 1.028048992156982422e+00 2.875433564186096191e-01
1.414000000000000000e+03 4.839125823974609375e+01 2.501683425903320312e+01 1.225947499275207520e+00 4.153929710388183594e+00 1.613963127136230469e+00 2.463712215423583984e+00
1.415000000000000000e+03 2.564782714843750000e+01 2.037683677673339844e+01 -7.043351531028747559e-01 -4.772122502326965332e-01 -3.544642329216003418e-01 -6.077395081520080566e-01
1.416000000000000000e+03 5.109787750244140625e+01 2.797136878967285156e+01 1.609456419944763184e+00 6.792240142822265625e+00 2.520509004592895508e+00 3.400858640670776367e+00
1.417000000000000000e+03 3.027824211120605469e+01 7.119239807128906250e+00 6.787266135215759277e-01 3.784474134445190430e-01 3.171522319316864014e-01 4.349566400051116943e-01
1.418000000000000000e+03 3.000639724731445312e+01 -3.479364013671875000e+01 2.008822113275527954e-01 1.302367687225341797e+00 4.509749710559844971e-01 -4.069349467754364014e-01
1.419000000000000000e+03 3.246856689453125000e+01 -3.578883743286132812e+01 3.096951246261596680e-01 1.021583318710327148e+00 3.993835151195526123e-01 -4.289318323135375977e-01
1.420000000000000000e+03 1.989601135253906250e+01 -1.499354648590087891e+01 3.175824284553527832e-01 3.301730632781982422e+00 1.085793852806091309e+00 -9.428895115852355957e-01
1.421000000000000000e+03 2.469534492492675781e+01 1.936507415771484375e+01 -7.112706899642944336e-01 -3.248083591461181641e-01 -3.108237087726593018e-01 -6.096881031990051270e-01
1.422000000000000000e+03 3.550378036499023438e+01 1.204645538330078125e+01 4.704579114913940430e-01 8.396291136741638184e-01 3.930261135101318359e-01 5.541036725044250488e-01
1.423000000000000000e+03 3.247114944458007812e+01 2.851122474670410156e+01 -7.213525176048278809e-01 -7.009605765342712402e-01 -4.266939163208007812e-01 -7.237493991851806641e-01
1.424000000000000000e+03 4.035369491577148438e+01 1.713828277587890625e+01 5.134362578392028809e-01 1.464212775230407715e+00 5.932947397232055664e-01 9.316858649253845215e-01
1.425000000000000000e+03 1.811945915222167969e+01 -1.042863845825195312e+01 5.941524505615234375e-01 4.678433895111083984e+00 1.581775784492492676e+00 -7.666876316070556641e-01
1.426000000000000000e+03 3.814043045043945312e+01 3.509583663940429688e+01 -1.127230167388916016e+00 -7.305053472518920898e-01 -5.573206543922424316e-01 -6.577140092849731445e-01
1.427000000000000000e+03 4.648007583618164062e+01 2.290196228027343750e+01 9.634010195732116699e-01 3.191848039627075195e+00 1.246574759483337402e+00 1.913458466529846191e+00
1.428000000000000000e+03 4.498841094970703125e+01 -2.889647483825683594e+01 1.360041946172714233e-01 5.504986763000488281e+00 1.692297220230102539e+00 -8.796486854553222656e-01
1.429000000000000000e+03 5.381860351562500000e+01 2.978179168701171875e+01 9.995314478874206543e-01 1.024576282501220703e+01 3.373588085174560547e+00 2.673049926757812500e+00
1.430000000000000000e+03 2.943547821044921875e+01 -3.511064291000366211e+00 6.305590271949768066e-01 7.381933927536010742e-02 2.113135159015655518e-01 4.486908204853534698e-03
1.431000000000000000e+03 2.817888641357421875e+01 -2.835158586502075195e+00 5.052133202552795410e-01 -1.192911863327026367e-01 1.157766431570053101e-01 -1.546889096498489380e-01
1.432000000000000000e+03 3.134537124633789062e+01 8.087763786315917969e+00 6.420789361000061035e-01 4.423027336597442627e-01 3.253144919872283936e-01 4.354860782623291016e-01
1.433000000000000000e+03 2.078414535522460938e+01 1.536379051208496094e+01 -6.739931106567382812e-01 2.087542861700057983e-01 -1.395716518163681030e-01 -4.031697213649749756e-01
1.434000000000000000e+03 2.702164649963378906e+01 4.302740097045898438e+00 8.587524294853210449e-01 2.607022523880004883e-01 3.358364105224609375e-01 5.365617275238037109e-01
1.435000000000000000e+03 2.527261161804199219e+01 -3.462588191032409668e-01 2.289456605911254883e+00 -4.584181606769561768e-01 5.493115186691284180e-01 1.964549720287322998e-01
1.436000000000000000e+03 3.162710762023925781e+01 -6.932400703430175781e+00 1.347031742334365845e-01 3.109931051731109619e-01 1.337088793516159058e-01 -6.058697402477264404e-02
1.437000000000000000e+03 1.364886665344238281e+01 8.062748908996582031e+00 -1.116561293601989746e+00 4.407711505889892578e+00 9.873450994491577148e-01 -1.298329681158065796e-01
1.438000000000000000e+03 2.476788902282714844e+01 2.574285745620727539e+00 1.058136105537414551e+00 2.632403075695037842e-01 3.964129090309143066e-01 9.472317099571228027e-01
1.439000000000000000e+03 2.590969085693359375e+01 3.433317661285400391e+00 7.536645531654357910e-01 2.958548665046691895e-01 3.148558139801025391e-01 7.027586698532104492e-01
1.440000000000000000e+03 2.955995178222656250e+01 -3.344180679321289062e+01 2.075170576572418213e-01 1.411549925804138184e+00 4.857200980186462402e-01 -4.600305259227752686e-01
1.441000000000000000e+03 3.448087310791015625e+01 1.104258728027343750e+01 4.772018492221832275e-01 7.155610322952270508e-01 3.578288555145263672e-01 5.145700573921203613e-01
1.442000000000000000e+03 3.568107604980468750e+01 -1.421529006958007812e+01 -3.154215589165687561e-02 1.031043767929077148e+00 2.998504936695098877e-01 -1.865239143371582031e-01
1.443000000000000000e+03 5.541628265380859375e+01 2.904044342041015625e+01 5.850780606269836426e-01 1.070209884643554688e+01 3.386152982711791992e+00 1.821045398712158203e+00
1.444000000000000000e+03 2.826998329162597656e+01 -3.437986373901367188e+01 1.418102681636810303e-01 1.446467757225036621e+00 4.764834046363830566e-01 -3.676166534423828125e-01
1.445000000000000000e+03 1.780696868896484375e+01 -6.281396865844726562e+00 -1.209792047739028931e-01 6.072784423828125000e+00 1.785541534423828125e+00 -1.347825884819030762e+00
1.446000000000000000e+03 1.713131141662597656e+01 -6.848237037658691406e+00 3.004257380962371826e-01 5.666243076324462891e+00 1.790000677108764648e+00 -1.150758385658264160e+00
1.447000000000000000e+03 4.720126724243164062e+01 -3.324823760986328125e+01 1.055785775184631348e+00 6.742495059967041016e+00 2.339484214782714844e+00 1.697726547718048096e-02
1.448000000000000000e+03 4.573826217651367188e+01 -2.999899291992187500e+01 2.740024030208587646e-01 6.057517051696777344e+00 1.899455785751342773e+00 -6.357845664024353027e-01
1.449000000000000000e+03 4.412839889526367188e+01 3.944228363037109375e+01 -1.877075076103210449e+00 -4.546920657157897949e-01 -6.995301246643066406e-01 -4.991158246994018555e-01
1.450000000000000000e+03 9.944231033325195312e+00 4.593767166137695312e+00 3.367788314819335938e+00 8.769781589508056641e-01 1.273429989814758301e+00 -2.604960918426513672e+00
1.451000000000000000e+03 1.735950279235839844e+01 -7.694512367248535156e+00 5.795971751213073730e-01 5.313126087188720703e+00 1.767816901206970215e+00 -9.206179380416870117e-01
1.452000000000000000e+03 1.773487472534179688e+01 -9.310235977172851562e+00 5.895479917526245117e-01 4.820618629455566406e+00 1.623049974441528320e+00 -8.048459887504577637e-01
1.453000000000000000e+03 3.089355087280273438e+01 -3.826078414916992188e+00 4.701716005802154541e-01 1.964398175477981567e-01 1.999834328889846802e-01 -1.286141872406005859e-01
1.454000000000000000e+03 5.788623428344726562e+01 3.564622116088867188e+01 3.213935852050781250e+00 1.144902801513671875e+01 4.398889064788818359e+00 1.179506063461303711e+00
1.455000000000000000e+03 4.855120086669921875e+01 -3.377258300781250000e+01 1.296323657035827637e+00 6.721055030822753906e+00 2.405213594436645508e+00 3.324192389845848083e-02
1.456000000000000000e+03 4.840946578979492188e+01 -3.050626754760742188e+01 3.861660659313201904e-01 6.302884578704833984e+00 2.006715059280395508e+00 5.809126421809196472e-02
1.457000000000000000e+03 4.928667449951171875e+01 -3.620869064331054688e+01 1.440931677818298340e+00 6.758323669433593750e+00 2.459776639938354492e+00 -1.088824197649955750e-01
1.458000000000000000e+03 4.759359741210937500e+01 -3.531203460693359375e+01 1.385479450225830078e+00 6.981476783752441406e+00 2.510087013244628906e+00 -1.245255172252655029e-01
1.459000000000000000e+03 5.119232654571533203e+00 -3.989773559570312500e+01 -4.366423934698104858e-02 5.995623469352722168e-01 1.667694300413131714e-01 2.078907564282417297e-02
1.460000000000000000e+03 1.680104255676269531e+01 -2.140437602996826172e+00 1.654324889183044434e+00 1.449976348876953125e+01 4.846226692199707031e+00 -4.089981555938720703e+00
1.461000000000000000e+03 1.698290061950683594e+01 -2.385107994079589844e+00 1.609123826026916504e+00 1.336282444000244141e+01 4.491584777832031250e+00 -3.871717929840087891e+00
1.462000000000000000e+03 1.389679336547851562e+01 -2.697280645370483398e+00 1.103939533233642578e+00 1.577665925025939941e+00 8.044816255569458008e-01 1.620648741722106934e+00
1.463000000000000000e+03 1.478495883941650391e+01 -2.980221271514892578e+00 6.290753483772277832e-01 5.097109794616699219e+00 1.717855453491210938e+00 2.813618659973144531e+00
1.464000000000000000e+03 1.343937206268310547e+01 -2.724223375320434570e+00 8.476363420486450195e-01 1.110723495483398438e+00 5.875079631805419922e-01 1.042397379875183105e+00
1.465000000000000000e+03 1.737850189208984375e+01 -3.003050804138183594e+00 4.150130748748779297e-01 9.516408920288085938e+00 2.979426622390747070e+00 -2.933264970779418945e+00
1.466000000000000000e+03 1.680121231079101562e+01 -2.966409683227539062e+00 -7.145662307739257812e-01 1.128327846527099609e+01 3.170613765716552734e+00 -1.605670928955078125e+00
1.467000000000000000e+03 1.366317462921142578e+01 -3.122048139572143555e+00 1.060444116592407227e+00 1.952518701553344727e+00 9.038888812065124512e-01 1.529504895210266113e+00
1.468000000000000000e+03 1.686118125915527344e+01 -2.567136764526367188e+00 2.586327493190765381e-01 1.262382602691650391e+01 3.864737749099731445e+00 -2.952529907226562500e+00
1.469000000000000000e+03 1.832505035400390625e+01 -1.842615157365798950e-01 6.609236717224121094e+00 -1.011467456817626953e+00 1.679330706596374512e+00 4.441708564758300781e+00
1.470000000000000000e+03 1.759665107727050781e+01 -1.948667407035827637e+00 4.554713249206542969e+00 7.774356842041015625e+00 3.698721170425415039e+00 -3.829133033752441406e+00
1.471000000000000000e+03 1.338033962249755859e+01 -3.017711877822875977e+00 8.613220453262329102e-01 1.262635469436645508e+00 6.371872425079345703e-01 1.123609066009521484e+00
1.472000000000000000e+03 1.301268768310546875e+01 -2.820974111557006836e+00 6.539330482482910156e-01 7.852759957313537598e-01 4.317627251148223877e-01 7.230201959609985352e-01
1.473000000000000000e+03 9.536004066467285156e+00 -3.818450927734375000e+00 1.347607672214508057e-01 1.780909448862075806e-01 9.385550767183303833e-02 -2.851352691650390625e-01
1.474000000000000000e+03 8.895400047302246094e+00 -3.856703758239746094e+00 5.439354106783866882e-02 1.286424100399017334e-01 5.491078644990921021e-02 -3.281638324260711670e-01
1.475000000000000000e+03 1.013359928131103516e+01 -3.809524059295654297e+00 1.972388476133346558e-01 2.630338966846466064e-01 1.380818188190460205e-01 -1.869903653860092163e-01
1.476000000000000000e+03 3.579943180084228516e+00 5.924756050109863281e+00 3.853628039360046387e-01 1.841362416744232178e-01 1.708497107028961182e-01 -3.035899400711059570e-01
1.477000000000000000e+03 8.159785270690917969e+00 5.105895519256591797e+00 2.189443111419677734e+00 5.565710663795471191e-01 8.238042593002319336e-01 -1.717082977294921875e+00
1.478000000000000000e+03 7.384840488433837891e+00 3.524622678756713867e+00 1.544581532478332520e+00 -5.386869907379150391e-01 3.017683625221252441e-01 -1.826562285423278809e-01
1.479000000000000000e+03 4.419190406799316406e+00 5.604721546173095703e+00 6.769169569015502930e-01 1.386004090309143066e-01 2.446552067995071411e-01 -4.568293690681457520e-01
1.480000000000000000e+03 3.517448186874389648e+00 3.847077608108520508e+00 2.151659131050109863e-01 -4.810820147395133972e-02 5.011731013655662537e-02 1.271799057722091675e-01
1.481000000000000000e+03 2.548375368118286133e+00 5.989283084869384766e+00 2.644712626934051514e-01 2.155809476971626282e-02 8.580880612134933472e-02 -1.929940730333328247e-01
1.482000000000000000e+03 2.126118898391723633e+00 4.246608257293701172e+00 1.178456172347068787e-01 -1.396845281124114990e-01 -6.551675032824277878e-03 1.027987003326416016e-01
1.483000000000000000e+03 2.800765991210937500e+00 3.927711963653564453e+00 2.143314033746719360e-01 -8.521287143230438232e-02 3.873556107282638550e-02 8.947747200727462769e-02
1.484000000000000000e+03 1.061821556091308594e+01 3.212516307830810547e+00 5.357868671417236328e+00 -4.361207485198974609e-01 1.476524353027343750e+00 -2.768821954727172852e+00
1.485000000000000000e+03 8.907672882080078125e+00 5.112256526947021484e+00 2.529942989349365234e+00 5.503683090209960938e-01 9.240933656692504883e-01 -1.992315053939819336e+00
1.486000000000000000e+03 4.704598426818847656e+00 -5.054978847503662109e+00 5.265328288078308105e-02 -1.495125293731689453e-01 -2.905777469277381897e-02 -3.732844293117523193e-01
1.487000000000000000e+03 6.148539066314697266e+00 -4.406904697418212891e+00 2.921589463949203491e-02 -5.168621242046356201e-02 -6.741094868630170822e-03 -4.044142663478851318e-01
1.488000000000000000e+03 6.845639228820800781e+00 -4.199286937713623047e+00 3.020484372973442078e-02 -9.700817056000232697e-03 6.151208188384771347e-03 -4.112106859683990479e-01
1.489000000000000000e+03 8.072547912597656250e+00 -3.234107255935668945e+00 -1.956126093864440918e-01 4.159061610698699951e-02 -4.620659723877906799e-02 -4.036449491977691650e-01
1.490000000000000000e+03 3.530541896820068359e+00 -6.547865390777587891e+00 9.300584346055984497e-02 -2.970059514045715332e-01 -6.120003387331962585e-02 -2.857950031757354736e-01
1.491000000000000000e+03 1.261840534210205078e+01 -3.271383285522460938e+00 6.515085697174072266e-01 8.879742622375488281e-01 4.618448615074157715e-01 5.469936728477478027e-01
1.492000000000000000e+03 1.171820640563964844e+01 -3.503024578094482422e+00 4.021898210048675537e-01 5.254508256912231445e-01 2.782921791076660156e-01 1.656061857938766479e-01
1.493000000000000000e+03 8.226427078247070312e+00 -3.929025173187255859e+00 4.065077751874923706e-02 7.372703403234481812e-02 3.431334346532821655e-02 -3.765651285648345947e-01
1.494000000000000000e+03 1.235954475402832031e+01 6.004069328308105469e+00 3.926711380481719971e-01 5.637266635894775391e+00 1.808981418609619141e+00 -2.654382705688476562e+00
1.495000000000000000e+03 1.218029975891113281e+01 4.406008243560791016e+00 3.342390060424804688e+00 8.095854759216308594e+00 3.431473493576049805e+00 -5.805087566375732422e+00
1.496000000000000000e+03 1.837857437133789062e+01 -3.900664329528808594e+00 -1.044312238693237305e+00 5.540822982788085938e+00 1.348953127861022949e+00 -3.323921918869018555e+00
1.497000000000000000e+03 1.306353569030761719e+01 6.884166717529296875e+00 -7.607775330543518066e-01 6.432671070098876953e+00 1.701568007469177246e+00 -1.563125252723693848e+00
1.498000000000000000e+03 4.405517959594726562e+01 1.907883834838867188e+01 5.563424825668334961e-01 2.555822134017944336e+00 9.336494207382202148e-01 1.397684097290039062e+00
1.499000000000000000e+03 1.881371116638183594e+01 -1.603509521484375000e+01 1.335885524749755859e-01 3.152652025222778320e+00 9.858721494674682617e-01 -5.951143503189086914e-01
1.500000000000000000e+03 1.964120483398437500e+01 -1.700739860534667969e+01 1.378775089979171753e-01 2.933939695358276367e+00 9.215452075004577637e-01 -7.061835527420043945e-01
1.501000000000000000e+03 1.879409408569335938e+01 1.538014030456542969e+01 -7.101100087165832520e-01 7.724825739860534668e-01 1.871176622807979584e-02 -3.148344457149505615e-01
1.502000000000000000e+03 1.647456169128417969e+01 1.237897014617919922e+01 -7.541468143463134766e-01 1.423758268356323242e+00 2.008834481239318848e-01 -8.380716294050216675e-02
1.503000000000000000e+03 2.118304252624511719e+01 -1.901624870300292969e+01 1.380647867918014526e-01 2.590587854385375977e+00 8.185957670211791992e-01 -8.006349205970764160e-01
1.504000000000000000e+03 3.603232192993164062e+01 -1.246127891540527344e+01 -4.628917202353477478e-02 1.208471417427062988e+00 3.486546874046325684e-01 -1.801960915327072144e-01
1.505000000000000000e+03 3.468148803710937500e+01 -1.015123081207275391e+01 -8.978206664323806763e-03 9.229151010513305664e-01 2.741810679435729980e-01 -1.165463626384735107e-01
1.506000000000000000e+03 3.038907051086425781e+01 2.514253616333007812e+01 -6.726875305175781250e-01 -6.756767034530639648e-01 -4.045092761516571045e-01 -7.409422397613525391e-01
1.507000000000000000e+03 2.947230339050292969e+01 2.614319229125976562e+01 -6.560035347938537598e-01 -5.462987422943115234e-01 -3.606906831264495850e-01 -6.873450279235839844e-01
1.508000000000000000e+03 1.755014419555664062e+01 -3.888865947723388672e+00 -1.146913170814514160e+00 8.120677947998046875e+00 2.092129468917846680e+00 -2.486927032470703125e+00
1.509000000000000000e+03 3.674774932861328125e+01 -1.359743309020996094e+01 -1.295350790023803711e-01 1.390694737434387207e+00 3.783479034900665283e-01 -2.312453538179397583e-01
1.510000000000000000e+03 3.403659057617187500e+01 -8.969347953796386719e+00 -7.279246300458908081e-02 8.089860081672668457e-01 2.208580523729324341e-01 -9.882912039756774902e-02
1.511000000000000000e+03 3.341493606567382812e+01 -7.756149291992187500e+00 8.885333687067031860e-02 6.883200407028198242e-01 2.331520169973373413e-01 -1.007173433899879456e-01
1.512000000000000000e+03 5.191328811645507812e+01 2.717037582397460938e+01 1.004101514816284180e+00 7.234994888305664062e+00 2.471728801727294922e+00 2.875907421112060547e+00
1.513000000000000000e+03 4.233283233642578125e+01 1.507289981842041016e+01 4.173929691314697266e-01 2.299804687500000000e+00 8.151592612266540527e-01 1.089781641960144043e+00
1.514000000000000000e+03 2.373098564147949219e+01 1.834413719177246094e+01 -7.151539921760559082e-01 -3.281179666519165039e-01 -3.129815757274627686e-01 -5.344391465187072754e-01
1.515000000000000000e+03 2.180494880676269531e+01 1.842961883544921875e+01 -6.809896826744079590e-01 3.565854951739311218e-02 -1.935993432998657227e-01 -4.232123494148254395e-01
1.516000000000000000e+03 4.035509109497070312e+01 -1.934380531311035156e+01 -5.430168658494949341e-02 2.436079263687133789e+00 7.145333290100097656e-01 -5.179055929183959961e-01
1.517000000000000000e+03 2.178390312194824219e+01 -2.014785003662109375e+01 1.638918966054916382e-01 2.471010208129882812e+00 7.904706001281738281e-01 -7.608874440193176270e-01
1.518000000000000000e+03 4.548907470703125000e+01 -2.674021720886230469e+01 -8.290279656648635864e-02 5.116272926330566406e+00 1.510011076927185059e+00 -6.141245961189270020e-01
1.519000000000000000e+03 4.456245422363281250e+01 -2.584752464294433594e+01 -3.514949604868888855e-02 4.563627719879150391e+00 1.358543515205383301e+00 -7.333212494850158691e-01
1.520000000000000000e+03 2.626846122741699219e+01 4.965994060039520264e-01 1.565560102462768555e+00 -2.989356219768524170e-01 3.799873292446136475e-01 6.855577826499938965e-01
1.521000000000000000e+03 4.244110870361328125e+01 -2.285823440551757812e+01 -5.263298749923706055e-02 3.349159479141235352e+00 9.889579415321350098e-01 -7.220092415809631348e-01
1.522000000000000000e+03 4.200323104858398438e+01 -2.470022773742675781e+01 1.056921705603599548e-01 3.212478160858154297e+00 9.954510927200317383e-01 -9.095765352249145508e-01
1.523000000000000000e+03 2.106566047668457031e+01 -2.190724563598632812e+01 7.417529076337814331e-02 2.308063983917236328e+00 7.146717905998229980e-01 -5.904058814048767090e-01
1.524000000000000000e+03 3.344793701171875000e+01 1.004986476898193359e+01 5.282888412475585938e-01 6.235356330871582031e-01 3.455473482608795166e-01 4.753336310386657715e-01
1.525000000000000000e+03 4.314380264282226562e+01 -2.397652435302734375e+01 -3.976497799158096313e-02 3.721475362777709961e+00 1.104513049125671387e+00 -7.898964881896972656e-01
1.526000000000000000e+03 2.278339576721191406e+01 1.943979454040527344e+01 -6.652089953422546387e-01 -1.057001354638487101e-04 -1.995944082736968994e-01 -4.942288100719451904e-01
1.527000000000000000e+03 3.822285461425781250e+01 -1.583934402465820312e+01 -1.271850764751434326e-01 1.783168792724609375e+00 4.967951178550720215e-01 -3.327738940715789795e-01
1.528000000000000000e+03 4.745109939575195312e+01 2.396144104003906250e+01 1.088492274284362793e+00 3.709461927413940430e+00 1.439386248588562012e+00 2.151481389999389648e+00
1.529000000000000000e+03 2.044790077209472656e+01 -1.798338890075683594e+01 1.436712294816970825e-01 2.818475961685180664e+00 8.886441588401794434e-01 -7.441526055335998535e-01
1.530000000000000000e+03 2.598990249633789062e+01 -2.529172134399414062e+01 2.672989070415496826e-01 1.941449880599975586e+00 6.626246571540832520e-01 -7.113757133483886719e-01
1.531000000000000000e+03 2.473371124267578125e+01 -2.299729537963867188e+01 2.764852344989776611e-01 2.096636056900024414e+00 7.119364142417907715e-01 -7.769266963005065918e-01
1.532000000000000000e+03 2.708870124816894531e+01 -2.123450994491577148e+00 1.182979822158813477e+00 -1.867300420999526978e-01 2.988749444484710693e-01 3.837330266833305359e-02
1.533000000000000000e+03 5.021108245849609375e+01 2.518694877624511719e+01 9.131008982658386230e-01 5.572382926940917969e+00 1.945645093917846680e+00 2.587245464324951172e+00
1.534000000000000000e+03 2.774389076232910156e+01 2.691033935546875000e+01 -5.896885991096496582e-01 -3.633282482624053955e-01 -2.859050631523132324e-01 -5.767192840576171875e-01
1.535000000000000000e+03 7.549467468261718750e+01 1.384909248352050781e+01 -4.805829375982284546e-02 8.113842010498046875e+00 2.419735193252563477e+00 -3.832242786884307861e-01
1.536000000000000000e+03 7.546518707275390625e+01 -9.688505530357360840e-02 -4.210784286260604858e-02 8.493970870971679688e+00 2.535558938980102539e+00 -3.961077705025672913e-02
1.537000000000000000e+03 7.678763580322265625e+01 2.709330081939697266e+00 -4.010824114084243774e-02 8.648759841918945312e+00 2.582595348358154297e+00 -8.078882098197937012e-02
1.538000000000000000e+03 7.549193572998046875e+01 6.912402153015136719e+00 -7.875028997659683228e-02 8.398907661437988281e+00 2.496047258377075195e+00 -2.004595100879669189e-01
1.539000000000000000e+03 7.414278411865234375e+01 -1.515345215797424316e+00 -7.084296643733978271e-02 8.314698219299316406e+00 2.473156690597534180e+00 -4.961477592587471008e-03
1.540000000000000000e+03 7.546960449218750000e+01 -8.476171493530273438e+00 -3.590139001607894897e-02 8.413415908813476562e+00 2.513254404067993164e+00 1.079140082001686096e-01
1.541000000000000000e+03 7.547848510742187500e+01 4.121121406555175781e+00 -7.151313871145248413e-02 8.457046508789062500e+00 2.515660047531127930e+00 -1.319124847650527954e-01
1.542000000000000000e+03 7.545938110351562500e+01 1.304625868797302246e+00 -6.134876608848571777e-02 8.486976623535156250e+00 2.527688503265380859e+00 -6.865715235471725464e-02
1.543000000000000000e+03 7.548727416992187500e+01 5.525420665740966797e+00 -4.908557608723640442e-02 8.430235862731933594e+00 2.514345169067382812e+00 -1.611398905515670776e-01
1.544000000000000000e+03 7.414347839355468750e+01 4.159806728363037109e+00 -8.165591210126876831e-02 8.298851013183593750e+00 2.465158462524414062e+00 -1.454869955778121948e-01
1.545000000000000000e+03 7.538462829589843750e+01 -4.329864978790283203e+00 -5.264245718717575073e-02 8.465286254882812500e+00 2.523793220520019531e+00 3.814128786325454712e-02
1.546000000000000000e+03 7.534098052978515625e+01 -5.722127437591552734e+00 -3.609224036335945129e-02 8.448273658752441406e+00 2.523654222488403320e+00 6.256395578384399414e-02
1.547000000000000000e+03 7.543843841552734375e+01 -2.923209428787231445e+00 -3.934180364012718201e-02 8.480475425720214844e+00 2.532340049743652344e+00 1.492720562964677811e-02
1.548000000000000000e+03 7.415238952636718750e+01 -8.581070899963378906e+00 -6.599199771881103516e-02 8.236154556274414062e+00 2.451048851013183594e+00 1.312205791473388672e-01
1.549000000000000000e+03 7.555656433105468750e+01 -1.539762592315673828e+01 -3.157719969749450684e-02 8.233152389526367188e+00 2.460472583770751953e+00 1.949350386857986450e-01
1.550000000000000000e+03 7.680126953125000000e+01 9.663337707519531250e+00 -2.059952728450298309e-02 8.423884391784667969e+00 2.520985603332519531e+00 -2.104415893554687500e-01
1.551000000000000000e+03 7.549593353271484375e+01 8.282999038696289062e+00 -5.116534233093261719e-02 8.358341217041015625e+00 2.492152929306030273e+00 -2.291556000709533691e-01
1.552000000000000000e+03 7.556394958496093750e+01 -1.125112533569335938e+01 -2.723389491438865662e-02 8.364116668701171875e+00 2.501064777374267578e+00 1.418853104114532471e-01
1.553000000000000000e+03 7.682978820800781250e+01 -1.122241115570068359e+01 -2.180442959070205688e-02 8.532653808593750000e+00 2.553254842758178711e+00 1.064121127128601074e-01
1.554000000000000000e+03 7.557985687255859375e+01 -1.263412284851074219e+01 -3.582285717129707336e-02 8.328252792358398438e+00 2.487729072570800781e+00 1.596900075674057007e-01
1.555000000000000000e+03 7.383054351806640625e+01 3.292028808593750000e+01 1.300167441368103027e-01 7.178449153900146484e+00 2.192539930343627930e+00 -4.327298700809478760e-01
1.556000000000000000e+03 7.545045471191406250e+01 3.607674789428710938e+01 1.928935199975967407e-01 6.633625984191894531e+00 2.047955751419067383e+00 -3.266436457633972168e-01
1.557000000000000000e+03 7.537100219726562500e+01 3.169072723388671875e+01 4.936176165938377380e-02 6.847987174987792969e+00 2.069204807281494141e+00 -4.311260879039764404e-01
1.558000000000000000e+03 7.665094757080078125e+01 3.316179656982421875e+01 4.027625545859336853e-02 6.387117862701416016e+00 1.928218245506286621e+00 -2.929783463478088379e-01
1.559000000000000000e+03 7.541299438476562500e+01 -1.822683715820312500e+01 -2.483219094574451447e-02 8.112230300903320312e+00 2.426219463348388672e+00 2.275472730398178101e-01
1.560000000000000000e+03 7.536618041992187500e+01 -2.247623825073242188e+01 -7.410325109958648682e-03 7.934311866760253906e+00 2.378070354461669922e+00 2.518990039825439453e-01
1.561000000000000000e+03 7.549159240722656250e+01 1.105537414550781250e+01 -5.304070562124252319e-02 8.252387046813964844e+00 2.459803819656372070e+00 -3.048847913742065430e-01
1.562000000000000000e+03 7.416114044189453125e+01 9.696909904479980469e+00 -9.288951009511947632e-02 8.205910682678222656e+00 2.433906555175781250e+00 -3.081485927104949951e-01
1.563000000000000000e+03 7.548310089111328125e+01 1.663719558715820312e+01 -3.589301556348800659e-02 7.943394184112548828e+00 2.372250318527221680e+00 -4.578471183776855469e-01
1.564000000000000000e+03 7.549612426757812500e+01 -1.680185508728027344e+01 -2.318634092807769775e-02 8.172499656677246094e+00 2.444793939590454102e+00 2.115359753370285034e-01
1.565000000000000000e+03 7.534673309326171875e+01 -1.965388870239257812e+01 -1.309284288436174393e-02 8.048199653625488281e+00 2.410532236099243164e+00 2.418025881052017212e-01
1.566000000000000000e+03 7.677584838867187500e+01 -1.680883026123046875e+01 -1.783094182610511780e-02 8.319948196411132812e+00 2.490635395050048828e+00 1.603011488914489746e-01
1.567000000000000000e+03 7.558125305175781250e+01 -1.401431941986083984e+01 -2.669182792305946350e-02 8.283995628356933594e+00 2.477191209793090820e+00 1.780668646097183228e-01
1.568000000000000000e+03 7.675807189941406250e+01 1.804590225219726562e+01 -4.157466173637658358e-04 7.823691368103027344e+00 2.346982717514038086e+00 -3.916006982326507568e-01
1.569000000000000000e+03 7.546277618408203125e+01 1.804358863830566406e+01 -9.380467236042022705e-02 7.853589534759521484e+00 2.327935457229614258e+00 -5.113342404365539551e-01
1.570000000000000000e+03 7.539822387695312500e+01 2.092477607727050781e+01 -7.813622057437896729e-02 7.639909744262695312e+00 2.268532037734985352e+00 -5.761883854866027832e-01
1.571000000000000000e+03 7.543238067626953125e+01 1.947241973876953125e+01 -1.590039208531379700e-02 7.743819713592529297e+00 2.318375825881958008e+00 -5.288434028625488281e-01
1.572000000000000000e+03 7.419032287597656250e+01 1.806337356567382812e+01 -5.796999484300613403e-02 7.876674652099609375e+00 2.345611333847045898e+00 -5.681470036506652832e-01
1.573000000000000000e+03 7.538024139404296875e+01 -2.905137634277343750e+01 1.850918866693973541e-02 7.655827522277832031e+00 2.302300930023193359e+00 2.340953201055526733e-01
1.574000000000000000e+03 7.400479888916015625e+01 -2.254500198364257812e+01 -1.945299096405506134e-02 7.810498714447021484e+00 2.337313652038574219e+00 3.115829825401306152e-01
1.575000000000000000e+03 7.539543151855468750e+01 2.236390113830566406e+01 1.861655898392200470e-02 7.510324001312255859e+00 2.258682250976562500e+00 -5.748054385185241699e-01
1.576000000000000000e+03 7.402394866943359375e+01 -2.532763862609863281e+01 7.601501885801553726e-03 7.710752010345458984e+00 2.315505981445312500e+00 3.042332828044891357e-01
1.577000000000000000e+03 7.675437164306640625e+01 -2.517852020263671875e+01 -1.966699201148003340e-04 7.918193340301513672e+00 2.375399112701416016e+00 1.920548826456069946e-01
1.578000000000000000e+03 7.539259338378906250e+01 -2.387308883666992188e+01 -6.675119046121835709e-03 7.873457908630371094e+00 2.360034704208374023e+00 2.560627758502960205e-01
1.579000000000000000e+03 7.430820465087890625e+01 2.767841529846191406e+01 3.248685039579868317e-03 7.323545932769775391e+00 2.198038339614868164e+00 -6.487655639648437500e-01
1.580000000000000000e+03 7.416072082519531250e+01 2.391276359558105469e+01 4.825096577405929565e-02 7.516120433807373047e+00 2.269311428070068359e+00 -7.092350721359252930e-01
1.581000000000000000e+03 7.680815887451171875e+01 2.773088073730468750e+01 -3.738011419773101807e-02 6.835980892181396484e+00 2.039580345153808594e+00 -4.392094612121582031e-01
1.582000000000000000e+03 7.554806518554687500e+01 2.769275474548339844e+01 1.060847416520118713e-01 7.047295093536376953e+00 2.146013975143432617e+00 -5.553866028785705566e-01
1.583000000000000000e+03 7.675299835205078125e+01 3.043988609313964844e+01 -8.786660619080066681e-03 6.593421459197998047e+00 1.975390434265136719e+00 -3.813111484050750732e-01
1.584000000000000000e+03 7.553101348876953125e+01 2.901547431945800781e+01 -5.672651343047618866e-03 6.991203308105468750e+00 2.095659255981445312e+00 -5.212067365646362305e-01
1.585000000000000000e+03 7.487757873535156250e+01 -3.641168594360351562e+01 6.375770270824432373e-02 7.405724048614501953e+00 2.240844488143920898e+00 1.257067322731018066e-01
1.586000000000000000e+03 7.486872100830078125e+01 -3.148527336120605469e+01 4.019473120570182800e-02 7.539769649505615234e+00 2.273989439010620117e+00 2.254119664430618286e-01
1.587000000000000000e+03 1.248621368408203125e+01 8.399358749389648438e+00 -7.148262858390808105e-01 4.576591491699218750e+00 1.158529520034790039e+00 -1.605963349342346191e+00
1.588000000000000000e+03 7.547148895263671875e+01 3.033866119384765625e+01 1.667394042015075684e-01 6.877750873565673828e+00 2.113347053527832031e+00 -5.019793510437011719e-01
1.589000000000000000e+03 7.618994903564453125e+01 -3.180449295043945312e+01 2.445871196687221527e-02 7.590210914611816406e+00 2.284400939941406250e+00 1.770737171173095703e-01
1.590000000000000000e+03 7.519849395751953125e+01 -3.024784660339355469e+01 2.783956564962863922e-02 7.603254795074462891e+00 2.289328336715698242e+00 2.307978868484497070e-01
1.591000000000000000e+03 4.642886352539062500e+01 2.073549270629882812e+01 5.980474948883056641e-01 3.477213382720947266e+00 1.222578287124633789e+00 1.729622960090637207e+00
1.592000000000000000e+03 4.433922576904296875e+01 2.100127792358398438e+01 7.467030286788940430e-01 2.459448337554931641e+00 9.618454575538635254e-01 1.499765992164611816e+00
1.593000000000000000e+03 3.853709793090820312e+01 -1.885963439941406250e+01 2.301793731749057770e-02 1.783733367919921875e+00 5.420253872871398926e-01 -4.577745199203491211e-01
1.594000000000000000e+03 3.730806732177734375e+01 1.207316780090332031e+01 4.799481928348541260e-01 1.192559003829956055e+00 5.017521381378173828e-01 6.700936555862426758e-01
1.595000000000000000e+03 3.835492324829101562e+01 1.307684230804443359e+01 4.543783366680145264e-01 1.352781772613525391e+00 5.421480536460876465e-01 7.437738180160522461e-01
1.596000000000000000e+03 3.939305114746093750e+01 1.406872272491455078e+01 4.701542556285858154e-01 1.541953086853027344e+00 6.036322116851806641e-01 8.296172022819519043e-01
1.597000000000000000e+03 3.850856399536132812e+01 1.510933494567871094e+01 4.544882476329803467e-01 1.209451436996459961e+00 4.991818964481353760e-01 7.447089552879333496e-01
1.598000000000000000e+03 3.626507186889648438e+01 1.107063293457031250e+01 4.924893677234649658e-01 1.031360745429992676e+00 4.571550190448760986e-01 6.074481606483459473e-01
1.599000000000000000e+03 1.374443817138671875e+01 9.486246109008789062e+00 -7.023572921752929688e-01 3.384480714797973633e+00 8.046370148658752441e-01 -4.407182037830352783e-01
1.600000000000000000e+03 2.660489463806152344e+01 -2.641400909423828125e+01 2.465112209320068359e-01 1.831864356994628906e+00 6.235126852989196777e-01 -7.032119035720825195e-01
1.601000000000000000e+03 2.977438926696777344e+00 -1.661110877990722656e+01 2.619273401796817780e-02 -2.565158009529113770e-01 -6.909691542387008667e-02 1.623283326625823975e-01
1.602000000000000000e+03 4.153075218200683594e+00 -1.538034057617187500e+01 6.638554483652114868e-02 -4.369980469346046448e-02 6.805721204727888107e-03 1.817324906587600708e-01
1.603000000000000000e+03 4.389261245727539062e+00 2.212612533569335938e+01 -1.206030100584030151e-01 2.547260284423828125e+00 7.279971837997436523e-01 -4.243522584438323975e-01
1.604000000000000000e+03 4.277697563171386719e+00 1.797502517700195312e+01 -1.664805561304092407e-01 2.215416193008422852e+00 6.146806478500366211e-01 -6.115388274192810059e-01
1.605000000000000000e+03 4.345960617065429688e+00 1.936450004577636719e+01 -1.541427224874496460e-01 2.362611532211303711e+00 6.625406742095947266e-01 -5.789684057235717773e-01
1.606000000000000000e+03 4.182098865509033203e+00 1.658682060241699219e+01 -1.668490618467330933e-01 2.111580133438110352e+00 5.834193229675292969e-01 -7.475612759590148926e-01
1.607000000000000000e+03 4.192819118499755859e+00 -1.671642684936523438e+01 4.730233922600746155e-02 2.249189093708992004e-02 2.093826979398727417e-02 2.216814756393432617e-01
1.608000000000000000e+03 4.424710273742675781e+00 -2.070326614379882812e+01 -1.412010006606578827e-02 2.057799100875854492e-01 5.749794468283653259e-02 2.422148883342742920e-01
1.609000000000000000e+03 5.661822795867919922e+00 2.317901420593261719e+01 -1.608032286167144775e-01 2.472959041595458984e+00 6.936467289924621582e-01 -4.350508153438568115e-01
1.610000000000000000e+03 4.557526111602783203e+00 2.496018981933593750e+01 -9.338737279176712036e-02 2.678532123565673828e+00 7.755433917045593262e-01 -3.044818937778472900e-01
1.611000000000000000e+03 5.215585231781005859e+00 2.964782524108886719e+01 -6.677337735891342163e-02 2.716266393661499023e+00 7.948479056358337402e-01 -1.712478995323181152e-01
1.612000000000000000e+03 5.057247161865234375e+00 -2.752349662780761719e+01 -4.105109721422195435e-02 4.714768826961517334e-01 1.291277408599853516e-01 1.952413320541381836e-01
1.613000000000000000e+03 3.313018560409545898e+00 -2.343371200561523438e+01 -1.250011287629604340e-02 1.050724387168884277e-01 2.777169831097126007e-02 1.919721662998199463e-01
1.614000000000000000e+03 4.551423549652099609e+00 -2.204593467712402344e+01 -1.798496581614017487e-02 2.654161751270294189e-01 7.422935962677001953e-02 2.441897839307785034e-01
1.615000000000000000e+03 4.003011226654052734e+00 1.389742279052734375e+01 -1.197300329804420471e-01 1.766447305679321289e+00 4.940151870250701904e-01 -9.043452739715576172e-01
1.616000000000000000e+03 5.443622589111328125e+00 -1.684442710876464844e+01 5.328072980046272278e-02 2.845791876316070557e-01 1.013579741120338440e-01 2.489781379699707031e-01
1.617000000000000000e+03 4.234589576721191406e+00 -1.804324340820312500e+01 2.173810265958309174e-02 7.371703535318374634e-02 2.863654121756553650e-02 2.276402562856674194e-01
1.618000000000000000e+03 4.437413692474365234e+00 2.352333831787109375e+01 -1.150700822472572327e-01 2.610517024993896484e+00 7.486340999603271484e-01 -3.294970691204071045e-01
1.619000000000000000e+03 4.752693653106689453e+00 2.646340942382812500e+01 -8.803991973400115967e-02 2.695749998092651367e+00 7.823129892349243164e-01 -2.407578676939010620e-01
1.620000000000000000e+03 6.147083759307861328e+00 -2.472327041625976562e+01 -4.994793608784675598e-02 5.792915821075439453e-01 1.588030904531478882e-01 2.446716129779815674e-01
1.621000000000000000e+03 4.667656898498535156e+00 -2.340022277832031250e+01 -2.920638769865036011e-02 3.182510137557983398e-01 8.671338856220245361e-02 2.287872880697250366e-01
1.622000000000000000e+03 3.996942281723022461e+00 -1.023566627502441406e+01 1.603209823369979858e-01 -2.203131020069122314e-01 -1.799763925373554230e-02 -5.889504030346870422e-02
1.623000000000000000e+03 4.102556705474853516e+00 -1.404633331298828125e+01 9.546988457441329956e-02 -9.155613929033279419e-02 1.174122910015285015e-03 1.443593204021453857e-01
1.624000000000000000e+03 3.500944375991821289e+00 -3.063294410705566406e+01 -2.797595597803592682e-02 3.632307946681976318e-01 1.005764529109001160e-01 1.231616809964179993e-01
1.625000000000000000e+03 5.849365234375000000e+00 -2.854140663146972656e+01 -5.214367434382438660e-02 5.675290226936340332e-01 1.546155959367752075e-01 1.916664838790893555e-01
1.626000000000000000e+03 5.060419559478759766e+00 1.234005451202392578e+01 -9.032379835844039917e-02 1.711458206176757812e+00 4.863403141498565674e-01 -1.143113732337951660e+00
1.627000000000000000e+03 6.736272811889648438e+00 2.930844116210937500e+01 -1.134859770536422729e-01 2.507507801055908203e+00 7.182065248489379883e-01 -2.236618250608444214e-01
1.628000000000000000e+03 6.726303577423095703e+00 3.557678222656250000e+01 -7.397019118070602417e-02 2.570755720138549805e+00 7.490356564521789551e-01 -8.760207146406173706e-02
1.629000000000000000e+03 3.894938230514526367e+00 1.126385498046875000e+01 1.961795799434185028e-02 1.312687754631042480e+00 3.996917009353637695e-01 -9.782124757766723633e-01
1.630000000000000000e+03 4.004200935363769531e+00 -1.145981407165527344e+01 1.430345326662063599e-01 -1.887738257646560669e-01 -1.372178457677364349e-02 1.970751956105232239e-02
1.631000000000000000e+03 6.667341232299804688e+00 -3.061224174499511719e+01 -6.378290057182312012e-02 6.827424764633178711e-01 1.856878697872161865e-01 1.716075092554092407e-01
1.632000000000000000e+03 5.222973823547363281e+00 -2.980172920227050781e+01 -4.639302939176559448e-02 5.300758481025695801e-01 1.451048403978347778e-01 1.621609330177307129e-01
1.633000000000000000e+03 3.643604755401611328e+00 -3.186817169189453125e+01 -2.472869865596294403e-02 4.143689274787902832e-01 1.168920695781707764e-01 1.122175678610801697e-01
1.634000000000000000e+03 3.382823944091796875e+00 3.409032821655273438e+01 -5.000315606594085693e-02 3.166665077209472656e+00 9.349985718727111816e-01 -5.331609025597572327e-02
1.635000000000000000e+03 2.616599321365356445e+00 7.395491600036621094e+00 1.704534590244293213e-01 2.931750416755676270e-01 1.390885561704635620e-01 -4.003709852695465088e-01
1.636000000000000000e+03 3.757708787918090820e+00 8.601099014282226562e+00 2.542570233345031738e-01 7.465794682502746582e-01 3.002509474754333496e-01 -8.221002221107482910e-01
1.637000000000000000e+03 5.062428951263427734e+00 4.525969505310058594e+00 7.853801250457763672e-01 -6.837362051010131836e-02 2.151019424200057983e-01 -2.367041260004043579e-01
1.638000000000000000e+03 4.045043945312500000e+00 -5.694028377532958984e+00 8.559305965900421143e-02 -2.094862312078475952e-01 -3.716795146465301514e-02 -3.368087708950042725e-01
1.639000000000000000e+03 3.177572011947631836e+00 -5.045827865600585938e+00 1.688988693058490753e-02 -2.487186938524246216e-01 -6.954864412546157837e-02 -3.266273438930511475e-01
1.640000000000000000e+03 2.855001831054687500e+01 2.545105361938476562e+01 -6.295940876007080078e-01 -4.907277524471282959e-01 -3.360965549945831299e-01 -6.473807692527770996e-01
1.641000000000000000e+03 5.225317478179931641e+00 -3.580329132080078125e+01 -4.181727394461631775e-02 5.929278135299682617e-01 1.653331518173217773e-01 8.525720983743667603e-02
1.642000000000000000e+03 1.548190116882324219e+01 1.173459815979003906e+01 -8.341316580772399902e-01 2.154144048690795898e+00 3.960036933422088623e-01 -1.411292999982833862e-01
1.643000000000000000e+03 4.623295593261718750e+01 -2.791235923767089844e+01 1.532007940113544464e-02 5.571330547332763672e+00 1.675995230674743652e+00 -4.819116890430450439e-01
1.644000000000000000e+03 2.656827545166015625e+01 2.358104515075683594e+01 -6.153485774993896484e-01 -3.512406349182128906e-01 -2.899767756462097168e-01 -5.969293117523193359e-01
1.645000000000000000e+03 2.463472175598144531e+01 2.151854515075683594e+01 -6.496793031692504883e-01 -1.912577450275421143e-01 -2.522810995578765869e-01 -5.406746268272399902e-01
1.646000000000000000e+03 2.692377662658691406e+01 -4.654805064201354980e-01 1.570749998092651367e+00 -2.815424203872680664e-01 3.867622911930084229e-01 1.802697628736495972e-01
1.647000000000000000e+03 2.523377799987792969e+01 -2.898343086242675781e+01 1.303224861621856689e-01 1.771453857421875000e+00 5.705329179763793945e-01 -4.901139438152313232e-01
1.648000000000000000e+03 2.644360351562500000e+01 -3.319112396240234375e+01 8.631813526153564453e-02 1.533890843391418457e+00 4.860627055168151855e-01 -3.520893752574920654e-01
1.649000000000000000e+03 2.920051574707031250e+01 6.157942295074462891e+00 7.754036784172058105e-01 3.126989603042602539e-01 3.264307975769042969e-01 4.309798777103424072e-01
1.650000000000000000e+03 3.204271316528320312e+01 7.151526927947998047e+00 6.821951270103454590e-01 5.354266166687011719e-01 3.652865290641784668e-01 4.423691630363464355e-01
1.651000000000000000e+03 3.026845169067382812e+01 -5.629723668098449707e-01 1.023667693138122559e+00 1.904742717742919922e-01 3.642425835132598877e-01 1.576201468706130981e-01
1.652000000000000000e+03 2.769111251831054688e+01 -1.113532781600952148e+00 9.031549692153930664e-01 -1.374742090702056885e-01 2.297042310237884521e-01 -3.787212446331977844e-02
1.653000000000000000e+03 4.754483032226562500e+01 2.181069374084472656e+01 6.609972715377807617e-01 3.993180274963378906e+00 1.396253228187561035e+00 1.917214274406433105e+00
1.654000000000000000e+03 1.824365615844726562e+01 -1.174878883361816406e+01 3.645362555980682373e-01 4.047014236450195312e+00 1.323465108871459961e+00 -7.835264801979064941e-01
1.655000000000000000e+03 2.743045043945312500e+01 1.236139059066772461e+00 1.166676521301269531e+00 2.885615453124046326e-02 3.586598038673400879e-01 4.097710847854614258e-01
1.656000000000000000e+03 5.108566665649414062e+01 2.618314743041992188e+01 9.470593929290771484e-01 6.549319744110107422e+00 2.248913764953613281e+00 2.817285537719726562e+00
1.657000000000000000e+03 3.285530090332031250e+01 -6.489944458007812500e+00 8.779211342334747314e-02 5.980262160301208496e-01 2.057455033063888550e-01 -8.882918208837509155e-02
1.658000000000000000e+03 3.316015243530273438e+01 2.977480125427246094e+01 -8.186095952987670898e-01 -7.238981127738952637e-01 -4.627523124217987061e-01 -6.915946006774902344e-01
1.659000000000000000e+03 3.666580200195312500e+01 3.414048385620117188e+01 -9.553123116493225098e-01 -7.210758924484252930e-01 -5.029164552688598633e-01 -7.200129032135009766e-01
1.660000000000000000e+03 2.665553855895996094e+01 2.364816904067993164e+00 1.140704154968261719e+00 6.502030044794082642e-02 3.617173433303833008e-01 7.205233573913574219e-01
1.661000000000000000e+03 4.126933670043945312e+01 1.610568237304687500e+01 4.831492602825164795e-01 1.855312347412109375e+00 7.015385031700134277e-01 1.009273409843444824e+00
1.662000000000000000e+03 3.701191329956054688e+01 1.007640743255615234e+01 5.180023312568664551e-01 1.232716679573059082e+00 5.252156853675842285e-01 6.402270793914794922e-01
1.663000000000000000e+03 1.814383125305175781e+01 1.415262985229492188e+01 -7.215628027915954590e-01 7.783895730972290039e-01 1.704803481698036194e-02 -1.661514341831207275e-01
1.664000000000000000e+03 4.689627075195312500e+01 -2.902098083496093750e+01 1.450602561235427856e-01 6.006108760833740234e+00 1.845350742340087891e+00 -3.078895509243011475e-01
1.665000000000000000e+03 4.657792282104492188e+01 -3.106751441955566406e+01 5.136752724647521973e-01 6.531885147094726562e+00 2.113668203353881836e+00 -3.521226346492767334e-01
1.666000000000000000e+03 3.311397171020507812e+01 8.121659278869628906e+00 6.350630521774291992e-01 6.370939016342163086e-01 3.816470801830291748e-01 4.842799305915832520e-01
1.667000000000000000e+03 3.060982322692871094e+01 2.803643226623535156e+01 -6.608541011810302734e-01 -6.048320531845092773e-01 -3.797058463096618652e-01 -6.579295992851257324e-01
1.668000000000000000e+03 2.776213073730468750e+01 3.243334054946899414e+00 9.312557578086853027e-01 2.242250889539718628e-01 3.466442525386810303e-01 5.183476209640502930e-01
1.669000000000000000e+03 2.883113288879394531e+01 4.208087921142578125e+00 8.951621651649475098e-01 2.371700406074523926e-01 3.396996557712554932e-01 4.720637500286102295e-01
1.670000000000000000e+03 1.707196426391601562e+01 -8.629786491394042969e+00 3.591216504573822021e-01 4.767629623413085938e+00 1.538025379180908203e+00 -6.220036149024963379e-01
1.671000000000000000e+03 5.883155441284179688e+01 3.276212692260742188e+01 2.498147249221801758e+00 1.070848751068115234e+01 3.961990356445312500e+00 2.405300736427307129e-01
1.672000000000000000e+03 2.934556007385253906e+01 -3.206073760986328125e+01 2.688698768615722656e-01 1.466136097908020020e+00 5.205017924308776855e-01 -5.141571760177612305e-01
1.673000000000000000e+03 7.526649475097656250e+01 4.038718414306640625e+01 6.075443327426910400e-02 6.337838649749755859e+00 1.919577956199645996e+00 -1.242415010929107666e-01
1.674000000000000000e+03 1.637016868591308594e+01 -1.046018028259277344e+01 4.388846755027770996e-01 3.891095876693725586e+00 1.298994183540344238e+00 -2.256298065185546875e-01
1.675000000000000000e+03 3.245231628417968750e+01 -5.158054351806640625e+00 3.071515858173370361e-01 5.435220003128051758e-01 2.552020847797393799e-01 -1.186869591474533081e-01
1.676000000000000000e+03 4.149000167846679688e+01 4.100300598144531250e+01 -1.873765587806701660e+00 -4.781243205070495605e-01 -7.055669426918029785e-01 -2.790552973747253418e-01
1.677000000000000000e+03 1.715950775146484375e+01 -1.062395668029785156e+01 4.296355843544006348e-01 4.020802974700927734e+00 1.335131645202636719e+00 -4.477522373199462891e-01
1.678000000000000000e+03 2.737458038330078125e+01 -4.119569396972656250e+01 5.768038332462310791e-02 1.331646680831909180e+00 4.167981147766113281e-01 -4.241381958127021790e-02
1.679000000000000000e+03 3.093194580078125000e+01 -3.850323867797851562e+01 2.360754311084747314e-01 1.090707659721374512e+00 3.980349302291870117e-01 -2.924496829509735107e-01
1.680000000000000000e+03 3.534492874145507812e+01 -1.131376647949218750e+01 -1.191280260682106018e-01 1.062003016471862793e+00 2.828624844551086426e-01 -1.520550698041915894e-01
1.681000000000000000e+03 2.761641502380371094e+01 -3.628450775146484375e+01 7.195300608873367310e-02 1.395166993141174316e+00 4.401360154151916504e-01 -2.781339883804321289e-01
1.682000000000000000e+03 5.932201385498046875e+01 3.806171798706054688e+01 1.174911022186279297e+00 1.215720462799072266e+01 3.999634504318237305e+00 2.469487428665161133e+00
1.683000000000000000e+03 5.670704650878906250e+01 3.189236831665039062e+01 1.625568032264709473e+00 1.278533077239990234e+01 4.323269367218017578e+00 1.467308282852172852e+00
1.684000000000000000e+03 5.019143676757812500e+01 -3.431238555908203125e+01 1.095268487930297852e+00 6.535207748413085938e+00 2.289142847061157227e+00 9.725137799978256226e-02
1.685000000000000000e+03 4.996263504028320312e+01 -3.968150711059570312e+01 5.504030585289001465e-01 6.872237205505371094e+00 2.226792097091674805e+00 -3.507661223411560059e-01
1.686000000000000000e+03 2.403472709655761719e+01 -2.686707687377929688e+01 1.173061728477478027e-01 1.907316088676452637e+00 6.073867082595825195e-01 -5.307924151420593262e-01
1.687000000000000000e+03 4.971136474609375000e+01 -3.074356079101562500e+01 5.749337673187255859e-01 6.334798812866210938e+00 2.072919845581054688e+00 2.377584874629974365e-01
1.688000000000000000e+03 5.266137313842773438e+01 2.820227622985839844e+01 9.803629517555236816e-01 8.691996574401855469e+00 2.901707887649536133e+00 3.066800117492675781e+00
1.689000000000000000e+03 5.190749740600585938e+01 2.883694267272949219e+01 1.817403078079223633e+00 7.469388484954833984e+00 2.786037445068359375e+00 3.603877782821655273e+00
1.690000000000000000e+03 4.857025909423828125e+01 -2.939993286132812500e+01 2.875817716121673584e-01 6.136089324951171875e+00 1.927101373672485352e+00 3.663526102900505066e-02
1.691000000000000000e+03 1.989983940124511719e+01 1.433030796051025391e+01 -6.837816238403320312e-01 1.841340512037277222e-01 -1.498942673206329346e-01 -2.732514142990112305e-01
1.692000000000000000e+03 1.395823574066162109e+01 -3.056492805480957031e+00 1.056657433509826660e+00 2.313712596893310547e+00 1.011111021041870117e+00 1.855523109436035156e+00
1.693000000000000000e+03 1.794267845153808594e+01 -2.052278518676757812e+00 4.078484535217285156e+00 5.279926300048828125e+00 2.807523250579833984e+00 -2.635842084884643555e+00
1.694000000000000000e+03 1.512292671203613281e+01 -2.824442386627197266e+00 6.784747838973999023e-01 6.938788890838623047e+00 2.285179138183593750e+00 3.244932174682617188e+00
1.695000000000000000e+03 1.352392578125000000e+01 -3.536620616912841797e+00 9.208377599716186523e-01 2.156456232070922852e+00 9.231881499290466309e-01 1.525549888610839844e+00
1.696000000000000000e+03 1.421619606018066406e+01 -3.381377458572387695e+00 8.528382182121276855e-01 3.457157373428344727e+00 1.292998671531677246e+00 2.164723634719848633e+00
1.697000000000000000e+03 1.713415908813476562e+01 -5.729201316833496094e+00 1.962485164403915405e-01 6.238379001617431641e+00 1.930388331413269043e+00 -1.183069229125976562e+00
1.698000000000000000e+03 1.562648296356201172e+01 -2.934573888778686523e+00 -2.120522558689117432e-01 9.647698402404785156e+00 2.830693721771240234e+00 2.498349428176879883e+00
1.699000000000000000e+03 1.068037986755371094e+01 -3.830631494522094727e+00 3.313876688480377197e-01 3.602976500988006592e-01 2.075055986642837524e-01 -7.751470804214477539e-02
1.700000000000000000e+03 1.160966777801513672e+01 -3.961767196655273438e+00 5.577954053878784180e-01 6.845225095748901367e-01 3.726953566074371338e-01 2.169092446565628052e-01
1.701000000000000000e+03 1.618227195739746094e+01 -3.622575283050537109e+00 -9.627976417541503906e-01 9.406829833984375000e+00 2.533209562301635742e+00 1.913717985153198242e-01
1.702000000000000000e+03 1.714617919921875000e+01 -2.572731256484985352e+00 5.624853372573852539e-01 1.139094829559326172e+01 3.586030006408691406e+00 -3.837725400924682617e+00
1.703000000000000000e+03 9.027362823486328125e+00 -4.531315803527832031e+00 2.818590700626373291e-01 2.022886276245117188e-01 1.452443003654479980e-01 -2.556739747524261475e-01
1.704000000000000000e+03 9.623707771301269531e+00 -4.477133750915527344e+00 3.195964097976684570e-01 2.898576855659484863e-01 1.828362345695495605e-01 -1.664674282073974609e-01
1.705000000000000000e+03 1.018234825134277344e+01 -4.441124439239501953e+00 4.271488189697265625e-01 3.856970965862274170e-01 2.438537776470184326e-01 -8.285778015851974487e-02
1.706000000000000000e+03 1.619351768493652344e+01 -5.972399234771728516e+00 2.842195518314838409e-02 5.812567234039306641e+00 1.752296686172485352e+00 -3.599247336387634277e-01
1.707000000000000000e+03 6.596398830413818359e+00 4.387516498565673828e+00 1.375216007232666016e+00 -2.516270875930786133e-01 3.370766639709472656e-01 -4.274750351905822754e-01
1.708000000000000000e+03 5.104610443115234375e+00 5.348791599273681641e+00 7.863478064537048340e-01 1.571033447980880737e-01 2.830353379249572754e-01 -4.352787435054779053e-01
1.709000000000000000e+03 4.294289588928222656e+00 4.670297145843505859e+00 4.446052908897399902e-01 5.548512190580368042e-02 1.500271260738372803e-01 -8.439403772354125977e-02
1.710000000000000000e+03 3.507596969604492188e+00 4.817280292510986328e+00 4.110320806503295898e-01 -4.719948396086692810e-02 1.091497838497161865e-01 -9.344755858182907104e-02
1.711000000000000000e+03 3.701778650283813477e+00 7.230393886566162109e+00 4.324063956737518311e-01 3.372597098350524902e-01 2.308998405933380127e-01 -5.726421475410461426e-01
1.712000000000000000e+03 7.540355205535888672e+00 -4.041676521301269531e+00 1.535972300916910172e-02 3.165791556239128113e-02 1.410529203712940216e-02 -3.922997713088989258e-01
1.713000000000000000e+03 8.408276557922363281e+00 -4.611727237701416016e+00 2.124315947294235229e-01 1.400759965181350708e-01 1.057522743940353394e-01 -2.955790162086486816e-01
1.714000000000000000e+03 7.380420207977294922e+00 4.339012622833251953e+00 1.648547530174255371e+00 1.502741966396570206e-02 4.990724921226501465e-01 -6.616569161415100098e-01
1.715000000000000000e+03 5.832744121551513672e+00 5.300847530364990234e+00 1.097215414047241211e+00 2.094708196818828583e-02 3.354487717151641846e-01 -5.804815888404846191e-01
1.716000000000000000e+03 9.068230628967285156e+00 4.342470645904541016e+00 2.973190069198608398e+00 4.481444656848907471e-01 1.026400327682495117e+00 -1.888431310653686523e+00
1.717000000000000000e+03 7.447489261627197266e+00 5.965619564056396484e+00 1.414172768592834473e+00 7.825552821159362793e-01 6.590183973312377930e-01 -1.494639992713928223e+00
1.718000000000000000e+03 1.075934982299804688e+01 5.010614395141601562e+00 3.214665889739990234e+00 3.594236373901367188e+00 2.042670726776123047e+00 -4.332839488983154297e+00
1.719000000000000000e+03 4.882702827453613281e+00 -6.412350654602050781e+00 1.618423014879226685e-01 -1.446445584297180176e-01 5.159324500709772110e-03 -3.099823594093322754e-01
1.720000000000000000e+03 5.441577434539794922e+00 -4.679911136627197266e+00 5.204794555902481079e-02 -8.773007988929748535e-02 -1.070463936775922775e-02 -4.020074009895324707e-01
1.721000000000000000e+03 5.363307952880859375e+00 -5.840055942535400391e+00 1.715857535600662231e-01 -9.544743597507476807e-02 2.284149453043937683e-02 -3.392179310321807861e-01
1.722000000000000000e+03 6.533195972442626953e+00 -5.147236824035644531e+00 1.689063459634780884e-01 -1.111185364425182343e-02 4.733834788203239441e-02 -3.667130172252655029e-01
1.723000000000000000e+03 6.948598384857177734e+00 -5.844431877136230469e+00 2.633760571479797363e-01 5.978948622941970825e-02 9.694965928792953491e-02 -2.879662811756134033e-01
1.724000000000000000e+03 1.206091403961181641e+01 -3.712898731231689453e+00 5.804460048675537109e-01 7.081008553504943848e-01 3.865640461444854736e-01 3.577741682529449463e-01
1.725000000000000000e+03 1.117390251159667969e+01 -3.883564949035644531e+00 4.109113514423370361e-01 5.068579316139221191e-01 2.753307819366455078e-01 6.461201608180999756e-02
1.726000000000000000e+03 8.949542045593261719e+00 5.821352005004882812e+00 1.853865027427673340e+00 1.521106004714965820e+00 1.012491345405578613e+00 -2.486915588378906250e+00
1.727000000000000000e+03 1.903804016113281250e+01 9.087126255035400391e-01 5.899045467376708984e-01 7.338694930076599121e-01 3.971322178840637207e-01 1.624722957611083984e+00
1.728000000000000000e+03 1.121476364135742188e+01 4.149874687194824219e+00 4.402805805206298828e+00 2.799312114715576172e+00 2.160635471343994141e+00 -4.082882881164550781e+00
1.729000000000000000e+03 1.157027912139892578e+01 5.423437118530273438e+00 8.758876323699951172e-01 5.501153945922851562e+00 1.913112521171569824e+00 -3.419577598571777344e+00
1.730000000000000000e+03 2.552266502380371094e+01 1.529828190803527832e+00 1.247966647148132324e+00 9.565202146768569946e-02 4.030856192111968994e-01 7.815585136413574219e-01
1.731000000000000000e+03 1.559013462066650391e+01 -3.559624433517456055e+00 -5.340682864189147949e-01 8.125550270080566406e+00 2.277444601058959961e+00 1.614724397659301758e+00
1.732000000000000000e+03 4.379307556152343750e+01 1.728429794311523438e+01 4.529883563518524170e-01 2.616827487945556641e+00 9.209447503089904785e-01 1.299232959747314453e+00
1.733000000000000000e+03 3.779875183105468750e+01 -1.295639610290527344e+01 -7.814477384090423584e-02 1.711122512817382812e+00 4.898933470249176025e-01 -2.371056526899337769e-01
1.734000000000000000e+03 4.142629241943359375e+01 1.390441989898681641e+01 4.221516251564025879e-01 2.121861934661865234e+00 7.632040381431579590e-01 9.861872792243957520e-01
1.735000000000000000e+03 1.631193161010742188e+01 -6.730788707733154297e+00 3.115656971931457520e-01 5.312349319458007812e+00 1.687174439430236816e+00 -6.372601389884948730e-01
1.736000000000000000e+03 3.517492294311523438e+01 -8.475049972534179688e+00 4.523845016956329346e-02 1.099798798561096191e+00 3.435111641883850098e-01 -1.404322981834411621e-01
1.737000000000000000e+03 2.026843643188476562e+01 -1.970520210266113281e+01 7.898882776498794556e-02 2.582110643386840820e+00 7.983298301696777344e-01 -6.270135045051574707e-01
1.738000000000000000e+03 1.659768295288085938e+01 -7.701082229614257812e+00 2.150524854660034180e-01 4.816144466400146484e+00 1.509359121322631836e+00 -4.885025918483734131e-01
1.739000000000000000e+03 1.640302467346191406e+01 -8.336636543273925781e+00 4.275204241275787354e-01 4.731541156768798828e+00 1.547718524932861328e+00 -4.018605649471282959e-01
1.740000000000000000e+03 1.950606918334960938e+01 -1.887998962402343750e+01 5.510109290480613708e-02 2.636869907379150391e+00 8.075912594795227051e-01 -5.748715996742248535e-01
1.741000000000000000e+03 2.004442024230957031e+01 -2.256154060363769531e+01 -8.213997818529605865e-03 2.221369743347167969e+00 6.639467477798461914e-01 -4.455404877662658691e-01
1.742000000000000000e+03 1.223749637603759766e+01 1.070702552795410156e+01 -7.483252286911010742e-01 3.164661169052124023e+00 7.249007821083068848e-01 -1.062053799629211426e+00
1.743000000000000000e+03 5.028173828125000000e+01 2.337336540222167969e+01 5.130869746208190918e-01 5.546129703521728516e+00 1.817764997482299805e+00 2.212668418884277344e+00
1.744000000000000000e+03 2.183809471130371094e+01 2.052234077453613281e+01 -6.212205290794372559e-01 1.306139230728149414e-01 -1.471819877624511719e-01 -4.114660918712615967e-01
1.745000000000000000e+03 4.493539428710937500e+01 -2.458950996398925781e+01 -1.705499142408370972e-01 4.540752887725830078e+00 1.311060905456542969e+00 -6.199961900711059570e-01
1.746000000000000000e+03 2.558708000183105469e+01 2.254275894165039062e+01 -6.265397071838378906e-01 -3.440654873847961426e-01 -2.911815643310546875e-01 -5.672698020935058594e-01
1.747000000000000000e+03 4.104140090942382812e+01 -2.053330039978027344e+01 -7.156026363372802734e-02 2.711725950241088867e+00 7.920497059822082520e-01 -5.880388617515563965e-01
1.748000000000000000e+03 3.966175460815429688e+01 -1.814928054809570312e+01 -1.012789905071258545e-01 2.211053848266601562e+00 6.329324841499328613e-01 -4.540314972400665283e-01
1.749000000000000000e+03 2.300258636474609375e+01 -2.255796241760253906e+01 1.713540405035018921e-01 2.209468841552734375e+00 7.142468690872192383e-01 -7.050847411155700684e-01
1.750000000000000000e+03 4.173421096801757812e+01 -2.170492172241210938e+01 -4.839933291077613831e-02 3.001982450485229492e+00 8.860749602317810059e-01 -6.589998602867126465e-01
1.751000000000000000e+03 4.215217208862304688e+01 -1.984024810791015625e+01 -1.432942003011703491e-01 3.103490591049194336e+00 8.880589008331298828e-01 -5.253075957298278809e-01
1.752000000000000000e+03 4.353907394409179688e+01 -2.215234756469726562e+01 -1.612438261508941650e-01 3.728934288024902344e+00 1.070307135581970215e+00 -6.052296757698059082e-01
1.753000000000000000e+03 4.642613983154296875e+01 1.748058700561523438e+01 3.067280650138854980e-01 3.676189184188842773e+00 1.194875240325927734e+00 1.484399080276489258e+00
1.754000000000000000e+03 4.518466567993164062e+01 1.990581703186035156e+01 5.969277024269104004e-01 2.966983318328857422e+00 1.069173336029052734e+00 1.541337370872497559e+00
1.755000000000000000e+03 2.232360076904296875e+01 -2.370733642578125000e+01 9.391223639249801636e-02 2.117044925689697266e+00 6.632871031761169434e-01 -5.864890217781066895e-01
1.756000000000000000e+03 1.638010978698730469e+01 -9.332427024841308594e+00 5.284519791603088379e-01 4.235809326171875000e+00 1.429278373718261719e+00 -3.808593451976776123e-01
1.757000000000000000e+03 1.094340515136718750e+01 6.290547370910644531e+00 1.275322556495666504e+00 3.869305372238159180e+00 1.543388366699218750e+00 -3.100940227508544922e+00
1.758000000000000000e+03 3.748364257812500000e+01 -1.471901035308837891e+01 -6.636416912078857422e-02 1.571709990501403809e+00 4.516037404537200928e-01 -2.708216011524200439e-01
1.759000000000000000e+03 3.857470321655273438e+01 -1.400920391082763672e+01 -1.663705855607986450e-01 1.938673138618469238e+00 5.316907763481140137e-01 -2.840425968170166016e-01
1.760000000000000000e+03 4.282693099975585938e+01 -2.101179885864257812e+01 -1.699475497007369995e-01 3.404802799224853516e+00 9.704566001892089844e-01 -5.680970549583435059e-01
1.761000000000000000e+03 7.525705718994140625e+01 3.308561706542968750e+01 2.190990000963211060e-01 6.791300773620605469e+00 2.103119850158691406e+00 -4.132415950298309326e-01
1.762000000000000000e+03 7.314604187011718750e+01 -3.216537094116210938e+01 6.805822998285293579e-02 7.450545310974121094e+00 2.255581140518188477e+00 2.508591413497924805e-01
1.763000000000000000e+03 3.936320495605468750e+01 -1.507815837860107422e+01 -1.241975575685501099e-01 2.143799066543579102e+00 6.058804988861083984e-01 -3.265911638736724854e-01
1.764000000000000000e+03 7.544219207763671875e+01 -2.656500053405761719e+01 8.909838274121284485e-03 7.764173030853271484e+00 2.331924915313720703e+00 2.478293180465698242e-01
1.765000000000000000e+03 7.409029388427734375e+01 -2.895565605163574219e+01 3.394697234034538269e-02 7.574951648712158203e+00 2.282669544219970703e+00 2.843122184276580811e-01
1.766000000000000000e+03 7.399110412597656250e+01 2.253803062438964844e+01 -8.881446719169616699e-02 7.654172420501708984e+00 2.269607543945312500e+00 -6.957523822784423828e-01
1.767000000000000000e+03 7.553530120849609375e+01 2.504352188110351562e+01 6.092546880245208740e-02 7.270312309265136719e+00 2.199371337890625000e+00 -5.826101303100585938e-01
1.768000000000000000e+03 2.533860588073730469e+01 -2.416401863098144531e+01 2.513316273689270020e-01 1.978232979774475098e+00 6.688693761825561523e-01 -7.584978342056274414e-01
1.769000000000000000e+03 7.416382598876953125e+01 1.949128150939941406e+01 -1.198920011520385742e-01 7.811959266662597656e+00 2.307620048522949219e+00 -6.322144269943237305e-01
1.770000000000000000e+03 7.403843688964843750e+01 -2.393947982788085938e+01 9.775401558727025986e-04 7.756508827209472656e+00 2.327245950698852539e+00 3.100812435150146484e-01
1.771000000000000000e+03 1.738124847412109375e+01 1.316848945617675781e+01 -7.025940418243408203e-01 1.228756070137023926e+00 1.578486114740371704e-01 -1.758188605308532715e-01
1.772000000000000000e+03 1.443728923797607422e+01 1.122544384002685547e+01 -8.579242825508117676e-01 2.504517793655395508e+00 4.939780533313751221e-01 -3.251599669456481934e-01
1.773000000000000000e+03 7.390480041503906250e+01 -2.111841011047363281e+01 -1.765022240579128265e-02 7.865240097045898438e+00 2.354276895523071289e+00 3.033602535724639893e-01
1.774000000000000000e+03 7.549210357666015625e+01 1.245527553558349609e+01 -9.384573996067047119e-02 8.190190315246582031e+00 2.428903341293334961e+00 -3.554989695549011230e-01
1.775000000000000000e+03 7.420476531982421875e+01 1.527722740173339844e+01 -8.187809586524963379e-02 8.013364791870117188e+00 2.379446029663085938e+00 -4.881687462329864502e-01
1.776000000000000000e+03 7.431665039062500000e+01 2.509147834777832031e+01 -2.419329993426799774e-02 7.432358264923095703e+00 2.222449541091918945e+00 -6.644666790962219238e-01
1.777000000000000000e+03 7.554048156738281250e+01 2.636874771118164062e+01 -3.538112714886665344e-02 7.183833122253417969e+00 2.144535541534423828e+00 -5.752243995666503906e-01
1.778000000000000000e+03 7.424903106689453125e+01 -1.675779724121093750e+01 -4.213197156786918640e-02 8.039917945861816406e+00 2.399335622787475586e+00 2.558979094028472900e-01
1.779000000000000000e+03 7.434460449218750000e+01 -1.402614784240722656e+01 -4.913853853940963745e-02 8.135643959045410156e+00 2.425951480865478516e+00 2.161341607570648193e-01
1.780000000000000000e+03 7.414806365966796875e+01 5.570967197418212891e+00 -1.102616414427757263e-01 8.286130905151367188e+00 2.452760934829711914e+00 -1.894787997007369995e-01
1.781000000000000000e+03 7.425695800781250000e+01 -9.933197975158691406e+00 -4.528363421559333801e-02 8.228349685668945312e+00 2.454919815063476562e+00 1.516909450292587280e-01
1.782000000000000000e+03 7.410861968994140625e+01 -9.938329458236694336e-02 -8.918781578540802002e-02 8.318222999572753906e+00 2.468710422515869141e+00 -4.167823493480682373e-02
1.783000000000000000e+03 7.546564483642578125e+01 2.710678100585937500e+00 -4.591110721230506897e-02 8.475084304809570312e+00 2.528752088546752930e+00 -9.581942856311798096e-02
1.784000000000000000e+03 7.411074066162109375e+01 2.738984346389770508e+00 -9.975734353065490723e-02 8.307536125183105469e+00 2.462333440780639648e+00 -1.123463585972785950e-01
1.785000000000000000e+03 7.417893218994140625e+01 1.109403228759765625e+01 -1.315154135227203369e-01 8.170347213745117188e+00 2.411649465560913086e+00 -3.642026782035827637e-01
1.786000000000000000e+03 7.409716033935546875e+01 -2.919724941253662109e+00 -7.526288926601409912e-02 8.303475379943847656e+00 2.468463659286499023e+00 2.486612275242805481e-02
1.787000000000000000e+03 7.397065734863281250e+01 -4.316675186157226562e+00 -6.508211791515350342e-02 8.271214485168457031e+00 2.461839675903320312e+00 5.182525515556335449e-02
1.788000000000000000e+03 7.429956054687500000e+01 -1.129337215423583984e+01 -5.739974975585937500e-02 8.205667495727539062e+00 2.444480180740356445e+00 1.724468916654586792e-01
1.789000000000000000e+03 7.409056854248046875e+01 -1.818898010253906250e+01 -3.169046342372894287e-02 7.969611644744873047e+00 2.381376266479492188e+00 2.758115530014038086e-01
1.790000000000000000e+03 7.420137023925781250e+01 1.666669082641601562e+01 -1.301355361938476562e-01 7.953501701354980469e+00 2.347009897232055664e+00 -5.513427853584289551e-01
1.791000000000000000e+03 7.414083862304687500e+01 6.957595348358154297e+00 -8.774719387292861938e-02 8.263606071472167969e+00 2.452757596969604492e+00 -2.251940369606018066e-01
1.792000000000000000e+03 7.421460723876953125e+01 -2.788650321960449219e+01 1.909605599939823151e-02 7.635025978088378906e+00 2.296236515045166016e+00 2.921869158744812012e-01
1.793000000000000000e+03 7.388669586181640625e+01 -7.206480979919433594e+00 -6.508581340312957764e-02 8.221886634826660156e+00 2.447040081024169922e+00 1.117740795016288757e-01
1.794000000000000000e+03 7.429982757568359375e+01 2.895208740234375000e+01 1.821587532758712769e-01 7.189394474029541016e+00 2.211465835571289062e+00 -6.031398773193359375e-01
1.795000000000000000e+03 7.420128631591796875e+01 1.389103984832763672e+01 -1.343758702278137207e-01 8.074947357177734375e+00 2.382171392440795898e+00 -4.586776793003082275e-01
1.796000000000000000e+03 7.419253540039062500e+01 1.249898052215576172e+01 -9.171559661626815796e-02 8.121730804443359375e+00 2.409004449844360352e+00 -3.994379043579101562e-01
1.797000000000000000e+03 4.433935546875000000e+01 -2.329220581054687500e+01 -1.827877312898635864e-01 4.171694278717041016e+00 1.196671962738037109e+00 -5.941033959388732910e-01
1.798000000000000000e+03 7.522836303710937500e+01 3.454096984863281250e+01 1.030713915824890137e-01 6.731652736663818359e+00 2.050417184829711914e+00 -2.982041537761688232e-01
1.799000000000000000e+03 6.754576110839843750e+01 3.062802314758300781e+01 5.199060440063476562e-01 8.498803138732910156e+00 2.705612897872924805e+00 -5.721402168273925781e-01
1.800000000000000000e+03 7.409829711914062500e+01 2.096969795227050781e+01 -1.802954450249671936e-02 7.722947597503662109e+00 2.311475515365600586e+00 -6.427597403526306152e-01
1.801000000000000000e+03 7.393978118896484375e+01 -3.003874778747558594e+01 4.177431017160415649e-02 7.534706592559814453e+00 2.272944211959838867e+00 2.747080922126770020e-01
1.802000000000000000e+03 7.206350708007812500e+01 -3.310111236572265625e+01 1.048336029052734375e-01 7.345838546752929688e+00 2.235201597213745117e+00 2.734394371509552002e-01
1.803000000000000000e+03 1.987091827392578125e+01 1.873277664184570312e+01 -6.720281839370727539e-01 4.328926503658294678e-01 -7.174064964056015015e-02 -3.603779077529907227e-01
1.804000000000000000e+03 2.076270675659179688e+01 1.748430061340332031e+01 -6.800187826156616211e-01 3.353956043720245361e-01 -1.033869534730911255e-01 -3.949367105960845947e-01
1.805000000000000000e+03 3.915510940551757812e+01 1.202141094207763672e+01 4.587086141109466553e-01 1.618060946464538574e+00 6.230308413505554199e-01 7.857552766799926758e-01
1.806000000000000000e+03 7.093303680419921875e+00 3.116294670104980469e+01 -9.338796883821487427e-02 2.445294857025146484e+00 7.055720686912536621e-01 -1.679617017507553101e-01
1.807000000000000000e+03 4.989938735961914062e+00 2.802946090698242188e+01 -8.018107712268829346e-02 2.732221603393554688e+00 7.956121563911437988e-01 -2.193622142076492310e-01
1.808000000000000000e+03 5.177282810211181641e+00 -1.166239833831787109e+01 2.041641026735305786e-01 5.361836031079292297e-02 7.733473926782608032e-02 6.142565980553627014e-02
1.809000000000000000e+03 6.288397312164306641e+00 -1.070128726959228516e+01 3.064106702804565430e-01 2.419488430023193359e-01 1.645078510046005249e-01 5.148572847247123718e-02
1.810000000000000000e+03 4.869348526000976562e+00 -2.613516235351562500e+01 -3.817638009786605835e-02 4.055773317813873291e-01 1.102202832698822021e-01 2.038227766752243042e-01
1.811000000000000000e+03 5.895837783813476562e+00 -2.199097442626953125e+01 -3.098483569920063019e-02 4.925923347473144531e-01 1.384822428226470947e-01 2.656284570693969727e-01
1.812000000000000000e+03 7.327385711669921875e+01 -3.427637100219726562e+01 9.057784825563430786e-02 7.382927894592285156e+00 2.242051601409912109e+00 2.240875810384750366e-01
1.813000000000000000e+03 5.778834819793701172e+00 2.457847404479980469e+01 -1.574769020080566406e-01 2.500371456146240234e+00 7.028683423995971680e-01 -3.426634669303894043e-01
1.814000000000000000e+03 5.397963047027587891e+00 -1.552269077301025391e+01 1.003570407629013062e-01 2.504115104675292969e-01 1.052305623888969421e-01 2.371813654899597168e-01
1.815000000000000000e+03 5.456089019775390625e+00 -1.811795997619628906e+01 4.880025237798690796e-02 3.332716524600982666e-01 1.146215721964836121e-01 2.836008965969085693e-01
1.816000000000000000e+03 4.310280323028564453e+00 -1.936986160278320312e+01 1.275231596082448959e-02 1.397851854562759399e-01 4.576124995946884155e-02 2.510768175125122070e-01
1.817000000000000000e+03 5.383621692657470703e+00 1.620231246948242188e+01 -2.699172496795654297e-01 2.085464239120483398e+00 5.446640849113464355e-01 -8.329284787178039551e-01
1.818000000000000000e+03 5.543405532836914062e+00 1.758099365234375000e+01 -2.558860182762145996e-01 2.224885463714599609e+00 5.906997919082641602e-01 -7.863628268241882324e-01
1.819000000000000000e+03 4.375505447387695312e+00 2.074413681030273438e+01 -1.466464549303054810e-01 2.444285869598388672e+00 6.892918348312377930e-01 -4.550077021121978760e-01
1.820000000000000000e+03 4.083641052246093750e+00 1.522812938690185547e+01 -1.520057469606399536e-01 1.907320857048034668e+00 5.265945196151733398e-01 -7.737994790077209473e-01
1.821000000000000000e+03 6.018307209014892578e+00 2.606260681152343750e+01 -1.321476399898529053e-01 2.531453132629394531e+00 7.197916507720947266e-01 -3.123640120029449463e-01
1.822000000000000000e+03 6.220007896423339844e+00 -2.607575225830078125e+01 -5.251089110970497131e-02 6.143721938133239746e-01 1.685583889484405518e-01 2.315841615200042725e-01
1.823000000000000000e+03 4.047696590423583984e+00 -1.273392772674560547e+01 1.180578097701072693e-01 -1.501510441303253174e-01 -9.627969935536384583e-03 8.279706537723541260e-02
1.824000000000000000e+03 5.251739501953125000e+00 -1.290108299255371094e+01 1.741262972354888916e-01 1.216921433806419373e-01 8.874553442001342773e-02 1.363306939601898193e-01
1.825000000000000000e+03 5.153966903686523438e+00 1.358910942077636719e+01 -1.854025721549987793e-01 1.805571913719177246e+00 4.860507845878601074e-01 -9.964967370033264160e-01
1.826000000000000000e+03 5.254873752593994141e+00 1.487039947509765625e+01 -2.140098214149475098e-01 2.003396511077880859e+00 5.368160009384155273e-01 -9.974185228347778320e-01
1.827000000000000000e+03 5.644511699676513672e+00 2.180246162414550781e+01 -2.079780548810958862e-01 2.409876823425292969e+00 6.605696082115173340e-01 -4.646880924701690674e-01
1.828000000000000000e+03 5.662992000579833984e+00 1.898693847656250000e+01 -2.530468106269836426e-01 2.263745784759521484e+00 6.032096743583679199e-01 -6.374176144599914551e-01
1.829000000000000000e+03 5.676343441009521484e+00 2.040255928039550781e+01 -2.170371264219284058e-01 2.353744029998779297e+00 6.410120725631713867e-01 -6.020544171333312988e-01
1.830000000000000000e+03 4.552530765533447266e+00 3.440267562866210938e+01 -4.641555622220039368e-02 2.918573379516601562e+00 8.616473674774169922e-01 -9.785865992307662964e-02
1.831000000000000000e+03 1.319826030731201172e+01 -3.034034729003906250e+01 -1.441729366779327393e-01 1.322274565696716309e+00 3.534304797649383545e-01 8.680933713912963867e-02
1.832000000000000000e+03 4.249253749847412109e+00 -3.456478118896484375e+01 -2.391110174357891083e-02 5.151584148406982422e-01 1.473741978406906128e-01 8.555220812559127808e-02
1.833000000000000000e+03 7.484256267547607422e+00 -3.305831909179687500e+01 -7.091756165027618408e-02 7.610806822776794434e-01 2.070489227771759033e-01 1.362099647521972656e-01
1.834000000000000000e+03 5.706447124481201172e+00 -2.066029930114746094e+01 -1.438041310757398605e-02 4.427168667316436768e-01 1.285009384155273438e-01 2.771847844123840332e-01
1.835000000000000000e+03 6.353835105895996094e+00 2.763476562500000000e+01 -1.215992420911788940e-01 2.500510931015014648e+00 7.136734724044799805e-01 -2.503195703029632568e-01
1.836000000000000000e+03 6.257905960083007812e+00 -2.738488960266113281e+01 -5.915420502424240112e-02 6.176030635833740234e-01 1.675346642732620239e-01 2.132132798433303833e-01
1.837000000000000000e+03 8.670609474182128906e+00 8.615642547607421875e+00 4.257839620113372803e-01 2.312589406967163086e+00 8.215120434761047363e-01 -2.116858959197998047e+00
1.838000000000000000e+03 2.371250152587890625e+01 2.049051475524902344e+01 -6.470462083816528320e-01 -1.979768872261047363e-01 -2.535069286823272705e-01 -4.898775219917297363e-01
1.839000000000000000e+03 3.830683231353759766e+00 9.942378997802734375e+00 1.577443182468414307e-01 9.734309315681457520e-01 3.393525779247283936e-01 -8.802631497383117676e-01
1.840000000000000000e+03 4.958349704742431641e+00 9.749112129211425781e+00 1.963448524475097656e-01 1.254142403602600098e+00 4.351461827754974365e-01 -1.196020483970642090e+00
1.841000000000000000e+03 7.238938140869140625e+01 3.252179336547851562e+01 3.685344755649566650e-01 7.473978519439697266e+00 2.352753877639770508e+00 -4.971273839473724365e-01
1.842000000000000000e+03 7.020112609863281250e+01 3.338500595092773438e+01 5.343457460403442383e-01 7.962098598480224609e+00 2.548933267593383789e+00 -4.011434018611907959e-01
1.843000000000000000e+03 4.500462532043457031e+00 -7.148146152496337891e+00 1.755042672157287598e-01 -1.711020618677139282e-01 1.320661744102835655e-03 -2.617261409759521484e-01
1.844000000000000000e+03 4.057338237762451172e+00 -9.080466270446777344e+00 1.736659854650497437e-01 -2.201909720897674561e-01 -1.395749859511852264e-02 -1.362888514995574951e-01
1.845000000000000000e+03 4.839435577392578125e+00 8.455672264099121094e+00 4.290584027767181396e-01 7.922264337539672852e-01 3.663854598999023438e-01 -9.783461093902587891e-01
1.846000000000000000e+03 5.329545497894287109e+00 -1.419647979736328125e+01 1.325267851352691650e-01 1.780180633068084717e-01 9.316345304250717163e-02 1.853776574134826660e-01
1.847000000000000000e+03 4.221376895904541016e+00 -8.036581993103027344e+00 1.799696981906890869e-01 -2.193109393119812012e-01 -1.180237252265214920e-02 -2.054473757743835449e-01
1.848000000000000000e+03 2.872381591796875000e+01 -1.539389014244079590e+00 1.153471469879150391e+00 -9.157261997461318970e-02 3.185696601867675781e-01 6.271776556968688965e-02
1.849000000000000000e+03 1.285334682464599609e+01 1.218323326110839844e+01 -8.287178277969360352e-01 2.646722316741943359e+00 5.454013347625732422e-01 -7.491487860679626465e-01
1.850000000000000000e+03 5.242622852325439453e+00 -8.449297904968261719e+00 2.564583420753479004e-01 -4.016004502773284912e-02 6.488949060440063477e-02 -1.538072526454925537e-01
1.851000000000000000e+03 5.427021980285644531e+00 -7.633971691131591797e+00 2.594760358333587646e-01 -5.969183519482612610e-02 5.993525683879852295e-02 -2.121207863092422485e-01
1.852000000000000000e+03 5.029201030731201172e+00 3.549521636962890625e+01 -6.687530130147933960e-02 2.918635368347167969e+00 8.555279970169067383e-01 -1.189684793353080750e-01
1.853000000000000000e+03 5.219396972656250000e+01 2.196877861022949219e+01 -6.576207233592867851e-04 6.510938167572021484e+00 1.953084230422973633e+00 1.765614748001098633e+00
1.854000000000000000e+03 3.807220840454101562e+01 1.105746364593505859e+01 4.784275293350219727e-01 1.412483453750610352e+00 5.672733187675476074e-01 7.005761265754699707e-01
1.855000000000000000e+03 3.595932006835937500e+01 9.096238136291503906e+00 5.605441927909851074e-01 1.062763929367065430e+00 4.869924485683441162e-01 5.713133811950683594e-01
1.856000000000000000e+03 3.417467880249023438e+01 9.096491813659667969e+00 5.712940096855163574e-01 7.595366835594177246e-01 3.992491960525512695e-01 5.101491212844848633e-01
1.857000000000000000e+03 1.488818550109863281e+01 1.293881130218505859e+01 -8.946188092231750488e-01 2.037678003311157227e+00 3.429177999496459961e-01 -3.555962443351745605e-01
1.858000000000000000e+03 1.389050674438476562e+01 1.252059268951416016e+01 -9.665573835372924805e-01 2.488884687423706055e+00 4.566982090473175049e-01 -5.038495659828186035e-01
1.859000000000000000e+03 2.357379531860351562e+01 2.274518203735351562e+01 -5.850285291671752930e-01 -7.082958519458770752e-02 -1.967574208974838257e-01 -4.680345058441162109e-01
1.860000000000000000e+03 2.267382240295410156e+01 2.165610885620117188e+01 -6.250256896018981934e-01 1.011679768562316895e-01 -1.571573168039321899e-01 -4.561703205108642578e-01
1.861000000000000000e+03 3.707493209838867188e+01 -1.187860488891601562e+01 -1.346153169870376587e-01 1.531035900115966797e+00 4.189261794090270996e-01 -2.113938629627227783e-01
1.862000000000000000e+03 2.906691360473632812e+01 -1.194860115647315979e-01 9.174867868423461914e-01 1.519533433020114899e-02 2.798046171665191650e-01 2.050149589776992798e-01
1.863000000000000000e+03 5.463270568847656250e+01 2.362457466125488281e+01 -1.347184777259826660e-01 7.897327899932861328e+00 2.328782796859741211e+00 1.444860219955444336e+00
1.864000000000000000e+03 3.149742889404296875e+01 -8.769393563270568848e-01 7.446796894073486328e-01 3.223884701728820801e-01 3.201204538345336914e-01 2.286891825497150421e-02
1.865000000000000000e+03 3.164986610412597656e+01 5.283847808837890625e+00 7.918693423271179199e-01 5.119909048080444336e-01 3.911580741405487061e-01 3.933298587799072266e-01
1.866000000000000000e+03 3.641117095947265625e+01 -1.076995182037353516e+01 -4.107248410582542419e-02 1.365453720092773438e+00 3.973143696784973145e-01 -1.777454912662506104e-01
1.867000000000000000e+03 2.989560127258300781e+01 5.199725627899169922e+00 8.034030199050903320e-01 3.659681379795074463e-01 3.508113622665405273e-01 4.197293221950531006e-01
1.868000000000000000e+03 3.272641754150390625e+01 6.232639312744140625e+00 7.226330637931823730e-01 6.158816814422607422e-01 4.015544354915618896e-01 4.667756259441375732e-01
1.869000000000000000e+03 2.857793235778808594e+01 2.143791913986206055e+00 1.030634403228759766e+00 8.050594478845596313e-02 3.333421051502227783e-01 5.049775242805480957e-01
1.870000000000000000e+03 2.958981513977050781e+01 3.256434202194213867e+00 9.407175779342651367e-01 3.053751885890960693e-01 3.738278448581695557e-01 3.765365779399871826e-01
1.871000000000000000e+03 3.483584594726562500e+01 3.387836837768554688e+01 -8.505320549011230469e-01 -6.454160809516906738e-01 -4.487844407558441162e-01 -5.687415003776550293e-01
1.872000000000000000e+03 3.084780693054199219e+01 2.936966133117675781e+01 -6.980620026588439941e-01 -5.380820631980895996e-01 -3.708432316780090332e-01 -6.177293658256530762e-01
1.873000000000000000e+03 2.897047996520996094e+01 2.739112281799316406e+01 -5.903589725494384766e-01 -4.077613651752471924e-01 -2.994360923767089844e-01 -6.023567318916320801e-01
1.874000000000000000e+03 1.583859729766845703e+01 1.342476749420166016e+01 -8.290866017341613770e-01 1.778347611427307129e+00 2.847783267498016357e-01 -2.257811725139617920e-01
1.875000000000000000e+03 1.966880226135253906e+01 1.654251670837402344e+01 -7.080284357070922852e-01 4.165197014808654785e-01 -8.745262771844863892e-02 -3.151458799839019775e-01
1.876000000000000000e+03 4.882278823852539062e+01 2.101930046081542969e+01 3.947899639606475830e-01 4.647574901580810547e+00 1.512709379196166992e+00 1.876493334770202637e+00
1.877000000000000000e+03 4.950841140747070312e+01 2.228073120117187500e+01 4.798651635646820068e-01 5.106056690216064453e+00 1.675776600837707520e+00 2.064917802810668945e+00
1.878000000000000000e+03 1.794996070861816406e+01 -1.511577320098876953e+01 1.713774204254150391e-01 3.163608551025390625e+00 1.000495791435241699e+00 -4.504888951778411865e-01
1.879000000000000000e+03 1.595554256439208984e+01 -1.709613037109375000e+01 3.302053362131118774e-02 2.549245119094848633e+00 7.746797204017639160e-01 -1.059811040759086609e-01
1.880000000000000000e+03 5.585193252563476562e+01 2.780044937133789062e+01 5.168104171752929688e-01 9.735899925231933594e+00 3.075813055038452148e+00 1.485564827919006348e+00
1.881000000000000000e+03 2.367673492431640625e+01 -2.975502967834472656e+01 4.006095603108406067e-02 1.733278512954711914e+00 5.320018529891967773e-01 -3.903326690196990967e-01
1.882000000000000000e+03 2.623511314392089844e+01 -2.809187889099121094e+01 2.084945291280746460e-01 1.734339475631713867e+00 5.828501582145690918e-01 -5.826984047889709473e-01
1.883000000000000000e+03 5.198431015014648438e+01 2.537111091613769531e+01 5.319336652755737305e-01 6.960779190063476562e+00 2.247813701629638672e+00 2.382206916809082031e+00
1.884000000000000000e+03 5.639545440673828125e+01 2.672951126098632812e+01 -8.938873559236526489e-02 9.668572425842285156e+00 2.873754978179931641e+00 1.101412057876586914e+00
1.885000000000000000e+03 5.676046371459960938e+01 2.792879295349121094e+01 4.142886102199554443e-01 1.018323707580566406e+01 3.179257869720458984e+00 1.072348833084106445e+00
1.886000000000000000e+03 1.597626876831054688e+01 -1.374255275726318359e+01 2.728295922279357910e-01 3.085710525512695312e+00 1.007562041282653809e+00 -1.024315506219863892e-01
1.887000000000000000e+03 1.702733230590820312e+01 -1.159228801727294922e+01 4.054830968379974365e-01 3.895933866500854492e+00 1.290425062179565430e+00 -3.092255294322967529e-01
1.888000000000000000e+03 3.458876419067382812e+01 -7.292975425720214844e+00 4.146243259310722351e-02 9.805998206138610840e-01 3.066186606884002686e-01 -1.153931468725204468e-01
1.889000000000000000e+03 3.407040405273437500e+01 -6.099874496459960938e+00 2.104191929101943970e-01 8.704378604888916016e-01 3.242571353912353516e-01 -1.204649284482002258e-01
1.890000000000000000e+03 2.905306434631347656e+01 3.267755889892578125e+01 -6.445320844650268555e-01 -2.818475961685180664e-01 -2.779138982295989990e-01 -4.480816423892974854e-01
1.891000000000000000e+03 3.381472778320312500e+01 7.176226615905761719e+00 6.674949526786804199e-01 7.622022032737731934e-01 4.289091527462005615e-01 4.681483209133148193e-01
1.892000000000000000e+03 5.759920501708984375e+01 2.954441452026367188e+01 8.403143286705017090e-01 1.117979812622070312e+01 3.606033802032470703e+00 8.740227222442626953e-01
1.893000000000000000e+03 5.998444747924804688e+01 3.457863235473632812e+01 2.062395572662353516e+00 1.120078945159912109e+01 3.978955507278442383e+00 1.151559948921203613e+00
1.894000000000000000e+03 6.172093582153320312e+01 3.664319992065429688e+01 9.644608497619628906e-01 1.093611240386962891e+01 3.570171833038330078e+00 6.139269471168518066e-01
1.895000000000000000e+03 1.334591293334960938e+01 1.090029048919677734e+01 -1.077895760536193848e+00 3.038460969924926758e+00 5.881696343421936035e-01 -5.871049761772155762e-01
1.896000000000000000e+03 7.205928039550781250e+01 4.108551406860351562e+01 2.021183222532272339e-01 7.583702564239501953e+00 2.335746288299560547e+00 -1.498611718416213989e-01
1.897000000000000000e+03 1.661947822570800781e+01 -1.266944217681884766e+01 2.240487337112426758e-01 3.470177173614501953e+00 1.108267784118652344e+00 -2.754648029804229736e-01
1.898000000000000000e+03 2.359694862365722656e+01 -2.803243064880371094e+01 6.577508151531219482e-02 1.846969723701477051e+00 5.738234519958496094e-01 -4.485202431678771973e-01
1.899000000000000000e+03 4.222667312622070312e+01 3.752449417114257812e+01 -1.680575132369995117e+00 -6.644350290298461914e-01 -7.035030722618103027e-01 -6.134033799171447754e-01
1.900000000000000000e+03 1.536420917510986328e+01 -5.049139976501464844e+00 -3.279302120208740234e-01 5.899127483367919922e+00 1.671359181404113770e+00 6.150594949722290039e-01
1.901000000000000000e+03 1.229730701446533203e+01 -3.454150438308715820e+00 6.246249079704284668e-01 7.903180718421936035e-01 4.244829118251800537e-01 4.474741816520690918e-01
1.902000000000000000e+03 1.280017280578613281e+01 -3.705612897872924805e+00 8.427804708480834961e-01 1.347556114196777344e+00 6.571009755134582520e-01 8.162474632263183594e-01
1.903000000000000000e+03 1.628614234924316406e+01 -4.041944980621337891e+00 -1.253160357475280762e+00 8.665758132934570312e+00 2.223779201507568359e+00 -5.269839614629745483e-02
1.904000000000000000e+03 1.681863021850585938e+01 -3.988008260726928711e+00 -1.007964015007019043e+00 9.032338142395019531e+00 2.407312393188476562e+00 -1.254676222801208496e+00
1.905000000000000000e+03 1.613097000122070312e+01 -4.565093517303466797e+00 -9.221691489219665527e-01 7.484587192535400391e+00 1.968725323677062988e+00 -8.500125259160995483e-02
1.906000000000000000e+03 1.197534656524658203e+01 -4.034790039062500000e+00 6.348078250885009766e-01 8.623319268226623535e-01 4.491419494152069092e-01 4.146022200584411621e-01
1.907000000000000000e+03 9.746654510498046875e+00 -5.141345024108886719e+00 5.015037059783935547e-01 4.197500348091125488e-01 2.763761281967163086e-01 -7.022908329963684082e-02
1.908000000000000000e+03 1.317645835876464844e+01 -3.718436479568481445e+00 8.112815022468566895e-01 1.788532018661499023e+00 7.799440622329711914e-01 1.171169877052307129e+00
1.909000000000000000e+03 1.251586532592773438e+01 -3.816465854644775391e+00 7.357463240623474121e-01 1.052053809165954590e+00 5.363400578498840332e-01 6.089322566986083984e-01
1.910000000000000000e+03 8.603907585144042969e+00 -5.282210350036621094e+00 3.768404126167297363e-01 2.348289936780929565e-01 1.835008263587951660e-01 -2.170028984546661377e-01
1.911000000000000000e+03 9.183132171630859375e+00 -5.209900856018066406e+00 4.099382162094116211e-01 3.202333450317382812e-01 2.190514653921127319e-01 -1.347750723361968994e-01
1.912000000000000000e+03 6.573975086212158203e+00 6.954265594482421875e+00 1.042867302894592285e+00 9.137494564056396484e-01 5.869849920272827148e-01 -1.448126792907714844e+00
1.913000000000000000e+03 6.605823516845703125e+00 5.239759445190429688e+00 1.284940004348754883e+00 2.756500542163848877e-01 4.681770205497741699e-01 -8.456663489341735840e-01
1.914000000000000000e+03 6.641594886779785156e+00 6.114371776580810547e+00 1.268549561500549316e+00 3.779073655605316162e-01 4.939370751380920410e-01 -1.152337312698364258e+00
1.915000000000000000e+03 1.116844654083251953e+01 -4.410742282867431641e+00 5.784677267074584961e-01 6.608732938766479492e-01 3.718023002147674561e-01 1.683388352394104004e-01
1.916000000000000000e+03 1.069691562652587891e+01 -4.419717788696289062e+00 4.576903581619262695e-01 5.202626585960388184e-01 2.933858931064605713e-01 3.291124477982521057e-02
1.917000000000000000e+03 7.386363506317138672e+00 5.158291339874267578e+00 1.771384954452514648e+00 3.155255317687988281e-02 5.408812761306762695e-01 -1.070446729660034180e+00
1.918000000000000000e+03 5.972449779510498047e+00 -6.421127796173095703e+00 2.361059188842773438e-01 -2.936346828937530518e-02 6.202273443341255188e-02 -2.868858575820922852e-01
1.919000000000000000e+03 1.851225471496582031e+01 -2.679471492767333984e+00 8.939157128334045410e-01 4.409508228302001953e+00 1.591027140617370605e+00 -1.835294008255004883e+00
1.920000000000000000e+03 1.656717681884765625e+01 -7.118403911590576172e+00 2.997428774833679199e-01 5.136575222015380859e+00 1.630895495414733887e+00 -6.000006198883056641e-01
1.921000000000000000e+03 1.589369678497314453e+01 -8.800506591796875000e+00 3.745131790637969971e-01 4.166519641876220703e+00 1.362309813499450684e+00 -1.471324414014816284e-01
1.922000000000000000e+03 7.148555755615234375e+00 -4.911058902740478516e+00 1.624882072210311890e-01 3.439222648739814758e-02 5.906413123011589050e-02 -3.536091446876525879e-01
1.923000000000000000e+03 5.929565429687500000e+00 -5.440510272979736328e+00 1.490128636360168457e-01 -5.411027744412422180e-02 2.847077511250972748e-02 -3.537580966949462891e-01
1.924000000000000000e+03 7.778553962707519531e+00 -4.733156681060791016e+00 1.974462717771530151e-01 8.495278656482696533e-02 8.471971750259399414e-02 -3.414288759231567383e-01
1.925000000000000000e+03 6.410571098327636719e+00 -6.099716663360595703e+00 2.694767415523529053e-01 1.635899394750595093e-02 8.575072139501571655e-02 -2.994179427623748779e-01
1.926000000000000000e+03 1.018000125885009766e+01 5.875583171844482422e+00 1.492116808891296387e+00 2.774202108383178711e+00 1.279895663261413574e+00 -3.014632701873779297e+00
1.927000000000000000e+03 1.161718750000000000e+01 6.731846332550048828e+00 1.146514490246772766e-01 5.098514556884765625e+00 1.563949823379516602e+00 -2.510159730911254883e+00
1.928000000000000000e+03 1.564754104614257812e+01 -9.961800575256347656e+00 3.536710143089294434e-01 3.631651401519775391e+00 1.195596694946289062e+00 -4.586334154009819031e-02
1.929000000000000000e+03 1.526084518432617188e+01 -4.590158462524414062e+00 -5.713422298431396484e-01 6.102298259735107422e+00 1.659286856651306152e+00 9.509150981903076172e-01
1.930000000000000000e+03 1.590783214569091797e+01 -5.159514904022216797e+00 -7.076671123504638672e-01 6.705831527709960938e+00 1.799449324607849121e+00 1.007333844900131226e-01
1.931000000000000000e+03 9.554018020629882812e+00 5.350373268127441406e+00 2.598996639251708984e+00 1.684778332710266113e+00 1.285132408142089844e+00 -2.926255941390991211e+00
1.932000000000000000e+03 1.541802406311035156e+01 -6.308141231536865234e+00 8.729358017444610596e-02 5.033501625061035156e+00 1.536238670349121094e+00 1.714136898517608643e-01
1.933000000000000000e+03 1.670082092285156250e+01 -6.308828353881835938e+00 -4.012927412986755371e-01 5.870107173919677734e+00 1.640644431114196777e+00 -7.942401170730590820e-01
1.934000000000000000e+03 1.610768890380859375e+01 -7.145461559295654297e+00 3.457069024443626404e-02 4.888842582702636719e+00 1.477024078369140625e+00 -2.216904461383819580e-01
1.935000000000000000e+03 4.444525146484375000e+01 1.649268722534179688e+01 3.912497162818908691e-01 2.917285680770874023e+00 9.925606250762939453e-01 1.311173081398010254e+00
1.936000000000000000e+03 4.299642181396484375e+01 1.630678558349609375e+01 4.447941482067108154e-01 2.426736116409301758e+00 8.614591360092163086e-01 1.194693684577941895e+00
1.937000000000000000e+03 3.578466796875000000e+01 -9.634242057800292969e+00 -8.389525115489959717e-02 1.230227112770080566e+00 3.438995480537414551e-01 -1.493633687496185303e-01
1.938000000000000000e+03 3.690350341796875000e+01 -9.154511451721191406e+00 -7.610741537064313889e-03 1.525311946868896484e+00 4.553103744983673096e-01 -1.730853468179702759e-01
1.939000000000000000e+03 4.535654830932617188e+01 1.701364326477050781e+01 3.501709401607513428e-01 3.221431493759155273e+00 1.071480751037597656e+00 1.379824876785278320e+00
1.940000000000000000e+03 3.964540863037109375e+01 -1.319272136688232422e+01 -1.269718557596206665e-01 2.253488540649414062e+00 6.379550099372863770e-01 -2.661561667919158936e-01
1.941000000000000000e+03 3.878921127319335938e+01 -1.227097606658935547e+01 -1.642759889364242554e-01 2.022637605667114258e+00 5.575084686279296875e-01 -2.469653636217117310e-01
1.942000000000000000e+03 7.880750179290771484e+00 6.548088550567626953e+00 1.506900787353515625e+00 1.144579410552978516e+00 7.954440712928771973e-01 -1.890829443931579590e+00
1.943000000000000000e+03 6.947878360748291016e+00 1.148673248291015625e+01 -1.822790503501892090e-01 1.977597832679748535e+00 5.385956168174743652e-01 -1.368962168693542480e+00
1.944000000000000000e+03 1.252532196044921875e+01 9.519576072692871094e+00 -1.042763829231262207e+00 3.831619501113891602e+00 8.366566896438598633e-01 -9.127712845802307129e-01
1.945000000000000000e+03 2.069411087036132812e+01 -2.069063186645507812e+01 5.134896561503410339e-02 2.407609939575195312e+00 7.376876473426818848e-01 -6.401375532150268555e-01
1.946000000000000000e+03 2.047546958923339844e+01 -2.453120422363281250e+01 -7.094925735145807266e-03 2.052639961242675781e+00 6.136634945869445801e-01 -4.102292954921722412e-01
1.947000000000000000e+03 5.200302505493164062e+01 2.360620880126953125e+01 2.357899695634841919e-01 6.604423046112060547e+00 2.052063941955566406e+00 2.035243511199951172e+00
1.948000000000000000e+03 3.692224121093750000e+01 -6.434084892272949219e+00 8.494740724563598633e-02 1.538129091262817383e+00 4.869229495525360107e-01 -1.162357628345489502e-01
1.949000000000000000e+03 4.925024032592773438e+01 -2.632581520080566406e+01 -8.503969758749008179e-02 5.756539821624755859e+00 1.701450109481811523e+00 3.165479376912117004e-02
1.950000000000000000e+03 4.531475067138671875e+01 -2.247287559509277344e+01 -2.462202012538909912e-01 4.387610435485839844e+00 1.242416977882385254e+00 -4.538630545139312744e-01
1.951000000000000000e+03 1.699666786193847656e+01 -1.435739040374755859e+01 1.366213858127593994e-01 3.190912961959838867e+00 9.982602596282958984e-01 -2.855047285556793213e-01
1.952000000000000000e+03 3.669992446899414062e+01 8.090035438537597656e+00 5.606313347816467285e-01 1.241877794265747070e+00 5.407527685165405273e-01 5.883088111877441406e-01
1.953000000000000000e+03 5.279628753662109375e+01 2.640196418762207031e+01 5.543583035469055176e-01 7.924743652343750000e+00 2.543730497360229492e+00 2.539625406265258789e+00
1.954000000000000000e+03 5.292864990234375000e+01 2.450815200805664062e+01 2.266408503055572510e-01 7.485312938690185547e+00 2.313585996627807617e+00 2.066946268081665039e+00
1.955000000000000000e+03 2.179359436035156250e+01 -2.526155662536621094e+01 3.426232933998107910e-02 2.025756597518920898e+00 6.180056929588317871e-01 -4.840963482856750488e-01
1.956000000000000000e+03 2.233334159851074219e+01 -2.762885475158691406e+01 2.549072913825511932e-02 1.875049233436584473e+00 5.701619982719421387e-01 -4.135154187679290771e-01
1.957000000000000000e+03 3.632694625854492188e+01 -8.016119956970214844e+00 -6.608100142329931259e-03 1.391135334968566895e+00 4.153581559658050537e-01 -1.414832770824432373e-01
1.958000000000000000e+03 2.092334747314453125e+01 1.954632377624511719e+01 -6.473571658134460449e-01 3.721602261066436768e-01 -8.255909383296966553e-02 -3.917310237884521484e-01
1.959000000000000000e+03 1.917098617553710938e+01 2.008728027343750000e+01 -6.334831118583679199e-01 7.199214100837707520e-01 2.593148313462734222e-02 -3.161917030811309814e-01
1.960000000000000000e+03 3.060182189941406250e+01 4.299819469451904297e+00 8.456352949142456055e-01 3.616390228271484375e-01 3.621822893619537354e-01 4.448939263820648193e-01
1.961000000000000000e+03 3.231582260131835938e+01 4.427774429321289062e+00 7.733265161514282227e-01 5.705904364585876465e-01 4.031750857830047607e-01 4.365461170673370361e-01
1.962000000000000000e+03 4.037888336181640625e+01 1.506137657165527344e+01 4.629127681255340576e-01 1.690985679626464844e+00 6.461695432662963867e-01 9.270204901695251465e-01
1.963000000000000000e+03 6.937724304199218750e+01 -2.539978790283203125e+01 1.864701323211193085e-02 7.357747554779052734e+00 2.212918281555175781e+00 4.426625967025756836e-01
1.964000000000000000e+03 7.018072509765625000e+01 -3.316067886352539062e+01 1.464366465806961060e-01 7.253085613250732422e+00 2.219856739044189453e+00 3.154529631137847900e-01
1.965000000000000000e+03 1.598946666717529297e+01 -1.127228832244873047e+01 3.247403502464294434e-01 3.482313632965087891e+00 1.142116189002990723e+00 -1.501813679933547974e-01
1.966000000000000000e+03 2.089028739929199219e+01 2.145340728759765625e+01 -6.123980879783630371e-01 4.160464406013488770e-01 -5.890550091862678528e-02 -4.015758335590362549e-01
1.967000000000000000e+03 5.111829376220703125e+01 2.438656425476074219e+01 5.363843441009521484e-01 6.313724517822265625e+00 2.055032730102539062e+00 2.370054960250854492e+00
1.968000000000000000e+03 5.123987579345703125e+01 2.266777420043945312e+01 2.421494573354721069e-01 6.163649559020996094e+00 1.921739697456359863e+00 2.042444705963134766e+00
1.969000000000000000e+03 1.062965393066406250e+01 2.961673545837402344e+01 -2.014344632625579834e-01 1.955322980880737305e+00 5.261665582656860352e-01 -2.571559250354766846e-01
1.970000000000000000e+03 9.648659706115722656e+00 3.279344177246093750e+01 -1.164846196770668030e-01 2.099215745925903320e+00 5.948193669319152832e-01 -1.598563790321350098e-01
1.971000000000000000e+03 4.326305389404296875e+01 -1.918582916259765625e+01 -2.485376596450805664e-01 3.470645427703857422e+00 9.666323065757751465e-01 -4.490607380867004395e-01
1.972000000000000000e+03 7.291897583007812500e+01 2.637960624694824219e+01 -1.348879840224981308e-02 7.608151435852050781e+00 2.278398752212524414e+00 -7.576149702072143555e-01
1.973000000000000000e+03 7.269186401367187500e+01 -2.267342758178710938e+01 -1.559312827885150909e-02 7.695621967315673828e+00 2.304008722305297852e+00 3.567436635494232178e-01
1.974000000000000000e+03 7.158290100097656250e+01 -2.328705596923828125e+01 -6.118481978774070740e-03 7.583470821380615234e+00 2.273205757141113281e+00 3.826873302459716797e-01
1.975000000000000000e+03 7.425953674316406250e+01 2.637096786499023438e+01 7.707425206899642944e-02 7.359052181243896484e+00 2.230838060379028320e+00 -6.480280160903930664e-01
1.976000000000000000e+03 7.168585968017578125e+01 1.685418319702148438e+01 -2.064988911151885986e-01 7.983208656311035156e+00 2.333013057708740234e+00 -6.399809122085571289e-01
1.977000000000000000e+03 7.407940673828125000e+01 -2.669070816040039062e+01 1.632202416658401489e-02 7.670917510986328125e+00 2.306171894073486328e+00 2.989328205585479736e-01
1.978000000000000000e+03 7.307398223876953125e+01 -1.666445350646972656e+01 -4.895574972033500671e-02 7.913113594055175781e+00 2.359247446060180664e+00 2.905480861663818359e-01
1.979000000000000000e+03 7.158346557617187500e+01 1.137023067474365234e+01 -2.221829593181610107e-01 8.032314300537109375e+00 2.343039274215698242e+00 -4.152174293994903564e-01
1.980000000000000000e+03 7.280089569091796875e+01 9.791979789733886719e+00 -1.748305410146713257e-01 8.111237525939941406e+00 2.380922079086303711e+00 -3.471808433532714844e-01
1.981000000000000000e+03 7.414551544189453125e+01 8.321714401245117188e+00 -1.213714182376861572e-01 8.238573074340820312e+00 2.435160636901855469e+00 -2.735145390033721924e-01
1.982000000000000000e+03 7.297102355957031250e+01 -1.001766967773437500e+01 -7.979428768157958984e-02 8.072483062744140625e+00 2.397806644439697266e+00 1.789488345384597778e-01
1.983000000000000000e+03 7.284654998779296875e+01 -1.536563038825988770e+00 -1.138270795345306396e-01 8.152544975280761719e+00 2.411615371704101562e+00 -3.974555525928735733e-03
1.984000000000000000e+03 7.276194000244140625e+01 -2.869808912277221680e+00 -9.487152099609375000e-02 8.138515472412109375e+00 2.413093090057373047e+00 3.370305523276329041e-02
1.985000000000000000e+03 7.254644775390625000e+01 -4.181700706481933594e+00 -9.927285462617874146e-02 8.103552818298339844e+00 2.401283979415893555e+00 6.521482765674591064e-02
1.986000000000000000e+03 7.142925262451171875e+01 4.330392837524414062e+00 -1.576386392116546631e-01 8.015096664428710938e+00 2.357237577438354492e+00 -1.588057279586791992e-01
1.987000000000000000e+03 7.272684478759765625e+01 2.813066959381103516e+00 -1.161049753427505493e-01 8.147251129150390625e+00 2.409343957901000977e+00 -1.160198226571083069e-01
1.988000000000000000e+03 7.140837860107421875e+01 5.678732395172119141e+00 -1.965726763010025024e-01 8.015318870544433594e+00 2.345623970031738281e+00 -2.060436755418777466e-01
1.989000000000000000e+03 7.379470062255859375e+01 -5.764626026153564453e+00 -8.034083992242813110e-02 8.233015060424804688e+00 2.445802211761474609e+00 8.509322255849838257e-02
1.990000000000000000e+03 7.432812500000000000e+01 -1.266495323181152344e+01 -4.639264196157455444e-02 8.172739982604980469e+00 2.437904357910156250e+00 1.976809799671173096e-01
1.991000000000000000e+03 7.393028259277343750e+01 -1.965798950195312500e+01 -2.703790180385112762e-02 7.911670684814453125e+00 2.365389823913574219e+00 2.905564308166503906e-01
1.992000000000000000e+03 7.314340209960937500e+01 2.773268699645996094e+01 1.824551224708557129e-01 7.437122344970703125e+00 2.285873174667358398e+00 -7.001183629035949707e-01
1.993000000000000000e+03 7.266982269287109375e+01 -2.699013137817382812e+01 2.523379959166049957e-02 7.549092769622802734e+00 2.272297859191894531e+00 3.440972268581390381e-01
1.994000000000000000e+03 7.305335235595703125e+01 -2.834950637817382812e+01 3.974726796150207520e-02 7.540738105773925781e+00 2.274145603179931641e+00 3.251731097698211670e-01
1.995000000000000000e+03 8.154100418090820312e+00 2.028582191467285156e+01 -3.614594638347625732e-01 2.176162958145141602e+00 5.444110631942749023e-01 -6.532306671142578125e-01
1.996000000000000000e+03 6.967982292175292969e+00 2.422659683227539062e+01 -2.047721892595291138e-01 2.369636297225952148e+00 6.494592428207397461e-01 -4.202004969120025635e-01
1.997000000000000000e+03 6.219331264495849609e+00 -9.660937309265136719e+00 3.265966773033142090e-01 1.887422502040863037e-01 1.546016782522201538e-01 -1.409961562603712082e-02
1.998000000000000000e+03 8.031190872192382812e+00 -1.710255622863769531e+01 6.785617768764495850e-02 8.308742642402648926e-01 2.696191370487213135e-01 2.949652075767517090e-01
1.999000000000000000e+03 5.530770778656005859e+00 -1.937285423278808594e+01 -2.486379118636250496e-03 3.895758688449859619e-01 1.161268427968025208e-01 2.766504585742950439e-01
2.000000000000000000e+03 6.770736694335937500e+00 -1.704287338256835938e+01 7.793272286653518677e-02 5.960523486137390137e-01 2.021955251693725586e-01 3.058038651943206787e-01
2.001000000000000000e+03 6.237059116363525391e+00 -8.745852470397949219e+00 3.414885997772216797e-01 1.174949631094932556e-01 1.376950591802597046e-01 -8.904365450143814087e-02
2.002000000000000000e+03 5.144752502441406250e+00 -9.413424491882324219e+00 2.528343796730041504e-01 -3.890697658061981201e-02 6.417822092771530151e-02 -8.790738880634307861e-02
2.003000000000000000e+03 8.733791351318359375e+00 -2.544302177429199219e+01 -8.682052046060562134e-02 9.487304687500000000e-01 2.585729658603668213e-01 2.388119548559188843e-01
2.004000000000000000e+03 4.011858749389648438e+01 -1.621079444885253906e+01 -1.812940239906311035e-01 2.378348350524902344e+00 6.591162681579589844e-01 -3.761151731014251709e-01
2.005000000000000000e+03 1.436905002593994141e+01 1.415335083007812500e+01 -8.966684937477111816e-01 2.093459129333496094e+00 3.590371608734130859e-01 -4.340547919273376465e-01
2.006000000000000000e+03 6.848492622375488281e+00 1.711971473693847656e+01 -3.931154012680053711e-01 2.176923990249633789e+00 5.351425409317016602e-01 -8.240104317665100098e-01
2.007000000000000000e+03 6.563770771026611328e+00 1.577915287017822266e+01 -3.361228108406066895e-01 2.171575307846069336e+00 5.506357550621032715e-01 -1.007913708686828613e+00
2.008000000000000000e+03 7.012818336486816406e+00 2.014780044555664062e+01 -3.441064357757568359e-01 2.275227785110473633e+00 5.793363451957702637e-01 -6.112698316574096680e-01
2.009000000000000000e+03 7.667137145996093750e+00 1.533906269073486328e+01 -4.760637879371643066e-01 2.194572687149047852e+00 5.155526995658874512e-01 -9.808990359306335449e-01
2.010000000000000000e+03 8.159538269042968750e+00 -3.136731910705566406e+01 -8.415585756301879883e-02 8.338668346405029297e-01 2.249132990837097168e-01 1.495764851570129395e-01
2.011000000000000000e+03 4.589302825927734375e+01 1.872561836242675781e+01 4.395064115524291992e-01 3.333675622940063477e+00 1.131954669952392578e+00 1.534958362579345703e+00
2.012000000000000000e+03 3.471416091918945312e+01 -4.487989902496337891e+00 3.378749191761016846e-01 1.036802411079406738e+00 4.124032258987426758e-01 -6.200528517365455627e-02
2.013000000000000000e+03 3.238440704345703125e+01 -3.782933712005615234e+00 4.167022109031677246e-01 5.801190733909606934e-01 2.990463674068450928e-01 -3.310493007302284241e-02
2.014000000000000000e+03 3.260112762451171875e+01 -2.387677907943725586e+00 5.792421102523803711e-01 5.029768943786621094e-01 3.246656954288482666e-01 -6.462021917104721069e-02
2.015000000000000000e+03 3.472334289550781250e+01 3.216093063354492188e+01 -9.157550334930419922e-01 -7.412199974060058594e-01 -4.970925152301788330e-01 -6.526721119880676270e-01
2.016000000000000000e+03 8.525186538696289062e+00 7.020739078521728516e+00 9.849008917808532715e-01 1.729712605476379395e+00 8.143840432167053223e-01 -2.111742258071899414e+00
2.017000000000000000e+03 5.048387527465820312e+00 1.105545520782470703e+01 1.443676091730594635e-02 1.439277410507202148e+00 4.361142516136169434e-01 -1.114884257316589355e+00
2.018000000000000000e+03 4.950342655181884766e+00 6.137738704681396484e+00 7.349094152450561523e-01 1.732690185308456421e-01 2.724535167217254639e-01 -5.376618504524230957e-01
2.019000000000000000e+03 6.569419860839843750e+00 8.761940956115722656e+00 4.091700911521911621e-01 1.373998999595642090e+00 5.349507331848144531e-01 -1.436343312263488770e+00
2.020000000000000000e+03 7.214162445068359375e+01 2.826873970031738281e+01 1.385120451450347900e-01 7.666787147521972656e+00 2.341589689254760742e+00 -6.773884892463684082e-01
2.021000000000000000e+03 6.156884670257568359e+00 1.211246585845947266e+01 -1.685901731252670288e-01 1.800501704216003418e+00 4.895734786987304688e-01 -1.218703389167785645e+00
2.022000000000000000e+03 2.109671211242675781e+01 -2.320571327209472656e+01 2.401814982295036316e-02 2.173955917358398438e+00 6.593922376632690430e-01 -5.343451499938964844e-01
2.023000000000000000e+03 6.489494323730468750e+00 -1.303873825073242188e+01 2.241417616605758667e-01 3.913781940937042236e-01 1.846559792757034302e-01 1.801388561725616455e-01
2.024000000000000000e+03 8.787457466125488281e+00 7.705085754394531250e+00 7.359960675239562988e-01 1.838306903839111328e+00 7.722908854484558105e-01 -2.078096628189086914e+00
2.025000000000000000e+03 1.149995326995849609e+01 9.503895759582519531e+00 -5.325527787208557129e-01 3.633828163146972656e+00 9.303826093673706055e-01 -1.712846994400024414e+00
2.026000000000000000e+03 1.876511764526367188e+01 -1.987337875366210938e+01 -6.690865382552146912e-03 2.507038831710815430e+00 7.501044273376464844e-01 -4.271911084651947021e-01
2.027000000000000000e+03 2.958151435852050781e+01 1.261583685874938965e+00 1.176751732826232910e+00 1.412119418382644653e-01 3.953891098499298096e-01 2.837082147598266602e-01
2.028000000000000000e+03 3.880808258056640625e+01 1.002117061614990234e+01 4.746022820472717285e-01 1.633832812309265137e+00 6.325305104255676270e-01 7.206588983535766602e-01
2.029000000000000000e+03 7.613988876342773438e+00 1.298595142364501953e+01 -3.662693798542022705e-01 2.117767810821533203e+00 5.254495143890380859e-01 -1.242061614990234375e+00
2.030000000000000000e+03 3.489600753784179688e+01 8.129914283752441406e+00 6.069988012313842773e-01 9.066999554634094238e-01 4.541096389293670654e-01 5.373660922050476074e-01
2.031000000000000000e+03 1.733201789855957031e+01 1.752964019775390625e+01 -7.312849164009094238e-01 1.037336230278015137e+00 9.181541204452514648e-02 -3.581659197807312012e-01
2.032000000000000000e+03 4.765195083618164062e+01 -2.704597091674804688e+01 -5.480689927935600281e-02 5.683887004852294922e+00 1.688724040985107422e+00 -1.787801831960678101e-01
2.033000000000000000e+03 1.694809532165527344e+01 -1.619044876098632812e+01 6.113032624125480652e-02 2.864321470260620117e+00 8.776355385780334473e-01 -2.413548529148101807e-01
2.034000000000000000e+03 1.547105407714843750e+01 -1.861716270446777344e+01 -3.825806081295013428e-02 2.246654510498046875e+00 6.625189781188964844e-01 -4.773790016770362854e-02
2.035000000000000000e+03 2.456673049926757812e+01 2.374696540832519531e+01 -5.688964724540710449e-01 -7.701014727354049683e-02 -1.937719732522964478e-01 -4.925468266010284424e-01
2.036000000000000000e+03 3.807162094116210938e+01 -1.130361557006835938e+01 -7.995201647281646729e-02 1.806935429573059082e+00 5.180950164794921875e-01 -2.117810100317001343e-01
2.037000000000000000e+03 3.747229385375976562e+01 -1.025502014160156250e+01 -1.144926324486732483e-01 1.656209111213684082e+00 4.625149667263031006e-01 -1.885242760181427002e-01
2.038000000000000000e+03 3.296453857421875000e+01 2.505530416965484619e-01 7.490684986114501953e-01 5.867061614990234375e-01 4.007323980331420898e-01 9.802959859371185303e-02
2.039000000000000000e+03 1.153033638000488281e+01 8.621168136596679688e+00 -4.892238974571228027e-01 3.659587383270263672e+00 9.511090517044067383e-01 -1.628432035446166992e+00
2.040000000000000000e+03 4.457180023193359375e+01 -2.143394851684570312e+01 -2.648960947990417480e-01 4.048676490783691406e+00 1.135134100914001465e+00 -4.849263131618499756e-01
2.041000000000000000e+03 4.389593887329101562e+01 -2.034038543701171875e+01 -2.232516258955001831e-01 3.738168001174926758e+00 1.054474949836730957e+00 -4.742312431335449219e-01
2.042000000000000000e+03 3.124317359924316406e+01 1.811793446540832520e+00 1.025161027908325195e+00 3.572171032428741455e-01 4.147134125232696533e-01 2.701000571250915527e-01
2.043000000000000000e+03 3.131086730957031250e+01 3.487578392028808594e+00 9.081579446792602539e-01 4.469454288482666016e-01 4.065310060977935791e-01 3.252703249454498291e-01
2.044000000000000000e+03 5.058744812011718750e+01 2.169048309326171875e+01 2.156857997179031372e-01 5.636150360107421875e+00 1.755550861358642578e+00 1.901199340820312500e+00
2.045000000000000000e+03 3.775194168090820312e+01 9.065137863159179688e+00 5.227273106575012207e-01 1.429484963417053223e+00 5.856636762619018555e-01 6.356221437454223633e-01
2.046000000000000000e+03 3.177487373352050781e+01 3.410882651805877686e-01 9.096581339836120605e-01 4.398818910121917725e-01 4.048620164394378662e-01 2.091343849897384644e-01
2.047000000000000000e+03 4.717076873779296875e+01 1.933267021179199219e+01 3.950553536415100098e-01 3.932469844818115234e+00 1.298257589340209961e+00 1.665120244026184082e+00
2.048000000000000000e+03 4.759895706176757812e+01 1.786155319213867188e+01 2.065895199775695801e-01 4.172377109527587891e+00 1.313690066337585449e+00 1.515810489654541016e+00
2.049000000000000000e+03 2.179718971252441406e+01 -2.954729652404785156e+01 -1.935284398496150970e-02 1.748701333999633789e+00 5.188045501708984375e-01 -2.941583693027496338e-01
2.050000000000000000e+03 2.069629478454589844e+01 -3.159791946411132812e+01 -7.376395910978317261e-02 1.663736820220947266e+00 4.769918322563171387e-01 -1.924142390489578247e-01
2.051000000000000000e+03 4.056652450561523438e+01 9.808243751525878906e+00 4.141046404838562012e-01 2.071723461151123047e+00 7.457484006881713867e-01 7.978692650794982910e-01
2.052000000000000000e+03 6.013286590576171875e+01 3.167709541320800781e+01 1.451466679573059082e+00 1.076149272918701172e+01 3.663887977600097656e+00 1.758692562580108643e-01
2.053000000000000000e+03 1.611784362792968750e+01 -1.541250705718994141e+01 1.330292671918869019e-01 2.828917026519775391e+00 8.885838985443115234e-01 -1.347445845603942871e-01
2.054000000000000000e+03 5.801379776000976562e+01 3.109515762329101562e+01 1.274113059043884277e+00 1.183563041687011719e+01 3.932923078536987305e+00 1.597077101469039917e-01
2.055000000000000000e+03 7.234247589111328125e+01 -2.123524093627929688e+01 -3.511522710323333740e-02 7.713354110717773438e+00 2.303471803665161133e+00 3.576371967792510986e-01
2.056000000000000000e+03 7.311437988281250000e+01 -1.407081508636474609e+01 -5.881436169147491455e-02 7.994746685028076172e+00 2.380779743194580078e+00 2.489255368709564209e-01
2.057000000000000000e+03 7.254040527343750000e+01 -7.685870170593261719e+00 -1.023054644465446472e-01 8.041750907897949219e+00 2.381833553314208984e+00 1.373202353715896606e-01
2.058000000000000000e+03 5.730900573730468750e+01 4.144331741333007812e+01 -3.554724693298339844e+00 1.425436019897460938e+01 3.209890604019165039e+00 7.503148913383483887e-01
2.059000000000000000e+03 6.337968063354492188e+01 3.463728332519531250e+01 1.348867774009704590e+00 9.679107666015625000e+00 3.308392763137817383e+00 2.256830930709838867e-01
2.060000000000000000e+03 7.408181762695312500e+01 1.316006660461425781e+00 -7.314622402191162109e-02 8.313823699951171875e+00 2.472203254699707031e+00 -7.366567105054855347e-02
2.061000000000000000e+03 1.501591300964355469e+01 1.572323703765869141e+01 -8.296459913253784180e-01 1.754485607147216797e+00 2.774518728256225586e-01 -3.590090572834014893e-01
2.062000000000000000e+03 7.273090362548828125e+01 8.405211448669433594e+00 -1.366495043039321899e-01 8.122872352600097656e+00 2.395866632461547852e+00 -2.899514138698577881e-01
2.063000000000000000e+03 7.218703746795654297e+00 -2.913798332214355469e+01 -7.380866259336471558e-02 7.427650094032287598e-01 2.006869018077850342e-01 1.852560192346572876e-01
2.064000000000000000e+03 7.638114929199218750e+00 -2.759039497375488281e+01 -7.973181456327438354e-02 7.890739440917968750e-01 2.128026485443115234e-01 2.128320485353469849e-01
2.065000000000000000e+03 1.495449352264404297e+01 -3.444060325622558594e+00 3.216284811496734619e-01 5.957234382629394531e+00 1.883658885955810547e+00 2.436514616012573242e+00
2.066000000000000000e+03 1.386475467681884766e+01 -3.810257434844970703e+00 7.253636717796325684e-01 2.886859178543090820e+00 1.083666920661926270e+00 1.571674466133117676e+00
2.067000000000000000e+03 1.563421821594238281e+01 -4.270304679870605469e+00 -6.570550203323364258e-01 7.327484130859375000e+00 2.001128673553466797e+00 9.620395898818969727e-01
2.068000000000000000e+03 1.370665836334228516e+01 -4.335314273834228516e+00 6.102628707885742188e-01 2.927252054214477539e+00 1.061254501342773438e+00 1.389423251152038574e+00
2.069000000000000000e+03 1.675236320495605469e+01 -4.725657463073730469e+00 -1.205417275428771973e+00 7.865374565124511719e+00 1.997987151145935059e+00 -1.067690730094909668e+00
2.070000000000000000e+03 1.456738567352294922e+01 -3.769615173339843750e+00 2.995176017284393311e-01 4.653569221496582031e+00 1.485926032066345215e+00 1.961458206176757812e+00
2.071000000000000000e+03 1.526508045196533203e+01 -3.867780923843383789e+00 -4.830841720104217529e-01 6.651259422302246094e+00 1.850452661514282227e+00 1.666668534278869629e+00
2.072000000000000000e+03 1.028118133544921875e+01 -5.070697307586669922e+00 5.133211612701416016e-01 5.537702441215515137e-01 3.201274275779724121e-01 3.429112583398818970e-02
2.073000000000000000e+03 1.123642635345458984e+01 -4.916060924530029297e+00 6.165494322776794434e-01 8.509150147438049316e-01 4.402393400669097900e-01 2.549187839031219482e-01
2.074000000000000000e+03 8.235891342163085938e+00 -5.977880001068115234e+00 4.194776117801666260e-01 2.709504365921020508e-01 2.071284204721450806e-01 -1.853997111320495605e-01
2.075000000000000000e+03 9.904732704162597656e+00 -5.825028896331787109e+00 5.541747212409973145e-01 6.011298298835754395e-01 3.465913534164428711e-01 5.115414410829544067e-02
2.076000000000000000e+03 5.784822463989257812e+00 6.158994197845458984e+00 8.413411378860473633e-01 5.371447205543518066e-01 4.135457575321197510e-01 -8.917574286460876465e-01
2.077000000000000000e+03 1.043860435485839844e+01 -5.703310966491699219e+00 6.556464433670043945e-01 7.440630793571472168e-01 4.199128448963165283e-01 1.452989131212234497e-01
2.078000000000000000e+03 1.077960872650146484e+01 -4.995562076568603516e+00 6.247127652168273926e-01 6.934314966201782227e-01 3.954432606697082520e-01 1.445309668779373169e-01
2.079000000000000000e+03 1.589974212646484375e+01 -3.884851932525634766e+00 -1.070000767707824707e+00 8.279314041137695312e+00 2.162793874740600586e+00 7.844957709312438965e-01
2.080000000000000000e+03 8.029489517211914062e+00 -5.383804321289062500e+00 3.150713443756103516e-01 1.612474322319030762e-01 1.428956389427185059e-01 -2.543787956237792969e-01
2.081000000000000000e+03 1.010566139221191406e+01 -6.534405231475830078e+00 6.566140055656433105e-01 7.833417654037475586e-01 4.319867193698883057e-01 1.529721021652221680e-01
2.082000000000000000e+03 9.360560417175292969e+00 6.552833557128906250e+00 1.326718091964721680e+00 2.105912208557128906e+00 1.029789090156555176e+00 -2.433977127075195312e+00
2.083000000000000000e+03 7.476407051086425781e+00 -5.563977718353271484e+00 3.063804805278778076e-01 1.038472726941108704e-01 1.230683252215385437e-01 -2.849515974521636963e-01
2.084000000000000000e+03 8.214365005493164062e+00 -6.516528606414794922e+00 4.688543677330017090e-01 3.193705081939697266e-01 2.364674657583236694e-01 -1.063318103551864624e-01
2.085000000000000000e+03 7.805250167846679688e+00 -6.113619804382324219e+00 3.587942421436309814e-01 1.743792593479156494e-01 1.599520593881607056e-01 -2.158315628767013550e-01
2.086000000000000000e+03 6.574434757232666016e+00 -6.700095176696777344e+00 3.186679482460021973e-01 6.583391129970550537e-02 1.153505593538284302e-01 -2.268231660127639771e-01
2.087000000000000000e+03 1.077777481079101562e+01 7.172992706298828125e+00 2.933882772922515869e-01 3.366633415222167969e+00 1.098006486892700195e+00 -2.543424844741821289e+00
2.088000000000000000e+03 1.286767864227294922e+01 1.497485542297363281e+01 -8.691664338111877441e-01 2.267929792404174805e+00 4.196289777755737305e-01 -6.294286251068115234e-01
2.089000000000000000e+03 6.358449935913085938e+00 1.323503398895263672e+01 -2.282812297344207764e-01 2.009503126144409180e+00 5.343665480613708496e-01 -1.228600859642028809e+00
2.090000000000000000e+03 7.594648838043212891e+00 1.417697620391845703e+01 -3.899647295475006104e-01 2.225564241409301758e+00 5.506798624992370605e-01 -1.210009098052978516e+00
2.091000000000000000e+03 1.240241622924804688e+01 1.689908599853515625e+01 -7.255432605743408203e-01 2.091182708740234375e+00 4.096918404102325439e-01 -6.768018007278442383e-01
2.092000000000000000e+03 7.850401878356933594e+00 -1.445269298553466797e+01 1.926326006650924683e-01 7.626876831054687500e-01 2.865960896015167236e-01 2.614660859107971191e-01
2.093000000000000000e+03 1.400435256958007812e+01 -8.664972305297851562e+00 4.638053774833679199e-01 3.120204210281372070e+00 1.075202941894531250e+00 2.487872987985610962e-01
2.094000000000000000e+03 1.567927646636962891e+01 -5.749208927154541016e+00 -4.219410419464111328e-01 5.585084438323974609e+00 1.548943042755126953e+00 -1.801037788391113281e-01
2.095000000000000000e+03 3.401814270019531250e+01 4.381751060485839844e+00 7.049067020416259766e-01 8.292716145515441895e-01 4.602535068988800049e-01 4.258080720901489258e-01
2.096000000000000000e+03 3.635147094726562500e+01 6.091696262359619141e+00 5.934889912605285645e-01 1.232491016387939453e+00 5.477939844131469727e-01 5.175852775573730469e-01
2.097000000000000000e+03 4.027260589599609375e+01 1.295784282684326172e+01 4.279858171939849854e-01 1.843732714653015137e+00 6.815155744552612305e-01 8.705892562866210938e-01
2.098000000000000000e+03 5.125279617309570312e+01 1.939943504333496094e+01 -5.510867759585380554e-02 5.828281402587890625e+00 1.731951832771301270e+00 1.561220407485961914e+00
2.099000000000000000e+03 1.523142814636230469e+01 -1.633986854553222656e+01 4.547055438160896301e-02 2.524759292602539062e+00 7.710689306259155273e-01 9.165095165371894836e-03
2.100000000000000000e+03 3.863184738159179688e+01 -7.191283702850341797e+00 2.705216873437166214e-03 1.970498204231262207e+00 5.919610261917114258e-01 -1.195348948240280151e-01
2.101000000000000000e+03 4.060758972167968750e+01 -1.216559982299804688e+01 -2.047167271375656128e-01 2.534436225891113281e+00 6.989158391952514648e-01 -2.470733970403671265e-01
2.102000000000000000e+03 3.961462783813476562e+01 -1.152222251892089844e+01 -1.155481562018394470e-01 2.233088016510009766e+00 6.352619528770446777e-01 -2.119560688734054565e-01
2.103000000000000000e+03 5.358734893798828125e+01 2.347936820983886719e+01 -7.418599724769592285e-02 7.635680198669433594e+00 2.268448352813720703e+00 1.677138209342956543e+00
2.104000000000000000e+03 5.504009246826171875e+01 2.497365188598632812e+01 -3.291724622249603271e-02 8.639321327209472656e+00 2.581921339035034180e+00 1.545729637145996094e+00
2.105000000000000000e+03 1.966814231872558594e+01 -2.058228874206542969e+01 1.568371430039405823e-02 2.434017658233642578e+00 7.349103689193725586e-01 -4.964249134063720703e-01
2.106000000000000000e+03 1.456926631927490234e+01 -1.175763034820556641e+01 2.869788408279418945e-01 2.887998580932617188e+00 9.524931907653808594e-01 1.111773252487182617e-01
2.107000000000000000e+03 1.553569889068603516e+01 -1.221760749816894531e+01 3.476031124591827393e-01 3.234722852706909180e+00 1.074697732925415039e+00 -4.551800899207592010e-03
2.108000000000000000e+03 1.522838211059570312e+01 -1.473799800872802734e+01 1.075855940580368042e-01 2.735260009765625000e+00 8.528536558151245117e-01 1.133344974368810654e-02
2.109000000000000000e+03 5.951002120971679688e+00 9.398240089416503906e+00 3.250803947448730469e-01 1.282649278640747070e+00 4.823189079761505127e-01 -1.313498854637145996e+00
2.110000000000000000e+03 1.070704555511474609e+01 8.575004577636718750e+00 -1.279871761798858643e-01 3.515597343444824219e+00 1.016283035278320312e+00 -2.178116083145141602e+00
2.111000000000000000e+03 1.851089477539062500e+01 -2.485204696655273438e+01 -7.975519448518753052e-02 1.958573460578918457e+00 5.636454820632934570e-01 -2.341075539588928223e-01
2.112000000000000000e+03 7.293103790283203125e+01 1.535779857635498047e+01 -1.743210554122924805e-01 8.006397247314453125e+00 2.349622964859008789e+00 -5.550280809402465820e-01
2.113000000000000000e+03 3.899407958984375000e+01 -1.078267288208007812e+01 -1.459663957357406616e-01 2.049932956695556641e+00 5.711899995803833008e-01 -2.160878330469131470e-01
2.114000000000000000e+03 3.805268478393554688e+01 -8.717896461486816406e+00 -5.951012670993804932e-02 1.819144606590270996e+00 5.278903245925903320e-01 -1.593018472194671631e-01
2.115000000000000000e+03 5.858965301513671875e+01 2.659806251525878906e+01 2.844063565135002136e-02 9.874226570129394531e+00 2.970800161361694336e+00 3.676116764545440674e-01
2.116000000000000000e+03 4.771346664428710938e+01 -2.257996749877929688e+01 -3.167578876018524170e-01 5.064299106597900391e+00 1.424262404441833496e+00 -1.746495962142944336e-01
2.117000000000000000e+03 4.622456359863281250e+01 -2.174698829650878906e+01 -3.111854791641235352e-01 4.546588897705078125e+00 1.270620942115783691e+00 -3.217876851558685303e-01
2.118000000000000000e+03 5.368872833251953125e+01 2.231165885925292969e+01 -1.720301806926727295e-01 7.269362449645996094e+00 2.129199743270874023e+00 1.440221190452575684e+00
2.119000000000000000e+03 6.863693237304687500e+01 2.337672424316406250e+01 -4.075310379266738892e-02 8.173907279968261719e+00 2.439946174621582031e+00 -8.104783892631530762e-01
2.120000000000000000e+03 7.265711212158203125e+01 2.247865867614746094e+01 -1.370593067258596420e-02 7.776625156402587891e+00 2.328875780105590820e+00 -7.126024961471557617e-01
2.121000000000000000e+03 7.240827941894531250e+01 -1.960125160217285156e+01 -3.937525302171707153e-02 7.764729499816894531e+00 2.317606210708618164e+00 3.418882787227630615e-01
2.122000000000000000e+03 4.387464904785156250e+01 1.571268081665039062e+01 3.854068219661712646e-01 2.732970237731933594e+00 9.355131387710571289e-01 1.226094841957092285e+00
2.123000000000000000e+03 5.157635116577148438e+01 2.117798042297363281e+01 3.991736844182014465e-02 6.213013648986816406e+00 1.875879287719726562e+00 1.770715832710266113e+00
2.124000000000000000e+03 7.269070434570312500e+01 -1.380436122417449951e-01 -1.082629635930061340e-01 8.136169433593750000e+00 2.408372163772583008e+00 -3.546568006277084351e-02
2.125000000000000000e+03 7.078469848632812500e+01 -5.084975242614746094e+00 -1.376664489507675171e-01 7.875738620758056641e+00 2.321421623229980469e+00 1.024214103817939758e-01
2.126000000000000000e+03 7.278975677490234375e+01 4.230384826660156250e+00 -1.404992341995239258e-01 8.153350830078125000e+00 2.403855562210083008e+00 -1.588112860918045044e-01
2.127000000000000000e+03 5.280323410034179688e+01 2.283101463317871094e+01 1.911939121782779694e-02 7.001601696014404297e+00 2.106216192245483398e+00 1.868805646896362305e+00
2.128000000000000000e+03 6.431046485900878906e+00 1.449487876892089844e+01 -3.335858583450317383e-01 2.049550056457519531e+00 5.147892832756042480e-01 -1.033898711204528809e+00
2.129000000000000000e+03 4.562175750732421875e+01 -2.073527526855468750e+01 -3.013499081134796143e-01 4.337603569030761719e+00 1.210876107215881348e+00 -3.586797118186950684e-01
2.130000000000000000e+03 1.495499229431152344e+01 -1.319169807434082031e+01 1.979040801525115967e-01 2.864563941955566406e+00 9.187403917312622070e-01 4.406167566776275635e-02
2.131000000000000000e+03 7.201352691650390625e+01 2.410944938659667969e+01 -1.679564826190471649e-02 7.736773014068603516e+00 2.315993309020996094e+00 -8.234823346138000488e-01
2.132000000000000000e+03 6.866968631744384766e+00 2.289245796203613281e+01 -2.438210546970367432e-01 2.344699859619140625e+00 6.302636861801147461e-01 -4.477268457412719727e-01
2.133000000000000000e+03 8.374347686767578125e+00 2.521223258972167969e+01 -2.417449504137039185e-01 2.237158060073852539e+00 5.986239314079284668e-01 -3.901487886905670166e-01
2.134000000000000000e+03 7.126844024658203125e+01 -2.563769149780273438e+01 1.371477916836738586e-02 7.511330604553222656e+00 2.257513523101806641e+00 3.883760571479797363e-01
2.135000000000000000e+03 7.200965404510498047e+00 -8.161339759826660156e+00 4.261676073074340820e-01 2.419432699680328369e-01 2.004332691431045532e-01 -7.380595058202743530e-02
2.136000000000000000e+03 6.393504619598388672e+00 -1.182695388793945312e+01 2.654797732830047607e-01 3.245255649089813232e-01 1.770015954971313477e-01 1.296425908803939819e-01
2.137000000000000000e+03 7.314842224121093750e+01 -1.536512184143066406e+01 -6.591016054153442383e-02 7.964438438415527344e+00 2.369558572769165039e+00 2.695679664611816406e-01
2.138000000000000000e+03 7.202194976806640625e+01 -1.651595687866210938e+01 -6.688497215509414673e-02 7.818062305450439453e+00 2.325353145599365234e+00 3.117360770702362061e-01
2.139000000000000000e+03 7.146040344238281250e+01 -6.829879760742187500e+00 -1.169478744268417358e-01 7.937771320343017578e+00 2.346246957778930664e+00 1.431092619895935059e-01
2.140000000000000000e+03 7.937287807464599609e+00 -1.578512001037597656e+01 1.414703279733657837e-01 8.151590824127197266e-01 2.869888246059417725e-01 3.085481226444244385e-01
2.141000000000000000e+03 7.272929382324218750e+01 7.028913021087646484e+00 -1.610223948955535889e-01 8.135815620422363281e+00 2.392437934875488281e+00 -2.515783905982971191e-01
2.142000000000000000e+03 6.995588684082031250e+01 3.226836442947387695e+00 -2.065388411283493042e-01 7.856850147247314453e+00 2.295093297958374023e+00 -1.121430322527885437e-01
2.143000000000000000e+03 7.291885375976562500e+01 -8.781026840209960938e+00 -7.189540565013885498e-02 8.092234611511230469e+00 2.406101703643798828e+00 1.615583449602127075e-01
2.144000000000000000e+03 7.162517547607421875e+01 -1.004685974121093750e+01 -1.030555367469787598e-01 7.892656326293945312e+00 2.336880207061767578e+00 2.079863399267196655e-01
2.145000000000000000e+03 7.292418670654296875e+01 1.397905254364013672e+01 -1.342009752988815308e-01 8.038834571838378906e+00 2.371389865875244141e+00 -4.872912764549255371e-01
2.146000000000000000e+03 7.167292022705078125e+01 1.411158084869384766e+01 -2.239324599504470825e-01 8.017551422119140625e+00 2.338085651397705078e+00 -5.282854437828063965e-01
2.147000000000000000e+03 7.144738006591796875e+01 -2.731400251388549805e+00 -1.449233740568161011e-01 7.975766181945800781e+00 2.349252700805664062e+00 3.751479089260101318e-02
2.148000000000000000e+03 7.295235443115234375e+01 1.951900863647460938e+01 -7.109333574771881104e-02 7.859087467193603516e+00 2.336398124694824219e+00 -6.533592343330383301e-01
2.149000000000000000e+03 7.044696807861328125e+01 1.700869941711425781e+01 -2.121236622333526611e-01 8.012301445007324219e+00 2.340053319931030273e+00 -6.267367601394653320e-01
2.150000000000000000e+03 3.262040710449218750e+01 2.093008279800415039e+00 9.040867686271667480e-01 5.555540323257446289e-01 4.378922283649444580e-01 2.423694431781768799e-01
2.151000000000000000e+03 7.515232086181640625e+00 -2.332430458068847656e+01 -6.398798525333404541e-02 7.864689230918884277e-01 2.167442739009857178e-01 2.711938023567199707e-01
2.152000000000000000e+03 6.058873653411865234e+00 -2.335893440246582031e+01 -3.657126426696777344e-02 5.434324741363525391e-01 1.520583629608154297e-01 2.673057615756988525e-01
2.153000000000000000e+03 8.864163398742675781e+00 1.573622512817382812e+01 -5.996873974800109863e-01 2.244440317153930664e+00 4.934259057044982910e-01 -9.339601993560791016e-01
2.154000000000000000e+03 4.205689620971679688e+01 -1.667105293273925781e+01 -2.425193786621093750e-01 2.997381925582885742e+00 8.264587521553039551e-01 -3.648164570331573486e-01
2.155000000000000000e+03 4.137326049804687500e+01 -1.536801815032958984e+01 -1.969125270843505859e-01 2.739264726638793945e+00 7.627056837081909180e-01 -3.397842049598693848e-01
2.156000000000000000e+03 1.337589263916015625e+01 1.376094913482666016e+01 -8.730981349945068359e-01 2.264446735382080078e+00 4.174045920372009277e-01 -6.206829547882080078e-01
2.157000000000000000e+03 9.003217697143554688e+00 1.933293151855468750e+01 -4.618488550186157227e-01 2.228691339492797852e+00 5.300527811050415039e-01 -7.179024815559387207e-01
2.158000000000000000e+03 7.307986450195312500e+01 -1.272338581085205078e+01 -7.397688180208206177e-02 8.017935752868652344e+00 2.383187532424926758e+00 2.277675271034240723e-01
2.159000000000000000e+03 6.326735496520996094e+00 -7.972197532653808594e+00 3.318766057491302490e-01 1.077266559004783630e-01 1.318809837102890015e-01 -1.377477943897247314e-01
2.160000000000000000e+03 6.580619335174560547e+00 -1.433019351959228516e+01 1.754080355167388916e-01 4.749966859817504883e-01 1.951214224100112915e-01 2.459042519330978394e-01
2.161000000000000000e+03 3.856520843505859375e+01 -9.801046371459960938e+00 -7.228817045688629150e-02 1.949995517730712891e+00 5.633122324943542480e-01 -1.976170688867568970e-01
2.162000000000000000e+03 4.055240631103515625e+01 -1.419218158721923828e+01 -2.209618985652923584e-01 2.520885705947875977e+00 6.899771094322204590e-01 -3.077884316444396973e-01
2.163000000000000000e+03 7.776552200317382812e+00 -1.315598487854003906e+01 2.670681774616241455e-01 7.231460809707641602e-01 2.970642745494842529e-01 2.508132755756378174e-01
2.164000000000000000e+03 7.185784912109375000e+01 -1.281277847290039062e+01 -8.703925460577011108e-02 7.872612476348876953e+00 2.335671901702880859e+00 2.558839023113250732e-01
2.165000000000000000e+03 8.240700721740722656e+00 2.877618789672851562e+01 -1.563929766416549683e-01 2.261791229248046875e+00 6.316194534301757812e-01 -2.472538352012634277e-01
2.166000000000000000e+03 1.179915142059326172e+01 3.143452072143554688e+01 -2.184095531702041626e-01 1.836651921272277832e+00 4.854727387428283691e-01 -2.064096778631210327e-01
2.167000000000000000e+03 6.688501358032226562e+00 -1.932745361328125000e+01 9.415998123586177826e-03 6.029203534126281738e-01 1.837009042501449585e-01 2.974986135959625244e-01
2.168000000000000000e+03 7.165000152587890625e+01 1.274106025695800781e+01 -1.880726963281631470e-01 8.024356842041015625e+00 2.350885391235351562e+00 -4.588295817375183105e-01
2.169000000000000000e+03 7.289356231689453125e+01 2.095123672485351562e+01 -1.310196965932846069e-01 7.814949512481689453e+00 2.305178880691528320e+00 -7.398763895034790039e-01
2.170000000000000000e+03 1.691884994506835938e+01 -9.882242202758789062e+00 4.920656085014343262e-01 4.187605381011962891e+00 1.403901338577270508e+00 -3.821804821491241455e-01
2.171000000000000000e+03 1.601005554199218750e+01 -7.650781631469726562e+00 3.067593574523925781e-01 4.719648361206054688e+00 1.507922291755676270e+00 -2.636770904064178467e-01
2.172000000000000000e+03 7.354832172393798828e+00 7.232134342193603516e+00 8.739525079727172852e-01 1.100402593612670898e+00 5.923065543174743652e-01 -1.596536278724670410e+00
2.173000000000000000e+03 3.748580551147460938e+01 -7.590926647186279297e+00 5.515426024794578552e-02 1.683737635612487793e+00 5.216675996780395508e-01 -1.559157371520996094e-01
2.174000000000000000e+03 8.203260421752929688e+00 9.616481781005859375e+00 -3.137335181236267090e-03 2.182605981826782227e+00 6.538406014442443848e-01 -1.710522174835205078e+00
2.175000000000000000e+03 6.648394107818603516e+00 1.007387542724609375e+01 4.480072110891342163e-02 1.707821488380432129e+00 5.257866382598876953e-01 -1.435850739479064941e+00
2.176000000000000000e+03 7.286935424804687500e+01 -3.046432876586914062e+01 6.125129386782646179e-02 7.471920967102050781e+00 2.259951591491699219e+00 3.018051087856292725e-01
2.177000000000000000e+03 6.935359954833984375e+01 -3.032008171081542969e+01 1.105840578675270081e-01 7.258838176727294922e+00 2.210826635360717773e+00 3.909652829170227051e-01
2.178000000000000000e+03 7.105197906494140625e+01 -1.908483314514160156e+01 -5.735041946172714233e-02 7.657559394836425781e+00 2.280062675476074219e+00 3.667578399181365967e-01
2.179000000000000000e+03 1.190759086608886719e+01 1.463980102539062500e+01 -7.461845278739929199e-01 2.330786466598510742e+00 4.753805994987487793e-01 -8.247642517089843750e-01
2.180000000000000000e+03 7.174527740478515625e+01 -8.709110260009765625e+00 -1.105325520038604736e-01 7.917947769165039062e+00 2.342224597930908203e+00 1.795122772455215454e-01
2.181000000000000000e+03 4.860050201416015625e+01 1.955703926086425781e+01 2.712616622447967529e-01 4.563374042510986328e+00 1.450390696525573730e+00 1.702089071273803711e+00
2.182000000000000000e+03 3.952288436889648438e+01 8.985941886901855469e+00 4.567441940307617188e-01 1.853383898735046387e+00 6.930384039878845215e-01 7.041788697242736816e-01
2.183000000000000000e+03 4.022867202758789062e+01 7.995172023773193359e+00 4.158273637294769287e-01 2.064851045608520508e+00 7.442035675048828125e-01 7.119348049163818359e-01
2.184000000000000000e+03 3.206693649291992188e+01 1.355489373207092285e+00 7.749049663543701172e-01 4.773741364479064941e-01 3.756837248802185059e-01 2.117915898561477661e-01
2.185000000000000000e+03 3.068069267272949219e+01 7.034472227096557617e-01 8.294897079467773438e-01 2.496600747108459473e-01 3.237449526786804199e-01 1.957546174526214600e-01
2.186000000000000000e+03 7.055918121337890625e+01 -2.861648750305175781e+01 6.267158687114715576e-02 7.383808135986328125e+00 2.233943939208984375e+00 3.949297964572906494e-01
2.187000000000000000e+03 7.258344268798828125e+01 -2.539084625244140625e+01 1.451594196259975433e-02 7.601424694061279297e+00 2.284782171249389648e+00 3.568527996540069580e-01
2.188000000000000000e+03 1.587053394317626953e+01 1.734284210205078125e+01 -7.704488635063171387e-01 1.469623088836669922e+00 2.097522765398025513e-01 -3.313627243041992188e-01
2.189000000000000000e+03 7.154048919677734375e+01 2.689998054504394531e+01 1.477631181478500366e-01 7.726541042327880859e+00 2.362291097640991211e+00 -7.982513308525085449e-01
2.190000000000000000e+03 3.561824798583984375e+01 7.135608673095703125e+00 6.308562755584716797e-01 1.058840513229370117e+00 5.069090127944946289e-01 5.083798170089721680e-01
2.191000000000000000e+03 3.746947097778320312e+01 7.054373264312744141e+00 5.722265839576721191e-01 1.423385739326477051e+00 5.986837148666381836e-01 5.540575981140136719e-01
2.192000000000000000e+03 4.105294418334960938e+01 1.175037670135498047e+01 4.067451059818267822e-01 2.110272169113159180e+00 7.551051378250122070e-01 8.871326446533203125e-01
2.193000000000000000e+03 4.232672119140625000e+01 1.251022338867187500e+01 3.526141941547393799e-01 2.441255331039428711e+00 8.381608724594116211e-01 9.771685600280761719e-01
2.194000000000000000e+03 3.641231155395507812e+01 1.760943382978439331e-01 4.824702143669128418e-01 1.305646419525146484e+00 5.364349484443664551e-01 1.366062462329864502e-01
2.195000000000000000e+03 7.111309814453125000e+01 1.584945678710937500e+00 -1.622140705585479736e-01 7.968362808227539062e+00 2.341844797134399414e+00 -7.383290678262710571e-02
2.196000000000000000e+03 7.052691650390625000e+01 3.200540840625762939e-01 -1.731644719839096069e-01 7.899102687835693359e+00 2.317781448364257812e+00 -3.212310746312141418e-02
2.197000000000000000e+03 1.120588016510009766e+01 7.923949241638183594e+00 -1.194643303751945496e-01 3.976103305816650391e+00 1.156991720199584961e+00 -2.135232925415039062e+00
2.198000000000000000e+03 3.294903945922851562e+01 3.587075948715209961e+00 8.418770432472229004e-01 6.431158781051635742e-01 4.454978704452514648e-01 3.185622096061706543e-01
2.199000000000000000e+03 1.749047279357910156e+01 1.598449039459228516e+01 -7.506805062294006348e-01 1.025116443634033203e+00 8.233080059289932251e-02 -2.287914007902145386e-01
2.200000000000000000e+03 1.869733428955078125e+01 1.798103523254394531e+01 -7.012635469436645508e-01 8.275285959243774414e-01 3.787951543927192688e-02 -2.974527180194854736e-01
2.201000000000000000e+03 7.120827484130859375e+01 7.090559959411621094e+00 -1.907068938016891479e-01 8.001405715942382812e+00 2.343209505081176758e+00 -2.502713501453399658e-01
2.202000000000000000e+03 7.005952453613281250e+01 -6.091130733489990234e+00 -1.659895032644271851e-01 7.745282173156738281e+00 2.273787975311279297e+00 1.386118978261947632e-01
2.203000000000000000e+03 3.040306472778320312e+01 2.447276115417480469e+00 8.649809360504150391e-01 2.934867441654205322e-01 3.475403189659118652e-01 4.160448610782623291e-01
2.204000000000000000e+03 4.495392608642578125e+01 -1.970394325256347656e+01 -3.143975734710693359e-01 4.049715042114257812e+00 1.120595216751098633e+00 -3.662840425968170166e-01
2.205000000000000000e+03 4.337513351440429688e+01 -1.601485252380371094e+01 -2.695836722850799561e-01 3.387409210205078125e+00 9.353476762771606445e-01 -3.161373138427734375e-01
2.206000000000000000e+03 3.351594161987304688e+01 2.694923162460327148e+00 7.245523929595947266e-01 7.628946304321289062e-01 4.462341070175170898e-01 3.474960923194885254e-01
2.207000000000000000e+03 1.083222007751464844e+01 -2.320409965515136719e+01 -9.692583978176116943e-02 1.334771752357482910e+00 3.713537752628326416e-01 2.312259972095489502e-01
2.208000000000000000e+03 2.506481552124023438e+01 2.878068542480468750e+01 -4.788236916065216064e-01 3.447710769250988960e-03 -1.426127851009368896e-01 -4.036497771739959717e-01
2.209000000000000000e+03 2.452020454406738281e+01 2.605062103271484375e+01 -5.404047966003417969e-01 -6.925656925886869431e-03 -1.641991287469863892e-01 -4.619187712669372559e-01
2.210000000000000000e+03 9.683390617370605469e+00 2.799472045898437500e+01 -2.239656448364257812e-01 2.114858865737915039e+00 5.672679543495178223e-01 -2.925868034362792969e-01
2.211000000000000000e+03 3.850198745727539062e+01 8.053541183471679688e+00 4.951096177101135254e-01 1.638799071311950684e+00 6.401726007461547852e-01 6.370604634284973145e-01
2.212000000000000000e+03 7.200147247314453125e+01 -1.543544483184814453e+01 -7.470899075269699097e-02 7.833183288574218750e+00 2.327542304992675781e+00 2.980279922485351562e-01
2.213000000000000000e+03 2.269452857971191406e+01 -3.350553131103515625e+01 -3.842239826917648315e-02 1.586291432380676270e+00 4.643607139587402344e-01 -2.117766141891479492e-01
2.214000000000000000e+03 2.304583930969238281e+01 -2.606822013854980469e+01 8.027882128953933716e-02 1.944741725921630859e+00 6.075061559677124023e-01 -5.189723968505859375e-01
2.215000000000000000e+03 3.458496475219726562e+01 3.377463579177856445e+00 7.525932192802429199e-01 8.991280794143676758e-01 4.955163896083831787e-01 3.228343725204467773e-01
2.216000000000000000e+03 3.516806030273437500e+01 5.208922863006591797e+00 6.970546245574951172e-01 1.012114524841308594e+00 5.127507448196411133e-01 4.168503880500793457e-01
2.217000000000000000e+03 2.659922599792480469e+01 2.586171531677246094e+01 -5.694867968559265137e-01 -2.440618276596069336e-01 -2.440645843744277954e-01 -5.418213605880737305e-01
2.218000000000000000e+03 6.116869354248046875e+01 3.051506042480468750e+01 1.090736746788024902e+00 9.880056381225585938e+00 3.291237831115722656e+00 -3.724573850631713867e-01
2.219000000000000000e+03 6.924155426025390625e+01 -2.770500946044921875e+01 5.706463754177093506e-02 7.300425052642822266e+00 2.207247018814086914e+00 4.354803562164306641e-01
2.220000000000000000e+03 7.669832229614257812e+00 2.715065193176269531e+01 -1.711577624082565308e-01 2.349241971969604492e+00 6.534252762794494629e-01 -3.039961755275726318e-01
2.221000000000000000e+03 7.422513580322265625e+01 3.021273612976074219e+01 4.131788387894630432e-02 7.199808597564697266e+00 2.172338008880615234e+00 -5.591824054718017578e-01
2.222000000000000000e+03 7.084399414062500000e+01 2.550789642333984375e+01 1.946852728724479675e-02 7.944426536560058594e+00 2.389168500900268555e+00 -7.795866131782531738e-01
2.223000000000000000e+03 2.145657157897949219e+01 2.284262466430664062e+01 -5.446316003799438477e-01 2.720750570297241211e-01 -8.176696300506591797e-02 -3.780168592929840088e-01
2.224000000000000000e+03 7.829507350921630859e+00 -3.618497467041015625e+01 -7.686124742031097412e-02 7.928050160408020020e-01 2.147831171751022339e-01 9.213992208242416382e-02
2.225000000000000000e+03 9.113328933715820312e+00 -3.402910614013671875e+01 -9.619665890932083130e-02 9.204878211021423340e-01 2.472873628139495850e-01 1.066162511706352234e-01
2.226000000000000000e+03 8.636626243591308594e+00 -2.971545410156250000e+01 -9.592395275831222534e-02 8.877279162406921387e-01 2.375411987304687500e-01 1.825899779796600342e-01
2.227000000000000000e+03 4.149436950683593750e+01 -1.863456726074218750e+01 -1.721747964620590210e-01 2.850826025009155273e+00 8.035953640937805176e-01 -4.697920978069305420e-01
2.228000000000000000e+03 1.618224334716796875e+01 1.598206329345703125e+01 -8.153541088104248047e-01 1.455808997154235840e+00 1.921364814043045044e-01 -3.880387246608734131e-01
2.229000000000000000e+03 7.189178466796875000e+01 -2.951520156860351562e+01 6.212595850229263306e-02 7.431182384490966797e+00 2.247992515563964844e+00 3.447648882865905762e-01
2.230000000000000000e+03 8.923506736755371094e+00 2.655123901367187500e+01 -2.292762249708175659e-01 2.153603076934814453e+00 5.772980451583862305e-01 -3.311913609504699707e-01
2.231000000000000000e+03 2.667819404602050781e+01 2.828208732604980469e+01 -5.628615021705627441e-01 -1.885214895009994507e-01 -2.254149019718170166e-01 -4.983020424842834473e-01
2.232000000000000000e+03 1.091333675384521484e+01 -2.767220878601074219e+01 -1.189915165305137634e-01 1.186660766601562500e+00 3.203007876873016357e-01 1.698111146688461304e-01
2.233000000000000000e+03 3.523896408081054688e+01 -5.668014526367187500e+00 1.666707098484039307e-01 1.151638984680175781e+00 3.954929113388061523e-01 -1.061390489339828491e-01
2.234000000000000000e+03 3.410555267333984375e+01 -2.510140419006347656e+00 4.814563393592834473e-01 9.164453744888305664e-01 4.193705022335052490e-01 1.823535561561584473e-02
2.235000000000000000e+03 1.417531013488769531e+01 -4.183404922485351562e+00 5.393547415733337402e-01 3.841107845306396484e+00 1.314138770103454590e+00 1.642062306404113770e+00
2.236000000000000000e+03 1.226735305786132812e+01 -3.990334033966064453e+00 7.380723953247070312e-01 1.027560949325561523e+00 5.296900272369384766e-01 6.025819182395935059e-01
2.237000000000000000e+03 1.515981483459472656e+01 -6.902861595153808594e+00 6.781344860792160034e-02 4.365849494934082031e+00 1.330098867416381836e+00 9.995866566896438599e-02
2.238000000000000000e+03 1.588685607910156250e+01 -6.495586395263671875e+00 -2.339752763509750366e-01 5.217754840850830078e+00 1.495133876800537109e+00 -2.799633145332336426e-01
2.239000000000000000e+03 1.164564418792724609e+01 -4.838957786560058594e+00 6.972970366477966309e-01 1.009291768074035645e+00 5.119766592979431152e-01 4.004778861999511719e-01
2.240000000000000000e+03 1.065865325927734375e+01 -6.332009792327880859e+00 6.354673504829406738e-01 9.704724550247192383e-01 4.817819297313690186e-01 2.359228432178497314e-01
2.241000000000000000e+03 9.345834732055664062e+00 -5.915712833404541016e+00 5.412335395812988281e-01 4.537652730941772461e-01 2.984996438026428223e-01 -4.723291844129562378e-02
2.242000000000000000e+03 8.059160232543945312e+00 7.603320598602294922e+00 8.310667276382446289e-01 1.760625243186950684e+00 7.775076031684875488e-01 -1.970535039901733398e+00
2.243000000000000000e+03 1.243289375305175781e+01 -4.375223636627197266e+00 7.252101898193359375e-01 1.370411515235900879e+00 6.286864876747131348e-01 7.197251915931701660e-01
2.244000000000000000e+03 1.274739170074462891e+01 -4.117728710174560547e+00 8.009837269783020020e-01 1.554833292961120605e+00 7.067451477050781250e-01 8.953963518142700195e-01
2.245000000000000000e+03 8.769322395324707031e+00 -5.962563514709472656e+00 4.604795873165130615e-01 3.458888828754425049e-01 2.419105470180511475e-01 -9.898295253515243530e-02
2.246000000000000000e+03 1.565787410736083984e+01 -7.017237663269042969e+00 2.676871716976165771e-01 4.762751102447509766e+00 1.509131431579589844e+00 -1.345349103212356567e-01
2.247000000000000000e+03 7.413124561309814453e+00 -6.397358894348144531e+00 3.796424269676208496e-01 1.461123675107955933e-01 1.577264368534088135e-01 -2.060375511646270752e-01
2.248000000000000000e+03 7.217118263244628906e+00 -7.480403423309326172e+00 3.900213241577148438e-01 2.143829017877578735e-01 1.813212633132934570e-01 -1.249118000268936157e-01
2.249000000000000000e+03 1.506458759307861328e+01 -7.513689517974853516e+00 2.379406839609146118e-01 4.091687679290771484e+00 1.298888444900512695e+00 1.855879575014114380e-01
2.250000000000000000e+03 1.476849651336669922e+01 -8.421025276184082031e+00 2.877208888530731201e-01 3.672618389129638672e+00 1.188101768493652344e+00 1.793752759695053101e-01
2.251000000000000000e+03 7.215079307556152344e+00 -6.852081775665283203e+00 3.849405050277709961e-01 1.631820499897003174e-01 1.644367724657058716e-01 -1.895459592342376709e-01
2.252000000000000000e+03 9.737742424011230469e+00 8.577073097229003906e+00 6.732627004384994507e-02 2.643297195434570312e+00 8.131870031356811523e-01 -1.935755014419555664e+00
2.253000000000000000e+03 1.065349197387695312e+01 1.160148334503173828e+01 -5.854085683822631836e-01 2.757568597793579102e+00 6.516480445861816406e-01 -1.330488562583923340e+00
2.254000000000000000e+03 7.167800140380859375e+01 -1.579149365425109863e+00 -1.216594800353050232e-01 8.016079902648925781e+00 2.368325948715209961e+00 1.243219710886478424e-02
2.255000000000000000e+03 7.133479309082031250e+01 2.981843709945678711e+00 -1.736852824687957764e-01 8.005657196044921875e+00 2.349591493606567383e+00 -1.229387447237968445e-01
2.256000000000000000e+03 1.511133098602294922e+01 -9.225278854370117188e+00 4.630232155323028564e-01 3.599194526672363281e+00 1.218665361404418945e+00 2.173935808241367340e-02
2.257000000000000000e+03 1.387656688690185547e+01 1.541596412658691406e+01 -8.383548259735107422e-01 1.990823030471801758e+00 3.457404375076293945e-01 -5.611333847045898438e-01
2.258000000000000000e+03 4.806618690490722656e+00 7.167489051818847656e+00 5.741317272186279297e-01 5.967074036598205566e-01 3.512517511844635010e-01 -8.608281016349792480e-01
2.259000000000000000e+03 3.760976028442382812e+01 -4.898012638092041016e+00 1.655001640319824219e-01 1.675188302993774414e+00 5.522065162658691406e-01 -6.105979159474372864e-02
2.260000000000000000e+03 7.005399322509765625e+01 4.469908714294433594e+00 -2.216630876064300537e-01 7.886566638946533203e+00 2.299471139907836914e+00 -1.656680107116699219e-01
2.261000000000000000e+03 6.932867431640625000e+01 -4.987290859222412109e+00 -1.744982898235321045e-01 7.673959732055664062e+00 2.249838352203369141e+00 1.233457028865814209e-01
2.262000000000000000e+03 7.111005401611328125e+01 -3.926260709762573242e+00 -1.287536323070526123e-01 7.922126770019531250e+00 2.338011980056762695e+00 7.670611888170242310e-02
2.263000000000000000e+03 3.764050292968750000e+01 -9.088248759508132935e-02 4.346113801002502441e-01 1.636783719062805176e+00 6.214185357093811035e-01 1.995321065187454224e-01
2.264000000000000000e+03 3.508703613281250000e+01 2.277728319168090820e+00 6.392210721969604492e-01 1.043302297592163086e+00 5.047570466995239258e-01 2.982262670993804932e-01
2.265000000000000000e+03 1.505245876312255859e+01 -1.079814243316650391e+01 4.229160249233245850e-01 3.316126108169555664e+00 1.121712684631347656e+00 7.195773720741271973e-02
2.266000000000000000e+03 3.807257461547851562e+01 -6.057089328765869141e+00 1.172319948673248291e-01 1.812080144882202148e+00 5.787936449050903320e-01 -1.100013181567192078e-01
2.267000000000000000e+03 7.760838031768798828e+00 8.357605934143066406e+00 5.230890512466430664e-01 1.571042418479919434e+00 6.282394528388977051e-01 -1.696746230125427246e+00
2.268000000000000000e+03 3.588232421875000000e+01 -3.958529472351074219e+00 2.786559164524078369e-01 1.275116562843322754e+00 4.661317467689514160e-01 -5.065776035189628601e-02
2.269000000000000000e+03 7.182201862335205078e+00 -8.911176681518554688e+00 3.961812555789947510e-01 3.236540853977203369e-01 2.159506082534790039e-01 -3.625520970672369003e-03
2.270000000000000000e+03 7.234493732452392578e+00 -9.772554397583007812e+00 4.079021215438842773e-01 3.776732981204986572e-01 2.356726229190826416e-01 5.159642174839973450e-02
2.271000000000000000e+03 7.062335205078125000e+01 -1.162286758422851562e+01 -1.148894205689430237e-01 7.761319160461425781e+00 2.293928861618041992e+00 2.538574635982513428e-01
2.272000000000000000e+03 7.070716094970703125e+01 -1.289324855804443359e+01 -1.132624894380569458e-01 7.748469829559326172e+00 2.290562152862548828e+00 2.781586349010467529e-01
2.273000000000000000e+03 7.018572998046875000e+01 -2.412237882614135742e+00 -1.652559787034988403e-01 7.805899143218994141e+00 2.292192935943603516e+00 4.250373318791389465e-02
2.274000000000000000e+03 7.018082427978515625e+01 -1.547124385833740234e+01 -1.069367974996566772e-01 7.637382507324218750e+00 2.259133815765380859e+00 3.367681205272674561e-01
2.275000000000000000e+03 7.043463134765625000e+01 1.293588066101074219e+01 -2.743254899978637695e-01 7.991728305816650391e+00 2.315220832824707031e+00 -4.789817929267883301e-01
2.276000000000000000e+03 6.936829376220703125e+01 -2.305961418151855469e+01 -2.039736136794090271e-02 7.405833244323730469e+00 2.215630769729614258e+00 4.420511722564697266e-01
2.277000000000000000e+03 7.062199401855468750e+01 -1.716783714294433594e+01 -8.037190884351730347e-02 7.646365642547607422e+00 2.269798040390014648e+00 3.513202369213104248e-01
2.278000000000000000e+03 7.009264373779296875e+01 -1.823783302307128906e+01 -7.921327650547027588e-02 7.559148788452148438e+00 2.243980646133422852e+00 3.789162337779998779e-01
2.279000000000000000e+03 7.144160461425781250e+01 9.984861373901367188e+00 -1.905262917280197144e-01 8.020866394042968750e+00 2.349102020263671875e+00 -3.548899292945861816e-01
2.280000000000000000e+03 9.741276741027832031e+00 7.469569206237792969e+00 6.391842961311340332e-01 2.939623594284057617e+00 1.073642373085021973e+00 -2.456214427947998047e+00
2.281000000000000000e+03 1.037450981140136719e+01 1.016807365417480469e+01 -3.506006002426147461e-01 2.878062963485717773e+00 7.582387328147888184e-01 -1.643175840377807617e+00
2.282000000000000000e+03 7.009541320800781250e+01 2.432504081726074219e+01 1.827798411250114441e-02 7.984575271606445312e+00 2.400856018066406250e+00 -8.456059098243713379e-01
2.283000000000000000e+03 4.476544189453125000e+01 1.562935066223144531e+01 3.053875565528869629e-01 3.086709737777709961e+00 1.017629265785217285e+00 1.251282453536987305e+00
2.284000000000000000e+03 4.359414672851562500e+01 1.449269390106201172e+01 3.379782736301422119e-01 2.716450214385986328e+00 9.163285493850708008e-01 1.142147183418273926e+00
2.285000000000000000e+03 4.574878311157226562e+01 1.590945911407470703e+01 2.653150260448455811e-01 3.460883378982543945e+00 1.117859482765197754e+00 1.334987759590148926e+00
2.286000000000000000e+03 4.884769439697265625e+01 1.808353424072265625e+01 1.187997013330459595e-01 4.652402400970458984e+00 1.431360602378845215e+00 1.536960363388061523e+00
2.287000000000000000e+03 1.006669998168945312e+01 2.578292083740234375e+01 -2.933596670627593994e-01 2.055791378021240234e+00 5.287294983863830566e-01 -3.698372542858123779e-01
2.288000000000000000e+03 1.098540401458740234e+01 2.696839332580566406e+01 -2.842504978179931641e-01 1.894390821456909180e+00 4.830421209335327148e-01 -3.391844332218170166e-01
2.289000000000000000e+03 1.425918197631835938e+01 2.527389717102050781e+01 -4.395157098770141602e-01 1.508545994758605957e+00 3.207091093063354492e-01 -3.571671247482299805e-01
2.290000000000000000e+03 1.128990840911865234e+01 1.312811756134033203e+01 -7.310546040534973145e-01 2.574396610260009766e+00 5.530026555061340332e-01 -1.019186019897460938e+00
2.291000000000000000e+03 1.805011177062988281e+01 -2.088747024536132812e+01 -6.002287566661834717e-02 2.327413558959960938e+00 6.802171468734741211e-01 -2.836945354938507080e-01
2.292000000000000000e+03 8.917962074279785156e+00 -8.301457405090332031e+00 5.505536794662475586e-01 6.661040186882019043e-01 3.649972975254058838e-01 1.019266396760940552e-01
2.293000000000000000e+03 7.706551551818847656e+00 -1.191993713378906250e+01 3.272027373313903809e-01 6.326388120651245117e-01 2.879524528980255127e-01 1.853155940771102905e-01
2.294000000000000000e+03 9.095163345336914062e+00 -1.329259490966796875e+01 2.729247808456420898e-01 1.040192008018493652e+00 3.939350247383117676e-01 2.720442414283752441e-01
2.295000000000000000e+03 3.284037017822265625e+01 -1.008379817008972168e+00 6.932178735733032227e-01 6.387793421745300293e-01 3.995991647243499756e-01 1.069227606058120728e-01
2.296000000000000000e+03 8.585345268249511719e+00 1.822455406188964844e+01 -4.948418438434600830e-01 2.185413599014282227e+00 5.071715116500854492e-01 -7.482711672782897949e-01
2.297000000000000000e+03 9.762224197387695312e+00 1.690081214904785156e+01 -6.103322505950927734e-01 2.182932376861572266e+00 4.717800319194793701e-01 -8.075470924377441406e-01
2.298000000000000000e+03 6.861506462097167969e+00 2.156959915161132812e+01 -2.552464306354522705e-01 2.315947771072387695e+00 6.182103753089904785e-01 -5.617867708206176758e-01
2.299000000000000000e+03 4.266592407226562500e+01 -1.796166610717773438e+01 -2.185923904180526733e-01 3.223190546035766602e+00 9.013794064521789551e-01 -4.148777723312377930e-01
2.300000000000000000e+03 7.236200332641601562e+00 -2.187228202819824219e+01 -2.835505455732345581e-02 7.335194945335388184e-01 2.115493267774581909e-01 2.993882298469543457e-01
2.301000000000000000e+03 8.645009040832519531e+00 -1.830685806274414062e+01 2.881950698792934418e-02 1.002637386322021484e+00 3.094370663166046143e-01 3.242750763893127441e-01
2.302000000000000000e+03 3.922955703735351562e+01 -8.321408271789550781e+00 -2.718136273324489594e-02 2.138082742691040039e+00 6.332704424858093262e-01 -1.735014170408248901e-01
2.303000000000000000e+03 8.821710586547851562e+00 -6.693975448608398438e+00 5.339445471763610840e-01 4.536625742912292480e-01 2.962821424007415771e-01 -4.168605059385299683e-02
2.304000000000000000e+03 9.702382087707519531e+00 -9.227005958557128906e+00 5.468068718910217285e-01 1.016464591026306152e+00 4.689814448356628418e-01 2.330257594585418701e-01
2.305000000000000000e+03 7.145353698730468750e+01 -5.015842318534851074e-01 -1.520744264125823975e-01 7.988167285919189453e+00 2.350827932357788086e+00 -2.344681136310100555e-02
2.306000000000000000e+03 7.080627441406250000e+01 2.114721488952636719e+01 -1.380325108766555786e-01 7.991181850433349609e+00 2.355944871902465820e+00 -7.994650602340698242e-01
2.307000000000000000e+03 7.176898956298828125e+01 1.959494018554687500e+01 -1.629936993122100830e-01 7.925570964813232422e+00 2.328773260116577148e+00 -7.441712617874145508e-01
2.308000000000000000e+03 4.287391662597656250e+01 1.103405094146728516e+01 3.222044408321380615e-01 2.680062532424926758e+00 9.006800651550292969e-01 9.435037374496459961e-01
2.309000000000000000e+03 4.118901062011718750e+01 8.730867385864257812e+00 3.861342072486877441e-01 2.267735958099365234e+00 7.961610555648803711e-01 7.577508687973022461e-01
2.310000000000000000e+03 7.313062191009521484e+00 9.200492858886718750e+00 4.192308783531188965e-01 1.696219086647033691e+00 6.346350312232971191e-01 -1.715839743614196777e+00
2.311000000000000000e+03 3.832333374023437500e+01 5.998533248901367188e+00 4.951722919940948486e-01 1.649009466171264648e+00 6.432545185089111328e-01 5.360986590385437012e-01
2.312000000000000000e+03 4.181155395507812500e+01 -1.307391834259033203e+01 -2.005341500043869019e-01 2.865321397781372070e+00 7.994362115859985352e-01 -2.571253478527069092e-01
2.313000000000000000e+03 7.010746765136718750e+01 5.660678386688232422e+00 -2.036414146423339844e-01 7.899195671081542969e+00 2.308666229248046875e+00 -1.847074925899505615e-01
2.314000000000000000e+03 6.784819030761718750e+01 -2.226625061035156250e+01 -4.411657527089118958e-02 7.299885272979736328e+00 2.176730632781982422e+00 4.607457816600799561e-01
2.315000000000000000e+03 1.630507659912109375e+01 -2.084045791625976562e+01 -8.992037177085876465e-02 2.192778825759887695e+00 6.308575868606567383e-01 -1.171018779277801514e-01
2.316000000000000000e+03 8.807544708251953125e+00 1.174143886566162109e+01 -3.891188800334930420e-01 2.338671445846557617e+00 5.848657488822937012e-01 -1.400609374046325684e+00
2.317000000000000000e+03 7.525670528411865234e+00 1.054121589660644531e+01 2.211299538612365723e-02 2.000144243240356445e+00 6.066771745681762695e-01 -1.588031649589538574e+00
2.318000000000000000e+03 8.919876098632812500e+00 2.092642784118652344e+01 -4.444405436515808105e-01 2.225754737854003906e+00 5.343942642211914062e-01 -6.163727045059204102e-01
2.319000000000000000e+03 7.045748901367187500e+01 1.426882934570312500e+01 -2.352815121412277222e-01 7.997171878814697266e+00 2.328567266464233398e+00 -5.220666527748107910e-01
2.320000000000000000e+03 1.871471977233886719e+01 2.155452537536621094e+01 -6.301728487014770508e-01 7.486524581909179688e-01 3.554388508200645447e-02 -4.022836089134216309e-01
2.321000000000000000e+03 4.976458740234375000e+01 -2.777335166931152344e+01 9.351289272308349609e-02 5.997353553771972656e+00 1.827259898185729980e+00 1.488957405090332031e-01
2.322000000000000000e+03 5.101213836669921875e+01 -2.293135643005371094e+01 -2.717987596988677979e-01 5.693747520446777344e+00 1.626584529876708984e+00 1.414118409156799316e-01
2.323000000000000000e+03 8.829807281494140625e+00 -2.300881958007812500e+01 -6.075977906584739685e-02 9.896997213363647461e-01 2.786819934844970703e-01 2.730118930339813232e-01
2.324000000000000000e+03 3.640278625488281250e+01 -5.237536430358886719e+00 2.195416241884231567e-01 1.402425885200500488e+00 4.865902364253997803e-01 -1.063479781150817871e-01
2.325000000000000000e+03 5.437519454956054688e+01 2.668262290954589844e+01 2.974454760551452637e-01 9.028423309326171875e+00 2.797760725021362305e+00 2.041362285614013672e+00
2.326000000000000000e+03 6.136635208129882812e+01 2.847309112548828125e+01 5.995398759841918945e-01 9.620933532714843750e+00 3.066141843795776367e+00 -3.407672345638275146e-01
2.327000000000000000e+03 4.916567230224609375e+01 1.672743606567382812e+01 1.109313592314720154e-02 4.774650573730468750e+00 1.435723066329956055e+00 1.399474024772644043e+00
2.328000000000000000e+03 4.999616622924804688e+01 1.944058418273925781e+01 9.434041380882263184e-02 5.246388912200927734e+00 1.602218747138977051e+00 1.672271728515625000e+00
2.329000000000000000e+03 1.347522830963134766e+01 2.976206779479980469e+01 -2.785475552082061768e-01 1.562994241714477539e+00 3.853340148925781250e-01 -2.724324762821197510e-01
2.330000000000000000e+03 3.928330612182617188e+01 7.106521606445312500e+00 4.846649765968322754e-01 1.868223547935485840e+00 7.058665752410888672e-01 6.077734231948852539e-01
2.331000000000000000e+03 5.094730377197265625e+01 -2.560354042053222656e+01 -1.207202449440956116e-01 5.901875495910644531e+00 1.734346628189086914e+00 2.113514840602874756e-01
2.332000000000000000e+03 4.790060806274414062e+01 -2.379946517944335938e+01 -2.516374289989471436e-01 5.258162498474121094e+00 1.501957535743713379e+00 -1.795554310083389282e-01
2.333000000000000000e+03 1.631574630737304688e+01 1.484453773498535156e+01 -7.974702715873718262e-01 1.452185750007629395e+00 1.964146494865417480e-01 -2.330855280160903931e-01
2.334000000000000000e+03 1.680056190490722656e+01 1.912443733215332031e+01 -6.923903226852416992e-01 1.194212198257446289e+00 1.505465805530548096e-01 -3.363869786262512207e-01
2.335000000000000000e+03 4.277867889404296875e+01 -1.445527076721191406e+01 -2.779603302478790283e-01 3.161967754364013672e+00 8.652022480964660645e-01 -2.711161673069000244e-01
2.336000000000000000e+03 7.181099700927734375e+01 2.088669967651367188e+01 -8.339602500200271606e-02 7.889551162719726562e+00 2.341846466064453125e+00 -7.156616449356079102e-01
2.337000000000000000e+03 1.820158195495605469e+01 -2.280018424987792969e+01 -7.498953491449356079e-02 2.122156858444213867e+00 6.141501665115356445e-01 -2.552665174007415771e-01
2.338000000000000000e+03 2.099077606201171875e+01 -2.682852554321289062e+01 -1.292663440108299255e-02 1.889540314674377441e+00 5.629841089248657227e-01 -3.531620204448699951e-01
2.339000000000000000e+03 7.060047149658203125e+01 1.979886627197265625e+01 -1.570789068937301636e-01 8.007243156433105469e+00 2.355049371719360352e+00 -7.248043417930603027e-01
2.340000000000000000e+03 6.984413909912109375e+01 -2.024017906188964844e+01 -6.665161997079849243e-02 7.508634090423583984e+00 2.232594728469848633e+00 4.108053743839263916e-01
2.341000000000000000e+03 3.200175476074218750e+01 2.761170148849487305e+00 7.803501486778259277e-01 5.264229178428649902e-01 3.920319378376007080e-01 3.746289014816284180e-01
2.342000000000000000e+03 3.396086502075195312e+01 1.668702483177185059e+00 7.811633348464965820e-01 7.752034068107604980e-01 4.669100344181060791e-01 2.100824564695358276e-01
2.343000000000000000e+03 7.084485626220703125e+01 -3.115223693847656250e+01 9.910219907760620117e-02 7.329943180084228516e+00 2.228713512420654297e+00 3.545809984207153320e-01
2.344000000000000000e+03 1.969873046875000000e+01 -2.586317062377929688e+01 -5.587027221918106079e-02 1.955628633499145508e+00 5.699275135993957520e-01 -3.059572577476501465e-01
2.345000000000000000e+03 2.011218452453613281e+01 -2.840645217895507812e+01 -6.858266144990921021e-02 1.797533988952636719e+00 5.186854004859924316e-01 -2.472668588161468506e-01
2.346000000000000000e+03 7.167745971679687500e+01 1.548217105865478516e+01 -1.758899837732315063e-01 8.002016067504882812e+00 2.347837686538696289e+00 -5.650568008422851562e-01
2.347000000000000000e+03 2.557035636901855469e+01 2.480404853820800781e+01 -5.708799362182617188e-01 -2.277657389640808105e-01 -2.395936995744705200e-01 -5.233713984489440918e-01
2.348000000000000000e+03 7.185022735595703125e+01 -1.420195388793945312e+01 -8.868946880102157593e-02 7.843799114227294922e+00 2.326533079147338867e+00 2.810968458652496338e-01
2.349000000000000000e+03 1.139604949951171875e+01 -9.482686996459960938e+00 5.493483543395996094e-01 1.630903363227844238e+00 6.540755629539489746e-01 3.451094329357147217e-01
2.350000000000000000e+03 7.286431121826171875e+01 3.122301673889160156e+01 1.240752041339874268e-01 7.444265842437744141e+00 2.270502328872680664e+00 -5.716059803962707520e-01
2.351000000000000000e+03 7.020187377929687500e+01 2.800845718383789062e+01 1.862157583236694336e-01 8.019110679626464844e+00 2.461597919464111328e+00 -7.412559986114501953e-01
2.352000000000000000e+03 1.894750976562500000e+01 -2.989672851562500000e+01 -1.091929748654365540e-01 1.671368718147277832e+00 4.686527252197265625e-01 -1.488284617662429810e-01
2.353000000000000000e+03 7.132320404052734375e+01 -2.706537055969238281e+01 3.596252948045730591e-02 7.470007896423339844e+00 2.251791238784790039e+00 3.840796947479248047e-01
2.354000000000000000e+03 6.844544982910156250e+01 -2.437176132202148438e+01 8.920139633119106293e-03 7.312479496002197266e+00 2.196419954299926758e+00 4.532171487808227539e-01
2.355000000000000000e+03 6.955435943603515625e+01 -9.262381553649902344e+00 -1.501742303371429443e-01 7.661469459533691406e+00 2.253388404846191406e+00 2.182398736476898193e-01
2.356000000000000000e+03 7.034270477294921875e+01 1.162827968597412109e+01 -2.400009036064147949e-01 7.972559928894042969e+00 2.319767713546752930e+00 -4.116666316986083984e-01
2.357000000000000000e+03 7.014492034912109375e+01 1.033356189727783203e+01 -2.651629149913787842e-01 7.958158969879150391e+00 2.307898759841918945e+00 -3.704358637332916260e-01
2.358000000000000000e+03 9.758882522583007812e+00 -3.202433395385742188e+01 -1.096655502915382385e-01 9.910725355148315430e-01 2.644220888614654541e-01 1.453982889652252197e-01
2.359000000000000000e+03 9.074790954589843750e+00 -2.807654762268066406e+01 -9.684877097606658936e-02 9.531687498092651367e-01 2.568959891796112061e-01 1.993514895439147949e-01
2.360000000000000000e+03 1.207356739044189453e+01 2.575794982910156250e+01 -3.654425144195556641e-01 1.801007747650146484e+00 4.306695461273193359e-01 -3.657620549201965332e-01
2.361000000000000000e+03 6.240503692626953125e+01 3.160162734985351562e+01 1.223661065101623535e+00 9.809520721435546875e+00 3.309954404830932617e+00 -1.258745938539505005e-01
2.362000000000000000e+03 7.108377075195312500e+01 2.934579658508300781e+01 2.363128811120986938e-01 7.748950481414794922e+00 2.395579099655151367e+00 -7.426573634147644043e-01
2.363000000000000000e+03 3.629537200927734375e+01 3.021247386932373047e+00 6.427166461944580078e-01 1.231614351272583008e+00 5.622993111610412598e-01 3.273629844188690186e-01
2.364000000000000000e+03 3.711325836181640625e+01 4.968656539916992188e+00 5.980219841003417969e-01 1.406897783279418945e+00 6.014759540557861328e-01 4.431754648685455322e-01
2.365000000000000000e+03 1.235684680938720703e+01 1.341872119903564453e+01 -9.572871327400207520e-01 2.563778400421142578e+00 4.819473922252655029e-01 -7.757783532142639160e-01
2.366000000000000000e+03 3.139096069335937500e+01 3.113209152221679688e+01 -6.586107611656188965e-01 -5.244536995887756348e-01 -3.549193441867828369e-01 -5.707899332046508789e-01
2.367000000000000000e+03 2.053911972045898438e+01 -3.587694168090820312e+01 -1.117052584886550903e-01 1.524363160133361816e+00 4.237973690032958984e-01 -9.248048067092895508e-02
2.368000000000000000e+03 1.100073146820068359e+01 2.480696487426757812e+01 -3.577119112014770508e-01 1.886653780937194824e+00 4.586825370788574219e-01 -4.142452478408813477e-01
2.369000000000000000e+03 6.990172863006591797e+00 -2.053319549560546875e+01 -2.911337837576866150e-02 6.569132804870605469e-01 1.883399784564971924e-01 2.911201119422912598e-01
2.370000000000000000e+03 1.399068832397460938e+01 -5.750005245208740234e+00 3.137001693248748779e-01 3.509682893753051758e+00 1.147014975547790527e+00 8.356615304946899414e-01
2.371000000000000000e+03 1.426066207885742188e+01 -6.519730567932128906e+00 2.856819033622741699e-01 3.633995771408081055e+00 1.175903320312500000e+00 4.991083443164825439e-01
2.372000000000000000e+03 1.317066669464111328e+01 -4.261693954467773438e+00 7.890386581420898438e-01 2.071429491043090820e+00 8.581404089927673340e-01 1.057322621345520020e+00
2.373000000000000000e+03 1.490535926818847656e+01 -4.198094844818115234e+00 1.272867992520332336e-02 5.733180522918701172e+00 1.723772644996643066e+00 1.677573919296264648e+00
2.374000000000000000e+03 1.093604564666748047e+01 -5.557826995849609375e+00 6.304812431335449219e-01 8.961229324340820312e-01 4.579812586307525635e-01 2.401670366525650024e-01
2.375000000000000000e+03 1.138437843322753906e+01 -5.387061119079589844e+00 7.251080274581909180e-01 1.096330165863037109e+00 5.464314818382263184e-01 3.621371388435363770e-01
2.376000000000000000e+03 1.451023292541503906e+01 -7.709780693054199219e+00 4.025156795978546143e-01 3.597559213638305664e+00 1.200022459030151367e+00 2.567888498306274414e-01
2.377000000000000000e+03 1.530603313446044922e+01 -8.020652770996093750e+00 4.208644032478332520e-01 4.068677425384521484e+00 1.346862554550170898e+00 1.176597084850072861e-02
2.378000000000000000e+03 1.517681503295898438e+01 -5.576869964599609375e+00 -2.342879623174667358e-01 5.431485652923583984e+00 1.559159398078918457e+00 5.606721639633178711e-01
2.379000000000000000e+03 1.038683032989501953e+01 -7.279445648193359375e+00 6.155033707618713379e-01 1.025204896926879883e+00 4.922125041484832764e-01 2.377051413059234619e-01
2.380000000000000000e+03 8.020728111267089844e+00 -7.504704475402832031e+00 4.910433292388916016e-01 3.637149631977081299e-01 2.564274966716766357e-01 -5.189751088619232178e-02
2.381000000000000000e+03 1.429307460784912109e+01 -7.086483001708984375e+00 2.044332474470138550e-01 3.647724628448486328e+00 1.155647397041320801e+00 4.950866699218750000e-01
2.382000000000000000e+03 6.186865329742431641e+00 7.660760879516601562e+00 5.835523009300231934e-01 9.702196121215820312e-01 4.661315679550170898e-01 -1.234821557998657227e+00
2.383000000000000000e+03 7.824457645416259766e+00 -6.869767665863037109e+00 4.278529286384582520e-01 2.842158973217010498e-01 2.136206477880477905e-01 -1.229209974408149719e-01
2.384000000000000000e+03 6.449274539947509766e+00 -7.302860736846923828e+00 3.397834897041320801e-01 7.392304390668869019e-02 1.241119578480720520e-01 -1.919182986021041870e-01
2.385000000000000000e+03 1.450827598571777344e+01 -4.602147102355957031e+00 1.137739419937133789e-01 4.461253643035888672e+00 1.372508168220520020e+00 1.369694232940673828e+00
2.386000000000000000e+03 6.729372406005859375e+01 3.444518804550170898e+00 -2.807308733463287354e-01 7.584399223327636719e+00 2.191100358963012695e+00 -6.942604482173919678e-02
2.387000000000000000e+03 6.860556793212890625e+01 3.437971353530883789e+00 -2.639731466770172119e-01 7.703639984130859375e+00 2.231899976730346680e+00 -1.032235920429229736e-01
2.388000000000000000e+03 9.562052726745605469e+00 -1.009440994262695312e+01 5.083474516868591309e-01 1.055830597877502441e+00 4.692534208297729492e-01 2.660239636898040771e-01
2.389000000000000000e+03 6.826361083984375000e+01 -3.017624616622924805e+00 -2.172394841909408569e-01 7.566435813903808594e+00 2.204758882522583008e+00 8.231531828641891479e-02
2.390000000000000000e+03 6.755644226074218750e+01 -6.708020210266113281e+00 -2.047256827354431152e-01 7.455986976623535156e+00 2.175378322601318359e+00 1.804126650094985962e-01
2.391000000000000000e+03 3.294432067871093750e+01 1.302006006240844727e+00 7.785733938217163086e-01 6.761993765830993652e-01 4.364318251609802246e-01 2.670887708663940430e-01
2.392000000000000000e+03 1.429314613342285156e+01 -1.412063026428222656e+01 2.482720762491226196e-01 2.556831836700439453e+00 8.415311574935913086e-01 1.259785890579223633e-01
2.393000000000000000e+03 4.380109786987304688e+01 1.293192195892333984e+01 3.010889291763305664e-01 2.882481575012207031e+00 9.550710916519165039e-01 1.078378200531005859e+00
2.394000000000000000e+03 1.121336364746093750e+01 1.049621963500976562e+01 -8.333131074905395508e-01 3.259518623352050781e+00 7.278616428375244141e-01 -1.332690596580505371e+00
2.395000000000000000e+03 1.177023601531982422e+01 1.190553951263427734e+01 -9.713098406791687012e-01 2.914697408676147461e+00 5.830162167549133301e-01 -9.701705574989318848e-01
2.396000000000000000e+03 6.954548645019531250e+01 -1.188583087921142578e+01 -1.443783789873123169e-01 7.622452735900878906e+00 2.243422269821166992e+00 2.729340195655822754e-01
2.397000000000000000e+03 6.913155364990234375e+01 1.194926643371582031e+01 -3.202582299709320068e-01 7.927904605865478516e+00 2.282293796539306641e+00 -4.246535897254943848e-01
2.398000000000000000e+03 5.531786346435546875e+01 2.127551269531250000e+01 -3.409568667411804199e-01 7.604928970336914062e+00 2.179191589355468750e+00 1.122597336769104004e+00
2.399000000000000000e+03 5.429074859619140625e+01 2.022856330871582031e+01 -3.414005041122436523e-01 7.082714080810546875e+00 2.022394180297851562e+00 1.185383081436157227e+00
2.400000000000000000e+03 1.361166858673095703e+01 -1.498994255065917969e+01 1.220320537686347961e-01 2.287189960479736328e+00 7.227666378021240234e-01 1.705852299928665161e-01
2.401000000000000000e+03 3.918664169311523438e+01 -5.717363834381103516e+00 6.353303790092468262e-02 2.082407474517822266e+00 6.437821388244628906e-01 -6.279657036066055298e-02
2.402000000000000000e+03 3.725757980346679688e+01 -3.712388515472412109e+00 2.730801105499267578e-01 1.579111933708190918e+00 5.556576251983642578e-01 -3.578960150480270386e-02
2.403000000000000000e+03 1.503858757019042969e+01 -1.785739326477050781e+01 7.712080841884016991e-04 2.299592494964599609e+00 6.901090741157531738e-01 2.925360389053821564e-02
2.404000000000000000e+03 6.943895721435546875e+01 2.009085273742675781e+01 -2.217723131179809570e-01 8.076852798461914062e+00 2.356524229049682617e+00 -7.578245997428894043e-01
2.405000000000000000e+03 6.918018341064453125e+01 -1.775629425048828125e+01 -1.028082296252250671e-01 7.493015289306640625e+00 2.217062234878540039e+00 3.952526450157165527e-01
2.406000000000000000e+03 1.082528781890869141e+01 1.629708862304687500e+01 -6.839816570281982422e-01 2.273351907730102539e+00 4.768110513687133789e-01 -8.439676761627197266e-01
2.407000000000000000e+03 1.085406208038330078e+01 1.439415740966796875e+01 -8.139931559562683105e-01 2.451963901519775391e+00 4.913912117481231689e-01 -9.307809472084045410e-01
2.408000000000000000e+03 3.789727401733398438e+01 2.533871650695800781e+00 5.387621521949768066e-01 1.588708639144897461e+00 6.382412314414978027e-01 3.195785284042358398e-01
2.409000000000000000e+03 4.485271072387695312e+01 1.453203964233398438e+01 2.749261558055877686e-01 3.190998077392578125e+00 1.039777278900146484e+00 1.201718211174011230e+00
2.410000000000000000e+03 4.682568359375000000e+01 1.622967529296875000e+01 1.769143790006637573e-01 3.879986763000488281e+00 1.217070341110229492e+00 1.367453575134277344e+00
2.411000000000000000e+03 4.712577438354492188e+01 1.501486778259277344e+01 1.328381001949310303e-01 3.976839542388916016e+00 1.232903242111206055e+00 1.290402173995971680e+00
2.412000000000000000e+03 9.721989631652832031e+00 1.102892303466796875e+01 -5.755902528762817383e-01 2.836597681045532227e+00 6.783022284507751465e-01 -1.510079264640808105e+00
2.413000000000000000e+03 3.429279327392578125e+01 4.513295292854309082e-01 6.410211920738220215e-01 9.288165569305419922e-01 4.709513187408447266e-01 1.949444711208343506e-01
2.414000000000000000e+03 3.949066925048828125e+01 5.219667434692382812e+00 4.859199225902557373e-01 1.935003757476806641e+00 7.262771129608154297e-01 5.305390954017639160e-01
2.415000000000000000e+03 4.039515304565429688e+01 -7.901770591735839844e+00 -8.098407834768295288e-02 2.430473089218139648e+00 7.048467397689819336e-01 -1.183523312211036682e-01
2.416000000000000000e+03 4.240457916259765625e+01 -8.566687583923339844e+00 -1.631526648998260498e-01 2.922491073608398438e+00 8.278015851974487305e-01 -1.135813668370246887e-01
2.417000000000000000e+03 9.756733894348144531e+00 -2.428500175476074219e+01 -9.479593485593795776e-02 1.107591390609741211e+00 3.038386106491088867e-01 2.375692874193191528e-01
2.418000000000000000e+03 8.297807693481445312e+00 -2.027907180786132812e+01 -2.417652681469917297e-02 9.277644157409667969e-01 2.710763514041900635e-01 3.102006912231445312e-01
2.419000000000000000e+03 7.120201110839843750e+01 8.551955223083496094e+00 -2.245805710554122925e-01 8.005068778991699219e+00 2.334146261215209961e+00 -3.068127632141113281e-01
2.420000000000000000e+03 6.859864044189453125e+01 4.702284812927246094e+00 -2.611911296844482422e-01 7.736686706542968750e+00 2.242648601531982422e+00 -1.348299831151962280e-01
2.421000000000000000e+03 6.733656311035156250e+01 -2.524859237670898438e+01 2.027515694499015808e-02 7.206770896911621094e+00 2.168113708496093750e+00 4.771717488765716553e-01
2.422000000000000000e+03 8.064578056335449219e+00 -8.244448661804199219e+00 4.687502384185791016e-01 4.691516458988189697e-01 2.813705801963806152e-01 1.421024464070796967e-02
2.423000000000000000e+03 8.395009040832519531e+00 -1.048627758026123047e+01 4.526214003562927246e-01 7.346417307853698730e-01 3.561789393424987793e-01 1.840398460626602173e-01
2.424000000000000000e+03 3.974233627319335938e+01 -9.479750633239746094e+00 -1.162650510668754578e-01 2.250850677490234375e+00 6.403757333755493164e-01 -1.785593032836914062e-01
2.425000000000000000e+03 9.120946884155273438e+00 -1.458148002624511719e+01 2.230241149663925171e-01 1.104949712753295898e+00 3.983921408653259277e-01 3.169174194335937500e-01
2.426000000000000000e+03 1.398507499694824219e+01 -1.266978549957275391e+01 3.414202034473419189e-01 2.600950956344604492e+00 8.827113509178161621e-01 1.816075295209884644e-01
2.427000000000000000e+03 6.886806488037109375e+01 2.498702430725097656e+01 -4.396178293973207474e-03 8.201692581176757812e+00 2.459188938140869141e+00 -8.221741318702697754e-01
2.428000000000000000e+03 6.845918273925781250e+01 2.188105010986328125e+01 -1.792320758104324341e-01 8.189007759094238281e+00 2.402932882308959961e+00 -7.913969755172729492e-01
2.429000000000000000e+03 5.472169113159179688e+01 2.240312767028808594e+01 -2.608596682548522949e-01 7.654975414276123047e+00 2.218234777450561523e+00 1.317505836486816406e+00
2.430000000000000000e+03 5.628418350219726562e+01 2.429243659973144531e+01 -2.572906613349914551e-01 8.697834968566894531e+00 2.532163381576538086e+00 9.437042474746704102e-01
2.431000000000000000e+03 7.070297241210937500e+01 -1.333447813987731934e+00 -1.643647700548171997e-01 7.880853652954101562e+00 2.314946651458740234e+00 9.713741950690746307e-03
2.432000000000000000e+03 1.409546470642089844e+01 -1.044413471221923828e+01 3.635606467723846436e-01 2.887300968170166016e+00 9.752585291862487793e-01 1.813672780990600586e-01
2.433000000000000000e+03 7.049578857421875000e+01 -8.084953308105468750e+00 -1.370786726474761963e-01 7.787401199340820312e+00 2.295096874237060547e+00 1.805328428745269775e-01
2.434000000000000000e+03 6.928635406494140625e+01 -1.090725421905517578e+01 -1.490307301282882690e-01 7.604577541351318359e+00 2.236664056777954102e+00 2.593360543251037598e-01
2.435000000000000000e+03 5.534158706665039062e+01 2.629039955139160156e+01 1.580807566642761230e-01 8.958272933959960938e+00 2.734906196594238281e+00 1.398620486259460449e+00
2.436000000000000000e+03 5.378990173339843750e+01 2.556470489501953125e+01 1.937606036663055420e-01 8.131134986877441406e+00 2.497468709945678711e+00 1.919112324714660645e+00
2.437000000000000000e+03 6.978958129882812500e+01 6.813876152038574219e+00 -2.620190680027008057e-01 7.871819496154785156e+00 2.282940149307250977e+00 -2.405300587415695190e-01
2.438000000000000000e+03 6.925353240966796875e+01 1.316832160949707031e+01 -2.867621481418609619e-01 7.945895671844482422e+00 2.297739982604980469e+00 -4.576599895954132080e-01
2.439000000000000000e+03 9.200521469116210938e+00 -1.592970943450927734e+01 1.194451749324798584e-01 1.133905649185180664e+00 3.760052323341369629e-01 2.950566112995147705e-01
2.440000000000000000e+03 7.660048484802246094e+00 -1.894747734069824219e+01 2.306039072573184967e-02 7.984007596969604492e-01 2.464383393526077271e-01 3.030300140380859375e-01
2.441000000000000000e+03 1.348290824890136719e+01 -1.816608619689941406e+01 7.387137738987803459e-04 1.991028428077697754e+00 5.975301265716552734e-01 1.515058130025863647e-01
2.442000000000000000e+03 9.945826530456542969e+00 1.781607818603515625e+01 -6.024863719940185547e-01 2.218825578689575195e+00 4.849017858505249023e-01 -7.953621149063110352e-01
2.443000000000000000e+03 1.035154724121093750e+01 2.055014991760253906e+01 -5.340189337730407715e-01 2.088293790817260742e+00 4.662824869155883789e-01 -5.788018107414245605e-01
2.444000000000000000e+03 6.958377075195312500e+01 -1.662846183776855469e+01 -9.837073087692260742e-02 7.540836811065673828e+00 2.232739925384521484e+00 3.680602610111236572e-01
2.445000000000000000e+03 1.657199859619140625e+01 -1.801934051513671875e+01 -9.474172256886959076e-03 2.562114000320434570e+00 7.657919526100158691e-01 -1.730893999338150024e-01
2.446000000000000000e+03 1.788458633422851562e+01 -1.916644096374511719e+01 -2.291391976177692413e-02 2.546319007873535156e+00 7.570215463638305664e-01 -3.035801351070404053e-01
2.447000000000000000e+03 1.291274166107177734e+01 1.947237014770507812e+01 -6.405032277107238770e-01 1.837086439132690430e+00 3.589749336242675781e-01 -5.592870712280273438e-01
2.448000000000000000e+03 7.049800109863281250e+01 1.840825080871582031e+01 -2.256620377302169800e-01 8.007277488708496094e+00 2.334484815597534180e+00 -7.091122865676879883e-01
2.449000000000000000e+03 7.044373321533203125e+01 1.562757873535156250e+01 -2.620575726032257080e-01 8.002447128295898438e+00 2.322116851806640625e+00 -5.946942567825317383e-01
2.450000000000000000e+03 1.054563236236572266e+01 2.305455207824707031e+01 -4.005056917667388916e-01 1.949468851089477539e+00 4.646889269351959229e-01 -4.879227876663208008e-01
2.451000000000000000e+03 9.352475166320800781e+00 2.267794036865234375e+01 -3.915500342845916748e-01 2.145746946334838867e+00 5.262590646743774414e-01 -4.857012033462524414e-01
2.452000000000000000e+03 5.013107681274414062e+01 1.818819046020507812e+01 -4.455755464732646942e-03 5.220531940460205078e+00 1.564822912216186523e+00 1.516256213188171387e+00
2.453000000000000000e+03 6.792583465576171875e+01 -2.917293167114257812e+01 1.156390905380249023e-01 7.187497138977050781e+00 2.190940856933593750e+00 4.334188401699066162e-01
2.454000000000000000e+03 7.026525878906250000e+01 -2.644425582885742188e+01 3.012229502201080322e-02 7.409777164459228516e+00 2.231969833374023438e+00 4.173827767372131348e-01
2.455000000000000000e+03 4.437310791015625000e+01 -1.860627365112304688e+01 -2.742756903171539307e-01 3.775871038436889648e+00 1.050478577613830566e+00 -3.688184022903442383e-01
2.456000000000000000e+03 4.388274765014648438e+01 -1.738553619384765625e+01 -3.127866089344024658e-01 3.576967716217041016e+00 9.792543053627014160e-01 -3.471287786960601807e-01
2.457000000000000000e+03 4.747010803222656250e+01 -2.124176025390625000e+01 -3.351900875568389893e-01 4.813954830169677734e+00 1.343629360198974609e+00 -2.113839685916900635e-01
2.458000000000000000e+03 4.664172744750976562e+01 -1.818737792968750000e+01 -3.817937672138214111e-01 4.401433467864990234e+00 1.205891966819763184e+00 -2.045812904834747314e-01
2.459000000000000000e+03 7.033191680908203125e+01 -1.033920860290527344e+01 -1.318450123071670532e-01 7.735444545745849609e+00 2.281079769134521484e+00 2.283829301595687866e-01
2.460000000000000000e+03 7.171829223632812500e+01 1.823286247253417969e+01 -1.421459168195724487e-01 7.960988998413085938e+00 2.345653057098388672e+00 -6.581755876541137695e-01
2.461000000000000000e+03 1.007861137390136719e+01 2.407207107543945312e+01 -3.605581223964691162e-01 2.056378126144409180e+00 5.087460279464721680e-01 -4.280126392841339111e-01
2.462000000000000000e+03 7.114702606201171875e+01 -1.605402755737304688e+01 -8.384001255035400391e-02 7.723567962646484375e+00 2.291918516159057617e+00 3.268538415431976318e-01
2.463000000000000000e+03 9.087258338928222656e+00 -1.207762908935546875e+01 3.645884990692138672e-01 1.007760763168334961e+00 4.117047786712646484e-01 2.774077057838439941e-01
2.464000000000000000e+03 4.566752243041992188e+01 1.116799163818359375e+01 1.456790566444396973e-01 3.506898880004882812e+00 1.095773339271545410e+00 9.948260784149169922e-01
2.465000000000000000e+03 1.466549682617187500e+01 1.694407844543457031e+01 -7.829062342643737793e-01 1.672996044158935547e+00 2.670269608497619629e-01 -5.075150132179260254e-01
2.466000000000000000e+03 1.802691078186035156e+01 1.956942367553710938e+01 -6.784502863883972168e-01 8.758766651153564453e-01 5.922791361808776855e-02 -3.837098479270935059e-01
2.467000000000000000e+03 4.118805313110351562e+01 6.017051219940185547e+00 3.745256960391998291e-01 2.355778217315673828e+00 8.190911412239074707e-01 6.214010119438171387e-01
2.468000000000000000e+03 4.183977890014648438e+01 7.689721107482910156e+00 3.166179955005645752e-01 2.493521928787231445e+00 8.430419564247131348e-01 7.425339818000793457e-01
2.469000000000000000e+03 6.762274932861328125e+01 2.520482826232910156e+01 1.051544994115829468e-01 8.329625129699707031e+00 2.530433893203735352e+00 -7.814934253692626953e-01
2.470000000000000000e+03 5.001889801025390625e+01 -2.409128570556640625e+01 -2.054313123226165771e-01 5.636324882507324219e+00 1.629268050193786621e+00 8.670887351036071777e-02
2.471000000000000000e+03 1.726306915283203125e+01 -2.008018302917480469e+01 -4.002813249826431274e-02 2.352192163467407227e+00 6.936492323875427246e-01 -2.272757291793823242e-01
2.472000000000000000e+03 1.172080516815185547e+01 2.366065025329589844e+01 -4.417889416217803955e-01 1.868960142135620117e+00 4.281513690948486328e-01 -4.311487376689910889e-01
2.473000000000000000e+03 1.211227035522460938e+01 2.830392456054687500e+01 -2.896954417228698730e-01 1.788369059562683105e+00 4.496020972728729248e-01 -2.930915057659149170e-01
2.474000000000000000e+03 9.676426887512207031e+00 -2.212369728088378906e+01 -6.030418723821640015e-02 1.148703336715698242e+00 3.265197277069091797e-01 2.729605138301849365e-01
2.475000000000000000e+03 8.531629562377929688e+00 -2.168779754638671875e+01 -5.721297487616539001e-02 9.412304759025573730e-01 2.652052640914916992e-01 2.779915630817413330e-01
2.476000000000000000e+03 4.981743240356445312e+01 -2.177789306640625000e+01 -3.155126273632049561e-01 5.387673377990722656e+00 1.521648168563842773e+00 1.568266004323959351e-02
2.477000000000000000e+03 3.050568771362304688e+01 3.568346786499023438e+01 -6.264800429344177246e-01 -3.120720088481903076e-01 -2.815656065940856934e-01 -3.453280925750732422e-01
2.478000000000000000e+03 2.610348892211914062e+01 3.383968353271484375e+01 -4.548868238925933838e-01 2.061504498124122620e-02 -1.302815377712249756e-01 -2.970249354839324951e-01
2.479000000000000000e+03 6.990544128417968750e+01 3.064662933349609375e+01 3.803816735744476318e-01 8.038049697875976562e+00 2.525529623031616211e+00 -5.839636921882629395e-01
2.480000000000000000e+03 3.763460540771484375e+01 3.715882062911987305e+00 5.344620347023010254e-01 1.565210223197937012e+00 6.299016475677490234e-01 4.175772666931152344e-01
2.481000000000000000e+03 3.577798080444335938e+01 4.144600868225097656e+00 6.287859678268432617e-01 1.147601604461669922e+00 5.329163074493408203e-01 4.088474810123443604e-01
2.482000000000000000e+03 6.666083526611328125e+01 -2.769998550415039062e+01 8.859896659851074219e-02 7.107642173767089844e+00 2.158872365951538086e+00 4.727921187877655029e-01
2.483000000000000000e+03 1.425853919982910156e+01 1.901386070251464844e+01 -7.092865109443664551e-01 1.621652007102966309e+00 2.737096548080444336e-01 -4.428207576274871826e-01
2.484000000000000000e+03 1.987128067016601562e+01 2.180005645751953125e+01 -5.644215941429138184e-01 5.631337165832519531e-01 -3.863619058392941952e-04 -3.246794939041137695e-01
2.485000000000000000e+03 1.032660484313964844e+01 -1.469645977020263672e+01 1.809925734996795654e-01 1.413684368133544922e+00 4.784030914306640625e-01 2.912383973598480225e-01
2.486000000000000000e+03 1.763074111938476562e+01 -2.822461891174316406e+01 -1.215339377522468567e-01 1.721920847892761230e+00 4.801160693168640137e-01 -1.041607260704040527e-01
2.487000000000000000e+03 1.878379249572753906e+01 -3.336217117309570312e+01 -1.291820853948593140e-01 1.524135470390319824e+00 4.184860289096832275e-01 -8.695744723081588745e-02
2.488000000000000000e+03 5.942309188842773438e+01 2.497748565673828125e+01 -1.714225411415100098e-01 9.146304130554199219e+00 2.692464590072631836e+00 6.598128378391265869e-02
2.489000000000000000e+03 5.729936599731445312e+01 2.555508232116699219e+01 -3.866676986217498779e-02 9.175725936889648438e+00 2.741117954254150391e+00 8.155504465103149414e-01
2.490000000000000000e+03 7.781850337982177734e+00 1.188062572479248047e+01 -2.341116964817047119e-01 2.180376291275024414e+00 5.838793516159057617e-01 -1.442014336585998535e+00
2.491000000000000000e+03 8.282008171081542969e+00 1.102956676483154297e+01 -2.728292942047119141e-01 2.326010704040527344e+00 6.159544587135314941e-01 -1.573429822921752930e+00
2.492000000000000000e+03 1.977614021301269531e+01 2.547138214111328125e+01 -4.809931814670562744e-01 6.458310484886169434e-01 4.945135861635208130e-02 -3.160732090473175049e-01
2.493000000000000000e+03 6.405986785888671875e+01 3.036003875732421875e+01 8.527195453643798828e-01 9.055477142333984375e+00 2.972459077835083008e+00 -5.344722270965576172e-01
2.494000000000000000e+03 3.432738494873046875e+01 -9.835560917854309082e-01 5.973677039146423340e-01 8.654480576515197754e-01 4.388447403907775879e-01 3.287874907255172729e-02
2.495000000000000000e+03 3.565569305419921875e+01 -2.557608842849731445e+00 4.200260043144226074e-01 1.160930633544921875e+00 4.742869734764099121e-01 -2.155556529760360718e-02
2.496000000000000000e+03 8.730684280395507812e+00 1.399611568450927734e+01 -5.901581048965454102e-01 2.324043750762939453e+00 5.201656818389892578e-01 -1.103406786918640137e+00
2.497000000000000000e+03 1.021996212005615234e+01 1.549436473846435547e+01 -6.787243485450744629e-01 2.269677639007568359e+00 4.772859811782836914e-01 -8.894522190093994141e-01
2.498000000000000000e+03 6.940254211425781250e+01 -3.560739517211914062e+01 2.055173218250274658e-01 7.165417194366455078e+00 2.211280345916748047e+00 2.508460581302642822e-01
2.499000000000000000e+03 4.364062500000000000e+01 -9.785590171813964844e+00 -1.933240890502929688e-01 3.269248008728027344e+00 9.227771759033203125e-01 -1.132266446948051453e-01
2.500000000000000000e+03 6.974684906005859375e+01 -7.814419269561767578e-01 -1.940385252237319946e-01 7.780530929565429688e+00 2.275947809219360352e+00 4.238932393491268158e-03
2.501000000000000000e+03 6.973039245605468750e+01 1.999784827232360840e+00 -2.196540385484695435e-01 7.810388565063476562e+00 2.277220487594604492e+00 -7.506282627582550049e-02
2.502000000000000000e+03 1.250512027740478516e+01 -4.894734859466552734e+00 7.831409573554992676e-01 1.645708203315734863e+00 7.286547422409057617e-01 7.629233598709106445e-01
2.503000000000000000e+03 1.379454135894775391e+01 -6.353459358215332031e+00 4.452930092811584473e-01 3.309850215911865234e+00 1.126542925834655762e+00 7.495601773262023926e-01
2.504000000000000000e+03 1.203293991088867188e+01 -4.867334842681884766e+00 7.190098762512207031e-01 1.278647541999816895e+00 5.992972254753112793e-01 5.490536093711853027e-01
2.505000000000000000e+03 1.118902397155761719e+01 -6.105149269104003906e+00 7.311696410179138184e-01 1.183985233306884766e+00 5.745464563369750977e-01 3.640974462032318115e-01
2.506000000000000000e+03 1.470071697235107422e+01 -6.703595638275146484e+00 2.662670612335205078e-01 4.166295528411865234e+00 1.329768776893615723e+00 4.291255474090576172e-01
2.507000000000000000e+03 1.374463272094726562e+01 -7.303594112396240234e+00 5.029903650283813477e-01 3.087392330169677734e+00 1.077114820480346680e+00 4.451051652431488037e-01
2.508000000000000000e+03 1.419234561920166016e+01 -5.141097545623779297e+00 3.205974102020263672e-01 3.899513721466064453e+00 1.266033411026000977e+00 1.153377771377563477e+00
2.509000000000000000e+03 1.494614028930664062e+01 -6.124507427215576172e+00 -4.219121113419532776e-02 4.594125270843505859e+00 1.365580201148986816e+00 3.295241594314575195e-01
2.510000000000000000e+03 1.349833011627197266e+01 -6.829043865203857422e+00 3.260250687599182129e-01 3.016089200973510742e+00 1.002634286880493164e+00 5.939859151840209961e-01
2.511000000000000000e+03 9.687287330627441406e+00 -7.492198467254638672e+00 6.265122294425964355e-01 8.179235458374023438e-01 4.333307445049285889e-01 1.531798094511032104e-01
2.512000000000000000e+03 1.314372539520263672e+01 -1.030287456512451172e+01 4.396695494651794434e-01 2.536179542541503906e+00 8.927547335624694824e-01 3.295715153217315674e-01
2.513000000000000000e+03 1.306769561767578125e+01 -4.890510559082031250e+00 6.591800451278686523e-01 2.261322975158691406e+00 8.761509060859680176e-01 9.852862358093261719e-01
2.514000000000000000e+03 1.317361164093017578e+01 -8.016003608703613281e+00 5.002111792564392090e-01 2.618753433227539062e+00 9.356893301010131836e-01 3.965423107147216797e-01
2.515000000000000000e+03 1.217782020568847656e+01 -1.518419837951660156e+01 1.416195631027221680e-01 1.904375433921813965e+00 6.137984991073608398e-01 2.690079510211944580e-01
2.516000000000000000e+03 9.233377456665039062e+00 -1.730729866027832031e+01 8.310876786708831787e-02 1.136689305305480957e+00 3.659394085407257080e-01 3.112478554248809814e-01
2.517000000000000000e+03 1.249633884429931641e+01 -1.161434650421142578e+01 4.349526166915893555e-01 2.151357889175415039e+00 7.758931517601013184e-01 3.019822835922241211e-01
2.518000000000000000e+03 6.833253479003906250e+01 -1.120772552490234375e+01 -1.729264706373214722e-01 7.480498313903808594e+00 2.192271471023559570e+00 2.760341763496398926e-01
2.519000000000000000e+03 6.954924774169921875e+01 -1.403930854797363281e+01 -1.185418516397476196e-01 7.592517852783203125e+00 2.242192745208740234e+00 3.186137974262237549e-01
2.520000000000000000e+03 6.790280914306640625e+01 1.231758308410644531e+01 -3.362078666687011719e-01 7.870261669158935547e+00 2.260216236114501953e+00 -3.860916793346405029e-01
2.521000000000000000e+03 6.863539886474609375e+01 9.708471298217773438e+00 -3.209607899188995361e-01 7.852072715759277344e+00 2.259333610534667969e+00 -3.244602084159851074e-01
2.522000000000000000e+03 6.797372436523437500e+01 1.734572219848632812e+01 -3.118506073951721191e-01 8.069482803344726562e+00 2.327289581298828125e+00 -5.870626568794250488e-01
2.523000000000000000e+03 6.921461486816406250e+01 1.717895698547363281e+01 -2.925687730312347412e-01 8.032483100891113281e+00 2.321974277496337891e+00 -6.441957950592041016e-01
2.524000000000000000e+03 6.839785766601562500e+01 -1.610382461547851562e+01 -1.282599419355392456e-01 7.440103054046630859e+00 2.193552970886230469e+00 3.789457380771636963e-01
2.525000000000000000e+03 6.924594116210937500e+01 -1.888553047180175781e+01 -8.921266347169876099e-02 7.474155902862548828e+00 2.215482950210571289e+00 4.118370711803436279e-01
2.526000000000000000e+03 6.799858856201171875e+01 -1.262006640434265137e+00 -2.341039776802062988e-01 7.559480190277099609e+00 2.197612762451171875e+00 3.913647308945655823e-02
2.527000000000000000e+03 1.364811229705810547e+01 -1.648902130126953125e+01 4.438806325197219849e-02 2.161069393157958984e+00 6.616372466087341309e-01 1.499560326337814331e-01
2.528000000000000000e+03 8.895229339599609375e+00 1.281918907165527344e+01 -4.763911962509155273e-01 2.467284917831420898e+00 5.972681641578674316e-01 -1.383326053619384766e+00
2.529000000000000000e+03 1.370870971679687500e+01 -1.134682464599609375e+01 4.246664941310882568e-01 2.668092727661132812e+00 9.278277754783630371e-01 2.422977536916732788e-01
2.530000000000000000e+03 1.416722774505615234e+01 -9.511605262756347656e+00 4.357754588127136230e-01 3.103219270706176758e+00 1.061698436737060547e+00 2.493161857128143311e-01
2.531000000000000000e+03 6.922837066650390625e+01 1.576669216156005859e+01 -2.774751782417297363e-01 8.016282081604003906e+00 2.321642160415649414e+00 -5.669731497764587402e-01
2.532000000000000000e+03 4.067657852172851562e+01 -6.312722682952880859e+00 -3.268683329224586487e-02 2.479298114776611328e+00 7.339833378791809082e-01 -6.148377805948257446e-02
2.533000000000000000e+03 3.855450057983398438e+01 -3.536937236785888672e+00 2.135137021541595459e-01 1.879847168922424316e+00 6.280083060264587402e-01 6.234307307749986649e-03
2.534000000000000000e+03 6.867678833007812500e+01 -2.354277223348617554e-01 -2.216110378503799438e-01 7.669849872589111328e+00 2.234471559524536133e+00 4.871743731200695038e-03
2.535000000000000000e+03 1.064553070068359375e+01 9.407644271850585938e+00 -3.911534547805786133e-01 3.085036754608154297e+00 8.081650137901306152e-01 -1.718954086303710938e+00
2.536000000000000000e+03 1.332784652709960938e+01 -1.352986240386962891e+01 1.974084377288818359e-01 2.320486068725585938e+00 7.553683519363403320e-01 2.063324153423309326e-01
2.537000000000000000e+03 9.273757934570312500e+00 -1.100957870483398438e+01 4.130513072013854980e-01 9.946148991584777832e-01 4.222998619079589844e-01 2.287726551294326782e-01
2.538000000000000000e+03 6.895420837402343750e+01 1.076731300354003906e+01 -2.933498919010162354e-01 7.883850097656250000e+00 2.277150154113769531e+00 -3.556956648826599121e-01
2.539000000000000000e+03 6.878382873535156250e+01 7.925098419189453125e+00 -2.821763753890991211e-01 7.826926708221435547e+00 2.263425111770629883e+00 -2.462169229984283447e-01
2.540000000000000000e+03 9.772515296936035156e+00 -8.364871978759765625e+00 5.780825614929199219e-01 9.717041254043579102e-01 4.649360179901123047e-01 2.230430543422698975e-01
2.541000000000000000e+03 1.175428295135498047e+01 -7.798240184783935547e+00 6.859142184257507324e-01 1.752758741378784180e+00 7.316018939018249512e-01 4.587181508541107178e-01
2.542000000000000000e+03 3.882326889038085938e+01 -4.631288528442382812e+00 1.598725020885467529e-01 1.968240380287170410e+00 6.384338736534118652e-01 -4.039641469717025757e-02
2.543000000000000000e+03 3.743452835083007812e+01 9.461970925331115723e-01 5.342658162117004395e-01 1.538998007774353027e+00 6.219791769981384277e-01 2.132930606603622437e-01
2.544000000000000000e+03 4.109062576293945312e+01 -9.245919227600097656e+00 -1.228733733296394348e-01 2.629050016403198242e+00 7.518529891967773438e-01 -1.816816926002502441e-01
2.545000000000000000e+03 4.147769165039062500e+01 -7.276442527770996094e+00 -5.573026835918426514e-02 2.651280879974365234e+00 7.786651849746704102e-01 -1.081485003232955933e-01
2.546000000000000000e+03 3.560223388671875000e+01 1.093341469764709473e+00 6.619876623153686523e-01 1.113229036331176758e+00 5.325649976730346680e-01 2.053987383842468262e-01
2.547000000000000000e+03 5.555735015869140625e+01 2.313309669494628906e+01 -2.585789859294891357e-01 8.207448959350585938e+00 2.384660959243774414e+00 1.202331662178039551e+00
2.548000000000000000e+03 5.822892761230468750e+01 2.417544555664062500e+01 -3.397525250911712646e-01 9.084486007690429688e+00 2.623420238494873047e+00 4.369453191757202148e-01
2.549000000000000000e+03 6.848088836669921875e+01 2.304499149322509766e+00 -2.425059676170349121e-01 7.676875591278076172e+00 2.230310916900634766e+00 -6.534086912870407104e-02
2.550000000000000000e+03 6.565299987792968750e+01 -2.584712028503417969e+01 4.734171181917190552e-02 7.069607734680175781e+00 2.135084867477416992e+00 5.002031326293945312e-01
2.551000000000000000e+03 6.814996337890625000e+01 -2.653828430175781250e+01 4.388944059610366821e-02 7.246422290802001953e+00 2.187093496322631836e+00 4.592512249946594238e-01
2.552000000000000000e+03 4.056854629516601562e+01 3.617902755737304688e+00 3.839695453643798828e-01 2.266765594482421875e+00 7.952204942703247070e-01 4.698130786418914795e-01
2.553000000000000000e+03 4.421712875366210938e+01 1.130959892272949219e+01 2.188152670860290527e-01 3.081456184387207031e+00 9.900814294815063477e-01 9.835461378097534180e-01
2.554000000000000000e+03 1.014653968811035156e+01 1.284329319000244141e+01 -7.520030736923217773e-01 2.599897146224975586e+00 5.543682575225830078e-01 -1.135804176330566406e+00
2.555000000000000000e+03 9.814972877502441406e+00 2.153595161437988281e+01 -4.176888167858123779e-01 2.045513391494750977e+00 4.883473813533782959e-01 -5.643362402915954590e-01
2.556000000000000000e+03 8.887398719787597656e+00 -9.081742286682128906e+00 5.074283480644226074e-01 7.827352881431579590e-01 3.870490789413452148e-01 1.557470113039016724e-01
2.557000000000000000e+03 5.632553482055664062e+01 2.218503952026367188e+01 -4.117889404296875000e-01 8.232892036437988281e+00 2.346330881118774414e+00 8.871661424636840820e-01
2.558000000000000000e+03 9.016357421875000000e+00 1.022503757476806641e+01 -6.939526647329330444e-02 2.380791187286376953e+00 6.934187412261962891e-01 -1.747234463691711426e+00
2.559000000000000000e+03 1.360385799407958984e+01 1.666523551940917969e+01 -8.250334262847900391e-01 1.947742223739624023e+00 3.368126153945922852e-01 -5.204162597656250000e-01
2.560000000000000000e+03 6.816061401367187500e+01 -2.057994842529296875e+01 -7.054316252470016479e-02 7.344491481781005859e+00 2.182184457778930664e+00 4.437683820724487305e-01
2.561000000000000000e+03 6.394990539550781250e+01 2.645391082763671875e+01 1.090614870190620422e-01 9.007020950317382812e+00 2.734824657440185547e+00 -6.288131475448608398e-01
2.562000000000000000e+03 6.745775604248046875e+01 2.366567993164062500e+01 -1.218072623014450073e-01 8.338777542114257812e+00 2.465091228485107422e+00 -8.145025968551635742e-01
2.563000000000000000e+03 6.929152679443359375e+01 1.863148307800292969e+01 -2.325903922319412231e-01 8.065744400024414062e+00 2.349946260452270508e+00 -6.759806871414184570e-01
2.564000000000000000e+03 4.438552093505859375e+01 -1.394612789154052734e+01 -3.061003983020782471e-01 3.578572273254394531e+00 9.817415475845336914e-01 -2.216284573078155518e-01
2.565000000000000000e+03 4.093533706665039062e+01 7.049468517303466797e+00 3.910458385944366455e-01 2.281357765197753906e+00 8.017210960388183594e-01 6.431726813316345215e-01
2.566000000000000000e+03 4.341207885742187500e+01 8.653244972229003906e+00 2.650192379951477051e-01 2.889704465866088867e+00 9.464170932769775391e-01 8.037195205688476562e-01
2.567000000000000000e+03 4.216754531860351562e+01 9.349632263183593750e+00 3.326716721057891846e-01 2.526075363159179688e+00 8.576241135597229004e-01 8.310906887054443359e-01
2.568000000000000000e+03 4.739083099365234375e+01 1.383497428894042969e+01 6.804332882165908813e-02 4.048292160034179688e+00 1.234900593757629395e+00 1.188778042793273926e+00
2.569000000000000000e+03 3.909888076782226562e+01 3.899667024612426758e+00 4.404278993606567383e-01 1.861475944519042969e+00 6.905711889266967773e-01 4.282320737838745117e-01
2.570000000000000000e+03 4.828041076660156250e+01 1.523312091827392578e+01 2.613747119903564453e-02 4.427964687347412109e+00 1.336230635643005371e+00 1.281679511070251465e+00
2.571000000000000000e+03 5.621449661254882812e+01 2.028619956970214844e+01 -4.756113290786743164e-01 7.675184726715087891e+00 2.159872055053710938e+00 8.244993686676025391e-01
2.572000000000000000e+03 6.813599395751953125e+01 1.260510444641113281e+00 -2.566220462322235107e-01 7.624935150146484375e+00 2.210494041442871094e+00 -2.929463423788547516e-02
2.573000000000000000e+03 6.928945922851562500e+01 8.474189639091491699e-01 -2.086546570062637329e-01 7.744527816772460938e+00 2.260761976242065430e+00 -3.869261592626571655e-02
2.574000000000000000e+03 1.148881053924560547e+01 -2.059034538269042969e+01 -7.873956859111785889e-02 1.484489202499389648e+00 4.217248857021331787e-01 2.302773296833038330e-01
2.575000000000000000e+03 6.363921737670898438e+01 -2.697482299804687500e+01 9.475336968898773193e-02 6.901535987854003906e+00 2.098886966705322266e+00 5.078672170639038086e-01
2.576000000000000000e+03 4.626819610595703125e+01 1.358709239959716797e+01 1.523824185132980347e-01 3.731069326400756836e+00 1.165035605430603027e+00 1.189202904701232910e+00
2.577000000000000000e+03 5.139920425415039062e+01 1.831110191345214844e+01 -1.348939090967178345e-01 5.779030799865722656e+00 1.693241119384765625e+00 1.433702111244201660e+00
2.578000000000000000e+03 5.244944000244140625e+01 1.951850509643554688e+01 -1.772689223289489746e-01 6.336946964263916016e+00 1.847903370857238770e+00 1.437090516090393066e+00
2.579000000000000000e+03 4.279670333862304688e+01 -1.147324562072753906e+01 -2.503110170364379883e-01 3.096711874008178711e+00 8.539202809333801270e-01 -1.959280222654342651e-01
2.580000000000000000e+03 4.479667663574218750e+01 -1.557294559478759766e+01 -3.380176126956939697e-01 3.746865987777709961e+00 1.022654533386230469e+00 -2.488421052694320679e-01
2.581000000000000000e+03 4.090606689453125000e+01 4.849696636199951172e+00 3.428382575511932373e-01 2.307260751724243164e+00 7.950296998023986816e-01 5.146595835685729980e-01
2.582000000000000000e+03 7.105823516845703125e+01 3.176330757141113281e+01 2.732739448547363281e-01 7.770142555236816406e+00 2.413024902343750000e+00 -6.022937893867492676e-01
2.583000000000000000e+03 6.801429748535156250e+01 2.774715995788574219e+01 2.462199181318283081e-01 8.379009246826171875e+00 2.587568759918212891e+00 -7.593895792961120605e-01
2.584000000000000000e+03 6.941143798828125000e+01 2.657674217224121094e+01 1.808803230524063110e-01 8.047645568847656250e+00 2.468557834625244141e+00 -8.449246287345886230e-01
2.585000000000000000e+03 1.231675624847412109e+01 2.237954711914062500e+01 -4.930917620658874512e-01 1.754432797431945801e+00 3.784023225307464600e-01 -4.742641448974609375e-01
2.586000000000000000e+03 1.747684860229492188e+01 2.112357330322265625e+01 -6.155794858932495117e-01 1.040019392967224121e+00 1.273319721221923828e-01 -3.306003808975219727e-01
2.587000000000000000e+03 6.411478424072265625e+01 3.233284378051757812e+01 8.956475257873535156e-01 9.357637405395507812e+00 3.075985431671142578e+00 -3.494679927825927734e-01
2.588000000000000000e+03 4.996906661987304688e+01 -2.927848243713378906e+01 2.573820352554321289e-01 6.164439201354980469e+00 1.926546335220336914e+00 1.956929564476013184e-01
2.589000000000000000e+03 6.352629089355468750e+01 2.899722290039062500e+01 5.601189136505126953e-01 9.283964157104492188e+00 2.953225135803222656e+00 -4.550074636936187744e-01
2.590000000000000000e+03 3.712210464477539062e+01 -2.498434305191040039e+00 3.313929140567779541e-01 1.578831553459167480e+00 5.730673074722290039e-01 4.271112754940986633e-02
2.591000000000000000e+03 5.189874649047851562e+01 -2.195832824707031250e+01 -2.753024101257324219e-01 5.708071231842041016e+00 1.629830598831176758e+00 1.902257800102233887e-01
2.592000000000000000e+03 4.891182327270507812e+01 -2.292408752441406250e+01 -3.205655515193939209e-01 5.323911190032958984e+00 1.501003623008728027e+00 -5.141118541359901428e-02
2.593000000000000000e+03 1.362406158447265625e+01 2.297017860412597656e+01 -5.148652195930480957e-01 1.633866190910339355e+00 3.357003033161163330e-01 -4.129204154014587402e-01
2.594000000000000000e+03 1.331774520874023438e+01 2.683047866821289062e+01 -3.562252819538116455e-01 1.574887394905090332e+00 3.655986189842224121e-01 -3.471376597881317139e-01
2.595000000000000000e+03 3.289128112792968750e+01 3.228520584106445312e+01 -7.471103072166442871e-01 -5.458009243011474609e-01 -3.878733515739440918e-01 -5.351558923721313477e-01
2.596000000000000000e+03 3.847133255004882812e+01 1.642758250236511230e+00 4.058697521686553955e-01 1.781519770622253418e+00 6.562168598175048828e-01 2.752078473567962646e-01
2.597000000000000000e+03 3.897423934936523438e+01 2.657187223434448242e+00 4.681863188743591309e-01 1.885829687118530273e+00 7.062048316001892090e-01 3.609149754047393799e-01
2.598000000000000000e+03 1.199615287780761719e+01 1.575574111938476562e+01 -8.429223895072937012e-01 2.170687437057495117e+00 3.983294963836669922e-01 -7.067055702209472656e-01
2.599000000000000000e+03 6.963116455078125000e+01 -1.295779514312744141e+01 -1.354530006647109985e-01 7.617896556854248047e+00 2.244733095169067383e+00 3.030754029750823975e-01
2.600000000000000000e+03 6.907291412353515625e+01 -1.498454570770263672e+01 -1.363876163959503174e-01 7.512152194976806641e+00 2.212729215621948242e+00 3.493545055389404297e-01
2.601000000000000000e+03 2.553775024414062500e+01 2.713902091979980469e+01 -5.409259796142578125e-01 -1.154477149248123169e-01 -1.969121098518371582e-01 -4.927053153514862061e-01
2.602000000000000000e+03 2.153768920898437500e+01 2.602351570129394531e+01 -5.169456601142883301e-01 3.427622914314270020e-01 -5.225501582026481628e-02 -4.167326092720031738e-01
2.603000000000000000e+03 1.572974300384521484e+01 2.616273498535156250e+01 -4.266037642955780029e-01 1.216956973075866699e+00 2.371059507131576538e-01 -3.603938221931457520e-01
2.604000000000000000e+03 3.585502243041992188e+01 -1.089211344718933105e+00 5.165729522705078125e-01 1.243895053863525391e+00 5.281403660774230957e-01 1.241634637117385864e-01
2.605000000000000000e+03 4.547408676147460938e+01 -1.816354179382324219e+01 -3.460431993007659912e-01 4.063928604125976562e+00 1.115365624427795410e+00 -2.754465341567993164e-01
2.606000000000000000e+03 3.971808624267578125e+01 -6.784583568572998047e+00 2.505116909742355347e-02 2.238617181777954102e+00 6.791005134582519531e-01 -1.142829805612564087e-01
2.607000000000000000e+03 1.435448837280273438e+01 -1.721281814575195312e+01 3.597152605652809143e-02 2.280807256698608398e+00 6.950336098670959473e-01 7.788064330816268921e-02
2.608000000000000000e+03 1.248160934448242188e+01 -5.482643127441406250e+00 6.572773456573486328e-01 1.864075660705566406e+00 7.564058899879455566e-01 7.251831889152526855e-01
2.609000000000000000e+03 1.246295166015625000e+01 -6.004154682159423828e+00 7.079403400421142578e-01 1.972706198692321777e+00 8.041939735412597656e-01 6.281696557998657227e-01
2.610000000000000000e+03 1.199860763549804688e+01 -5.574646472930908203e+00 7.630858421325683594e-01 1.500556588172912598e+00 6.790927052497863770e-01 5.715854763984680176e-01
2.611000000000000000e+03 1.093878364562988281e+01 -6.932732582092285156e+00 7.083913087844848633e-01 1.222917437553405762e+00 5.793926119804382324e-01 3.389095366001129150e-01
2.612000000000000000e+03 1.364584732055664062e+01 -4.966040611267089844e+00 5.390214323997497559e-01 3.024371385574340820e+00 1.069017887115478516e+00 1.111532330513000488e+00
2.613000000000000000e+03 1.350274944305419922e+01 -5.587334632873535156e+00 4.981258809566497803e-01 2.987355709075927734e+00 1.045644402503967285e+00 9.310815334320068359e-01
2.614000000000000000e+03 1.197746276855468750e+01 -6.514159202575683594e+00 7.223753333091735840e-01 1.719956398010253906e+00 7.326995134353637695e-01 5.061843991279602051e-01
2.615000000000000000e+03 1.387266826629638672e+01 -7.939409732818603516e+00 3.689769804477691650e-01 3.192343473434448242e+00 1.068396091461181641e+00 4.185617268085479736e-01
2.616000000000000000e+03 1.254677200317382812e+01 -6.944360733032226562e+00 6.694316267967224121e-01 2.189992189407348633e+00 8.578271269798278809e-01 5.067844986915588379e-01
2.617000000000000000e+03 1.319420623779296875e+01 -9.521180152893066406e+00 4.688348174095153809e-01 2.503832578659057617e+00 8.918002247810363770e-01 3.176263868808746338e-01
2.618000000000000000e+03 1.202358436584472656e+01 -2.453543472290039062e+01 -1.236852705478668213e-01 1.409636259078979492e+00 3.857852816581726074e-01 1.570589095354080200e-01
2.619000000000000000e+03 3.980264663696289062e+01 -3.338005542755126953e+00 1.851161569356918335e-01 2.197350978851318359e+00 7.147401571273803711e-01 3.521775826811790466e-02
2.620000000000000000e+03 3.730101013183593750e+01 -1.282255291938781738e+00 3.956116437911987305e-01 1.552804112434387207e+00 5.845247507095336914e-01 6.408685445785522461e-02
2.621000000000000000e+03 4.519699859619140625e+01 -1.697900581359863281e+01 -3.302981853485107422e-01 3.904836893081665039e+00 1.072361588478088379e+00 -2.778787612915039062e-01
2.622000000000000000e+03 4.593737411499023438e+01 -1.389706420898437500e+01 -3.505448997020721436e-01 3.985470294952392578e+00 1.090477585792541504e+00 -1.504203826189041138e-01
2.623000000000000000e+03 6.801885986328125000e+01 1.585034179687500000e+01 -3.505693674087524414e-01 8.000193595886230469e+00 2.294887304306030273e+00 -5.547617077827453613e-01
2.624000000000000000e+03 1.045810699462890625e+01 -1.226018810272216797e+01 3.643069565296173096e-01 1.427351474761962891e+00 5.374975204467773438e-01 2.933175265789031982e-01
2.625000000000000000e+03 1.136383247375488281e+01 -1.481091403961181641e+01 2.174197435379028320e-01 1.654346942901611328e+00 5.615299940109252930e-01 3.168881833553314209e-01
2.626000000000000000e+03 1.233605861663818359e+01 -1.289791584014892578e+01 3.576138019561767578e-01 2.004055023193359375e+00 7.085006237030029297e-01 2.882832288742065430e-01
2.627000000000000000e+03 1.312707138061523438e+01 -1.215026569366455078e+01 2.882134020328521729e-01 2.350103378295898438e+00 7.914950251579284668e-01 2.535236179828643799e-01
2.628000000000000000e+03 1.296316719055175781e+01 -1.103704261779785156e+01 3.797066211700439453e-01 2.355954170227050781e+00 8.206982016563415527e-01 2.746827602386474609e-01
2.629000000000000000e+03 6.809088134765625000e+01 1.888284492492675781e+01 -3.119546175003051758e-01 8.115857124328613281e+00 2.341170787811279297e+00 -6.837851405143737793e-01
2.630000000000000000e+03 6.736657714843750000e+01 2.460003137588500977e+00 -2.893710732460021973e-01 7.557366847991943359e+00 2.180398702621459961e+00 -5.518201366066932678e-02
2.631000000000000000e+03 6.911289978027343750e+01 -7.233707427978515625e+00 -1.699172854423522949e-01 7.630080699920654297e+00 2.238049030303955078e+00 1.774899959564208984e-01
2.632000000000000000e+03 4.352415466308593750e+01 6.355143070220947266e+00 1.925857812166213989e-01 2.970918893814086914e+00 9.490513801574707031e-01 6.517097949981689453e-01
2.633000000000000000e+03 4.023444747924804688e+01 -5.444880008697509766e+00 6.867084652185440063e-02 2.319353580474853516e+00 7.164073586463928223e-01 -4.783735796809196472e-02
2.634000000000000000e+03 6.810437774658203125e+01 1.345968341827392578e+01 -3.742273747920989990e-01 7.938400745391845703e+00 2.269252061843872070e+00 -4.410204589366912842e-01
2.635000000000000000e+03 3.867586898803710938e+01 -1.483921885490417480e+00 3.344879150390625000e-01 1.906840801239013672e+00 6.723986268043518066e-01 1.238521486520767212e-01
2.636000000000000000e+03 1.164331340789794922e+01 -1.207598972320556641e+01 3.307479918003082275e-01 1.843908548355102539e+00 6.523969769477844238e-01 3.303552865982055664e-01
2.637000000000000000e+03 6.853014373779296875e+01 -1.214683341979980469e+01 -1.710112690925598145e-01 7.487390041351318359e+00 2.194913625717163086e+00 2.957736551761627197e-01
2.638000000000000000e+03 6.779719543457031250e+01 -1.282655811309814453e+01 -1.801823228597640991e-01 7.391979694366455078e+00 2.163539171218872070e+00 3.245035111904144287e-01
2.639000000000000000e+03 4.812228393554687500e+01 1.297900867462158203e+01 -9.465138427913188934e-03 4.310334682464599609e+00 1.290260910987854004e+00 1.120942473411560059e+00
2.640000000000000000e+03 4.949265289306640625e+01 1.541496467590332031e+01 -5.854833498597145081e-02 4.842798709869384766e+00 1.435275077819824219e+00 1.280916213989257812e+00
2.641000000000000000e+03 6.981029510498046875e+01 2.304861831665039062e+01 -8.183079957962036133e-02 8.062552452087402344e+00 2.394216537475585938e+00 -8.258863091468811035e-01
2.642000000000000000e+03 6.826570892333984375e+01 2.039155387878417969e+01 -2.032414376735687256e-01 8.151165008544921875e+00 2.384377241134643555e+00 -7.181815505027770996e-01
2.643000000000000000e+03 1.148819255828857422e+01 -1.581287574768066406e+01 1.320055574178695679e-01 1.661267280578613281e+00 5.379818677902221680e-01 2.673858702182769775e-01
2.644000000000000000e+03 1.117288303375244141e+01 1.735317420959472656e+01 -7.061358094215393066e-01 2.089055776596069336e+00 4.148760139942169189e-01 -6.886847615242004395e-01
2.645000000000000000e+03 3.915466308593750000e+01 -2.908058464527130127e-01 3.222440779209136963e-01 1.949504613876342773e+00 6.815245747566223145e-01 1.513436138629913330e-01
2.646000000000000000e+03 1.143287181854248047e+01 1.843883895874023438e+01 -6.508898138999938965e-01 2.077348232269287109e+00 4.279374778270721436e-01 -6.754608750343322754e-01
2.647000000000000000e+03 1.280607986450195312e+01 2.094588279724121094e+01 -6.025679111480712891e-01 1.789145469665527344e+00 3.559732437133789062e-01 -4.782631099224090576e-01
2.648000000000000000e+03 5.723806762695312500e+01 2.317036056518554688e+01 -2.995523810386657715e-01 8.587950706481933594e+00 2.486519575119018555e+00 7.766672372817993164e-01
2.649000000000000000e+03 4.909405517578125000e+01 1.224920558929443359e+01 -9.481374919414520264e-02 4.599335670471191406e+00 1.351356506347656250e+00 1.022355079650878906e+00
2.650000000000000000e+03 4.850876235961914062e+01 1.400191020965576172e+01 -1.515617407858371735e-02 4.477331638336181641e+00 1.338652610778808594e+00 1.180962681770324707e+00
2.651000000000000000e+03 4.558743286132812500e+01 9.732566833496093750e+00 1.096424460411071777e-01 3.490373134613037109e+00 1.080004692077636719e+00 8.907238245010375977e-01
2.652000000000000000e+03 4.703198242187500000e+01 1.076640701293945312e+01 2.263253740966320038e-02 3.943932056427001953e+00 1.189969301223754883e+00 9.722323417663574219e-01
2.653000000000000000e+03 6.801502227783203125e+01 -1.753236198425292969e+01 -1.208548992872238159e-01 7.383924007415771484e+00 2.178920745849609375e+00 4.066779613494873047e-01
2.654000000000000000e+03 1.574565887451171875e+01 -1.968592262268066406e+01 -5.814005434513092041e-02 2.286587953567504883e+00 6.685343980789184570e-01 -6.675130873918533325e-02
2.655000000000000000e+03 4.260960769653320312e+01 8.377438545227050781e+00 3.074086308479309082e-01 2.660103797912597656e+00 8.902537226676940918e-01 7.809446454048156738e-01
2.656000000000000000e+03 4.160548019409179688e+01 2.004813671112060547e+00 2.828235328197479248e-01 2.528501510620117188e+00 8.433974981307983398e-01 3.732971549034118652e-01
2.657000000000000000e+03 4.267923736572265625e+01 6.962638378143310547e+00 3.085012435913085938e-01 2.682661056518554688e+00 8.973487019538879395e-01 7.039755582809448242e-01
2.658000000000000000e+03 4.411392593383789062e+01 7.403222560882568359e+00 2.108378112316131592e-01 3.096618175506591797e+00 9.922367930412292480e-01 7.212625741958618164e-01
2.659000000000000000e+03 6.596628570556640625e+01 3.195116043090820312e+01 8.319612145423889160e-01 8.788199424743652344e+00 2.886048078536987305e+00 -4.900424182415008545e-01
2.660000000000000000e+03 6.660928344726562500e+01 -2.034770393371582031e+01 -8.792710304260253906e-02 7.208253860473632812e+00 2.136098146438598633e+00 4.633448123931884766e-01
2.661000000000000000e+03 5.041431427001953125e+01 1.691874122619628906e+01 -9.377010166645050049e-02 5.251115798950195312e+00 1.547203779220581055e+00 1.371901869773864746e+00
2.662000000000000000e+03 4.513270950317382812e+01 1.328356361389160156e+01 2.169532477855682373e-01 3.305846691131591797e+00 1.056839942932128906e+00 1.123134374618530273e+00
2.663000000000000000e+03 4.436318969726562500e+01 9.855570793151855469e+00 2.176383584737777710e-01 3.147783756256103516e+00 1.009626626968383789e+00 8.867171406745910645e-01
2.664000000000000000e+03 4.450748443603515625e+01 -1.219486331939697266e+01 -2.754647433757781982e-01 3.557104110717773438e+00 9.844918251037597656e-01 -1.490393131971359253e-01
2.665000000000000000e+03 6.819970703125000000e+01 1.453540134429931641e+01 -3.336171507835388184e-01 7.978811264038085938e+00 2.293558120727539062e+00 -4.934101402759552002e-01
2.666000000000000000e+03 6.905158233642578125e+01 -1.881931900978088379e+00 -1.999956965446472168e-01 7.691530227661132812e+00 2.247460365295410156e+00 4.066857695579528809e-02
2.667000000000000000e+03 6.248094940185546875e+01 2.676661872863769531e+01 3.037135601043701172e-01 9.142020225524902344e+00 2.833720207214355469e+00 -4.421401023864746094e-01
2.668000000000000000e+03 6.709263610839843750e+01 2.070642280578613281e+01 -2.831768691539764404e-01 8.252111434936523438e+00 2.390680551528930664e+00 -7.108123302459716797e-01
2.669000000000000000e+03 1.622013854980468750e+01 2.062586593627929688e+01 -6.449456810951232910e-01 1.223188400268554688e+00 1.734728068113327026e-01 -4.117662608623504639e-01
2.670000000000000000e+03 1.386822128295898438e+01 1.777713584899902344e+01 -7.286780476570129395e-01 1.839690923690795898e+00 3.333038687705993652e-01 -5.229343175888061523e-01
2.671000000000000000e+03 4.346121597290039062e+01 -7.432517528533935547e+00 -1.332217454910278320e-01 3.198494195938110352e+00 9.195817708969116211e-01 -5.772183462977409363e-02
2.672000000000000000e+03 6.551900482177734375e+01 -2.375556945800781250e+01 -1.726206950843334198e-02 7.081521987915039062e+00 2.119277954101562500e+00 5.017522573471069336e-01
2.673000000000000000e+03 6.724800109863281250e+01 -2.384428215026855469e+01 -5.999865825287997723e-04 7.227084636688232422e+00 2.167945384979248047e+00 4.755483567714691162e-01
2.674000000000000000e+03 6.199468612670898438e+01 -2.167216682434082031e+01 -1.110141277313232422e-01 6.789014816284179688e+00 2.003400325775146484e+00 5.014333724975585938e-01
2.675000000000000000e+03 6.890203857421875000e+01 2.926670646667480469e+01 3.625981807708740234e-01 8.121485710144042969e+00 2.545225143432617188e+00 -7.606993317604064941e-01
2.676000000000000000e+03 4.020389175415039062e+01 2.340895414352416992e+00 3.415847122669219971e-01 2.165328502655029297e+00 7.520740032196044922e-01 3.683903515338897705e-01
2.677000000000000000e+03 7.191672515869140625e+01 3.415243911743164062e+01 2.677357494831085205e-01 7.612360000610351562e+00 2.364028692245483398e+00 -3.879896104335784912e-01
2.678000000000000000e+03 6.933451080322265625e+01 3.536908721923828125e+01 4.593327343463897705e-01 8.255505561828613281e+00 2.614451408386230469e+00 -2.465277016162872314e-01
2.679000000000000000e+03 4.627445602416992188e+01 -1.530794906616210938e+01 -3.625678420066833496e-01 4.113474845886230469e+00 1.125272154808044434e+00 -1.691468805074691772e-01
2.680000000000000000e+03 4.673252868652343750e+01 -2.001901435852050781e+01 -3.600207567214965820e-01 4.535725116729736328e+00 1.252711296081542969e+00 -2.332354187965393066e-01
2.681000000000000000e+03 6.097009658813476562e+01 2.700372314453125000e+01 1.261608600616455078e-01 9.625328063964843750e+00 2.925446748733520508e+00 -3.349916040897369385e-01
2.682000000000000000e+03 6.606157684326171875e+01 2.251454162597656250e+01 -2.148170620203018188e-01 8.430120468139648438e+00 2.464591026306152344e+00 -7.245736718177795410e-01
2.683000000000000000e+03 5.278430938720703125e+01 -2.501432991027832031e+01 -8.618866652250289917e-02 6.021545886993408203e+00 1.780607223510742188e+00 3.090506792068481445e-01
2.684000000000000000e+03 5.095761489868164062e+01 -2.077976799011230469e+01 -3.641746938228607178e-01 5.513840198516845703e+00 1.544899702072143555e+00 1.116462647914886475e-01
2.685000000000000000e+03 4.997037506103515625e+01 -1.949369239807128906e+01 -3.735610544681549072e-01 5.243441581726074219e+00 1.460964202880859375e+00 1.609421707689762115e-02
2.686000000000000000e+03 5.392326354980468750e+01 -2.273745918273925781e+01 -1.962394714355468750e-01 6.028328418731689453e+00 1.749626636505126953e+00 3.317955732345581055e-01
2.687000000000000000e+03 1.915352058410644531e+01 2.773657608032226562e+01 -4.489535689353942871e-01 7.131937146186828613e-01 7.927203178405761719e-02 -3.600517511367797852e-01
2.688000000000000000e+03 2.317112541198730469e+01 2.653771591186523438e+01 -4.804901182651519775e-01 1.604545712471008301e-01 -9.601066261529922485e-02 -3.832240402698516846e-01
2.689000000000000000e+03 1.271258735656738281e+01 -1.437044334411621094e+01 2.462061494588851929e-01 2.095424413681030273e+00 7.024891972541809082e-01 2.558189630508422852e-01
2.690000000000000000e+03 1.059648513793945312e+01 -1.754425811767578125e+01 3.326919302344322205e-02 1.421469449996948242e+00 4.364216029644012451e-01 2.787136733531951904e-01
2.691000000000000000e+03 6.870482635498046875e+01 3.218527984619140625e+01 4.847176969051361084e-01 8.209811210632324219e+00 2.608358621597290039e+00 -5.787144899368286133e-01
2.692000000000000000e+03 6.578838348388671875e+01 3.634034729003906250e+01 6.943638324737548828e-01 9.251029968261718750e+00 2.983618021011352539e+00 3.475182875990867615e-02
2.693000000000000000e+03 1.335629844665527344e+01 -6.128783702850341797e+00 4.815294444561004639e-01 2.799438714981079102e+00 9.842904210090637207e-01 7.222357988357543945e-01
2.694000000000000000e+03 1.299656867980957031e+01 -5.494949817657470703e+00 6.543048620223999023e-01 2.342133283615112305e+00 8.989314436912536621e-01 8.350175619125366211e-01
2.695000000000000000e+03 1.291605091094970703e+01 -6.016128540039062500e+00 5.618044137954711914e-01 2.424401998519897461e+00 8.958619236946105957e-01 7.740293741226196289e-01
2.696000000000000000e+03 1.169675159454345703e+01 -7.137223243713378906e+00 7.090090513229370117e-01 1.633319258689880371e+00 7.026985287666320801e-01 4.725743830204010010e-01
2.697000000000000000e+03 1.136394596099853516e+01 -1.028565597534179688e+01 4.727872610092163086e-01 1.722554564476013184e+00 6.586025357246398926e-01 3.662604391574859619e-01
2.698000000000000000e+03 1.284940433502197266e+01 -6.440088748931884766e+00 6.241542100906372070e-01 2.373860597610473633e+00 8.994044661521911621e-01 6.011824607849121094e-01
2.699000000000000000e+03 1.145450878143310547e+01 -6.651414871215820312e+00 6.600790023803710938e-01 1.415278792381286621e+00 6.226072907447814941e-01 4.204350411891937256e-01
2.700000000000000000e+03 1.088977718353271484e+01 -7.879527568817138672e+00 6.777047514915466309e-01 1.322148919105529785e+00 5.999560952186584473e-01 3.455972075462341309e-01
2.701000000000000000e+03 1.227842903137207031e+01 -8.780474662780761719e+00 5.746483206748962402e-01 2.060047388076782227e+00 7.904087305068969727e-01 3.914082944393157959e-01
2.702000000000000000e+03 1.039847755432128906e+01 -1.119427204132080078e+01 4.300790429115295410e-01 1.405696272850036621e+00 5.507326126098632812e-01 3.354276418685913086e-01
2.703000000000000000e+03 3.950916290283203125e+01 -2.207455396652221680e+00 2.161661684513092041e-01 2.107833385467529297e+00 6.971998214721679688e-01 8.432956784963607788e-02
2.704000000000000000e+03 1.043873786926269531e+01 -1.344381904602050781e+01 3.039838671684265137e-01 1.448989868164062500e+00 5.258921384811401367e-01 3.393921554088592529e-01
2.705000000000000000e+03 6.424124908447265625e+01 1.870376396179199219e+01 -4.806242883205413818e-01 8.206156730651855469e+00 2.317659616470336914e+00 -4.054134786128997803e-01
2.706000000000000000e+03 4.082242202758789062e+01 -1.918257832527160645e+00 1.920540779829025269e-01 2.377666950225830078e+00 7.709162831306457520e-01 1.142225787043571472e-01
2.707000000000000000e+03 6.627347564697265625e+01 -1.688001155853271484e+00 -2.761827111244201660e-01 7.338547706604003906e+00 2.118709564208984375e+00 8.013895153999328613e-02
2.708000000000000000e+03 1.044484519958496094e+01 -1.603680992126464844e+01 1.468792408704757690e-01 1.429791688919067383e+00 4.730012714862823486e-01 3.189970850944519043e-01
2.709000000000000000e+03 5.711484146118164062e+01 2.108262634277343750e+01 -4.434210360050201416e-01 8.045228004455566406e+00 2.280542135238647461e+00 6.789982318878173828e-01
2.710000000000000000e+03 1.225525665283203125e+01 -1.026444339752197266e+01 4.785133600234985352e-01 2.018550872802734375e+00 7.491192817687988281e-01 3.233565092086791992e-01
2.711000000000000000e+03 6.762589263916015625e+01 -5.222008705139160156e+00 -2.260665446519851685e-01 7.474234104156494141e+00 2.174450397491455078e+00 1.427519470453262329e-01
2.712000000000000000e+03 1.224676418304443359e+01 -1.099100017547607422e+01 3.965139091014862061e-01 2.104571104049682617e+00 7.503255009651184082e-01 3.379488289356231689e-01
2.713000000000000000e+03 6.691944122314453125e+01 -7.012586593627929688e-01 -2.724707424640655518e-01 7.443794727325439453e+00 2.151397228240966797e+00 4.682686552405357361e-02
2.714000000000000000e+03 1.140416812896728516e+01 -1.114768314361572266e+01 4.545240998268127441e-01 1.681893229484558105e+00 6.409252285957336426e-01 3.080554902553558350e-01
2.715000000000000000e+03 3.839991378784179688e+01 -2.484201431274414062e+00 2.811381518840789795e-01 1.815138936042785645e+00 6.288831233978271484e-01 2.624082751572132111e-02
2.716000000000000000e+03 6.727828979492187500e+01 1.429431629180908203e+01 -3.855309784412384033e-01 7.899586200714111328e+00 2.254216670989990234e+00 -4.573747515678405762e-01
2.717000000000000000e+03 4.458610534667968750e+01 5.708334445953369141e+00 1.723592132329940796e-01 3.224206447601318359e+00 1.018969655036926270e+00 6.376213431358337402e-01
2.718000000000000000e+03 4.796808624267578125e+01 1.651017761230468750e+01 1.145202219486236572e-01 4.303115367889404297e+00 1.325290679931640625e+00 1.402768969535827637e+00
2.719000000000000000e+03 6.928659820556640625e+01 1.442554378509521484e+01 -3.186881244182586670e-01 7.983048439025878906e+00 2.299308061599731445e+00 -5.258161425590515137e-01
2.720000000000000000e+03 6.578243255615234375e+01 1.207469272613525391e+01 -4.459812641143798828e-01 7.791911602020263672e+00 2.203778982162475586e+00 -2.921006083488464355e-01
2.721000000000000000e+03 6.667307281494140625e+01 1.136056232452392578e+01 -3.726833462715148926e-01 7.756556034088134766e+00 2.215161800384521484e+00 -2.962473332881927490e-01
2.722000000000000000e+03 5.541769409179687500e+01 1.909539413452148438e+01 -4.297153353691101074e-01 7.274692058563232422e+00 2.053493022918701172e+00 9.532049298286437988e-01
2.723000000000000000e+03 1.265700912475585938e+01 1.814631080627441406e+01 -7.398632764816284180e-01 1.896552205085754395e+00 3.470067083835601807e-01 -5.611742138862609863e-01
2.724000000000000000e+03 6.408293151855468750e+01 -1.044247055053710938e+01 -2.630944848060607910e-01 6.999595165252685547e+00 2.020950078964233398e+00 2.906503677368164062e-01
2.725000000000000000e+03 1.877068328857421875e+01 -2.713682174682617188e+01 -9.132964164018630981e-02 1.818493843078613281e+00 5.181492567062377930e-01 -1.960059255361557007e-01
2.726000000000000000e+03 1.717932891845703125e+01 -2.187828636169433594e+01 -8.683354407548904419e-02 2.160840988159179688e+00 6.222022175788879395e-01 -1.833242475986480713e-01
2.727000000000000000e+03 6.703832244873046875e+01 -1.561857891082763672e+01 -1.647244244813919067e-01 7.302329063415527344e+00 2.141281366348266602e+00 3.809159398078918457e-01
2.728000000000000000e+03 6.656347656250000000e+01 -1.731420898437500000e+01 -1.446968615055084229e-01 7.241748332977294922e+00 2.129115343093872070e+00 4.195245206356048584e-01
2.729000000000000000e+03 4.255523681640625000e+01 -4.194690704345703125e+00 -3.318759379908442497e-03 2.873161554336547852e+00 8.609528541564941406e-01 4.794115945696830750e-02
2.730000000000000000e+03 4.248339843750000000e+01 -8.262184262275695801e-01 1.247346624732017517e-01 2.776011228561401367e+00 8.702237606048583984e-01 1.976099759340286255e-01
2.731000000000000000e+03 4.437003707885742188e+01 8.565277099609375000e+00 1.684471517801284790e-01 3.157747983932495117e+00 9.978585243225097656e-01 8.041703701019287109e-01
2.732000000000000000e+03 4.239546203613281250e+01 4.662054061889648438e+00 2.860414087772369385e-01 2.693384170532226562e+00 8.938276767730712891e-01 5.584436655044555664e-01
2.733000000000000000e+03 4.323306655883789062e+01 7.777223587036132812e+00 2.299963831901550293e-01 2.842013359069824219e+00 9.216029644012451172e-01 7.414040565490722656e-01
2.734000000000000000e+03 6.760670471191406250e+01 -9.840210914611816406e+00 -1.808850020170211792e-01 7.426233291625976562e+00 2.173604488372802734e+00 2.543669342994689941e-01
2.735000000000000000e+03 6.867491912841796875e+01 -1.022045421600341797e+01 -1.723609715700149536e-01 7.531630039215087891e+00 2.207780838012695312e+00 2.477446198463439941e-01
2.736000000000000000e+03 4.548560714721679688e+01 8.347106933593750000e+00 1.320639997720718384e-01 3.467055559158325195e+00 1.079735875129699707e+00 7.963494062423706055e-01
2.737000000000000000e+03 6.711267089843750000e+01 4.638079643249511719e+00 -3.193064928054809570e-01 7.570471763610839844e+00 2.175349712371826172e+00 -1.175472959876060486e-01
2.738000000000000000e+03 6.968458557128906250e+01 2.158295631408691406e+01 -1.156569570302963257e-01 8.067473411560058594e+00 2.385545015335083008e+00 -7.776532769203186035e-01
2.739000000000000000e+03 4.457237243652343750e+01 -8.429620742797851562e+00 -2.169638276100158691e-01 3.452524662017822266e+00 9.706682562828063965e-01 -4.704293981194496155e-02
2.740000000000000000e+03 1.536741733551025391e+01 -2.417607879638671875e+01 -1.316939741373062134e-01 1.827858805656433105e+00 5.088494420051574707e-01 -1.408005226403474808e-02
2.741000000000000000e+03 1.688293647766113281e+01 -1.911251068115234375e+01 -3.791236504912376404e-02 2.414022445678710938e+00 7.128330469131469727e-01 -2.122828513383865356e-01
2.742000000000000000e+03 1.626011085510253906e+01 -2.291909790039062500e+01 -1.097074076533317566e-01 1.982043147087097168e+00 5.617007017135620117e-01 -9.209083020687103271e-02
2.743000000000000000e+03 4.117856597900390625e+01 6.864660978317260742e-01 2.386586517095565796e-01 2.423336744308471680e+00 7.985985875129699707e-01 2.598367631435394287e-01
2.744000000000000000e+03 3.965957260131835938e+01 1.049782872200012207e+00 3.931553065776824951e-01 2.050291538238525391e+00 7.330340743064880371e-01 2.856989800930023193e-01
2.745000000000000000e+03 1.104069805145263672e+01 2.193245697021484375e+01 -5.045682191848754883e-01 1.987320542335510254e+00 4.448257088661193848e-01 -5.033963918685913086e-01
2.746000000000000000e+03 6.624660491943359375e+01 2.397333145141601562e+01 -3.685206547379493713e-02 8.467306137084960938e+00 2.529136180877685547e+00 -7.258350253105163574e-01
2.747000000000000000e+03 6.727198791503906250e+01 2.218904304504394531e+01 -1.349478513002395630e-01 8.278972625732421875e+00 2.443207502365112305e+00 -7.428380846977233887e-01
2.748000000000000000e+03 4.778433227539062500e+01 -1.905566978454589844e+01 -3.647954463958740234e-01 4.699372291564941406e+00 1.300372958183288574e+00 -1.460503935813903809e-01
2.749000000000000000e+03 1.442371368408203125e+01 -2.017593002319335938e+01 -8.283516019582748413e-02 1.971172332763671875e+00 5.665011405944824219e-01 6.142079457640647888e-02
2.750000000000000000e+03 4.949218368530273438e+01 1.126482200622558594e+01 -1.259239166975021362e-01 4.687467098236083984e+00 1.368462920188903809e+00 9.505925774574279785e-01
2.751000000000000000e+03 5.302686309814453125e+01 1.749562454223632812e+01 -3.080068230628967285e-01 6.246842384338378906e+00 1.781650662422180176e+00 1.179431796073913574e+00
2.752000000000000000e+03 5.434025573730468750e+01 1.807603836059570312e+01 -4.204825162887573242e-01 6.829370021820068359e+00 1.922666311264038086e+00 1.024605154991149902e+00
2.753000000000000000e+03 1.422634601593017578e+01 2.142308998107910156e+01 -5.900748372077941895e-01 1.520274281501770020e+00 2.790598571300506592e-01 -4.525026082992553711e-01
2.754000000000000000e+03 6.457802581787109375e+01 2.816167831420898438e+01 4.568965733051300049e-01 8.868559837341308594e+00 2.797636985778808594e+00 -6.999404430389404297e-01
2.755000000000000000e+03 6.083047485351562500e+01 2.521612930297851562e+01 -3.022241964936256409e-02 9.270503997802734375e+00 2.772084712982177734e+00 -1.227129772305488586e-01
2.756000000000000000e+03 4.819584655761718750e+01 -1.650910377502441406e+01 -3.913850784301757812e-01 4.644301891326904297e+00 1.275875091552734375e+00 -9.243214130401611328e-02
2.757000000000000000e+03 5.311275863647460938e+01 -2.123927307128906250e+01 -3.191972374916076660e-01 5.838094711303710938e+00 1.655669212341308594e+00 2.515928149223327637e-01
2.758000000000000000e+03 5.239461517333984375e+01 -2.329241180419921875e+01 -2.273533046245574951e-01 5.894772529602050781e+00 1.700225830078125000e+00 2.661137878894805908e-01
2.759000000000000000e+03 5.220249938964843750e+01 -3.461350250244140625e+01 9.533956646919250488e-01 6.439901351928710938e+00 2.217988967895507812e+00 1.976445764303207397e-01
2.760000000000000000e+03 7.157673645019531250e+01 3.610445022583007812e+01 4.224396347999572754e-01 7.702711105346679688e+00 2.437545061111450195e+00 -2.454742193222045898e-01
2.761000000000000000e+03 6.611196899414062500e+01 -2.186684036254882812e+01 -6.973871588706970215e-02 7.145115852355957031e+00 2.122613191604614258e+00 4.839153289794921875e-01
2.762000000000000000e+03 1.318045616149902344e+01 -6.542604923248291016e+00 5.995309948921203613e-01 2.713485717773437500e+00 9.939050078392028809e-01 7.185686230659484863e-01
2.763000000000000000e+03 1.291495704650878906e+01 -6.780776023864746094e+00 4.706565439701080322e-01 2.553111791610717773e+00 9.071305394172668457e-01 6.388118267059326172e-01
2.764000000000000000e+03 1.312135314941406250e+01 -7.087345600128173828e+00 6.169760823249816895e-01 2.616749763488769531e+00 9.701177477836608887e-01 4.912819564342498779e-01
2.765000000000000000e+03 1.062427234649658203e+01 -8.545638084411621094e+00 5.969468355178833008e-01 1.258479833602905273e+00 5.566279888153076172e-01 3.016481995582580566e-01
2.766000000000000000e+03 1.130932807922363281e+01 -7.441308021545410156e+00 6.145715713500976562e-01 1.472406268119812012e+00 6.260933876037597656e-01 3.831129074096679688e-01
2.767000000000000000e+03 1.144734668731689453e+01 -8.762653350830078125e+00 5.811521410942077637e-01 1.680595040321350098e+00 6.785241365432739258e-01 3.822273910045623779e-01
2.768000000000000000e+03 1.228256607055664062e+01 -9.514822006225585938e+00 4.967755377292633057e-01 2.137674808502197266e+00 7.903350591659545898e-01 3.842746615409851074e-01
2.769000000000000000e+03 6.542150115966796875e+01 1.797522544860839844e+01 -3.997925221920013428e-01 8.107749938964843750e+00 2.312387228012084961e+00 -4.732273519039154053e-01
2.770000000000000000e+03 6.477926635742187500e+01 1.666134071350097656e+01 -4.770625233650207520e-01 8.043736457824707031e+00 2.270002365112304688e+00 -3.786177039146423340e-01
2.771000000000000000e+03 1.053308963775634766e+01 -9.374995231628417969e+00 5.541332364082336426e-01 1.323458909988403320e+00 5.632776618003845215e-01 3.191759884357452393e-01
2.772000000000000000e+03 1.045523357391357422e+01 -1.025001144409179688e+01 4.943719506263732910e-01 1.313793659210205078e+00 5.424496531486511230e-01 2.808834016323089600e-01
2.773000000000000000e+03 4.083370208740234375e+01 -6.206592917442321777e-01 2.373876720666885376e-01 2.391238689422607422e+00 7.885878682136535645e-01 2.112866044044494629e-01
2.774000000000000000e+03 5.727579879760742188e+01 1.978080177307128906e+01 -5.035677552223205566e-01 7.895207405090332031e+00 2.217491865158081055e+00 6.553105115890502930e-01
2.775000000000000000e+03 9.576823234558105469e+00 -1.968662071228027344e+01 -1.631575636565685272e-02 1.156671285629272461e+00 3.421066701412200928e-01 2.850941419601440430e-01
2.776000000000000000e+03 4.723286437988281250e+01 -1.348996829986572266e+01 -3.533525168895721436e-01 4.279155731201171875e+00 1.177740931510925293e+00 -8.149472624063491821e-02
2.777000000000000000e+03 4.618664932250976562e+01 -1.257713985443115234e+01 -3.444470167160034180e-01 4.013840198516845703e+00 1.100817918777465820e+00 -1.263148486614227295e-01
2.778000000000000000e+03 1.168224239349365234e+01 -1.379208374023437500e+01 2.188991457223892212e-01 1.793784379959106445e+00 6.038050651550292969e-01 2.789068520069122314e-01
2.779000000000000000e+03 1.284516525268554688e+01 -1.722854614257812500e+01 4.915355890989303589e-02 1.933226346969604492e+00 5.947139859199523926e-01 2.009766399860382080e-01
2.780000000000000000e+03 1.291186523437500000e+01 -1.580599975585937500e+01 1.428748816251754761e-01 2.042481899261474609e+00 6.556070446968078613e-01 2.097842395305633545e-01
2.781000000000000000e+03 6.653208923339843750e+01 7.890483140945434570e-01 -2.893198430538177490e-01 7.437994480133056641e+00 2.144602298736572266e+00 1.451072096824645996e-02
2.782000000000000000e+03 6.758084106445312500e+01 2.699060142040252686e-01 -2.483567446470260620e-01 7.529474258422851562e+00 2.184335231781005859e+00 3.559665346983820200e-04
2.783000000000000000e+03 4.202005386352539062e+01 3.327778339385986328e+00 2.521879076957702637e-01 2.616193532943725586e+00 8.605144023895263672e-01 4.420310556888580322e-01
2.784000000000000000e+03 4.978377151489257812e+01 1.406389331817626953e+01 -1.192697063088417053e-01 4.888043880462646484e+00 1.430632233619689941e+00 1.151947498321533203e+00
2.785000000000000000e+03 6.690576934814453125e+01 1.917067337036132812e+01 -3.004901707172393799e-01 8.173474311828613281e+00 2.361895322799682617e+00 -6.166259646415710449e-01
2.786000000000000000e+03 5.075129318237304688e+01 1.564228916168212891e+01 -1.646779030561447144e-01 5.297942161560058594e+00 1.539979338645935059e+00 1.223310470581054688e+00
2.787000000000000000e+03 6.540390014648437500e+01 -1.960844993591308594e+01 -1.253260076045989990e-01 7.099633216857910156e+00 2.092292070388793945e+00 4.645729064941406250e-01
2.788000000000000000e+03 6.363199615478515625e+01 -2.305551719665527344e+01 -4.638699069619178772e-02 6.924167156219482422e+00 2.063333988189697266e+00 5.107553005218505859e-01
2.789000000000000000e+03 6.781642913818359375e+01 1.111131572723388672e+01 -3.785402476787567139e-01 7.830243587493896484e+00 2.235511064529418945e+00 -3.518642187118530273e-01
2.790000000000000000e+03 6.631114959716796875e+01 1.381592178344726562e+01 -4.139777719974517822e-01 7.903777122497558594e+00 2.246939897537231445e+00 -3.701541125774383545e-01
2.791000000000000000e+03 6.636845397949218750e+01 2.212817907333374023e+00 -3.043980598449707031e-01 7.443278312683105469e+00 2.141664028167724609e+00 -1.542405877262353897e-02
2.792000000000000000e+03 6.711755371093750000e+01 1.627972126007080078e+00 -2.734597921371459961e-01 7.499574184417724609e+00 2.167834281921386719e+00 -2.473756670951843262e-02
2.793000000000000000e+03 6.886970520019531250e+01 5.946730136871337891e+00 -2.800521254539489746e-01 7.783303737640380859e+00 2.250975608825683594e+00 -1.886470019817352295e-01
2.794000000000000000e+03 1.553217411041259766e+01 1.877380180358886719e+01 -7.355886101722717285e-01 1.428737878799438477e+00 2.079447954893112183e-01 -4.335990548133850098e-01
2.795000000000000000e+03 6.708478546142578125e+01 -8.071878433227539062e+00 -2.126956135034561157e-01 7.390822410583496094e+00 2.153438091278076172e+00 2.158993184566497803e-01
2.796000000000000000e+03 6.835872650146484375e+01 -8.552656173706054688e+00 -1.878290325403213501e-01 7.522153377532958984e+00 2.200297355651855469e+00 2.174597233533859253e-01
2.797000000000000000e+03 4.235330581665039062e+01 -2.007625579833984375e+00 1.024148911237716675e-01 2.787792444229125977e+00 8.670622110366821289e-01 1.605654358863830566e-01
2.798000000000000000e+03 4.271084976196289062e+01 4.149672985076904297e-01 1.664272993803024292e-01 2.837877988815307617e+00 9.012916088104248047e-01 2.908881008625030518e-01
2.799000000000000000e+03 4.444256210327148438e+01 -6.330234050750732422e+00 -1.527067124843597412e-01 3.367667913436889648e+00 9.644883871078491211e-01 1.427202019840478897e-02
2.800000000000000000e+03 6.545050048828125000e+01 -9.036296844482421875e+00 -2.576391696929931641e-01 7.167352676391601562e+00 2.072914123535156250e+00 2.573781609535217285e-01
2.801000000000000000e+03 6.743676757812500000e+01 -1.409823036193847656e+01 -1.651310622692108154e-01 7.352800846099853516e+00 2.156301021575927734e+00 3.503990769386291504e-01
2.802000000000000000e+03 4.825045394897460938e+01 1.042248344421386719e+01 -4.113217070698738098e-02 4.283399581909179688e+00 1.272680163383483887e+00 9.339678883552551270e-01
2.803000000000000000e+03 5.509509277343750000e+01 1.514140415191650391e+01 -4.781180024147033691e-01 6.629961967468261719e+00 1.845553159713745117e+00 7.630832195281982422e-01
2.804000000000000000e+03 5.347275924682617188e+01 1.917080879211425781e+01 -2.950657308101654053e-01 6.701341152191162109e+00 1.921882629394531250e+00 1.285365104675292969e+00
2.805000000000000000e+03 1.929204368591308594e+01 -2.369712829589843750e+01 -6.157085299491882324e-02 2.122724056243896484e+00 6.183459758758544922e-01 -3.445353507995605469e-01
2.806000000000000000e+03 1.441824436187744141e+01 -1.877943229675292969e+01 -2.131636254489421844e-02 2.113541841506958008e+00 6.276676654815673828e-01 7.335276901721954346e-02
2.807000000000000000e+03 4.305391693115234375e+01 1.700569510459899902e+00 1.547082513570785522e-01 2.887214183807373047e+00 9.125767946243286133e-01 3.534143567085266113e-01
2.808000000000000000e+03 6.730106353759765625e+01 -2.183681726455688477e+00 -2.496707737445831299e-01 7.479536056518554688e+00 2.168959617614746094e+00 7.559316605329513550e-02
2.809000000000000000e+03 4.130493927001953125e+01 -5.543227195739746094e+00 2.019109390676021576e-02 2.614070415496826172e+00 7.902784347534179688e-01 -2.668633870780467987e-02
2.810000000000000000e+03 6.855966949462890625e+01 -1.411999893188476562e+01 -1.427032500505447388e-01 7.474501609802246094e+00 2.199539661407470703e+00 3.422922492027282715e-01
2.811000000000000000e+03 6.658090972900390625e+01 -1.893318557739257812e+01 -1.211558356881141663e-01 7.221362590789794922e+00 2.130062103271484375e+00 4.394598603248596191e-01
2.812000000000000000e+03 5.170700454711914062e+01 1.714566802978515625e+01 -2.129992097616195679e-01 5.766315937042236328e+00 1.665995001792907715e+00 1.276690244674682617e+00
2.813000000000000000e+03 4.515939331054687500e+01 -1.057661247253417969e+01 -2.984039783477783203e-01 3.651585102081298828e+00 1.005954265594482422e+00 -1.140704974532127380e-01
2.814000000000000000e+03 4.639379119873046875e+01 -7.773045539855957031e+00 -2.555815577507019043e-01 3.897866249084472656e+00 1.092685341835021973e+00 4.117070231586694717e-03
2.815000000000000000e+03 5.672281265258789062e+01 1.830088233947753906e+01 -5.493645071983337402e-01 7.429642677307128906e+00 2.064083337783813477e+00 6.319502592086791992e-01
2.816000000000000000e+03 1.516528415679931641e+01 -2.168761825561523438e+01 -1.029973402619361877e-01 1.980415821075439453e+00 5.632255673408508301e-01 2.651692368090152740e-03
2.817000000000000000e+03 1.290076541900634766e+01 -2.217665481567382812e+01 -1.226802542805671692e-01 1.642639994621276855e+00 4.559879302978515625e-01 1.357810050249099731e-01
2.818000000000000000e+03 1.560585308074951172e+01 2.212295913696289062e+01 -5.811420083045959473e-01 1.343450188636779785e+00 2.286924719810485840e-01 -3.733835220336914062e-01
2.819000000000000000e+03 1.145653724670410156e+01 2.075119018554687500e+01 -5.190767645835876465e-01 1.926915526390075684e+00 4.223516285419464111e-01 -5.717472434043884277e-01
2.820000000000000000e+03 1.158341121673583984e+01 1.956674575805664062e+01 -6.150477528572082520e-01 1.957656860351562500e+00 4.027827382087707520e-01 -5.751636028289794922e-01
2.821000000000000000e+03 4.685678100585937500e+01 9.472020149230957031e+00 4.530453309416770935e-02 3.860638141632080078e+00 1.171782851219177246e+00 8.889278173446655273e-01
2.822000000000000000e+03 6.352082443237304688e+01 -1.592576599121093750e+01 -2.238176465034484863e-01 6.927676677703857422e+00 2.011157751083374023e+00 4.030432403087615967e-01
2.823000000000000000e+03 4.667223358154296875e+01 -1.682098388671875000e+01 -3.752656280994415283e-01 4.319995880126953125e+00 1.183419108390808105e+00 -1.634241193532943726e-01
2.824000000000000000e+03 6.529682159423828125e+01 2.590658187866210938e+01 1.424168199300765991e-01 8.652985572814941406e+00 2.638620853424072266e+00 -7.184206247329711914e-01
2.825000000000000000e+03 6.480501556396484375e+01 2.284779357910156250e+01 -1.815335899591445923e-01 8.547933578491210938e+00 2.509919881820678711e+00 -6.007145047187805176e-01
2.826000000000000000e+03 1.293681240081787109e+01 2.442013931274414062e+01 -4.326501786708831787e-01 1.640404343605041504e+00 3.623262643814086914e-01 -4.125353991985321045e-01
2.827000000000000000e+03 6.649337768554687500e+01 2.537372970581054688e+01 5.124021694064140320e-02 8.548045158386230469e+00 2.579785585403442383e+00 -7.840147018432617188e-01
2.828000000000000000e+03 4.240607452392578125e+01 -6.312303066253662109e+00 -8.463329076766967773e-02 2.869292736053466797e+00 8.353978395462036133e-01 -4.525741562247276306e-02
2.829000000000000000e+03 6.096158599853515625e+01 2.345477294921875000e+01 -3.718204796314239502e-01 8.858345031738281250e+00 2.545957326889038086e+00 -1.788333803415298462e-01
2.830000000000000000e+03 6.531753540039062500e+01 2.987636947631835938e+01 6.171529889106750488e-01 8.995399475097656250e+00 2.883765697479248047e+00 -5.656243562698364258e-01
2.831000000000000000e+03 6.365859603881835938e+01 2.473418045043945312e+01 1.469155540689826012e-03 8.802358627319335938e+00 2.641148328781127930e+00 -5.475377440452575684e-01
2.832000000000000000e+03 6.247489547729492188e+01 2.831470108032226562e+01 3.679138422012329102e-01 9.361472129821777344e+00 2.918815851211547852e+00 -6.230490803718566895e-01
2.833000000000000000e+03 6.263665390014648438e+01 1.847283554077148438e+01 -5.360282063484191895e-01 8.165353775024414062e+00 2.288797616958618164e+00 -2.418281584978103638e-01
2.834000000000000000e+03 5.215764617919921875e+01 -1.991104316711425781e+01 -3.339723944664001465e-01 5.611868858337402344e+00 1.583368897438049316e+00 1.763683855533599854e-01
2.835000000000000000e+03 5.029281616210937500e+01 -1.732053947448730469e+01 -3.982452750205993652e-01 5.153726577758789062e+00 1.426644444465637207e+00 3.875359147787094116e-02
2.836000000000000000e+03 5.975916290283203125e+01 2.217811203002929688e+01 -5.033037066459655762e-01 8.623627662658691406e+00 2.436097145080566406e+00 6.083453819155693054e-02
2.837000000000000000e+03 5.438283920288085938e+01 -2.042201614379882812e+01 -2.890464365482330322e-01 5.962582588195800781e+00 1.702060937881469727e+00 3.050016462802886963e-01
2.838000000000000000e+03 5.335511779785156250e+01 -1.905283737182617188e+01 -3.718929588794708252e-01 5.750964164733886719e+00 1.613721370697021484e+00 2.286716550588607788e-01
2.839000000000000000e+03 6.705702209472656250e+01 -3.852947473526000977e+00 -2.364236861467361450e-01 7.423993587493896484e+00 2.156270980834960938e+00 1.249047517776489258e-01
2.840000000000000000e+03 1.245490360260009766e+01 -6.474252223968505859e+00 5.845869779586791992e-01 2.108592033386230469e+00 8.079537153244018555e-01 6.319617033004760742e-01
2.841000000000000000e+03 1.152854919433593750e+01 -8.192556381225585938e+00 5.959431529045104980e-01 1.674454331398010254e+00 6.811192631721496582e-01 3.708228468894958496e-01
2.842000000000000000e+03 1.280662155151367188e+01 -7.338483810424804688e+00 4.672907292842864990e-01 2.416506290435791016e+00 8.651390671730041504e-01 5.144168138504028320e-01
2.843000000000000000e+03 1.323418426513671875e+01 -7.464071273803710938e+00 4.942911565303802490e-01 2.706639528274536133e+00 9.602792263031005859e-01 5.618914365768432617e-01
2.844000000000000000e+03 5.021564865112304688e+01 1.270728397369384766e+01 -1.648043096065521240e-01 4.949983119964599609e+00 1.435553669929504395e+00 1.025839567184448242e+00
2.845000000000000000e+03 5.206131744384765625e+01 1.591782093048095703e+01 -2.616594135761260986e-01 5.757623672485351562e+00 1.648789286613464355e+00 1.149152994155883789e+00
2.846000000000000000e+03 1.093260478973388672e+01 -1.913288307189941406e+01 6.442993879318237305e-03 1.438404798507690430e+00 4.334543645381927490e-01 2.656628489494323730e-01
2.847000000000000000e+03 1.235972213745117188e+01 -1.884522247314453125e+01 -3.550557792186737061e-02 1.752362608909606934e+00 5.150570869445800781e-01 2.105201333761215210e-01
2.848000000000000000e+03 1.212492179870605469e+01 -8.177709579467773438e+00 5.230683684349060059e-01 2.020665645599365234e+00 7.631202340126037598e-01 4.327683448791503906e-01
2.849000000000000000e+03 6.974008941650390625e+01 9.023184776306152344e+00 -2.543942034244537354e-01 7.906478404998779297e+00 2.295625209808349609e+00 -3.081093728542327881e-01
2.850000000000000000e+03 6.622158050537109375e+01 -1.358304119110107422e+01 -1.996767222881317139e-01 7.233629226684570312e+00 2.110185861587524414e+00 3.443038165569305420e-01
2.851000000000000000e+03 6.562761688232421875e+01 -1.509554290771484375e+01 -1.957745105028152466e-01 7.164080619812011719e+00 2.090491771697998047e+00 3.839824497699737549e-01
2.852000000000000000e+03 1.430658435821533203e+01 -2.531771278381347656e+01 -1.464117318391799927e-01 1.622998833656311035e+00 4.429761171340942383e-01 5.246664583683013916e-02
2.853000000000000000e+03 1.090261363983154297e+01 -2.555249023437500000e+01 -1.143321692943572998e-01 1.242850184440612793e+00 3.385553956031799316e-01 2.001594752073287964e-01
2.854000000000000000e+03 4.919149017333984375e+01 -1.445293807983398438e+01 -3.967892527580261230e-01 4.752471923828125000e+00 1.306704878807067871e+00 -2.674534544348716736e-02
2.855000000000000000e+03 6.497695922851562500e+01 2.436040306091308594e+01 -7.714146375656127930e-02 8.669940948486328125e+00 2.577839851379394531e+00 -6.975858211517333984e-01
2.856000000000000000e+03 6.573019409179687500e+01 1.955202102661132812e+01 -3.805592954158782959e-01 8.250771522521972656e+00 2.361063718795776367e+00 -5.842259526252746582e-01
2.857000000000000000e+03 6.584372711181640625e+01 -1.413756906986236572e-01 -2.957876920700073242e-01 7.323202133178710938e+00 2.108224391937255859e+00 5.290678888559341431e-02
2.858000000000000000e+03 6.401295471191406250e+01 -3.384689390659332275e-01 -3.357758820056915283e-01 7.075616836547851562e+00 2.021952152252197266e+00 8.893161267042160034e-02
2.859000000000000000e+03 6.484449005126953125e+01 5.163388252258300781e-01 -3.275858163833618164e-01 7.214359760284423828e+00 2.066032171249389648e+00 6.057285889983177185e-02
2.860000000000000000e+03 4.346860885620117188e+01 3.014685869216918945e+00 1.911121904850006104e-01 2.975302934646606445e+00 9.499245285987854004e-01 4.574872553348541260e-01
2.861000000000000000e+03 6.649921417236328125e+01 5.857172489166259766e+00 -3.454879522323608398e-01 7.562042713165283203e+00 2.164966344833374023e+00 -1.224445998668670654e-01
2.862000000000000000e+03 6.590921020507812500e+01 2.104652404785156250e+01 -2.571848928928375244e-01 8.330837249755859375e+00 2.422095775604248047e+00 -6.317306160926818848e-01
2.863000000000000000e+03 6.673996734619140625e+01 1.246924114227294922e+01 -4.099158346652984619e-01 7.822539329528808594e+00 2.223787069320678711e+00 -3.732178807258605957e-01
2.864000000000000000e+03 5.981218719482421875e+01 1.885225486755371094e+01 -5.143954753875732422e-01 8.003379821777343750e+00 2.246695518493652344e+00 1.564210057258605957e-01
2.865000000000000000e+03 5.811695480346679688e+01 1.787989044189453125e+01 -5.369707345962524414e-01 7.624684810638427734e+00 2.126314163208007812e+00 4.347939789295196533e-01
2.866000000000000000e+03 4.393371582031250000e+01 4.370726585388183594e+00 1.504374146461486816e-01 3.083111286163330078e+00 9.700645804405212402e-01 5.371955037117004395e-01
2.867000000000000000e+03 4.520071029663085938e+01 7.008081912994384766e+00 1.054204702377319336e-01 3.393442630767822266e+00 1.049658894538879395e+00 7.167178988456726074e-01
2.868000000000000000e+03 5.489053726196289062e+01 1.664489555358886719e+01 -4.580704569816589355e-01 6.743631362915039062e+00 1.885668277740478516e+00 8.631002902984619141e-01
2.869000000000000000e+03 9.830788612365722656e+00 -2.664955329895019531e+01 -1.104919612407684326e-01 1.074364662170410156e+00 2.891618013381958008e-01 2.083514183759689331e-01
2.870000000000000000e+03 6.502130889892578125e+01 -1.278260803222656250e+01 -2.310978770256042480e-01 7.104127883911132812e+00 2.061908960342407227e+00 3.389869034290313721e-01
2.871000000000000000e+03 6.604537200927734375e+01 -1.150763034820556641e+01 -2.260750383138656616e-01 7.213889122009277344e+00 2.096344232559204102e+00 3.021055161952972412e-01
2.872000000000000000e+03 1.698606300354003906e+01 2.271769142150878906e+01 -5.730581879615783691e-01 1.052478313446044922e+00 1.438260376453399658e-01 -3.988558053970336914e-01
2.873000000000000000e+03 5.343593597412109375e+01 1.625231361389160156e+01 -3.727014362812042236e-01 6.270848751068115234e+00 1.769444108009338379e+00 1.041765689849853516e+00
2.874000000000000000e+03 5.640292739868164062e+01 1.671978759765625000e+01 -5.206237435340881348e-01 7.151935577392578125e+00 1.989393591880798340e+00 6.750860810279846191e-01
2.875000000000000000e+03 4.536109542846679688e+01 -7.271954059600830078e+00 -1.855826377868652344e-01 3.631683588027954102e+00 1.033830285072326660e+00 3.879982512444257736e-03
2.876000000000000000e+03 1.534222507476806641e+01 -2.713784217834472656e+01 -1.345963627099990845e-01 1.642751455307006836e+00 4.524465203285217285e-01 8.249427191913127899e-03
2.877000000000000000e+03 4.849307250976562500e+01 1.145265865325927734e+01 -6.371993571519851685e-02 4.377974987030029297e+00 1.294276595115661621e+00 1.006046652793884277e+00
2.878000000000000000e+03 5.110369873046875000e+01 1.434147453308105469e+01 -2.102664560079574585e-01 5.329632282257080078e+00 1.535809755325317383e+00 1.094144582748413086e+00
2.879000000000000000e+03 6.566839599609375000e+01 1.534307384490966797e+01 -4.380334615707397461e-01 7.912075996398925781e+00 2.242212772369384766e+00 -4.220449626445770264e-01
2.880000000000000000e+03 6.520996856689453125e+01 1.333737850189208984e+01 -4.470078945159912109e-01 7.762724876403808594e+00 2.194715023040771484e+00 -3.134322762489318848e-01
2.881000000000000000e+03 4.582394409179687500e+01 -9.132695198059082031e+00 -2.487790733575820923e-01 3.795587301254272461e+00 1.064042448997497559e+00 -3.538683429360389709e-02
2.882000000000000000e+03 6.578461456298828125e+01 4.210766792297363281e+00 -3.504845201969146729e-01 7.427341938018798828e+00 2.123057126998901367e+00 -4.906909912824630737e-02
2.883000000000000000e+03 4.404572296142578125e+01 -1.073087930679321289e+00 4.375482350587844849e-02 3.205282211303710938e+00 9.747111201286315918e-01 2.319825142621994019e-01
2.884000000000000000e+03 6.469778442382812500e+01 2.138623046875000000e+01 -3.280431926250457764e-01 8.435231208801269531e+00 2.432156324386596680e+00 -5.788235068321228027e-01
2.885000000000000000e+03 5.450561523437500000e+01 -1.814884376525878906e+01 -3.483197391033172607e-01 5.879461765289306641e+00 1.659342646598815918e+00 2.700919806957244873e-01
2.886000000000000000e+03 6.221466064453125000e+01 2.333058738708496094e+01 -2.074261456727981567e-01 8.811347007751464844e+00 2.581176280975341797e+00 -3.010941445827484131e-01
2.887000000000000000e+03 6.351323318481445312e+01 2.313346672058105469e+01 -2.532558739185333252e-01 8.677124023437500000e+00 2.527160406112670898e+00 -5.374667644500732422e-01
2.888000000000000000e+03 6.588476562500000000e+01 2.741796112060546875e+01 2.514826059341430664e-01 8.756047248840332031e+00 2.702258825302124023e+00 -6.939094066619873047e-01
2.889000000000000000e+03 4.964607238769531250e+01 -1.591948604583740234e+01 -4.193263351917266846e-01 4.946188926696777344e+00 1.358058810234069824e+00 6.062739063054323196e-03
2.890000000000000000e+03 5.080757904052734375e+01 -1.403081512451171875e+01 -4.227514863014221191e-01 5.080065727233886719e+00 1.397194266319274902e+00 7.376205921173095703e-02
2.891000000000000000e+03 4.771848297119140625e+01 -1.494198989868164062e+01 -3.993596434593200684e-01 4.470168590545654297e+00 1.221242666244506836e+00 -8.035191893577575684e-02
2.892000000000000000e+03 4.896588516235351562e+01 -1.807707786560058594e+01 -4.140844643115997314e-01 4.921670913696289062e+00 1.352275848388671875e+00 -4.866495355963706970e-02
2.893000000000000000e+03 5.118395233154296875e+01 -1.863813972473144531e+01 -4.114601612091064453e-01 5.394696235656738281e+00 1.494970917701721191e+00 9.902159124612808228e-02
2.894000000000000000e+03 4.416925811767578125e+01 1.950700283050537109e-01 5.806092545390129089e-02 3.191170454025268555e+00 9.747693538665771484e-01 2.908301353454589844e-01
2.895000000000000000e+03 4.674065399169921875e+01 8.083451271057128906e+00 2.443901821970939636e-02 3.831427097320556641e+00 1.156759858131408691e+00 7.904769182205200195e-01
2.896000000000000000e+03 4.934371948242187500e+01 7.898880481719970703e+00 -1.467031091451644897e-01 4.560380458831787109e+00 1.324103236198425293e+00 7.248052358627319336e-01
2.897000000000000000e+03 1.205883216857910156e+01 -7.454981327056884766e+00 5.700334310531616211e-01 1.873259902000427246e+00 7.329879999160766602e-01 4.253814518451690674e-01
2.898000000000000000e+03 1.254706096649169922e+01 -7.784411907196044922e+00 6.278566122055053711e-01 2.232751607894897461e+00 8.581824898719787598e-01 4.701671898365020752e-01
2.899000000000000000e+03 1.290429973602294922e+01 -2.044285392761230469e+01 -5.617391318082809448e-02 1.749862909317016602e+00 5.081067085266113281e-01 1.689792871475219727e-01
2.900000000000000000e+03 6.577242279052734375e+01 -7.803720951080322266e+00 -2.347105592489242554e-01 7.213338375091552734e+00 2.093588352203369141e+00 2.217965573072433472e-01
2.901000000000000000e+03 4.537348937988281250e+01 3.916977167129516602e+00 8.669292926788330078e-02 3.464303731918334961e+00 1.065299034118652344e+00 5.241174101829528809e-01
2.902000000000000000e+03 6.159243392944335938e+01 1.943598175048828125e+01 -4.652824699878692627e-01 8.181322097778320312e+00 2.314811944961547852e+00 -1.258146911859512329e-01
2.903000000000000000e+03 6.664559936523437500e+01 8.968168258666992188e+00 -3.495428264141082764e-01 7.668535232543945312e+00 2.195697784423828125e+00 -2.236474454402923584e-01
2.904000000000000000e+03 6.762727355957031250e+01 6.857522964477539062e+00 -3.191450834274291992e-01 7.678461074829101562e+00 2.207794904708862305e+00 -1.903997808694839478e-01
2.905000000000000000e+03 6.556501770019531250e+01 1.443429470062255859e+00 -3.183163106441497803e-01 7.322509288787841797e+00 2.101257801055908203e+00 2.057562209665775299e-02
2.906000000000000000e+03 6.477079772949218750e+01 -6.542492866516113281e+00 -2.698927819728851318e-01 7.100761890411376953e+00 2.049260854721069336e+00 2.015424519777297974e-01
2.907000000000000000e+03 6.338121032714843750e+01 2.065083026885986328e+00 -3.704814314842224121e-01 7.062971115112304688e+00 2.007746934890747070e+00 7.231385260820388794e-02
2.908000000000000000e+03 1.188726139068603516e+01 -1.753608703613281250e+01 6.916167587041854858e-02 1.708221554756164551e+00 5.332149863243103027e-01 2.536004483699798584e-01
2.909000000000000000e+03 4.228174209594726562e+01 -3.118005990982055664e+00 7.143256068229675293e-02 2.750891923904418945e+00 8.466973304748535156e-01 8.810717612504959106e-02
2.910000000000000000e+03 6.541283416748046875e+01 1.029356193542480469e+01 -4.130623042583465576e-01 7.650356769561767578e+00 2.171188354492187500e+00 -2.071880698204040527e-01
2.911000000000000000e+03 5.915430450439453125e+01 2.091635894775390625e+01 -4.264954328536987305e-01 8.287746429443359375e+00 2.358375310897827148e+00 2.842414677143096924e-01
2.912000000000000000e+03 5.783915328979492188e+01 1.642977333068847656e+01 -5.834319591522216797e-01 7.368165969848632812e+00 2.035420179367065430e+00 4.185129702091217041e-01
2.913000000000000000e+03 6.372964859008789062e+01 4.002542018890380859e+00 -3.962813019752502441e-01 7.166797637939453125e+00 2.031154870986938477e+00 2.123694680631160736e-02
2.914000000000000000e+03 4.486069488525390625e+01 2.658383131027221680e+00 7.087111473083496094e-02 3.324850320816040039e+00 1.018716454505920410e+00 4.390622675418853760e-01
2.915000000000000000e+03 6.464939880371093750e+01 1.464051628112792969e+01 -4.875530004501342773e-01 7.876143455505371094e+00 2.216577291488647461e+00 -2.954225838184356689e-01
2.916000000000000000e+03 5.809389495849609375e+01 2.192028427124023438e+01 -5.090553164482116699e-01 8.494616508483886719e+00 2.395668268203735352e+00 4.460284411907196045e-01
2.917000000000000000e+03 1.152154254913330078e+01 -2.195327758789062500e+01 -6.849019229412078857e-02 1.452498078346252441e+00 4.152023494243621826e-01 2.231455147266387939e-01
2.918000000000000000e+03 4.811036300659179688e+01 9.235501289367675781e+00 -5.592824146151542664e-02 4.239471435546875000e+00 1.255062937736511230e+00 8.583893775939941406e-01
2.919000000000000000e+03 5.069639205932617188e+01 1.001365470886230469e+01 -2.133438140153884888e-01 5.000419616699218750e+00 1.436122775077819824e+00 8.084731101989746094e-01
2.920000000000000000e+03 5.069673156738281250e+01 1.132149982452392578e+01 -2.145615965127944946e-01 5.058143138885498047e+00 1.453074455261230469e+00 8.904073238372802734e-01
2.921000000000000000e+03 5.154088973999023438e+01 -1.075062561035156250e+01 -3.786284923553466797e-01 5.077267169952392578e+00 1.409591555595397949e+00 1.120040714740753174e-01
2.922000000000000000e+03 4.869564819335937500e+01 -1.291706848144531250e+01 -3.884024322032928467e-01 4.581219196319580078e+00 1.257844924926757812e+00 -1.858006976544857025e-02
2.923000000000000000e+03 4.759577941894531250e+01 -8.111447334289550781e+00 -2.700660526752471924e-01 4.155985832214355469e+00 1.165775895118713379e+00 3.898536041378974915e-02
2.924000000000000000e+03 6.403439331054687500e+01 1.281985092163085938e+01 -4.994195699691772461e-01 7.712156295776367188e+00 2.163820981979370117e+00 -1.946883797645568848e-01
2.925000000000000000e+03 1.009373283386230469e+01 -3.023825645446777344e+01 -1.121156141161918640e-01 1.035632371902465820e+00 2.770550251007080078e-01 1.574704051017761230e-01
2.926000000000000000e+03 1.148876285552978516e+01 -2.886964035034179688e+01 -1.308708041906356812e-01 1.210489630699157715e+00 3.238856494426727295e-01 1.439355611801147461e-01
2.927000000000000000e+03 6.345706558227539062e+01 2.163673782348632812e+01 -3.274974226951599121e-01 8.527951240539550781e+00 2.460135936737060547e+00 -4.219172298908233643e-01
2.928000000000000000e+03 5.854586029052734375e+01 1.943124198913574219e+01 -5.814247131347656250e-01 7.960707664489746094e+00 2.213784933090209961e+00 3.306514322757720947e-01
2.929000000000000000e+03 6.550732421875000000e+01 -1.029026317596435547e+01 -2.354065477848052979e-01 7.171094894409179688e+00 2.080706596374511719e+00 2.886216938495635986e-01
2.930000000000000000e+03 6.041707229614257812e+01 -1.198953437805175781e+01 -3.251703977584838867e-01 6.538951396942138672e+00 1.864134311676025391e+00 3.118945658206939697e-01
2.931000000000000000e+03 1.997170829772949219e+01 2.341479873657226562e+01 -5.873897671699523926e-01 5.691005587577819824e-01 -5.486766807734966278e-03 -4.070341885089874268e-01
2.932000000000000000e+03 1.802550697326660156e+01 2.501651382446289062e+01 -4.994281530380249023e-01 8.729108572006225586e-01 1.120448112487792969e-01 -3.801655173301696777e-01
2.933000000000000000e+03 5.342970657348632812e+01 -1.690147399902343750e+01 -3.976585268974304199e-01 5.660171508789062500e+00 1.578753829002380371e+00 2.049634158611297607e-01
2.934000000000000000e+03 5.235376358032226562e+01 -1.579373931884765625e+01 -4.019258022308349609e-01 5.434591770172119141e+00 1.509799718856811523e+00 1.505401432514190674e-01
2.935000000000000000e+03 6.124426651000976562e+01 -1.634293174743652344e+01 -2.600067555904388428e-01 6.680955886840820312e+00 1.926284790039062500e+00 4.009955227375030518e-01
2.936000000000000000e+03 6.391920852661132812e+01 1.576677608489990234e+01 -4.897329807281494141e-01 7.881536960601806641e+00 2.217541217803955078e+00 -2.867523729801177979e-01
2.937000000000000000e+03 6.089378738403320312e+01 2.180124282836914062e+01 -3.527463674545288086e-01 8.540642738342285156e+00 2.456368923187255859e+00 -3.767205029726028442e-02
2.938000000000000000e+03 6.264448547363281250e+01 -1.743378257751464844e+01 -2.173222899436950684e-01 6.831963539123535156e+00 1.984392285346984863e+00 4.284985661506652832e-01
2.939000000000000000e+03 5.560697555541992188e+01 -1.719870567321777344e+01 -3.613135814666748047e-01 5.989264965057373047e+00 1.688385486602783203e+00 2.910310328006744385e-01
2.940000000000000000e+03 4.384079360961914062e+01 -2.336619615554809570e+00 1.464966568164527416e-03 3.152681350708007812e+00 9.462438821792602539e-01 1.529594212770462036e-01
2.941000000000000000e+03 5.537326812744140625e+01 -2.195744705200195312e+01 -2.363754510879516602e-01 6.154176235198974609e+00 1.775340199470520020e+00 3.790403306484222412e-01
2.942000000000000000e+03 5.678874969482421875e+01 -1.855072784423828125e+01 -2.987970411777496338e-01 6.198893547058105469e+00 1.770028948783874512e+00 3.633368611335754395e-01
2.943000000000000000e+03 4.617456054687500000e+01 2.280191421508789062e+00 1.665330491960048676e-02 3.679178714752197266e+00 1.108749628067016602e+00 4.393995702266693115e-01
2.944000000000000000e+03 6.456436920166015625e+01 1.999540328979492188e+01 -3.676164150238037109e-01 8.302616119384765625e+00 2.380500078201293945e+00 -4.849833250045776367e-01
2.945000000000000000e+03 6.768640136718750000e+01 1.005411052703857422e+01 -3.304842412471771240e-01 7.775274753570556641e+00 2.233437061309814453e+00 -2.861369848251342773e-01
2.946000000000000000e+03 4.340433883666992188e+01 -5.272922992706298828e+00 -4.856188967823982239e-02 3.109811544418334961e+00 9.183748960494995117e-01 7.720402907580137253e-03
2.947000000000000000e+03 4.553258895874023438e+01 -5.330232620239257812e+00 -1.306133121252059937e-01 3.640516042709350586e+00 1.052970767021179199e+00 7.242455333471298218e-02
2.948000000000000000e+03 4.667291259765625000e+01 3.430355548858642578e+00 -1.870723254978656769e-02 3.775731086730957031e+00 1.127107143402099609e+00 4.996718168258666992e-01
2.949000000000000000e+03 6.158098602294921875e+01 1.655311012268066406e+01 -5.790477991104125977e-01 7.873717784881591797e+00 2.188400983810424805e+00 -6.586131453514099121e-02
2.950000000000000000e+03 6.453948211669921875e+01 1.990633964538574219e+00 -3.536098599433898926e-01 7.228337287902832031e+00 2.062418222427368164e+00 2.352370135486125946e-02
2.951000000000000000e+03 6.499754333496093750e+01 -3.156888961791992188e+00 -2.831857204437255859e-01 7.171538352966308594e+00 2.066505670547485352e+00 1.281079053878784180e-01
2.952000000000000000e+03 6.602307128906250000e+01 -6.586253643035888672e+00 -2.531248331069946289e-01 7.251492977142333984e+00 2.099510431289672852e+00 1.904957741498947144e-01
2.953000000000000000e+03 6.546635437011718750e+01 6.853587150573730469e+00 -3.842959702014923096e-01 7.481672763824462891e+00 2.129213094711303711e+00 -1.206136047840118408e-01
2.954000000000000000e+03 6.471504974365234375e+01 2.972176074981689453e+00 -3.495625257492065430e-01 7.275377273559570312e+00 2.077744483947753906e+00 1.218698546290397644e-02
2.955000000000000000e+03 4.656539535522460938e+01 6.630040168762207031e+00 4.616085439920425415e-02 3.759307861328125000e+00 1.141640663146972656e+00 6.944639682769775391e-01
2.956000000000000000e+03 4.931289672851562500e+01 9.097838401794433594e+00 -1.256706863641738892e-01 4.584914207458496094e+00 1.337772965431213379e+00 8.203172683715820312e-01
2.957000000000000000e+03 6.548780822753906250e+01 9.303667068481445312e+00 -4.216299355030059814e-01 7.594949722290039062e+00 2.151995897293090820e+00 -2.071285694837570190e-01
2.958000000000000000e+03 4.943748474121093750e+01 1.020603179931640625e+01 -1.399853676557540894e-01 4.655011177062988281e+00 1.354507684707641602e+00 8.951972723007202148e-01
2.959000000000000000e+03 4.806778717041015625e+01 7.914391040802001953e+00 -4.805919900536537170e-02 4.191759586334228516e+00 1.243110179901123047e+00 7.740287780761718750e-01
2.960000000000000000e+03 6.368387222290039062e+01 1.409981441497802734e+01 -5.043457150459289551e-01 7.727088928222656250e+00 2.166822910308837891e+00 -2.249834388494491577e-01
2.961000000000000000e+03 6.206533432006835938e+01 1.751124763488769531e+01 -5.068416595458984375e-01 7.976322650909423828e+00 2.240844249725341797e+00 -1.430829018354415894e-01
2.962000000000000000e+03 5.374298477172851562e+01 1.492597866058349609e+01 -3.976106941699981689e-01 6.206916332244873047e+00 1.742791652679443359e+00 9.059087038040161133e-01
2.963000000000000000e+03 6.307783508300781250e+01 5.440995693206787109e-01 -3.562480807304382324e-01 6.998317718505859375e+00 1.992620825767517090e+00 1.016411855816841125e-01
2.964000000000000000e+03 5.938534545898437500e+01 1.745233345031738281e+01 -6.015992164611816406e-01 7.753816604614257812e+00 2.145665168762207031e+00 2.074528932571411133e-01
2.965000000000000000e+03 6.418753814697265625e+01 -8.924442291259765625e+00 -2.728786170482635498e-01 7.019343852996826172e+00 2.023939609527587891e+00 2.611365318298339844e-01
2.966000000000000000e+03 5.651755523681640625e+01 1.380799198150634766e+01 -5.148231983184814453e-01 6.782666683197021484e+00 1.880352973937988281e+00 5.517591834068298340e-01
2.967000000000000000e+03 4.537520599365234375e+01 -1.067858457565307617e+00 -2.936682477593421936e-02 3.512171268463134766e+00 1.044841289520263672e+00 2.371450066566467285e-01
2.968000000000000000e+03 4.450527954101562500e+01 -4.238630771636962891e+00 -8.983931690454483032e-02 3.358860254287719727e+00 9.807062745094299316e-01 9.858468919992446899e-02
2.969000000000000000e+03 4.629423522949218750e+01 -6.533313274383544922e+00 -2.217116802930831909e-01 3.854106903076171875e+00 1.089718580245971680e+00 6.164477020502090454e-02
2.970000000000000000e+03 4.880422592163085938e+01 -8.485278129577636719e+00 -3.234974741935729980e-01 4.437479972839355469e+00 1.234194755554199219e+00 5.293519422411918640e-02
2.971000000000000000e+03 4.859020233154296875e+01 -9.816890716552734375e+00 -3.432761728763580322e-01 4.431334972381591797e+00 1.226417541503906250e+00 3.318956494331359863e-02
2.972000000000000000e+03 5.276472473144531250e+01 1.332520294189453125e+01 -3.373944759368896484e-01 5.761670589447021484e+00 1.627282857894897461e+00 8.946783542633056641e-01
2.973000000000000000e+03 5.200093841552734375e+01 1.156961441040039062e+01 -2.927710711956024170e-01 5.415775299072265625e+00 1.536901235580444336e+00 8.413727879524230957e-01
2.974000000000000000e+03 4.577410125732421875e+01 1.143215417861938477e+00 -6.309827789664268494e-03 3.571635246276855469e+00 1.069597601890563965e+00 3.634685575962066650e-01
2.975000000000000000e+03 6.308358383178710938e+01 1.501793289184570312e+01 -5.333813428878784180e-01 7.816206455230712891e+00 2.184847593307495117e+00 -1.843478530645370483e-01
2.976000000000000000e+03 1.644348716735839844e+01 2.439548492431640625e+01 -4.997439384460449219e-01 1.184442520141601562e+00 2.054095715284347534e-01 -3.352536559104919434e-01
2.977000000000000000e+03 6.308553695678710938e+01 -2.008211517333984375e+01 -1.470621377229690552e-01 6.882739067077636719e+00 2.020703077316284180e+00 4.752177596092224121e-01
2.978000000000000000e+03 6.454282379150390625e+01 -2.115787887573242188e+01 -9.959973394870758057e-02 7.025407314300537109e+00 2.077742338180541992e+00 4.920975565910339355e-01
2.979000000000000000e+03 5.329744720458984375e+01 -1.474115562438964844e+01 -4.138533473014831543e-01 5.540057659149169922e+00 1.537861347198486328e+00 1.709510833024978638e-01
2.980000000000000000e+03 1.665267372131347656e+01 -2.658266639709472656e+01 -1.383468508720397949e-01 1.742402911186218262e+00 4.812168180942535400e-01 -7.154943794012069702e-02
2.981000000000000000e+03 1.661187934875488281e+01 -2.511483383178710938e+01 -1.132334470748901367e-01 1.828014731407165527e+00 5.144343972206115723e-01 -8.884193003177642822e-02
2.982000000000000000e+03 5.240681076049804688e+01 1.463689517974853516e+01 -3.106863200664520264e-01 5.781368732452392578e+00 1.641204714775085449e+00 1.026106953620910645e+00
2.983000000000000000e+03 5.151235198974609375e+01 1.300415897369384766e+01 -2.630861103534698486e-01 5.382973670959472656e+00 1.535966277122497559e+00 9.799749255180358887e-01
2.984000000000000000e+03 6.427565002441406250e+01 -1.436374664306640625e+01 -2.343854159116744995e-01 7.003830432891845703e+00 2.030833482742309570e+00 3.712414205074310303e-01
2.985000000000000000e+03 6.025334167480468750e+01 -1.763015747070312500e+01 -2.605464756488800049e-01 6.571769714355468750e+00 1.893366932868957520e+00 4.126192033290863037e-01
2.986000000000000000e+03 6.164327621459960938e+01 -1.887196922302246094e+01 -1.951874047517776489e-01 6.744834899902343750e+00 1.964894175529479980e+00 4.535565972328186035e-01
2.987000000000000000e+03 6.294990539550781250e+01 -1.357565593719482422e+01 -2.617894411087036133e-01 6.861466407775878906e+00 1.979903101921081543e+00 3.556656539440155029e-01
2.988000000000000000e+03 5.729146575927734375e+01 -2.555255508422851562e+01 1.261872425675392151e-02 6.429373264312744141e+00 1.932597637176513672e+00 4.920412003993988037e-01
2.989000000000000000e+03 4.699544906616210938e+01 -2.321515798568725586e+00 -1.249415799975395203e-01 3.877931356430053711e+00 1.125896930694580078e+00 2.076283395290374756e-01
2.990000000000000000e+03 6.270145034790039062e+01 1.272866439819335938e+01 -5.332948565483093262e-01 7.556339263916015625e+00 2.106913328170776367e+00 -1.032622382044792175e-01
2.991000000000000000e+03 6.416249847412109375e+01 9.106226921081542969e+00 -4.575816988945007324e-01 7.489836692810058594e+00 2.109676599502563477e+00 -1.310132741928100586e-01
2.992000000000000000e+03 1.418734550476074219e+01 -2.280343246459960938e+01 -1.131711602210998535e-01 1.770997047424316406e+00 4.973477423191070557e-01 7.350704818964004517e-02
2.993000000000000000e+03 6.631185150146484375e+01 7.796193122863769531e+00 -3.795632421970367432e-01 7.611336231231689453e+00 2.169532060623168945e+00 -1.794087290763854980e-01
2.994000000000000000e+03 6.267279052734375000e+01 1.405820083618164062e+01 -5.361310839653015137e-01 7.710997104644775391e+00 2.152459859848022461e+00 -1.191669777035713196e-01
2.995000000000000000e+03 6.238557815551757812e+01 1.131506443023681641e+01 -5.075956583023071289e-01 7.425762176513671875e+00 2.075449943542480469e+00 -3.506937995553016663e-02
2.996000000000000000e+03 5.122417068481445312e+01 8.470288276672363281e+00 -2.418199777603149414e-01 5.052188396453857422e+00 1.443110466003417969e+00 6.983803510665893555e-01
2.997000000000000000e+03 6.209623336791992188e+01 -1.808676719665527344e-01 -3.665929436683654785e-01 6.830200195312500000e+00 1.939082145690917969e+00 1.280068308115005493e-01
2.998000000000000000e+03 4.605484390258789062e+01 5.218939781188964844e+00 2.832211740314960480e-02 3.639528036117553711e+00 1.100355029106140137e+00 5.978298187255859375e-01
2.999000000000000000e+03 4.837099075317382812e+01 5.166203975677490234e+00 -8.444352447986602783e-02 4.201618671417236328e+00 1.235152482986450195e+00 5.961444973945617676e-01
3.000000000000000000e+03 4.958018875122070312e+01 6.604217529296875000e+00 -1.513207107782363892e-01 4.596041679382324219e+00 1.333416223526000977e+00 6.535646915435791016e-01
3.001000000000000000e+03 6.339303207397460938e+01 3.093796968460083008e+00 -3.971304595470428467e-01 7.085495471954345703e+00 2.006509542465209961e+00 4.411944001913070679e-02
3.002000000000000000e+03 5.913261795043945312e+01 1.610490608215332031e+01 -5.592809319496154785e-01 7.530380249023437500e+00 2.091329813003540039e+00 2.658185660839080811e-01
3.003000000000000000e+03 6.462142944335937500e+01 -5.619116783142089844e+00 -2.863985002040863037e-01 7.088729381561279297e+00 2.040699243545532227e+00 1.819715499877929688e-01
3.004000000000000000e+03 6.042835998535156250e+01 2.026517105102539062e+01 -5.692279338836669922e-01 8.309820175170898438e+00 2.322177648544311523e+00 -1.513802912086248398e-03
3.005000000000000000e+03 5.402147293090820312e+01 1.360980606079101562e+01 -4.233519136905670166e-01 6.174172401428222656e+00 1.725246071815490723e+00 8.009853959083557129e-01
3.006000000000000000e+03 5.527699661254882812e+01 1.378057384490966797e+01 -4.836719930171966553e-01 6.478167533874511719e+00 1.798348665237426758e+00 6.662845015525817871e-01
3.007000000000000000e+03 4.907587432861328125e+01 -5.999694347381591797e+00 -2.580650150775909424e-01 4.442624568939208984e+00 1.255367875099182129e+00 1.228082254528999329e-01
3.008000000000000000e+03 4.645067977905273438e+01 -1.089623570442199707e+00 -6.290565431118011475e-02 3.791370153427124023e+00 1.118539333343505859e+00 2.833065390586853027e-01
3.009000000000000000e+03 4.445717620849609375e+01 1.418377637863159180e+00 9.648845344781875610e-02 3.247550487518310547e+00 1.003211736679077148e+00 3.775503337383270264e-01
3.010000000000000000e+03 6.304306030273437500e+01 1.669338798522949219e+01 -5.304740071296691895e-01 7.982199668884277344e+00 2.235517740249633789e+00 -2.377526462078094482e-01
3.011000000000000000e+03 6.320647811889648438e+01 1.935377502441406250e+01 -4.408612847328186035e-01 8.196143150329589844e+00 2.326584577560424805e+00 -3.292482495307922363e-01
3.012000000000000000e+03 6.272435760498046875e+01 -1.017239284515380859e+01 -2.945168018341064453e-01 6.822792053222656250e+00 1.958482623100280762e+00 2.891876101493835449e-01
3.013000000000000000e+03 6.214271545410156250e+01 -1.499491310119628906e+01 -2.697895467281341553e-01 6.764937400817871094e+00 1.948544383049011230e+00 3.795147538185119629e-01
3.014000000000000000e+03 4.822528457641601562e+01 -6.863546848297119141e+00 -2.937600612640380859e-01 4.264656543731689453e+00 1.191268920898437500e+00 8.276509493589401245e-02
3.015000000000000000e+03 4.846002960205078125e+01 -1.132622909545898438e+01 -3.606539666652679443e-01 4.452253341674804688e+00 1.227479815483093262e+00 -1.598767377436161041e-02
3.016000000000000000e+03 5.009277343750000000e+01 -1.111571788787841797e+01 -3.913844525814056396e-01 4.825875759124755859e+00 1.330347418785095215e+00 6.292618811130523682e-02
3.017000000000000000e+03 4.527822113037109375e+01 -2.989994049072265625e+00 -6.282434612512588501e-02 3.541759252548217773e+00 1.043680429458618164e+00 1.597389280796051025e-01
3.018000000000000000e+03 4.548893737792968750e+01 3.845913708209991455e-02 -1.392394071444869041e-03 3.522884368896484375e+00 1.056447625160217285e+00 3.105092644691467285e-01
3.019000000000000000e+03 6.369159698486328125e+01 -1.204333305358886719e+01 -2.690777182579040527e-01 6.945878028869628906e+00 2.003040075302124023e+00 3.237105607986450195e-01
3.020000000000000000e+03 1.736688804626464844e+01 2.700355529785156250e+01 -4.349793493747711182e-01 1.033822417259216309e+00 1.796529293060302734e-01 -2.991691827774047852e-01
3.021000000000000000e+03 5.035754013061523438e+01 -1.254347991943359375e+01 -3.882577717304229736e-01 4.916491031646728516e+00 1.358469963073730469e+00 5.786283686757087708e-02
3.022000000000000000e+03 5.237714767456054688e+01 -1.345196723937988281e+01 -4.013296961784362793e-01 5.343795299530029297e+00 1.482739686965942383e+00 1.352026611566543579e-01
3.023000000000000000e+03 5.452373886108398438e+01 -1.381002330780029297e+01 -3.891302943229675293e-01 5.711642742156982422e+00 1.596753716468811035e+00 2.159057259559631348e-01
3.024000000000000000e+03 1.308400154113769531e+01 -2.613906860351562500e+01 -1.291602849960327148e-01 1.472457528114318848e+00 4.029891788959503174e-01 1.141925230622291565e-01
3.025000000000000000e+03 1.770033454895019531e+01 -2.592563819885253906e+01 -1.090608537197113037e-01 1.878404259681701660e+00 5.308030247688293457e-01 -1.643284708261489868e-01
3.026000000000000000e+03 5.278152084350585938e+01 8.276869773864746094e+00 -3.270720243453979492e-01 5.471585273742675781e+00 1.543353915214538574e+00 6.062409281730651855e-01
3.027000000000000000e+03 5.546417999267578125e+01 1.253798770904541016e+01 -4.730817675590515137e-01 6.422079563140869141e+00 1.784699320793151855e+00 6.102425456047058105e-01
3.028000000000000000e+03 6.529640960693359375e+01 5.197883129119873047e+00 -3.761794865131378174e-01 7.389293193817138672e+00 2.103934049606323242e+00 -6.791254878044128418e-02
3.029000000000000000e+03 6.432683563232421875e+01 4.652874469757080078e+00 -3.877284228801727295e-01 7.275358676910400391e+00 2.066288948059082031e+00 -1.810245774686336517e-02
3.030000000000000000e+03 4.728910827636718750e+01 4.569643020629882812e+00 -2.205987088382244110e-02 3.950598478317260742e+00 1.178561568260192871e+00 5.739535689353942871e-01
3.031000000000000000e+03 6.009728622436523438e+01 1.226575469970703125e+01 -5.529760122299194336e-01 7.230261325836181641e+00 2.003185510635375977e+00 1.650320589542388916e-01
3.032000000000000000e+03 6.217663574218750000e+01 2.167321968078613281e+01 -4.387476742267608643e-01 8.516020774841308594e+00 2.423182010650634766e+00 -3.035518527030944824e-01
3.033000000000000000e+03 6.441402435302734375e+01 7.672482967376708984e+00 -4.276964962482452393e-01 7.423119544982910156e+00 2.098626852035522461e+00 -8.619157224893569946e-02
3.034000000000000000e+03 5.643362426757812500e+01 1.517907619476318359e+01 -5.421193838119506836e-01 6.893191814422607422e+00 1.905321717262268066e+00 5.895014405250549316e-01
3.035000000000000000e+03 4.839925384521484375e+01 4.029537677764892578e+00 -1.060853973031044006e-01 4.228642463684082031e+00 1.236767053604125977e+00 5.178341269493103027e-01
3.036000000000000000e+03 6.140182495117187500e+01 1.306029987335205078e+01 -5.442194938659667969e-01 7.467420101165771484e+00 2.076960086822509766e+00 1.737099327147006989e-02
3.037000000000000000e+03 4.337712478637695312e+01 -3.442261695861816406e+00 7.869685650803148746e-04 3.098531007766723633e+00 9.297953844070434570e-01 9.615164250135421753e-02
3.038000000000000000e+03 6.244275283813476562e+01 2.025510215759277344e+01 -4.514603018760681152e-01 8.401336669921875000e+00 2.384962797164916992e+00 -2.176927775144577026e-01
3.039000000000000000e+03 6.450661468505859375e+01 6.085802078247070312e+00 -3.950818479061126709e-01 7.356829643249511719e+00 2.088524341583251953e+00 -5.051197111606597900e-02
3.040000000000000000e+03 6.464203643798828125e+01 9.844738006591796875e+00 -4.263790547847747803e-01 7.534245014190673828e+00 2.132359743118286133e+00 -1.482017487287521362e-01
3.041000000000000000e+03 5.043210220336914062e+01 8.015097618103027344e+00 -2.035118788480758667e-01 4.843452453613281250e+00 1.391982078552246094e+00 7.097775936126708984e-01
3.042000000000000000e+03 5.275011444091796875e+01 1.018615055084228516e+01 -3.326283097267150879e-01 5.550232887268066406e+00 1.565281391143798828e+00 7.116662859916687012e-01
3.043000000000000000e+03 5.086038589477539062e+01 6.893151283264160156e+00 -2.196716070175170898e-01 4.902634143829345703e+00 1.404888749122619629e+00 6.318212151527404785e-01
3.044000000000000000e+03 5.901693344116210938e+01 1.481368923187255859e+01 -5.909386873245239258e-01 7.333533763885498047e+00 2.022778511047363281e+00 2.592802047729492188e-01
3.045000000000000000e+03 5.774535369873046875e+01 1.503959274291992188e+01 -5.577507615089416504e-01 7.179918289184570312e+00 1.986650228500366211e+00 4.455144703388214111e-01
3.046000000000000000e+03 6.395102691650390625e+01 1.205666065216064453e+00 -3.546628654003143311e-01 7.103524208068847656e+00 2.024658441543579102e+00 6.315970420837402344e-02
3.047000000000000000e+03 6.380730438232421875e+01 -3.780717372894287109e+00 -3.199192583560943604e-01 6.990653991699218750e+00 2.001220464706420898e+00 1.619755923748016357e-01
3.048000000000000000e+03 6.409449768066406250e+01 -2.101788759231567383e+00 -3.207522630691528320e-01 7.068309307098388672e+00 2.024267196655273438e+00 1.204939186573028564e-01
3.049000000000000000e+03 6.304029464721679688e+01 -1.154738068580627441e+00 -3.418550193309783936e-01 6.955355167388916016e+00 1.984050035476684570e+00 1.264907270669937134e-01
3.050000000000000000e+03 6.055131149291992188e+01 1.700575637817382812e+01 -5.435292720794677734e-01 7.820164680480957031e+00 2.182990550994873047e+00 5.734422430396080017e-02
3.051000000000000000e+03 6.097858810424804688e+01 1.823031616210937500e+01 -5.823438763618469238e-01 8.042282104492187500e+00 2.237981557846069336e+00 -2.335075847804546356e-02
3.052000000000000000e+03 6.145632171630859375e+01 1.553485774993896484e+01 -5.467701554298400879e-01 7.740221500396728516e+00 2.158035516738891602e+00 -3.469893708825111389e-02
3.053000000000000000e+03 6.033393478393554688e+01 1.577979278564453125e+01 -5.886997580528259277e-01 7.623773097991943359e+00 2.110522031784057617e+00 9.383919835090637207e-02
3.054000000000000000e+03 6.447078704833984375e+01 -7.613181591033935547e+00 -2.809842526912689209e-01 7.057932376861572266e+00 2.033084392547607422e+00 2.345373928546905518e-01
3.055000000000000000e+03 6.152989578247070312e+01 -9.853280067443847656e+00 -3.213955461978912354e-01 6.665437221527099609e+00 1.903212428092956543e+00 2.807919085025787354e-01
3.056000000000000000e+03 5.370779418945312500e+01 -1.267570781707763672e+01 -4.117217063903808594e-01 5.551831722259521484e+00 1.542033076286315918e+00 1.780084520578384399e-01
3.057000000000000000e+03 5.314266586303710938e+01 -1.152398967742919922e+01 -3.960417211055755615e-01 5.421153545379638672e+00 1.507533431053161621e+00 1.581069231033325195e-01
3.058000000000000000e+03 6.360116577148437500e+01 5.355207920074462891e+00 -4.043219089508056641e-01 7.213512420654296875e+00 2.042757272720336914e+00 -3.185441950336098671e-03
3.059000000000000000e+03 6.083861160278320312e+01 -1.403729915618896484e+01 -2.992581725120544434e-01 6.611763477325439453e+00 1.893751621246337891e+00 3.537226915359497070e-01
3.060000000000000000e+03 5.319239044189453125e+01 1.201501178741455078e+01 -3.747929930686950684e-01 5.810890197753906250e+00 1.630829095840454102e+00 7.857586145401000977e-01
3.061000000000000000e+03 5.789621734619140625e+01 -1.750613594055175781e+01 -3.118065595626831055e-01 6.295028209686279297e+00 1.794966578483581543e+00 3.657341599464416504e-01
3.062000000000000000e+03 5.993186187744140625e+01 -1.523271274566650391e+01 -3.093549609184265137e-01 6.502621173858642578e+00 1.857979774475097656e+00 3.626546859741210938e-01
3.063000000000000000e+03 6.054214477539062500e+01 -2.024407005310058594e+01 -1.865179389715194702e-01 6.632271289825439453e+00 1.933726072311401367e+00 4.672565460205078125e-01
3.064000000000000000e+03 1.478568553924560547e+01 -2.985163688659667969e+01 -1.390887647867202759e-01 1.478441834449768066e+00 4.018059372901916504e-01 3.751039505004882812e-02
3.065000000000000000e+03 5.561932754516601562e+01 1.142157363891601562e+01 -4.742591679096221924e-01 6.341022968292236328e+00 1.760029196739196777e+00 5.448897480964660645e-01
3.066000000000000000e+03 6.217082977294921875e+01 3.623142480850219727e+00 -4.178341031074523926e-01 6.937127590179443359e+00 1.955788016319274902e+00 8.966016769409179688e-02
3.067000000000000000e+03 6.348217010498046875e+01 8.521047592163085938e+00 -4.696535766124725342e-01 7.346517086029052734e+00 2.063059091567993164e+00 -5.478539317846298218e-02
3.068000000000000000e+03 5.191995620727539062e+01 7.489099979400634766e+00 -2.798860967159271240e-01 5.192846775054931641e+00 1.473888158798217773e+00 6.284177899360656738e-01
3.069000000000000000e+03 5.432870864868164062e+01 1.236638736724853516e+01 -4.219664037227630615e-01 6.099868774414062500e+00 1.703370809555053711e+00 7.018668055534362793e-01
3.070000000000000000e+03 6.227442550659179688e+01 1.601227045059204102e+00 -3.860956132411956787e-01 6.894329071044921875e+00 1.952470064163208008e+00 9.702346473932266235e-02
3.071000000000000000e+03 6.235355377197265625e+01 1.584999752044677734e+01 -5.363045930862426758e-01 7.811583042144775391e+00 2.182583570480346680e+00 -1.409243047237396240e-01
3.072000000000000000e+03 6.192834854125976562e+01 -1.962228536605834961e+00 -3.566559255123138428e-01 6.769639968872070312e+00 1.923895239830017090e+00 1.531917750835418701e-01
3.073000000000000000e+03 6.321118164062500000e+01 9.547923088073730469e+00 -4.736917316913604736e-01 7.388567924499511719e+00 2.074462890625000000e+00 -5.107554048299789429e-02
3.074000000000000000e+03 6.259780120849609375e+01 7.833138465881347656e+00 -4.626088142395019531e-01 7.222140312194824219e+00 2.027859449386596680e+00 1.307982020080089569e-03
3.075000000000000000e+03 4.702643203735351562e+01 8.384321331977844238e-01 -6.143527477979660034e-02 3.904982805252075195e+00 1.153064250946044922e+00 3.639467954635620117e-01
3.076000000000000000e+03 5.116146469116210938e+01 -8.910506367683410645e-01 -2.615690827369689941e-01 4.855963706970214844e+00 1.378318309783935547e+00 2.981192469596862793e-01
3.077000000000000000e+03 5.774797821044921875e+01 1.372276401519775391e+01 -5.677515268325805664e-01 6.992213726043701172e+00 1.927338719367980957e+00 4.005331993103027344e-01
3.078000000000000000e+03 6.292044067382812500e+01 -2.917250156402587891e+00 -3.251586556434631348e-01 6.907083034515380859e+00 1.974577307701110840e+00 1.573497802019119263e-01
3.079000000000000000e+03 6.597952270507812500e+01 -5.419242382049560547e+00 -2.576401531696319580e-01 7.256027221679687500e+00 2.099516153335571289e+00 1.719520390033721924e-01
3.080000000000000000e+03 6.380983352661132812e+01 -6.194159507751464844e+00 -3.000270426273345947e-01 6.997883796691894531e+00 2.009356975555419922e+00 2.103132754564285278e-01
3.081000000000000000e+03 6.343020629882812500e+01 -7.150391578674316406e+00 -3.071931004524230957e-01 6.911293029785156250e+00 1.981229901313781738e+00 2.351757138967514038e-01
3.082000000000000000e+03 6.125710296630859375e+01 8.551040887832641602e-01 -3.883303403854370117e-01 6.742369174957275391e+00 1.906211614608764648e+00 1.447605937719345093e-01
3.083000000000000000e+03 5.465639495849609375e+01 9.664897918701171875e+00 -4.242717027664184570e-01 5.997596740722656250e+00 1.671997547149658203e+00 5.705134272575378418e-01
3.084000000000000000e+03 5.662398147583007812e+01 -1.195780372619628906e+01 -3.799591362476348877e-01 6.005020618438720703e+00 1.687518477439880371e+00 2.593293190002441406e-01
3.085000000000000000e+03 6.164767837524414062e+01 -1.280038166046142578e+01 -2.987811565399169922e-01 6.695045948028564453e+00 1.918879508972167969e+00 3.329110443592071533e-01
3.086000000000000000e+03 4.811308670043945312e+01 -2.277592420578002930e+00 -1.692489236593246460e-01 4.165112495422363281e+00 1.198758959770202637e+00 2.406185120344161987e-01
3.087000000000000000e+03 6.230773162841796875e+01 -1.150544834136962891e+01 -2.974915504455566406e-01 6.776098728179931641e+00 1.943582057952880859e+00 3.155674040317535400e-01
3.088000000000000000e+03 4.992503356933593750e+01 5.169354438781738281e+00 -1.819485574960708618e-01 4.644577980041503906e+00 1.338788866996765137e+00 5.595323443412780762e-01
3.089000000000000000e+03 5.554748535156250000e+01 -1.497876548767089844e+01 -3.889303505420684814e-01 5.899742126464843750e+00 1.653243541717529297e+00 2.578383684158325195e-01
3.090000000000000000e+03 5.136651992797851562e+01 -9.467605590820312500e+00 -3.896879255771636963e-01 5.020545482635498047e+00 1.389257311820983887e+00 1.137978509068489075e-01
3.091000000000000000e+03 5.668350219726562500e+01 -1.620947074890136719e+01 -3.432444632053375244e-01 6.114211082458496094e+00 1.731289863586425781e+00 3.169669806957244873e-01
3.092000000000000000e+03 5.894682312011718750e+01 -1.639429092407226562e+01 -3.027161657810211182e-01 6.411458969116210938e+00 1.832622766494750977e+00 3.729232251644134521e-01
3.093000000000000000e+03 1.643333435058593750e+01 2.910634613037109375e+01 -3.562700748443603516e-01 1.106064915657043457e+00 2.249384373426437378e-01 -3.085044920444488525e-01
3.094000000000000000e+03 5.961800003051757812e+01 -1.305609416961669922e+01 -3.354678153991699219e-01 6.433722496032714844e+00 1.829476475715637207e+00 3.182178735733032227e-01
3.095000000000000000e+03 5.668181991577148438e+01 1.130921268463134766e+01 -4.897770285606384277e-01 6.553010463714599609e+00 1.818970084190368652e+00 4.673628509044647217e-01
3.096000000000000000e+03 6.195028686523437500e+01 9.887023925781250000e+00 -5.140457153320312500e-01 7.259363174438476562e+00 2.023595333099365234e+00 7.273099850863218307e-03
3.097000000000000000e+03 4.673632431030273438e+01 -1.674087941646575928e-01 -8.537091314792633057e-02 3.826742172241210938e+00 1.122411370277404785e+00 3.116398155689239502e-01
3.098000000000000000e+03 5.145016479492187500e+01 5.515006542205810547e+00 -2.506383657455444336e-01 5.009160041809082031e+00 1.427556514739990234e+00 5.460073351860046387e-01
3.099000000000000000e+03 5.365043640136718750e+01 9.022521972656250000e+00 -3.706352412700653076e-01 5.712679386138916016e+00 1.602613210678100586e+00 5.895094275474548340e-01
3.100000000000000000e+03 5.537818145751953125e+01 8.520623207092285156e+00 -4.282943010330200195e-01 6.043160438537597656e+00 1.684459924697875977e+00 4.729568362236022949e-01
3.101000000000000000e+03 6.284239959716796875e+01 4.543704986572265625e+00 -4.117344319820404053e-01 7.086928844451904297e+00 2.002558231353759766e+00 3.900895640254020691e-02
3.102000000000000000e+03 6.096905517578125000e+01 5.772902488708496094e+00 -4.500828087329864502e-01 6.860579013824462891e+00 1.923148751258850098e+00 1.100526154041290283e-01
3.103000000000000000e+03 5.896962738037109375e+01 1.357072639465332031e+01 -5.624851584434509277e-01 7.203401565551757812e+00 1.992274880409240723e+00 2.818709015846252441e-01
3.104000000000000000e+03 6.098206710815429688e+01 -9.415773153305053711e-01 -3.668796122074127197e-01 6.659674644470214844e+00 1.887838482856750488e+00 1.645950376987457275e-01
3.105000000000000000e+03 6.303003692626953125e+01 -4.603557586669921875e+00 -3.202767968177795410e-01 6.884856224060058594e+00 1.969373822212219238e+00 1.835996508598327637e-01
3.106000000000000000e+03 6.429209899902343750e+01 -4.680036544799804688e+00 -2.966432273387908936e-01 7.059964656829833984e+00 2.028996467590332031e+00 1.780508011579513550e-01
3.107000000000000000e+03 6.270298004150390625e+01 -7.713847637176513672e+00 -3.022060692310333252e-01 6.833609104156494141e+00 1.959420919418334961e+00 2.366222143173217773e-01
3.108000000000000000e+03 6.270644760131835938e+01 6.117653846740722656e+00 -4.322810471057891846e-01 7.141399383544921875e+00 2.012735366821289062e+00 2.579785138368606567e-02
3.109000000000000000e+03 6.198061370849609375e+01 5.262708187103271484e+00 -4.237045049667358398e-01 7.008699893951416016e+00 1.975498676300048828e+00 6.946881860494613647e-02
3.110000000000000000e+03 4.792618560791015625e+01 2.947822332382202148e+00 -8.109986037015914917e-02 4.144741058349609375e+00 1.219092369079589844e+00 4.879314005374908447e-01
3.111000000000000000e+03 6.288590621948242188e+01 -8.841985702514648438e+00 -2.970468103885650635e-01 6.846192359924316406e+00 1.964743614196777344e+00 2.558306753635406494e-01
3.112000000000000000e+03 6.107457733154296875e+01 -1.092158889770507812e+01 -3.243782222270965576e-01 6.606814384460449219e+00 1.884730815887451172e+00 2.970104515552520752e-01
3.113000000000000000e+03 5.929907989501953125e+01 -1.110439395904541016e+01 -3.531129658222198486e-01 6.367491245269775391e+00 1.804313540458679199e+00 2.830126285552978516e-01
3.114000000000000000e+03 5.000811004638671875e+01 -8.529138565063476562e+00 -3.509458601474761963e-01 4.705466270446777344e+00 1.306356072425842285e+00 8.984349668025970459e-02
3.115000000000000000e+03 5.001274871826171875e+01 -9.761655807495117188e+00 -3.634425699710845947e-01 4.734947681427001953e+00 1.311451435089111328e+00 6.230298057198524475e-02
3.116000000000000000e+03 5.267823028564453125e+01 -9.043176651000976562e+00 -3.774486780166625977e-01 5.234761714935302734e+00 1.457193970680236816e+00 1.556611359119415283e-01
3.117000000000000000e+03 5.871511459350585938e+01 -1.412242794036865234e+01 -3.372649252414703369e-01 6.341824531555175781e+00 1.801367759704589844e+00 3.275730907917022705e-01
3.118000000000000000e+03 5.772963333129882812e+01 -1.518245887756347656e+01 -3.512438833713531494e-01 6.217227935791015625e+00 1.759795308113098145e+00 3.220017552375793457e-01
3.119000000000000000e+03 5.999716949462890625e+01 -1.023274135589599609e+01 -3.408128917217254639e-01 6.464234828948974609e+00 1.837026596069335938e+00 2.795999348163604736e-01
3.120000000000000000e+03 6.067892074584960938e+01 -2.315577507019042969e+01 -7.732276618480682373e-02 6.668503761291503906e+00 1.977354407310485840e+00 5.086510181427001953e-01
3.121000000000000000e+03 5.363167190551757812e+01 7.268699645996093750e+00 -3.510233759880065918e-01 5.613678932189941406e+00 1.578796625137329102e+00 5.272123217582702637e-01
3.122000000000000000e+03 5.659743118286132812e+01 1.006796360015869141e+01 -4.886539578437805176e-01 6.400044918060302734e+00 1.773417353630065918e+00 4.281993210315704346e-01
3.123000000000000000e+03 5.801580810546875000e+01 -1.998959159851074219e+01 -2.475433796644210815e-01 6.370676517486572266e+00 1.836939930915832520e+00 4.187013506889343262e-01
3.124000000000000000e+03 1.834018516540527344e+01 3.013101768493652344e+01 -3.718851208686828613e-01 9.150897264480590820e-01 1.629613786935806274e-01 -2.501195967197418213e-01
3.125000000000000000e+03 6.117279815673828125e+01 4.589929103851318359e+00 -4.336755573749542236e-01 6.838628292083740234e+00 1.921485781669616699e+00 1.220398768782615662e-01
3.126000000000000000e+03 6.025770568847656250e+01 1.455841064453125000e+01 -5.648537874221801758e-01 7.490590095520019531e+00 2.077720880508422852e+00 1.292640268802642822e-01
3.127000000000000000e+03 6.052640533447265625e+01 1.006570434570312500e+01 -5.147199630737304688e-01 7.097470283508300781e+00 1.974825024604797363e+00 1.241420581936836243e-01
3.128000000000000000e+03 6.159778976440429688e+01 8.626292228698730469e+00 -4.795715808868408203e-01 7.133030891418457031e+00 1.996037840843200684e+00 4.805381223559379578e-02
3.129000000000000000e+03 6.169100952148437500e+01 6.891247749328613281e+00 -4.674158692359924316e-01 7.013932704925537109e+00 1.963955044746398926e+00 6.819477677345275879e-02
3.130000000000000000e+03 5.779282379150390625e+01 1.245890140533447266e+01 -5.249757170677185059e-01 6.874685287475585938e+00 1.904912948608398438e+00 3.860964477062225342e-01
3.131000000000000000e+03 6.133861923217773438e+01 2.724124193191528320e+00 -4.056166708469390869e-01 6.816301822662353516e+00 1.923205614089965820e+00 1.176277771592140198e-01
3.132000000000000000e+03 4.877377700805664062e+01 -3.729064941406250000e+00 -2.331454902887344360e-01 4.362329959869384766e+00 1.238755345344543457e+00 1.951299011707305908e-01
3.133000000000000000e+03 5.199105453491210938e+01 -3.104392528533935547e+00 -3.011850714683532715e-01 5.022337436676025391e+00 1.416345596313476562e+00 2.441475540399551392e-01
3.134000000000000000e+03 4.742015457153320312e+01 1.883064627647399902e+00 -8.033060282468795776e-02 3.996891498565673828e+00 1.174968242645263672e+00 4.131343662738800049e-01
3.135000000000000000e+03 4.856471252441406250e+01 1.428600668907165527e+00 -1.273120641708374023e-01 4.293747901916503906e+00 1.249930739402770996e+00 4.026988148689270020e-01
3.136000000000000000e+03 6.356684494018554688e+01 6.922285079956054688e+00 -4.333686530590057373e-01 7.278651714324951172e+00 2.053584814071655273e+00 -3.518005833029747009e-02
3.137000000000000000e+03 6.077773284912109375e+01 -4.664339542388916016e+00 -3.524847924709320068e-01 6.583637237548828125e+00 1.869345664978027344e+00 2.055206447839736938e-01
3.138000000000000000e+03 6.041232299804687500e+01 1.897080183029174805e+00 -4.129538536071777344e-01 6.640617370605468750e+00 1.868299007415771484e+00 1.544433683156967163e-01
3.139000000000000000e+03 5.897056198120117188e+01 1.235963916778564453e+01 -5.664783120155334473e-01 7.061963558197021484e+00 1.948645472526550293e+00 2.471929341554641724e-01
3.140000000000000000e+03 6.032066345214843750e+01 -2.640991592407226562e+01 8.884265273809432983e-02 6.653806209564208984e+00 2.022794723510742188e+00 5.198287367820739746e-01
3.141000000000000000e+03 4.591493988037109375e+01 -1.915734410285949707e+00 -8.763230592012405396e-02 3.652237653732299805e+00 1.069381594657897949e+00 2.286785095930099487e-01
3.142000000000000000e+03 4.982612991333007812e+01 3.685775518417358398e+00 -1.672274321317672729e-01 4.577605247497558594e+00 1.323113322257995605e+00 4.947102963924407959e-01
3.143000000000000000e+03 5.127198791503906250e+01 2.901650667190551758e+00 -2.511424720287322998e-01 4.916810989379882812e+00 1.399700522422790527e+00 4.357489049434661865e-01
3.144000000000000000e+03 5.120311737060546875e+01 -8.264005661010742188e+00 -3.556521832942962646e-01 4.935362815856933594e+00 1.373913168907165527e+00 1.223792135715484619e-01
3.145000000000000000e+03 5.544750976562500000e+01 -8.983110427856445312e+00 -3.945200741291046143e-01 5.738055229187011719e+00 1.603060483932495117e+00 2.098095417022705078e-01
3.146000000000000000e+03 5.661827850341796875e+01 -1.400971031188964844e+01 -3.694432675838470459e-01 6.044301509857177734e+00 1.702457427978515625e+00 2.810409367084503174e-01
3.147000000000000000e+03 5.564241790771484375e+01 -1.289664554595947266e+01 -3.922728002071380615e-01 5.852651596069335938e+00 1.638113737106323242e+00 2.406748235225677490e-01
3.148000000000000000e+03 1.716523742675781250e+01 3.272785186767578125e+01 -3.057317733764648438e-01 1.018437266349792480e+00 2.138116508722305298e-01 -2.434567958116531372e-01
3.149000000000000000e+03 1.513493156433105469e+01 3.128199768066406250e+01 -2.976814806461334229e-01 1.375528573989868164e+00 3.233541250228881836e-01 -2.401744127273559570e-01
3.150000000000000000e+03 5.275876235961914062e+01 6.328214645385742188e+00 -3.151252567768096924e-01 5.385932922363281250e+00 1.521242260932922363e+00 5.310353636741638184e-01
3.151000000000000000e+03 5.918101501464843750e+01 9.973079681396484375e+00 -5.357366800308227539e-01 6.869756221771240234e+00 1.900205850601196289e+00 2.252792567014694214e-01
3.152000000000000000e+03 5.740425109863281250e+01 -9.087179183959960938e+00 -3.850277662277221680e-01 6.056938648223876953e+00 1.701573252677917480e+00 2.376343458890914917e-01
3.153000000000000000e+03 5.368180084228515625e+01 5.052400112152099609e+00 -3.415813744068145752e-01 5.526639461517333984e+00 1.555517435073852539e+00 4.535561501979827881e-01
3.154000000000000000e+03 6.082846069335937500e+01 7.781961917877197266e+00 -4.707335233688354492e-01 6.975980758666992188e+00 1.951574206352233887e+00 1.138389334082603455e-01
3.155000000000000000e+03 6.028682708740234375e+01 1.123770141601562500e+01 -5.460825562477111816e-01 7.149070739746093750e+00 1.980896353721618652e+00 1.247398853302001953e-01
3.156000000000000000e+03 5.545476531982421875e+01 2.734098434448242188e+00 -3.773872256278991699e-01 5.802893638610839844e+00 1.627651929855346680e+00 3.194036185741424561e-01
3.157000000000000000e+03 5.543290328979492188e+01 1.043750953674316406e+01 -4.415898025035858154e-01 6.195455551147460938e+00 1.726159691810607910e+00 5.390061736106872559e-01
3.158000000000000000e+03 5.679737854003906250e+01 7.659394264221191406e+00 -4.568327367305755615e-01 6.277876853942871094e+00 1.746313333511352539e+00 3.592727184295654297e-01
3.159000000000000000e+03 5.843488311767578125e+01 -8.318451881408691406e+00 -3.732838928699493408e-01 6.216066837310791016e+00 1.752834796905517578e+00 2.446940392255783081e-01
3.160000000000000000e+03 5.730844879150390625e+01 -1.874108672142028809e+00 -3.766089677810668945e-01 6.050069808959960938e+00 1.702038288116455078e+00 2.163103520870208740e-01
3.161000000000000000e+03 6.051137924194335938e+01 8.850330352783203125e+00 -5.109830498695373535e-01 7.000013828277587891e+00 1.946709275245666504e+00 1.144643649458885193e-01
3.162000000000000000e+03 6.150188827514648438e+01 1.433085536956787109e+01 -5.661319494247436523e-01 7.585537433624267578e+00 2.105821609497070312e+00 -2.759120613336563110e-02
3.163000000000000000e+03 5.041044616699218750e+01 1.526737093925476074e+00 -2.026787847280502319e-01 4.677886962890625000e+00 1.342562437057495117e+00 3.844467997550964355e-01
3.164000000000000000e+03 4.944351959228515625e+01 -2.082068920135498047e+00 -2.240769565105438232e-01 4.482258319854736328e+00 1.277454376220703125e+00 2.515344321727752686e-01
3.165000000000000000e+03 4.667750167846679688e+01 -3.401143074035644531e+00 -1.356595158576965332e-01 3.834936380386352539e+00 1.109783053398132324e+00 1.642526388168334961e-01
3.166000000000000000e+03 6.018987655639648438e+01 1.336313724517822266e+01 -5.772360563278198242e-01 7.326642513275146484e+00 2.024821996688842773e+00 1.282991468906402588e-01
3.167000000000000000e+03 5.972111892700195312e+01 -1.725243687629699707e+00 -3.781883716583251953e-01 6.433545589447021484e+00 1.816607117652893066e+00 1.925186216831207275e-01
3.168000000000000000e+03 5.436302566528320312e+01 8.012398719787597656e+00 -3.887607157230377197e-01 5.828785896301269531e+00 1.632007598876953125e+00 5.348414182662963867e-01
3.169000000000000000e+03 5.376245880126953125e+01 -7.204205989837646484e+00 -3.712392151355743408e-01 5.435146331787109375e+00 1.519172191619873047e+00 1.882929354906082153e-01
3.170000000000000000e+03 5.419715118408203125e+01 -1.097190189361572266e+01 -4.087524712085723877e-01 5.583245277404785156e+00 1.552347779273986816e+00 1.849472969770431519e-01
3.171000000000000000e+03 6.015783691406250000e+01 3.835803747177124023e+00 -4.290971159934997559e-01 6.651561737060546875e+00 1.866739392280578613e+00 1.530072093009948730e-01
3.172000000000000000e+03 5.878886413574218750e+01 2.046140193939208984e+00 -4.164400994777679443e-01 6.363976478576660156e+00 1.784260988235473633e+00 1.992541551589965820e-01
3.173000000000000000e+03 4.911418533325195312e+01 -7.404784679412841797e+00 -2.984122335910797119e-01 4.475896358489990234e+00 1.253245234489440918e+00 9.074126183986663818e-02
3.174000000000000000e+03 5.004452133178710938e+01 -3.986916542053222656e+00 -2.759390473365783691e-01 4.620597839355468750e+00 1.303397536277770996e+00 1.900497227907180786e-01
3.175000000000000000e+03 4.844713973999023438e+01 -5.184957981109619141e+00 -2.508637607097625732e-01 4.293823242187500000e+00 1.212887763977050781e+00 1.536807119846343994e-01
3.176000000000000000e+03 5.482904434204101562e+01 -1.187912559509277344e+01 -3.899516165256500244e-01 5.705036640167236328e+00 1.594525575637817383e+00 2.099086493253707886e-01
3.177000000000000000e+03 5.693388748168945312e+01 5.185190677642822266e+00 -4.145402312278747559e-01 6.190245151519775391e+00 1.732711553573608398e+00 3.124867379665374756e-01
3.178000000000000000e+03 5.850223541259765625e+01 -1.204870700836181641e+01 -3.553065359592437744e-01 6.282535076141357422e+00 1.778168559074401855e+00 2.919394373893737793e-01
3.179000000000000000e+03 5.749222564697265625e+01 -1.101804256439208984e+01 -3.766838312149047852e-01 6.102034091949462891e+00 1.717604994773864746e+00 2.576501965522766113e-01
3.180000000000000000e+03 5.911939620971679688e+01 -9.375092506408691406e+00 -3.619467914104461670e-01 6.322292327880859375e+00 1.788103699684143066e+00 2.601953446865081787e-01
3.181000000000000000e+03 5.760977172851562500e+01 -1.302635955810546875e+01 -3.685013651847839355e-01 6.154103755950927734e+00 1.735680699348449707e+00 2.864516675472259521e-01
3.182000000000000000e+03 4.920756149291992188e+01 2.404565095901489258e+00 -1.619428992271423340e-01 4.421278476715087891e+00 1.277800679206848145e+00 4.263276755809783936e-01
3.183000000000000000e+03 5.236470794677734375e+01 4.111383914947509766e+00 -2.793580293655395508e-01 5.175227642059326172e+00 1.468760967254638672e+00 4.610780477523803711e-01
3.184000000000000000e+03 5.253666687011718750e+01 1.828391790390014648e+00 -2.861301302909851074e-01 5.179268836975097656e+00 1.467941641807556152e+00 3.784775733947753906e-01
3.185000000000000000e+03 5.408842086791992188e+01 -8.646276473999023438e+00 -3.957005739212036133e-01 5.522361755371093750e+00 1.537998437881469727e+00 1.877493411302566528e-01
3.186000000000000000e+03 5.283075332641601562e+01 -1.031233215332031250e+01 -4.010644257068634033e-01 5.331932544708251953e+00 1.479260444641113281e+00 1.548970788717269897e-01
3.187000000000000000e+03 5.661717224121093750e+01 8.797053337097167969e+00 -4.588449299335479736e-01 6.317679882049560547e+00 1.757650494575500488e+00 4.131428897380828857e-01
3.188000000000000000e+03 5.661845397949218750e+01 1.253708267211914062e+01 -5.255194306373596191e-01 6.651566505432128906e+00 1.837814092636108398e+00 4.928437173366546631e-01
3.189000000000000000e+03 6.137459945678710938e+01 -5.726021289825439453e+00 -3.529102802276611328e-01 6.657268047332763672e+00 1.891307353973388672e+00 2.128858864307403564e-01
3.190000000000000000e+03 6.079683303833007812e+01 -2.800577878952026367e+00 -3.572843670845031738e-01 6.589153289794921875e+00 1.869560599327087402e+00 1.857376396656036377e-01
3.191000000000000000e+03 5.575616073608398438e+01 4.534461021423339844e+00 -3.980831503868103027e-01 5.925048351287841797e+00 1.658089637756347656e+00 3.474461138248443604e-01
3.192000000000000000e+03 4.938136672973632812e+01 6.294341683387756348e-01 -1.899865716695785522e-01 4.476132869720458984e+00 1.285843968391418457e+00 3.543235063552856445e-01
3.193000000000000000e+03 5.195621490478515625e+01 -6.659382820129394531e+00 -3.365474045276641846e-01 5.064157962799072266e+00 1.418283104896545410e+00 1.628591120243072510e-01
3.194000000000000000e+03 5.942985534667968750e+01 2.819720745086669922e+00 -4.230594635009765625e-01 6.508159637451171875e+00 1.825530171394348145e+00 1.911079138517379761e-01
3.195000000000000000e+03 5.254129409790039062e+01 -1.252002716064453125e+00 -3.061597943305969238e-01 5.130634784698486328e+00 1.447342514991760254e+00 2.825641036033630371e-01
3.196000000000000000e+03 4.955023574829101562e+01 -6.632686853408813477e-01 -2.010907530784606934e-01 4.475150585174560547e+00 1.282217979431152344e+00 3.004027009010314941e-01
3.197000000000000000e+03 4.998160934448242188e+01 -7.494887828826904297e+00 -3.209597170352935791e-01 4.661101341247558594e+00 1.302042484283447266e+00 1.031066328287124634e-01
3.198000000000000000e+03 5.135676956176757812e+01 -5.618804454803466797e+00 -3.342548310756683350e-01 4.912238121032714844e+00 1.373395085334777832e+00 1.737144142389297485e-01
3.199000000000000000e+03 5.830968475341796875e+01 -1.013340568542480469e+01 -3.620348870754241943e-01 6.226840972900390625e+00 1.759441852569580078e+00 2.656607329845428467e-01
3.200000000000000000e+03 5.643750381469726562e+01 -7.939098834991455078e+00 -3.821044862270355225e-01 5.886821746826171875e+00 1.651415228843688965e+00 2.228465825319290161e-01
3.201000000000000000e+03 5.573885345458984375e+01 -1.097952270507812500e+01 -3.944456875324249268e-01 5.820315361022949219e+00 1.627761006355285645e+00 2.325159609317779541e-01
3.202000000000000000e+03 5.761793136596679688e+01 -6.462797522544860840e-01 -3.815988302230834961e-01 6.127107620239257812e+00 1.723652601242065430e+00 2.153124362230300903e-01
3.203000000000000000e+03 5.855265426635742188e+01 -2.720098733901977539e+00 -3.690783381462097168e-01 6.252555847167968750e+00 1.765043139457702637e+00 2.079295814037322998e-01
3.204000000000000000e+03 5.897232437133789062e+01 4.930876255035400391e+00 -4.387171268463134766e-01 6.543435573577880859e+00 1.831415534019470215e+00 2.153194248676300049e-01
3.205000000000000000e+03 5.873749923706054688e+01 6.839041233062744141e+00 -4.707924127578735352e-01 6.585704803466796875e+00 1.834473729133605957e+00 2.409158051013946533e-01
3.206000000000000000e+03 5.719362258911132812e+01 6.779624938964843750e+00 -4.402616620063781738e-01 6.310214519500732422e+00 1.760985851287841797e+00 3.276627659797668457e-01
3.207000000000000000e+03 5.501009750366210938e+01 5.741325855255126953e+00 -3.790136873722076416e-01 5.843039512634277344e+00 1.639207839965820312e+00 4.165766835212707520e-01
3.208000000000000000e+03 4.796079254150390625e+01 -4.291938781738281250e+00 -2.007295936346054077e-01 4.182226657867431641e+00 1.194449067115783691e+00 1.536862254142761230e-01
3.209000000000000000e+03 4.967761993408203125e+01 -6.704742431640625000e+00 -3.284122347831726074e-01 4.579357147216796875e+00 1.275283575057983398e+00 1.209323033690452576e-01
3.210000000000000000e+03 4.795516967773437500e+01 -3.347647190093994141e+00 -1.880082339048385620e-01 4.189497947692871094e+00 1.200446844100952148e+00 2.030664831399917603e-01
3.211000000000000000e+03 5.790514373779296875e+01 9.982168197631835938e+00 -4.973089098930358887e-01 6.674227237701416016e+00 1.853075504302978516e+00 3.227175176143646240e-01
3.212000000000000000e+03 5.782041549682617188e+01 7.552909851074218750e+00 -4.612395763397216797e-01 6.473096847534179688e+00 1.803557276725769043e+00 3.030315637588500977e-01
3.213000000000000000e+03 5.929686737060546875e+01 8.690389633178710938e+00 -4.858562648296356201e-01 6.818087100982666016e+00 1.899669289588928223e+00 2.115618884563446045e-01
3.214000000000000000e+03 5.797369766235351562e+01 8.706726074218750000e+00 -4.898334145545959473e-01 6.579365730285644531e+00 1.826859712600708008e+00 2.940250039100646973e-01
3.215000000000000000e+03 5.086449813842773438e+01 -2.303571224212646484e+00 -2.723713517189025879e-01 4.785092353820800781e+00 1.353816390037536621e+00 2.535098791122436523e-01
3.216000000000000000e+03 5.559785461425781250e+01 -4.742177486419677734e+00 -3.660565912723541260e-01 5.754181861877441406e+00 1.616437554359436035e+00 2.324313223361968994e-01
3.217000000000000000e+03 5.653400039672851562e+01 3.434208393096923828e+00 -3.960189521312713623e-01 6.026974678039550781e+00 1.689286708831787109e+00 3.005282282829284668e-01
3.218000000000000000e+03 5.168249893188476562e+01 5.805718898773193359e-01 -2.712306976318359375e-01 4.962372779846191406e+00 1.407342553138732910e+00 3.424452543258666992e-01
3.219000000000000000e+03 6.269013977050781250e+01 -5.701239585876464844e+00 -3.255549371242523193e-01 6.824629783630371094e+00 1.949722409248352051e+00 2.045537382364273071e-01
3.220000000000000000e+03 5.483061218261718750e+01 -6.126175403594970703e+00 -3.818416893482208252e-01 5.599009513854980469e+00 1.565150380134582520e+00 2.040053457021713257e-01
3.221000000000000000e+03 5.975450134277343750e+01 6.125779628753662109e+00 -4.510523080825805664e-01 6.721889972686767578e+00 1.881251335144042969e+00 1.711030304431915283e-01
3.222000000000000000e+03 5.777317810058593750e+01 4.084586620330810547e+00 -4.283019006252288818e-01 6.278864860534667969e+00 1.755168795585632324e+00 2.562286853790283203e-01
3.223000000000000000e+03 4.991958618164062500e+01 -5.344439506530761719e+00 -2.997158467769622803e-01 4.613282203674316406e+00 1.294069886207580566e+00 1.587203890085220337e-01
3.224000000000000000e+03 5.653247833251953125e+01 -9.994616508483886719e+00 -3.799436986446380615e-01 5.966131687164306641e+00 1.675856471061706543e+00 2.402382194995880127e-01
3.225000000000000000e+03 5.375991821289062500e+01 8.300515413284301758e-01 -3.404932320117950439e-01 5.414239883422851562e+00 1.522124052047729492e+00 3.127360939979553223e-01
3.226000000000000000e+03 5.049320220947265625e+01 -6.198652267456054688e+00 -2.962740957736968994e-01 4.735272407531738281e+00 1.331699490547180176e+00 1.391572356224060059e-01
3.227000000000000000e+03 5.069813537597656250e+01 -4.717220783233642578e+00 -2.743828892707824707e-01 4.754789352416992188e+00 1.344122052192687988e+00 1.800274848937988281e-01
3.228000000000000000e+03 5.785330581665039062e+01 1.121835803985595703e+01 -5.375103950500488281e-01 6.749675273895263672e+00 1.863649487495422363e+00 3.463867902755737305e-01
3.229000000000000000e+03 6.254018020629882812e+01 -6.765668392181396484e+00 -3.292335867881774902e-01 6.795887470245361328e+00 1.939996123313903809e+00 2.238607406616210938e-01
3.230000000000000000e+03 5.756773376464843750e+01 5.670411586761474609e-01 -3.880233168601989746e-01 6.138218879699707031e+00 1.725058674812316895e+00 2.333835512399673462e-01
3.231000000000000000e+03 5.457608795166015625e+01 3.806312084197998047e+00 -3.586888909339904785e-01 5.669463634490966797e+00 1.593232393264770508e+00 3.758323192596435547e-01
3.232000000000000000e+03 4.679135131835937500e+01 -4.665113449096679688e+00 -1.782584935426712036e-01 3.891722917556762695e+00 1.114039301872253418e+00 1.369494199752807617e-01
3.233000000000000000e+03 4.741033935546875000e+01 -5.914890289306640625e+00 -2.112399488687515259e-01 4.061304092407226562e+00 1.155019164085388184e+00 8.290941268205642700e-02
3.234000000000000000e+03 5.800915145874023438e+01 -5.476400852203369141e+00 -3.852306306362152100e-01 6.117977142333984375e+00 1.719823956489562988e+00 2.235246300697326660e-01
3.235000000000000000e+03 5.485360336303710938e+01 -1.194526314735412598e+00 -3.476481139659881592e-01 5.621889591217041016e+00 1.582272529602050781e+00 2.614338696002960205e-01
3.236000000000000000e+03 5.299192810058593750e+01 -1.795884668827056885e-01 -3.084501624107360840e-01 5.264244079589843750e+00 1.486738204956054688e+00 2.966035604476928711e-01
3.237000000000000000e+03 4.958682632446289062e+01 -3.212127208709716797e+00 -2.325335443019866943e-01 4.516413688659667969e+00 1.285163998603820801e+00 2.073882967233657837e-01
3.238000000000000000e+03 5.623753356933593750e+01 1.764527082443237305e+00 -3.718119263648986816e-01 5.933193683624267578e+00 1.668414473533630371e+00 2.737982273101806641e-01
3.239000000000000000e+03 5.348466873168945312e+01 2.908354759216308594e+00 -3.291538953781127930e-01 5.406579494476318359e+00 1.523227691650390625e+00 3.798080086708068848e-01
3.240000000000000000e+03 5.666144561767578125e+01 -3.811005353927612305e+00 -3.790695965290069580e-01 5.904831409454345703e+00 1.657728552818298340e+00 2.160418480634689331e-01
3.241000000000000000e+03 5.722695159912109375e+01 2.349292039871215820e+00 -4.046704471111297607e-01 6.114202022552490234e+00 1.712859511375427246e+00 2.633767724037170410e-01
3.242000000000000000e+03 5.650090408325195312e+01 7.513282299041748047e-01 -3.842157423496246338e-01 5.961214542388916016e+00 1.673099637031555176e+00 2.547074258327484131e-01
3.243000000000000000e+03 5.795914840698242188e+01 1.454673409461975098e+00 -3.953678905963897705e-01 6.228536128997802734e+00 1.749950528144836426e+00 2.329353243112564087e-01
3.244000000000000000e+03 5.968783569335937500e+01 -5.415113449096679688e+00 -3.729190230369567871e-01 6.411300182342529297e+00 1.811514377593994141e+00 2.207788527011871338e-01
3.245000000000000000e+03 5.452656173706054688e+01 1.885189175605773926e+00 -3.430969715118408203e-01 5.603686332702636719e+00 1.578176736831665039e+00 3.289351165294647217e-01
3.246000000000000000e+03 5.502806091308593750e+01 7.619912922382354736e-02 -3.618293106555938721e-01 5.664671897888183594e+00 1.590852737426757812e+00 2.892682552337646484e-01
3.247000000000000000e+03 5.963013839721679688e+01 -6.899617671966552734e+00 -3.553856611251831055e-01 6.378917217254638672e+00 1.807059407234191895e+00 2.358836829662322998e-01
3.248000000000000000e+03 5.612593841552734375e+01 -1.430866718292236328e+00 -3.802773058414459229e-01 5.844550609588623047e+00 1.639281988143920898e+00 2.536142766475677490e-01
3.249000000000000000e+03 5.645268630981445312e+01 -5.505389690399169922e+00 -3.936521708965301514e-01 5.874436855316162109e+00 1.644235372543334961e+00 2.057420462369918823e-01
3.250000000000000000e+03 5.631094741821289062e+01 -3.330050110816955566e-01 -3.651599287986755371e-01 5.879144191741943359e+00 1.654195308685302734e+00 2.512738406658172607e-01
3.251000000000000000e+03 5.599796676635742188e+01 -6.640831947326660156e+00 -3.844400644302368164e-01 5.810545921325683594e+00 1.627831816673278809e+00 2.186108082532882690e-01
3.252000000000000000e+03 5.773682022094726562e+01 -7.225714206695556641e+00 -3.711013495922088623e-01 6.104229927062988281e+00 1.719938516616821289e+00 2.309994101524353027e-01
3.253000000000000000e+03 5.885953903198242188e+01 -4.588779926300048828e+00 -3.735755085945129395e-01 6.300005912780761719e+00 1.777929067611694336e+00 2.177995592355728149e-01
3.254000000000000000e+03 6.030796051025390625e+01 -6.170198917388916016e+00 -3.543199598789215088e-01 6.491183757781982422e+00 1.841059088706970215e+00 2.253400236368179321e-01
3.255000000000000000e+03 5.377777862548828125e+01 -2.354667901992797852e+00 -3.352245986461639404e-01 5.406215190887451172e+00 1.521297097206115723e+00 2.569414079189300537e-01
3.256000000000000000e+03 5.710700607299804688e+01 -6.247747421264648438e+00 -3.763150572776794434e-01 6.018489837646484375e+00 1.692652344703674316e+00 2.132519185543060303e-01
3.257000000000000000e+03 5.549675369262695312e+01 1.092952013015747070e+00 -3.700020313262939453e-01 5.743113040924072266e+00 1.611933231353759766e+00 2.889975905418395996e-01
3.258000000000000000e+03 5.290303421020507812e+01 -4.129097938537597656e+00 -3.412214219570159912e-01 5.234045028686523438e+00 1.467847108840942383e+00 2.191866338253021240e-01
3.259000000000000000e+03 6.072747039794921875e+01 -8.685008049011230469e+00 -3.436970710754394531e-01 6.558872699737548828e+00 1.864552736282348633e+00 2.577766776084899902e-01
3.260000000000000000e+03 5.990127563476562500e+01 -8.835601806640625000e+00 -3.576581776142120361e-01 6.433581829071044922e+00 1.822777152061462402e+00 2.637314796447753906e-01
3.261000000000000000e+03 5.366136169433593750e+01 -1.178049206733703613e+00 -3.316217660903930664e-01 5.405168533325195312e+00 1.522064089775085449e+00 2.689677774906158447e-01
3.262000000000000000e+03 5.457837677001953125e+01 -3.935796260833740234e+00 -3.681457936763763428e-01 5.549090862274169922e+00 1.554283499717712402e+00 2.196354120969772339e-01
3.263000000000000000e+03 6.154700851440429688e+01 -2.856904792785644531e+01 2.008816003799438477e-01 6.750499248504638672e+00 2.085414409637451172e+00 5.125296115875244141e-01
3.264000000000000000e+03 2.545675849914550781e+01 3.106725120544433594e+01 -5.339095592498779297e-01 3.336846828460693359e-02 -1.501623392105102539e-01 -4.129251539707183838e-01
3.265000000000000000e+03 5.674230575561523438e+01 -2.103530883789062500e+01 -2.199344784021377563e-01 6.269707202911376953e+00 1.814931750297546387e+00 4.147466719150543213e-01
3.266000000000000000e+03 5.632545852661132812e+01 -2.366667366027832031e+01 -9.368910640478134155e-02 6.305467605590820312e+00 1.863533496856689453e+00 4.542851150035858154e-01
3.267000000000000000e+03 1.320531463623046875e+01 -2.374892807006835938e+01 -1.097218245267868042e-01 1.590784192085266113e+00 4.443186819553375244e-01 1.303012371063232422e-01
3.268000000000000000e+03 2.309569931030273438e+01 2.867274475097656250e+01 -5.041775703430175781e-01 2.168164402246475220e-01 -8.620833605527877808e-02 -4.080302119255065918e-01
3.269000000000000000e+03 5.467976760864257812e+01 -3.450966644287109375e+01 8.793641328811645508e-01 6.434835433959960938e+00 2.194259881973266602e+00 2.533474862575531006e-01
3.270000000000000000e+03 5.128071212768554688e+01 -3.111775588989257812e+01 5.384703278541564941e-01 6.333557605743408203e+00 2.061608314514160156e+00 2.915384173393249512e-01
3.271000000000000000e+03 1.084290027618408203e+01 3.513379287719726562e+01 -1.525563001632690430e-01 1.988895773887634277e+00 5.509018301963806152e-01 -1.164598613977432251e-01
3.272000000000000000e+03 8.442807197570800781e+00 3.664437484741210938e+01 -8.564973622560501099e-02 2.283625841140747070e+00 6.593927741050720215e-01 -1.094793677330017090e-01
3.273000000000000000e+03 2.105579185485839844e+01 2.834296035766601562e+01 -4.288975298404693604e-01 5.198681950569152832e-01 2.729119919240474701e-02 -2.964535057544708252e-01
3.274000000000000000e+03 6.864677429199218750e+01 -1.304333114624023438e+01 -1.567955166101455688e-01 7.489509105682373047e+00 2.199814081192016602e+00 3.152069151401519775e-01
3.275000000000000000e+03 7.061605072021484375e+01 -1.421249866485595703e+01 -1.046736687421798706e-01 7.705875396728515625e+00 2.280360698699951172e+00 3.059622645378112793e-01
3.276000000000000000e+03 2.273916625976562500e+01 3.745286560058593750e+01 -3.799382746219635010e-01 4.523335993289947510e-01 2.171859331429004669e-02 -1.259604841470718384e-01
3.277000000000000000e+03 3.719783782958984375e+01 4.112922286987304688e+01 -1.188908219337463379e+00 -4.860761761665344238e-01 -5.024953484535217285e-01 -4.657199978828430176e-02
3.278000000000000000e+03 6.425891113281250000e+01 3.919201660156250000e+01 5.565376877784729004e-01 1.004293155670166016e+01 3.179840564727783203e+00 5.126670598983764648e-01
3.279000000000000000e+03 2.731547927856445312e+01 -3.862776565551757812e+01 7.490086555480957031e-02 1.348134040832519531e+00 4.269104599952697754e-01 -1.670042723417282104e-01
3.280000000000000000e+03 1.553934097290039062e+01 -3.206918334960937500e+01 -1.492737829685211182e-01 1.425838112831115723e+00 3.829692900180816650e-01 9.416405111551284790e-03
3.281000000000000000e+03 3.247991943359375000e+01 4.084310150146484375e+01 -8.188250660896301270e-01 -3.551233708858489990e-01 -3.521845340728759766e-01 -1.594401895999908447e-01
3.282000000000000000e+03 1.270127677917480469e+01 -2.847996711730957031e+01 -1.343372762203216553e-01 1.352871417999267578e+00 3.655602335929870605e-01 1.125145405530929565e-01
3.283000000000000000e+03 4.408620834350585938e+00 3.679840850830078125e+01 -7.830031961202621460e-02 3.078668832778930664e+00 9.001106023788452148e-01 -4.640331119298934937e-02
3.284000000000000000e+03 5.918066406250000000e+01 -1.885108947753906250e+01 -2.442332208156585693e-01 6.484161853790283203e+00 1.871978521347045898e+00 4.261912405490875244e-01
3.285000000000000000e+03 6.726871490478515625e+01 3.397704315185546875e+01 7.918000817298889160e-01 8.650371551513671875e+00 2.832651376724243164e+00 -2.112366259098052979e-01
3.286000000000000000e+03 5.151214981079101562e+01 -2.741161918640136719e+01 8.921208977699279785e-02 6.088365077972412109e+00 1.853273272514343262e+00 2.832269072532653809e-01
3.287000000000000000e+03 5.340290832519531250e+01 -2.700895500183105469e+01 5.719656869769096375e-02 6.206039905548095703e+00 1.878970980644226074e+00 4.068578183650970459e-01
3.288000000000000000e+03 1.109375572204589844e+01 -3.477790069580078125e+01 -1.219120696187019348e-01 1.074585914611816406e+00 2.858021557331085205e-01 1.006226688623428345e-01
3.289000000000000000e+03 6.491213226318359375e+01 -2.910649299621582031e+01 1.646491587162017822e-01 6.989950656890869141e+00 2.146379947662353516e+00 4.717960059642791748e-01
3.290000000000000000e+03 6.808247375488281250e+01 -3.226327133178710938e+01 1.811338663101196289e-01 7.142521858215332031e+00 2.197096586227416992e+00 3.651953637599945068e-01
3.291000000000000000e+03 2.700500869750976562e+01 3.712273788452148438e+01 -5.770273804664611816e-01 -2.869911864399909973e-02 -1.817179471254348755e-01 -2.476361393928527832e-01
3.292000000000000000e+03 5.334155654907226562e+01 -4.070300674438476562e+01 7.486289739608764648e-01 6.832447528839111328e+00 2.274322986602783203e+00 -1.642813161015510559e-02
3.293000000000000000e+03 5.149829864501953125e+01 -3.703270721435546875e+01 1.197634339332580566e+00 6.554082393646240234e+00 2.325515031814575195e+00 -1.318252086639404297e-01
3.294000000000000000e+03 1.729327011108398438e+01 -3.750947189331054688e+01 -1.517436504364013672e-01 1.389286994934082031e+00 3.712630271911621094e-01 -1.726828515529632568e-02
3.295000000000000000e+03 1.634542274475097656e+01 -3.458288192749023438e+01 -1.443847715854644775e-01 1.414411187171936035e+00 3.810079395771026611e-01 -5.729346070438623428e-03
3.296000000000000000e+03 1.340552234649658203e+01 -3.788968658447265625e+01 -1.437811106443405151e-01 1.183527827262878418e+00 3.119240105152130127e-01 3.912463411688804626e-02
3.297000000000000000e+03 6.188003540039062500e+01 -3.531466293334960938e+01 4.797925949096679688e-01 6.740452766418457031e+00 2.166073560714721680e+00 3.034965395927429199e-01
3.298000000000000000e+03 5.827388000488281250e+01 -3.700765991210937500e+01 6.665669083595275879e-01 6.641136646270751953e+00 2.192311048507690430e+00 2.065996080636978149e-01
3.299000000000000000e+03 5.445071029663085938e+01 -3.739236450195312500e+01 7.979766130447387695e-01 6.542583942413330078e+00 2.202168226242065430e+00 -7.042999844998121262e-03
3.300000000000000000e+03 2.286573982238769531e+01 3.420406723022460938e+01 -4.327684044837951660e-01 3.721414804458618164e-01 -1.818807795643806458e-02 -2.885355949401855469e-01
3.301000000000000000e+03 1.535231399536132812e+01 3.556564331054687500e+01 -2.341456264257431030e-01 1.364490151405334473e+00 3.391033411026000977e-01 -1.452727019786834717e-01
3.302000000000000000e+03 8.231312751770019531e+00 4.110720825195312500e+01 -4.795445129275321960e-02 2.456041097640991211e+00 7.224259972572326660e-01 -8.935842663049697876e-03
3.303000000000000000e+03 6.840493011474609375e+01 -3.834318542480468750e+01 2.710789442062377930e-01 7.092170715332031250e+00 2.208974838256835938e+00 1.501176208257675171e-01
3.304000000000000000e+03 1.002147388458251953e+01 -3.748159790039062500e+01 -1.043352410197257996e-01 9.527786970138549805e-01 2.545330524444580078e-01 6.458620727062225342e-02
3.305000000000000000e+03 5.463277816772460938e+01 -2.446083831787109375e+01 -1.110995337367057800e-01 6.187720775604248047e+00 1.822986364364624023e+00 4.033838212490081787e-01
3.306000000000000000e+03 5.827693176269531250e+01 -2.765130615234375000e+01 1.871886104345321655e-01 6.526057720184326172e+00 2.013973951339721680e+00 5.271133184432983398e-01
3.307000000000000000e+03 5.789089584350585938e+01 -2.267039299011230469e+01 -1.453878432512283325e-01 6.421476840972900391e+00 1.882826685905456543e+00 4.655434787273406982e-01
3.308000000000000000e+03 5.536580657958984375e+01 -2.641144752502441406e+01 8.106224238872528076e-02 6.301386833190917969e+00 1.914734721183776855e+00 4.684906303882598877e-01
3.309000000000000000e+03 4.917164993286132812e+01 -3.221920013427734375e+01 7.766950130462646484e-01 6.485920906066894531e+00 2.178784847259521484e+00 1.678713858127593994e-01
3.310000000000000000e+03 5.065031433105468750e+01 -3.258928680419921875e+01 9.192894101142883301e-01 6.412754535675048828e+00 2.199613094329833984e+00 2.696893513202667236e-01
3.311000000000000000e+03 6.657848358154296875e+01 -3.455819320678710938e+01 2.768620550632476807e-01 7.018166065216064453e+00 2.188508272171020508e+00 3.253363072872161865e-01
3.312000000000000000e+03 6.043775939941406250e+01 -3.256731796264648438e+01 4.357125759124755859e-01 6.675693988800048828e+00 2.133421897888183594e+00 4.196101129055023193e-01
3.313000000000000000e+03 6.286920928955078125e+01 -3.082175254821777344e+01 2.747714221477508545e-01 6.816104888916015625e+00 2.127262830734252930e+00 4.502771794795989990e-01
3.314000000000000000e+03 1.332141304016113281e+01 3.339387130737304688e+01 -1.956609636545181274e-01 1.619235038757324219e+00 4.270722270011901855e-01 -1.892234832048416138e-01
3.315000000000000000e+03 1.359637165069580078e+01 -3.503604507446289062e+01 -1.397493630647659302e-01 1.231933236122131348e+00 3.276551961898803711e-01 5.244548246264457703e-02
3.316000000000000000e+03 5.929227828979492188e+01 -3.000047683715820312e+01 3.147521317005157471e-01 6.584555625915527344e+00 2.069792270660400391e+00 4.760336875915527344e-01
3.317000000000000000e+03 1.400480461120605469e+01 -2.788192749023437500e+01 -1.523864865303039551e-01 1.472586274147033691e+00 3.960599303245544434e-01 6.713179498910903931e-02
3.318000000000000000e+03 5.434328842163085938e+01 -3.181749534606933594e+01 5.703645944595336914e-01 6.391344547271728516e+00 2.088512659072875977e+00 3.989629447460174561e-01
3.319000000000000000e+03 1.152829551696777344e+01 -3.245922470092773438e+01 -1.259156018495559692e-01 1.135232686996459961e+00 3.027951121330261230e-01 1.087148487567901611e-01
3.320000000000000000e+03 1.856761550903320312e+01 3.708646011352539062e+01 -2.765302956104278564e-01 9.298939704895019531e-01 1.960091143846511841e-01 -1.460782140493392944e-01
3.321000000000000000e+03 5.386577606201171875e+01 -2.927247428894042969e+01 3.647293746471405029e-01 6.295759201049804688e+00 1.998146653175354004e+00 4.323288500308990479e-01
3.322000000000000000e+03 5.225735473632812500e+01 -3.241903305053710938e+01 8.091543316841125488e-01 6.357671260833740234e+00 2.150047779083251953e+00 3.235638141632080078e-01
3.323000000000000000e+03 5.610133361816406250e+01 -2.861504364013671875e+01 2.414294928312301636e-01 6.405706882476806641e+00 1.994140863418579102e+00 4.832981228828430176e-01
3.324000000000000000e+03 1.385732460021972656e+01 1.446280598640441895e+00 2.564405441284179688e+01 3.288646316528320312e+01 1.755915451049804688e+01 -1.522620677947998047e+01
3.325000000000000000e+03 1.425541877746582031e+01 1.050887942314147949e+00 1.627821540832519531e+01 3.099340820312500000e+01 1.418148708343505859e+01 -2.211576843261718750e+01
3.326000000000000000e+03 1.404636383056640625e+01 1.074666142463684082e+00 1.406993103027343750e+01 2.182587432861328125e+01 1.076874160766601562e+01 -1.058278465270996094e+01
3.327000000000000000e+03 1.460374259948730469e+01 9.420658946037292480e-01 1.817231559753417969e+01 2.045103263854980469e+01 1.158700466156005859e+01 -2.267874908447265625e+01
3.328000000000000000e+03 1.498028182983398438e+01 9.097799658775329590e-01 4.555757904052734375e+01 4.579207992553710938e+01 2.740489768981933594e+01 -3.434682846069335938e+01
3.329000000000000000e+03 1.516610336303710938e+01 8.714323043823242188e-01 1.108396530151367188e+01 -3.134926033020019531e+01 -6.079588413238525391e+00 -4.368363380432128906e+00
3.330000000000000000e+03 1.543493652343750000e+01 8.520356416702270508e-01 -1.360303497314453125e+01 1.348122310638427734e+01 -3.654341027140617371e-02 -9.903171539306640625e+00
3.331000000000000000e+03 1.608872222900390625e+01 8.177214264869689941e-01 -1.761664009094238281e+01 1.252696514129638672e+01 -1.526902437210083008e+00 -1.299432563781738281e+01
3.332000000000000000e+03 1.598936367034912109e+01 8.680224418640136719e-01 -2.647192955017089844e+01 1.132467460632324219e+01 -4.544176578521728516e+00 -1.144688606262207031e+01
3.333000000000000000e+03 1.276735115051269531e+01 -2.748832941055297852e+00 3.361574113368988037e-01 4.408935010433197021e-01 2.331152707338333130e-01 3.591824471950531006e-01
3.334000000000000000e+03 1.326886081695556641e+01 -2.174280881881713867e+00 1.057939380407333374e-01 2.917847633361816406e-01 1.192736104130744934e-01 4.084515869617462158e-01
3.335000000000000000e+03 1.390610790252685547e+01 -2.291327476501464844e+00 9.606050848960876465e-01 1.085907101631164551e+00 6.139536499977111816e-01 1.281778812408447266e+00
3.336000000000000000e+03 1.474965000152587891e+01 -2.583529949188232422e+00 1.565035820007324219e+00 4.392883777618408203e+00 1.787375807762145996e+00 3.154006719589233398e+00
3.337000000000000000e+03 1.473422527313232422e+01 -2.275463581085205078e+00 1.557382941246032715e+00 3.654738426208496094e+00 1.563636422157287598e+00 3.134894847869873047e+00
3.338000000000000000e+03 1.532476806640625000e+01 -2.334905862808227539e+00 1.086051106452941895e+00 8.205060958862304688e+00 2.787333726882934570e+00 4.219174861907958984e+00
3.339000000000000000e+03 1.588141155242919922e+01 -2.694876909255981445e+00 -8.168960809707641602e-01 1.175089073181152344e+01 3.280198574066162109e+00 1.938906550407409668e+00
3.340000000000000000e+03 1.661913681030273438e+01 -2.277302026748657227e+00 6.860455870628356934e-01 1.513203620910644531e+01 4.745424747467041016e+00 -2.562252759933471680e+00
3.341000000000000000e+03 1.780070114135742188e+01 -4.968071579933166504e-01 1.113712310791015625e+01 -7.228198647499084473e-01 3.124290943145751953e+00 2.575025081634521484e+00
3.342000000000000000e+03 1.781472206115722656e+01 2.267998084425926208e-02 7.667848587036132812e+00 -6.352319121360778809e-01 2.109784841537475586e+00 4.261033535003662109e+00
3.343000000000000000e+03 1.768264198303222656e+01 5.167608261108398438e-01 -2.170414209365844727e+00 -8.910185098648071289e-01 -9.184297919273376465e-01 4.760813236236572266e+00
3.344000000000000000e+03 7.802641296386718750e+01 4.165544128417968750e+01 -1.543645113706588745e-01 5.632845878601074219e+00 1.643544435501098633e+00 4.425532743334770203e-02
3.345000000000000000e+03 5.156259155273437500e+01 4.081770324707031250e+01 -1.985797166824340820e+00 2.371599823236465454e-01 -5.245911478996276855e-01 -6.024913787841796875e-01
3.346000000000000000e+03 5.334186172485351562e+01 4.164958572387695312e+01 -3.468939065933227539e+00 6.021888732910156250e+00 7.658848762512207031e-01 -6.652144789695739746e-01
3.347000000000000000e+03 1.633799743652343750e+01 9.395859837532043457e-01 -2.765146636962890625e+01 -6.471344470977783203e+00 -1.023684310913085938e+01 -8.329630851745605469e+00
3.348000000000000000e+03 1.623150253295898438e+01 8.155318498611450195e-01 -2.366867065429687500e+01 3.221604824066162109e+00 -6.134119987487792969e+00 -1.110018920898437500e+01
3.349000000000000000e+03 1.593457603454589844e+01 9.007664322853088379e-01 -1.634890174865722656e+01 1.068398666381835938e+01 -1.699474692344665527e+00 -4.869996547698974609e+00
3.350000000000000000e+03 1.606478309631347656e+01 8.975076079368591309e-01 -2.962355995178222656e+01 1.602575874328613281e+01 -4.079339981079101562e+00 -1.225873470306396484e+01
3.351000000000000000e+03 1.552695751190185547e+01 8.759146332740783691e-01 -2.120590782165527344e+01 -5.360861778259277344e+00 -7.970031261444091797e+00 -1.517264175415039062e+01
3.352000000000000000e+03 1.808005142211914062e+01 -6.536981463432312012e-01 1.074694252014160156e+01 -4.969733953475952148e-01 3.074990749359130859e+00 1.292377710342407227e+00
3.353000000000000000e+03 1.656837272644042969e+01 -3.390376806259155273e+00 -1.590144038200378418e+00 1.035381984710693359e+01 2.629102945327758789e+00 -8.477452993392944336e-01
3.354000000000000000e+03 1.887480354309082031e+01 -1.163549065589904785e+00 7.788930892944335938e+00 -1.470702886581420898e+00 1.895468473434448242e+00 2.062645196914672852e+00
3.355000000000000000e+03 1.609415435791015625e+01 9.473312497138977051e-01 -1.769106864929199219e+01 1.579137611389160156e+01 -5.699079632759094238e-01 -9.235026359558105469e+00
3.356000000000000000e+03 1.450143051147460938e+01 -2.533322811126708984e+00 1.286934018135070801e+00 3.285391330718994141e+00 1.371697664260864258e+00 2.773573875427246094e+00
3.357000000000000000e+03 1.412906455993652344e+01 -2.742574930191040039e+00 1.157685995101928711e+00 2.350569486618041992e+00 1.052476644515991211e+00 1.998738884925842285e+00
3.358000000000000000e+03 1.304779624938964844e+01 -2.393500566482543945e+00 2.311416864395141602e-01 3.667144775390625000e-01 1.793568581342697144e-01 3.669286370277404785e-01
3.359000000000000000e+03 1.303201866149902344e+01 -2.575868606567382812e+00 4.195899069309234619e-01 5.729708075523376465e-01 2.977682054042816162e-01 5.538153648376464844e-01
3.360000000000000000e+03 1.290774345397949219e+01 -3.091257333755493164e+00 6.877244710922241211e-01 8.746297359466552734e-01 4.687062799930572510e-01 7.751774191856384277e-01
3.361000000000000000e+03 4.351312255859375000e+01 3.629859161376953125e+01 -1.558312892913818359e+00 -5.409667491912841797e-01 -6.297838687896728516e-01 -8.823475837707519531e-01
3.362000000000000000e+03 4.254780197143554688e+01 3.521259307861328125e+01 -1.349173188209533691e+00 -8.565620779991149902e-01 -6.617205739021301270e-01 -8.132365942001342773e-01
3.363000000000000000e+03 1.478972148895263672e+01 9.317394495010375977e-01 2.204586982727050781e+01 1.608300018310546875e+01 1.143866062164306641e+01 -2.047418785095214844e+01
3.364000000000000000e+03 1.320415306091308594e+01 -2.578051090240478516e+00 6.494033932685852051e-01 7.277582883834838867e-01 4.131484925746917725e-01 7.277389168739318848e-01
3.365000000000000000e+03 1.323510646820068359e+01 -2.812688350677490234e+00 6.911038160324096680e-01 8.216271996498107910e-01 4.538193047046661377e-01 8.142774701118469238e-01
3.366000000000000000e+03 1.586070251464843750e+01 8.456526398658752441e-01 -1.835097694396972656e+01 1.157544040679931641e+01 -2.032660961151123047e+00 -7.832170486450195312e+00
3.367000000000000000e+03 7.794558715820312500e+01 3.578553771972656250e+01 1.169306486845016479e-01 5.784517765045166016e+00 1.770434498786926270e+00 -3.779903054237365723e-02
3.368000000000000000e+03 1.591760540008544922e+01 9.303297996520996094e-01 -2.555532264709472656e+01 1.153782653808593750e+01 -4.205248832702636719e+00 -1.040461635589599609e+01
3.369000000000000000e+03 1.580004787445068359e+01 8.738591074943542480e-01 -2.530061912536621094e+01 1.224890708923339844e+01 -3.915513992309570312e+00 -1.158267498016357422e+01
3.370000000000000000e+03 1.570639610290527344e+01 9.157652854919433594e-01 -3.554739761352539062e+01 -1.219932460784912109e+01 -1.432401657104492188e+01 -1.280942201614379883e+00
3.371000000000000000e+03 1.575553798675537109e+01 8.979479074478149414e-01 -1.833781433105468750e+01 1.105721473693847656e+01 -2.184180021286010742e+00 -5.768796920776367188e+00
3.372000000000000000e+03 1.589884757995605469e+01 9.519959092140197754e-01 -1.364237880706787109e+01 2.510303878784179688e+01 3.438198089599609375e+00 -1.252597522735595703e+01
3.373000000000000000e+03 1.619761085510253906e+01 1.017765760421752930e+00 -2.872863388061523438e+01 -3.284555077552795410e-01 -8.717126846313476562e+00 -7.662293434143066406e+00
3.374000000000000000e+03 1.555448246002197266e+01 8.990466594696044922e-01 -1.877022504806518555e+00 1.927714729309082031e+01 5.220037460327148438e+00 -1.858911705017089844e+01
3.375000000000000000e+03 1.537804698944091797e+01 8.934171795845031738e-01 -1.951476669311523438e+01 7.432275295257568359e+00 -3.624747276306152344e+00 -6.026743888854980469e+00
3.376000000000000000e+03 1.535717010498046875e+01 8.709531426429748535e-01 -5.630153179168701172e+00 2.503429412841796875e+01 5.821241855621337891e+00 -4.725009441375732422e+00
3.377000000000000000e+03 1.526126480102539062e+01 8.893787860870361328e-01 -6.213900375366210938e+01 -1.814834022521972656e+01 -2.408620262145996094e+01 1.594382381439208984e+01
3.378000000000000000e+03 2.180469274520874023e+00 3.553719329833984375e+01 -2.511809766292572021e-02 3.387809753417968750e+00 1.008807539939880371e+00 -2.096401527523994446e-03
3.379000000000000000e+03 6.500338077545166016e+00 -3.463885116577148438e+01 -5.823493003845214844e-02 6.809174418449401855e-01 1.868047416210174561e-01 1.167056262493133545e-01
3.380000000000000000e+03 1.745764541625976562e+01 -4.911793708801269531e+00 -8.014619350433349609e-01 6.532451629638671875e+00 1.719296932220458984e+00 -2.291820287704467773e+00
3.381000000000000000e+03 1.562254047393798828e+01 9.256787896156311035e-01 -2.286679840087890625e+01 1.515263557434082031e+00 -6.405460357666015625e+00 -4.855781078338623047e+00
3.382000000000000000e+03 1.542354488372802734e+01 9.113608002662658691e-01 -1.067991638183593750e+01 1.365930461883544922e+01 8.938165903091430664e-01 -1.242445659637451172e+01
3.383000000000000000e+03 1.201848888397216797e+01 -4.428646564483642578e+00 7.253654599189758301e-01 1.120056033134460449e+00 5.536264777183532715e-01 4.960368871688842773e-01
3.384000000000000000e+03 1.286021709442138672e+01 -2.477181196212768555e+00 1.898661404848098755e-01 3.001357913017272949e-01 1.470005810260772705e-01 3.061793148517608643e-01
3.385000000000000000e+03 1.321099758148193359e+01 -3.316632032394409180e+00 9.022600054740905762e-01 1.270086884498596191e+00 6.517040729522705078e-01 1.051613450050354004e+00
3.386000000000000000e+03 1.650708580017089844e+01 -5.394286155700683594e+00 -8.099308013916015625e-01 6.499176979064941406e+00 1.706773877143859863e+00 -1.103513360023498535e+00
3.387000000000000000e+03 3.432716751098632812e+01 3.567996978759765625e+01 -8.626658916473388672e-01 -5.699728131294250488e-01 -4.297916293144226074e-01 -5.546191334724426270e-01
3.388000000000000000e+03 5.924665069580078125e+01 3.022422790527343750e+01 1.286603331565856934e+00 1.027396869659423828e+01 3.468171596527099609e+00 3.690768033266067505e-02
3.389000000000000000e+03 6.032984542846679688e+01 2.923997497558593750e+01 6.822941899299621582e-01 1.027157306671142578e+01 3.286159992218017578e+00 -2.059002816677093506e-01
3.390000000000000000e+03 1.160578918457031250e+01 -4.415009021759033203e+00 6.247074604034423828e-01 8.372049927711486816e-01 4.385737478733062744e-01 3.108659982681274414e-01
3.391000000000000000e+03 6.197486877441406250e+01 2.945673751831054688e+01 7.950477004051208496e-01 9.756887435913085938e+00 3.165580511093139648e+00 -2.924920320510864258e-01
3.392000000000000000e+03 1.722582626342773438e+01 1.476041507720947266e+01 -7.596387863159179688e-01 1.218370914459228516e+00 1.376196444034576416e-01 -2.724890112876892090e-01
3.393000000000000000e+03 5.778080368041992188e+01 2.807040214538574219e+01 2.394199520349502563e-01 1.010502719879150391e+01 3.103334188461303711e+00 6.226500272750854492e-01
3.394000000000000000e+03 5.131618022918701172e+00 -1.049643802642822266e+01 2.332818955183029175e-01 8.041366003453731537e-03 7.239697873592376709e-02 -6.875559221953153610e-03
3.395000000000000000e+03 1.549938201904296875e+01 9.350385665893554688e-01 -2.200323677062988281e+01 7.012408733367919922e+00 -4.497248649597167969e+00 -7.499629497528076172e+00
3.396000000000000000e+03 1.582071590423583984e+01 9.683364033699035645e-01 -2.576573944091796875e+01 8.054395675659179688e+00 -5.313403129577636719e+00 -8.178058624267578125e+00
3.397000000000000000e+03 1.591984272003173828e+01 1.003285646438598633e+00 -2.352243804931640625e+01 7.456233501434326172e+00 -4.819861412048339844e+00 -8.388781547546386719e+00
3.398000000000000000e+03 3.285001754760742188e+01 3.423584365844726562e+01 -8.537015318870544434e-01 -5.538696646690368652e-01 -4.222713708877563477e-01 -5.215543508529663086e-01
3.399000000000000000e+03 5.963626480102539062e+01 2.779888343811035156e+01 3.809683620929718018e-01 9.853428840637207031e+00 3.070319175720214844e+00 4.811288788914680481e-03
3.400000000000000000e+03 2.780663108825683594e+01 -3.133374404907226562e+01 2.250768840312957764e-01 1.573538064956665039e+00 5.395844578742980957e-01 -4.958274066448211670e-01
3.401000000000000000e+03 1.492201232910156250e+01 -4.910694599151611328e+00 -1.069849357008934021e-01 5.282730102539062500e+00 1.552723526954650879e+00 1.059473991394042969e+00
3.402000000000000000e+03 1.349874782562255859e+01 -3.251548004150390625e+01 -1.412361115217208862e-01 1.302670717239379883e+00 3.484303653240203857e-01 7.191459834575653076e-02
3.403000000000000000e+03 1.447023105621337891e+01 -5.936467647552490234e+00 1.759431660175323486e-01 4.181587696075439453e+00 1.307259321212768555e+00 7.852448225021362305e-01
3.404000000000000000e+03 1.468803501129150391e+01 -5.386069774627685547e+00 1.762042194604873657e-02 4.611614227294921875e+00 1.388770461082458496e+00 8.707055449485778809e-01
3.405000000000000000e+03 4.821106719970703125e+01 -2.826551437377929688e+01 8.341588079929351807e-02 5.924829483032226562e+00 1.802473545074462891e+00 -5.415972322225570679e-02
3.406000000000000000e+03 5.860293197631835938e+01 2.890864944458007812e+01 5.100932121276855469e-01 1.076354217529296875e+01 3.382090568542480469e+00 7.221285998821258545e-02
3.407000000000000000e+03 5.676744937896728516e+00 -6.957038402557373047e+00 2.561607658863067627e-01 -3.737878799438476562e-02 6.563458591699600220e-02 -2.530157268047332764e-01
3.408000000000000000e+03 2.561130142211914062e+01 -2.707066726684570312e+01 1.939477622509002686e-01 1.848780632019042969e+00 6.128184795379638672e-01 -5.939593911170959473e-01
3.409000000000000000e+03 2.411693954467773438e+01 -2.493988037109375000e+01 1.738340407609939575e-01 2.019009590148925781e+00 6.578530669212341309e-01 -6.326829791069030762e-01
3.410000000000000000e+03 2.466515922546386719e+01 -2.776609039306640625e+01 1.249533444643020630e-01 1.797336816787719727e+00 5.766870379447937012e-01 -5.296221375465393066e-01
3.411000000000000000e+03 5.175512313842773438e+01 -2.939178657531738281e+01 3.476025164127349854e-01 6.251120090484619141e+00 1.979616761207580566e+00 3.761432468891143799e-01
3.412000000000000000e+03 6.666046905517578125e+01 2.895899772644042969e+01 4.947401881217956543e-01 8.569172859191894531e+00 2.719173908233642578e+00 -7.565895915031433105e-01
3.413000000000000000e+03 5.354183197021484375e+01 2.753470802307128906e+01 6.775987148284912109e-01 8.589351654052734375e+00 2.780085086822509766e+00 2.346978664398193359e+00
3.414000000000000000e+03 2.788726425170898438e+01 2.075395733118057251e-02 1.408553719520568848e+00 -1.745452284812927246e-01 3.702025413513183594e-01 3.779367208480834961e-01
3.415000000000000000e+03 1.161746311187744141e+01 -3.048223114013671875e+01 -1.326206028461456299e-01 1.202815532684326172e+00 3.210584819316864014e-01 1.291773766279220581e-01
3.416000000000000000e+03 1.180468368530273438e+01 -5.195530414581298828e+00 6.880467534065246582e-01 1.257887959480285645e+00 5.837804079055786133e-01 4.926571249961853027e-01
3.417000000000000000e+03 4.477390670776367188e+01 1.805929374694824219e+01 4.658822417259216309e-01 2.943565130233764648e+00 1.022834181785583496e+00 1.416416049003601074e+00
3.418000000000000000e+03 2.018044090270996094e+01 2.061775207519531250e+01 -6.333903670310974121e-01 4.388166666030883789e-01 -5.837211012840270996e-02 -3.788238763809204102e-01
3.419000000000000000e+03 9.829648971557617188e+00 9.554903030395507812e+00 -2.332988530397415161e-01 2.969103574752807617e+00 8.207414150238037109e-01 -1.872259020805358887e+00
3.420000000000000000e+03 1.582442760467529297e+01 -8.221691131591796875e+00 2.429062128067016602e-01 4.230916500091552734e+00 1.342146754264831543e+00 -2.221711575984954834e-01
3.421000000000000000e+03 7.192925262451171875e+01 3.051204109191894531e+01 2.609581947326660156e-01 7.637625217437744141e+00 2.369575023651123047e+00 -5.798396468162536621e-01
3.422000000000000000e+03 7.308593750000000000e+01 2.888862419128417969e+01 5.308737233281135559e-02 7.477417469024658203e+00 2.259151458740234375e+00 -6.725608706474304199e-01
3.423000000000000000e+03 7.480819702148437500e+00 -1.077570915222167969e+01 3.619767427444458008e-01 5.377211570739746094e-01 2.699093818664550781e-01 1.431774348020553589e-01
3.424000000000000000e+03 2.360499763488769531e+01 2.500002670288085938e+01 -5.469120144844055176e-01 4.238011687994003296e-02 -1.513595730066299438e-01 -4.534103572368621826e-01
3.425000000000000000e+03 2.493391609191894531e+01 -2.601730346679687500e+01 1.704632639884948730e-01 1.888969659805297852e+00 6.178299188613891602e-01 -6.272027492523193359e-01
3.426000000000000000e+03 3.368716049194335938e+01 -4.952061653137207031e+00 2.680847048759460449e-01 7.788692712783813477e-01 3.140861988067626953e-01 -9.341764450073242188e-02
3.427000000000000000e+03 4.637357330322265625e+01 -2.286809539794921875e+01 -2.861073613166809082e-01 4.676171779632568359e+00 1.317019343376159668e+00 -3.738003373146057129e-01
3.428000000000000000e+03 8.073919296264648438e+00 -9.738708496093750000e+00 4.183684289455413818e-01 5.815045833587646484e-01 2.999619245529174805e-01 1.015743911266326904e-01
3.429000000000000000e+03 4.855878067016601562e+01 -2.499563598632812500e+01 -2.055680006742477417e-01 5.512491226196289062e+00 1.592077016830444336e+00 -6.161809712648391724e-02
3.430000000000000000e+03 6.967136859893798828e+00 8.009844779968261719e+00 6.886776685714721680e-01 1.365050315856933594e+00 6.161183714866638184e-01 -1.628615975379943848e+00
3.431000000000000000e+03 1.161217880249023438e+01 -5.820294857025146484e+00 6.871638298034667969e-01 1.287878870964050293e+00 5.925128459930419922e-01 4.309557974338531494e-01
3.432000000000000000e+03 1.192660999298095703e+01 -2.691058349609375000e+01 -1.389246582984924316e-01 1.309815645217895508e+00 3.512673079967498779e-01 1.495035588741302490e-01
3.433000000000000000e+03 1.033515930175781250e+01 -2.873185348510742188e+01 -1.203034892678260803e-01 1.102405548095703125e+00 2.946306169033050537e-01 1.749625355005264282e-01
3.434000000000000000e+03 9.455052375793457031e+00 1.504747390747070312e+01 -6.778344511985778809e-01 2.360630512237548828e+00 5.048388242721557617e-01 -1.008748888969421387e+00
3.435000000000000000e+03 9.815069198608398438e+00 1.405987834930419922e+01 -6.007574796676635742e-01 2.405410051345825195e+00 5.413957834243774414e-01 -1.116916060447692871e+00
3.436000000000000000e+03 1.552795696258544922e+01 -7.537619113922119141e+00 1.140063181519508362e-01 4.421771526336669922e+00 1.360733389854431152e+00 -9.874219074845314026e-03
3.437000000000000000e+03 5.984141540527343750e+01 2.343747138977050781e+01 -2.912231683731079102e-01 8.912459373474121094e+00 2.586370706558227539e+00 1.252083480358123779e-01
3.438000000000000000e+03 5.893459701538085938e+01 2.293190383911132812e+01 -3.189447820186614990e-01 8.675152778625488281e+00 2.506862401962280273e+00 2.909066677093505859e-01
3.439000000000000000e+03 7.299462890625000000e+01 3.006270217895507812e+01 2.690037488937377930e-01 7.382840156555175781e+00 2.295553207397460938e+00 -6.296468973159790039e-01
3.440000000000000000e+03 6.125224113464355469e+00 1.106696128845214844e+01 5.760755389928817749e-02 1.681232810020446777e+00 5.216521024703979492e-01 -1.371107101440429688e+00
3.441000000000000000e+03 5.811169624328613281e+00 8.463240623474121094e+00 5.127704143524169922e-01 1.115479707717895508e+00 4.884750247001647949e-01 -1.327633261680603027e+00
3.442000000000000000e+03 5.763910770416259766e+00 7.039186000823974609e+00 9.288594126701354980e-01 5.011682510375976562e-01 4.290083050727844238e-01 -1.066407799720764160e+00
3.443000000000000000e+03 1.497670459747314453e+01 2.005228042602539062e+01 -6.515396237373352051e-01 1.511447429656982422e+00 2.579723298549652100e-01 -4.276399910449981689e-01
3.444000000000000000e+03 9.169958114624023438e+00 2.379923439025878906e+01 -3.056327402591705322e-01 2.122999429702758789e+00 5.452100634574890137e-01 -4.641928374767303467e-01
3.445000000000000000e+03 9.393602371215820312e+00 1.625351715087890625e+01 -5.733442306518554688e-01 2.257164239883422852e+00 5.051459670066833496e-01 -9.373607039451599121e-01
3.446000000000000000e+03 1.444713020324707031e+01 -1.564701843261718750e+01 1.299469769001007080e-01 2.443865776062011719e+00 7.721438407897949219e-01 7.581277191638946533e-02
3.447000000000000000e+03 7.149875640869140625e+01 2.205423927307128906e+01 -8.571572601795196533e-02 7.868337631225585938e+00 2.334786653518676758e+00 -8.100607395172119141e-01
3.448000000000000000e+03 3.679113769531250000e+01 1.920692801475524902e+00 5.265291333198547363e-01 1.434812307357788086e+00 5.884024500846862793e-01 3.069835603237152100e-01
3.449000000000000000e+03 9.387542724609375000e+00 2.477083778381347656e+01 -3.032326102256774902e-01 2.090172290802001953e+00 5.360819101333618164e-01 -4.011649787425994873e-01
3.450000000000000000e+03 8.058854103088378906e+00 -8.985690116882324219e+00 4.843722879886627197e-01 4.982345700263977051e-01 2.947820425033569336e-01 5.593241006135940552e-02
3.451000000000000000e+03 8.779184341430664062e+00 -9.837370872497558594e+00 4.800163507461547852e-01 8.076909780502319336e-01 3.863121867179870605e-01 1.741345822811126709e-01
3.452000000000000000e+03 7.069075775146484375e+01 -2.183128356933593750e+01 -3.053721413016319275e-02 7.550267219543457031e+00 2.255918979644775391e+00 4.056738615036010742e-01
3.453000000000000000e+03 6.800213623046875000e+01 -1.899365425109863281e+01 -1.040988340973854065e-01 7.370244979858398438e+00 2.179843902587890625e+00 4.274686574935913086e-01
3.454000000000000000e+03 8.104525566101074219e+00 2.265840721130371094e+01 -2.935623824596405029e-01 2.224409103393554688e+00 5.792539715766906738e-01 -5.273326039314270020e-01
3.455000000000000000e+03 4.595384597778320312e+01 -1.908359909057617188e+01 -3.234939575195312500e-01 4.289848804473876953e+00 1.189906477928161621e+00 -2.784995436668395996e-01
3.456000000000000000e+03 1.046178150177001953e+01 1.967296600341796875e+01 -5.277368426322937012e-01 2.091032743453979492e+00 4.689887464046478271e-01 -6.588755249977111816e-01
3.457000000000000000e+03 8.860902786254882812e+00 -7.492682933807373047e+00 5.336827635765075684e-01 5.767623186111450195e-01 3.331335186958312988e-01 4.361826181411743164e-02
3.458000000000000000e+03 8.747945785522460938e+00 1.705006217956542969e+01 -4.917755722999572754e-01 2.206043243408203125e+00 5.142803192138671875e-01 -8.624238967895507812e-01
3.459000000000000000e+03 7.989785671234130859e+00 1.643558120727539062e+01 -4.772422611713409424e-01 2.264928817749023438e+00 5.363059639930725098e-01 -9.438871145248413086e-01
3.460000000000000000e+03 9.609040260314941406e+00 2.009954071044921875e+01 -4.637525379657745361e-01 2.073594093322753906e+00 4.829524457454681396e-01 -6.152963638305664062e-01
3.461000000000000000e+03 1.198922443389892578e+01 -6.024157047271728516e+00 6.704511642456054688e-01 1.663019895553588867e+00 7.000412940979003906e-01 5.858968496322631836e-01
3.462000000000000000e+03 1.211252689361572266e+01 -7.024288654327392578e+00 6.258140802383422852e-01 1.882417917251586914e+00 7.524695992469787598e-01 5.262651443481445312e-01
3.463000000000000000e+03 7.091211700439453125e+01 2.328483009338378906e+01 -3.976419940590858459e-02 7.971138477325439453e+00 2.379412174224853516e+00 -7.914544939994812012e-01
3.464000000000000000e+03 4.123562240600585938e+01 -1.079073143005371094e+01 -1.635354608297348022e-01 2.663275480270385742e+00 7.499219775199890137e-01 -1.835578680038452148e-01
3.465000000000000000e+03 1.215745449066162109e+01 -1.655970954895019531e+01 4.435298219323158264e-02 1.798134326934814453e+00 5.527461767196655273e-01 2.609283924102783203e-01
3.466000000000000000e+03 4.607477188110351562e+01 1.244891548156738281e+01 1.217084005475044250e-01 3.641054868698120117e+00 1.128829002380371094e+00 1.103641986846923828e+00
3.467000000000000000e+03 1.021102905273437500e+01 1.878259277343750000e+01 -5.802310705184936523e-01 2.077648401260375977e+00 4.492252171039581299e-01 -6.822233200073242188e-01
3.468000000000000000e+03 5.257715988159179688e+01 1.854981231689453125e+01 -2.375730574131011963e-01 6.252771854400634766e+00 1.804559707641601562e+00 1.299443244934082031e+00
3.469000000000000000e+03 1.040731716156005859e+01 -2.109918212890625000e+01 -6.782549619674682617e-02 1.286824822425842285e+00 3.656997978687286377e-01 2.578518688678741455e-01
3.470000000000000000e+03 6.346281433105468750e+01 2.034467124938964844e+01 -4.371026754379272461e-01 8.370059967041015625e+00 2.379887342453002930e+00 -3.970099687576293945e-01
3.471000000000000000e+03 4.133416748046875000e+01 -4.409159660339355469e+00 5.055841803550720215e-02 2.604992151260375977e+00 7.966651320457458496e-01 9.223152301274240017e-05
3.472000000000000000e+03 8.016843795776367188e+00 2.144256782531738281e+01 -3.442909419536590576e-01 2.216372966766357422e+00 5.616245865821838379e-01 -5.390667319297790527e-01
3.473000000000000000e+03 4.322239303588867188e+01 9.739763259887695312e+00 2.606829404830932617e-01 2.826688051223754883e+00 9.262112975120544434e-01 8.675432205200195312e-01
3.474000000000000000e+03 5.236043548583984375e+01 -1.780616188049316406e+01 -3.782823681831359863e-01 5.519565105438232422e+00 1.542384743690490723e+00 1.594929844141006470e-01
3.475000000000000000e+03 1.315144157409667969e+01 -8.735504150390625000e+00 5.060879588127136230e-01 2.599677324295043945e+00 9.317296147346496582e-01 4.000601768493652344e-01
3.476000000000000000e+03 6.369235992431640625e+01 1.761085128784179688e+01 -4.551030993461608887e-01 8.030714035034179688e+00 2.272683143615722656e+00 -3.243324160575866699e-01
3.477000000000000000e+03 5.148746871948242188e+01 -1.666495895385742188e+01 -4.216898083686828613e-01 5.332521438598632812e+00 1.473249554634094238e+00 9.956889599561691284e-02
3.478000000000000000e+03 5.107903289794921875e+01 -1.545688343048095703e+01 -4.016450345516204834e-01 5.189020156860351562e+00 1.436212539672851562e+00 7.468380779027938843e-02
3.479000000000000000e+03 6.787671661376953125e+01 9.001200675964355469e+00 -3.479681313037872314e-01 7.758274555206298828e+00 2.223092079162597656e+00 -2.792063355445861816e-01
3.480000000000000000e+03 5.185253524780273438e+01 -1.207859325408935547e+01 -4.132606387138366699e-01 5.196247100830078125e+00 1.434895992279052734e+00 1.159235090017318726e-01
3.481000000000000000e+03 6.560335540771484375e+01 -4.293204784393310547e+00 -2.723022401332855225e-01 7.231838226318359375e+00 2.087860822677612305e+00 1.439607143402099609e-01
3.482000000000000000e+03 6.054341125488281250e+01 -9.461228370666503906e+00 -3.441382646560668945e-01 6.525362014770507812e+00 1.854367136955261230e+00 2.733491659164428711e-01
3.483000000000000000e+03 6.725370788574218750e+01 -1.113698673248291016e+01 -2.102440297603607178e-01 7.368517875671386719e+00 2.147482156753540039e+00 2.884884774684906006e-01
3.484000000000000000e+03 5.471663284301757812e+01 1.126246929168701172e+01 -4.372446537017822266e-01 6.108882427215576172e+00 1.701491236686706543e+00 6.325091719627380371e-01
3.485000000000000000e+03 5.039059066772460938e+01 8.974315643310546875e+00 -2.037291973829269409e-01 4.875882625579833984e+00 1.401646018028259277e+00 7.573843002319335938e-01
3.486000000000000000e+03 5.093585968017578125e+01 -7.170667171478271484e+00 -3.540306687355041504e-01 4.855238914489746094e+00 1.350362420082092285e+00 1.361942291259765625e-01
3.487000000000000000e+03 6.171349716186523438e+01 -8.795949935913085938e+00 -3.254683911800384521e-01 6.691060543060302734e+00 1.909677624702453613e+00 2.610004246234893799e-01
3.488000000000000000e+03 6.165969467163085938e+01 -7.791907787322998047e+00 -3.196768164634704590e-01 6.688386440277099609e+00 1.910612940788269043e+00 2.374943345785140991e-01
3.489000000000000000e+03 5.242130661010742188e+01 -7.802953720092773438e+00 -3.850064575672149658e-01 5.173764705657958984e+00 1.436627507209777832e+00 1.548503339290618896e-01
3.490000000000000000e+03 5.295792770385742188e+01 -5.984702110290527344e+00 -3.693671226501464844e-01 5.255830764770507812e+00 1.465939164161682129e+00 1.913863271474838257e-01
3.491000000000000000e+03 4.932004928588867188e+01 -4.548777103424072266e+00 -2.400408238172531128e-01 4.502368450164794922e+00 1.278698205947875977e+00 1.705246120691299438e-01
3.492000000000000000e+03 6.509325408935546875e+01 8.447453498840332031e+00 -4.091603457927703857e-01 7.514092445373535156e+00 2.131479740142822266e+00 -1.429274231195449829e-01
3.493000000000000000e+03 5.186607742309570312e+01 9.349151611328125000e+00 -2.794640362262725830e-01 5.270513057708740234e+00 1.497314691543579102e+00 7.192741632461547852e-01
3.494000000000000000e+03 6.186237716674804688e+01 -3.820040225982666016e+00 -3.456494510173797607e-01 6.729623794555664062e+00 1.915192365646362305e+00 1.816653609275817871e-01
3.495000000000000000e+03 5.396406936645507812e+01 -9.984572410583496094e+00 -3.903369605541229248e-01 5.518986701965332031e+00 1.538594841957092285e+00 1.778915375471115112e-01
3.496000000000000000e+03 4.821729660034179688e+01 5.311425328254699707e-01 -1.353720277547836304e-01 4.183665275573730469e+00 1.214488029479980469e+00 3.453946411609649658e-01
3.497000000000000000e+03 6.063238906860351562e+01 -7.825167655944824219e+00 -3.364212810993194580e-01 6.563142776489257812e+00 1.868016481399536133e+00 2.501321136951446533e-01
3.498000000000000000e+03 6.056590270996093750e+01 -6.947925090789794922e+00 -3.442961871623992920e-01 6.543139934539794922e+00 1.859653115272521973e+00 2.308962345123291016e-01
3.499000000000000000e+03 6.154317474365234375e+01 -6.793266296386718750e+00 -3.281585276126861572e-01 6.690556526184082031e+00 1.908719420433044434e+00 2.280830889940261841e-01
3.500000000000000000e+03 5.217215728759765625e+01 -4.924219131469726562e+00 -3.208715319633483887e-01 5.077905654907226562e+00 1.427110195159912109e+00 2.050751447677612305e-01
3.501000000000000000e+03 6.112570571899414062e+01 1.187723541259765625e+01 -5.525919198989868164e-01 7.317584991455078125e+00 2.029497861862182617e+00 4.163641482591629028e-02
3.502000000000000000e+03 5.877178192138671875e+01 -6.328265190124511719e+00 -3.656944036483764648e-01 6.268147945404052734e+00 1.770736098289489746e+00 2.304064780473709106e-01
3.503000000000000000e+03 5.950490570068359375e+01 1.160445928573608398e+00 -3.986549973487854004e-01 6.453455448150634766e+00 1.816440224647521973e+00 1.905521750450134277e-01
3.504000000000000000e+03 5.052395629882812500e+01 -3.320921182632446289e+00 -2.623292207717895508e-01 4.707709789276123047e+00 1.333614110946655273e+00 2.216746956110000610e-01
3.505000000000000000e+03 5.383013916015625000e+01 -5.085165023803710938e+00 -3.522496223449707031e-01 5.401626110076904297e+00 1.514812946319580078e+00 2.047735601663589478e-01
3.506000000000000000e+03 6.371719360351562500e+01 1.066565418243408203e+01 -4.949846565723419189e-01 7.513611793518066406e+00 2.105588197708129883e+00 -1.355478614568710327e-01
3.507000000000000000e+03 5.785612869262695312e+01 -3.844392776489257812e+00 -3.891592621803283691e-01 6.104634284973144531e+00 1.714642524719238281e+00 2.251542806625366211e-01
3.508000000000000000e+03 5.137041091918945312e+01 -3.991472244262695312e+00 -3.055340051651000977e-01 4.882961273193359375e+00 1.373228192329406738e+00 2.162233889102935791e-01
3.509000000000000000e+03 5.724241256713867188e+01 -4.716140270233154297e+00 -3.669095933437347412e-01 6.000577449798583984e+00 1.690100431442260742e+00 2.084160000085830688e-01
3.510000000000000000e+03 5.491683197021484375e+01 -2.604152202606201172e+00 -3.539534509181976318e-01 5.623693466186523438e+00 1.580921888351440430e+00 2.311444729566574097e-01
3.511000000000000000e+03 5.353397369384765625e+01 -3.308990001678466797e+00 -3.411016166210174561e-01 5.335927486419677734e+00 1.498447775840759277e+00 2.384634017944335938e-01
3.512000000000000000e+03 5.279081344604492188e+01 -2.446256160736083984e+00 -3.174671530723571777e-01 5.166578292846679688e+00 1.454733371734619141e+00 2.603459060192108154e-01
3.513000000000000000e+03 5.955156707763671875e+01 -7.902486324310302734e+00 -3.581884503364562988e-01 6.372334957122802734e+00 1.804243922233581543e+00 2.441700845956802368e-01
3.514000000000000000e+03 5.625622940063476562e+01 -2.616743326187133789e+00 -3.636516630649566650e-01 5.864684104919433594e+00 1.650309681892395020e+00 2.386005818843841553e-01
3.515000000000000000e+03 5.968636322021484375e+01 7.405336380004882812e+00 -4.810913801193237305e-01 6.782514572143554688e+00 1.890426993370056152e+00 1.725927740335464478e-01
3.516000000000000000e+03 5.831250381469726562e+01 2.973135232925415039e+00 -4.047032594680786133e-01 6.342495918273925781e+00 1.781337738037109375e+00 2.352534085512161255e-01
3.517000000000000000e+03 5.623015594482421875e+01 6.242402076721191406e+00 -4.273850023746490479e-01 6.115045547485351562e+00 1.706298232078552246e+00 3.579222559928894043e-01
3.518000000000000000e+03 5.577420425415039062e+01 7.334531307220458984e+00 -4.199388623237609863e-01 6.085669517517089844e+00 1.699719309806823730e+00 4.158791303634643555e-01
3.519000000000000000e+03 5.796197509765625000e+01 5.921513557434082031e+00 -4.479668140411376953e-01 6.381272792816162109e+00 1.779991745948791504e+00 2.738732099533081055e-01
3.520000000000000000e+03 1.585065174102783203e+01 -7.037202715873718262e-01 -2.559865713119506836e+00 5.006401538848876953e+00 7.339608073234558105e-01 9.980585098266601562e+00
3.521000000000000000e+03 1.585337066650390625e+01 -7.229979634284973145e-01 -2.460543394088745117e+00 1.688037490844726562e+01 4.325949668884277344e+00 1.968411064147949219e+01
3.522000000000000000e+03 1.585979080200195312e+01 -7.413774132728576660e-01 -8.705479502677917480e-01 2.875242614746093750e+01 8.364562988281250000e+00 2.143060493469238281e+01
3.523000000000000000e+03 1.586966609954833984e+01 -7.581552863121032715e-01 -1.780239306390285492e-02 4.184480285644531250e+01 1.254809951782226562e+01 2.132402992248535156e+01
3.524000000000000000e+03 1.588261890411376953e+01 -7.726896405220031738e-01 1.484117746353149414e+00 5.495907974243164062e+01 1.693295860290527344e+01 1.877980804443359375e+01
3.525000000000000000e+03 1.589815330505371094e+01 -7.844241261482238770e-01 2.045030832290649414e+00 6.685702514648437500e+01 2.067061614990234375e+01 1.426221275329589844e+01
3.526000000000000000e+03 1.591567516326904297e+01 -7.929098010063171387e-01 4.610813140869140625e+00 7.755371093750000000e+01 2.464935684204101562e+01 7.278837203979492188e+00
3.527000000000000000e+03 1.593451309204101562e+01 -7.978218793869018555e-01 6.928388595581054688e+00 8.434616851806640625e+01 2.738236618041992188e+01 -1.050251722335815430e+00
3.528000000000000000e+03 1.595394802093505859e+01 -7.989723682403564453e-01 1.334139537811279297e+01 8.827540588378906250e+01 3.048504066467285156e+01 -1.034394931793212891e+01
3.529000000000000000e+03 1.597323417663574219e+01 -7.963173389434814453e-01 1.924265480041503906e+01 8.705107116699218750e+01 3.188811874389648438e+01 -1.882488822937011719e+01
3.530000000000000000e+03 1.599163532257080078e+01 -7.899582982063293457e-01 2.989530181884765625e+01 8.348793792724609375e+01 3.401497268676757812e+01 -2.534133148193359375e+01
3.531000000000000000e+03 1.600844573974609375e+01 -7.801386117935180664e-01 3.797000122070312500e+01 7.594995117187500000e+01 3.417598342895507812e+01 -2.952287483215332031e+01
3.532000000000000000e+03 1.602302169799804688e+01 -7.672340273857116699e-01 4.869233322143554688e+01 6.914919281005859375e+01 3.535245895385742188e+01 -2.976941680908203125e+01
3.533000000000000000e+03 1.603480911254882812e+01 -7.517384886741638184e-01 5.544632339477539062e+01 6.080472564697265625e+01 3.487531280517578125e+01 -2.801611518859863281e+01
3.534000000000000000e+03 1.604335212707519531e+01 -7.342448830604553223e-01 6.162871932983398438e+01 5.585042190551757812e+01 3.524374389648437500e+01 -2.340998268127441406e+01
3.535000000000000000e+03 1.604832649230957031e+01 -7.154226899147033691e-01 6.451218414306640625e+01 5.204521560668945312e+01 3.496722030639648438e+01 -1.800110626220703125e+01
3.536000000000000000e+03 1.604954147338867188e+01 -6.959922313690185547e-01 6.505928802490234375e+01 5.075046920776367188e+01 3.474292755126953125e+01 -1.232686233520507812e+01
3.537000000000000000e+03 1.604694938659667969e+01 -6.766970157623291016e-01 6.443595123291015625e+01 5.385302352905273438e+01 3.548669052124023438e+01 -7.165812492370605469e+00
3.538000000000000000e+03 1.604065132141113281e+01 -6.582755446434020996e-01 6.050628662109375000e+01 5.527850341796875000e+01 3.473543548583984375e+01 -2.795126438140869141e+00
3.539000000000000000e+03 1.603088760375976562e+01 -6.414325833320617676e-01 5.883216476440429688e+01 6.418202209472656250e+01 3.690425491333007812e+01 -1.363873124122619629e+00
3.540000000000000000e+03 1.601803207397460938e+01 -6.268128156661987305e-01 5.116321945190429688e+01 6.858845520019531250e+01 3.592550277709960938e+01 1.403331160545349121e-01
3.541000000000000000e+03 1.600257492065429688e+01 -6.149756908416748047e-01 5.076060867309570312e+01 7.738220977783203125e+01 3.844284820556640625e+01 -2.779986143112182617e+00
3.542000000000000000e+03 1.598511028289794922e+01 -6.063741445541381836e-01 4.445085906982421875e+01 8.497911834716796875e+01 3.882899093627929688e+01 -8.321721076965332031e+00
3.543000000000000000e+03 1.596630477905273438e+01 -6.013373732566833496e-01 4.252476882934570312e+01 8.844711303710937500e+01 3.929156494140625000e+01 -1.345905876159667969e+01
3.544000000000000000e+03 1.594687843322753906e+01 -6.000580787658691406e-01 4.726521301269531250e+01 9.280844116210937500e+01 4.202209472656250000e+01 -2.455742645263671875e+01
3.545000000000000000e+03 1.592757511138916016e+01 -6.025852560997009277e-01 4.542186737060546875e+01 8.914585113525390625e+01 4.037031555175781250e+01 -3.290210342407226562e+01
3.546000000000000000e+03 1.590913295745849609e+01 -6.088222265243530273e-01 5.832461547851562500e+01 8.516310119628906250e+01 4.304631423950195312e+01 -4.152833175659179688e+01
3.547000000000000000e+03 1.589225769042968750e+01 -6.185302138328552246e-01 6.468399047851562500e+01 7.370581054687500000e+01 4.151694107055664062e+01 -4.830786895751953125e+01
3.548000000000000000e+03 1.587759494781494141e+01 -6.313378214836120605e-01 7.780055236816406250e+01 6.041187667846679688e+01 4.146372985839843750e+01 -5.068327331542968750e+01
3.549000000000000000e+03 1.586570644378662109e+01 -6.467548608779907227e-01 8.905452728271484375e+01 4.606521224975585938e+01 4.053592300415039062e+01 -4.861415100097656250e+01
3.550000000000000000e+03 1.585704708099365234e+01 -6.641913652420043945e-01 9.745326995849609375e+01 2.702599334716796875e+01 3.734378051757812500e+01 -4.197263717651367188e+01
3.551000000000000000e+03 1.585194873809814453e+01 -6.829801201820373535e-01 1.062664260864257812e+02 1.548114585876464844e+01 3.652426910400390625e+01 -2.797321701049804688e+01
