# el_label, x, y, sXX, sYY, sZZ, sXY
1.000000000000000000e+00 6.421838378906250000e+01 3.409221267700195312e+01 -7.501648426055908203e+00 -2.179380178451538086e+00 -2.904308557510375977e+00 -2.459689140319824219e+00
2.000000000000000000e+00 6.401938629150390625e+01 3.408803558349609375e+01 -2.238665580749511719e+00 9.011546969413757324e-01 -4.012532234191894531e-01 8.417807221412658691e-01
3.000000000000000000e+00 6.382038879394531250e+01 3.408386230468750000e+01 -3.266428470611572266e+00 -4.901066720485687256e-01 -1.126960515975952148e+00 1.100709140300750732e-01
4.000000000000000000e+00 6.362139129638671875e+01 3.407968521118164062e+01 -3.218593597412109375e+00 3.378898501396179199e-01 -8.642110824584960938e-01 2.425166964530944824e-01
5.000000000000000000e+00 6.422531127929687500e+01 3.403422164916992188e+01 8.456748962402343750e+00 -2.578113317489624023e+00 1.763590693473815918e+00 6.957462430000305176e-01
6.000000000000000000e+00 6.403093719482421875e+01 3.399138259887695312e+01 1.783121824264526367e+00 7.239910215139389038e-02 5.566562414169311523e-01 9.843029975891113281e-01
7.000000000000000000e+00 6.383656311035156250e+01 3.394854736328125000e+01 1.988757610321044922e+00 5.741598010063171387e-01 7.688752412796020508e-01 1.653448104858398438e+00
8.000000000000000000e+00 6.364218521118164062e+01 3.390570831298828125e+01 4.457368552684783936e-01 -2.376071549952030182e-02 1.265928447246551514e-01 1.154836058616638184e+00
9.000000000000000000e+00 6.424340057373046875e+01 3.397869110107421875e+01 1.467676353454589844e+01 1.227721333503723145e+00 4.771345615386962891e+00 7.493032455444335938e+00
1.000000000000000000e+01 6.406108093261718750e+01 3.389883041381835938e+01 8.297015190124511719e+00 7.322885394096374512e-01 2.708791017532348633e+00 4.248909473419189453e+00
1.100000000000000000e+01 6.387876892089843750e+01 3.381896972656250000e+01 5.030719280242919922e+00 1.446094870567321777e+00 1.943044185638427734e+00 3.513207912445068359e+00
1.200000000000000000e+01 6.369644927978515625e+01 3.373910903930664062e+01 4.243515968322753906e+00 1.149360299110412598e+00 1.617862939834594727e+00 3.552983999252319336e+00
1.300000000000000000e+01 6.427195739746093750e+01 3.392774200439453125e+01 1.730054473876953125e+01 7.164575099945068359e+00 7.339535713195800781e+00 1.308378601074218750e+01
1.400000000000000000e+01 6.410867309570312500e+01 3.381391525268554688e+01 1.059752082824707031e+01 4.409608364105224609e+00 4.502138614654541016e+00 8.452791213989257812e+00
1.500000000000000000e+01 6.394539260864257812e+01 3.370008850097656250e+01 8.039416313171386719e+00 3.611683368682861328e+00 3.495329856872558594e+00 6.711088180541992188e+00
1.600000000000000000e+01 6.378211212158203125e+01 3.358626174926757812e+01 6.251737117767333984e+00 3.149308204650878906e+00 2.820313453674316406e+00 5.728341102600097656e+00
1.700000000000000000e+01 6.430988311767578125e+01 3.388332366943359375e+01 1.612135696411132812e+01 1.514943599700927734e+01 9.381237983703613281e+00 1.707166099548339844e+01
1.800000000000000000e+01 6.417189025878906250e+01 3.373989105224609375e+01 1.117844772338867188e+01 9.693038940429687500e+00 6.261445999145507812e+00 1.186207675933837891e+01
1.900000000000000000e+01 6.403388977050781250e+01 3.359645462036132812e+01 8.501016616821289062e+00 7.650440692901611328e+00 4.845437049865722656e+00 9.427795410156250000e+00
2.000000000000000000e+01 6.389588928222656250e+01 3.345301818847656250e+01 7.107417106628417969e+00 6.507490634918212891e+00 4.084472179412841797e+00 8.187549591064453125e+00
2.100000000000000000e+01 6.435572814941406250e+01 3.384714508056640625e+01 1.354787445068359375e+01 2.377612495422363281e+01 1.119719982147216797e+01 1.862878990173339844e+01
2.200000000000000000e+01 6.424829864501953125e+01 3.367958450317382812e+01 9.741516113281250000e+00 1.608839988708496094e+01 7.748974323272705078e+00 1.360726165771484375e+01
2.300000000000000000e+01 6.414086151123046875e+01 3.351203155517578125e+01 7.831728458404541016e+00 1.279882812500000000e+01 6.189167022705078125e+00 1.125159549713134766e+01
2.400000000000000000e+01 6.403343200683593750e+01 3.334447097778320312e+01 6.400429725646972656e+00 1.090671825408935547e+01 5.192144393920898438e+00 9.643174171447753906e+00
2.500000000000000000e+01 6.440774536132812500e+01 3.382057952880859375e+01 1.025047397613525391e+01 3.209283065795898438e+01 1.270299148559570312e+01 1.754113960266113281e+01
2.600000000000000000e+01 6.433498382568359375e+01 3.363531494140625000e+01 7.873886585235595703e+00 2.258660316467285156e+01 9.138146400451660156e+00 1.360262584686279297e+01
2.700000000000000000e+01 6.426222991943359375e+01 3.345004653930664062e+01 6.154503822326660156e+00 1.827219200134277344e+01 7.328009128570556641e+00 1.145074462890625000e+01
2.800000000000000000e+01 6.418946838378906250e+01 3.326478195190429688e+01 5.176617622375488281e+00 1.584058475494384766e+01 6.305160999298095703e+00 1.009944248199462891e+01
2.900000000000000000e+01 6.446393585205078125e+01 3.380464935302734375e+01 7.894700050354003906e+00 3.900020980834960938e+01 1.406847381591796875e+01 1.429155635833740234e+01
3.000000000000000000e+01 6.442863464355468750e+01 3.360876464843750000e+01 5.965048789978027344e+00 2.835114479064941406e+01 1.029485797882080078e+01 1.179726982116699219e+01
3.100000000000000000e+01 6.439334106445312500e+01 3.341287612915039062e+01 4.636891841888427734e+00 2.341915130615234375e+01 8.416812896728515625e+00 1.025785446166992188e+01
3.200000000000000000e+01 6.435803985595703125e+01 3.321699142456054688e+01 3.753391504287719727e+00 2.030717277526855469e+01 7.218169212341308594e+00 9.082291603088378906e+00
3.300000000000000000e+01 6.452214813232421875e+01 3.379996490478515625e+01 6.944605827331542969e+00 4.368349838256835938e+01 1.518843078613281250e+01 9.587103843688964844e+00
3.400000000000000000e+01 6.452566528320312500e+01 3.360095596313476562e+01 5.013912200927734375e+00 3.285512161254882812e+01 1.136071109771728516e+01 8.746541976928710938e+00
3.500000000000000000e+01 6.452917480468750000e+01 3.340194702148437500e+01 3.657769680023193359e+00 2.740991401672363281e+01 9.320304870605468750e+00 7.787258148193359375e+00
3.600000000000000000e+01 6.453269195556640625e+01 3.320293426513671875e+01 2.815058708190917969e+00 2.408464622497558594e+01 8.069911003112792969e+00 7.014858245849609375e+00
3.700000000000000000e+01 6.458016204833984375e+01 3.380670166015625000e+01 7.980942249298095703e+00 4.598172378540039062e+01 1.618879890441894531e+01 4.515362262725830078e+00
3.800000000000000000e+01 6.462235260009765625e+01 3.361218261718750000e+01 5.214122295379638672e+00 3.555353164672851562e+01 1.223029708862304688e+01 4.996650218963623047e+00
3.900000000000000000e+01 6.466454315185546875e+01 3.341766738891601562e+01 3.765814781188964844e+00 3.008686828613281250e+01 1.015580463409423828e+01 4.636179924011230469e+00
4.000000000000000000e+01 6.470673370361328125e+01 3.322314834594726562e+01 2.762214899063110352e+00 2.649846267700195312e+01 8.778203964233398438e+00 4.290671348571777344e+00
4.100000000000000000e+01 6.463575744628906250e+01 3.382460784912109375e+01 1.061247730255126953e+01 4.599079132080078125e+01 1.698097991943359375e+01 9.307020343840122223e-03
4.200000000000000000e+01 6.471501159667968750e+01 3.364202117919921875e+01 6.850676059722900391e+00 3.652251815795898438e+01 1.301195812225341797e+01 1.270944237709045410e+00
4.300000000000000000e+01 6.479426574707031250e+01 3.345943832397460938e+01 4.960506439208984375e+00 3.112431716918945312e+01 1.082544708251953125e+01 1.436471343040466309e+00
4.400000000000000000e+01 6.487351226806640625e+01 3.327685546875000000e+01 3.830168962478637695e+00 2.767214393615722656e+01 9.450694084167480469e+00 1.407612323760986328e+00
4.500000000000000000e+01 6.468680572509765625e+01 3.385298919677734375e+01 1.452593231201171875e+01 4.438062667846679688e+01 1.767196846008300781e+01 -3.228596925735473633e+00
4.600000000000000000e+01 6.480008697509765625e+01 3.368933105468750000e+01 9.504363059997558594e+00 3.587726211547851562e+01 1.361448764801025391e+01 -1.756766438484191895e+00
4.700000000000000000e+01 6.491336822509765625e+01 3.352566909790039062e+01 7.279790401458740234e+00 3.080141067504882812e+01 1.142436027526855469e+01 -1.279475569725036621e+00
4.800000000000000000e+01 6.502664947509765625e+01 3.336200714111328125e+01 5.768232822418212891e+00 2.750542259216308594e+01 9.982096672058105469e+00 -9.622440934181213379e-01
4.900000000000000000e+01 6.473134613037109375e+01 3.389076614379882812e+01 1.874563789367675781e+01 4.183825302124023438e+01 1.817516708374023438e+01 -4.879084110260009766e+00
5.000000000000000000e+01 6.487432098388671875e+01 3.375229263305664062e+01 1.298230457305908203e+01 3.413879394531250000e+01 1.413632869720458984e+01 -3.607614278793334961e+00
5.100000000000000000e+01 6.501729583740234375e+01 3.361381912231445312e+01 1.008266448974609375e+01 2.945280456542968750e+01 1.186064052581787109e+01 -2.998971700668334961e+00
5.200000000000000000e+01 6.516027069091796875e+01 3.347534179687500000e+01 8.469842910766601562e+00 2.630545425415039062e+01 1.043258953094482422e+01 -2.558850049972534180e+00
5.300000000000000000e+01 6.476767730712890625e+01 3.393649291992187500e+01 2.279481506347656250e+01 3.913735580444335938e+01 1.857965087890625000e+01 -4.916223526000976562e+00
5.400000000000000000e+01 6.493487548828125000e+01 3.382850265502929688e+01 1.644572067260742188e+01 3.189661216735839844e+01 1.450269985198974609e+01 -4.093505382537841797e+00
5.500000000000000000e+01 6.510207366943359375e+01 3.372051239013671875e+01 1.315257740020751953e+01 2.757971954345703125e+01 1.221968936920166016e+01 -3.456836700439453125e+00
5.600000000000000000e+01 6.526927185058593750e+01 3.361252212524414062e+01 1.102734947204589844e+01 2.463666152954101562e+01 1.069920349121093750e+01 -3.107786655426025391e+00
5.700000000000000000e+01 6.479441833496093750e+01 3.398841857910156250e+01 2.592215347290039062e+01 3.686240005493164062e+01 1.883536529541015625e+01 -3.667348861694335938e+00
5.800000000000000000e+01 6.497943878173828125e+01 3.391504669189453125e+01 1.946795654296875000e+01 2.976949882507324219e+01 1.477123641967773438e+01 -3.218474626541137695e+00
5.900000000000000000e+01 6.516445922851562500e+01 3.384167098999023438e+01 1.574929618835449219e+01 2.577837562561035156e+01 1.245830154418945312e+01 -2.749855756759643555e+00
6.000000000000000000e+01 6.534947967529296875e+01 3.376829910278320312e+01 1.329561710357666016e+01 2.295579910278320312e+01 1.087542533874511719e+01 -2.456182718276977539e+00
6.100000000000000000e+01 6.481053161621093750e+01 3.404455566406250000e+01 2.792674827575683594e+01 3.540661239624023438e+01 1.900000762939453125e+01 -1.443951249122619629e+00
6.200000000000000000e+01 6.500630187988281250e+01 3.400860977172851562e+01 2.133550071716308594e+01 2.831735992431640625e+01 1.489585876464843750e+01 -1.376466870307922363e+00
6.300000000000000000e+01 6.520206451416015625e+01 3.397265625000000000e+01 1.752643775939941406e+01 2.449070930480957031e+01 1.260514450073242188e+01 -1.081967592239379883e+00
6.400000000000000000e+01 6.539783477783203125e+01 3.393670654296875000e+01 1.490397167205810547e+01 2.188173484802246094e+01 1.103571224212646484e+01 -1.024489045143127441e+00
6.500000000000000000e+01 6.481540679931640625e+01 3.410275650024414062e+01 2.842713737487792969e+01 3.488726806640625000e+01 1.899432182312011719e+01 1.137158632278442383e+00
6.600000000000000000e+01 6.501442718505859375e+01 3.410560989379882812e+01 2.188094902038574219e+01 2.796843719482421875e+01 1.495481586456298828e+01 1.091483473777770996e+00
6.700000000000000000e+01 6.521344757080078125e+01 3.410845947265625000e+01 1.795444107055664062e+01 2.403405189514160156e+01 1.259654808044433594e+01 9.334281682968139648e-01
6.800000000000000000e+01 6.541247558593750000e+01 3.411130905151367188e+01 1.548601627349853516e+01 2.169896507263183594e+01 1.115549468994140625e+01 8.616012334823608398e-01
6.900000000000000000e+01 6.480886077880859375e+01 3.416079330444335938e+01 2.749382972717285156e+01 3.564240264892578125e+01 1.894087028503417969e+01 3.769773244857788086e+00
7.000000000000000000e+01 6.500351715087890625e+01 3.420233535766601562e+01 2.087294197082519531e+01 2.856185150146484375e+01 1.483043766021728516e+01 3.405255079269409180e+00
7.100000000000000000e+01 6.519818115234375000e+01 3.424387741088867188e+01 1.706861114501953125e+01 2.478227996826171875e+01 1.255526733398437500e+01 2.983330488204956055e+00
7.200000000000000000e+01 6.539283752441406250e+01 3.428542327880859375e+01 1.450140666961669922e+01 2.219765853881835938e+01 1.100971889495849609e+01 2.591744661331176758e+00
7.300000000000000000e+01 6.479114532470703125e+01 3.421644592285156250e+01 2.510781288146972656e+01 3.728485107421875000e+01 1.871780014038085938e+01 5.844700336456298828e+00
7.400000000000000000e+01 6.497399139404296875e+01 3.429508590698242188e+01 1.850470924377441406e+01 3.028302955627441406e+01 1.463632106781005859e+01 5.117146492004394531e+00
7.500000000000000000e+01 6.515683746337890625e+01 3.437373352050781250e+01 1.495076179504394531e+01 2.620155906677246094e+01 1.234569644927978516e+01 4.378034591674804688e+00
7.600000000000000000e+01 6.533968353271484375e+01 3.445237731933593750e+01 1.249486255645751953e+01 2.357363700866699219e+01 1.082054996490478516e+01 3.991576194763183594e+00
7.700000000000000000e+01 6.476293182373046875e+01 3.426758193969726562e+01 2.147581863403320312e+01 3.978091430664062500e+01 1.837701988220214844e+01 6.949133396148681641e+00
7.800000000000000000e+01 6.492697143554687500e+01 3.438031768798828125e+01 1.520735549926757812e+01 3.251477813720703125e+01 1.431663990020751953e+01 5.658614158630371094e+00
7.900000000000000000e+01 6.509101104736328125e+01 3.449305343627929688e+01 1.191724777221679688e+01 2.815053939819335938e+01 1.202033615112304688e+01 4.845973014831542969e+00
8.000000000000000000e+01 6.525504302978515625e+01 3.460579299926757812e+01 1.001534938812255859e+01 2.518719291687011719e+01 1.056076240539550781e+01 4.301755905151367188e+00
8.100000000000000000e+01 6.472530364990234375e+01 3.431224822998046875e+01 1.715856170654296875e+01 4.263028717041015625e+01 1.793665504455566406e+01 6.570633888244628906e+00
8.200000000000000000e+01 6.486425781250000000e+01 3.445476150512695312e+01 1.137914657592773438e+01 3.475941848754882812e+01 1.384156894683837891e+01 4.871447086334228516e+00
8.300000000000000000e+01 6.500320434570312500e+01 3.459727859497070312e+01 8.749390602111816406e+00 2.999105072021484375e+01 1.162213230133056641e+01 4.031322479248046875e+00
8.400000000000000000e+01 6.514215850830078125e+01 3.473979187011718750e+01 6.958267211914062500e+00 2.682309913635253906e+01 1.013440990447998047e+01 3.469826936721801758e+00
8.500000000000000000e+01 6.467970275878906250e+01 3.434873580932617188e+01 1.254213523864746094e+01 4.517423248291015625e+01 1.731491088867187500e+01 4.536799907684326172e+00
8.600000000000000000e+01 6.478824615478515625e+01 3.451557540893554688e+01 7.922228336334228516e+00 3.634484863281250000e+01 1.328012371063232422e+01 2.664333105087280273e+00
8.700000000000000000e+01 6.489678955078125000e+01 3.468241119384765625e+01 5.684051036834716797e+00 3.119342613220214844e+01 1.106324291229248047e+01 2.023067951202392578e+00
8.800000000000000000e+01 6.500534057617187500e+01 3.484925079345703125e+01 4.335968971252441406e+00 2.787040328979492188e+01 9.661911964416503906e+00 1.695039868354797363e+00
8.900000000000000000e+01 6.462786102294921875e+01 3.437564468383789062e+01 8.648780822753906250e+00 4.658554077148437500e+01 1.657029533386230469e+01 8.830597400665283203e-01
9.000000000000000000e+01 6.470185089111328125e+01 3.456042480468750000e+01 5.162518024444580078e+00 3.670679092407226562e+01 1.256079196929931641e+01 -6.665965318679809570e-01
9.100000000000000000e+01 6.477584075927734375e+01 3.474520111083984375e+01 3.497162818908691406e+00 3.121863365173339844e+01 1.041473865509033203e+01 -8.749955296516418457e-01
9.200000000000000000e+01 6.484983062744140625e+01 3.492998123168945312e+01 2.426264762878417969e+00 2.772797393798828125e+01 9.046271324157714844e+00 -8.813281059265136719e-01
9.300000000000000000e+01 6.457178497314453125e+01 3.439194869995117188e+01 6.036684989929199219e+00 4.612846755981445312e+01 1.564954566955566406e+01 -4.003312587738037109e+00
9.400000000000000000e+01 6.460838317871093750e+01 3.458759689331054688e+01 3.694971799850463867e+00 3.536863327026367188e+01 1.171908092498779297e+01 -4.515130996704101562e+00
9.500000000000000000e+01 6.464498138427734375e+01 3.478324127197265625e+01 2.354242563247680664e+00 2.979196166992187500e+01 9.643860816955566406e+00 -4.237708091735839844e+00
9.600000000000000000e+01 6.468158721923828125e+01 3.497888946533203125e+01 1.561793088912963867e+00 2.613331794738769531e+01 8.308533668518066406e+00 -3.854734659194946289e+00
9.700000000000000000e+01 6.451359558105468750e+01 3.439702224731445312e+01 5.354649543762207031e+00 4.330966567993164062e+01 1.459929466247558594e+01 -9.277770042419433594e+00
9.800000000000000000e+01 6.451140594482421875e+01 3.459605407714843750e+01 3.544109106063842773e+00 3.209727859497070312e+01 1.069241619110107422e+01 -8.277996063232421875e+00
9.900000000000000000e+01 6.450922393798828125e+01 3.479508209228515625e+01 2.451833724975585938e+00 2.677677726745605469e+01 8.768583297729492188e+00 -7.306184291839599609e+00
1.000000000000000000e+02 6.450703430175781250e+01 3.499411010742187500e+01 1.633121609687805176e+00 2.344507980346679688e+01 7.523460388183593750e+00 -6.631835460662841797e+00
1.010000000000000000e+02 6.445553588867187500e+01 3.439067077636718750e+01 6.315198421478271484e+00 3.783522796630859375e+01 1.324512863159179688e+01 -1.389156532287597656e+01
1.020000000000000000e+02 6.441464233398437500e+01 3.458546829223632812e+01 4.859049320220947266e+00 2.721583366394042969e+01 9.622465133666992188e+00 -1.119973468780517578e+01
1.030000000000000000e+02 6.437374877929687500e+01 3.478026199340820312e+01 3.345371723175048828e+00 2.222127151489257812e+01 7.669992923736572266e+00 -9.557221412658691406e+00
1.040000000000000000e+02 6.433286285400390625e+01 3.497505569458007812e+01 2.713594675064086914e+00 1.954366874694824219e+01 6.677178859710693359e+00 -8.325912475585937500e+00
1.050000000000000000e+02 6.439983367919921875e+01 3.437313842773437500e+01 9.203287124633789062e+00 3.039739990234375000e+01 1.188020610809326172e+01 -1.682480049133300781e+01
1.060000000000000000e+02 6.432179260253906250e+01 3.455624389648437500e+01 6.444701194763183594e+00 2.086460876464843750e+01 8.192792892456054688e+00 -1.268159770965576172e+01
1.070000000000000000e+02 6.424375915527343750e+01 3.473935317993164062e+01 5.193003654479980469e+00 1.695448112487792969e+01 6.644245147705078125e+00 -1.040889263153076172e+01
1.080000000000000000e+02 6.416572570800781250e+01 3.492245864868164062e+01 3.884415388107299805e+00 1.436273860931396484e+01 5.474146366119384766e+00 -8.974680900573730469e+00
1.090000000000000000e+02 6.434859466552734375e+01 3.434509658813476562e+01 1.197208404541015625e+01 2.138836669921875000e+01 1.000813484191894531e+01 -1.738175392150878906e+01
1.100000000000000000e+02 6.423640441894531250e+01 3.450950622558593750e+01 8.558742523193359375e+00 1.423466873168945312e+01 6.838023185729980469e+00 -1.221952056884765625e+01
1.110000000000000000e+02 6.412422180175781250e+01 3.467391967773437500e+01 6.338612556457519531e+00 1.114752483367919922e+01 5.245841026306152344e+00 -9.764400482177734375e+00
1.120000000000000000e+02 6.401203155517578125e+01 3.483832931518554688e+01 5.240313529968261719e+00 9.713488578796386719e+00 4.486140727996826172e+00 -8.344594001770019531e+00
1.130000000000000000e+02 6.430380249023437500e+01 3.430761718750000000e+01 1.462495422363281250e+01 1.246628856658935547e+01 8.127372741699218750e+00 -1.506883907318115234e+01
1.140000000000000000e+02 6.416175079345703125e+01 3.444704055786132812e+01 9.004502296447753906e+00 7.666982173919677734e+00 5.001445293426513672e+00 -9.872471809387207031e+00
1.150000000000000000e+02 6.401970672607421875e+01 3.458646392822265625e+01 6.973489761352539062e+00 6.408899784088134766e+00 4.014717102050781250e+00 -7.666070461273193359e+00
1.160000000000000000e+02 6.387765502929687500e+01 3.472588729858398438e+01 5.235458374023437500e+00 5.534150600433349609e+00 3.230882644653320312e+00 -6.539205551147460938e+00
1.170000000000000000e+02 6.426716613769531250e+01 3.426213073730468750e+01 1.400195503234863281e+01 4.288519859313964844e+00 5.487142562866210938e+00 -1.035169792175292969e+01
1.180000000000000000e+02 6.410069274902343750e+01 3.437123489379882812e+01 8.271234512329101562e+00 2.839797496795654297e+00 3.333309650421142578e+00 -5.961853504180908203e+00
1.190000000000000000e+02 6.393421554565429688e+01 3.448033523559570312e+01 5.121537208557128906e+00 2.802561998367309570e+00 2.377229690551757812e+00 -4.639873027801513672e+00
1.200000000000000000e+02 6.376774215698242188e+01 3.458943939208984375e+01 4.239270210266113281e+00 2.985449552536010742e+00 2.167415857315063477e+00 -4.173714160919189453e+00
1.210000000000000000e+02 6.424008178710937500e+01 3.421038818359375000e+01 1.048812294006347656e+01 -1.696358919143676758e+00 2.637529134750366211e+00 -3.327342748641967773e+00
1.220000000000000000e+02 6.405555725097656250e+01 3.428499221801757812e+01 3.134037017822265625e+00 5.080850124359130859e-01 1.092636585235595703e+00 -1.813197135925292969e+00
1.230000000000000000e+02 6.387102127075195312e+01 3.435959625244140625e+01 2.719594955444335938e+00 1.509692430496215820e+00 1.268786191940307617e+00 -2.364530086517333984e+00
1.240000000000000000e+02 6.368649291992187500e+01 3.443420028686523438e+01 1.512784719467163086e+00 3.273331820964813232e-01 5.520353913307189941e-01 -1.551963925361633301e+00
1.250000000000000000e+02 6.422359466552734375e+01 3.415435791015625000e+01 -3.708545923233032227e+00 -3.303230047225952148e+00 -2.103532791137695312e+00 2.678586244583129883e+00
1.260000000000000000e+02 6.402806854248046875e+01 3.419161224365234375e+01 -5.426303744316101074e-01 1.385013103485107422e+00 2.527148127555847168e-01 -7.010776996612548828e-01
1.270000000000000000e+02 6.383254623413085938e+01 3.422886276245117188e+01 -1.882673621177673340e+00 -6.251410245895385742e-01 -7.523443698883056641e-01 8.010408282279968262e-02
1.280000000000000000e+02 6.363702011108398438e+01 3.426611709594726562e+01 -2.267432928085327148e+00 4.234646260738372803e-01 -5.531904697418212891e-01 5.065950378775596619e-02
1.290000000000000000e+02 5.662155914306640625e+01 3.460263824462890625e+01 -1.743551015853881836e+00 2.539125457406044006e-02 -5.154479146003723145e-01 4.962909594178199768e-02
1.300000000000000000e+02 5.648379135131835938e+01 3.387492752075195312e+01 -1.420146822929382324e+00 1.272890865802764893e-01 -3.878573179244995117e-01 -2.866376936435699463e-01
1.310000000000000000e+02 5.571845626831054688e+01 3.398872375488281250e+01 -1.188186407089233398e+00 1.522640138864517212e-01 -3.107767105102539062e-01 -3.617185056209564209e-01
1.320000000000000000e+02 5.801555252075195312e+01 3.365230941772460938e+01 -1.739118695259094238e+00 7.520669698715209961e-02 -4.991735816001892090e-01 -1.704511195421218872e-01
1.330000000000000000e+02 5.812237167358398438e+01 3.438455963134765625e+01 -2.489948034286499023e+00 -1.145870331674814224e-02 -7.504220008850097656e-01 1.551180481910705566e-01
1.340000000000000000e+02 5.737181472778320312e+01 3.449321365356445312e+01 -2.114739179611206055e+00 1.753647625446319580e-02 -6.291608214378356934e-01 1.148812845349311829e-01
1.350000000000000000e+02 5.724952316284179688e+01 3.376323318481445312e+01 -1.613853096961975098e+00 1.295579075813293457e-01 -4.452885687351226807e-01 -2.286844849586486816e-01
1.360000000000000000e+02 5.587170028686523438e+01 3.471416091918945312e+01 -1.355671048164367676e+00 2.346422150731086731e-02 -3.996620476245880127e-01 -6.502483505755662918e-03
1.370000000000000000e+02 5.966756057739257812e+01 3.424786376953125000e+01 -3.161322593688964844e+00 -9.339211508631706238e-03 -9.511985182762145996e-01 2.041885107755661011e-01
1.380000000000000000e+02 5.889154052734375000e+01 3.428279113769531250e+01 -2.840429544448852539e+00 -9.063542820513248444e-03 -8.548479080200195312e-01 1.775505393743515015e-01
1.390000000000000000e+02 6.126067352294921875e+01 3.342716217041015625e+01 -1.262938261032104492e+00 3.368774428963661194e-02 -3.687751591205596924e-01 4.333475232124328613e-01
1.400000000000000000e+02 5.875751113891601562e+01 3.355371856689453125e+01 -1.757311224937438965e+00 8.126905560493469238e-02 -5.028126835823059082e-01 -7.789136469364166260e-02
1.410000000000000000e+02 5.982422637939453125e+01 3.370140457153320312e+01 -2.151695966720581055e+00 5.240209773182868958e-02 -6.297881603240966797e-01 9.079474955797195435e-02
1.420000000000000000e+02 6.089023971557617188e+01 3.384960937500000000e+01 -2.676075935363769531e+00 -6.027346849441528320e-02 -8.209047913551330566e-01 2.371224015951156616e-01
1.430000000000000000e+02 6.110020065307617188e+01 3.301107788085937500e+01 -1.894842237234115601e-01 2.199443429708480835e-01 9.138035587966442108e-03 6.706555485725402832e-01
1.440000000000000000e+02 6.090238189697265625e+01 3.413850021362304688e+01 -3.629036426544189453e+00 -1.673847734928131104e-01 -1.138926386833190918e+00 3.346331417560577393e-01
1.450000000000000000e+02 6.122844696044921875e+01 3.425449752807617188e+01 -4.176945686340332031e+00 6.170868128538131714e-02 -1.234571099281311035e+00 3.724074065685272217e-01
1.460000000000000000e+02 6.127772521972656250e+01 3.382513809204101562e+01 -2.657088518142700195e+00 -1.558745838701725006e-02 -8.018028140068054199e-01 2.519349753856658936e-01
1.470000000000000000e+02 6.072779464721679688e+01 3.343608093261718750e+01 -1.532585620880126953e+00 6.156885996460914612e-02 -4.413050413131713867e-01 2.537498474121093750e-01
1.480000000000000000e+02 6.128982925415039062e+01 3.403375625610351562e+01 -3.249288558959960938e+00 1.805585771799087524e-01 -9.206190109252929688e-01 1.681268364191055298e-01
1.490000000000000000e+02 6.100616455078125000e+01 3.358940124511718750e+01 -1.940901637077331543e+00 -2.837080880999565125e-02 -5.907817482948303223e-01 2.652159631252288818e-01
1.500000000000000000e+02 6.038376235961914062e+01 3.424181365966796875e+01 -3.570779800415039062e+00 2.007658779621124268e-02 -1.065210938453674316e+00 3.050694167613983154e-01
1.510000000000000000e+02 6.117638397216796875e+01 3.323350524902343750e+01 -6.027472615242004395e-01 1.159629374742507935e-01 -1.460352987051010132e-01 5.354313254356384277e-01
1.520000000000000000e+02 6.043360900878906250e+01 3.379699325561523438e+01 -2.457259893417358398e+00 4.363152384757995605e-02 -7.240885496139526367e-01 1.522881984710693359e-01
1.530000000000000000e+02 6.128911972045898438e+01 3.361594009399414062e+01 -1.947150588035583496e+00 -1.666830852627754211e-02 -5.891456604003906250e-01 2.917261719703674316e-01
1.540000000000000000e+02 5.936664581298828125e+01 3.338965988159179688e+01 -1.657649040222167969e+00 5.557655170559883118e-02 -4.806217551231384277e-01 -9.139176458120346069e-03
1.550000000000000000e+02 5.991916275024414062e+01 3.325482177734375000e+01 -1.298922061920166016e+00 1.467485725879669189e-01 -3.456520438194274902e-01 6.733916699886322021e-02
1.560000000000000000e+02 6.051906967163085938e+01 3.315052032470703125e+01 -9.234350919723510742e-01 1.862572878599166870e-01 -2.211533337831497192e-01 2.743258476257324219e-01
1.570000000000000000e+02 6.380529785156250000e+01 3.298546981811523438e+01 4.764624118804931641e+00 8.927256584167480469e+00 4.107563972473144531e+00 7.879398822784423828e+00
1.580000000000000000e+02 6.495708465576171875e+01 3.308926391601562500e+01 3.040900945663452148e+00 2.509947013854980469e+01 8.442111968994140625e+00 1.259583234786987305e+00
1.590000000000000000e+02 6.588240051269531250e+01 3.386803817749023438e+01 1.137485599517822266e+01 1.822389221191406250e+01 8.879624366760253906e+00 -7.413610219955444336e-01
1.600000000000000000e+02 6.432697296142578125e+01 3.551509857177734375e+01 9.376683831214904785e-01 1.676416397094726562e+01 5.310549736022949219e+00 -6.267437458038330078e+00
1.610000000000000000e+02 6.258613204956054688e+01 3.515402221679687500e+01 5.511876940727233887e-01 8.679091334342956543e-01 4.257290363311767578e-01 -1.551626205444335938e+00
1.620000000000000000e+02 6.263515090942382812e+01 3.443106842041015625e+01 -3.263209819793701172e+00 -2.080965787172317505e-01 -1.041391968727111816e+00 1.190414577722549438e-01
1.630000000000000000e+02 6.339361190795898438e+01 3.405384063720703125e+01 -3.295190811157226562e+00 -3.479563891887664795e-01 -1.092944145202636719e+00 2.470571547746658325e-01
1.640000000000000000e+02 6.148974609375000000e+01 3.295543289184570312e+01 3.422482013702392578e-01 4.769886136054992676e-01 2.457710504531860352e-01 1.048875570297241211e+00
1.650000000000000000e+02 6.169769668579101562e+01 3.293839645385742188e+01 5.856119394302368164e-01 5.532712936401367188e-01 3.416649699211120605e-01 1.245313525199890137e+00
1.660000000000000000e+02 6.194511795043945312e+01 3.311600112915039062e+01 4.653017222881317139e-01 4.352288544178009033e-01 2.701591849327087402e-01 1.261421561241149902e+00
1.670000000000000000e+02 6.231423568725585938e+01 3.289572906494140625e+01 1.776651620864868164e+00 1.202344417572021484e+00 8.936988115310668945e-01 2.292780876159667969e+00
1.680000000000000000e+02 6.272358703613281250e+01 3.369801330566406250e+01 -4.414530396461486816e-01 1.662865132093429565e-01 -8.254995942115783691e-02 8.541156053543090820e-01
1.690000000000000000e+02 6.410794067382812500e+01 3.306447601318359375e+01 4.252641201019287109e+00 1.393376350402832031e+01 5.455921173095703125e+00 9.010971069335937500e+00
1.700000000000000000e+02 6.350906372070312500e+01 3.282744598388671875e+01 4.237740039825439453e+00 6.131851673126220703e+00 3.110877513885498047e+00 6.413331031799316406e+00
1.710000000000000000e+02 6.307660675048828125e+01 3.283584213256835938e+01 3.431800365447998047e+00 3.229182958602905273e+00 1.998295068740844727e+00 4.481173038482666016e+00
1.720000000000000000e+02 6.316582870483398438e+01 3.406285476684570312e+01 -3.418986558914184570e+00 3.164312243461608887e-02 -1.016203045845031738e+00 5.344669818878173828e-01
1.730000000000000000e+02 6.241050338745117188e+01 3.413031768798828125e+01 -4.308794975280761719e+00 4.150153324007987976e-02 -1.280188083648681641e+00 2.462274134159088135e-01
1.740000000000000000e+02 6.152373123168945312e+01 3.316949844360351562e+01 -1.888334602117538452e-01 2.645708620548248291e-01 2.272121608257293701e-02 7.668130397796630859e-01
1.750000000000000000e+02 6.502098083496093750e+01 3.527077865600585938e+01 1.411362409591674805e+00 2.376014900207519531e+01 7.551453590393066406e+00 -5.416388511657714844e-01
1.760000000000000000e+02 6.514341735839843750e+01 3.501716995239257812e+01 3.591308593750000000e+00 2.525660705566406250e+01 8.654375076293945312e+00 1.593320488929748535e+00
1.770000000000000000e+02 6.590329742431640625e+01 3.427842712402343750e+01 1.129520225524902344e+01 1.806890869140625000e+01 8.809233665466308594e+00 1.535544276237487793e+00
1.780000000000000000e+02 6.583420562744140625e+01 3.351406478881835938e+01 9.185830116271972656e+00 1.888248252868652344e+01 8.420494079589843750e+00 -2.079785108566284180e+00
1.790000000000000000e+02 6.515002441406250000e+01 3.318563842773437500e+01 4.669117927551269531e+00 2.491407203674316406e+01 8.874957084655761719e+00 -7.954661250114440918e-01
1.800000000000000000e+02 6.474427795410156250e+01 3.301958465576171875e+01 2.094806671142578125e+00 2.391633415222167969e+01 7.803342342376708984e+00 4.143468379974365234e+00
1.810000000000000000e+02 6.177011871337890625e+01 3.572667694091796875e+01 2.066796720027923584e-01 1.390577316284179688e+00 4.791770875453948975e-01 -1.147687792778015137e+00
1.820000000000000000e+02 6.196999359130859375e+01 3.570442199707031250e+01 5.065153837203979492e-01 1.184970855712890625e+00 5.074458718299865723e-01 -1.466379165649414062e+00
1.830000000000000000e+02 6.451281738281250000e+01 3.521877670288085938e+01 1.125652790069580078e+00 2.095058250427246094e+01 6.622870922088623047e+00 -5.717015266418457031e+00
1.840000000000000000e+02 6.164078903198242188e+01 3.446583938598632812e+01 -3.812087774276733398e+00 3.567240759730339050e-02 -1.132924675941467285e+00 3.564252853393554688e-01
1.850000000000000000e+02 6.174872207641601562e+01 3.551591491699218750e+01 -4.060347005724906921e-02 7.256689667701721191e-01 2.055196613073348999e-01 -7.996105551719665527e-01
1.860000000000000000e+02 6.336935043334960938e+01 3.479755401611328125e+01 2.359936714172363281e+00 1.849896669387817383e+00 1.262950062751770020e+00 -2.855701923370361328e+00
1.870000000000000000e+02 6.344227600097656250e+01 3.430101776123046875e+01 -2.606943130493164062e+00 -2.585168778896331787e-01 -8.596380352973937988e-01 1.000118330121040344e-01
1.880000000000000000e+02 6.529909515380859375e+01 3.488492965698242188e+01 5.941016674041748047e+00 2.433387947082519531e+01 9.082468986511230469e+00 3.213784456253051758e+00
1.890000000000000000e+02 6.482801055908203125e+01 3.533998489379882812e+01 7.270252704620361328e-01 2.264404106140136719e+01 7.011319637298583984e+00 -2.568018436431884766e+00
1.900000000000000000e+02 6.408123016357421875e+01 3.511574935913085938e+01 3.266729354858398438e+00 1.297088050842285156e+01 4.871283054351806641e+00 -7.966664791107177734e+00
1.910000000000000000e+02 6.349903869628906250e+01 3.450478744506835938e+01 8.453260660171508789e-01 8.525917530059814453e-01 5.093753337860107422e-01 -1.396284937858581543e+00
1.920000000000000000e+02 6.361142730712890625e+01 3.344123458862304688e+01 5.444940090179443359e+00 3.240388870239257812e+00 2.605598688125610352e+00 5.365276813507080078e+00
1.930000000000000000e+02 6.453120422363281250e+01 3.298271942138671875e+01 2.188760757446289062e+00 2.149325370788574219e+01 7.104604721069335938e+00 6.310016155242919922e+00
1.940000000000000000e+02 6.531050109863281250e+01 3.332747650146484375e+01 7.020735263824462891e+00 2.395821189880371094e+01 9.293684005737304688e+00 -2.261826753616333008e+00
1.950000000000000000e+02 6.197193527221679688e+01 3.414658355712890625e+01 -4.202828884124755859e+00 -5.451633408665657043e-02 -1.277203559875488281e+00 3.075631558895111084e-01
1.960000000000000000e+02 6.161212539672851562e+01 3.404232788085937500e+01 -3.507997751235961914e+00 -2.732315063476562500e-01 -1.134368777275085449e+00 2.588753104209899902e-01
1.970000000000000000e+02 6.160705184936523438e+01 3.422523880004882812e+01 -4.416713714599609375e+00 -3.016230762004852295e-01 -1.415501117706298828e+00 4.496534764766693115e-01
1.980000000000000000e+02 6.572966003417968750e+01 3.365764617919921875e+01 1.058657550811767578e+01 1.941605567932128906e+01 9.000789642333984375e+00 -1.901366591453552246e+00
1.990000000000000000e+02 6.335259246826171875e+01 3.557532501220703125e+01 2.671774148941040039e+00 5.296358108520507812e+00 2.390439748764038086e+00 -5.132946968078613281e+00
2.000000000000000000e+02 6.549044799804687500e+01 3.504812622070312500e+01 5.127923011779785156e+00 2.245676422119140625e+01 8.275405883789062500e+00 2.914543867111206055e+00
2.010000000000000000e+02 6.543302154541015625e+01 3.472851181030273438e+01 8.345389366149902344e+00 2.307135391235351562e+01 9.425023078918457031e+00 3.897374153137207031e+00
2.020000000000000000e+02 6.420828247070312500e+01 3.537826919555664062e+01 1.730718255043029785e+00 1.544129753112792969e+01 5.151604652404785156e+00 -6.826096057891845703e+00
2.030000000000000000e+02 6.559495544433593750e+01 3.432197570800781250e+01 1.265759086608886719e+01 2.023789787292480469e+01 9.868646621704101562e+00 2.385894536972045898e+00
2.040000000000000000e+02 6.293102645874023438e+01 3.465456008911132812e+01 -8.061591386795043945e-01 1.663068830966949463e-01 -1.919556856155395508e-01 -8.263180255889892578e-01
2.050000000000000000e+02 6.358438110351562500e+01 3.470108032226562500e+01 3.110887765884399414e+00 1.848403334617614746e+00 1.487787365913391113e+00 -3.437097311019897461e+00
2.060000000000000000e+02 6.473485565185546875e+01 3.517942428588867188e+01 9.164255857467651367e-01 2.379642677307128906e+01 7.413856029510498047e+00 -3.419978857040405273e+00
2.070000000000000000e+02 6.396210098266601562e+01 3.553837966918945312e+01 2.066071033477783203e+00 1.134025001525878906e+01 4.021896362304687500e+00 -6.372999191284179688e+00
2.080000000000000000e+02 6.428807067871093750e+01 3.518652725219726562e+01 1.989361763000488281e+00 1.712878608703613281e+01 5.735444545745849609e+00 -7.517673492431640625e+00
2.090000000000000000e+02 6.340515518188476562e+01 3.382047653198242188e+01 4.561233222484588623e-01 2.173251807689666748e-01 2.020345479249954224e-01 1.368498921394348145e+00
2.100000000000000000e+02 6.542536163330078125e+01 3.350769042968750000e+01 9.620714187622070312e+00 2.277193450927734375e+01 9.717794418334960938e+00 -2.780794143676757812e+00
2.110000000000000000e+02 6.392123794555664062e+01 3.317065048217773438e+01 5.472626686096191406e+00 9.629023551940917969e+00 4.530495166778564453e+00 8.649491310119628906e+00
2.120000000000000000e+02 6.390555953979492188e+01 3.273365402221679688e+01 3.529062032699584961e+00 1.076078128814697266e+01 4.286952972412109375e+00 7.574709892272949219e+00
2.130000000000000000e+02 6.547254180908203125e+01 3.313493347167968750e+01 5.766323566436767578e+00 2.203487586975097656e+01 8.340359687805175781e+00 -1.912275552749633789e+00
2.140000000000000000e+02 6.431492614746093750e+01 3.299759674072265625e+01 3.085894584655761719e+00 1.782724189758300781e+01 6.273940563201904297e+00 8.191628456115722656e+00
2.150000000000000000e+02 6.349493408203125000e+01 3.362154006958007812e+01 3.620884180068969727e+00 1.133736491203308105e+00 1.426386237144470215e+00 3.022992134094238281e+00
2.160000000000000000e+02 6.558032989501953125e+01 3.389085769653320312e+01 1.316203403472900391e+01 2.017956542968750000e+01 1.000247955322265625e+01 -1.018911361694335938e+00
2.170000000000000000e+02 6.473794555664062500e+01 3.548083114624023438e+01 3.607326149940490723e-01 2.107450485229492188e+01 6.430571079254150391e+00 -3.468541860580444336e+00
2.180000000000000000e+02 6.520568084716796875e+01 3.531274795532226562e+01 1.859986424446105957e+00 2.307446479797363281e+01 7.480335235595703125e+00 7.264196872711181641e-01
2.190000000000000000e+02 6.575495910644531250e+01 3.337741851806640625e+01 8.287246704101562500e+00 1.972027206420898438e+01 8.402256011962890625e+00 -2.461070299148559570e+00
2.200000000000000000e+02 6.486505889892578125e+01 3.271876525878906250e+01 1.692375063896179199e+00 2.144579696655273438e+01 6.941451549530029297e+00 2.945865154266357422e+00
2.210000000000000000e+02 6.503126525878906250e+01 3.277263259887695312e+01 1.768732428550720215e+00 2.168678092956542969e+01 7.036653995513916016e+00 1.963250279426574707e+00
2.220000000000000000e+02 6.469903564453125000e+01 3.271117782592773438e+01 1.521042108535766602e+00 2.084336471557617188e+01 6.709322452545166016e+00 4.586706161499023438e+00
2.230000000000000000e+02 6.562826538085937500e+01 3.410134887695312500e+01 1.329842948913574219e+01 1.972975158691406250e+01 9.908453941345214844e+00 6.583560109138488770e-01
2.240000000000000000e+02 6.575186157226562500e+01 3.475109863281250000e+01 8.168768882751464844e+00 2.014857101440429688e+01 8.495202064514160156e+00 3.465950489044189453e+00
2.250000000000000000e+02 6.562456512451171875e+01 3.326539611816406250e+01 7.192578792572021484e+00 2.078991127014160156e+01 8.394746780395507812e+00 -2.426164388656616211e+00
2.260000000000000000e+02 6.570173645019531250e+01 3.379821014404296875e+01 1.185765838623046875e+01 1.942807388305664062e+01 9.385720252990722656e+00 -1.270540833473205566e+00
2.270000000000000000e+02 6.562485504150390625e+01 3.489139175415039062e+01 7.031393527984619141e+00 2.126534271240234375e+01 8.489021301269531250e+00 3.409918546676635742e+00
2.280000000000000000e+02 6.494937133789062500e+01 3.511042404174804688e+01 1.913789153099060059e+00 2.531302070617675781e+01 8.168043136596679688e+00 -5.160948634147644043e-01
2.290000000000000000e+02 6.587898254394531250e+01 3.408060836791992188e+01 1.160700798034667969e+01 1.805567359924316406e+01 8.898804664611816406e+00 4.998188912868499756e-01
2.300000000000000000e+02 6.480645751953125000e+01 3.285246276855468750e+01 1.706057786941528320e+00 2.245604133605957031e+01 7.248630046844482422e+00 3.616003274917602539e+00
2.310000000000000000e+02 6.552677154541015625e+01 3.453599548339843750e+01 1.076141738891601562e+01 2.156755065917968750e+01 9.698690414428710938e+00 3.592197418212890625e+00
2.320000000000000000e+02 6.490834808349609375e+01 3.546740722656250000e+01 5.965464711189270020e-01 2.181453323364257812e+01 6.723324298858642578e+00 -1.683929562568664551e+00
2.330000000000000000e+02 6.378393173217773438e+01 3.527487564086914062e+01 3.270436048507690430e+00 8.221605300903320312e+00 3.447612524032592773e+00 -6.465461730957031250e+00
2.340000000000000000e+02 6.376066970825195312e+01 3.553801345825195312e+01 2.445845603942871094e+00 9.000857353210449219e+00 3.434010982513427734e+00 -6.142118453979492188e+00
2.350000000000000000e+02 6.415083312988281250e+01 3.554526519775390625e+01 1.368943333625793457e+00 1.401576042175292969e+01 4.615411281585693359e+00 -6.380006313323974609e+00
2.360000000000000000e+02 6.354697036743164062e+01 3.528043746948242188e+01 3.268943309783935547e+00 5.845486164093017578e+00 2.734328985214233398e+00 -5.586297988891601562e+00
2.370000000000000000e+02 6.313594818115234375e+01 3.534895706176757812e+01 2.179458141326904297e+00 3.167921781539916992e+00 1.604214072227478027e+00 -3.716670513153076172e+00
2.380000000000000000e+02 6.203520584106445312e+01 3.443079757690429688e+01 -3.788560152053833008e+00 1.141510829329490662e-01 -1.102322697639465332e+00 3.322035372257232666e-01
2.390000000000000000e+02 6.204891586303710938e+01 3.463473510742187500e+01 -2.847977399826049805e+00 -8.043049275875091553e-02 -8.785223960876464844e-01 1.984980404376983643e-01
2.400000000000000000e+02 6.284720611572265625e+01 3.440856170654296875e+01 -3.095122337341308594e+00 5.459288135170936584e-02 -9.121588468551635742e-01 2.126276642084121704e-01
2.410000000000000000e+02 6.221633148193359375e+01 3.502827453613281250e+01 -6.892920136451721191e-01 3.318642377853393555e-01 -1.072283387184143066e-01 -6.289429664611816406e-01
2.420000000000000000e+02 6.240809249877929688e+01 3.468603515625000000e+01 -2.183638334274291992e+00 -1.010988093912601471e-02 -6.581244468688964844e-01 5.460358783602714539e-02
2.430000000000000000e+02 6.169339752197265625e+01 3.488968658447265625e+01 -2.030849933624267578e+00 1.234580427408218384e-01 -5.722175836563110352e-01 3.557124361395835876e-02
2.440000000000000000e+02 6.330635452270507812e+01 3.456099319458007812e+01 5.707815662026405334e-02 2.817224860191345215e-01 1.016401872038841248e-01 -1.123113274574279785e+00
2.450000000000000000e+02 6.264135742187500000e+01 3.390203094482421875e+01 -2.376936197280883789e+00 8.531586825847625732e-02 -6.874861121177673340e-01 3.135589063167572021e-01
2.460000000000000000e+02 6.263726043701171875e+01 3.297966384887695312e+01 2.189939022064208984e+00 1.446556925773620605e+00 1.090948820114135742e+00 2.721960067749023438e+00
2.470000000000000000e+02 6.177806472778320312e+01 3.418854904174804688e+01 -4.235636711120605469e+00 5.381930246949195862e-02 -1.254545211791992188e+00 3.283677399158477783e-01
2.480000000000000000e+02 6.162042999267578125e+01 3.383531570434570312e+01 -2.590610980987548828e+00 2.573470398783683777e-02 -7.694628834724426270e-01 2.116085886955261230e-01
2.490000000000000000e+02 6.429019165039062500e+01 3.274415206909179688e+01 2.355697631835937500e+00 1.636606216430664062e+01 5.616528034210205078e+00 7.314497947692871094e+00
2.500000000000000000e+02 6.408662414550781250e+01 3.273360824584960938e+01 2.997323989868164062e+00 1.366402816772460938e+01 4.998405933380126953e+00 7.831183433532714844e+00
2.510000000000000000e+02 6.287446212768554688e+01 3.283569335937500000e+01 3.046852350234985352e+00 2.534985780715942383e+00 1.674551486968994141e+00 3.792028665542602539e+00
2.520000000000000000e+02 6.371750259399414062e+01 3.277655410766601562e+01 4.011599540710449219e+00 8.680774688720703125e+00 3.807712316513061523e+00 7.222696781158447266e+00
2.530000000000000000e+02 6.328944396972656250e+01 3.284467315673828125e+01 3.931252002716064453e+00 4.394731044769287109e+00 2.497794866561889648e+00 5.400892257690429688e+00
2.540000000000000000e+02 6.343151855468750000e+01 3.325089645385742188e+01 4.666721820831298828e+00 3.203703880310058594e+00 2.361127614974975586e+00 5.024313926696777344e+00
2.550000000000000000e+02 6.210199737548828125e+01 3.290514373779296875e+01 1.307391166687011719e+00 8.359978199005126953e-01 6.430166959762573242e-01 1.842610359191894531e+00
2.560000000000000000e+02 6.250771331787109375e+01 3.285631561279296875e+01 2.181483745574951172e+00 1.506534099578857422e+00 1.106405377388000488e+00 2.670850992202758789e+00
2.570000000000000000e+02 6.221595382690429688e+01 3.345827102661132812e+01 -2.017563879489898682e-01 2.034653425216674805e-01 5.126874311827123165e-04 9.387450814247131348e-01
2.580000000000000000e+02 6.183941268920898438e+01 3.444799804687500000e+01 -3.809798479080200195e+00 -1.273323595523834229e-01 -1.181139230728149414e+00 3.640255928039550781e-01
2.590000000000000000e+02 6.195556640625000000e+01 3.530861282348632812e+01 -2.886471748352050781e-01 5.443067550659179688e-01 7.669787853956222534e-02 -7.623819112777709961e-01
2.600000000000000000e+02 6.173449707031250000e+01 3.530873107910156250e+01 -5.665971040725708008e-01 5.363622903823852539e-01 -9.070442058145999908e-03 -5.033371448516845703e-01
2.610000000000000000e+02 6.186621093750000000e+01 3.466047286987304688e+01 -2.923951864242553711e+00 1.481455117464065552e-01 -8.327419161796569824e-01 2.213411778211593628e-01
2.620000000000000000e+02 6.171968078613281250e+01 3.510040664672851562e+01 -1.267264604568481445e+00 1.145290210843086243e-01 -3.458206653594970703e-01 -2.395556867122650146e-01
2.630000000000000000e+02 6.155989074707031250e+01 3.338436889648437500e+01 -8.527902960777282715e-01 1.468902975320816040e-01 -2.117700129747390747e-01 5.776432752609252930e-01
2.640000000000000000e+02 6.159206390380859375e+01 3.360356903076171875e+01 -1.750510096549987793e+00 6.053590402007102966e-02 -5.069922804832458496e-01 3.703285455703735352e-01
2.650000000000000000e+02 6.255619049072265625e+01 3.566770935058593750e+01 1.484158158302307129e+00 2.305631875991821289e+00 1.136937022209167480e+00 -2.558170318603515625e+00
2.660000000000000000e+02 6.298660278320312500e+01 3.412270355224609375e+01 -3.904145240783691406e+00 5.048780143260955811e-02 -1.156097173690795898e+00 4.167553484439849854e-01
2.670000000000000000e+02 6.217664718627929688e+01 3.566828155517578125e+01 9.201322197914123535e-01 1.431567072868347168e+00 7.055097818374633789e-01 -1.825259327888488770e+00
2.680000000000000000e+02 6.291429901123046875e+01 3.534404754638671875e+01 1.776293158531188965e+00 2.191516160964965820e+00 1.190342783927917480e+00 -2.929165840148925781e+00
2.690000000000000000e+02 6.274524307250976562e+01 3.563109207153320312e+01 1.769210457801818848e+00 2.533111572265625000e+00 1.290696620941162109e+00 -2.957457304000854492e+00
2.700000000000000000e+02 6.387829589843750000e+01 3.503097534179687500e+01 4.032909870147705078e+00 8.353183746337890625e+00 3.715827941894531250e+00 -7.194944381713867188e+00
2.710000000000000000e+02 6.219554901123046875e+01 3.413843536376953125e+01 -4.240625381469726562e+00 -7.856875658035278320e-02 -1.295758128166198730e+00 2.346889525651931763e-01
2.720000000000000000e+02 6.190127944946289062e+01 3.387044525146484375e+01 -2.708940982818603516e+00 -1.209681630134582520e-01 -8.489727377891540527e-01 2.806975543498992920e-01
2.730000000000000000e+02 6.189970779418945312e+01 3.291771316528320312e+01 9.158268570899963379e-01 6.134282350540161133e-01 4.587765336036682129e-01 1.452881097793579102e+00
2.740000000000000000e+02 6.166555404663085938e+01 3.467805480957031250e+01 -3.000789165496826172e+00 -1.671783924102783203e-01 -9.503902792930603027e-01 2.498129010200500488e-01
2.750000000000000000e+02 6.261135101318359375e+01 3.473226928710937500e+01 -1.122032880783081055e+00 3.905045986175537109e-01 -2.194584757089614868e-01 -5.091557502746582031e-01
2.760000000000000000e+02 6.187468719482421875e+01 3.361119079589843750e+01 -1.404336094856262207e+00 5.505860596895217896e-02 -4.047832190990447998e-01 4.688384234905242920e-01
2.770000000000000000e+02 6.370428085327148438e+01 3.488956069946289062e+01 4.209562778472900391e+00 5.031507015228271484e+00 2.772320985794067383e+00 -5.611800193786621094e+00
2.780000000000000000e+02 6.247425842285156250e+01 3.549111557006835938e+01 1.112942814826965332e+00 1.440342783927917480e+00 7.659856677055358887e-01 -2.014358520507812500e+00
2.790000000000000000e+02 6.292791366577148438e+01 3.341046905517578125e+01 1.801949501037597656e+00 8.411110043525695801e-01 7.929181456565856934e-01 2.131056785583496094e+00
2.800000000000000000e+02 6.360713577270507812e+01 3.308691024780273438e+01 4.952118873596191406e+00 5.834269046783447266e+00 3.235916376113891602e+00 6.609102249145507812e+00
2.810000000000000000e+02 6.328371810913085938e+01 3.345257949829101562e+01 3.260147571563720703e+00 1.354891300201416016e+00 1.384511590003967285e+00 3.116418600082397461e+00
2.820000000000000000e+02 6.268270492553710938e+01 3.282860565185546875e+01 2.712110280990600586e+00 1.980793237686157227e+00 1.407871007919311523e+00 3.255405902862548828e+00
2.830000000000000000e+02 6.212953186035156250e+01 3.364195251464843750e+01 -1.343438029289245605e+00 1.231454126536846161e-02 -3.993370532989501953e-01 5.562143325805664062e-01
2.840000000000000000e+02 6.298235321044921875e+01 3.382630538940429688e+01 -1.122847557067871094e+00 1.353328377008438110e-01 -2.962543964385986328e-01 6.147049069404602051e-01
2.850000000000000000e+02 6.323387908935546875e+01 3.515589141845703125e+01 2.445106983184814453e+00 2.956976652145385742e+00 1.620625019073486328e+00 -3.506244182586669922e+00
2.860000000000000000e+02 6.333066177368164062e+01 3.534120941162109375e+01 2.893018484115600586e+00 4.067571163177490234e+00 2.088176965713500977e+00 -4.495220184326171875e+00
2.870000000000000000e+02 6.245918273925781250e+01 3.491822814941406250e+01 -4.504320323467254639e-01 4.787563085556030273e-01 8.497278206050395966e-03 -6.797323822975158691e-01
2.880000000000000000e+02 6.235086441040039062e+01 3.364892959594726562e+01 -1.039027810096740723e+00 1.016603037714958191e-01 -2.812102735042572021e-01 7.315379977226257324e-01
2.890000000000000000e+02 6.299826812744140625e+01 3.483293914794921875e+01 5.779509544372558594e-01 1.032712936401367188e+00 4.831991493701934814e-01 -1.535650491714477539e+00
2.900000000000000000e+02 6.313487243652343750e+01 3.364445877075195312e+01 1.210401892662048340e+00 3.303028941154479980e-01 4.622114300727844238e-01 1.564445257186889648e+00
2.910000000000000000e+02 6.233515167236328125e+01 3.528726196289062500e+01 3.905003964900970459e-01 1.005881547927856445e+00 4.189145863056182861e-01 -1.329169273376464844e+00
2.920000000000000000e+02 6.174970245361328125e+01 3.315280532836914062e+01 2.083923518657684326e-01 3.621250391006469727e-01 1.711552143096923828e-01 1.036981940269470215e+00
2.930000000000000000e+02 6.235258102416992188e+01 3.313322067260742188e+01 1.308685064315795898e+00 7.453864812850952148e-01 6.162214875221252441e-01 1.790849566459655762e+00
2.940000000000000000e+02 6.213233184814453125e+01 3.312024307250976562e+01 8.605025410652160645e-01 5.320679545402526855e-01 4.177711606025695801e-01 1.450673580169677734e+00
2.950000000000000000e+02 6.284413146972656250e+01 3.304695129394531250e+01 2.699700355529785156e+00 1.768568634986877441e+00 1.340480685234069824e+00 3.171365976333618164e+00
2.960000000000000000e+02 6.304980850219726562e+01 3.307048797607421875e+01 3.235116958618164062e+00 2.201837778091430664e+00 1.631086468696594238e+00 3.759250164031982422e+00
2.970000000000000000e+02 6.324536895751953125e+01 3.310322570800781250e+01 4.033273220062255859e+00 3.117751121520996094e+00 2.145307302474975586e+00 4.649874687194824219e+00
2.980000000000000000e+02 6.375447082519531250e+01 3.328993988037109375e+01 5.924601554870605469e+00 5.939450263977050781e+00 3.559215545654296875e+00 7.232535839080810547e+00
2.990000000000000000e+02 6.450880432128906250e+01 3.273197174072265625e+01 1.759943366050720215e+00 1.909701538085937500e+01 6.257087707519531250e+00 5.993869304656982422e+00
3.000000000000000000e+02 6.517031860351562500e+01 3.286392593383789062e+01 2.751341581344604492e+00 2.269264984130859375e+01 7.633197307586669922e+00 3.236427307128906250e-01
3.010000000000000000e+02 6.531153869628906250e+01 3.299285888671875000e+01 4.094934463500976562e+00 2.277341651916503906e+01 8.060504913330078125e+00 -8.255684375762939453e-01
3.020000000000000000e+02 6.499957275390625000e+01 3.291639328002929688e+01 2.528101444244384766e+00 2.346539115905761719e+01 7.798047542572021484e+00 1.620682358741760254e+00
3.030000000000000000e+02 6.557495880126953125e+01 3.346970748901367188e+01 9.120814323425292969e+00 2.123183631896972656e+01 9.105794906616210938e+00 -2.537899732589721680e+00
3.040000000000000000e+02 6.587506103515625000e+01 3.368106842041015625e+01 1.013136196136474609e+01 1.843625831604003906e+01 8.570285797119140625e+00 -1.596372604370117188e+00
3.050000000000000000e+02 6.561205291748046875e+01 3.365547943115234375e+01 1.138548755645751953e+01 2.075151443481445312e+01 9.641100883483886719e+00 -2.267548799514770508e+00
3.060000000000000000e+02 6.589643859863281250e+01 3.444575881958007812e+01 1.000207805633544922e+01 1.833142662048339844e+01 8.500051498413085938e+00 2.440637350082397461e+00
3.070000000000000000e+02 6.584270477294921875e+01 3.461225128173828125e+01 9.295103073120117188e+00 1.865586662292480469e+01 8.385291099548339844e+00 2.828733205795288086e+00
3.080000000000000000e+02 6.569896697998046875e+01 3.457938385009765625e+01 9.933232307434082031e+00 2.020561790466308594e+01 9.041654586791992188e+00 3.252994775772094727e+00
3.090000000000000000e+02 6.533837127685546875e+01 3.518542861938476562e+01 3.232919454574584961e+00 2.288366127014160156e+01 7.834974288940429688e+00 1.795826077461242676e+00
3.100000000000000000e+02 6.507239532470703125e+01 3.540688323974609375e+01 9.911620020866394043e-01 2.217874145507812500e+01 6.950971126556396484e+00 -7.931167483329772949e-01
3.110000000000000000e+02 6.453160858154296875e+01 3.547271728515625000e+01 6.251732707023620605e-01 1.899944305419921875e+01 5.887384891510009766e+00 -5.103896141052246094e+00
3.120000000000000000e+02 6.222978210449218750e+01 3.442382431030273438e+01 -3.700775861740112305e+00 -1.296824514865875244e-01 -1.149137496948242188e+00 2.831328809261322021e-01
3.130000000000000000e+02 6.242754745483398438e+01 3.442393875122070312e+01 -3.514820098876953125e+00 2.363764196634292603e-01 -9.835331439971923828e-01 1.667401492595672607e-01
3.140000000000000000e+02 6.221988296508789062e+01 3.465660858154296875e+01 -2.436002969741821289e+00 2.473929673433303833e-01 -6.565830111503601074e-01 1.493014424340799451e-04
3.150000000000000000e+02 6.190975189208984375e+01 3.487032699584960938e+01 -1.846571564674377441e+00 5.197206139564514160e-02 -5.383798480033874512e-01 -4.788960888981819153e-02
3.160000000000000000e+02 6.196255874633789062e+01 3.509395599365234375e+01 -8.892570137977600098e-01 4.750088155269622803e-01 -1.242744550108909607e-01 -5.069271326065063477e-01
3.170000000000000000e+02 6.281717681884765625e+01 3.482384490966796875e+01 -1.536589413881301880e-01 3.108325600624084473e-01 4.715208336710929871e-02 -8.999415636062622070e-01
3.180000000000000000e+02 6.305099105834960938e+01 3.436235809326171875e+01 -2.968096256256103516e+00 -1.298263370990753174e-01 -9.293767809867858887e-01 1.995596289634704590e-01
3.190000000000000000e+02 6.324739837646484375e+01 3.433184814453125000e+01 -2.818930864334106445e+00 2.073075920343399048e-01 -7.834869623184204102e-01 1.813785135746002197e-01
3.200000000000000000e+02 6.316425323486328125e+01 3.482034683227539062e+01 1.576468467712402344e+00 1.135939836502075195e+00 8.137224912643432617e-01 -2.116870641708374023e+00
3.210000000000000000e+02 6.182268905639648438e+01 3.337210464477539062e+01 -5.282393693923950195e-01 1.476387828588485718e-01 -1.141801699995994568e-01 7.218264341354370117e-01
3.220000000000000000e+02 6.355611038208007812e+01 3.555098724365234375e+01 2.659086227416992188e+00 6.954202651977539062e+00 2.883986711502075195e+00 -5.516599655151367188e+00
3.230000000000000000e+02 6.315069580078125000e+01 3.559208679199218750e+01 2.353757619857788086e+00 4.025308609008789062e+00 1.913719773292541504e+00 -4.211517810821533203e+00
3.240000000000000000e+02 6.294756317138671875e+01 3.560549545288085938e+01 1.998791217803955078e+00 3.395174741744995117e+00 1.618189692497253418e+00 -3.533461809158325195e+00
3.250000000000000000e+02 6.237491607666015625e+01 3.566655349731445312e+01 1.158827424049377441e+00 1.474468350410461426e+00 7.899887561798095703e-01 -1.991840124130249023e+00
3.260000000000000000e+02 6.212378692626953125e+01 3.542591094970703125e+01 2.758502066135406494e-01 8.382456302642822266e-01 3.342287540435791016e-01 -1.315557599067687988e+00
3.270000000000000000e+02 6.194286346435546875e+01 3.549766540527343750e+01 1.918474435806274414e-01 1.057117342948913574e+00 3.746894299983978271e-01 -1.109176278114318848e+00
3.280000000000000000e+02 6.281562042236328125e+01 3.414151763916015625e+01 -4.218026161193847656e+00 -5.635092407464981079e-02 -1.282313108444213867e+00 3.338859081268310547e-01
3.290000000000000000e+02 6.285721588134765625e+01 3.398188400268554688e+01 -3.059948205947875977e+00 3.233274817466735840e-02 -9.082846641540527344e-01 4.506416618824005127e-01
3.300000000000000000e+02 6.262084960937500000e+01 3.412974548339843750e+01 -4.309018611907958984e+00 2.000063471496105194e-02 -1.286705374717712402e+00 3.258329331874847412e-01
3.310000000000000000e+02 6.239594650268554688e+01 3.387842178344726562e+01 -2.258299350738525391e+00 -1.339004281908273697e-02 -6.815068125724792480e-01 3.958293795585632324e-01
3.320000000000000000e+02 6.215206146240234375e+01 3.387930297851562500e+01 -2.600040912628173828e+00 -2.800302579998970032e-03 -7.808523178100585938e-01 3.685830533504486084e-01
3.330000000000000000e+02 6.346854019165039062e+01 3.503211975097656250e+01 3.143354654312133789e+00 3.521810054779052734e+00 1.999549388885498047e+00 -4.468062400817871094e+00
3.340000000000000000e+02 6.399274063110351562e+01 3.288910293579101562e+01 3.908293008804321289e+00 1.223237609863281250e+01 4.842200756072998047e+00 8.180122375488281250e+00
3.350000000000000000e+02 6.576158142089843750e+01 3.438488388061523438e+01 1.140202713012695312e+01 1.909379577636718750e+01 9.148746490478515625e+00 2.311551809310913086e+00
3.360000000000000000e+02 6.550076293945312500e+01 3.370228576660156250e+01 1.196925830841064453e+01 2.137154769897460938e+01 1.000224208831787109e+01 -2.353139877319335938e+00
3.370000000000000000e+02 6.571569824218750000e+01 3.350503158569335938e+01 9.303012847900390625e+00 1.972469902038574219e+01 8.708313941955566406e+00 -2.361360549926757812e+00
3.380000000000000000e+02 6.211164474487304688e+01 3.481379318237304688e+01 -1.850163221359252930e+00 2.175101786851882935e-01 -4.897959232330322266e-01 -5.001655220985412598e-02
3.390000000000000000e+02 6.253536987304687500e+01 3.356741714477539062e+01 -4.036343693733215332e-01 1.613754481077194214e-01 -7.267767190933227539e-02 9.249739646911621094e-01
3.400000000000000000e+02 6.310633468627929688e+01 3.327197265625000000e+01 3.224964141845703125e+00 1.509711742401123047e+00 1.420402765274047852e+00 3.247825622558593750e+00
3.410000000000000000e+02 6.400423431396484375e+01 3.532155227661132812e+01 2.685391187667846680e+00 1.199718856811523438e+01 4.404774188995361328e+00 -7.321316242218017578e+00
3.420000000000000000e+02 6.204530715942382812e+01 3.329305267333984375e+01 1.221002116799354553e-01 3.170304000377655029e-01 1.317391842603683472e-01 1.024678111076354980e+00
3.430000000000000000e+02 6.241617965698242188e+01 3.336001968383789062e+01 5.659754276275634766e-01 3.722645938396453857e-01 2.814719974994659424e-01 1.323115348815917969e+00
3.440000000000000000e+02 6.276703262329101562e+01 3.322323989868164062e+01 2.214908599853515625e+00 1.124532461166381836e+00 1.001832365989685059e+00 2.482481956481933594e+00
3.450000000000000000e+02 6.257802581787109375e+01 3.313841247558593750e+01 1.872548460960388184e+00 1.033266901969909668e+00 8.717446327209472656e-01 2.308733224868774414e+00
3.460000000000000000e+02 6.261783599853515625e+01 3.331198883056640625e+01 1.379650354385375977e+00 6.521062850952148438e-01 6.095269918441772461e-01 1.795329213142395020e+00
3.470000000000000000e+02 6.311534118652343750e+01 3.460012054443359375e+01 -6.084418296813964844e-01 6.889295578002929688e-01 2.414633147418498993e-02 -7.964689731597900391e-01
3.480000000000000000e+02 6.272674179077148438e+01 3.350162124633789062e+01 6.754913330078125000e-01 4.386175274848937988e-01 3.342326581478118896e-01 1.445487380027770996e+00
3.490000000000000000e+02 6.268184280395507812e+01 3.539769744873046875e+01 1.355948567390441895e+00 1.844883680343627930e+00 9.602496623992919922e-01 -2.344829559326171875e+00
3.500000000000000000e+02 6.307857131958007812e+01 3.500067138671875000e+01 1.791346311569213867e+00 1.473563194274902344e+00 9.794728755950927734e-01 -2.568193912506103516e+00
3.510000000000000000e+02 6.284617233276367188e+01 3.508293533325195312e+01 1.151916980743408203e+00 1.372902750968933105e+00 7.574458718299865723e-01 -1.945719122886657715e+00
3.520000000000000000e+02 6.148656463623046875e+01 3.518032073974609375e+01 -1.322570204734802246e+00 5.273060798645019531e-01 -2.385792434215545654e-01 -1.561601161956787109e-01
3.530000000000000000e+02 6.030958557128906250e+01 3.577541732788085938e+01 -1.106900334358215332e+00 3.968613222241401672e-02 -3.201642632484436035e-01 2.808814942836761475e-01
3.540000000000000000e+02 6.104788208007812500e+01 3.535683059692382812e+01 -1.387314081192016602e+00 1.254999339580535889e-01 -3.785442411899566650e-01 -1.925665885210037231e-02
3.550000000000000000e+02 5.971360397338867188e+01 3.575558471679687500e+01 -1.291055202484130859e+00 1.629829704761505127e-01 -3.384216725826263428e-01 3.129178285598754883e-01
3.560000000000000000e+02 6.088029479980468750e+01 3.576422882080078125e+01 -6.682150363922119141e-01 7.474238872528076172e-01 2.376264892518520355e-02 -3.367746770381927490e-01
3.570000000000000000e+02 6.141959762573242188e+01 3.574689865112304688e+01 -7.440696656703948975e-02 5.721310973167419434e-01 1.493172347545623779e-01 -8.399783372879028320e-01
3.580000000000000000e+02 6.149618148803710938e+01 3.552160644531250000e+01 -4.590384364128112793e-01 6.045243144035339355e-01 4.364576190710067749e-02 -6.413533687591552734e-01
3.590000000000000000e+02 5.905091094970703125e+01 3.578395843505859375e+01 -1.305383205413818359e+00 -7.213658839464187622e-02 -4.132559299468994141e-01 6.199814677238464355e-01
3.600000000000000000e+02 5.899131774902343750e+01 3.504569625854492188e+01 -2.593832015991210938e+00 3.607302159070968628e-02 -7.673276662826538086e-01 5.112989544868469238e-01
3.610000000000000000e+02 6.002017593383789062e+01 3.518969726562500000e+01 -2.244423627853393555e+00 -6.182576343417167664e-02 -6.918748021125793457e-01 4.622143507003784180e-01
3.620000000000000000e+02 6.056214523315429688e+01 3.527769088745117188e+01 -1.757512092590332031e+00 1.875125318765640259e-01 -4.709998965263366699e-01 2.079990357160568237e-01
3.630000000000000000e+02 6.136087417602539062e+01 3.501503372192382812e+01 -1.973724484443664551e+00 1.474825888872146606e-01 -5.478726029396057129e-01 1.626950502395629883e-01
3.640000000000000000e+02 6.128850936889648438e+01 3.478166961669921875e+01 -2.679336786270141602e+00 1.510043442249298096e-01 -7.584996819496154785e-01 2.882597744464874268e-01
3.650000000000000000e+02 6.135523223876953125e+01 3.538637542724609375e+01 -8.838413357734680176e-01 6.964916586875915527e-01 -5.620490387082099915e-02 -3.896482884883880615e-01
3.660000000000000000e+02 6.122900772094726562e+01 3.452940750122070312e+01 -3.862471342086791992e+00 -4.522563517093658447e-02 -1.172309041023254395e+00 4.734292924404144287e-01
3.670000000000000000e+02 6.153488540649414062e+01 3.533853912353515625e+01 -6.187946796417236328e-01 3.372451364994049072e-01 -8.446486294269561768e-02 -3.315702378749847412e-01
3.680000000000000000e+02 6.081961059570312500e+01 3.480578994750976562e+01 -3.089238405227661133e+00 -1.628317832946777344e-01 -9.756210446357727051e-01 4.809332787990570068e-01
3.690000000000000000e+02 5.970628356933593750e+01 3.486259841918945312e+01 -2.948920488357543945e+00 -2.179499119520187378e-01 -9.500611424446105957e-01 5.098853111267089844e-01
3.700000000000000000e+02 6.032823181152343750e+01 3.473493957519531250e+01 -3.371351957321166992e+00 8.890976011753082275e-02 -9.847326278686523438e-01 4.958544671535491943e-01
3.710000000000000000e+02 5.676622772216796875e+01 3.537297821044921875e+01 -1.482574105262756348e+00 -4.984720423817634583e-02 -4.597263932228088379e-01 4.337668418884277344e-01
3.720000000000000000e+02 5.690399551391601562e+01 3.610068511962890625e+01 -9.266806840896606445e-01 -1.430616825819015503e-01 -3.209227025508880615e-01 6.413346529006958008e-01
3.730000000000000000e+02 5.603319931030273438e+01 3.547965621948242188e+01 -1.021057844161987305e+00 -9.907331317663192749e-02 -3.360393345355987549e-01 3.927841782569885254e-01
3.740000000000000000e+02 5.750018692016601562e+01 3.526519775390625000e+01 -1.859433889389038086e+00 -8.788409829139709473e-02 -5.841953754425048828e-01 4.335373342037200928e-01
3.750000000000000000e+02 5.834177017211914062e+01 3.588873672485351562e+01 -1.253928065299987793e+00 -1.340804398059844971e-01 -4.164025485515594482e-01 4.755051434040069580e-01
3.760000000000000000e+02 5.823495101928710938e+01 3.515648651123046875e+01 -2.206731796264648438e+00 -1.457608640193939209e-01 -7.057477831840515137e-01 5.218678116798400879e-01
3.770000000000000000e+02 5.618644332885742188e+01 3.620509338378906250e+01 -7.224000096321105957e-01 -5.636816471815109253e-02 -2.336304485797882080e-01 7.248154878616333008e-01
3.780000000000000000e+02 5.762247848510742188e+01 3.599517822265625000e+01 -1.164558410644531250e+00 -6.014266610145568848e-02 -3.674103319644927979e-01 6.582167148590087891e-01
3.790000000000000000e+02 5.384532546997070312e+01 3.667871856689453125e+01 1.810115873813629150e-01 -6.224451065063476562e-01 -1.324300616979598999e-01 4.185537248849868774e-02
3.800000000000000000e+02 5.390139770507812500e+01 3.633741760253906250e+01 -9.531730413436889648e-02 -2.164595872163772583e-01 -9.353306889533996582e-02 1.846965551376342773e-01
3.810000000000000000e+02 5.457950592041015625e+01 3.674075698852539062e+01 -1.891832351684570312e-01 -4.894758462905883789e-01 -2.035977244377136230e-01 5.392163991928100586e-01
3.820000000000000000e+02 5.383747482299804688e+01 3.704690551757812500e+01 -1.403941810131072998e-01 -8.082666397094726562e-01 -2.845982611179351807e-01 7.556704431772232056e-02
3.830000000000000000e+02 5.522666168212890625e+01 3.569715881347656250e+01 -5.003257393836975098e-01 -1.012269333004951477e-01 -1.804658025503158569e-01 3.651553094387054443e-01
3.840000000000000000e+02 5.406111526489257812e+01 3.588264846801757812e+01 -6.524930894374847412e-02 -3.920689225196838379e-02 -3.133685886859893799e-02 5.026492848992347717e-02
3.850000000000000000e+02 5.539877319335937500e+01 3.641811752319335938e+01 -4.941751062870025635e-01 -3.229442536830902100e-01 -2.451358139514923096e-01 7.009497284889221191e-01
3.860000000000000000e+02 5.409225845336914062e+01 3.654366683959960938e+01 4.966869205236434937e-02 -2.962936162948608398e-01 -7.398747652769088745e-02 3.033306598663330078e-01
3.870000000000000000e+02 5.450753784179687500e+01 3.614347457885742188e+01 -2.324581146240234375e-01 -3.561649322509765625e-01 -1.765869110822677612e-01 3.155152797698974609e-01
3.880000000000000000e+02 5.406600952148437500e+01 3.695836257934570312e+01 -2.834468334913253784e-02 -8.193320035934448242e-01 -2.543030083179473877e-01 3.701829314231872559e-01
3.890000000000000000e+02 5.344662094116210938e+01 3.479689788818359375e+01 -2.149479538202285767e-01 -1.430411338806152344e-01 -1.073967218399047852e-01 -1.775204390287399292e-01
3.900000000000000000e+02 5.366340637207031250e+01 3.510863113403320312e+01 -1.122617423534393311e-01 -4.001603275537490845e-02 -4.568333178758621216e-02 -1.358774602413177490e-01
3.910000000000000000e+02 5.494368743896484375e+01 3.414394760131835938e+01 -9.665333628654479980e-01 1.279706358909606934e-01 -2.515688240528106689e-01 -4.035607874393463135e-01
3.920000000000000000e+02 5.424127578735351562e+01 3.501722717285156250e+01 -3.691700994968414307e-01 5.402754060924053192e-03 -1.091302111744880676e-01 -1.347560584545135498e-01
3.930000000000000000e+02 5.503524398803710938e+01 3.488909530639648438e+01 -7.829673290252685547e-01 4.500725865364074707e-02 -2.213880270719528198e-01 -6.052990630269050598e-02
3.940000000000000000e+02 5.318430709838867188e+01 3.449492645263671875e+01 -2.906471192836761475e-01 -2.467862367630004883e-01 -1.612299978733062744e-01 -2.854548692703247070e-01
3.950000000000000000e+02 5.394946670532226562e+01 3.541463851928710938e+01 -1.329885125160217285e-01 -5.360989598557353020e-04 -4.005738347768783569e-02 -8.592811413109302521e-03
3.960000000000000000e+02 5.366458129882812500e+01 3.433396148681640625e+01 -4.987559914588928223e-01 -9.659531712532043457e-02 -1.786053925752639771e-01 -3.681286275386810303e-01
3.970000000000000000e+02 5.396925354003906250e+01 3.460595321655273438e+01 -5.294643640518188477e-01 2.479766681790351868e-02 -1.513999998569488525e-01 -2.429919838905334473e-01
3.980000000000000000e+02 5.424771118164062500e+01 3.423815917968750000e+01 -7.713511586189270020e-01 7.211851328611373901e-02 -2.097698003053665161e-01 -3.938904702663421631e-01
3.990000000000000000e+02 5.297293472290039062e+01 3.413312911987304688e+01 -3.771717548370361328e-01 -4.223360121250152588e-01 -2.398523390293121338e-01 -4.193111956119537354e-01
4.000000000000000000e+02 5.423794555664062500e+01 3.297528076171875000e+01 -9.196625351905822754e-01 8.232536166906356812e-02 -2.512011528015136719e-01 -6.234062314033508301e-01
4.010000000000000000e+02 5.910315704345703125e+01 3.242944335937500000e+01 -4.083120226860046387e-01 3.163847923278808594e-01 -2.757816761732101440e-02 1.082430034875869751e-01
4.020000000000000000e+02 5.277652740478515625e+01 3.373991775512695312e+01 -5.248210430145263672e-01 -5.422474741935729980e-01 -3.201205730438232422e-01 -5.055528283119201660e-01
4.030000000000000000e+02 4.945134735107421875e+01 3.017279243469238281e+01 -1.278048157691955566e+00 -1.219462990760803223e+00 -7.492533326148986816e-01 -1.245751023292541504e+00
4.040000000000000000e+02 4.742525863647460938e+01 2.824921798706054688e+01 -1.371469974517822266e+00 -1.141687035560607910e+00 -7.539471387863159180e-01 -1.252110123634338379e+00
4.050000000000000000e+02 5.357955169677734375e+01 2.125981903076171875e+01 -2.276035845279693604e-01 1.666435718536376953e+00 4.316496551036834717e-01 4.962318837642669678e-01
4.060000000000000000e+02 6.741251373291015625e+01 1.122538471221923828e+01 -4.099892079830169678e-01 6.759675502777099609e+00 1.904905915260314941e+00 2.819672524929046631e-01
4.070000000000000000e+02 7.174789428710937500e+01 4.847149372100830078e+00 -1.046147346496582031e-01 7.524131774902343750e+00 2.225855112075805664e+00 2.074617594480514526e-01
4.080000000000000000e+02 7.803652191162109375e+01 -2.811728239059448242e+00 -1.894482295028865337e-03 8.789113998413085938e+00 2.636165857315063477e+00 6.785087287425994873e-02
4.090000000000000000e+02 7.934085845947265625e+01 2.777645349502563477e+00 -2.851777244359254837e-03 9.345069885253906250e+00 2.802665472030639648e+00 2.799400826916098595e-03
4.100000000000000000e+02 7.805730438232421875e+01 4.159379005432128906e+00 -1.078348048031330109e-02 9.051507949829101562e+00 2.712217330932617188e+00 4.194976761937141418e-02
4.110000000000000000e+02 7.938451385498046875e+01 8.348669052124023438e+00 -4.338440019637346268e-03 9.509060859680175781e+00 2.851416587829589844e+00 -2.097936533391475677e-02
4.120000000000000000e+02 7.352129364013671875e+01 1.811522102355957031e+01 -4.393662810325622559e-01 8.321090698242187500e+00 2.364517450332641602e+00 -5.256736874580383301e-01
4.130000000000000000e+02 6.664886474609375000e+01 2.224420738220214844e+01 -1.122556686401367188e+00 8.198606491088867188e+00 2.122814893722534180e+00 3.869623839855194092e-01
4.140000000000000000e+02 5.859554290771484375e+01 3.296274566650390625e+01 -1.039148211479187012e+00 1.969052404165267944e-01 -2.526728808879852295e-01 -1.213051155209541321e-01
4.150000000000000000e+02 5.715556716918945312e+01 2.947150993347167969e+01 1.996997892856597900e-01 1.100826144218444824e+00 3.901577889919281006e-01 3.768764734268188477e-01
4.160000000000000000e+02 5.607646179199218750e+01 2.862373161315917969e+01 9.442139416933059692e-03 1.036127686500549316e+00 3.136709630489349365e-01 2.661356031894683838e-01
4.170000000000000000e+02 3.281101989746093750e+01 -1.419485187530517578e+01 -8.784943073987960815e-02 -3.680179715156555176e-01 -1.367602199316024780e-01 1.931976228952407837e-01
4.180000000000000000e+02 3.326551055908203125e+01 -1.043494224548339844e+01 2.906142175197601318e-01 -2.171272933483123779e-01 2.204607427120208740e-02 -7.648964971303939819e-02
4.190000000000000000e+02 4.052533721923828125e+01 -9.732877731323242188e+00 3.547995388507843018e-01 4.825332164764404297e-01 2.511998116970062256e-01 -6.516059860587120056e-03
4.200000000000000000e+02 4.656708526611328125e+01 -1.277400970458984375e+01 1.837974488735198975e-01 1.691846489906311035e+00 5.626931786537170410e-01 5.910716578364372253e-02
4.210000000000000000e+02 5.549925231933593750e+01 -1.623722267150878906e+01 2.568874135613441467e-02 3.659633159637451172e+00 1.105596542358398438e+00 2.472564876079559326e-01
4.220000000000000000e+02 6.774720001220703125e+01 -1.071478652954101562e+01 2.068130858242511749e-02 6.252455234527587891e+00 1.881940841674804688e+00 3.451466262340545654e-01
4.230000000000000000e+02 7.306501770019531250e+01 -1.233681869506835938e+01 4.844597133342176676e-04 7.348785877227783203e+00 2.204781055450439453e+00 2.347262054681777954e-01
4.240000000000000000e+02 7.937804412841796875e+01 -1.252579021453857422e+01 9.092937689274549484e-04 8.663987159729003906e+00 2.599468946456909180e+00 1.477745361626148224e-02
4.250000000000000000e+02 7.813815307617187500e+01 -9.741044044494628906e+00 -2.079557627439498901e-03 8.521404266357421875e+00 2.555797338485717773e+00 6.691396981477737427e-02
4.260000000000000000e+02 7.936882781982421875e+01 -5.579221248626708984e+00 -1.578621100634336472e-03 8.978966712951660156e+00 2.693216562271118164e+00 1.161700859665870667e-02
4.270000000000000000e+02 7.140602111816406250e+01 -2.408231019973754883e+00 -1.666621491312980652e-02 7.236023426055908203e+00 2.165807008743286133e+00 2.912752032279968262e-01
4.280000000000000000e+02 6.630423736572265625e+01 -2.917647123336791992e+00 -1.782952435314655304e-02 6.022580623626708984e+00 1.801425337791442871e+00 3.852956891059875488e-01
4.290000000000000000e+02 5.992231369018554688e+01 -1.140509128570556641e+00 1.187262963503599167e-02 4.493787765502929688e+00 1.351698160171508789e+00 4.552403390407562256e-01
4.300000000000000000e+02 4.685446548461914062e+01 -5.002057075500488281e+00 2.411725819110870361e-01 1.563198566436767578e+00 5.413113236427307129e-01 1.939317584037780762e-01
4.310000000000000000e+02 4.198575973510742188e+01 -6.616904258728027344e+00 3.500499725341796875e-01 6.808694005012512207e-01 3.092758059501647949e-01 7.973310351371765137e-02
4.320000000000000000e+02 3.521407318115234375e+01 -7.216114044189453125e+00 5.065912604331970215e-01 -2.041454464197158813e-01 9.073373675346374512e-02 -6.280779838562011719e-02
4.330000000000000000e+02 2.745548248291015625e+01 -6.284094810485839844e+00 6.037982702255249023e-01 4.817665815353393555e-01 3.256694674491882324e-01 -5.954388380050659180e-01
4.340000000000000000e+02 2.562079620361328125e+01 -4.126400947570800781e+00 1.090964436531066895e+00 8.102836608886718750e-01 5.703744292259216309e-01 -9.982134103775024414e-01
4.350000000000000000e+02 2.844254112243652344e+01 -5.729688644409179688e+00 7.904207706451416016e-01 1.541724205017089844e-01 2.833779454231262207e-01 -4.633714556694030762e-01
4.360000000000000000e+02 3.230271148681640625e+01 -1.117230129241943359e+01 1.417575478553771973e-01 -2.179688513278961182e-01 -2.286338806152343750e-02 -2.192360162734985352e-02
4.370000000000000000e+02 3.131167411804199219e+01 -1.189039516448974609e+01 6.886006798595190048e-03 -2.115243375301361084e-01 -6.139149889349937439e-02 8.023820817470550537e-02
4.380000000000000000e+02 3.236479949951171875e+01 1.291223430633544922e+01 -1.289569735527038574e+00 -1.391092896461486816e+00 -8.041988015174865723e-01 -1.367388963699340820e+00
4.390000000000000000e+02 3.181061553955078125e+01 1.234339523315429688e+01 -1.358864784240722656e+00 -1.522157073020935059e+00 -8.643065690994262695e-01 -1.438555121421813965e+00
4.400000000000000000e+02 3.208697891235351562e+01 1.262647342681884766e+01 -1.303645133972167969e+00 -1.464632868766784668e+00 -8.304833769798278809e-01 -1.379874587059020996e+00
4.410000000000000000e+02 3.124867248535156250e+01 1.179323959350585938e+01 -1.559064865112304688e+00 -1.499771952629089355e+00 -9.176510572433471680e-01 -1.511658191680908203e+00
4.420000000000000000e+02 3.068828773498535156e+01 1.124342727661132812e+01 -1.548824667930603027e+00 -1.293889403343200684e+00 -8.528141975402832031e-01 -1.430855035781860352e+00
4.430000000000000000e+02 3.069853019714355469e+01 7.449291706085205078e+00 -9.847366809844970703e-01 -1.296039700508117676e+00 -6.842329502105712891e-01 -1.221208095550537109e+00
4.440000000000000000e+02 2.987007713317871094e+01 6.055966854095458984e+00 -1.782644987106323242e+00 -1.084220528602600098e+00 -8.600596785545349121e-01 -1.228074431419372559e+00
4.450000000000000000e+02 3.043072891235351562e+01 6.240101814270019531e+00 -1.534025907516479492e+00 -9.912925362586975098e-01 -7.575955390930175781e-01 -1.208499312400817871e+00
4.460000000000000000e+02 2.285552597045898438e+01 1.589181661605834961e+00 -2.811853408813476562e+00 -5.219622850418090820e-01 -1.000144720077514648e+00 -1.588548660278320312e+00
4.470000000000000000e+02 2.268330001831054688e+01 1.459604620933532715e+00 -2.700643062591552734e+00 -4.285563230514526367e-01 -9.387598037719726562e-01 -1.686298966407775879e+00
4.480000000000000000e+02 2.258171653747558594e+01 1.069684863090515137e+00 -2.405743122100830078e+00 -1.465243399143218994e-01 -7.656801939010620117e-01 -1.632634520530700684e+00
4.490000000000000000e+02 2.210008430480957031e+01 1.199569463729858398e+00 -2.666424274444580078e+00 -6.842739582061767578e-01 -1.005209445953369141e+00 -1.984814286231994629e+00
4.500000000000000000e+02 1.949021148681640625e+01 -8.122009038925170898e-01 -2.945626497268676758e+00 -4.043253421783447266e+00 -2.096663951873779297e+00 -2.165719747543334961e+00
4.510000000000000000e+02 2.044668769836425781e+01 2.046481966972351074e-01 -1.977087140083312988e+00 -2.199126243591308594e+00 -1.252864003181457520e+00 -2.954564094543457031e+00
4.520000000000000000e+02 1.582090473175048828e+01 -2.458629369735717773e+00 -1.450638890266418457e+00 -6.616187691688537598e-01 -6.336773037910461426e-01 -8.086557388305664062e-01
4.530000000000000000e+02 1.170883560180664062e+01 -2.183876514434814453e+00 -6.516988873481750488e-01 -7.025227416306734085e-03 -1.976172477006912231e-01 -2.415025681257247925e-01
4.540000000000000000e+02 1.097596263885498047e+01 -2.084504604339599609e+00 -5.386155247688293457e-01 -1.585876941680908203e-02 -1.663422882556915283e-01 -1.958968043327331543e-01
4.550000000000000000e+02 1.059753990173339844e+01 -7.193583011627197266e+00 -2.876015901565551758e-01 -3.209303021430969238e-01 -1.825595647096633911e-01 -5.816210508346557617e-01
4.560000000000000000e+02 7.019903182983398438e+00 -1.950205993652343750e+01 7.437653094530105591e-02 -7.180890440940856934e-01 -1.931137442588806152e-01 -3.195845186710357666e-01
4.570000000000000000e+02 7.159125804901123047e+00 -2.685984230041503906e+01 6.293842941522598267e-02 -8.629413843154907227e-01 -2.400008887052536011e-01 -2.129987925291061401e-01
4.580000000000000000e+02 7.578071117401123047e+00 -4.103678894042968750e+01 4.835164546966552734e-02 -9.837821125984191895e-01 -2.806291282176971436e-01 -2.173799462616443634e-02
4.590000000000000000e+02 1.211416435241699219e+01 -3.747575378417968750e+01 1.301432549953460693e-01 -6.152349710464477539e-01 -1.455275118350982666e-01 -9.140448272228240967e-02
4.600000000000000000e+02 2.015957832336425781e+01 -3.903355407714843750e+01 2.881171405315399170e-01 -5.080903321504592896e-02 7.119243592023849487e-02 -8.235213905572891235e-02
4.610000000000000000e+02 1.676133346557617188e+01 -4.057351303100585938e+01 2.318033874034881592e-01 -2.610031962394714355e-01 -8.759940043091773987e-03 -4.785850271582603455e-02
4.620000000000000000e+02 1.392285823822021484e+01 -2.917388153076171875e+01 1.520405262708663940e-01 -4.321002960205078125e-01 -8.401793241500854492e-02 -2.353760898113250732e-01
4.630000000000000000e+02 1.721060180664062500e+01 -2.539247894287109375e+01 2.119003385305404663e-01 -1.753125786781311035e-01 1.097632944583892822e-02 -3.049319088459014893e-01
4.640000000000000000e+02 1.892990303039550781e+01 -1.778722381591796875e+01 2.244458347558975220e-01 -5.212296172976493835e-02 5.169686302542686462e-02 -3.189961612224578857e-01
4.650000000000000000e+02 2.213355827331542969e+01 -1.318821907043457031e+01 1.990088820457458496e-01 3.533544242382049561e-01 1.657089889049530029e-01 -2.499012798070907593e-01
4.660000000000000000e+02 1.981801986694335938e+01 -8.150749206542968750e+00 9.263696521520614624e-02 -3.671987652778625488e-01 -8.236853778362274170e-02 2.181424759328365326e-02
4.670000000000000000e+02 1.915290260314941406e+01 -9.826438903808593750e+00 1.966566890478134155e-01 -3.289820551872253418e-01 -3.969760611653327942e-02 -1.772941201925277710e-01
4.680000000000000000e+02 1.946006965637207031e+01 -6.812601566314697266e+00 -8.022450655698776245e-02 -8.405042290687561035e-01 -2.762186229228973389e-01 -1.133147999644279480e-02
4.690000000000000000e+02 1.905100631713867188e+01 -4.025684356689453125e+00 -3.169306218624114990e-01 -2.731729269027709961e+00 -9.145979881286621094e-01 -4.062420129776000977e-01
4.700000000000000000e+02 1.886857032775878906e+01 -7.594296932220458984e-01 -2.503366470336914062e+00 -2.181306123733520508e+00 -1.405401706695556641e+00 -1.882924795150756836e+00
4.710000000000000000e+02 1.024295330047607422e+01 -1.987055301666259766e+00 -4.375383555889129639e-01 1.074020192027091980e-02 -1.280394494533538818e-01 -1.578157842159271240e-01
4.720000000000000000e+02 3.775916099548339844e+00 -1.994143962860107422e+00 -4.825168102979660034e-02 -1.867352612316608429e-02 -2.007756195962429047e-02 -3.141851723194122314e-02
4.730000000000000000e+02 1.577334880828857422e+00 -1.068383312225341797e+01 -1.592094660736620426e-03 -3.792724609375000000e-01 -1.142593696713447571e-01 -1.206997260451316833e-01
4.740000000000000000e+02 1.796889781951904297e+00 -1.755707550048828125e+01 3.177565988153219223e-03 -8.511765003204345703e-01 -2.543996870517730713e-01 -1.219811365008354187e-01
4.750000000000000000e+02 6.365104317665100098e-01 -2.472261238098144531e+01 4.459504270926117897e-04 -1.317900896072387695e+00 -3.952364921569824219e-01 -2.634245529770851135e-02
4.760000000000000000e+02 7.999226450920104980e-01 -3.175243377685546875e+01 2.115314127877354622e-03 -1.529998421669006348e+00 -4.583649337291717529e-01 -1.429432164877653122e-02
4.770000000000000000e+02 6.936827659606933594e+00 -3.853303527832031250e+01 4.028909280896186829e-02 -1.031351923942565918e+00 -2.973188757896423340e-01 -5.001249164342880249e-02
4.780000000000000000e+02 1.239996314048767090e+00 -3.749650192260742188e+01 9.629873558878898621e-03 -1.593988418579101562e+00 -4.753075540065765381e-01 -4.268741235136985779e-03
4.790000000000000000e+02 2.335064125061035156e+01 -4.084940719604492188e+01 3.933624029159545898e-01 1.150944679975509644e-01 1.525370627641677856e-01 -4.519720003008842468e-02
4.800000000000000000e+02 2.226275634765625000e+01 -3.650100708007812500e+01 3.676136136054992676e-01 1.220811009407043457e-01 1.469084173440933228e-01 -1.778662204742431641e-01
4.810000000000000000e+02 2.635801887512207031e+01 -3.284243011474609375e+01 3.976667225360870361e-01 4.445222616195678711e-01 2.526566982269287109e-01 -3.373822569847106934e-01
4.820000000000000000e+02 2.631143760681152344e+01 -2.034528541564941406e+01 1.850312054157257080e-01 6.471251845359802246e-01 2.496469169855117798e-01 -3.491643667221069336e-01
4.830000000000000000e+02 2.563525199890136719e+01 -2.224032211303710938e+01 2.011895924806594849e-01 5.714317560195922852e-01 2.317864000797271729e-01 -3.578934073448181152e-01
4.840000000000000000e+02 2.359651374816894531e+01 -1.556226062774658203e+01 2.231282442808151245e-01 4.548281729221343994e-01 2.033869177103042603e-01 -3.091620504856109619e-01
4.850000000000000000e+02 2.307335472106933594e+01 -1.742265510559082031e+01 1.996973156929016113e-01 3.799070417881011963e-01 1.738813072443008423e-01 -3.060452342033386230e-01
4.860000000000000000e+02 3.098535919189453125e+01 -3.454098129272460938e+01 5.175064802169799805e-01 6.561603546142578125e-01 3.521000742912292480e-01 -4.517526924610137939e-01
4.870000000000000000e+02 3.737448501586914062e+01 -3.764152908325195312e+01 1.064352989196777344e+00 6.784673929214477539e-01 5.228461027145385742e-01 -6.129671931266784668e-01
4.880000000000000000e+02 3.279896163940429688e+01 -3.257173919677734375e+01 5.364111661911010742e-01 8.316957950592041016e-01 4.104321002960205078e-01 -6.613484621047973633e-01
4.890000000000000000e+02 3.193482208251953125e+01 -3.149909210205078125e+01 5.123573541641235352e-01 9.555086493492126465e-01 4.403598010540008545e-01 -6.136729717254638672e-01
4.900000000000000000e+02 3.170271492004394531e+01 -3.340696716308593750e+01 4.970268905162811279e-01 7.689216136932373047e-01 3.797845542430877686e-01 -4.969010353088378906e-01
4.910000000000000000e+02 2.993807411193847656e+01 -2.779303550720214844e+01 2.385735064744949341e-01 8.730405569076538086e-01 3.334842324256896973e-01 -4.592865109443664551e-01
4.920000000000000000e+02 2.812196159362792969e+01 -2.405162048339843750e+01 2.163824439048767090e-01 7.851841449737548828e-01 3.004699647426605225e-01 -4.034785628318786621e-01
4.930000000000000000e+02 4.493238830566406250e+01 -3.749755477905273438e+01 9.404713511466979980e-01 3.392009258270263672e+00 1.299744129180908203e+00 8.331462740898132324e-01
4.940000000000000000e+02 4.510184478759765625e+01 -3.900171279907226562e+01 1.509242177009582520e+00 2.765511274337768555e+00 1.282425999641418457e+00 5.943675041198730469e-01
4.950000000000000000e+02 4.785290908813476562e+01 -3.879645538330078125e+01 1.019465565681457520e+00 2.807889223098754883e+00 1.148206472396850586e+00 2.518411874771118164e-01
4.960000000000000000e+02 5.752407073974609375e+01 -3.772270584106445312e+01 4.912713170051574707e-01 4.168880939483642578e+00 1.398045659065246582e+00 2.204289287328720093e-01
4.970000000000000000e+02 5.683279037475585938e+01 -3.459101104736328125e+01 3.935294151306152344e-01 4.089263916015625000e+00 1.344838023185729980e+00 3.330033421516418457e-01
4.980000000000000000e+02 5.437647247314453125e+01 -2.175569343566894531e+01 -3.449913114309310913e-02 3.600260734558105469e+00 1.069728493690490723e+00 2.445065081119537354e-01
4.990000000000000000e+02 5.427119064331054688e+01 -1.989969062805175781e+01 1.838874537497758865e-03 3.525868892669677734e+00 1.058312296867370605e+00 2.382375150918960571e-01
5.000000000000000000e+02 5.289282226562500000e+01 -1.853348922729492188e+01 7.584245409816503525e-03 3.198830127716064453e+00 9.619243144989013672e-01 1.948246955871582031e-01
5.010000000000000000e+02 4.803452301025390625e+01 -1.869615936279296875e+01 8.587965858168900013e-04 2.155932188034057617e+00 6.470372676849365234e-01 4.851978272199630737e-02
5.020000000000000000e+02 5.034159088134765625e+01 -1.954267692565917969e+01 -2.095196023583412170e-02 2.684765815734863281e+00 7.991441488265991211e-01 1.213121935725212097e-01
5.030000000000000000e+02 4.640833282470703125e+01 -2.497948455810546875e+01 -1.247730776667594910e-01 1.961425781250000000e+00 5.509958267211914062e-01 8.809462189674377441e-03
5.040000000000000000e+02 4.816230010986328125e+01 -3.056763267517089844e+01 -4.494747612625360489e-03 2.715472459793090820e+00 8.132932782173156738e-01 2.486769258975982666e-01
5.050000000000000000e+02 4.685731887817382812e+01 -3.294150924682617188e+01 1.661605834960937500e-01 2.675893306732177734e+00 8.526161909103393555e-01 2.672971487045288086e-01
5.060000000000000000e+02 5.779753112792968750e+01 -3.110878372192382812e+01 2.401822805404663086e-01 4.204806327819824219e+00 1.333496570587158203e+00 3.532395660877227783e-01
5.070000000000000000e+02 6.236838531494140625e+01 -4.091079711914062500e+01 3.658903837203979492e-01 4.981140136718750000e+00 1.604109168052673340e+00 5.188831686973571777e-02
5.080000000000000000e+02 6.660540771484375000e+01 -3.085525512695312500e+01 1.007644608616828918e-01 5.853159427642822266e+00 1.786177158355712891e+00 2.769750058650970459e-01
5.090000000000000000e+02 6.587687683105468750e+01 -2.718990707397460938e+01 7.180982828140258789e-02 5.743258476257324219e+00 1.744520545005798340e+00 3.042371273040771484e-01
5.100000000000000000e+02 6.325383377075195312e+01 -2.150868415832519531e+01 1.691672764718532562e-02 5.277339935302734375e+00 1.588276982307434082e+00 3.388618230819702148e-01
5.110000000000000000e+02 6.468892669677734375e+01 -1.782621574401855469e+01 1.752083003520965576e-02 5.566461086273193359e+00 1.675194501876831055e+00 3.386284112930297852e-01
5.120000000000000000e+02 7.161491394042968750e+01 -4.102188110351562500e+01 8.991616219282150269e-02 6.599254608154296875e+00 2.006751298904418945e+00 2.113443799316883087e-02
5.130000000000000000e+02 7.214161682128906250e+01 -3.037926864624023438e+01 3.929363936185836792e-02 6.767737388610839844e+00 2.042109251022338867e+00 2.001339346170425415e-01
5.140000000000000000e+02 7.068700408935546875e+01 -2.503600883483886719e+01 2.240712381899356842e-02 6.622230529785156250e+00 1.993391275405883789e+00 2.529379725456237793e-01
5.150000000000000000e+02 7.189942932128906250e+01 -1.775254058837890625e+01 4.720292985439300537e-03 6.999387741088867188e+00 2.101232528686523438e+00 2.571128308773040771e-01
5.160000000000000000e+02 7.317192840576171875e+01 -1.901530075073242188e+01 4.448824562132358551e-03 7.209465026855468750e+00 2.164174079895019531e+00 2.240934818983078003e-01
5.170000000000000000e+02 7.791276550292968750e+01 -4.162588882446289062e+01 5.845416709780693054e-02 7.546660900115966797e+00 2.281534433364868164e+00 1.638487912714481354e-02
5.180000000000000000e+02 7.776485443115234375e+01 -3.677816772460937500e+01 -2.847287571057677269e-03 7.546029567718505859e+00 2.262954711914062500e+00 5.946344882249832153e-02
5.190000000000000000e+02 7.933303070068359375e+01 -3.334821701049804688e+01 4.328628536313772202e-03 7.851105690002441406e+00 2.356630325317382812e+00 1.709827594459056854e-02
5.200000000000000000e+02 7.799501037597656250e+01 -3.040538787841796875e+01 -1.051073995768092573e-04 7.729331016540527344e+00 2.318767786026000977e+00 5.752231925725936890e-02
5.210000000000000000e+02 7.935742950439453125e+01 -2.640389251708984375e+01 5.429062875919044018e-04 8.082000732421875000e+00 2.424763202667236328e+00 1.825392432510852814e-02
5.220000000000000000e+02 7.809156036376953125e+01 -2.350225639343261719e+01 -2.099178382195532322e-04 7.973429679870605469e+00 2.391965866088867188e+00 6.696344166994094849e-02
5.230000000000000000e+02 7.812272644042968750e+01 -1.661377525329589844e+01 7.197643280960619450e-04 8.241495132446289062e+00 2.472664594650268555e+00 6.786081939935684204e-02
5.240000000000000000e+02 7.936894989013671875e+01 -2.223847579956054688e+01 -1.432387158274650574e-03 8.247490882873535156e+00 2.473817586898803711e+00 1.847287081182003021e-02
5.250000000000000000e+02 7.817411041259765625e+01 1.108467769622802734e+01 -2.223243005573749542e-02 9.172839164733886719e+00 2.745182037353515625e+00 -5.356257408857345581e-02
5.260000000000000000e+02 7.940155029296875000e+01 1.668960189819335938e+01 -8.775710128247737885e-03 9.166768074035644531e+00 2.747397899627685547e+00 -1.057237461209297180e-01
5.270000000000000000e+02 7.403735351562500000e+01 2.435704612731933594e+01 -4.053740799427032471e-01 8.402920722961425781e+00 2.399263858795166016e+00 -1.277579426765441895e+00
5.280000000000000000e+02 6.386684417724609375e+01 3.249205017089843750e+01 2.913385868072509766e+00 1.079588031768798828e+01 4.112779617309570312e+00 7.084362030029296875e+00
5.290000000000000000e+02 5.980271148681640625e+01 3.281713867187500000e+01 -6.757209300994873047e-01 2.300156950950622559e-01 -1.337115764617919922e-01 2.479842603206634521e-01
5.300000000000000000e+02 7.822537994384765625e+01 1.801151275634765625e+01 -4.966438189148902893e-02 8.757445335388183594e+00 2.612334251403808594e+00 -2.947628200054168701e-01
5.310000000000000000e+02 7.944557189941406250e+01 2.363085365295410156e+01 -8.822855539619922638e-03 7.535899162292480469e+00 2.258122920989990234e+00 -2.294442355632781982e-01
5.320000000000000000e+02 7.832228851318359375e+01 2.214513587951660156e+01 -5.037497356534004211e-02 8.016489982604980469e+00 2.389834403991699219e+00 -5.074263811111450195e-01
5.330000000000000000e+02 7.939492034912109375e+01 2.920591163635253906e+01 1.232354249805212021e-02 5.187743186950683594e+00 1.560020089149475098e+00 -2.762092351913452148e-01
5.340000000000000000e+02 6.741878509521484375e+01 3.519318389892578125e+01 4.732507705688476562e+00 1.404316616058349609e+01 5.632702350616455078e+00 2.101811885833740234e+00
5.350000000000000000e+02 6.225001144409179688e+01 3.597767257690429688e+01 1.301910281181335449e+00 1.860173106193542480e+00 9.486250281333923340e-01 -2.206522703170776367e+00
5.360000000000000000e+02 6.491760253906250000e+01 3.568897247314453125e+01 1.275710463523864746e-01 2.034357261657714844e+01 6.141343116760253906e+00 -2.109858512878417969e+00
5.370000000000000000e+02 7.942385101318359375e+01 3.199488449096679688e+01 1.884005963802337646e-02 4.194484233856201172e+00 1.263997197151184082e+00 -1.907678693532943726e-01
5.380000000000000000e+02 7.918708801269531250e+01 3.745040512084960938e+01 3.651004657149314880e-02 4.056232452392578125e+00 1.227822661399841309e+00 1.796725690364837646e-01
5.390000000000000000e+02 7.450260925292968750e+01 3.854583358764648438e+01 3.887232765555381775e-02 8.140891075134277344e+00 2.453928947448730469e+00 2.286581546068191528e-01
5.400000000000000000e+02 7.906473541259765625e+01 3.882274246215820312e+01 2.748059574514627457e-03 4.384348392486572266e+00 1.316128969192504883e+00 2.043033838272094727e-01
5.410000000000000000e+02 6.208831405639648438e+01 3.633893966674804688e+01 1.136048555374145508e+00 2.353865146636962891e+00 1.046974062919616699e+00 -2.346282720565795898e+00
5.420000000000000000e+02 5.966476821899414062e+01 3.670170593261718750e+01 -9.732276946306228638e-02 4.835022985935211182e-01 1.158538535237312317e-01 1.388798058032989502e-01
5.430000000000000000e+02 5.551246643066406250e+01 3.883601760864257812e+01 7.226745039224624634e-02 -2.798311114311218262e-01 -6.226909533143043518e-02 4.939050376415252686e-01
5.440000000000000000e+02 5.693769073486328125e+01 3.692272949218750000e+01 -5.225254297256469727e-01 1.361122280359268188e-01 -1.159239560365676880e-01 7.439280152320861816e-01
5.450000000000000000e+02 5.384262847900390625e+01 3.745095443725585938e+01 2.148946659872308373e-04 -1.638432145118713379e+00 -4.914651811122894287e-01 3.304442465305328369e-01
5.460000000000000000e+02 5.463895034790039062e+01 3.732037353515625000e+01 -3.582799434661865234e-01 -7.028362154960632324e-01 -3.183348476886749268e-01 7.420662045478820801e-01
5.470000000000000000e+02 5.409791946411132812e+01 3.742672348022460938e+01 -2.745515406131744385e-01 -1.009832262992858887e+00 -3.853151202201843262e-01 5.455901622772216797e-01
5.480000000000000000e+02 5.623268508911132812e+01 3.698096466064453125e+01 -4.211255311965942383e-01 -2.189049869775772095e-01 -1.920091509819030762e-01 8.324588537216186523e-01
5.490000000000000000e+02 5.366141510009765625e+01 3.821693420410156250e+01 -8.920276761054992676e-01 -1.877843737602233887e+00 -8.309614062309265137e-01 1.116204500198364258e+00
5.500000000000000000e+02 5.286946868896484375e+01 3.945409011840820312e+01 -5.333446338772773743e-02 -5.408658981323242188e-01 -1.782601177692413330e-01 5.621545314788818359e-01
5.510000000000000000e+02 5.264646911621093750e+01 3.891715621948242188e+01 -2.064382731914520264e-01 -1.478462964296340942e-01 -1.062853708863258362e-01 3.984491825103759766e-01
5.520000000000000000e+02 5.126848220825195312e+01 3.821815490722656250e+01 3.580600619316101074e-01 6.990469992160797119e-02 1.283894181251525879e-01 1.285958737134933472e-01
5.530000000000000000e+02 5.195616912841796875e+01 3.864941787719726562e+01 2.885760664939880371e-01 1.155371367931365967e-01 1.212339624762535095e-01 1.489958763122558594e-01
5.540000000000000000e+02 4.902936553955078125e+01 3.742143249511718750e+01 2.369690835475921631e-01 -1.159195601940155029e-02 6.761313974857330322e-02 9.932328015565872192e-02
5.550000000000000000e+02 4.939443588256835938e+01 3.758298110961914062e+01 2.320846021175384521e-01 4.944617673754692078e-02 8.445923030376434326e-02 8.275213092565536499e-02
5.560000000000000000e+02 4.532540130615234375e+01 3.494682312011718750e+01 8.443216979503631592e-02 4.437788575887680054e-02 3.864301741123199463e-02 6.152912974357604980e-02
5.570000000000000000e+02 4.261410140991210938e+01 3.602432632446289062e+01 8.857128769159317017e-02 4.558132588863372803e-02 4.024578258395195007e-02 4.714537411928176880e-02
5.580000000000000000e+02 3.223746109008789062e+01 4.116680526733398438e+01 3.754939511418342590e-02 6.278175860643386841e-02 3.009934723377227783e-02 4.614913836121559143e-03
5.590000000000000000e+02 1.772670555114746094e+01 4.076058197021484375e+01 -4.490399733185768127e-03 3.567470610141754150e-02 9.355291724205017090e-03 2.185722813010215759e-03
5.600000000000000000e+02 1.348827457427978516e+01 3.744982528686523438e+01 -7.490348070859909058e-03 7.771391421556472778e-03 8.431293827015906572e-05 4.110507725272327662e-04
5.610000000000000000e+02 2.355502843856811523e+00 3.663823318481445312e+01 -3.851392830256372690e-04 -9.267646819353103638e-02 -2.791848219931125641e-02 -4.030313342809677124e-03
5.620000000000000000e+02 5.979433059692382812e-01 3.313553237915039062e+01 -8.751524146646261215e-04 -1.127837300300598145e-01 -3.409766405820846558e-02 -1.349019701592624187e-03
5.630000000000000000e+02 1.814437866210937500e+00 3.008795166015625000e+01 1.550548477098345757e-04 -1.084565222263336182e-01 -3.249043971300125122e-02 -5.775768309831619263e-03
5.640000000000000000e+02 6.080439090728759766e-01 2.753645133972167969e+01 -1.066177152097225189e-03 -1.310964971780776978e-01 -3.964880108833312988e-02 -2.446657512336969376e-03
5.650000000000000000e+02 1.792261600494384766e+00 2.586728096008300781e+01 -1.550695393234491348e-03 -1.219968721270561218e-01 -3.706427291035652161e-02 -8.099778555333614349e-03
5.660000000000000000e+02 6.152585983276367188e+00 1.969642448425292969e+01 -4.257190506905317307e-03 -5.193244665861129761e-02 -1.685689203441143036e-02 -2.255224809050559998e-02
5.670000000000000000e+02 1.722051048278808594e+01 6.960858345031738281e+00 1.806057542562484741e-01 1.980037689208984375e-01 1.135828569531440735e-01 1.879913508892059326e-01
5.680000000000000000e+02 2.140438652038574219e+01 1.126911258697509766e+01 1.368534713983535767e-01 1.459248811006546021e-01 8.483350276947021484e-02 1.412603259086608887e-01
5.690000000000000000e+02 2.474969673156738281e+01 1.471609401702880859e+01 1.118668466806411743e-01 1.035424098372459412e-01 6.462277472019195557e-02 1.093901693820953369e-01
5.700000000000000000e+02 2.621425437927246094e+01 1.614169883728027344e+01 9.965966641902923584e-02 1.106221675872802734e-01 6.308455020189285278e-02 1.043354719877243042e-01
5.710000000000000000e+02 3.083329391479492188e+01 2.056851959228515625e+01 8.110284060239791870e-02 7.906841486692428589e-02 4.805137589573860168e-02 7.915233075618743896e-02
5.720000000000000000e+02 2.593415641784667969e+01 2.904601669311523438e+01 1.927261054515838623e-02 8.299580216407775879e-02 3.068052418529987335e-02 4.417951777577400208e-02
5.730000000000000000e+02 1.742708015441894531e+01 2.831508255004882812e+01 -4.808111116290092468e-03 6.082880124449729919e-02 1.680620759725570679e-02 1.667356677353382111e-02
5.740000000000000000e+02 1.500722217559814453e+01 2.861755561828613281e+01 -8.404527790844440460e-03 4.276696592569351196e-02 1.030873134732246399e-02 6.904497742652893066e-03
5.750000000000000000e+02 6.810853481292724609e+00 3.392260742187500000e+01 -2.914153737947344780e-03 -4.962041601538658142e-02 -1.576036959886550903e-02 -6.076325662434101105e-03
5.760000000000000000e+02 2.068119287490844727e+00 4.162254714965820312e+01 -3.590244334191083908e-03 -9.186711907386779785e-02 -2.863720990717411041e-02 -1.017566653899848461e-03
5.770000000000000000e+02 5.559863448143005371e-01 2.047000312805175781e+01 9.637739858590066433e-04 -1.735391616821289062e-01 -5.177261680364608765e-02 -4.491016268730163574e-03
5.780000000000000000e+02 1.671041011810302734e+00 1.606879043579101562e+01 1.510705682449042797e-03 -1.754069626331329346e-01 -5.216887593269348145e-02 -1.226948108524084091e-02
5.790000000000000000e+02 5.785434722900390625e+00 1.126179122924804688e+01 4.037981107831001282e-02 -7.362432777881622314e-02 -9.973354637622833252e-03 -4.038154613226652145e-03
5.800000000000000000e+02 1.411887359619140625e+01 3.716246366500854492e+00 3.647476434707641602e-01 1.297786116600036621e+00 4.987601339817047119e-01 5.582084655761718750e-01
5.810000000000000000e+02 1.694330406188964844e+01 6.681685447692871094e+00 1.951615661382675171e-01 2.007758766412734985e-01 1.187812313437461853e-01 2.049560993909835815e-01
5.820000000000000000e+02 1.637301254272460938e+01 6.134903430938720703e+00 2.356110960245132446e-01 2.710157036781311035e-01 1.519880443811416626e-01 2.498228549957275391e-01
5.830000000000000000e+02 5.490846037864685059e-01 1.484439182281494141e+01 1.277114381082355976e-03 -2.185599058866500854e-01 -6.518483906984329224e-02 -4.159851931035518646e-03
5.840000000000000000e+02 1.519721627235412598e+00 9.127164840698242188e+00 7.379412651062011719e-03 -1.808052659034729004e-01 -5.202775821089744568e-02 1.950397714972496033e-02
5.850000000000000000e+02 8.378158569335937500e+00 2.532169103622436523e+00 -7.945720106363296509e-02 -1.901280879974365234e-01 -8.087559044361114502e-02 2.788165509700775146e-01
5.860000000000000000e+02 1.130782985687255859e+01 1.598284363746643066e+00 -2.149902502424083650e-05 -4.349358677864074707e-01 -1.304872035980224609e-01 4.730643332004547119e-01
5.870000000000000000e+02 9.800536155700683594e+00 1.804024696350097656e+00 -2.105711251497268677e-01 -2.851464450359344482e-01 -1.487152725458145142e-01 3.934895992279052734e-01
5.880000000000000000e+02 1.697990298271179199e+00 3.845237016677856445e+00 -6.603413261473178864e-03 -6.914023309946060181e-02 -2.272309549152851105e-02 5.271413922309875488e-02
5.890000000000000000e+02 4.936559796333312988e-01 6.417292594909667969e+00 1.910084160044789314e-03 -1.526012122631072998e-01 -4.520734027028083801e-02 1.598895713686943054e-02
5.900000000000000000e+02 5.435727596282958984e+00 1.894156098365783691e+00 -1.256368607282638550e-01 -3.519795462489128113e-02 -4.825044423341751099e-02 1.215498223900794983e-01
5.910000000000000000e+02 1.054768466949462891e+01 1.725658774375915527e+00 -1.462025493383407593e-01 -3.878354132175445557e-01 -1.602113842964172363e-01 4.626632630825042725e-01
5.920000000000000000e+02 1.386876869201660156e+01 1.708149552345275879e+00 1.743124842643737793e+00 3.270534753799438477e+00 1.504097819328308105e+00 -1.647940516471862793e+00
5.930000000000000000e+02 1.412871360778808594e+01 1.344251751899719238e+00 3.049163579940795898e+00 3.042371749877929688e+00 1.827460646629333496e+00 -2.272947311401367188e+00
5.940000000000000000e+02 1.541035461425781250e+01 8.580610156059265137e-01 8.807812690734863281e+00 2.237827628850936890e-01 2.709478616714477539e+00 -7.882735729217529297e-01
5.950000000000000000e+02 3.139980506896972656e+01 2.111251258850097656e+01 7.919621467590332031e-02 7.100587338209152222e-02 4.506062716245651245e-02 7.424911111593246460e-02
5.960000000000000000e+02 3.343278121948242188e+01 3.010001182556152344e+01 4.289514943957328796e-02 7.362564653158187866e-02 3.495623916387557983e-02 5.095352977514266968e-02
5.970000000000000000e+02 3.137852668762207031e+01 3.852602005004882812e+01 3.641798719763755798e-02 6.597063690423965454e-02 3.071658685803413391e-02 1.791175827383995056e-02
5.980000000000000000e+02 3.166409301757812500e+01 2.140392112731933594e+01 7.275453954935073853e-02 6.611691415309906006e-02 4.166143760085105896e-02 7.035313546657562256e-02
5.990000000000000000e+02 3.542594528198242188e+01 2.558756828308105469e+01 5.797487869858741760e-02 7.403609156608581543e-02 3.960329294204711914e-02 6.563808768987655640e-02
6.000000000000000000e+02 3.885029983520507812e+01 3.697883605957031250e+01 6.213970482349395752e-02 5.243144556879997253e-02 3.437134623527526855e-02 3.264636173844337463e-02
6.010000000000000000e+02 4.037227249145507812e+01 3.084595489501953125e+01 6.342293322086334229e-02 5.284070968627929688e-02 3.487909212708473206e-02 5.710041895508766174e-02
6.020000000000000000e+02 4.562387466430664062e+01 3.520471572875976562e+01 8.629701286554336548e-02 4.449158906936645508e-02 3.923657909035682678e-02 6.073885038495063782e-02
6.030000000000000000e+02 3.605427932739257812e+01 -1.695896530151367188e+01 -5.110613629221916199e-02 -2.507400512695312500e-01 -9.055385738611221313e-02 1.432078778743743896e-01
6.040000000000000000e+02 4.012548446655273438e+01 -2.415278244018554688e+01 -1.140907853841781616e-01 1.474301666021347046e-01 1.000181306153535843e-02 7.279448956251144409e-02
6.050000000000000000e+02 4.047383499145507812e+01 -2.724408340454101562e+01 -7.399256527423858643e-02 2.042814344167709351e-02 -1.606932654976844788e-02 7.602319866418838501e-02
6.060000000000000000e+02 3.964987182617187500e+01 -1.792589759826660156e+01 1.387089770287275314e-02 3.236511051654815674e-01 1.012566015124320984e-01 1.097356155514717102e-02
6.070000000000000000e+02 4.131513214111328125e+01 -1.537010860443115234e+01 1.340741515159606934e-01 6.780858635902404785e-01 2.436480075120925903e-01 -3.167897090315818787e-02
6.080000000000000000e+02 3.565145111083984375e+01 -1.892243003845214844e+01 -1.578554958105087280e-01 -4.573419094085693359e-01 -1.845592260360717773e-01 2.693793773651123047e-01
6.090000000000000000e+02 3.425349807739257812e+01 -1.654471206665039062e+01 -1.307373046875000000e-01 -4.469276070594787598e-01 -1.732994765043258667e-01 2.475140094757080078e-01
6.100000000000000000e+02 4.329228973388671875e+01 -2.682323265075683594e+01 -1.253638118505477905e-01 1.035248756408691406e+00 2.729654610157012939e-01 -7.543008029460906982e-02
6.110000000000000000e+02 4.152164077758789062e+01 -2.647275161743164062e+01 -1.014666333794593811e-01 4.252035319805145264e-01 9.712106734514236450e-02 -1.191710494458675385e-02
6.120000000000000000e+02 4.490784072875976562e+01 -3.471054840087890625e+01 2.620258927345275879e-01 2.877563476562500000e+00 9.418767690658569336e-01 -1.071194559335708618e-01
6.130000000000000000e+02 4.701231765747070312e+01 -3.722144317626953125e+01 1.020553708076477051e+00 2.747424364089965820e+00 1.130393505096435547e+00 4.190094769001007080e-01
6.140000000000000000e+02 3.973274993896484375e+01 -3.957750320434570312e+01 2.060106515884399414e+00 6.036540865898132324e-01 7.991281747817993164e-01 -5.344140529632568359e-01
6.150000000000000000e+02 3.831796264648437500e+01 -4.148900985717773438e+01 1.698082804679870605e+00 4.831981956958770752e-01 6.543843150138854980e-01 -2.045372128486633301e-01
6.160000000000000000e+02 3.581437301635742188e+01 -4.017326354980468750e+01 1.317553877830505371e+00 3.625263273715972900e-01 5.040240883827209473e-01 -3.126755058765411377e-01
6.170000000000000000e+02 6.643396759033203125e+01 2.800939559936523438e+01 -1.055150032043457031e+00 1.106891918182373047e+01 3.004130840301513672e+00 5.769137144088745117e-01
6.180000000000000000e+02 7.286434173583984375e+01 2.760834693908691406e+01 -7.584087550640106201e-02 8.815575599670410156e+00 2.621920585632324219e+00 -1.616461396217346191e+00
6.190000000000000000e+02 4.617209625244140625e+01 2.654798698425292969e+01 -1.186330080032348633e+00 -1.104649543762207031e+00 -6.872938275337219238e-01 -1.179029107093811035e+00
6.200000000000000000e+02 4.874585342407226562e+01 2.238859558105468750e+01 -5.606645345687866211e-01 3.285294771194458008e-02 -1.583434790372848511e-01 -3.161799609661102295e-01
6.210000000000000000e+02 4.749970626831054688e+01 1.303186607360839844e+01 -2.978860437870025635e-01 8.782425522804260254e-01 1.741069555282592773e-01 4.161987081170082092e-02
6.220000000000000000e+02 4.774144363403320312e+01 -8.666834235191345215e-01 1.419750750064849854e-01 1.654753565788269043e+00 5.390185713768005371e-01 2.701379060745239258e-01
6.230000000000000000e+02 4.693788528442382812e+01 1.228547930717468262e+00 8.134815841913223267e-02 1.420047760009765625e+00 4.504187703132629395e-01 2.568325698375701904e-01
6.240000000000000000e+02 6.062245559692382812e+01 1.828991174697875977e+00 -5.425599217414855957e-02 4.671421527862548828e+00 1.385149598121643066e+00 4.835743904113769531e-01
6.250000000000000000e+02 6.112778091430664062e+01 5.162242889404296875e+00 -1.562832295894622803e-01 4.825942039489746094e+00 1.400897622108459473e+00 5.199987888336181641e-01
6.260000000000000000e+02 5.956195068359375000e+01 1.027650642395019531e+01 -2.766151130199432373e-01 4.445521831512451172e+00 1.250671982765197754e+00 6.156957745552062988e-01
6.270000000000000000e+02 5.338601303100585938e+01 1.998484611511230469e+01 -2.360747605562210083e-01 1.775539159774780273e+00 4.618392884731292725e-01 5.018545389175415039e-01
6.280000000000000000e+02 4.809388732910156250e+01 2.225503158569335938e+01 -6.124030351638793945e-01 -9.839573502540588379e-02 -2.132396250963211060e-01 -3.913268446922302246e-01
6.290000000000000000e+02 4.014226531982421875e+01 2.147632598876953125e+01 -1.231176137924194336e+00 -1.023655772209167480e+00 -6.764495968818664551e-01 -1.140956640243530273e+00
6.300000000000000000e+02 4.595882415771484375e+01 2.689703750610351562e+01 -1.235686421394348145e+00 -1.169162511825561523e+00 -7.214546799659729004e-01 -1.215513467788696289e+00
6.310000000000000000e+02 4.567258071899414062e+01 2.662032890319824219e+01 -1.215643644332885742e+00 -1.204970359802246094e+00 -7.261841893196105957e-01 -1.224991321563720703e+00
6.320000000000000000e+02 3.350133514404296875e+01 1.345794200897216797e+01 -1.301715016365051270e+00 -1.446688771247863770e+00 -8.245211243629455566e-01 -1.342041969299316406e+00
6.330000000000000000e+02 3.322027587890625000e+01 1.376274776458740234e+01 -1.429580211639404297e+00 -1.498572468757629395e+00 -8.784458041191101074e-01 -1.438072323799133301e+00
6.340000000000000000e+02 3.351571655273437500e+01 5.595181941986083984e+00 -9.474521279335021973e-01 -6.110363602638244629e-01 -4.675465524196624756e-01 -5.918397307395935059e-01
6.350000000000000000e+02 3.318820190429687500e+01 5.298853397369384766e+00 -9.945880770683288574e-01 -6.148846149444580078e-01 -4.828418195247650146e-01 -5.828606486320495605e-01
6.360000000000000000e+02 4.187438201904296875e+01 -6.619035005569458008e-01 1.324370205402374268e-01 5.567275285720825195e-01 2.067493647336959839e-01 1.403718888759613037e-01
6.370000000000000000e+02 4.114116668701171875e+01 -3.544741272926330566e-01 1.179115474224090576e-01 4.317096173763275146e-01 1.648863554000854492e-01 1.176720112562179565e-01
6.380000000000000000e+02 3.946899795532226562e+01 1.290940189361572266e+01 -7.536063790321350098e-01 -5.792722105979919434e-01 -3.998635709285736084e-01 -6.799842715263366699e-01
6.390000000000000000e+02 3.989277648925781250e+01 2.006257629394531250e+01 -1.012084841728210449e+00 -1.083495020866394043e+00 -6.286739706993103027e-01 -1.143792629241943359e+00
6.400000000000000000e+02 4.021030807495117188e+01 1.982136535644531250e+01 -9.955305457115173340e-01 -1.049202799797058105e+00 -6.134200096130371094e-01 -1.125810027122497559e+00
6.410000000000000000e+02 6.680242919921875000e+01 1.824960708618164062e+01 -8.547530770301818848e-01 7.351992607116699219e+00 1.949171781539916992e+00 2.804307937622070312e-01
6.420000000000000000e+02 6.625457763671875000e+01 1.875530052185058594e+01 -8.900104165077209473e-01 7.289237022399902344e+00 1.919767975807189941e+00 3.802993595600128174e-01
6.430000000000000000e+02 7.283865356445312500e+01 2.070511245727539062e+01 -6.027459502220153809e-01 8.439062118530273438e+00 2.350894689559936523e+00 -7.703910470008850098e-01
6.440000000000000000e+02 3.944303131103515625e+01 1.256337261199951172e+01 -7.385859489440917969e-01 -5.478777885437011719e-01 -3.859391212463378906e-01 -6.476339697837829590e-01
6.450000000000000000e+02 3.877956008911132812e+01 2.004375267028808594e+01 -9.583095312118530273e-01 -1.258483886718750000e+00 -6.650380492210388184e-01 -1.122608304023742676e+00
6.460000000000000000e+02 6.085702514648437500e+01 9.881787300109863281e+00 -2.916673123836517334e-01 4.834207534790039062e+00 1.362761974334716797e+00 5.866918563842773438e-01
6.470000000000000000e+02 4.814530944824218750e+01 1.462638568878173828e+01 -3.160713016986846924e-01 8.703275322914123535e-01 1.662768721580505371e-01 4.280556365847587585e-02
6.480000000000000000e+02 7.348307800292968750e+01 1.107520198822021484e+01 -1.913794279098510742e-01 8.107364654541015625e+00 2.374795675277709961e+00 -2.996551804244518280e-02
6.490000000000000000e+02 7.247750854492187500e+01 1.122034549713134766e+01 -2.436786293983459473e-01 7.890875816345214844e+00 2.294159173965454102e+00 -9.225013782270252705e-04
6.500000000000000000e+02 6.825476074218750000e+01 1.055948162078857422e+01 -3.626674115657806396e-01 6.910318851470947266e+00 1.964295506477355957e+00 2.350338101387023926e-01
6.510000000000000000e+02 6.604945373535156250e+01 2.176117658615112305e+00 -9.458722919225692749e-02 6.045094966888427734e+00 1.785152435302734375e+00 3.982737064361572266e-01
6.520000000000000000e+02 7.221544647216796875e+01 1.821846365928649902e+00 -5.404313653707504272e-02 7.537875175476074219e+00 2.245149612426757812e+00 2.365705966949462891e-01
6.530000000000000000e+02 1.343619537353515625e+01 -1.064524841308593750e+01 7.486858218908309937e-02 -5.684490203857421875e-01 -1.480741351842880249e-01 -5.867399573326110840e-01
6.540000000000000000e+02 1.995907783508300781e+01 -1.914741897583007812e+01 2.200823575258255005e-01 3.489884361624717712e-02 7.649435847997665405e-02 -3.184604644775390625e-01
6.550000000000000000e+02 6.678493499755859375e+00 -1.680838584899902344e+01 5.935323983430862427e-02 -6.542699337005615234e-01 -1.784750074148178101e-01 -3.551045656204223633e-01
6.560000000000000000e+02 5.206884741783142090e-01 -1.069057941436767578e+01 -5.533896852284669876e-03 -3.595546483993530273e-01 -1.095265597105026245e-01 -4.114275798201560974e-02
6.570000000000000000e+02 1.639463996887207031e+01 -2.392106437683105469e+01 2.013875097036361694e-01 -2.230245769023895264e-01 -6.491121836006641388e-03 -3.182980716228485107e-01
6.580000000000000000e+02 7.450961112976074219e+00 -2.381796264648437500e+01 7.688592374324798584e-02 -7.961588501930236816e-01 -2.157818824052810669e-01 -2.631223201751708984e-01
6.590000000000000000e+02 5.965258479118347168e-01 -1.769471740722656250e+01 4.901937674731016159e-03 -9.200275540351867676e-01 -2.745376825332641602e-01 -4.168776050209999084e-02
6.600000000000000000e+02 1.865486335754394531e+01 -3.326746368408203125e+01 2.406073957681655884e-01 -1.326425224542617798e-01 3.238946199417114258e-02 -2.120193094015121460e-01
6.610000000000000000e+02 2.422716712951660156e+01 -2.621652984619140625e+01 2.421734631061553955e-01 4.076947867870330811e-01 1.949604749679565430e-01 -3.542349636554718018e-01
6.620000000000000000e+02 6.342281699180603027e-01 -2.331940460205078125e+01 2.981946803629398346e-03 -1.254050493240356445e+00 -3.753205537796020508e-01 -3.026551380753517151e-02
6.630000000000000000e+02 2.466319656372070312e+01 -3.086762046813964844e+01 3.255870342254638672e-01 3.681689500808715820e-01 2.081267982721328735e-01 -3.448268771171569824e-01
6.640000000000000000e+02 7.279322147369384766e-01 -3.034065818786621094e+01 -7.152577163651585579e-04 -1.501246333122253418e+00 -4.505884647369384766e-01 -1.561786420643329620e-02
6.650000000000000000e+02 7.359088897705078125e+01 -3.104782295227050781e+01 3.147076070308685303e-02 6.992875576019287109e+00 2.107303857803344727e+00 1.573347747325897217e-01
6.660000000000000000e+02 6.475820922851562500e+01 -3.277556991577148438e+01 1.788963377475738525e-01 5.441466331481933594e+00 1.686108827590942383e+00 2.495326697826385498e-01
6.670000000000000000e+02 7.276089477539062500e+01 -2.425097084045410156e+01 1.200028415769338608e-02 7.007472038269042969e+00 2.105841636657714844e+00 2.240503430366516113e-01
6.680000000000000000e+02 6.757353973388671875e+01 -2.416778945922851562e+01 3.315128013491630554e-02 6.060915946960449219e+00 1.828220129013061523e+00 3.131777048110961914e-01
6.690000000000000000e+02 5.538670349121093750e+01 -2.478202247619628906e+01 -1.016397960484027863e-02 3.831487894058227539e+00 1.146397233009338379e+00 2.994416654109954834e-01
6.700000000000000000e+02 4.507711791992187500e+01 -3.332735443115234375e+01 1.759694963693618774e-01 2.388607978820800781e+00 7.693732380867004395e-01 -1.226798221468925476e-01
6.710000000000000000e+02 7.317633056640625000e+01 -5.855892181396484375e+00 -7.562610553577542305e-04 7.553130149841308594e+00 2.265712261199951172e+00 2.386323660612106323e-01
6.720000000000000000e+02 7.195085144042968750e+01 -1.092441272735595703e+01 1.791936461813747883e-03 7.150945663452148438e+00 2.145821332931518555e+00 2.663498520851135254e-01
6.730000000000000000e+02 6.660582733154296875e+01 -1.522818207740783691e+00 -3.262330591678619385e-02 6.108592033386230469e+00 1.822790741920471191e+00 3.854443132877349854e-01
6.740000000000000000e+02 6.698394012451171875e+01 -1.155915832519531250e+01 1.657255925238132477e-02 6.082615375518798828e+00 1.829756379127502441e+00 3.488584458827972412e-01
6.750000000000000000e+02 6.076560974121093750e+01 -4.419844627380371094e+00 4.019694402813911438e-02 4.688831329345703125e+00 1.418708562850952148e+00 4.111270606517791748e-01
6.760000000000000000e+02 4.792728805541992188e+01 -4.176030635833740234e+00 2.146371454000473022e-01 1.752306818962097168e+00 5.900831818580627441e-01 2.375856637954711914e-01
6.770000000000000000e+02 4.663228607177734375e+01 -1.091350460052490234e+01 2.191877812147140503e-01 1.665567755699157715e+00 5.654266476631164551e-01 8.937294036149978638e-02
6.780000000000000000e+02 4.105245971679687500e+01 -6.046850681304931641e+00 3.572001159191131592e-01 5.065171718597412109e-01 2.591151893138885498e-01 7.570347189903259277e-02
6.790000000000000000e+02 3.605773544311523438e+01 -6.533214569091796875e+00 4.756773710250854492e-01 -1.465439200401306152e-01 9.874003380537033081e-02 -2.028966695070266724e-02
6.800000000000000000e+02 2.269085311889648438e+01 4.090867233276367188e+01 3.005165839567780495e-03 5.661727488040924072e-02 1.788673177361488342e-02 3.484162269160151482e-03
6.810000000000000000e+02 2.431410980224609375e+01 2.865862464904785156e+01 1.387547887861728668e-02 8.238803595304489136e-02 2.887905575335025787e-02 4.095827788114547729e-02
6.820000000000000000e+02 7.509034633636474609e+00 3.100020408630371094e+01 -6.004735827445983887e-03 -4.071616381406784058e-02 -1.401626970618963242e-02 -1.014467980712652206e-02
6.830000000000000000e+02 6.345669746398925781e+00 2.447607612609863281e+01 -6.428916938602924347e-03 -5.394089594483375549e-02 -1.811094395816326141e-02 -1.772952266037464142e-02
6.840000000000000000e+02 1.803104972839355469e+01 1.323276329040527344e+01 6.777688115835189819e-02 1.649860739707946777e-01 6.982888281345367432e-02 1.027681306004524231e-01
6.850000000000000000e+02 1.407090854644775391e+01 2.657076454162597656e+01 -8.242594078183174133e-03 4.188382625579833984e-02 1.009237021207809448e-02 5.907063838094472885e-03
6.860000000000000000e+02 1.252128887176513672e+01 2.508442687988281250e+01 -9.150616824626922607e-03 3.382406011223793030e-02 7.402032613754272461e-03 -1.111827150452882051e-04
6.870000000000000000e+02 2.748017311096191406e+01 2.348512077331542969e+01 4.237041622400283813e-02 9.275201708078384399e-02 4.053673148155212402e-02 6.792245060205459595e-02
6.880000000000000000e+02 2.549693870544433594e+01 2.190545654296875000e+01 4.425397887825965881e-02 1.002638339996337891e-01 4.335534572601318359e-02 7.066199183464050293e-02
6.890000000000000000e+02 3.694998931884765625e+01 2.743985557556152344e+01 5.917622148990631104e-02 7.882285118103027344e-02 4.139972105622291565e-02 6.746412813663482666e-02
6.900000000000000000e+02 7.805721282958984375e+00 2.225412940979003906e+01 -6.862784735858440399e-03 -2.337037771940231323e-02 -9.069948457181453705e-03 -1.810112036764621735e-02
6.910000000000000000e+02 7.585589408874511719e+00 1.658590316772460938e+01 5.442835390567779541e-03 -1.462910603731870651e-02 -2.755881287157535553e-03 -2.164449729025363922e-02
6.920000000000000000e+02 2.001456451416015625e+01 1.409127807617187500e+01 8.033228665590286255e-02 1.469119936227798462e-01 6.817328184843063354e-02 1.069620698690414429e-01
6.930000000000000000e+02 5.198108673095703125e+01 3.271364593505859375e+01 -7.949541807174682617e-01 -9.719405174255371094e-01 -5.300683975219726562e-01 -8.882091641426086426e-01
6.940000000000000000e+02 5.421596908569335938e+01 3.364768218994140625e+01 -8.751320242881774902e-01 8.556835353374481201e-02 -2.368690967559814453e-01 -5.376644730567932129e-01
6.950000000000000000e+02 5.143128967285156250e+01 3.213275527954101562e+01 -1.003776550292968750e+00 -1.160928726196289062e+00 -6.494115591049194336e-01 -1.065641403198242188e+00
6.960000000000000000e+02 5.115324783325195312e+01 3.184723091125488281e+01 -1.086656689643859863e+00 -1.192752957344055176e+00 -6.838228702545166016e-01 -1.122500181198120117e+00
6.970000000000000000e+02 5.170603561401367188e+01 3.242193984985351562e+01 -9.045981764793395996e-01 -1.102648138999938965e+00 -6.021739244461059570e-01 -9.827272295951843262e-01
6.980000000000000000e+02 5.087228393554687500e+01 3.156478691101074219e+01 -1.147558212280273438e+00 -1.199073076248168945e+00 -7.039893865585327148e-01 -1.163704991340637207e+00
6.990000000000000000e+02 5.058925628662109375e+01 3.128426170349121094e+01 -1.192917823791503906e+00 -1.202852606773376465e+00 -7.187311053276062012e-01 -1.187934994697570801e+00
7.000000000000000000e+02 4.916788101196289062e+01 2.989444541931152344e+01 -1.304885387420654297e+00 -1.230082273483276367e+00 -7.604902982711791992e-01 -1.262590408325195312e+00
7.010000000000000000e+02 4.859670257568359375e+01 2.933898162841796875e+01 -1.367262721061706543e+00 -1.225516796112060547e+00 -7.778338789939880371e-01 -1.285551428794860840e+00
7.020000000000000000e+02 4.830706787109375000e+01 2.906358337402343750e+01 -1.387041926383972168e+00 -1.206260561943054199e+00 -7.779907584190368652e-01 -1.284689068794250488e+00
7.030000000000000000e+02 4.801483535766601562e+01 2.879033660888671875e+01 -1.392447829246520996e+00 -1.181405305862426758e+00 -7.721559405326843262e-01 -1.277525424957275391e+00
7.040000000000000000e+02 4.683424377441406250e+01 2.771189117431640625e+01 -1.321685910224914551e+00 -1.125702023506164551e+00 -7.342163324356079102e-01 -1.227015614509582520e+00
7.050000000000000000e+02 4.654038619995117188e+01 2.744227218627929688e+01 -1.291846156120300293e+00 -1.130051374435424805e+00 -7.265692949295043945e-01 -1.218244910240173340e+00
7.060000000000000000e+02 4.624833679199218750e+01 2.717082786560058594e+01 -1.261981248855590820e+00 -1.144133925437927246e+00 -7.218345403671264648e-01 -1.214248418807983398e+00
7.070000000000000000e+02 4.539009857177734375e+01 2.634017944335937500e+01 -1.211157321929931641e+00 -1.256147027015686035e+00 -7.401912808418273926e-01 -1.245088577270507812e+00
7.080000000000000000e+02 4.511102676391601562e+01 2.605683135986328125e+01 -1.234528660774230957e+00 -1.318086624145507812e+00 -7.657846212387084961e-01 -1.279684066772460938e+00
7.090000000000000000e+02 4.309308242797851562e+01 2.412553977966308594e+01 -1.456720709800720215e+00 -1.199589014053344727e+00 -7.968929409980773926e-01 -1.321409702301025391e+00
7.100000000000000000e+02 4.250088119506835938e+01 2.359481239318847656e+01 -1.392862081527709961e+00 -1.174004435539245605e+00 -7.700599431991577148e-01 -1.285738825798034668e+00
7.110000000000000000e+02 4.191703414916992188e+01 2.305788421630859375e+01 -1.376237511634826660e+00 -1.210347414016723633e+00 -7.759754657745361328e-01 -1.291201114654541016e+00
7.120000000000000000e+02 4.162631988525390625e+01 2.278764533996582031e+01 -1.401942253112792969e+00 -1.223262906074523926e+00 -7.875615358352661133e-01 -1.303187131881713867e+00
7.130000000000000000e+02 4.133342361450195312e+01 2.251941108703613281e+01 -1.433848977088928223e+00 -1.209847092628479004e+00 -7.931088209152221680e-01 -1.303074240684509277e+00
7.140000000000000000e+02 4.073713684082031250e+01 2.199650382995605469e+01 -1.399149537086486816e+00 -1.094079256057739258e+00 -7.479686141014099121e-01 -1.234579801559448242e+00
7.150000000000000000e+02 3.985377120971679688e+01 2.120646095275878906e+01 -1.146134138107299805e+00 -1.034626841545104980e+00 -6.542283296585083008e-01 -1.113728165626525879e+00
7.160000000000000000e+02 3.957405471801757812e+01 2.092741203308105469e+01 -1.076550722122192383e+00 -1.069739699363708496e+00 -6.438871026039123535e-01 -1.098851442337036133e+00
7.170000000000000000e+02 3.930253219604492188e+01 2.063935089111328125e+01 -1.019312381744384766e+00 -1.118270516395568848e+00 -6.412748694419860840e-01 -1.096098065376281738e+00
7.180000000000000000e+02 3.934348297119140625e+01 2.003536605834960938e+01 -1.002833008766174316e+00 -1.149010777473449707e+00 -6.455531120300292969e-01 -1.143785715103149414e+00
7.190000000000000000e+02 3.852365875244140625e+01 1.973989486694335938e+01 -9.591610431671142578e-01 -1.342227458953857422e+00 -6.904165148735046387e-01 -1.150501370429992676e+00
7.200000000000000000e+02 3.826848983764648438e+01 1.943342208862304688e+01 -9.748600721359252930e-01 -1.423186182975769043e+00 -7.194138765335083008e-01 -1.189491391181945801e+00
7.210000000000000000e+02 3.903825378417968750e+01 2.034400749206542969e+01 -9.798323512077331543e-01 -1.182780504226684570e+00 -6.487838625907897949e-01 -1.102797865867614746e+00
7.220000000000000000e+02 3.909259033203125000e+01 1.973077392578125000e+01 -1.001378893852233887e+00 -1.193393588066101074e+00 -6.584317684173583984e-01 -1.152951836585998535e+00
7.230000000000000000e+02 3.750005722045898438e+01 1.851110458374023438e+01 -1.116775989532470703e+00 -1.604230523109436035e+00 -8.163019418716430664e-01 -1.324767470359802246e+00
7.240000000000000000e+02 3.724071121215820312e+01 1.820661354064941406e+01 -1.174079418182373047e+00 -1.613214612007141113e+00 -8.361881971359252930e-01 -1.361811518669128418e+00
7.250000000000000000e+02 3.671258163452148438e+01 1.760677337646484375e+01 -1.242170810699462891e+00 -1.567424058914184570e+00 -8.428784608840942383e-01 -1.386895418167114258e+00
7.260000000000000000e+02 3.644486999511718750e+01 1.731054115295410156e+01 -1.254671812057495117e+00 -1.542923212051391602e+00 -8.392785191535949707e-01 -1.383632421493530273e+00
7.270000000000000000e+02 3.697816467285156250e+01 1.790520286560058594e+01 -1.218786478042602539e+00 -1.597368597984313965e+00 -8.448465466499328613e-01 -1.379828691482543945e+00
7.280000000000000000e+02 3.536613464355468750e+01 1.613581085205078125e+01 -1.263774752616882324e+00 -1.494458436965942383e+00 -8.274699449539184570e-01 -1.370641231536865234e+00
7.290000000000000000e+02 3.509622192382812500e+01 1.584309005737304688e+01 -1.252959489822387695e+00 -1.484534502029418945e+00 -8.212481737136840820e-01 -1.368643641471862793e+00
7.300000000000000000e+02 3.482735824584960938e+01 1.554961013793945312e+01 -1.244648098945617676e+00 -1.488320350646972656e+00 -8.198905587196350098e-01 -1.361945748329162598e+00
7.310000000000000000e+02 3.429579925537109375e+01 1.495649147033691406e+01 -1.244882941246032715e+00 -1.535893321037292480e+00 -8.342328667640686035e-01 -1.381211757659912109e+00
7.320000000000000000e+02 3.403257369995117188e+01 1.465590476989746094e+01 -1.279453635215759277e+00 -1.569151401519775391e+00 -8.545814752578735352e-01 -1.414705395698547363e+00
7.330000000000000000e+02 3.376786041259765625e+01 1.435431957244873047e+01 -1.347814083099365234e+00 -1.590246438980102539e+00 -8.814181685447692871e-01 -1.440140485763549805e+00
7.340000000000000000e+02 3.349787902832031250e+01 1.405516433715820312e+01 -1.402589559555053711e+00 -1.559648752212524414e+00 -8.886714577674865723e-01 -1.459883570671081543e+00
7.350000000000000000e+02 3.293568420410156250e+01 1.347824287414550781e+01 -1.393461465835571289e+00 -1.417910575866699219e+00 -8.434116244316101074e-01 -1.410575747489929199e+00
7.360000000000000000e+02 3.096159172058105469e+01 1.103315258026123047e+01 -1.478619694709777832e+00 -1.341511249542236328e+00 -8.460392951965332031e-01 -1.364835977554321289e+00
7.370000000000000000e+02 3.047408866882324219e+01 9.031918525695800781e+00 -1.300175428390502930e+00 -1.153658151626586914e+00 -7.361500859260559082e-01 -1.073843002319335938e+00
7.380000000000000000e+02 3.005926513671875000e+01 9.619835853576660156e+00 -1.431669235229492188e+00 -1.147979259490966797e+00 -7.738945484161376953e-01 -1.234185814857482910e+00
7.390000000000000000e+02 2.895175361633300781e+01 9.638275146484375000e+00 -1.784233689308166504e+00 -1.464687705039978027e+00 -9.746764302253723145e-01 -1.568954825401306152e+00
7.400000000000000000e+02 2.942016601562500000e+01 1.007014751434326172e+01 -1.520111203193664551e+00 -1.078853607177734375e+00 -7.796894311904907227e-01 -1.410298585891723633e+00
7.410000000000000000e+02 2.954653549194335938e+01 9.173819541931152344e+00 -1.633719563484191895e+00 -1.017825722694396973e+00 -7.954635620117187500e-01 -1.024028778076171875e+00
7.420000000000000000e+02 2.844169235229492188e+01 9.054409027099609375e+00 -2.685549974441528320e+00 -1.627367138862609863e+00 -1.293875098228454590e+00 -1.712888360023498535e+00
7.430000000000000000e+02 2.870719528198242188e+01 9.345275878906250000e+00 -1.733152151107788086e+00 -1.524976491928100586e+00 -9.774386286735534668e-01 -1.711266636848449707e+00
7.440000000000000000e+02 2.809104347229003906e+01 8.767459869384765625e+00 -3.308035612106323242e+00 -1.542333602905273438e+00 -1.455110788345336914e+00 -2.140269994735717773e+00
7.450000000000000000e+02 2.771314430236816406e+01 8.554718017578125000e+00 -3.799996614456176758e+00 -1.852204799652099609e+00 -1.695660471916198730e+00 -3.066468000411987305e+00
7.460000000000000000e+02 2.727041435241699219e+01 8.159408569335937500e+00 -4.089362144470214844e+00 -2.580998182296752930e+00 -2.001108169555664062e+00 -3.201803445816040039e+00
7.470000000000000000e+02 2.679916191101074219e+01 7.842544555664062500e+00 -4.429509162902832031e+00 -2.774309396743774414e+00 -2.161145687103271484e+00 -4.102064609527587891e+00
7.480000000000000000e+02 2.632360839843750000e+01 7.528376579284667969e+00 -5.966773509979248047e+00 -3.260875225067138672e+00 -2.768294572830200195e+00 -4.320281028747558594e+00
7.490000000000000000e+02 2.597977066040039062e+01 7.298040390014648438e+00 -6.561554908752441406e+00 -3.414827823638916016e+00 -2.992914915084838867e+00 -4.440375328063964844e+00
7.500000000000000000e+02 2.616590690612792969e+01 7.424558162689208984e+00 -5.753143787384033203e+00 -3.812948226928710938e+00 -2.869827508926391602e+00 -4.624152183532714844e+00
7.510000000000000000e+02 2.648073196411132812e+01 7.650238037109375000e+00 -5.468294143676757812e+00 -3.635998487472534180e+00 -2.731287717819213867e+00 -4.560048103332519531e+00
7.520000000000000000e+02 2.664261054992675781e+01 7.755420207977294922e+00 -5.673674106597900391e+00 -3.687658309936523438e+00 -2.808399677276611328e+00 -4.105698585510253906e+00
7.530000000000000000e+02 2.673066902160644531e+01 7.884767055511474609e+00 -5.141130924224853516e+00 -3.601877450942993164e+00 -2.622902393341064453e+00 -4.485525608062744141e+00
7.540000000000000000e+02 2.691510009765625000e+01 7.947913169860839844e+00 -5.213737010955810547e+00 -3.268306016921997070e+00 -2.544612884521484375e+00 -3.723270416259765625e+00
7.550000000000000000e+02 2.707943534851074219e+01 8.053480148315429688e+00 -4.561103343963623047e+00 -2.919161081314086914e+00 -2.244079351425170898e+00 -3.744237184524536133e+00
7.560000000000000000e+02 2.733045387268066406e+01 8.364109039306640625e+00 -4.580246925354003906e+00 -3.160534381866455078e+00 -2.322234392166137695e+00 -3.709998130798339844e+00
7.570000000000000000e+02 2.755171966552734375e+01 8.395728111267089844e+00 -4.328965187072753906e+00 -2.252882719039916992e+00 -1.974554419517517090e+00 -2.965818166732788086e+00
7.580000000000000000e+02 2.881815528869628906e+01 5.283388137817382812e+00 -2.055544376373291016e+00 -1.355187296867370605e+00 -1.023219585418701172e+00 -1.158142924308776855e+00
7.590000000000000000e+02 2.899788856506347656e+01 5.412872791290283203e+00 -2.028552293777465820e+00 -1.361361145973205566e+00 -1.016973972320556641e+00 -1.140881538391113281e+00
7.600000000000000000e+02 2.655943489074707031e+01 3.947089195251464844e+00 -2.592294931411743164e+00 -9.226192235946655273e-01 -1.054474234580993652e+00 -1.361400365829467773e+00
7.610000000000000000e+02 2.692282867431640625e+01 4.166476726531982422e+00 -2.498803138732910156e+00 -9.920153021812438965e-01 -1.047245502471923828e+00 -1.350821971893310547e+00
7.620000000000000000e+02 2.479406166076660156e+01 2.631523370742797852e+00 -2.779956102371215820e+00 -6.209477186203002930e-01 -1.020271182060241699e+00 -1.253583192825317383e+00
7.630000000000000000e+02 2.191698646545410156e+01 1.116099596023559570e+00 -2.529719352722167969e+00 -6.098971962928771973e-01 -9.418849945068359375e-01 -2.135518074035644531e+00
7.640000000000000000e+02 2.238147544860839844e+01 1.017276048660278320e+00 -2.393153905868530273e+00 -4.154092669486999512e-01 -8.425689339637756348e-01 -1.725969552993774414e+00
7.650000000000000000e+02 2.195409393310546875e+01 9.006713628768920898e-01 -2.469208717346191406e+00 -5.332216620445251465e-01 -9.007291197776794434e-01 -2.094988584518432617e+00
7.660000000000000000e+02 2.074264335632324219e+01 3.987925946712493896e-01 -1.947216749191284180e+00 -1.864375710487365723e+00 -1.143477678298950195e+00 -2.956336736679077148e+00
7.670000000000000000e+02 2.070617294311523438e+01 -5.263745412230491638e-02 -1.889193773269653320e+00 -1.518916726112365723e+00 -1.022433161735534668e+00 -2.955711364746093750e+00
7.680000000000000000e+02 2.001283454895019531e+01 -2.286296486854553223e-01 -1.622495174407958984e+00 -3.912382602691650391e+00 -1.660463333129882812e+00 -2.326257467269897461e+00
7.690000000000000000e+02 1.912585067749023438e+01 -7.266971468925476074e-01 -2.564051628112792969e+00 -2.747190475463867188e+00 -1.593372702598571777e+00 -1.864739060401916504e+00
7.700000000000000000e+02 1.855891227722167969e+01 -9.605353474617004395e-01 -2.223155498504638672e+00 -1.763538837432861328e+00 -1.196008324623107910e+00 -1.589329957962036133e+00
7.710000000000000000e+02 1.825274276733398438e+01 -1.218502163887023926e+00 -2.186634540557861328e+00 -1.550585508346557617e+00 -1.121165990829467773e+00 -1.447244048118591309e+00
7.720000000000000000e+02 1.849457550048828125e+01 -1.432525277137756348e+00 -1.994251251220703125e+00 -2.042560815811157227e+00 -1.211043596267700195e+00 -1.631700873374938965e+00
7.730000000000000000e+02 1.735820579528808594e+01 -1.829147815704345703e+00 -1.985411882400512695e+00 -1.032722353935241699e+00 -9.054402709007263184e-01 -1.078924417495727539e+00
7.740000000000000000e+02 1.759532165527343750e+01 -1.741796612739562988e+00 -2.129723787307739258e+00 -1.216666460037231445e+00 -1.003917098045349121e+00 -1.135464668273925781e+00
7.750000000000000000e+02 1.699665641784667969e+01 -1.981454730033874512e+00 -1.773745417594909668e+00 -8.701453804969787598e-01 -7.931672334671020508e-01 -8.860034346580505371e-01
7.760000000000000000e+02 1.662674522399902344e+01 -2.283933639526367188e+00 -1.583133697509765625e+00 -8.341909646987915039e-01 -7.251974344253540039e-01 -8.417602181434631348e-01
7.770000000000000000e+02 1.715862655639648438e+01 -1.887212872505187988e+00 -1.879407405853271484e+00 -9.445440173149108887e-01 -8.471854329109191895e-01 -1.007467031478881836e+00
7.780000000000000000e+02 1.637112236022949219e+01 -2.414186716079711914e+00 -1.571143507957458496e+00 -7.647246122360229492e-01 -7.007604241371154785e-01 -8.935665488243103027e-01
7.790000000000000000e+02 1.244640636444091797e+01 -2.279227018356323242e+00 -7.805786728858947754e-01 -6.860554218292236328e-02 -2.547552585601806641e-01 -3.031876683235168457e-01
7.800000000000000000e+02 1.324984931945800781e+01 -2.347400426864624023e+00 -9.433353543281555176e-01 -6.679114699363708496e-02 -3.030379414558410645e-01 -3.673639595508575439e-01
7.810000000000000000e+02 1.411659336090087891e+01 -2.390855073928833008e+00 -1.157065033912658691e+00 -1.989306062459945679e-01 -4.067986607551574707e-01 -5.259670615196228027e-01
7.820000000000000000e+02 1.102237510681152344e+01 -2.862825155258178711e+00 -5.689965486526489258e-01 -2.987099811434745789e-02 -1.796602606773376465e-01 -3.015277981758117676e-01
7.830000000000000000e+02 9.476752281188964844e+00 -1.932079076766967773e+00 -3.475100696086883545e-01 -1.023222412914037704e-02 -1.073226928710937500e-01 -1.348052322864532471e-01
7.840000000000000000e+02 8.672154426574707031e+00 -1.923887491226196289e+00 -2.803578078746795654e-01 -1.045261044055223465e-03 -8.442091941833496094e-02 -1.183985248208045959e-01
7.850000000000000000e+02 7.860166549682617188e+00 -1.926392674446105957e+00 -2.163663059473037720e-01 -1.883761025965213776e-02 -7.056117057800292969e-02 -1.047941893339157104e-01
7.860000000000000000e+02 7.045475482940673828e+00 -1.934732556343078613e+00 -1.724714487791061401e-01 -1.242747064679861069e-02 -5.546967685222625732e-02 -9.124974161386489868e-02
7.870000000000000000e+02 5.412614345550537109e+00 -1.959005832672119141e+00 -9.784734994173049927e-02 -1.748333312571048737e-02 -3.459920361638069153e-02 -6.137558072805404663e-02
7.880000000000000000e+02 2.952923536300659180e+00 -2.026650190353393555e+00 -2.953988872468471527e-02 -2.014051377773284912e-02 -1.490412093698978424e-02 -1.929343305528163910e-02
7.890000000000000000e+02 3.129817724227905273e+00 -3.038395404815673828e+00 -5.112217366695404053e-02 -3.764085099101066589e-02 -2.662890776991844177e-02 -4.405957087874412537e-02
7.900000000000000000e+02 2.121313571929931641e+00 -2.080245256423950195e+00 -1.583089679479598999e-02 -1.615999266505241394e-02 -9.597267024219036102e-03 -6.372413598001003265e-03
7.910000000000000000e+02 1.283319830894470215e+00 -2.153074502944946289e+00 -4.689578432589769363e-03 -4.151596687734127045e-03 -2.652352442964911461e-03 3.274278016760945320e-03
7.920000000000000000e+02 4.320833384990692139e-01 -2.199728250503540039e+00 -2.394852926954627037e-03 1.346482802182435989e-02 3.320992691442370415e-03 1.619149115867912769e-03
7.930000000000000000e+02 1.922122836112976074e+00 -4.176552581787109375e+01 -5.168750137090682983e-02 -1.533283710479736328e+00 -4.754913747310638428e-01 1.471001747995615005e-02
7.940000000000000000e+02 1.370976686477661133e+00 -4.036386108398437500e+01 1.262904610484838486e-02 -1.560431838035583496e+00 -4.643408358097076416e-01 3.739643469452857971e-02
7.950000000000000000e+02 1.352912664413452148e+00 -3.896673202514648438e+01 2.815005183219909668e-02 -1.587077856063842773e+00 -4.676783382892608643e-01 1.678271032869815826e-02
7.960000000000000000e+02 9.972072839736938477e-01 -3.458863830566406250e+01 -1.272614346817135811e-03 -1.569261431694030762e+00 -4.711602032184600830e-01 -1.167281344532966614e-02
7.970000000000000000e+02 8.910994529724121094e-01 -3.316639709472656250e+01 1.444635912775993347e-03 -1.551445245742797852e+00 -4.650001823902130127e-01 -1.096884626895189285e-02
7.980000000000000000e+02 6.784692406654357910e-01 -2.892961883544921875e+01 2.642456907778978348e-03 -1.466956019401550293e+00 -4.392940700054168701e-01 -1.740190200507640839e-02
7.990000000000000000e+02 6.519477367401123047e-01 -2.752468299865722656e+01 7.032424909994006157e-04 -1.425165057182312012e+00 -4.273385405540466309e-01 -2.081279270350933075e-02
8.000000000000000000e+02 6.405760049819946289e-01 -2.612354087829589844e+01 1.948401681147515774e-03 -1.375145912170410156e+00 -4.119592607021331787e-01 -2.400988526642322540e-02
8.010000000000000000e+02 6.300083994865417480e-01 -2.191393470764160156e+01 -7.928998675197362900e-04 -1.182187914848327637e+00 -3.548942506313323975e-01 -3.266401588916778564e-02
8.020000000000000000e+02 6.218684911727905273e-01 -2.050742149353027344e+01 4.251558799296617508e-03 -1.103379726409912109e+00 -3.297384679317474365e-01 -3.637724742293357849e-02
8.030000000000000000e+02 1.875085592269897461e+00 -2.034256362915039062e+01 4.944969899952411652e-03 -1.008353471755981445e+00 -3.010225296020507812e-01 -1.068119704723358154e-01
8.040000000000000000e+02 5.818694829940795898e-01 -1.629014778137207031e+01 -3.549645422026515007e-03 -8.161180019378662109e-01 -2.459003031253814697e-01 -4.357239976525306702e-02
8.050000000000000000e+02 5.665755867958068848e-01 -1.488782024383544922e+01 4.822773858904838562e-03 -7.062824368476867676e-01 -2.104378938674926758e-01 -4.485166445374488831e-02
8.060000000000000000e+02 5.515535473823547363e-01 -1.348663902282714844e+01 -4.708719905465841293e-03 -5.909981131553649902e-01 -1.787120401859283447e-01 -4.502276703715324402e-02
8.070000000000000000e+02 1.665147304534912109e+00 -1.341630363464355469e+01 4.404696170240640640e-03 -5.750747323036193848e-01 -1.712010055780410767e-01 -1.320857703685760498e-01
8.080000000000000000e+02 5.058248639106750488e-01 -9.297554969787597656e+00 2.031256677582859993e-03 -2.519434988498687744e-01 -7.497367262840270996e-02 -3.689878806471824646e-02
8.090000000000000000e+02 4.944492280483245850e-01 -7.908785343170166016e+00 -5.797395482659339905e-03 -1.559973508119583130e-01 -4.853842407464981079e-02 -3.043270111083984375e-02
8.100000000000000000e+02 3.939144611358642578e+00 -2.965701341629028320e+00 -6.962887942790985107e-02 -4.398258402943611145e-02 -3.408343717455863953e-02 -6.236437335610389709e-02
8.110000000000000000e+02 4.110537528991699219e+00 -3.918537616729736328e+00 -8.741740882396697998e-02 -6.966980546712875366e-02 -4.712616652250289917e-02 -9.921736270189285278e-02
8.120000000000000000e+02 7.036295318603515625e+01 -3.822235488891601562e+01 1.184086501598358154e-01 6.402828216552734375e+00 1.956371068954467773e+00 8.871612697839736938e-02
8.130000000000000000e+02 5.264823913574218750e+01 -4.100441360473632812e+01 8.481746315956115723e-01 3.336157798767089844e+00 1.255299687385559082e+00 8.385245501995086670e-02
8.140000000000000000e+02 1.223760128021240234e+01 -4.080612182617187500e+01 1.205322220921516418e-01 -6.150978803634643555e-01 -1.483696848154067993e-01 -2.583467029035091400e-02
8.150000000000000000e+02 7.801552581787109375e+01 4.167702102661132812e+01 -4.792039692401885986e-01 5.038812637329101562e+00 1.367882609367370605e+00 1.338989287614822388e-01
8.160000000000000000e+02 7.875674438476562500e+01 4.017984390258789062e+01 1.987938582897186279e-01 4.826973438262939453e+00 1.507730126380920410e+00 3.837602436542510986e-01
8.170000000000000000e+02 7.745943450927734375e+01 3.838122940063476562e+01 2.316634953022003174e-01 5.271255493164062500e+00 1.650875687599182129e+00 5.337170362472534180e-01
8.180000000000000000e+02 7.936148071289062500e+01 3.470586013793945312e+01 1.027100835926830769e-03 3.728128671646118164e+00 1.118746757507324219e+00 -4.490490630269050598e-02
8.190000000000000000e+02 7.834526824951171875e+01 3.313832473754882812e+01 9.790234267711639404e-02 4.802462577819824219e+00 1.470109581947326660e+00 -3.189651966094970703e-01
8.200000000000000000e+02 7.943383789062500000e+01 3.334846496582031250e+01 5.130967870354652405e-02 3.865588665008544922e+00 1.175069451332092285e+00 -9.683347493410110474e-02
8.210000000000000000e+02 7.938571166992187500e+01 3.061591148376464844e+01 2.324391901493072510e-02 4.649088382720947266e+00 1.401699662208557129e+00 -2.370976358652114868e-01
8.220000000000000000e+02 7.715270233154296875e+01 2.745351028442382812e+01 -4.523985087871551514e-03 6.925278663635253906e+00 2.076226234436035156e+00 -1.049394965171813965e+00
8.230000000000000000e+02 7.943567657470703125e+01 2.640675163269042969e+01 -3.742348169907927513e-03 6.416100502014160156e+00 1.923707485198974609e+00 -2.682581543922424316e-01
8.240000000000000000e+02 7.723991394042968750e+01 2.475136375427246094e+01 -9.643016755580902100e-02 7.540899753570556641e+00 2.233340978622436523e+00 -9.310085773468017578e-01
8.250000000000000000e+02 7.944419860839843750e+01 2.501816368103027344e+01 -7.295935880392789841e-03 7.001161098480224609e+00 2.098159551620483398e+00 -2.522144019603729248e-01
8.260000000000000000e+02 7.943158721923828125e+01 2.085544013977050781e+01 -1.024551317095756531e-02 8.397694587707519531e+00 2.516234636306762695e+00 -1.787437051534652710e-01
8.270000000000000000e+02 7.942078399658203125e+01 1.946682167053222656e+01 -9.745259769260883331e-03 8.719092369079589844e+00 2.612804174423217773e+00 -1.526817232370376587e-01
8.280000000000000000e+02 7.709688568115234375e+01 1.933677291870117188e+01 -1.325447708368301392e-01 8.468535423278808594e+00 2.500797271728515625e+00 -5.184360742568969727e-01
8.290000000000000000e+02 7.941007232666015625e+01 1.807805061340332031e+01 -9.481357410550117493e-03 8.972736358642578125e+00 2.688976287841796875e+00 -1.282955408096313477e-01
8.300000000000000000e+02 7.939314270019531250e+01 1.390964794158935547e+01 -8.133373223245143890e-03 9.411806106567382812e+00 2.821101903915405273e+00 -6.843360513448715210e-02
8.310000000000000000e+02 7.939237213134765625e+01 1.251785278320312500e+01 -4.590711556375026703e-03 9.476316452026367188e+00 2.841517686843872070e+00 -5.310408025979995728e-02
8.320000000000000000e+02 7.939169311523437500e+01 1.112692165374755859e+01 -6.571758072823286057e-03 9.510449409484863281e+00 2.851163387298583984e+00 -3.999178111553192139e-02
8.330000000000000000e+02 7.937658691406250000e+01 6.957605361938476562e+00 -2.098506782203912735e-03 9.484108924865722656e+00 2.844603061676025391e+00 -1.349706389009952545e-02
8.340000000000000000e+02 7.936575317382812500e+01 5.564124584197998047e+00 -3.895055735483765602e-03 9.446574211120605469e+00 2.832803726196289062e+00 -6.827689707279205322e-03
8.350000000000000000e+02 7.935295104980468750e+01 4.170467853546142578e+00 -1.052757026627659798e-03 9.399176597595214844e+00 2.819437265396118164e+00 -1.296439557336270809e-03
8.360000000000000000e+02 7.933156585693359375e+01 -4.599481821060180664e-03 -1.587770064361393452e-03 9.227602005004882812e+00 2.767804384231567383e+00 6.921523716300725937e-03
8.370000000000000000e+02 7.933613586425781250e+01 -1.397519230842590332e+00 9.474468242842704058e-06 9.167280197143554688e+00 2.750186920166015625e+00 8.610705845057964325e-03
8.380000000000000000e+02 7.807485198974609375e+01 -4.208106040954589844e+00 -3.394372528418898582e-03 8.738548278808593750e+00 2.620546102523803711e+00 6.938643008470535278e-02
8.390000000000000000e+02 7.935815429687500000e+01 -4.186364173889160156e+00 5.384475807659327984e-04 9.042708396911621094e+00 2.712974071502685547e+00 1.061728969216346741e-02
8.400000000000000000e+02 7.937909698486328125e+01 -8.360254287719726562e+00 -1.760969404131174088e-03 8.851533889770507812e+00 2.654931783676147461e+00 1.257631275802850723e-02
8.410000000000000000e+02 7.813440704345703125e+01 -1.111850547790527344e+01 1.747764326864853501e-04 8.464499473571777344e+00 2.539402484893798828e+00 6.795816868543624878e-02
8.420000000000000000e+02 7.937895202636718750e+01 -1.113781166076660156e+01 -1.573303714394569397e-03 8.725898742675781250e+00 2.617297649383544922e+00 1.402944047003984451e-02
8.430000000000000000e+02 7.937584686279296875e+01 -1.529944705963134766e+01 1.248021144419908524e-03 8.541807174682617188e+00 2.562916517257690430e+00 1.573714055120944977e-02
8.440000000000000000e+02 7.812300872802734375e+01 -1.798711204528808594e+01 -1.543967518955469131e-03 8.187481880187988281e+00 2.455781459808349609e+00 6.753170490264892578e-02
8.450000000000000000e+02 7.937551116943359375e+01 -1.807269668579101562e+01 1.295685884542763233e-03 8.422905921936035156e+00 2.527260303497314453e+00 1.667596213519573212e-02
8.460000000000000000e+02 7.936509704589843750e+01 -2.362730979919433594e+01 6.771182524971663952e-04 8.190354347229003906e+00 2.457309484481811523e+00 1.921533606946468353e-02
8.470000000000000000e+02 7.807812500000000000e+01 -2.488074874877929688e+01 1.364495372399687767e-03 7.922412872314453125e+00 2.377133131027221680e+00 6.751282513141632080e-02
8.480000000000000000e+02 7.936141204833984375e+01 -2.501568412780761719e+01 -1.951333979377523065e-04 8.134655952453613281e+00 2.440338373184204102e+00 1.859734207391738892e-02
8.490000000000000000e+02 7.934542846679687500e+01 -2.918107604980468750e+01 3.729515010491013527e-04 7.985644340515136719e+00 2.395805120468139648e+00 1.683782786130905151e-02
8.500000000000000000e+02 7.796520233154296875e+01 -3.179772567749023438e+01 -1.047016703523695469e-03 7.694388866424560547e+00 2.308002471923828125e+00 5.329029262065887451e-02
8.510000000000000000e+02 7.933087921142578125e+01 -3.196486091613769531e+01 -2.668555593118071556e-03 7.895915031433105469e+00 2.367973804473876953e+00 1.990141347050666809e-02
8.520000000000000000e+02 7.932266998291015625e+01 -3.606814575195312500e+01 7.729216013103723526e-03 7.752789020538330078e+00 2.328155517578125000e+00 2.001823857426643372e-02
8.530000000000000000e+02 7.919440460205078125e+01 -3.738246154785156250e+01 -1.658626087009906769e-02 7.690373420715332031e+00 2.302136182785034180e+00 3.548340126872062683e-02
8.540000000000000000e+02 7.893233489990234375e+01 -3.867720794677734375e+01 3.014733956661075354e-04 7.625927448272705078e+00 2.287868738174438477e+00 4.249409213662147522e-02
8.550000000000000000e+02 7.855102539062500000e+01 -4.003977203369140625e+01 -9.823108091950416565e-03 7.568873405456542969e+00 2.267715215682983398e+00 5.111888423562049866e-02
8.560000000000000000e+02 5.229031562805175781e+00 4.007029342651367188e+01 -3.695347812026739120e-03 -6.642229855060577393e-02 -2.103529311716556549e-02 -6.267031130846589804e-05
8.570000000000000000e+02 6.543822479248046875e+01 3.654153823852539062e+01 -7.036534547805786133e-01 1.743364906311035156e+01 5.018999099731445312e+00 -8.297293186187744141e-01
8.580000000000000000e+02 3.649837374687194824e-01 2.168953895568847656e+00 -1.097366563044488430e-03 -1.396971289068460464e-02 -4.520123824477195740e-03 5.619155243039131165e-03
8.590000000000000000e+02 2.527661085128784180e+00 2.944583415985107422e+00 -2.458341233432292938e-02 -4.839688912034034729e-02 -2.189408987760543823e-02 6.453343480825424194e-02
8.600000000000000000e+02 5.467560291290283203e+00 2.676067352294921875e+00 -7.933153212070465088e-02 -6.729301810264587402e-02 -4.398736357688903809e-02 1.465520113706588745e-01
8.610000000000000000e+02 1.488256216049194336e+00 6.376869201660156250e+00 6.354983430355787277e-03 -1.358896344900131226e-01 -3.886039555072784424e-02 4.320281371474266052e-02
8.620000000000000000e+02 5.047371983528137207e-01 9.227668762207031250e+00 2.048590453341603279e-03 -2.165654599666595459e-01 -6.435506045818328857e-02 6.449893582612276077e-03
8.630000000000000000e+02 5.282253623008728027e-01 1.203071784973144531e+01 1.726559945382177830e-03 -2.316240817308425903e-01 -6.896925717592239380e-02 -6.994126015342772007e-04
8.640000000000000000e+02 1.592061996459960938e+00 1.187741947174072266e+01 4.356717225164175034e-03 -1.917577534914016724e-01 -5.622031167149543762e-02 3.161331987939774990e-04
8.650000000000000000e+02 5.547819137573242188e-01 1.625289916992187500e+01 -8.617030689492821693e-04 -2.078340351581573486e-01 -6.260872632265090942e-02 -4.301663022488355637e-03
8.660000000000000000e+02 1.678649783134460449e+00 1.746418762207031250e+01 -8.198292925953865051e-04 -1.676218360662460327e-01 -5.053250119090080261e-02 -1.229318790137767792e-02
8.670000000000000000e+02 5.566393733024597168e-01 1.766017723083496094e+01 1.015807269141077995e-03 -1.961109787225723267e-01 -5.852855369448661804e-02 -4.860585089772939682e-03
8.680000000000000000e+02 5.596318244934082031e-01 2.187557792663574219e+01 -1.126705785281956196e-03 -1.632235497236251831e-01 -4.930507764220237732e-02 -3.795443335548043251e-03
8.690000000000000000e+02 5.689809918403625488e-01 2.328515052795410156e+01 8.205872145481407642e-04 -1.535598933696746826e-01 -4.582179337739944458e-02 -3.883203724399209023e-03
8.700000000000000000e+02 1.701295137405395508e+00 2.302447891235351562e+01 -1.631822087801992893e-03 -1.358074098825454712e-01 -4.123176634311676025e-02 -1.001524925231933594e-02
8.710000000000000000e+02 5.832714438438415527e-01 2.469960975646972656e+01 -1.049532671459019184e-03 -1.451152116060256958e-01 -4.384942352771759033e-02 -3.153858007863163948e-03
8.720000000000000000e+02 6.072076559066772461e-01 2.894693946838378906e+01 7.546321721747517586e-04 -1.254267543554306030e-01 -3.740163892507553101e-02 -2.454415196552872658e-03
8.730000000000000000e+02 5.971322059631347656e-01 3.034741783142089844e+01 -1.089118653908371925e-03 -1.207827404141426086e-01 -3.656155988574028015e-02 -1.664901385083794594e-03
8.740000000000000000e+02 3.078877210617065430e+00 2.987488937377929688e+01 -1.999781699851155281e-03 -9.468630701303482056e-02 -2.900582738220691681e-02 -8.484486490488052368e-03
8.750000000000000000e+02 5.886808633804321289e-01 3.174121665954589844e+01 8.543903823010623455e-04 -1.165066435933113098e-01 -3.469567745923995972e-02 -1.870259991846978664e-03
8.760000000000000000e+02 7.126609683036804199e-01 3.591048431396484375e+01 -5.645345663651823997e-04 -1.053938493132591248e-01 -3.178751468658447266e-02 -1.645450363866984844e-03
8.770000000000000000e+02 8.330098986625671387e-01 3.727373123168945312e+01 9.898480493575334549e-04 -1.011898741126060486e-01 -3.006000816822052002e-02 -2.553399419412016869e-03
8.780000000000000000e+02 1.039981484413146973e+00 3.863585281372070312e+01 -2.125919127138331532e-04 -9.697575122117996216e-02 -2.915650419890880585e-02 -2.758861286565661430e-03
8.790000000000000000e+02 1.404635310173034668e+00 4.003161621093750000e+01 5.491996998898684978e-04 -9.327294677495956421e-02 -2.781712263822555542e-02 -3.188241273164749146e-03
8.800000000000000000e+02 9.067193031311035156e+00 1.829131960868835449e+00 -2.467557042837142944e-01 -2.167913764715194702e-01 -1.390641182661056519e-01 3.568316698074340820e-01
8.810000000000000000e+02 8.337868690490722656e+00 1.843970417976379395e+00 -2.607678472995758057e-01 -1.251432448625564575e-01 -1.157733276486396790e-01 2.863546907901763916e-01
8.820000000000000000e+02 7.610851287841796875e+00 1.854871392250061035e+00 -2.279178649187088013e-01 -9.179940074682235718e-02 -9.591517597436904907e-02 2.269035577774047852e-01
8.830000000000000000e+02 6.885696887969970703e+00 1.865332722663879395e+00 -1.933908164501190186e-01 -5.937737226486206055e-02 -7.583045959472656250e-02 1.811166107654571533e-01
8.840000000000000000e+02 4.707293033599853516e+00 1.915239691734313965e+00 -9.705895930528640747e-02 -3.379128500819206238e-02 -3.925507515668869019e-02 1.010221093893051147e-01
8.850000000000000000e+02 3.976754426956176758e+00 1.939587593078613281e+00 -7.244613021612167358e-02 -2.668238431215286255e-02 -2.973855473101139069e-02 8.096717298030853271e-02
8.860000000000000000e+02 3.249684572219848633e+00 1.962100505828857422e+00 -5.195447057485580444e-02 -2.745018899440765381e-02 -2.382139861583709717e-02 6.436847895383834839e-02
8.870000000000000000e+02 1.811683654785156250e+00 2.007704496383666992e+00 -2.067301794886589050e-02 -2.789716236293315887e-02 -1.457105390727519989e-02 3.515763580799102783e-02
8.880000000000000000e+02 1.090455055236816406e+00 2.078426837921142578e+00 -7.987325079739093781e-03 -2.550741471350193024e-02 -1.004842203110456467e-02 1.856843009591102600e-02
8.890000000000000000e+02 1.393446826934814453e+01 3.345061302185058594e+00 3.209263980388641357e-01 1.914709925651550293e+00 6.706908941268920898e-01 4.537968337535858154e-01
8.900000000000000000e+02 1.218795967102050781e+01 2.648649215698242188e+00 8.244524002075195312e-01 7.487415522336959839e-02 2.697979509830474854e-01 -2.285989671945571899e-01
8.910000000000000000e+02 1.329789447784423828e+01 2.146765232086181641e+00 1.266071677207946777e+00 1.868517041206359863e+00 9.403766393661499023e-01 -1.011454343795776367e+00
8.920000000000000000e+02 1.458077907562255859e+01 1.087080001831054688e+00 5.410071372985839844e+00 2.503556251525878906e+00 2.374088287353515625e+00 -3.134471178054809570e+00
8.930000000000000000e+02 1.507588672637939453e+01 8.764064908027648926e-01 9.430974006652832031e+00 1.019506454467773438e+00 3.135144233703613281e+00 -2.543884277343750000e+00
8.940000000000000000e+02 1.377468490600585938e+01 2.535634040832519531e+00 3.641083538532257080e-01 3.128945589065551758e+00 1.047916173934936523e+00 -3.577283024787902832e-01
8.950000000000000000e+02 1.435653114318847656e+01 4.052744388580322266e+00 4.211291074752807617e-01 8.359149098396301270e-01 3.771131932735443115e-01 4.899951815605163574e-01
8.960000000000000000e+02 1.517978382110595703e+01 4.982859611511230469e+00 1.903992295265197754e-01 3.170758485794067383e-01 1.522425264120101929e-01 2.731861472129821777e-01
8.970000000000000000e+02 1.459111309051513672e+01 5.293733119964599609e+00 1.641975492238998413e-01 5.131600499153137207e-01 2.032072693109512329e-01 2.778914570808410645e-01
8.980000000000000000e+02 1.608790969848632812e+01 5.858036518096923828e+00 2.321924716234207153e-01 3.263342976570129395e-01 1.675580292940139771e-01 2.551634907722473145e-01
8.990000000000000000e+02 1.580139636993408203e+01 5.578043460845947266e+00 1.993214637041091919e-01 3.366364240646362305e-01 1.607873737812042236e-01 2.534510195255279541e-01
9.000000000000000000e+02 1.665877914428710938e+01 6.407770156860351562e+00 2.238671183586120605e-01 2.319882661104202271e-01 1.367566138505935669e-01 2.202654927968978882e-01
9.010000000000000000e+02 1.774788284301757812e+01 7.546676635742187500e+00 1.630866229534149170e-01 2.002582699060440063e-01 1.090034618973731995e-01 1.791225522756576538e-01
9.020000000000000000e+02 1.852749443054199219e+01 8.476524353027343750e+00 1.728765517473220825e-01 1.988111585378646851e-01 1.115063130855560303e-01 1.828279048204421997e-01
9.030000000000000000e+02 1.884891510009765625e+01 9.342509269714355469e+00 1.493117809295654297e-01 1.827055960893630981e-01 9.960521012544631958e-02 1.583002954721450806e-01
9.040000000000000000e+02 1.882744026184082031e+01 8.759317398071289062e+00 1.802709400653839111e-01 1.889110207557678223e-01 1.107545942068099976e-01 1.772522330284118652e-01
9.050000000000000000e+02 1.913535308837890625e+01 9.029920578002929688e+00 1.755407750606536865e-01 1.676173806190490723e-01 1.029474437236785889e-01 1.696691960096359253e-01
9.060000000000000000e+02 1.944111061096191406e+01 9.295089721679687500e+00 1.643343567848205566e-01 1.508407294750213623e-01 9.455252438783645630e-02 1.559762805700302124e-01
9.070000000000000000e+02 1.915284347534179688e+01 1.017271709442138672e+01 1.263915747404098511e-01 1.687941402196884155e-01 8.855571597814559937e-02 1.523019373416900635e-01
9.080000000000000000e+02 1.973894119262695312e+01 9.561546325683593750e+00 1.462330967187881470e-01 1.392704695463180542e-01 8.565106987953186035e-02 1.473510265350341797e-01
9.090000000000000000e+02 2.002617454528808594e+01 9.834144592285156250e+00 1.345395147800445557e-01 1.410274803638458252e-01 8.267010003328323364e-02 1.401511877775192261e-01
9.100000000000000000e+02 2.030412673950195312e+01 1.011601352691650391e+01 1.279455274343490601e-01 1.467302888631820679e-01 8.240274339914321899e-02 1.408579647541046143e-01
9.110000000000000000e+02 2.057631111145019531e+01 1.040523719787597656e+01 1.307735741138458252e-01 1.559362113475799561e-01 8.601292967796325684e-02 1.420534849166870117e-01
9.120000000000000000e+02 1.973067283630371094e+01 1.013433647155761719e+01 1.327842622995376587e-01 1.522328853607177734e-01 8.550514280796051025e-02 1.510451734066009521e-01
9.130000000000000000e+02 2.112398719787597656e+01 1.098498916625976562e+01 1.396099328994750977e-01 1.547043025493621826e-01 8.829426765441894531e-02 1.441908478736877441e-01
9.140000000000000000e+02 2.168601226806640625e+01 1.155098724365234375e+01 1.321066468954086304e-01 1.399443894624710083e-01 8.161531388759613037e-02 1.356639266014099121e-01
9.150000000000000000e+02 2.196531486511230469e+01 1.183411884307861328e+01 1.250132322311401367e-01 1.365844607353210449e-01 7.847930490970611572e-02 1.325930207967758179e-01
9.160000000000000000e+02 2.251266860961914062e+01 1.241246318817138672e+01 1.211786568164825439e-01 1.404549479484558105e-01 7.849007844924926758e-02 1.313031911849975586e-01
9.170000000000000000e+02 2.305641555786132812e+01 1.299972248077392578e+01 1.268182545900344849e-01 1.406805068254470825e-01 8.024962991476058960e-02 1.326750069856643677e-01
9.180000000000000000e+02 2.333182334899902344e+01 1.329165744781494141e+01 1.300526708364486694e-01 1.369909495115280151e-01 8.011308312416076660e-02 1.313445717096328735e-01
9.190000000000000000e+02 2.361032295227050781e+01 1.358086776733398438e+01 1.308715492486953735e-01 1.307545155286788940e-01 7.848782092332839966e-02 1.294016987085342407e-01
9.200000000000000000e+02 2.389214897155761719e+01 1.386666393280029297e+01 1.307864189147949219e-01 1.237754151225090027e-01 7.636855542659759521e-02 1.251608133316040039e-01
9.210000000000000000e+02 2.446363449096679688e+01 1.443161964416503906e+01 1.203544065356254578e-01 1.085113883018493652e-01 6.865973770618438721e-02 1.141751483082771301e-01
9.220000000000000000e+02 2.503434371948242188e+01 1.500586891174316406e+01 1.049242243170738220e-01 1.022291481494903564e-01 6.214601173996925354e-02 1.055554524064064026e-01
9.230000000000000000e+02 2.561332702636718750e+01 1.558376502990722656e+01 9.838089346885681152e-02 1.063682883977890015e-01 6.142475455999374390e-02 1.035781949758529663e-01
9.240000000000000000e+02 2.591678619384765625e+01 1.586172103881835938e+01 9.816776216030120850e-02 1.090368479490280151e-01 6.216138228774070740e-02 1.040669605135917664e-01
9.250000000000000000e+02 2.531871986389160156e+01 1.529860782623291016e+01 1.001453623175621033e-01 1.033731848001480103e-01 6.105556339025497437e-02 1.040788516402244568e-01
9.260000000000000000e+02 2.650338554382324219e+01 1.642587661743164062e+01 1.010183170437812805e-01 1.099549904465675354e-01 6.329199671745300293e-02 1.049170941114425659e-01
9.270000000000000000e+02 2.707291793823242188e+01 1.700300407409667969e+01 1.034746095538139343e-01 1.051766350865364075e-01 6.259537488222122192e-02 1.034683734178543091e-01
9.280000000000000000e+02 2.736082839965820312e+01 1.728787422180175781e+01 1.034472063183784485e-01 1.013598293066024780e-01 6.144211068749427795e-02 1.011511087417602539e-01
9.290000000000000000e+02 2.765326690673828125e+01 1.756305122375488281e+01 1.017221435904502869e-01 9.650043398141860962e-02 5.946677550673484802e-02 9.868931770324707031e-02
9.300000000000000000e+02 2.825031852722167969e+01 1.809670257568359375e+01 9.624445438385009766e-02 8.922585844993591309e-02 5.564109608530998230e-02 9.296780079603195190e-02
9.310000000000000000e+02 2.795059013366699219e+01 1.783087921142578125e+01 9.937231987714767456e-02 9.271448850631713867e-02 5.762604251503944397e-02 9.550268948078155518e-02
9.320000000000000000e+02 2.854856491088867188e+01 1.836299324035644531e+01 9.360326826572418213e-02 8.723793923854827881e-02 5.425236374139785767e-02 9.023375809192657471e-02
9.330000000000000000e+02 2.942082405090332031e+01 1.917420578002929688e+01 8.621504157781600952e-02 8.227205276489257812e-02 5.054612830281257629e-02 8.456015586853027344e-02
9.340000000000000000e+02 2.970512390136718750e+01 1.944988822937011719e+01 8.388604968786239624e-02 8.131686598062515259e-02 4.956087470054626465e-02 8.280745893716812134e-02
9.350000000000000000e+02 2.998727798461914062e+01 1.972830772399902344e+01 8.165640383958816528e-02 8.055143803358078003e-02 4.866235330700874329e-02 8.151841163635253906e-02
9.360000000000000000e+02 3.189967536926269531e+01 2.174001312255859375e+01 6.357850879430770874e-02 6.435986608266830444e-02 3.838151320815086365e-02 6.723693758249282837e-02
9.370000000000000000e+02 3.248886871337890625e+01 2.234841537475585938e+01 5.510590597987174988e-02 7.021426409482955933e-02 3.759605064988136292e-02 6.379751116037368774e-02
9.380000000000000000e+02 3.277769851684570312e+01 2.263470077514648438e+01 5.488217249512672424e-02 7.430057227611541748e-02 3.875482454895973206e-02 6.517825275659561157e-02
9.390000000000000000e+02 3.305710601806640625e+01 2.292489814758300781e+01 5.714455619454383850e-02 7.853560894727706909e-02 4.070404917001724243e-02 6.630603969097137451e-02
9.400000000000000000e+02 3.217526626586914062e+01 2.206497192382812500e+01 5.734717100858688354e-02 6.574714928865432739e-02 3.692829608917236328e-02 6.539475172758102417e-02
9.410000000000000000e+02 3.210062026977539062e+01 2.282964706420898438e+01 5.865653976798057556e-02 7.161474227905273438e-02 3.908138722181320190e-02 6.918430328369140625e-02
9.420000000000000000e+02 3.361130905151367188e+01 2.350370979309082031e+01 5.853985622525215149e-02 7.669875770807266235e-02 4.057158529758453369e-02 6.659358739852905273e-02
9.430000000000000000e+02 3.388603973388671875e+01 2.378693008422851562e+01 5.622946098446846008e-02 7.435517758131027222e-02 3.917539119720458984e-02 6.545170396566390991e-02
9.440000000000000000e+02 3.441946029663085938e+01 2.436623573303222656e+01 5.300696194171905518e-02 7.694828510284423828e-02 3.898657485842704773e-02 6.461741030216217041e-02
9.450000000000000000e+02 3.467415618896484375e+01 2.466758537292480469e+01 5.478756874799728394e-02 8.019827306270599365e-02 4.049575328826904297e-02 6.580820679664611816e-02
9.460000000000000000e+02 3.492468261718750000e+01 2.497306632995605469e+01 5.748138949275016785e-02 8.077009022235870361e-02 4.147544503211975098e-02 6.757769733667373657e-02
9.470000000000000000e+02 3.517509078979492188e+01 2.527955818176269531e+01 5.953772738575935364e-02 7.839684188365936279e-02 4.138037189841270447e-02 6.714037805795669556e-02
9.480000000000000000e+02 3.567446899414062500e+01 2.589890098571777344e+01 5.509963259100914001e-02 7.153728604316711426e-02 3.799107670783996582e-02 6.312180310487747192e-02
9.490000000000000000e+02 3.592098617553710938e+01 2.621034049987792969e+01 5.163585394620895386e-02 7.120700180530548096e-02 3.685285523533821106e-02 6.218805909156799316e-02
9.500000000000000000e+02 3.644031143188476562e+01 2.681797409057617188e+01 5.203837901353836060e-02 7.715031504631042480e-02 3.875660896301269531e-02 6.392461806535720825e-02
9.510000000000000000e+02 3.669800186157226562e+01 2.712729072570800781e+01 5.623847991228103638e-02 7.980933785438537598e-02 4.081434383988380432e-02 6.541163474321365356e-02
9.520000000000000000e+02 3.745248031616210938e+01 2.807249450683593750e+01 6.189423426985740662e-02 7.211026549339294434e-02 4.020134732127189636e-02 6.643886864185333252e-02
9.530000000000000000e+02 3.720091629028320312e+01 2.775444602966308594e+01 6.226604804396629333e-02 7.630824297666549683e-02 4.157228767871856689e-02 6.680086255073547363e-02
9.540000000000000000e+02 3.801658630371093750e+01 2.874369239807128906e+01 6.146407127380371094e-02 6.507432460784912109e-02 3.796152025461196899e-02 6.292213499546051025e-02
9.550000000000000000e+02 3.770649337768554688e+01 2.842085838317871094e+01 6.260272860527038574e-02 6.905686110258102417e-02 3.949787467718124390e-02 6.373747438192367554e-02
9.560000000000000000e+02 3.979006958007812500e+01 3.030223274230957031e+01 6.253059953451156616e-02 5.785508081316947937e-02 3.611570596694946289e-02 5.944455042481422424e-02
9.570000000000000000e+02 4.008795928955078125e+01 3.056637763977050781e+01 6.319136917591094971e-02 5.564152821898460388e-02 3.564986959099769592e-02 5.852365493774414062e-02
9.580000000000000000e+02 4.094214630126953125e+01 3.141844940185546875e+01 6.152660027146339417e-02 4.954750835895538330e-02 3.332223370671272278e-02 5.503162741661071777e-02
9.590000000000000000e+02 4.053692245483398438e+01 3.176780128479003906e+01 6.228658929467201233e-02 5.254236608743667603e-02 3.444868698716163635e-02 5.509446561336517334e-02
9.600000000000000000e+02 4.154166030883789062e+01 3.197454452514648438e+01 6.120385974645614624e-02 4.793167486786842346e-02 3.274066001176834106e-02 5.510245636105537415e-02
9.610000000000000000e+02 4.185624313354492188e+01 3.223684310913085938e+01 6.333908438682556152e-02 4.869849234819412231e-02 3.361127153038978577e-02 5.338592454791069031e-02
9.620000000000000000e+02 4.217662048339843750e+01 3.249016952514648438e+01 6.384934484958648682e-02 4.637588933110237122e-02 3.306756913661956787e-02 5.505174770951271057e-02
9.630000000000000000e+02 4.249935913085937500e+01 3.273804473876953125e+01 6.476588547229766846e-02 4.718540236353874207e-02 3.358538448810577393e-02 5.436993017792701721e-02
9.640000000000000000e+02 4.282122802734375000e+01 3.298530578613281250e+01 6.768742948770523071e-02 4.567635059356689453e-02 3.400913253426551819e-02 5.405566096305847168e-02
9.650000000000000000e+02 4.345094680786132812e+01 3.348678588867187500e+01 6.966556608676910400e-02 4.454063996672630310e-02 3.426185995340347290e-02 5.373378098011016846e-02
9.660000000000000000e+02 4.408426284790039062e+01 3.397098159790039062e+01 7.110254466533660889e-02 4.387096315622329712e-02 3.449205309152603149e-02 5.513517931103706360e-02
9.670000000000000000e+02 4.313781356811523438e+01 3.323585891723632812e+01 6.755965948104858398e-02 4.377099499106407166e-02 3.339919447898864746e-02 5.527643859386444092e-02
9.680000000000000000e+02 4.475196075439453125e+01 3.496158599853515625e+01 8.396212756633758545e-02 4.390957206487655640e-02 3.836151212453842163e-02 5.952183529734611511e-02
9.690000000000000000e+02 4.502084350585937500e+01 3.469738769531250000e+01 8.190563321113586426e-02 4.567417874932289124e-02 3.827394545078277588e-02 5.937030911445617676e-02
9.700000000000000000e+02 4.656503677368164062e+01 3.727579116821289062e+01 1.412846595048904419e-01 3.163093701004981995e-02 5.187467858195304871e-02 5.480076372623443604e-02
9.710000000000000000e+02 4.823388290405273438e+01 3.721767425537109375e+01 2.094575017690658569e-01 2.566912770271301270e-02 7.053798437118530273e-02 9.235814213752746582e-02
9.720000000000000000e+02 5.019979476928710938e+01 3.781835174560546875e+01 2.532733082771301270e-01 1.371324434876441956e-02 8.009596914052963257e-02 1.114933192729949951e-01
9.730000000000000000e+02 5.011049270629882812e+01 3.826849365234375000e+01 2.074578553438186646e-01 -1.744743436574935913e-02 5.700312927365303040e-02 6.956217437982559204e-02
9.740000000000000000e+02 5.070541000366210938e+01 3.835066986083984375e+01 2.777365744113922119e-01 4.819058626890182495e-02 9.777814894914627075e-02 1.011593565344810486e-01
9.750000000000000000e+02 5.091019821166992188e+01 3.802159500122070312e+01 2.239087074995040894e-01 4.206839948892593384e-02 7.979313284158706665e-02 1.400125324726104736e-01
9.760000000000000000e+02 5.381377029418945312e+01 3.785067367553710938e+01 -5.378603339195251465e-01 -2.082210063934326172e+00 -7.860210537910461426e-01 6.880450248718261719e-01
9.770000000000000000e+02 5.679635620117187500e+01 3.779642868041992188e+01 2.417251840233802795e-02 -1.208074484020471573e-02 3.627532394602894783e-03 8.205269575119018555e-01
9.780000000000000000e+02 5.837408065795898438e+01 3.684116744995117188e+01 -4.426185488700866699e-01 5.479295924305915833e-02 -1.163476705551147461e-01 4.879273772239685059e-01
9.790000000000000000e+02 5.905259323120117188e+01 3.670098495483398438e+01 -3.254462778568267822e-01 1.660962104797363281e-01 -4.780501872301101685e-02 1.905300170183181763e-01
9.800000000000000000e+02 6.029428100585937500e+01 3.663398742675781250e+01 -9.123699739575386047e-03 1.079892158508300781e+00 3.212305307388305664e-01 -2.968550920486450195e-01
9.810000000000000000e+02 6.090007019042968750e+01 3.637468719482421875e+01 2.874571084976196289e-01 1.048349738121032715e+00 4.007420539855957031e-01 -8.654302954673767090e-01
9.820000000000000000e+02 6.146969604492187500e+01 3.620588302612304688e+01 6.383805871009826660e-01 1.278921008110046387e+00 5.751904845237731934e-01 -1.277219295501708984e+00
9.830000000000000000e+02 6.166902542114257812e+01 3.682106399536132812e+01 9.852710962295532227e-01 2.263096809387207031e+00 9.745103716850280762e-01 -2.010808467864990234e+00
9.840000000000000000e+02 6.317459869384765625e+01 3.582220077514648438e+01 2.216928482055664062e+00 5.061171054840087891e+00 2.183429956436157227e+00 -4.606260776519775391e+00
9.850000000000000000e+02 6.299423980712890625e+01 3.584954071044921875e+01 2.034253835678100586e+00 4.139123916625976562e+00 1.852013230323791504e+00 -3.968036174774169922e+00
9.860000000000000000e+02 6.397813034057617188e+01 3.577342987060546875e+01 1.457123756408691406e+00 1.156012248992919922e+01 3.905173778533935547e+00 -5.739595413208007812e+00
9.870000000000000000e+02 6.534706115722656250e+01 3.556271743774414062e+01 1.324880480766296387e+00 2.104017639160156250e+01 6.709517002105712891e+00 6.174184083938598633e-01
9.880000000000000000e+02 6.600636291503906250e+01 3.493104553222656250e+01 6.784702777862548828e+00 1.840430450439453125e+01 7.556702136993408203e+00 3.108016729354858398e+00
9.890000000000000000e+02 6.618891906738281250e+01 3.408224105834960938e+01 9.946867942810058594e+00 1.658688735961914062e+01 7.960126399993896484e+00 4.293829202651977539e-01
9.900000000000000000e+02 6.575553131103515625e+01 3.286548614501953125e+01 4.375046253204345703e+00 1.948327445983886719e+01 7.157496452331542969e+00 -1.751137375831604004e+00
9.910000000000000000e+02 6.245981216430664062e+01 3.264297103881835938e+01 2.400023221969604492e+00 1.867864489555358887e+00 1.280366301536560059e+00 2.998952865600585938e+00
9.920000000000000000e+02 6.161608123779296875e+01 3.264211654663085938e+01 1.108595013618469238e+00 8.497039675712585449e-01 5.874897241592407227e-01 1.539013028144836426e+00
9.930000000000000000e+02 5.791602706909179688e+01 3.304934692382812500e+01 -1.152391076087951660e+00 1.736553311347961426e-01 -2.936207354068756104e-01 -2.682016491889953613e-01
9.940000000000000000e+02 5.920402145385742188e+01 3.288966751098632812e+01 -9.272163510322570801e-01 1.451233476400375366e-01 -2.346279025077819824e-01 9.385242126882076263e-03
9.950000000000000000e+02 6.039338684082031250e+01 3.274118804931640625e+01 -2.762347161769866943e-01 3.460489809513092041e-01 2.094428241252899170e-02 4.562129676342010498e-01
9.960000000000000000e+02 5.564044189453125000e+01 3.332286071777343750e+01 -1.088412046432495117e+00 2.245159894227981567e-01 -2.591688036918640137e-01 -5.201316475868225098e-01
9.970000000000000000e+02 5.226999664306640625e+01 3.300966644287109375e+01 -6.992177963256835938e-01 -7.982998490333557129e-01 -4.492553174495697021e-01 -7.754365205764770508e-01
9.980000000000000000e+02 2.451801109313964844e+01 -3.125964641571044922e+00 1.547068119049072266e+00 1.065539479255676270e+00 7.837823033332824707e-01 -1.173573613166809082e+00
9.990000000000000000e+02 2.835618782043457031e+01 -7.298293113708496094e+00 5.687268376350402832e-01 3.965394794940948486e-01 2.895798981189727783e-01 -4.351019859313964844e-01
1.000000000000000000e+03 3.003799247741699219e+01 -7.811391830444335938e+00 5.139951705932617188e-01 -3.348822519183158875e-02 1.441520750522613525e-01 -2.559915184974670410e-01
1.001000000000000000e+03 2.919309997558593750e+01 -8.376990318298339844e+00 2.874662578105926514e-01 2.271463274955749512e-01 1.543837785720825195e-01 -2.851707339286804199e-01
1.002000000000000000e+03 3.155341148376464844e+01 -1.004765510559082031e+01 2.328377515077590942e-01 -1.647719144821166992e-01 2.041975222527980804e-02 -8.973187208175659180e-02
1.003000000000000000e+03 3.354360198974609375e+01 -1.536365127563476562e+01 -1.200273707509040833e-01 -4.211353063583374023e-01 -1.623488068580627441e-01 2.248280197381973267e-01
1.004000000000000000e+03 3.495186996459960938e+01 -1.773230361938476562e+01 -1.438572108745574951e-01 -4.516935050487518311e-01 -1.786652207374572754e-01 2.623131573200225830e-01
1.005000000000000000e+03 3.633796691894531250e+01 -2.012231254577636719e+01 -1.557936370372772217e-01 -4.430876374244689941e-01 -1.796643733978271484e-01 2.669038474559783936e-01
1.006000000000000000e+03 3.766265487670898438e+01 -2.253701972961425781e+01 -1.315467655658721924e-01 -3.355260193347930908e-01 -1.401218324899673462e-01 2.292799949645996094e-01
1.007000000000000000e+03 3.906261062622070312e+01 -2.489455032348632812e+01 -1.272113919258117676e-01 -2.025332450866699219e-01 -9.892339259386062622e-02 1.789411753416061401e-01
1.008000000000000000e+03 4.052757263183593750e+01 -2.224645423889160156e+01 -8.732160925865173340e-02 3.562336862087249756e-01 8.067362010478973389e-02 3.903695940971374512e-02
1.009000000000000000e+03 4.225371932983398438e+01 -2.761585426330566406e+01 -8.342316746711730957e-02 6.424231529235839844e-01 1.677000075578689575e-01 -6.133238971233367920e-02
1.010000000000000000e+03 4.195736694335937500e+01 -2.955651855468750000e+01 4.948356654495000839e-03 3.949750661849975586e-01 1.199770197272300720e-01 -9.436511993408203125e-02
1.011000000000000000e+03 4.336555099487304688e+01 -3.186614990234375000e+01 1.188449934124946594e-01 1.107059001922607422e+00 3.677711784839630127e-01 -3.623657524585723877e-01
1.012000000000000000e+03 4.395875549316406250e+01 -3.294636154174804688e+01 1.816455423831939697e-01 1.931736469268798828e+00 6.340146064758300781e-01 -4.490248262882232666e-01
1.013000000000000000e+03 4.497222900390625000e+01 -3.610919952392578125e+01 2.065293341875076294e-01 3.406991481781005859e+00 1.084056258201599121e+00 2.138849943876266479e-01
1.014000000000000000e+03 3.820962524414062500e+01 -3.875540924072265625e+01 1.451867938041687012e+00 5.870702266693115234e-01 6.116814613342285156e-01 -8.408357501029968262e-01
1.015000000000000000e+03 3.650564956665039062e+01 -3.671888351440429688e+01 5.937281847000122070e-01 6.184670925140380859e-01 3.636585772037506104e-01 -6.851342916488647461e-01
1.016000000000000000e+03 3.450151062011718750e+01 -3.474072265625000000e+01 6.254832744598388672e-01 6.540865898132324219e-01 3.838709592819213867e-01 -6.267483234405517578e-01
1.017000000000000000e+03 3.366231536865234375e+01 -3.363447570800781250e+01 6.010568737983703613e-01 7.371857762336730957e-01 4.014728069305419922e-01 -6.064222455024719238e-01
1.018000000000000000e+03 3.053333473205566406e+01 -2.907482528686523438e+01 2.983413338661193848e-01 9.334808588027954102e-01 3.695466518402099609e-01 -4.965517818927764893e-01
1.019000000000000000e+03 3.118062973022460938e+01 -3.032930755615234375e+01 3.654989302158355713e-01 9.726513624191284180e-01 4.014450907707214355e-01 -5.667110681533813477e-01
1.020000000000000000e+03 2.691744232177734375e+01 -2.157883071899414062e+01 1.886317878961563110e-01 6.954135298728942871e-01 2.652136087417602539e-01 -3.682324588298797607e-01
1.021000000000000000e+03 2.503396415710449219e+01 -2.100690078735351562e+01 1.970125585794448853e-01 5.197256207466125488e-01 2.150214612483978271e-01 -3.525235652923583984e-01
1.022000000000000000e+03 2.752187538146972656e+01 -2.281339263916015625e+01 1.932786405086517334e-01 7.391930222511291504e-01 2.797414958477020264e-01 -3.826012313365936279e-01
1.023000000000000000e+03 2.503875923156738281e+01 -1.791533851623535156e+01 1.904860585927963257e-01 5.413380861282348633e-01 2.195472419261932373e-01 -3.218274414539337158e-01
1.024000000000000000e+03 2.284548568725585938e+01 -1.439210700988769531e+01 1.955672502517700195e-01 4.122343957424163818e-01 1.823404878377914429e-01 -3.054717183113098145e-01
1.025000000000000000e+03 2.083971786499023438e+01 -1.072692584991455078e+01 1.598013341426849365e-01 1.310359835624694824e-01 8.725119382143020630e-02 -1.374305337667465210e-01
1.026000000000000000e+03 2.027272415161132812e+01 -9.462956428527832031e+00 4.165822267532348633e-02 -9.470170736312866211e-02 -1.591304503381252289e-02 -1.109891906380653381e-01
1.027000000000000000e+03 1.784062385559082031e+01 -2.835508346557617188e+00 -1.393591761589050293e+00 -1.512268424034118652e+00 -8.717580437660217285e-01 -1.206786036491394043e+00
1.028000000000000000e+03 4.483318710327148438e+01 2.577171897888183594e+01 -1.289216279983520508e+00 -1.374276757240295410e+00 -7.990478873252868652e-01 -1.323824048042297363e+00
1.029000000000000000e+03 4.455340957641601562e+01 2.548716163635253906e+01 -1.364707469940185547e+00 -1.401608467102050781e+00 -8.298947811126708984e-01 -1.365885853767395020e+00
1.030000000000000000e+03 4.426920700073242188e+01 2.520603752136230469e+01 -1.436051487922668457e+00 -1.386457800865173340e+00 -8.467527627944946289e-01 -1.389927983283996582e+00
1.031000000000000000e+03 4.368623352050781250e+01 2.465878677368164062e+01 -1.491466522216796875e+00 -1.282773613929748535e+00 -8.322720527648925781e-01 -1.371562242507934570e+00
1.032000000000000000e+03 3.153148269653320312e+01 1.206673431396484375e+01 -1.477311849594116211e+00 -1.561880111694335938e+00 -9.117575883865356445e-01 -1.477847695350646973e+00
1.033000000000000000e+03 6.557996368408203125e+01 3.269316482543945312e+01 3.182292461395263672e+00 1.986391067504882812e+01 6.913861274719238281e+00 -9.708873033523559570e-01
1.034000000000000000e+03 6.505036163330078125e+01 3.201811599731445312e+01 3.943178057670593262e-01 1.765001487731933594e+01 5.413300037384033203e+00 2.649097204208374023e+00
1.035000000000000000e+03 6.469879150390625000e+01 3.239720916748046875e+01 7.875539064407348633e-01 1.837019157409667969e+01 5.747323513031005859e+00 4.347679615020751953e+00
1.036000000000000000e+03 6.607122039794921875e+01 3.471543884277343750e+01 8.148726463317871094e+00 1.786139106750488281e+01 7.803035259246826172e+00 2.887820482254028320e+00
1.037000000000000000e+03 6.637962341308593750e+01 3.311830902099609375e+01 6.335193634033203125e+00 1.654569435119628906e+01 6.864266395568847656e+00 -2.037329196929931641e+00
1.038000000000000000e+03 6.536598968505859375e+01 3.257410049438476562e+01 2.086531162261962891e+00 2.034445190429687500e+01 6.729294776916503906e+00 2.139423042535781860e-01
1.039000000000000000e+03 6.617757415771484375e+01 3.386841964721679688e+01 9.762945175170898438e+00 1.666698265075683594e+01 7.928978443145751953e+00 -4.285666644573211670e-01
1.040000000000000000e+03 6.614251708984375000e+01 3.365775299072265625e+01 9.202246665954589844e+00 1.717483711242675781e+01 7.913125038146972656e+00 -1.422312498092651367e+00
1.041000000000000000e+03 6.592147064208984375e+01 3.516666030883789062e+01 4.862537860870361328e+00 1.916950607299804688e+01 7.209613323211669922e+00 2.942716121673583984e+00
1.042000000000000000e+03 6.588149261474609375e+01 3.306480407714843750e+01 5.937079429626464844e+00 1.908045387268066406e+01 7.505259990692138672e+00 -2.293747901916503906e+00
1.043000000000000000e+03 6.652926635742187500e+01 3.361463928222656250e+01 7.860134124755859375e+00 1.545920085906982422e+01 6.995800495147705078e+00 -1.069682240486145020e+00
1.044000000000000000e+03 6.513417816162109375e+01 3.564811325073242188e+01 5.607288479804992676e-01 2.082119941711425781e+01 6.414578437805175781e+00 -8.227388262748718262e-01
1.045000000000000000e+03 6.612210083007812500e+01 3.450529861450195312e+01 9.075582504272460938e+00 1.727067565917968750e+01 7.903877258300781250e+00 2.239196538925170898e+00
1.046000000000000000e+03 6.616645812988281250e+01 3.429531097412109375e+01 9.948128700256347656e+00 1.672635269165039062e+01 8.002344131469726562e+00 1.420723199844360352e+00
1.047000000000000000e+03 6.576155853271484375e+01 3.534096145629882812e+01 3.657980203628540039e+00 1.973771095275878906e+01 7.018707275390625000e+00 2.603118181228637695e+00
1.048000000000000000e+03 6.599337005615234375e+01 3.325520324707031250e+01 7.313489437103271484e+00 1.836135101318359375e+01 7.702451705932617188e+00 -2.309028625488281250e+00
1.049000000000000000e+03 6.487542724609375000e+01 3.181264686584472656e+01 2.821519970893859863e-01 1.642134284973144531e+01 5.011048793792724609e+00 3.271525144577026367e+00
1.050000000000000000e+03 6.558871459960937500e+01 3.213662338256835938e+01 1.277740597724914551e+00 1.810221290588378906e+01 5.813986301422119141e+00 1.868501752614974976e-01
1.051000000000000000e+03 6.492855834960937500e+01 3.241474533081054688e+01 9.362633824348449707e-01 1.936680030822753906e+01 6.090919017791748047e+00 2.919752120971679688e+00
1.052000000000000000e+03 6.412479400634765625e+01 3.594631958007812500e+01 6.670090556144714355e-01 1.314561462402343750e+01 4.143786907196044922e+00 -5.423392772674560547e+00
1.053000000000000000e+03 6.462439727783203125e+01 3.589572143554687500e+01 -1.476064622402191162e-01 1.748601341247558594e+01 5.201522350311279297e+00 -3.827454566955566406e+00
1.054000000000000000e+03 6.075310134887695312e+01 3.766963577270507812e+01 7.532460093498229980e-01 2.300498008728027344e+00 9.161232113838195801e-01 -1.380624890327453613e+00
1.055000000000000000e+03 6.203940582275390625e+01 3.599840164184570312e+01 1.224025964736938477e+00 1.762994289398193359e+00 8.961060643196105957e-01 -1.991759777069091797e+00
1.056000000000000000e+03 6.358627319335937500e+01 3.581529617309570312e+01 2.041857242584228516e+00 7.668601512908935547e+00 2.913137674331665039e+00 -5.449710369110107422e+00
1.057000000000000000e+03 6.338247299194335938e+01 3.583866119384765625e+01 2.131783485412597656e+00 6.256337642669677734e+00 2.516436338424682617e+00 -5.092944622039794922e+00
1.058000000000000000e+03 6.435791015625000000e+01 3.573587417602539062e+01 4.784414172172546387e-01 1.638516807556152344e+01 5.059082984924316406e+00 -5.448905944824218750e+00
1.059000000000000000e+03 6.262012863159179688e+01 3.588344955444335938e+01 1.669875264167785645e+00 2.621231794357299805e+00 1.287332057952880859e+00 -2.865543603897094727e+00
1.060000000000000000e+03 2.934095573425292969e+01 5.368564605712890625e+00 -1.958226799964904785e+00 -1.204887151718139648e+00 -9.489341974258422852e-01 -1.050109624862670898e+00
1.061000000000000000e+03 2.952759742736816406e+01 5.794486522674560547e+00 -2.002019166946411133e+00 -1.165258884429931641e+00 -9.501833915710449219e-01 -1.116856813430786133e+00
1.062000000000000000e+03 2.808118629455566406e+01 4.932845115661621094e+00 -2.238018989562988281e+00 -1.301336884498596191e+00 -1.061806797981262207e+00 -1.331865429878234863e+00
1.063000000000000000e+03 2.834836196899414062e+01 4.775181770324707031e+00 -2.118210792541503906e+00 -1.217026591300964355e+00 -1.000571131706237793e+00 -1.177402257919311523e+00
1.064000000000000000e+03 2.774294471740722656e+01 4.748069286346435547e+00 -2.336253643035888672e+00 -1.203069806098937988e+00 -1.061797022819519043e+00 -1.372953891754150391e+00
1.065000000000000000e+03 2.622534942626953125e+01 3.622455835342407227e+00 -2.598538160324096680e+00 -8.196846842765808105e-01 -1.025466799736022949e+00 -1.302329540252685547e+00
1.066000000000000000e+03 2.088653564453125000e+01 2.585970759391784668e-01 -1.684595227241516113e+00 -1.373730182647705078e+00 -9.174976348876953125e-01 -2.807469129562377930e+00
1.067000000000000000e+03 2.160379219055175781e+01 9.511898756027221680e-01 -2.397545576095581055e+00 -7.606353759765625000e-01 -9.474543333053588867e-01 -2.424386024475097656e+00
1.068000000000000000e+03 2.101620864868164062e+01 -8.713497519493103027e-01 -5.029765963554382324e-01 -4.949763417243957520e-01 -2.993858754634857178e-01 -1.589688897132873535e+00
1.069000000000000000e+03 1.933118057250976562e+01 -5.046789646148681641e-01 -2.430245399475097656e+00 -2.778151750564575195e+00 -1.562519192695617676e+00 -1.684913039207458496e+00
1.070000000000000000e+03 1.976436233520507812e+01 -3.641924560070037842e-01 -2.114168882369995117e+00 -3.153476953506469727e+00 -1.580293774604797363e+00 -2.042914390563964844e+00
1.071000000000000000e+03 1.925089645385742188e+01 -9.904940724372863770e-01 -2.354573249816894531e+00 -3.128726482391357422e+00 -1.644989848136901855e+00 -2.205399274826049805e+00
1.072000000000000000e+03 1.990038871765136719e+01 -7.618739604949951172e-01 -4.413012027740478516e+00 -4.407639026641845703e+00 -2.646195411682128906e+00 -3.073677062988281250e+00
1.073000000000000000e+03 1.842518043518066406e+01 -1.090052127838134766e+00 -2.191613197326660156e+00 -1.514953255653381348e+00 -1.111969947814941406e+00 -1.498543500900268555e+00
1.074000000000000000e+03 1.925460052490234375e+01 -2.669621706008911133e+00 -6.064807176589965820e-01 -4.066732883453369141e+00 -1.401964068412780762e+00 -1.393219947814941406e+00
1.075000000000000000e+03 2.742853546142578125e+01 4.517959117889404297e+00 -2.409131050109863281e+00 -1.111131310462951660e+00 -1.056078672409057617e+00 -1.367355585098266602e+00
1.076000000000000000e+03 2.228424453735351562e+01 1.291700482368469238e+00 -2.686941146850585938e+00 -4.646484851837158203e-01 -9.454768896102905273e-01 -1.903233647346496582e+00
1.077000000000000000e+03 2.174504852294921875e+01 1.043830513954162598e+00 -2.593848705291748047e+00 -7.981877923011779785e-01 -1.017610907554626465e+00 -2.179357051849365234e+00
1.078000000000000000e+03 2.342133903503417969e+01 -2.253266811370849609e+00 1.697698473930358887e+00 1.216747164726257324e+00 8.743336796760559082e-01 -1.639693498611450195e+00
1.079000000000000000e+03 2.933211135864257812e+01 5.676153182983398438e+00 -1.975518584251403809e+00 -1.258192539215087891e+00 -9.701133370399475098e-01 -1.133579492568969727e+00
1.080000000000000000e+03 2.862077331542968750e+01 5.194416522979736328e+00 -2.128407478332519531e+00 -1.359755396842956543e+00 -1.046448826789855957e+00 -1.226000070571899414e+00
1.081000000000000000e+03 2.873583030700683594e+01 4.866187095642089844e+00 -1.977165460586547852e+00 -1.236492037773132324e+00 -9.640972614288330078e-01 -1.072276830673217773e+00
1.082000000000000000e+03 2.897719001770019531e+01 4.922202110290527344e+00 -1.963102459907531738e+00 -1.188862204551696777e+00 -9.455894231796264648e-01 -1.027537941932678223e+00
1.083000000000000000e+03 2.825551033020019531e+01 5.022156238555908203e+00 -2.212273120880126953e+00 -1.341963529586791992e+00 -1.066271066665649414e+00 -1.311656832695007324e+00
1.084000000000000000e+03 2.850602722167968750e+01 4.576732158660888672e+00 -1.986102581024169922e+00 -1.162866950035095215e+00 -9.446908831596374512e-01 -1.056270003318786621e+00
1.085000000000000000e+03 2.674421119689941406e+01 4.050157546997070312e+00 -2.540208816528320312e+00 -9.451532363891601562e-01 -1.045608639717102051e+00 -1.349228024482727051e+00
1.086000000000000000e+03 2.593467521667480469e+01 3.546326160430908203e+00 -2.682789087295532227e+00 -8.199888467788696289e-01 -1.050833344459533691e+00 -1.327152371406555176e+00
1.087000000000000000e+03 2.625729560852050781e+01 3.183818101882934570e+00 -2.392976999282836914e+00 -7.314850091934204102e-01 -9.373385906219482422e-01 -1.108221650123596191e+00
1.088000000000000000e+03 2.597462081909179688e+01 2.832257747650146484e+00 -2.341052770614624023e+00 -6.485844254493713379e-01 -8.968911767005920410e-01 -1.028893828392028809e+00
1.089000000000000000e+03 2.501800537109375000e+01 3.022690534591674805e+00 -2.855626106262207031e+00 -6.949243545532226562e-01 -1.065165162086486816e+00 -1.357439517974853516e+00
1.090000000000000000e+03 2.409306526184082031e+01 2.175226211547851562e+00 -2.777189254760742188e+00 -5.257411003112792969e-01 -9.908791184425354004e-01 -1.243046402931213379e+00
1.091000000000000000e+03 2.365621757507324219e+01 1.722862720489501953e+00 -2.674729347229003906e+00 -3.924130797386169434e-01 -9.201427102088928223e-01 -1.268864512443542480e+00
1.092000000000000000e+03 2.382095336914062500e+01 2.292680025100708008e+00 -2.992530345916748047e+00 -6.280940175056457520e-01 -1.086187362670898438e+00 -1.431908845901489258e+00
1.093000000000000000e+03 2.132410812377929688e+01 6.775925159454345703e-01 -2.216048955917358398e+00 -7.492399215698242188e-01 -8.895866870880126953e-01 -2.817737102508544922e+00
1.094000000000000000e+03 2.113526153564453125e+01 5.389564633369445801e-01 -2.074148654937744141e+00 -1.479456782341003418e+00 -1.066081643104553223e+00 -2.864365339279174805e+00
1.095000000000000000e+03 1.807717514038085938e+01 -1.336142778396606445e+00 -2.119294404983520508e+00 -1.249815702438354492e+00 -1.010733008384704590e+00 -1.307204246520996094e+00
1.096000000000000000e+03 1.790566253662109375e+01 -1.445875883102416992e+00 -2.201862812042236328e+00 -1.243520975112915039e+00 -1.033615112304687500e+00 -1.321645379066467285e+00
1.097000000000000000e+03 1.835787773132324219e+01 -2.046744108200073242e+00 -2.100378751754760742e+00 -2.212779045104980469e+00 -1.293947339057922363e+00 -1.630461096763610840e+00
1.098000000000000000e+03 1.782266998291015625e+01 -2.214375495910644531e+00 -1.800237178802490234e+00 -1.575304269790649414e+00 -1.012662410736083984e+00 -1.251569867134094238e+00
1.099000000000000000e+03 2.512199592590332031e+01 2.815028429031372070e+00 -2.743905305862426758e+00 -6.469808816909790039e-01 -1.017265915870666504e+00 -1.221648693084716797e+00
1.100000000000000000e+03 2.399364852905273438e+01 2.388148784637451172e+00 -2.933591127395629883e+00 -5.951856970787048340e-01 -1.058632969856262207e+00 -1.424701333045959473e+00
1.101000000000000000e+03 1.825503540039062500e+01 -3.925412178039550781e+00 -4.958178699016571045e-01 -2.101353645324707031e+00 -7.791514992713928223e-01 -8.684011101722717285e-01
1.102000000000000000e+03 6.096697235107421875e+01 3.266056442260742188e+01 3.075529932975769043e-01 4.930049180984497070e-01 2.401673644781112671e-01 9.265206456184387207e-01
1.103000000000000000e+03 6.360916519165039062e+01 3.221318435668945312e+01 2.658853054046630859e+00 8.779456138610839844e+00 3.431492567062377930e+00 6.291718006134033203e+00
1.104000000000000000e+03 6.205976867675781250e+01 3.265398788452148438e+01 1.774006009101867676e+00 1.276338338851928711e+00 9.151033163070678711e-01 2.216283559799194336e+00
1.105000000000000000e+03 6.138350296020507812e+01 3.264913177490234375e+01 7.873021960258483887e-01 6.193502545356750488e-01 4.219957292079925537e-01 1.287533283233642578e+00
1.106000000000000000e+03 6.183453750610351562e+01 3.262520599365234375e+01 1.403043985366821289e+00 1.016159534454345703e+00 7.257610559463500977e-01 1.837851285934448242e+00
1.107000000000000000e+03 6.325619125366210938e+01 3.254932403564453125e+01 3.527771949768066406e+00 5.458392143249511719e+00 2.695849180221557617e+00 5.658868789672851562e+00
1.108000000000000000e+03 6.265740585327148438e+01 3.262129592895507812e+01 2.752381086349487305e+00 2.443368434906005859e+00 1.558724880218505859e+00 3.526272773742675781e+00
1.109000000000000000e+03 5.218181228637695312e+01 3.966635131835937500e+01 4.562393203377723694e-02 -2.372733354568481445e-01 -5.749481916427612305e-02 4.101986587047576904e-01
1.110000000000000000e+03 5.306831359863281250e+01 3.877607727050781250e+01 -7.839511036872863770e-01 -6.211840510368347168e-01 -4.215405583381652832e-01 6.525035500526428223e-01
1.111000000000000000e+03 5.400886535644531250e+01 3.835680389404296875e+01 -6.518802046775817871e-01 -1.257738947868347168e+00 -5.728857517242431641e-01 5.549405217170715332e-01
1.112000000000000000e+03 5.340493774414062500e+01 3.853169250488281250e+01 -1.044448018074035645e+00 -1.274408936500549316e+00 -6.956571340560913086e-01 9.848386645317077637e-01
1.113000000000000000e+03 5.337146377563476562e+01 3.913591384887695312e+01 -1.144098676741123199e-02 -1.051003575325012207e+00 -3.187333643436431885e-01 5.295000672340393066e-01
1.114000000000000000e+03 3.096524047851562500e+01 1.152173328399658203e+01 -1.614696741104125977e+00 -1.410781860351562500e+00 -9.076436161994934082e-01 -1.465865135192871094e+00
1.115000000000000000e+03 5.193301391601562500e+01 3.201221466064453125e+01 -9.631922841072082520e-01 -8.061166405677795410e-01 -5.307926535606384277e-01 -8.717883229255676270e-01
1.116000000000000000e+03 3.321187591552734375e+01 1.316430759429931641e+01 -1.292844176292419434e+00 -1.428220391273498535e+00 -8.163193464279174805e-01 -1.344815969467163086e+00
1.117000000000000000e+03 3.264834594726562500e+01 1.319629287719726562e+01 -1.343159198760986328e+00 -1.386430859565734863e+00 -8.188770413398742676e-01 -1.369875550270080566e+00
1.118000000000000000e+03 3.234322357177734375e+01 1.230810642242431641e+01 -1.342278003692626953e+00 -1.372874975204467773e+00 -8.145458698272705078e-01 -1.370623111724853516e+00
1.119000000000000000e+03 3.984345245361328125e+01 2.063993072509765625e+01 -1.052581667900085449e+00 -1.081488609313964844e+00 -6.402210593223571777e-01 -1.136358976364135742e+00
1.120000000000000000e+03 5.163573837280273438e+01 3.175291824340820312e+01 -1.008683443069458008e+00 -9.121878147125244141e-01 -5.762614011764526367e-01 -9.331566691398620605e-01
1.121000000000000000e+03 4.010344696044921875e+01 2.092587089538574219e+01 -1.097938656806945801e+00 -1.066504716873168945e+00 -6.493330001831054688e-01 -1.142426490783691406e+00
1.122000000000000000e+03 4.043780517578125000e+01 2.173840713500976562e+01 -1.321744918823242188e+00 -1.043303132057189941e+00 -7.095144391059875488e-01 -1.184110045433044434e+00
1.123000000000000000e+03 2.976284790039062500e+01 1.026202011108398438e+01 -1.509373068809509277e+00 -1.228167653083801270e+00 -8.212622404098510742e-01 -1.297290325164794922e+00
1.124000000000000000e+03 3.013522529602050781e+01 1.057138538360595703e+01 -1.475272297859191895e+00 -1.188313364982604980e+00 -7.990756630897521973e-01 -1.346732378005981445e+00
1.125000000000000000e+03 5.385107040405273438e+01 3.233690261840820312e+01 -9.056690931320190430e-01 3.150562196969985962e-02 -2.622490525245666504e-01 -6.622661352157592773e-01
1.126000000000000000e+03 4.397980117797851562e+01 2.493002510070800781e+01 -1.478900194168090820e+00 -1.337928891181945801e+00 -8.450487256050109863e-01 -1.389463663101196289e+00
1.127000000000000000e+03 4.444918823242187500e+01 2.490073585510253906e+01 -1.350058436393737793e+00 -1.260310173034667969e+00 -7.831106185913085938e-01 -1.258452057838439941e+00
1.128000000000000000e+03 4.037525939941406250e+01 2.119876480102539062e+01 -1.148725986480712891e+00 -1.067817568778991699e+00 -6.649630665779113770e-01 -1.156253457069396973e+00
1.129000000000000000e+03 3.801308059692382812e+01 1.912568283081054688e+01 -1.009369850158691406e+00 -1.500682115554809570e+00 -7.530156373977661133e-01 -1.231927514076232910e+00
1.130000000000000000e+03 5.134241485595703125e+01 3.148917388916015625e+01 -1.051003813743591309e+00 -9.772177338600158691e-01 -6.084664463996887207e-01 -9.888297915458679199e-01
1.131000000000000000e+03 4.123857116699218750e+01 2.197110176086425781e+01 -1.296270012855529785e+00 -1.137026667594909668e+00 -7.299889922142028809e-01 -1.195176601409912109e+00
1.132000000000000000e+03 4.103673553466796875e+01 2.225566864013671875e+01 -1.439641594886779785e+00 -1.159273147583007812e+00 -7.796744108200073242e-01 -1.280139803886413574e+00
1.133000000000000000e+03 3.291525650024414062e+01 1.287973308563232422e+01 -1.280182838439941406e+00 -1.392419099807739258e+00 -8.017805814743041992e-01 -1.364372730255126953e+00
1.134000000000000000e+03 3.379622650146484375e+01 1.314932537078857422e+01 -1.243855834007263184e+00 -1.380591750144958496e+00 -7.873342633247375488e-01 -1.268714427947998047e+00
1.135000000000000000e+03 2.997371864318847656e+01 8.512270927429199219e+00 -1.149074435234069824e+00 -1.226256608963012695e+00 -7.125993371009826660e-01 -8.517040014266967773e-01
1.136000000000000000e+03 4.339017868041992188e+01 2.439117622375488281e+01 -1.481071949005126953e+00 -1.234429717063903809e+00 -8.146504759788513184e-01 -1.346870899200439453e+00
1.137000000000000000e+03 4.415737152099609375e+01 2.462690353393554688e+01 -1.364673733711242676e+00 -1.249628305435180664e+00 -7.842906117439270020e-01 -1.265923380851745605e+00
1.138000000000000000e+03 4.182258605957031250e+01 2.249632072448730469e+01 -1.333145618438720703e+00 -1.148873567581176758e+00 -7.446057200431823730e-01 -1.222057938575744629e+00
1.139000000000000000e+03 3.883367156982421875e+01 1.942922592163085938e+01 -1.007869839668273926e+00 -1.244691610336303711e+00 -6.757684350013732910e-01 -1.167662382125854492e+00
1.140000000000000000e+03 4.531098175048828125e+01 2.572894477844238281e+01 -1.245007991790771484e+00 -1.193000316619873047e+00 -7.314025163650512695e-01 -1.223107099533081055e+00
1.141000000000000000e+03 5.329787063598632812e+01 3.338880538940429688e+01 -7.725222706794738770e-01 -2.158471345901489258e-01 -2.965108156204223633e-01 -6.089506149291992188e-01
1.142000000000000000e+03 5.254074478149414062e+01 3.335911560058593750e+01 -6.189752817153930664e-01 -6.504943370819091797e-01 -3.808408677577972412e-01 -6.577469706535339355e-01
1.143000000000000000e+03 4.559630203247070312e+01 2.600345993041992188e+01 -1.211200356483459473e+00 -1.159428238868713379e+00 -7.111885547637939453e-01 -1.208063840866088867e+00
1.144000000000000000e+03 3.481956863403320312e+01 1.499329853057861328e+01 -1.226254582405090332e+00 -1.449627399444580078e+00 -8.027645945549011230e-01 -1.338818430900573730e+00
1.145000000000000000e+03 3.456040573120117188e+01 1.525438499450683594e+01 -1.231420636177062988e+00 -1.499517083168029785e+00 -8.192813396453857422e-01 -1.369190812110900879e+00
1.146000000000000000e+03 3.262741470336914062e+01 1.259209823608398438e+01 -1.309244871139526367e+00 -1.383502364158630371e+00 -8.078241944313049316e-01 -1.361908078193664551e+00
1.147000000000000000e+03 4.609057998657226562e+01 2.593228721618652344e+01 -1.158740520477294922e+00 -1.041458010673522949e+00 -6.600595712661743164e-01 -1.132263183593750000e+00
1.148000000000000000e+03 5.030469512939453125e+01 3.100532150268554688e+01 -1.223179101943969727e+00 -1.198497533798217773e+00 -7.265030145645141602e-01 -1.207103729248046875e+00
1.149000000000000000e+03 5.105152511596679688e+01 3.122273063659667969e+01 -1.090597748756408691e+00 -1.023138165473937988e+00 -6.341208219528198242e-01 -1.031900405883789062e+00
1.150000000000000000e+03 3.775711059570312500e+01 1.881785392761230469e+01 -1.056352019309997559e+00 -1.562029480934143066e+00 -7.855144739151000977e-01 -1.280429363250732422e+00
1.151000000000000000e+03 3.617593383789062500e+01 1.701573181152343750e+01 -1.257628679275512695e+00 -1.522955656051635742e+00 -8.341752886772155762e-01 -1.382117033004760742e+00
1.152000000000000000e+03 3.722255706787109375e+01 1.763800811767578125e+01 -1.170878767967224121e+00 -1.490221500396728516e+00 -7.983300685882568359e-01 -1.290026068687438965e+00
1.153000000000000000e+03 4.734184646606445312e+01 2.763181304931640625e+01 -1.234370827674865723e+00 -1.070729255676269531e+00 -6.915299892425537109e-01 -1.161621212959289551e+00
1.154000000000000000e+03 3.829584121704101562e+01 1.883088874816894531e+01 -1.052545189857482910e+00 -1.359898686408996582e+00 -7.237331271171569824e-01 -1.205819010734558105e+00
1.155000000000000000e+03 4.298194885253906250e+01 2.355636405944824219e+01 -1.333206772804260254e+00 -1.154251337051391602e+00 -7.462374567985534668e-01 -1.249312400817871094e+00
1.156000000000000000e+03 4.220793533325195312e+01 2.332743072509765625e+01 -1.371934890747070312e+00 -1.186263799667358398e+00 -7.674596309661865234e-01 -1.283203005790710449e+00
1.157000000000000000e+03 4.386389541625976562e+01 2.435578727722167969e+01 -1.367458105087280273e+00 -1.224325656890869141e+00 -7.775351405143737793e-01 -1.267230391502380371e+00
1.158000000000000000e+03 4.646365737915039062e+01 2.681863594055175781e+01 -1.192470908164978027e+00 -1.086455106735229492e+00 -6.836777925491333008e-01 -1.169632315635681152e+00
1.159000000000000000e+03 5.001958084106445312e+01 3.072764778137207031e+01 -1.244006872177124023e+00 -1.201875686645507812e+00 -7.337647676467895508e-01 -1.219006776809692383e+00
1.160000000000000000e+03 5.076226806640625000e+01 3.095335578918457031e+01 -1.122537732124328613e+00 -1.046910762786865234e+00 -6.508345007896423340e-01 -1.068174719810485840e+00
1.161000000000000000e+03 2.914503479003906250e+01 9.917041778564453125e+00 -1.539132118225097656e+00 -1.452417373657226562e+00 -8.974648118019104004e-01 -1.470685482025146484e+00
1.162000000000000000e+03 3.590634155273437500e+01 1.672182083129882812e+01 -1.263040423393249512e+00 -1.513082861900329590e+00 -8.328369855880737305e-01 -1.377496480941772461e+00
1.163000000000000000e+03 3.695548629760742188e+01 1.734152221679687500e+01 -1.187678933143615723e+00 -1.488258004188537598e+00 -8.027811050415039062e-01 -1.302875399589538574e+00
1.164000000000000000e+03 4.279624176025390625e+01 2.386045265197753906e+01 -1.424932956695556641e+00 -1.178681969642639160e+00 -7.810844779014587402e-01 -1.300298213958740234e+00
1.165000000000000000e+03 4.269026565551757812e+01 2.329225730895996094e+01 -1.322767257690429688e+00 -1.144125819206237793e+00 -7.400678992271423340e-01 -1.245540499687194824e+00
1.166000000000000000e+03 4.712936019897460938e+01 2.798048973083496094e+01 -1.349137306213378906e+00 -1.130105018615722656e+00 -7.437726855278015137e-01 -1.238765954971313477e+00
1.167000000000000000e+03 4.211182022094726562e+01 2.276232147216796875e+01 -1.328412055969238281e+00 -1.143620610237121582e+00 -7.416098117828369141e-01 -1.233542561531066895e+00
1.168000000000000000e+03 3.205135345458984375e+01 1.203909873962402344e+01 -1.402021884918212891e+00 -1.403582334518432617e+00 -8.416812419891357422e-01 -1.356965303421020508e+00
1.169000000000000000e+03 4.973503112792968750e+01 3.045053482055664062e+01 -1.258846044540405273e+00 -1.205515027046203613e+00 -7.393082976341247559e-01 -1.231957554817199707e+00
1.170000000000000000e+03 5.047413253784179688e+01 3.068202018737792969e+01 -1.147889614105224609e+00 -1.067237019538879395e+00 -6.645379662513732910e-01 -1.094560742378234863e+00
1.171000000000000000e+03 4.065731430053710938e+01 2.146002197265625000e+01 -1.203712821006774902e+00 -1.085660696029663086e+00 -6.868120431900024414e-01 -1.170197129249572754e+00
1.172000000000000000e+03 4.870891189575195312e+01 2.842998504638671875e+01 -1.171146035194396973e+00 -1.002580285072326660e+00 -6.521179080009460449e-01 -1.064560055732727051e+00
1.173000000000000000e+03 4.772076416015625000e+01 2.851901435852050781e+01 -1.386609673500061035e+00 -1.160096406936645508e+00 -7.640118002891540527e-01 -1.265429615974426270e+00
1.174000000000000000e+03 3.856671905517578125e+01 1.912952804565429688e+01 -1.026159286499023438e+00 -1.303090572357177734e+00 -6.987749934196472168e-01 -1.183708429336547852e+00
1.175000000000000000e+03 4.588302230834960938e+01 2.627650070190429688e+01 -1.190919637680053711e+00 -1.129797458648681641e+00 -6.962151527404785156e-01 -1.192196726799011230e+00
1.176000000000000000e+03 4.502579498291015625e+01 2.545325279235839844e+01 -1.286032795906066895e+00 -1.226209878921508789e+00 -7.536727786064147949e-01 -1.236819148063659668e+00
1.177000000000000000e+03 4.356965637207031250e+01 2.408749008178710938e+01 -1.360956311225891113e+00 -1.196472764015197754e+00 -7.672287821769714355e-01 -1.262633562088012695e+00
1.178000000000000000e+03 3.403976821899414062e+01 1.408267784118652344e+01 -1.307724356651306152e+00 -1.462705373764038086e+00 -8.311289548873901367e-01 -1.347845435142517090e+00
1.179000000000000000e+03 3.429988861083984375e+01 1.439166641235351562e+01 -1.285024762153625488e+00 -1.463055372238159180e+00 -8.244240283966064453e-01 -1.347871184349060059e+00
1.180000000000000000e+03 3.563632202148437500e+01 1.642857742309570312e+01 -1.262703776359558105e+00 -1.501248836517333984e+00 -8.291857838630676270e-01 -1.377077102661132812e+00
1.181000000000000000e+03 3.668760299682617188e+01 1.704600143432617188e+01 -1.196885824203491211e+00 -1.476254463195800781e+00 -8.019421100616455078e-01 -1.314085721969604492e+00
1.182000000000000000e+03 4.888341522216796875e+01 2.961625289916992188e+01 -1.337361931800842285e+00 -1.234614849090576172e+00 -7.715930342674255371e-01 -1.276782274246215820e+00
1.183000000000000000e+03 4.704913711547851562e+01 2.736003112792968750e+01 -1.219020605087280273e+00 -1.070240139961242676e+00 -6.867782473564147949e-01 -1.161876320838928223e+00
1.184000000000000000e+03 4.792679977416992188e+01 2.818379020690917969e+01 -1.261783003807067871e+00 -1.083785295486450195e+00 -7.036705017089843750e-01 -1.165220260620117188e+00
1.185000000000000000e+03 5.018827438354492188e+01 3.040991973876953125e+01 -1.169469356536865234e+00 -1.077621221542358398e+00 -6.741272211074829102e-01 -1.117376089096069336e+00
1.186000000000000000e+03 3.043425559997558594e+01 1.091489219665527344e+01 -1.522655010223388672e+00 -1.246810674667358398e+00 -8.308396935462951660e-01 -1.347143292427062988e+00
1.187000000000000000e+03 4.675638580322265625e+01 2.708926773071289062e+01 -1.203908562660217285e+00 -1.075196504592895508e+00 -6.837315559387207031e-01 -1.164555788040161133e+00
1.188000000000000000e+03 3.615030288696289062e+01 1.645826148986816406e+01 -1.210093140602111816e+00 -1.455758452415466309e+00 -7.997555136680603027e-01 -1.321323156356811523e+00
1.189000000000000000e+03 3.588169479370117188e+01 1.616575431823730469e+01 -1.215317487716674805e+00 -1.451306343078613281e+00 -7.999871373176574707e-01 -1.319960951805114746e+00
1.190000000000000000e+03 3.508211135864257812e+01 1.528849792480468750e+01 -1.210614562034606934e+00 -1.443090438842773438e+00 -7.961115241050720215e-01 -1.333813786506652832e+00
1.191000000000000000e+03 3.561374664306640625e+01 1.587373733520507812e+01 -1.211510419845581055e+00 -1.445073127746582031e+00 -7.969750761985778809e-01 -1.323960900306701660e+00
1.192000000000000000e+03 3.534700012207031250e+01 1.558161544799804688e+01 -1.213610887527465820e+00 -1.445032358169555664e+00 -7.975929975509643555e-01 -1.324380755424499512e+00
1.193000000000000000e+03 4.906932830810546875e+01 2.930706787109375000e+01 -1.255056500434875488e+00 -1.110832214355468750e+00 -7.097665667533874512e-01 -1.162801861763000488e+00
1.194000000000000000e+03 4.962671661376953125e+01 2.986314392089843750e+01 -1.213615059852600098e+00 -1.098603963851928711e+00 -6.936656832695007324e-01 -1.148019313812255859e+00
1.195000000000000000e+03 4.697553634643554688e+01 2.673455429077148438e+01 -1.130354046821594238e+00 -1.000236034393310547e+00 -6.391770243644714355e-01 -1.099120974540710449e+00
1.196000000000000000e+03 4.327541732788085938e+01 2.382130432128906250e+01 -1.347796797752380371e+00 -1.171606540679931641e+00 -7.558209896087646484e-01 -1.256094813346862793e+00
1.197000000000000000e+03 2.897366333007812500e+01 8.916235923767089844e+00 -2.202740192413330078e+00 -6.523520946502685547e-01 -8.565276861190795898e-01 -1.068129420280456543e+00
1.198000000000000000e+03 1.291882228851318359e+01 1.302846789360046387e+00 9.996512532234191895e-01 -2.297098487615585327e-01 2.309824228286743164e-01 2.905757427215576172e-01
1.199000000000000000e+03 1.381661701202392578e+01 2.946707248687744141e+00 2.108099758625030518e-01 2.595016479492187500e+00 8.417479395866394043e-01 1.635115444660186768e-01
1.200000000000000000e+03 1.319354915618896484e+01 1.752741456031799316e+00 1.642334222793579102e+00 7.483443021774291992e-01 7.172035574913024902e-01 -6.343493461608886719e-01
1.201000000000000000e+03 1.380131626129150391e+01 2.122363567352294922e+00 5.987167358398437500e-01 3.342019319534301758e+00 1.182220816612243652e+00 -9.511445164680480957e-01
1.202000000000000000e+03 9.185791969299316406e+00 3.160667657852172852e+00 1.201348006725311279e-01 -2.510634064674377441e-01 -3.927858546376228333e-02 2.281312197446823120e-01
1.203000000000000000e+03 1.391099357604980469e+01 4.207774162292480469e+00 1.841577142477035522e-01 1.033150553703308105e+00 3.651924729347229004e-01 2.302620410919189453e-01
1.204000000000000000e+03 1.490892696380615234e+01 4.655101299285888672e+00 2.660610973834991455e-01 3.763839900493621826e-01 1.927335262298583984e-01 3.071342408657073975e-01
1.205000000000000000e+03 1.414844703674316406e+01 4.566562175750732422e+00 1.757397949695587158e-01 8.112271428108215332e-01 2.960900962352752686e-01 2.681091427803039551e-01
1.206000000000000000e+03 1.548431587219238281e+01 5.299254417419433594e+00 1.868122965097427368e-01 3.287691771984100342e-01 1.546744406223297119e-01 2.462152689695358276e-01
1.207000000000000000e+03 1.553995418548583984e+01 5.955086708068847656e+00 1.991209536790847778e-01 3.244894146919250488e-01 1.570831090211868286e-01 2.259853929281234741e-01
1.208000000000000000e+03 4.863706207275390625e+01 3.733927917480468750e+01 2.449962943792343140e-01 6.402534991502761841e-02 9.270649403333663940e-02 6.062483787536621094e-02
1.209000000000000000e+03 4.779663848876953125e+01 3.706409835815429688e+01 1.948146373033523560e-01 5.572834983468055725e-02 7.516289502382278442e-02 7.263872772455215454e-02
1.210000000000000000e+03 1.462826824188232422e+01 4.358557224273681641e+00 3.374497592449188232e-01 5.254186391830444336e-01 2.588605284690856934e-01 4.000960886478424072e-01
1.211000000000000000e+03 1.615375709533691406e+01 6.400037765502929688e+00 1.950367689132690430e-01 2.952539324760437012e-01 1.470872163772583008e-01 2.188005596399307251e-01
1.212000000000000000e+03 4.980305099487304688e+01 3.771715545654296875e+01 2.480970919132232666e-01 3.002242930233478546e-02 8.343585580587387085e-02 7.699564844369888306e-02
1.213000000000000000e+03 4.963709259033203125e+01 3.828095245361328125e+01 2.067857980728149414e-01 4.007287323474884033e-02 7.405760139226913452e-02 8.169451355934143066e-02
1.214000000000000000e+03 1.438058376312255859e+01 4.918448448181152344e+00 1.410586684942245483e-01 6.348723173141479492e-01 2.327792942523956299e-01 2.945453226566314697e-01
1.215000000000000000e+03 1.944953155517578125e+01 9.867618560791015625e+00 1.371098607778549194e-01 1.606251448392868042e-01 8.932050317525863647e-02 1.530692279338836670e-01
1.216000000000000000e+03 1.784767532348632812e+01 8.494166374206542969e+00 1.559335291385650635e-01 1.992372274398803711e-01 1.065512225031852722e-01 1.737169623374938965e-01
1.217000000000000000e+03 4.621276092529296875e+01 3.574474334716796875e+01 9.591019898653030396e-02 4.601633921265602112e-02 4.257795959711074829e-02 6.654335558414459229e-02
1.218000000000000000e+03 4.653236389160156250e+01 3.600412368774414062e+01 9.573400020599365234e-02 5.000703781843185425e-02 4.372231289744377136e-02 7.566405087709426880e-02
1.219000000000000000e+03 3.333448410034179688e+01 2.321607971191406250e+01 5.870030075311660767e-02 7.852481305599212646e-02 4.116753488779067993e-02 6.751111149787902832e-02
1.220000000000000000e+03 3.173998451232910156e+01 2.259346580505371094e+01 5.876487120985984802e-02 7.347246259450912476e-02 3.967120125889778137e-02 7.116905599832534790e-02
1.221000000000000000e+03 1.466346359252929688e+01 5.741741657257080078e+00 1.441750824451446533e-01 4.522667527198791504e-01 1.789325475692749023e-01 2.435581088066101074e-01
1.222000000000000000e+03 3.617664718627929688e+01 2.651472663879394531e+01 5.120614171028137207e-02 7.386604696512222290e-02 3.752165660262107849e-02 6.191448122262954712e-02
1.223000000000000000e+03 3.532438278198242188e+01 2.614568328857421875e+01 5.234250426292419434e-02 7.533264905214309692e-02 3.830254822969436646e-02 6.429231166839599609e-02
1.224000000000000000e+03 3.111860466003417969e+01 2.083931159973144531e+01 8.120826631784439087e-02 7.578110694885253906e-02 4.709681123495101929e-02 7.783369719982147217e-02
1.225000000000000000e+03 2.001226806640625000e+01 1.040109252929687500e+01 1.322609484195709229e-01 1.509339064359664917e-01 8.495845645666122437e-02 1.452793031930923462e-01
1.226000000000000000e+03 1.694229698181152344e+01 7.216223716735839844e+00 1.668644994497299194e-01 2.193278819322586060e-01 1.158577129244804382e-01 2.010196596384048462e-01
1.227000000000000000e+03 1.748865890502929688e+01 7.247334480285644531e+00 1.648580878973007202e-01 1.941928863525390625e-01 1.077152937650680542e-01 1.854677349328994751e-01
1.228000000000000000e+03 1.668601417541503906e+01 6.936609268188476562e+00 1.779064834117889404e-01 2.416688799858093262e-01 1.258726119995117188e-01 2.063665986061096191e-01
1.229000000000000000e+03 2.413561820983886719e+01 1.567125225067138672e+01 9.370838850736618042e-02 1.170687675476074219e-01 6.323315203189849854e-02 1.073868647217750549e-01
1.230000000000000000e+03 1.742587661743164062e+01 7.788081169128417969e+00 1.575852781534194946e-01 2.069261372089385986e-01 1.093534231185913086e-01 1.873655468225479126e-01
1.231000000000000000e+03 1.915989303588867188e+01 9.600862503051757812e+00 1.414477527141571045e-01 1.692346334457397461e-01 9.320472180843353271e-02 1.577672809362411499e-01
1.232000000000000000e+03 3.415665435791015625e+01 2.407247734069824219e+01 5.397849902510643005e-02 7.474036514759063721e-02 3.861565887928009033e-02 6.407521665096282959e-02
1.233000000000000000e+03 3.364061737060546875e+01 2.410188293457031250e+01 5.457011610269546509e-02 7.692507654428482056e-02 3.944855928421020508e-02 6.582400947809219360e-02
1.234000000000000000e+03 3.491439437866210938e+01 2.548526573181152344e+01 5.578573420643806458e-02 7.739724218845367432e-02 3.995489329099655151e-02 6.440696865320205688e-02
1.235000000000000000e+03 2.084804725646972656e+01 1.069650936126708984e+01 1.351837217807769775e-01 1.580589115619659424e-01 8.797279000282287598e-02 1.455138474702835083e-01
1.236000000000000000e+03 2.028977012634277344e+01 1.067400169372558594e+01 1.313528865575790405e-01 1.498155295848846436e-01 8.435052633285522461e-02 1.423837393522262573e-01
1.237000000000000000e+03 3.179087638854980469e+01 2.331487655639648438e+01 5.651106312870979309e-02 7.589390873908996582e-02 3.972149267792701721e-02 6.965748965740203857e-02
1.238000000000000000e+03 3.701941680908203125e+01 2.836724853515625000e+01 5.957412719726562500e-02 7.251992821693420410e-02 3.962821513414382935e-02 6.141865998506546021e-02
1.239000000000000000e+03 3.419747161865234375e+01 2.461175727844238281e+01 5.512396618723869324e-02 7.646133750677108765e-02 3.947558999061584473e-02 6.553890556097030640e-02
1.240000000000000000e+03 2.056524467468261719e+01 1.095169734954833984e+01 1.316292136907577515e-01 1.526056379079818726e-01 8.527045696973800659e-02 1.383833289146423340e-01
1.241000000000000000e+03 2.111999702453613281e+01 1.151042556762695312e+01 1.267764866352081299e-01 1.505057811737060547e-01 8.318468183279037476e-02 1.356965899467468262e-01
1.242000000000000000e+03 5.044950485229492188e+01 3.822370147705078125e+01 2.367967069149017334e-01 4.328182339668273926e-02 8.402355760335922241e-02 1.043731570243835449e-01
1.243000000000000000e+03 3.084430885314941406e+01 2.106464767456054688e+01 7.461798191070556641e-02 7.771229743957519531e-02 4.569908231496810913e-02 7.437359541654586792e-02
1.244000000000000000e+03 1.799937438964843750e+01 7.859274864196777344e+00 1.592590957880020142e-01 2.010031938552856445e-01 1.080786883831024170e-01 1.822005659341812134e-01
1.245000000000000000e+03 1.763588333129882812e+01 8.123203277587890625e+00 1.599292010068893433e-01 2.055931240320205688e-01 1.096566990017890930e-01 1.784151941537857056e-01
1.246000000000000000e+03 3.605331802368164062e+01 2.760090255737304688e+01 5.711410194635391235e-02 7.282463461160659790e-02 3.898162022233009338e-02 6.180003285408020020e-02
1.247000000000000000e+03 2.224054908752441406e+01 1.212121868133544922e+01 1.221056655049324036e-01 1.382734626531600952e-01 7.811373472213745117e-02 1.304152458906173706e-01
1.248000000000000000e+03 2.167090606689453125e+01 1.206737232208251953e+01 1.216901093721389771e-01 1.424167603254318237e-01 7.923205941915512085e-02 1.331102252006530762e-01
1.249000000000000000e+03 2.380586814880371094e+01 1.441930484771728516e+01 1.128727719187736511e-01 1.232978478074073792e-01 7.085118442773818970e-02 1.153562143445014954e-01
1.250000000000000000e+03 2.417712020874023438e+01 1.414951229095458984e+01 1.267125457525253296e-01 1.154738292098045349e-01 7.265591621398925781e-02 1.202653571963310242e-01
1.251000000000000000e+03 2.354238128662109375e+01 1.411721706390380859e+01 1.169222667813301086e-01 1.272117644548416138e-01 7.324020564556121826e-02 1.185901165008544922e-01
1.252000000000000000e+03 3.141639137268066406e+01 2.197850990295410156e+01 5.992540717124938965e-02 7.513226568698883057e-02 4.051730036735534668e-02 7.116907835006713867e-02
1.253000000000000000e+03 3.110325622558593750e+01 2.131829261779785156e+01 7.129599899053573608e-02 7.559063285589218140e-02 4.406598955392837524e-02 7.265032082796096802e-02
1.254000000000000000e+03 2.247941780090332031e+01 1.292468357086181641e+01 1.206438168883323669e-01 1.376312822103500366e-01 7.748252898454666138e-02 1.279772222042083740e-01
1.255000000000000000e+03 4.415999984741210938e+01 3.450664520263671875e+01 7.807291299104690552e-02 4.370149224996566772e-02 3.653232008218765259e-02 5.602823197841644287e-02
1.256000000000000000e+03 4.420184707641601562e+01 3.505299377441406250e+01 8.239480108022689819e-02 4.521118476986885071e-02 3.828179463744163513e-02 5.888066440820693970e-02
1.257000000000000000e+03 2.221152877807617188e+01 1.263434314727783203e+01 1.207027584314346313e-01 1.385199129581451416e-01 7.776679843664169312e-02 1.292498856782913208e-01
1.258000000000000000e+03 2.194217681884765625e+01 1.234872722625732422e+01 1.200120002031326294e-01 1.391533464193344116e-01 7.774960249662399292e-02 1.318515986204147339e-01
1.259000000000000000e+03 3.243545913696289062e+01 2.307145500183105469e+01 5.824010819196701050e-02 7.323119044303894043e-02 3.944138810038566589e-02 6.684995442628860474e-02
1.260000000000000000e+03 3.275413513183593750e+01 2.332139778137207031e+01 5.756552889943122864e-02 7.451690733432769775e-02 3.962473198771476746e-02 6.572107225656509399e-02
1.261000000000000000e+03 1.825255012512207031e+01 8.174755096435546875e+00 1.676289737224578857e-01 2.049072682857513428e-01 1.117608770728111267e-01 1.802075952291488647e-01
1.262000000000000000e+03 3.552004623413085938e+01 2.650755500793457031e+01 5.315056815743446350e-02 7.469268888235092163e-02 3.835297748446464539e-02 6.409829109907150269e-02
1.263000000000000000e+03 2.278384971618652344e+01 1.270606136322021484e+01 1.241792663931846619e-01 1.422649770975112915e-01 7.993327081203460693e-02 1.317464113235473633e-01
1.264000000000000000e+03 3.919196701049804688e+01 2.974136924743652344e+01 5.921691283583641052e-02 5.899841338396072388e-02 3.546459600329399109e-02 5.893868952989578247e-02
1.265000000000000000e+03 3.837126541137695312e+01 2.899678039550781250e+01 6.077789515256881714e-02 6.269458681344985962e-02 3.704174235463142395e-02 6.043246015906333923e-02
1.266000000000000000e+03 3.000452423095703125e+01 2.025843238830566406e+01 7.794833928346633911e-02 8.138299733400344849e-02 4.779940098524093628e-02 8.013436943292617798e-02
1.267000000000000000e+03 3.054952812194824219e+01 2.029158782958984375e+01 8.006436377763748169e-02 8.017192035913467407e-02 4.807088524103164673e-02 8.010719716548919678e-02
1.268000000000000000e+03 2.406809425354003906e+01 1.472570896148681641e+01 1.072835549712181091e-01 1.189083680510520935e-01 6.785757839679718018e-02 1.133817583322525024e-01
1.269000000000000000e+03 1.851393318176269531e+01 9.088871002197265625e+00 1.523188054561614990e-01 1.890171021223068237e-01 1.024007722735404968e-01 1.622147262096405029e-01
1.270000000000000000e+03 1.664880943298339844e+01 7.486648082733154297e+00 1.548814922571182251e-01 2.455511838197708130e-01 1.201298013329505920e-01 1.945303678512573242e-01
1.271000000000000000e+03 4.909066772460937500e+01 3.810699844360351562e+01 2.227517813444137573e-01 3.371542086824774742e-03 6.783699989318847656e-02 6.173383444547653198e-02
1.272000000000000000e+03 4.288365554809570312e+01 3.356846237182617188e+01 7.041270285844802856e-02 4.478847980499267578e-02 3.456035256385803223e-02 5.313842371106147766e-02
1.273000000000000000e+03 2.678815078735351562e+01 1.671384429931640625e+01 1.027234420180320740e-01 1.085117310285568237e-01 6.337055563926696777e-02 1.043214872479438782e-01
1.274000000000000000e+03 2.521373176574707031e+01 1.600286293029785156e+01 9.667984396219253540e-02 1.072907224297523499e-01 6.119117140769958496e-02 1.046313717961311340e-01
1.275000000000000000e+03 3.839138031005859375e+01 3.036146926879882812e+01 5.784123390913009644e-02 6.171888485550880432e-02 3.586803376674652100e-02 5.778992548584938049e-02
1.276000000000000000e+03 4.318824386596679688e+01 3.383008575439453125e+01 7.150957733392715454e-02 4.293829947710037231e-02 3.433436155319213867e-02 5.507722124457359314e-02
1.277000000000000000e+03 4.384046554565429688e+01 3.429251480102539062e+01 7.461529225111007690e-02 4.161369055509567261e-02 3.486869484186172485e-02 5.591742694377899170e-02
1.278000000000000000e+03 4.065511322021484375e+01 3.113145637512207031e+01 6.222341582179069519e-02 5.056307837367057800e-02 3.383594751358032227e-02 5.600433424115180969e-02
1.279000000000000000e+03 4.149763488769531250e+01 3.266028976440429688e+01 6.458862125873565674e-02 4.831328988075256348e-02 3.387057408690452576e-02 5.492055043578147888e-02
1.280000000000000000e+03 2.139687156677246094e+01 1.178863620758056641e+01 1.230219900608062744e-01 1.456835418939590454e-01 8.061166107654571533e-02 1.353040486574172974e-01
1.281000000000000000e+03 3.372046661376953125e+01 2.464132499694824219e+01 5.445195361971855164e-02 7.653128355741500854e-02 3.929496929049491882e-02 6.557445228099822998e-02
1.282000000000000000e+03 2.711798095703125000e+01 1.829769134521484375e+01 8.552134782075881958e-02 1.003862395882606506e-01 5.577227473258972168e-02 9.171895682811737061e-02
1.283000000000000000e+03 4.376666641235351562e+01 3.373212814331054688e+01 6.953839957714080811e-02 4.193433001637458801e-02 3.344181925058364868e-02 5.498812720179557800e-02
1.284000000000000000e+03 3.512670516967773438e+01 2.580553627014160156e+01 5.460788309574127197e-02 7.660293579101562500e-02 3.936324641108512878e-02 6.360822916030883789e-02
1.285000000000000000e+03 3.026821136474609375e+01 2.000959396362304688e+01 8.043320477008819580e-02 8.042892068624496460e-02 4.825863987207412720e-02 8.049897104501724243e-02
1.286000000000000000e+03 2.946385765075683594e+01 1.970327949523925781e+01 8.065995573997497559e-02 8.341132104396820068e-02 4.922138154506683350e-02 8.292353898286819458e-02
1.287000000000000000e+03 3.860136413574218750e+01 2.959793472290039062e+01 5.826948955655097961e-02 6.079672649502754211e-02 3.571986407041549683e-02 6.028750166296958923e-02
1.288000000000000000e+03 2.592708969116210938e+01 1.648387145996093750e+01 9.714368730783462524e-02 1.073452606797218323e-01 6.134668737649917603e-02 1.015414521098136902e-01
1.289000000000000000e+03 3.392549133300781250e+01 2.434996032714843750e+01 5.454241856932640076e-02 7.605993002653121948e-02 3.918070346117019653e-02 6.614536792039871216e-02
1.290000000000000000e+03 3.445154571533203125e+01 2.488966178894042969e+01 5.602352321147918701e-02 7.703299820423126221e-02 3.991695493459701538e-02 6.545225530862808228e-02
1.291000000000000000e+03 4.351053619384765625e+01 3.407701873779296875e+01 7.347974181175231934e-02 4.444923624396324158e-02 3.537869453430175781e-02 5.537097528576850891e-02
1.292000000000000000e+03 4.081982803344726562e+01 3.210036087036132812e+01 6.108892709016799927e-02 5.116193741559982300e-02 3.367526084184646606e-02 5.557860806584358215e-02
1.293000000000000000e+03 3.056069183349609375e+01 2.081538581848144531e+01 7.626017183065414429e-02 7.925555109977722168e-02 4.665471613407135010e-02 7.665298134088516235e-02
1.294000000000000000e+03 3.027811241149902344e+01 2.054437446594238281e+01 7.743854820728302002e-02 8.030818402767181396e-02 4.732402041554450989e-02 7.826634496450424194e-02
1.295000000000000000e+03 4.591711425781250000e+01 3.547259902954101562e+01 9.039003401994705200e-02 4.423733055591583252e-02 4.038820788264274597e-02 6.237941980361938477e-02
1.296000000000000000e+03 2.832627868652343750e+01 1.866212654113769531e+01 8.828401565551757812e-02 8.985660970211029053e-02 5.344218760728836060e-02 8.962497860193252563e-02
1.297000000000000000e+03 2.913382911682128906e+01 1.890136909484863281e+01 8.865729719400405884e-02 8.382139354944229126e-02 5.174360796809196472e-02 8.623372018337249756e-02
1.298000000000000000e+03 4.123640441894531250e+01 3.170124244689941406e+01 6.211445108056068420e-02 4.880188405513763428e-02 3.327490016818046570e-02 5.421648547053337097e-02
1.299000000000000000e+03 2.770260047912597656e+01 1.816737365722656250e+01 9.130642563104629517e-02 9.588557481765747070e-02 5.615760013461112976e-02 9.345208108425140381e-02
1.300000000000000000e+03 2.884325790405273438e+01 1.863109779357910156e+01 9.097198396921157837e-02 8.509802073240280151e-02 5.282100290060043335e-02 8.832796663045883179e-02
1.301000000000000000e+03 2.801799201965332031e+01 1.841386604309082031e+01 8.988452702760696411e-02 9.292522817850112915e-02 5.484292656183242798e-02 9.132231026887893677e-02
1.302000000000000000e+03 3.610847473144531250e+01 2.708193588256835938e+01 5.560976266860961914e-02 7.384008169174194336e-02 3.883495181798934937e-02 6.339352577924728394e-02
1.303000000000000000e+03 2.868983078002929688e+01 1.944604682922363281e+01 8.043207228183746338e-02 8.848834782838821411e-02 5.067612230777740479e-02 8.511958271265029907e-02
1.304000000000000000e+03 4.114589309692382812e+01 3.239957427978515625e+01 6.366290152072906494e-02 4.980704188346862793e-02 3.404098376631736755e-02 5.361220240592956543e-02
1.305000000000000000e+03 3.948353958129882812e+01 3.003494834899902344e+01 6.085375696420669556e-02 5.898774042725563049e-02 3.595244884490966797e-02 5.912152677774429321e-02
1.306000000000000000e+03 2.432933807373046875e+01 1.503995895385742188e+01 1.030430346727371216e-01 1.152076423168182373e-01 6.547520309686660767e-02 1.111565008759498596e-01
1.307000000000000000e+03 4.440035247802734375e+01 3.421082305908203125e+01 7.331215590238571167e-02 4.385094717144966125e-02 3.514892980456352234e-02 5.667925253510475159e-02
1.308000000000000000e+03 3.815333557128906250e+01 2.952444648742675781e+01 5.825882405042648315e-02 6.421963125467300415e-02 3.674353659152984619e-02 6.006848812103271484e-02
1.309000000000000000e+03 2.919009971618652344e+01 1.943455696105957031e+01 8.255960792303085327e-02 8.482913672924041748e-02 5.021662265062332153e-02 8.424130827188491821e-02
1.310000000000000000e+03 5.105366516113281250e+01 3.856984329223632812e+01 2.286529988050460815e-01 3.384465724229812622e-02 7.874929904937744141e-02 1.064530164003372192e-01
1.311000000000000000e+03 5.034990310668945312e+01 3.856312561035156250e+01 2.453051209449768066e-01 -1.077115722000598907e-02 7.036019116640090942e-02 4.456208646297454834e-02
1.312000000000000000e+03 6.119054412841796875e+01 3.709550094604492188e+01 8.121685981750488281e-01 1.972226619720458984e+00 8.353185653686523438e-01 -1.575635313987731934e+00
1.313000000000000000e+03 5.968446350097656250e+01 3.235768508911132812e+01 -1.226774379611015320e-01 3.866718113422393799e-01 7.919830828905105591e-02 3.596017658710479736e-01
1.314000000000000000e+03 6.024351119995117188e+01 3.227379608154296875e+01 2.868652641773223877e-01 5.433417558670043945e-01 2.490621060132980347e-01 7.260450720787048340e-01
1.315000000000000000e+03 6.139813995361328125e+01 3.236526107788085938e+01 1.114362478256225586e+00 8.756952881813049316e-01 5.970173478126525879e-01 1.607255578041076660e+00
1.316000000000000000e+03 5.716466140747070312e+01 3.314303588867187500e+01 -1.201718330383300781e+00 1.971226632595062256e-01 -3.013786971569061279e-01 -3.746051788330078125e-01
1.317000000000000000e+03 5.784162139892578125e+01 3.256381607055664062e+01 -7.856290340423583984e-01 2.855169177055358887e-01 -1.500336229801177979e-01 -2.404967397451400757e-01
1.318000000000000000e+03 5.352183151245117188e+01 3.388162231445312500e+01 -6.525139212608337402e-01 -1.410178542137145996e-01 -2.380595207214355469e-01 -4.923221170902252197e-01
1.319000000000000000e+03 5.491810607910156250e+01 3.346701812744140625e+01 -1.006198525428771973e+00 1.818214356899261475e-01 -2.473131120204925537e-01 -5.498626232147216797e-01
1.320000000000000000e+03 5.299291610717773438e+01 3.302493667602539062e+01 -8.107643127441406250e-01 -3.659395575523376465e-01 -3.530111610889434814e-01 -6.898727416992187500e-01
1.321000000000000000e+03 5.293829345703125000e+01 3.259608840942382812e+01 -8.604505062103271484e-01 -3.563772439956665039e-01 -3.650483191013336182e-01 -7.212808132171630859e-01
1.322000000000000000e+03 5.836876296997070312e+01 3.806127548217773438e+01 4.353882670402526855e-01 4.459755718708038330e-01 2.644091546535491943e-01 8.803858421742916107e-03
1.323000000000000000e+03 5.545803833007812500e+01 3.713072586059570312e+01 -3.907800018787384033e-01 -2.674805223941802979e-01 -1.974781602621078491e-01 7.639663815498352051e-01
1.324000000000000000e+03 9.122118949890136719e+00 2.491041183471679688e+00 -3.318815678358078003e-02 -2.389232963323593140e-01 -8.163343369960784912e-02 2.976884245872497559e-01
1.325000000000000000e+03 7.643456935882568359e+00 2.564265727996826172e+00 -1.049247905611991882e-01 -1.287337392568588257e-01 -7.009755820035934448e-02 2.372193187475204468e-01
1.326000000000000000e+03 6.192642211914062500e+00 2.630625247955322266e+00 -9.352007508277893066e-02 -7.582605630159378052e-02 -5.080384016036987305e-02 1.706581115722656250e-01
1.327000000000000000e+03 6.161173343658447266e+00 1.877954840660095215e+00 -1.577552109956741333e-01 -5.047268792986869812e-02 -6.246836856007575989e-02 1.495348364114761353e-01
1.328000000000000000e+03 3.265987157821655273e+00 3.831108331680297852e+00 -1.542616169899702072e-02 -7.584217935800552368e-02 -2.738050185143947601e-02 9.251663833856582642e-02
1.329000000000000000e+03 6.916169643402099609e+00 2.595054864883422852e+00 -1.031012609601020813e-01 -1.037458777427673340e-01 -6.205414235591888428e-02 2.037969976663589478e-01
1.330000000000000000e+03 5.522115707397460938e+00 3.443855762481689453e+00 -3.084163926541805267e-02 -8.792395889759063721e-02 -3.562967851758003235e-02 1.505749821662902832e-01
1.331000000000000000e+03 1.494169712066650391e+00 7.756227970123291016e+00 8.649523369967937469e-03 -1.621600389480590820e-01 -4.605315625667572021e-02 3.135374933481216431e-02
1.332000000000000000e+03 1.196171283721923828e+00 3.204316616058349609e+00 -6.657467223703861237e-03 -5.394494533538818359e-02 -1.818072423338890076e-02 3.595111146569252014e-02
1.333000000000000000e+03 2.530142784118652344e+00 1.980932474136352539e+00 -3.591292724013328552e-02 -2.419328130781650543e-02 -1.803186163306236267e-02 4.904361814260482788e-02
1.334000000000000000e+03 1.035054779052734375e+01 -3.594231843948364258e+00 -4.897323548793792725e-01 -6.153507158160209656e-02 -1.653802245855331421e-01 -3.442620635032653809e-01
1.335000000000000000e+03 1.176435947418212891e+01 -2.919636964797973633e+00 -6.700706481933593750e-01 -8.474590629339218140e-02 -2.264449596405029297e-01 -3.607189059257507324e-01
1.336000000000000000e+03 9.524925231933593750e+00 -2.777041673660278320e+00 -4.019336998462677002e-01 -1.739305257797241211e-02 -1.257980316877365112e-01 -2.197295427322387695e-01
1.337000000000000000e+03 1.368874549865722656e+01 1.105840206146240234e+00 2.157233476638793945e+00 1.027569890022277832e+00 9.554409980773925781e-01 -3.788419961929321289e-01
1.338000000000000000e+03 1.209916782379150391e+01 1.470896124839782715e+00 3.115784823894500732e-01 -3.680857419967651367e-01 -1.695217378437519073e-02 4.638800919055938721e-01
1.339000000000000000e+03 1.321492576599121094e+01 4.901325225830078125e+00 1.304514557123184204e-01 7.512784004211425781e-01 2.645189464092254639e-01 -3.980911150574684143e-02
1.340000000000000000e+03 1.278900623321533203e+01 2.595568418502807617e+00 9.160636663436889648e-01 6.854492425918579102e-01 4.804538786411285400e-01 -5.660282969474792480e-01
1.341000000000000000e+03 1.344348526000976562e+01 4.352007865905761719e+00 1.675265878438949585e-01 9.737860560417175293e-01 3.423937857151031494e-01 -1.078725885599851608e-02
1.342000000000000000e+03 3.032666397094726562e+01 7.873446464538574219e+00 -8.559285998344421387e-01 -1.365300536155700684e+00 -6.663687229156494141e-01 -1.082201123237609863e+00
1.343000000000000000e+03 3.143495559692382812e+01 7.905443191528320312e+00 -1.051716804504394531e+00 -1.179161906242370605e+00 -6.692636013031005859e-01 -1.065485715866088867e+00
1.344000000000000000e+03 3.047171401977539062e+01 6.832233905792236328e+00 -1.259954690933227539e+00 -1.156722307205200195e+00 -7.250031232833862305e-01 -1.309835672378540039e+00
1.345000000000000000e+03 3.085960197448730469e+01 8.044068336486816406e+00 -9.938079118728637695e-01 -1.240347623825073242e+00 -6.702466607093811035e-01 -1.019530177116394043e+00
1.346000000000000000e+03 3.117527961730957031e+01 6.726200103759765625e+00 -1.222724795341491699e+00 -1.005366563796997070e+00 -6.684274077415466309e-01 -1.081418752670288086e+00
1.347000000000000000e+03 5.640280151367187500e+01 3.323088836669921875e+01 -1.155659317970275879e+00 2.210223972797393799e-01 -2.803910672664642334e-01 -4.621133804321289062e-01
1.348000000000000000e+03 5.849765777587890625e+01 3.249703598022460938e+01 -6.492139697074890137e-01 2.749137282371520996e-01 -1.122900843620300293e-01 -1.008073613047599792e-01
1.349000000000000000e+03 5.780434799194335938e+01 3.206309509277343750e+01 -4.686051607131958008e-01 3.825929164886474609e-01 -2.580367773771286011e-02 -1.826352030038833618e-01
1.350000000000000000e+03 5.713406753540039062e+01 3.261629104614257812e+01 -8.710742592811584473e-01 2.624314129352569580e-01 -1.825928539037704468e-01 -3.898462653160095215e-01
1.351000000000000000e+03 5.491825485229492188e+01 3.280102539062500000e+01 -9.404812455177307129e-01 2.225567400455474854e-01 -2.153773456811904907e-01 -6.035296916961669922e-01
1.352000000000000000e+03 5.564594268798828125e+01 3.266511154174804688e+01 -9.362407326698303223e-01 2.691864371299743652e-01 -2.001162916421890259e-01 -5.651068687438964844e-01
1.353000000000000000e+03 8.747747421264648438e+00 -2.769431591033935547e+00 -3.224902451038360596e-01 -3.651512786746025085e-02 -1.077016144990921021e-01 -1.904457956552505493e-01
1.354000000000000000e+03 7.957432270050048828e+00 -2.783075571060180664e+00 -2.671717107295989990e-01 -2.558568306267261505e-02 -8.782722055912017822e-02 -1.657469719648361206e-01
1.355000000000000000e+03 6.229482650756835938e+00 -1.946010112762451172e+00 -1.282364130020141602e-01 -2.251970954239368439e-02 -4.522683471441268921e-02 -7.717837393283843994e-02
1.356000000000000000e+03 9.600214004516601562e+00 -3.588117122650146484e+00 -4.098210930824279785e-01 -7.696741074323654175e-02 -1.460365504026412964e-01 -3.021367490291595459e-01
1.357000000000000000e+03 4.595070362091064453e+00 -1.973884463310241699e+00 -6.776041537523269653e-02 -2.257907018065452576e-02 -2.710184641182422638e-02 -4.682764038443565369e-02
1.358000000000000000e+03 6.357715129852294922e+00 -2.844245910644531250e+00 -1.698848456144332886e-01 -3.543606400489807129e-02 -6.159627065062522888e-02 -1.235152930021286011e-01
1.359000000000000000e+03 4.252690315246582031e+00 -4.886205196380615234e+00 -9.089195728302001953e-02 -1.123624965548515320e-01 -6.097633764147758484e-02 -1.422481983900070190e-01
1.360000000000000000e+03 7.159903049468994141e+00 -2.810291051864624023e+00 -2.087338417768478394e-01 -4.212152585387229919e-02 -7.525660842657089233e-02 -1.449841260910034180e-01
1.361000000000000000e+03 1.534421324729919434e+00 -9.334588050842285156e+00 -1.060543861240148544e-02 -2.856839597225189209e-01 -8.888682723045349121e-02 -1.083260551095008850e-01
1.362000000000000000e+03 4.960758090019226074e-01 -6.520543575286865234e+00 3.902309690602123737e-04 -7.875780761241912842e-02 -2.351027168333530426e-02 -2.386625297367572784e-02
1.363000000000000000e+03 2.580819606781005859e+00 -4.075115680694580078e+00 -4.063209891319274902e-02 -5.813410878181457520e-02 -2.962986193597316742e-02 -5.515567213296890259e-02
1.364000000000000000e+03 5.183347463607788086e-01 -3.634999752044677734e+00 -2.858640393242239952e-03 3.968512173742055893e-03 3.329615865368396044e-04 -7.201585453003644943e-03
1.365000000000000000e+03 1.498216247558593750e+01 -2.429718732833862305e+00 -1.286542296409606934e+00 -3.547252118587493896e-01 -4.923802614212036133e-01 -6.523627042770385742e-01
1.366000000000000000e+03 1.496261978149414062e+01 -3.044919490814208984e+00 -1.162891268730163574e+00 -4.838260114192962646e-01 -4.940151870250701904e-01 -7.631080150604248047e-01
1.367000000000000000e+03 1.417053031921386719e+01 -3.713951349258422852e+00 -9.203366041183471680e-01 -4.069977998733520508e-01 -3.982003331184387207e-01 -7.315952777862548828e-01
1.368000000000000000e+03 1.251561737060546875e+01 -2.970035791397094727e+00 -7.786785960197448730e-01 -8.544189482927322388e-02 -2.592361271381378174e-01 -4.161816537380218506e-01
1.369000000000000000e+03 1.330697441101074219e+01 -3.004266023635864258e+00 -9.199845790863037109e-01 -1.893101036548614502e-01 -3.327884078025817871e-01 -5.264118313789367676e-01
1.370000000000000000e+03 5.470195770263671875e+01 3.797385787963867188e+01 -4.964735209941864014e-01 -5.991863608360290527e-01 -3.286979496479034424e-01 6.571192145347595215e-01
1.371000000000000000e+03 5.446777343750000000e+01 3.854024887084960938e+01 -2.784341275691986084e-01 -7.195248603820800781e-01 -2.993876934051513672e-01 5.191088318824768066e-01
1.372000000000000000e+03 1.968473243713378906e+01 -1.493214488029479980e+00 -2.317014217376708984e+00 -5.094510078430175781e+00 -2.223457336425781250e+00 -3.012977600097656250e+00
1.373000000000000000e+03 1.899848556518554688e+01 -9.108552336692810059e-01 -2.396407604217529297e+00 -1.948046684265136719e+00 -1.303336262702941895e+00 -1.646209836006164551e+00
1.374000000000000000e+03 2.239076805114746094e+01 -1.494742035865783691e+00 2.733926773071289062e+00 1.438052773475646973e+00 1.251593828201293945e+00 -1.578547596931457520e+00
1.375000000000000000e+03 2.108220291137695312e+01 3.159563988447189331e-02 -1.982611179351806641e+00 -1.305236101150512695e+00 -9.863541722297668457e-01 -2.920382738113403320e+00
1.376000000000000000e+03 1.808377075195312500e+01 -1.699865579605102539e+00 -1.884249687194824219e+00 -1.471410036087036133e+00 -1.006697893142700195e+00 -1.270882368087768555e+00
1.377000000000000000e+03 4.333217620849609375e+01 -3.925841903686523438e+01 2.166161775588989258e+00 1.532949209213256836e+00 1.109733343124389648e+00 1.144357562065124512e+00
1.378000000000000000e+03 4.173325729370117188e+01 -3.974050521850585938e+01 2.402846097946166992e+00 7.254087924957275391e-01 9.384765028953552246e-01 3.036946058273315430e-01
1.379000000000000000e+03 4.214611053466796875e+01 -4.158598709106445312e+01 1.905920147895812988e+00 1.414773702621459961e+00 9.962081313133239746e-01 1.687235236167907715e-01
1.380000000000000000e+03 4.268139648437500000e+01 -3.071685600280761719e+01 4.493331536650657654e-02 6.837558746337890625e-01 2.186067551374435425e-01 -2.179701626300811768e-01
1.381000000000000000e+03 4.687745285034179688e+01 -3.448118972778320312e+01 3.708701729774475098e-01 2.774401903152465820e+00 9.435816407203674316e-01 3.640737831592559814e-01
1.382000000000000000e+03 3.060474777221679688e+01 -1.072243976593017578e+01 3.845013678073883057e-02 -1.248353868722915649e-01 -2.591557428240776062e-02 -6.697302218526601791e-03
1.383000000000000000e+03 3.018035507202148438e+01 -6.167273044586181641e+00 6.971700191497802734e-01 -1.708287894725799561e-01 1.579023748636245728e-01 -2.635820806026458740e-01
1.384000000000000000e+03 1.915893745422363281e+01 -5.443374633789062500e+00 7.912001013755798340e-02 -1.443232059478759766e+00 -4.092335999011993408e-01 4.330222308635711670e-02
1.385000000000000000e+03 3.835202789306640625e+01 -2.372079277038574219e+01 -1.422532945871353149e-01 -2.757720947265625000e-01 -1.254076212644577026e-01 2.029334455728530884e-01
1.386000000000000000e+03 3.700547027587890625e+01 -2.133047294616699219e+01 -1.498313099145889282e-01 -4.080985486507415771e-01 -1.673789620399475098e-01 2.463331371545791626e-01
1.387000000000000000e+03 2.775420761108398438e+01 -3.057068061828613281e+01 3.737795650959014893e-01 5.898304581642150879e-01 2.890830039978027344e-01 -4.020646810531616211e-01
1.388000000000000000e+03 2.146631813049316406e+01 -1.196152114868164062e+01 1.299185603857040405e-01 2.380772382020950317e-01 1.103987395763397217e-01 -2.261381149291992188e-01
1.389000000000000000e+03 2.850835609436035156e+01 -3.442426443099975586e+00 7.207476496696472168e-01 -2.026783823966979980e-01 1.554207801818847656e-01 -2.320237308740615845e-01
1.390000000000000000e+03 2.445598983764648438e+01 -1.548308014869689941e+00 9.704223275184631348e-01 4.450860023498535156e-01 4.246524870395660400e-01 -7.138724327087402344e-01
1.391000000000000000e+03 3.239068603515625000e+01 -3.440182495117187500e+01 5.173340439796447754e-01 7.183257937431335449e-01 3.706979453563690186e-01 -5.485523939132690430e-01
1.392000000000000000e+03 1.880252647399902344e+01 -8.461949348449707031e+00 8.787091076374053955e-02 -6.407403349876403809e-01 -1.658608168363571167e-01 -2.360030561685562134e-01
1.393000000000000000e+03 3.552719497680664062e+01 -3.816156387329101562e+01 1.009405970573425293e+00 5.250788331031799316e-01 4.603454470634460449e-01 -5.456285476684570312e-01
1.394000000000000000e+03 3.205652999877929688e+01 -1.304188251495361328e+01 -5.710764974355697632e-02 -2.952150106430053711e-01 -1.056967973709106445e-01 1.367931813001632690e-01
1.395000000000000000e+03 2.983476257324218750e+01 -3.126198196411132812e+01 4.440588653087615967e-01 7.489627003669738770e-01 3.579064607620239258e-01 -4.680201113224029541e-01
1.396000000000000000e+03 2.659074974060058594e+01 -5.205921649932861328e+00 9.284555912017822266e-01 6.811174750328063965e-01 4.828718900680541992e-01 -7.337017655372619629e-01
1.397000000000000000e+03 2.378333473205566406e+01 -1.859899902343750000e+01 1.891732960939407349e-01 4.172725677490234375e-01 1.819337606430053711e-01 -3.321678042411804199e-01
1.398000000000000000e+03 2.434531593322753906e+01 -1.672579383850097656e+01 1.799901723861694336e-01 4.764035344123840332e-01 1.969181150197982788e-01 -3.254352509975433350e-01
1.399000000000000000e+03 2.624194526672363281e+01 -2.347404670715332031e+01 2.161409109830856323e-01 6.126351356506347656e-01 2.486328184604644775e-01 -3.744625449180603027e-01
1.400000000000000000e+03 2.934725379943847656e+01 -2.652510261535644531e+01 2.275684475898742676e-01 8.233592510223388672e-01 3.152782917022705078e-01 -4.295309185981750488e-01
1.401000000000000000e+03 2.918540000915527344e+01 -2.987028312683105469e+01 3.404755890369415283e-01 7.419036030769348145e-01 3.247137665748596191e-01 -4.682289063930511475e-01
1.402000000000000000e+03 2.078562355041503906e+01 -1.380759525299072266e+01 2.051360756158828735e-01 9.810100495815277100e-02 9.097112715244293213e-02 -2.654594182968139648e-01
1.403000000000000000e+03 2.863154602050781250e+01 -2.848305511474609375e+01 2.956453561782836914e-01 7.335270643234252930e-01 3.087517321109771729e-01 -4.418386220932006836e-01
1.404000000000000000e+03 2.639489364624023438e+01 -3.356959104537963867e+00 1.097945690155029297e+00 2.669381499290466309e-01 4.094651341438293457e-01 -5.961832404136657715e-01
1.405000000000000000e+03 2.568936729431152344e+01 -1.912301254272460938e+01 1.770311743021011353e-01 5.899231433868408203e-01 2.300862967967987061e-01 -3.419916033744812012e-01
1.406000000000000000e+03 3.943885040283203125e+01 -2.297654151916503906e+01 -1.010398790240287781e-01 4.454157873988151550e-02 -1.694949157536029816e-02 1.134760230779647827e-01
1.407000000000000000e+03 3.976182174682617188e+01 -2.607410812377929688e+01 -1.114074513316154480e-01 -1.093663573265075684e-01 -6.623214483261108398e-02 1.229289248585700989e-01
1.408000000000000000e+03 2.873577690124511719e+01 -2.528425216674804688e+01 2.183303683996200562e-01 8.017574548721313477e-01 3.060263395309448242e-01 -4.219771325588226318e-01
1.409000000000000000e+03 2.806945800781250000e+01 -2.716935920715332031e+01 2.404048442840576172e-01 7.203536629676818848e-01 2.882275581359863281e-01 -4.248458445072174072e-01
1.410000000000000000e+03 4.301685333251953125e+01 -2.875417518615722656e+01 -8.927629888057708740e-02 9.198437929153442383e-01 2.491702586412429810e-01 -1.260867714881896973e-01
1.411000000000000000e+03 4.377726364135742188e+01 -2.988715934753417969e+01 -6.588926166296005249e-02 1.284649610519409180e+00 3.656280934810638428e-01 -1.705014556646347046e-01
1.412000000000000000e+03 2.774311447143554688e+01 -4.675312042236328125e+00 8.677641749382019043e-01 1.280608028173446655e-01 2.987474799156188965e-01 -4.964964687824249268e-01
1.413000000000000000e+03 4.448897552490234375e+01 -3.101179695129394531e+01 -8.310484886169433594e-02 1.788030266761779785e+00 5.114775896072387695e-01 -1.460523456335067749e-01
1.414000000000000000e+03 4.506172180175781250e+01 -3.210064697265625000e+01 7.770128082484006882e-03 2.049812078475952148e+00 6.172747015953063965e-01 1.115966867655515671e-02
1.415000000000000000e+03 4.120640945434570312e+01 -2.840400123596191406e+01 -5.611738562583923340e-02 1.660498678684234619e-01 3.297974169254302979e-02 -8.187712170183658600e-03
1.416000000000000000e+03 1.956915664672851562e+01 -1.118385028839111328e+01 1.748055666685104370e-01 -1.751761883497238159e-01 -1.111869933083653450e-04 -2.320087999105453491e-01
1.417000000000000000e+03 2.011268615722656250e+01 -1.250825786590576172e+01 2.297354340553283691e-01 -3.119135042652487755e-03 6.798488646745681763e-02 -2.165913581848144531e-01
1.418000000000000000e+03 3.534346771240234375e+01 -1.576999950408935547e+01 -3.091683983802795410e-02 -2.657986581325531006e-01 -8.901464939117431641e-02 1.274364888668060303e-01
1.419000000000000000e+03 2.597073745727539062e+01 -2.586789131164550781e+00 9.943490028381347656e-01 3.760229349136352539e-01 4.111115634441375732e-01 -5.056366324424743652e-01
1.420000000000000000e+03 2.102762603759765625e+01 -1.702945327758789062e+01 2.202082425355911255e-01 1.593226194381713867e-01 1.138592511415481567e-01 -2.854714393615722656e-01
1.421000000000000000e+03 2.229164886474609375e+01 -1.626144409179687500e+01 1.903353184461593628e-01 2.979886531829833984e-01 1.464971899986267090e-01 -2.942682802677154541e-01
1.422000000000000000e+03 3.674859619140625000e+01 -1.816452980041503906e+01 -7.403085380792617798e-02 -2.144867330789566040e-01 -8.655527979135513306e-02 1.497860550880432129e-01
1.423000000000000000e+03 3.460791397094726562e+01 -1.459928512573242188e+01 8.562630042433738708e-03 -2.785654664039611816e-01 -8.100085705518722534e-02 1.024126186966896057e-01
1.424000000000000000e+03 3.543338394165039062e+01 -3.582398223876953125e+01 6.871175765991210938e-01 6.448190808296203613e-01 3.995809853076934814e-01 -6.306183934211730957e-01
1.425000000000000000e+03 3.384673690795898438e+01 -1.344397068023681641e+01 4.217676445841789246e-02 -2.739977240562438965e-01 -6.954628229141235352e-02 6.951357424259185791e-02
1.426000000000000000e+03 1.849858856201171875e+01 -7.132762908935546875e+00 8.482301980257034302e-02 -9.108086824417114258e-01 -2.477957010269165039e-01 -1.985175609588623047e-01
1.427000000000000000e+03 3.786416244506835938e+01 -1.740743064880371094e+01 -4.658887162804603577e-03 1.363119948655366898e-02 2.691693603992462158e-03 6.477157771587371826e-02
1.428000000000000000e+03 2.991799926757812500e+01 -9.541502952575683594e+00 1.421656608581542969e-01 2.541555278003215790e-02 5.027436092495918274e-02 -1.003107205033302307e-01
1.429000000000000000e+03 3.382875823974609375e+01 -3.732038497924804688e+01 7.470554113388061523e-01 5.495463609695434570e-01 3.889805376529693604e-01 -5.303056240081787109e-01
1.430000000000000000e+03 3.080823707580566406e+01 -8.922987937927246094e+00 3.194165229797363281e-01 -1.043531671166419983e-01 6.451901048421859741e-02 -1.891342848539352417e-01
1.431000000000000000e+03 2.685344696044921875e+01 -2.470371818542480469e+01 2.199383676052093506e-01 6.487458944320678711e-01 2.606052756309509277e-01 -3.815777301788330078e-01
1.432000000000000000e+03 7.705421447753906250e+01 -3.773403549194335938e+01 -1.249687373638153076e-02 7.462751388549804688e+00 2.235076427459716797e+00 6.861681491136550903e-02
1.433000000000000000e+03 7.934050750732421875e+01 -3.471781158447265625e+01 -8.060478605329990387e-03 7.803066730499267578e+00 2.338501930236816406e+00 2.305365167558193207e-02
1.434000000000000000e+03 7.935252380371093750e+01 -2.779168128967285156e+01 1.842781639425083995e-04 8.032028198242187500e+00 2.409663915634155273e+00 1.733316481113433838e-02
1.435000000000000000e+03 7.826772308349609375e+01 3.196183776855468750e+01 1.461401581764221191e-01 5.164482116699218750e+00 1.593186736106872559e+00 -4.792689979076385498e-01
1.436000000000000000e+03 7.927053070068359375e+01 3.607286834716796875e+01 9.483393281698226929e-02 3.796024084091186523e+00 1.167257428169250488e+00 7.273524254560470581e-02
1.437000000000000000e+03 7.937245178222656250e+01 -2.084921836853027344e+01 1.184941385872662067e-03 8.305516242980957031e+00 2.492010354995727539e+00 1.814511977136135101e-02
1.438000000000000000e+03 7.804867553710937500e+01 -2.763384819030761719e+01 2.088539302349090576e-03 7.823931694030761719e+00 2.347805976867675781e+00 6.107554957270622253e-02
1.439000000000000000e+03 7.806413269042968750e+01 -2.625806617736816406e+01 2.886252012103796005e-03 7.871210098266601562e+00 2.362228870391845703e+00 6.366515159606933594e-02
1.440000000000000000e+03 7.933651733398437500e+01 -3.057380676269531250e+01 -1.552260218886658549e-04 7.941448688507080078e+00 2.382388114929199219e+00 1.650282368063926697e-02
1.441000000000000000e+03 7.799219512939453125e+01 -3.450988769531250000e+01 4.081567283719778061e-03 7.637326717376708984e+00 2.292422533035278320e+00 5.360255017876625061e-02
1.442000000000000000e+03 7.795862579345703125e+01 -3.317373657226562500e+01 -4.450393375009298325e-03 7.661537647247314453e+00 2.297126293182373047e+00 6.231888383626937866e-02
1.443000000000000000e+03 7.298564147949218750e+01 -3.805271530151367188e+01 5.446992069482803345e-02 6.766799926757812500e+00 2.046380996704101562e+00 4.416189715266227722e-02
1.444000000000000000e+03 7.611236572265625000e+01 -3.888026428222656250e+01 8.570954203605651855e-03 7.402745723724365234e+00 2.223395109176635742e+00 4.493613168597221375e-02
1.445000000000000000e+03 7.817799377441406250e+01 1.386147594451904297e+01 -3.278391063213348389e-02 9.094626426696777344e+00 2.718552827835083008e+00 -1.313061416149139404e-01
1.446000000000000000e+03 7.939596557617187500e+01 1.530059146881103516e+01 -6.973442621529102325e-03 9.310552597045898438e+00 2.791073799133300781e+00 -8.645706623792648315e-02
1.447000000000000000e+03 7.829421997070312500e+01 2.077030754089355469e+01 -5.419622734189033508e-02 8.318302154541015625e+00 2.479231834411621094e+00 -4.346587657928466797e-01
1.448000000000000000e+03 7.944064331054687500e+01 2.224344253540039062e+01 -9.085580706596374512e-03 8.003472328186035156e+00 2.398316144943237305e+00 -2.046516090631484985e-01
1.449000000000000000e+03 7.811495208740234375e+01 3.057669448852539062e+01 8.887054771184921265e-02 5.565009117126464844e+00 1.696163892745971680e+00 -6.477437019348144531e-01
1.450000000000000000e+03 7.827105712890625000e+01 2.764697074890136719e+01 -4.634418059140443802e-03 6.385397434234619141e+00 1.914228916168212891e+00 -7.303702831268310547e-01
1.451000000000000000e+03 7.941853332519531250e+01 2.780070114135742188e+01 -6.032603327184915543e-03 5.798006534576416016e+00 1.737592101097106934e+00 -2.832502722740173340e-01
1.452000000000000000e+03 7.833675384521484375e+01 2.488708496093750000e+01 -3.594693168997764587e-02 7.258886337280273438e+00 2.166881799697875977e+00 -6.440501809120178223e-01
1.453000000000000000e+03 7.833805847167968750e+01 2.351688575744628906e+01 -4.655235633254051208e-02 7.660933494567871094e+00 2.284314393997192383e+00 -5.787773728370666504e-01
1.454000000000000000e+03 7.696000671386718750e+01 1.520160675048828125e+01 -9.346318244934082031e-02 8.768884658813476562e+00 2.602626562118530273e+00 -2.466185241937637329e-01
1.455000000000000000e+03 7.818322753906250000e+01 1.524901103973388672e+01 -3.902160003781318665e-02 9.015876770019531250e+00 2.693056344985961914e+00 -1.783302575349807739e-01
1.456000000000000000e+03 7.819843292236328125e+01 1.663102340698242188e+01 -4.281513020396232605e-02 8.905764579772949219e+00 2.658884763717651367e+00 -2.338916212320327759e-01
1.457000000000000000e+03 7.695791625976562500e+01 1.104097652435302734e+01 -5.651490390300750732e-02 8.867224693298339844e+00 2.643212795257568359e+00 -6.163932010531425476e-02
1.458000000000000000e+03 7.815219879150390625e+01 8.327972412109375000e+00 -1.419497374445199966e-02 9.167618751525878906e+00 2.746026992797851562e+00 -5.351268686354160309e-03
1.459000000000000000e+03 7.938941192626953125e+01 9.737467765808105469e+00 -2.606250811368227005e-03 9.519308090209960938e+00 2.855010509490966797e+00 -2.901229076087474823e-02
1.460000000000000000e+03 7.798398590087890625e+01 -1.625892519950866699e-02 -2.480742288753390312e-03 8.890200614929199219e+00 2.666315793991088867e+00 6.350731849670410156e-02
1.461000000000000000e+03 7.933314514160156250e+01 1.386438250541687012e+00 2.442176919430494308e-04 9.287106513977050781e+00 2.786205053329467773e+00 5.623496137559413910e-03
1.462000000000000000e+03 7.937676239013671875e+01 -1.391293334960937500e+01 -1.565229729749262333e-03 8.602354049682617188e+00 2.580236434936523438e+00 1.543381996452808380e-02
1.463000000000000000e+03 7.937580108642578125e+01 -6.970321655273437500e+00 1.200489234179258347e-03 8.915001869201660156e+00 2.674860715866088867e+00 1.209104619920253754e-02
1.464000000000000000e+03 7.937467956542968750e+01 -1.946043968200683594e+01 -1.939431880600750446e-03 8.364058494567871094e+00 2.508635520935058594e+00 1.746353693306446075e-02
1.465000000000000000e+03 7.820012664794921875e+01 2.907159233093261719e+01 5.049955472350120544e-02 5.981220245361328125e+00 1.809515953063964844e+00 -7.182632088661193848e-01
1.466000000000000000e+03 7.685327911376953125e+01 3.945494842529296875e+01 2.701384201645851135e-02 5.115705966949462891e+00 1.542816042900085449e+00 2.423086017370223999e-01
1.467000000000000000e+03 7.612468719482421875e+01 3.678125381469726562e+01 3.966303467750549316e-01 6.483495235443115234e+00 2.064037799835205078e+00 6.998157501220703125e-02
1.468000000000000000e+03 7.816580963134765625e+01 9.704921722412109375e+00 -1.923932321369647980e-02 9.179101943969726562e+00 2.747958660125732422e+00 -2.753309719264507294e-02
1.469000000000000000e+03 7.798823547363281250e+01 1.374517083168029785e+00 -5.558388773351907730e-03 8.942857742309570312e+00 2.681189775466918945e+00 5.785423144698143005e-02
1.470000000000000000e+03 7.801572418212890625e+01 2.765977382659912109e+00 -4.795915912836790085e-03 8.996531486511230469e+00 2.697520732879638672e+00 5.180610343813896179e-02
1.471000000000000000e+03 7.665261077880859375e+01 -1.445111989974975586e+00 -7.086178287863731384e-03 8.510212898254394531e+00 2.550938129425048828e+00 1.186661124229431152e-01
1.472000000000000000e+03 7.934599304199218750e+01 -2.791931629180908203e+00 -1.249178429134190083e-03 9.105443954467773438e+00 2.731258392333984375e+00 9.809207171201705933e-03
1.473000000000000000e+03 7.812712860107421875e+01 -6.981767177581787109e+00 -2.034001285210251808e-03 8.633687973022460938e+00 2.589496135711669922e+00 6.732390075922012329e-02
1.474000000000000000e+03 7.810666656494140625e+01 -5.597798347473144531e+00 6.259148358367383480e-04 8.686735153198242188e+00 2.606208324432373047e+00 6.831917911767959595e-02
1.475000000000000000e+03 7.937966918945312500e+01 -9.749293327331542969e+00 9.848122717812657356e-04 8.788544654846191406e+00 2.636858701705932617e+00 1.348263490945100784e-02
1.476000000000000000e+03 7.812553405761718750e+01 -1.386915969848632812e+01 5.894702626392245293e-04 8.351305961608886719e+00 2.505568742752075195e+00 6.805833429098129272e-02
1.477000000000000000e+03 7.812992095947265625e+01 -1.249490356445312500e+01 -1.704575028270483017e-03 8.407131195068359375e+00 2.521627902984619141e+00 6.795193254947662354e-02
1.478000000000000000e+03 7.937573242187500000e+01 -1.668585586547851562e+01 -1.745003974065184593e-03 8.481929779052734375e+00 2.544055461883544922e+00 1.628801040351390839e-02
1.479000000000000000e+03 7.812163543701171875e+01 -1.936293983459472656e+01 1.054654130712151527e-04 8.134140968322753906e+00 2.440274000167846680e+00 6.797418743371963501e-02
1.480000000000000000e+03 2.808615922927856445e+00 3.782695770263671875e+01 1.164017245173454285e-03 -8.800812065601348877e-02 -2.605323120951652527e-02 -5.495392251759767532e-03
1.481000000000000000e+03 6.376723647117614746e-01 3.453030776977539062e+01 8.195242844521999359e-04 -1.089997142553329468e-01 -3.245405852794647217e-02 -1.799202058464288712e-03
1.482000000000000000e+03 5.982907414436340332e-01 2.611861991882324219e+01 7.456378079950809479e-04 -1.375154703855514526e-01 -4.103094711899757385e-02 -3.197188023477792740e-03
1.483000000000000000e+03 1.843489885330200195e+00 2.870820808410644531e+01 -1.485484419390559196e-03 -1.121189519762992859e-01 -3.408133238554000854e-02 -6.312614306807518005e-03
1.484000000000000000e+03 1.112320065498352051e+00 -3.602890396118164062e+01 1.177310245111584663e-03 -1.584861993789672852e+00 -4.751054048538208008e-01 -1.105971354991197586e-02
1.485000000000000000e+03 2.617650985717773438e+00 -3.281002426147460938e+01 1.137793343514204025e-02 -1.374058961868286133e+00 -4.088043272495269775e-01 -5.069274827837944031e-02
1.486000000000000000e+03 3.079277038574218750e+00 2.704804229736328125e+01 -2.475270768627524376e-03 -1.000418141484260559e-01 -3.075512498617172241e-02 -1.093973685055971146e-02
1.487000000000000000e+03 2.975772142410278320e+00 2.559995269775390625e+01 -1.215410768054425716e-03 -1.049612835049629211e-01 -3.185300901532173157e-02 -1.253202930092811584e-02
1.488000000000000000e+03 1.775545835494995117e+00 3.144205093383789062e+01 -1.307267928496003151e-03 -1.054691374301910400e-01 -3.203292191028594971e-02 -4.571611061692237854e-03
1.489000000000000000e+03 1.891706466674804688e+00 3.411925888061523438e+01 -1.115771010518074036e-03 -9.890814870595932007e-02 -3.000717423856258392e-02 -3.764179768040776253e-03
1.490000000000000000e+03 1.784992218017578125e+00 3.278589630126953125e+01 6.243331590667366982e-04 -1.022134497761726379e-01 -3.047673404216766357e-02 -4.469561856240034103e-03
1.491000000000000000e+03 4.840645790100097656e+00 3.766939163208007812e+01 6.324882269836962223e-04 -7.207629829645156860e-02 -2.143314294517040253e-02 2.011316828429698944e-04
1.492000000000000000e+03 3.654895544052124023e+00 3.896104431152343750e+01 -1.786715933121740818e-03 -8.633500337600708008e-02 -2.643651515245437622e-02 -2.676901174709200859e-03
1.493000000000000000e+03 2.017144680023193359e+00 -2.863213539123535156e+01 7.397599983960390091e-03 -1.332546114921569824e+00 -3.975445628166198730e-01 -5.877237394452095032e-02
1.494000000000000000e+03 1.929309606552124023e+00 -2.588536834716796875e+01 5.749830976128578186e-03 -1.251332521438598633e+00 -3.736747801303863525e-01 -7.225852459669113159e-02
1.495000000000000000e+03 3.240089893341064453e+00 -3.572412872314453125e+01 1.115086022764444351e-02 -1.350083231925964355e+00 -4.016796946525573730e-01 -4.231265187263488770e-02
1.496000000000000000e+03 5.560810565948486328e-01 1.906573295593261719e+01 -1.144505338743329048e-03 -1.847198754549026489e-01 -5.575931444764137268e-02 -4.261737223714590073e-03
1.497000000000000000e+03 5.397933125495910645e-01 1.343635654449462891e+01 -1.628071913728490472e-04 -2.273686826229095459e-01 -6.825944781303405762e-02 -2.442130586132407188e-03
1.498000000000000000e+03 4.967811703681945801e-01 7.825965404510498047e+00 1.369425212033092976e-03 -1.917170882225036621e-01 -5.710429698228836060e-02 1.139762345701456070e-02
1.499000000000000000e+03 1.753326654434204102e+00 -1.617092323303222656e+01 8.396757766604423523e-03 -7.648171782493591309e-01 -2.269261181354522705e-01 -1.290694624185562134e-01
1.500000000000000000e+03 4.027487277984619141e+00 -4.079296112060546875e+01 7.166012655943632126e-03 -1.405162096023559570e+00 -4.193988144397735596e-01 -4.748417064547538757e-02
1.501000000000000000e+03 4.027950763702392578e+00 -3.897574996948242188e+01 4.460538551211357117e-02 -1.324067354202270508e+00 -3.838385939598083496e-01 -3.751484304666519165e-02
1.502000000000000000e+03 5.202946662902832031e+00 -3.527536773681640625e+01 2.248419448733329773e-02 -1.162508606910705566e+00 -3.420073091983795166e-01 -6.412449479103088379e-02
1.503000000000000000e+03 2.931466341018676758e+00 -3.424209213256835938e+01 5.061313509941101074e-03 -1.369199752807617188e+00 -4.092415273189544678e-01 -4.687626659870147705e-02
1.504000000000000000e+03 2.353257417678833008e+00 -3.140929412841796875e+01 5.008053965866565704e-03 -1.368762612342834473e+00 -4.091263413429260254e-01 -5.046322941780090332e-02
1.505000000000000000e+03 1.952673077583312988e+00 -2.725637054443359375e+01 8.008780889213085175e-03 -1.295711398124694824e+00 -3.863107860088348389e-01 -6.607846170663833618e-02
1.506000000000000000e+03 3.241909503936767578e+00 -2.699190330505371094e+01 1.654669828712940216e-02 -1.178545832633972168e+00 -3.485997617244720459e-01 -1.071132570505142212e-01
1.507000000000000000e+03 1.900895953178405762e+00 -2.173758506774902344e+01 1.005273591727018356e-02 -1.079299092292785645e+00 -3.207738995552062988e-01 -1.006706431508064270e-01
1.508000000000000000e+03 1.922040104866027832e+00 -2.451106071472167969e+01 8.416262455284595490e-03 -1.200011372566223145e+00 -3.574785292148590088e-01 -8.272277563810348511e-02
1.509000000000000000e+03 3.146310329437255859e+00 -2.016350936889648438e+01 2.171101793646812439e-02 -9.271026253700256348e-01 -2.716174721717834473e-01 -1.751797646284103394e-01
1.510000000000000000e+03 6.101165413856506348e-01 -1.910089111328125000e+01 -2.226444426923990250e-03 -1.015448331832885742e+00 -3.053024113178253174e-01 -3.890212625265121460e-02
1.511000000000000000e+03 1.838503837585449219e+00 -1.894852828979492188e+01 1.016795169562101364e-02 -9.345411658287048340e-01 -2.773119509220123291e-01 -1.171239167451858521e-01
1.512000000000000000e+03 1.621322989463806152e+00 -1.204593276977539062e+01 -4.938282538205385208e-03 -4.752201139926910400e-01 -1.440475285053253174e-01 -1.279099732637405396e-01
1.513000000000000000e+03 5.360836386680603027e-01 -1.208736801147460938e+01 3.816141746938228607e-03 -4.747254848480224609e-01 -1.412727981805801392e-01 -4.390680417418479919e-02
1.514000000000000000e+03 1.497293114662170410e+00 -6.693210124969482422e+00 -1.457871682941913605e-02 -1.311318278312683105e-01 -4.371316358447074890e-02 -7.350474596023559570e-02
1.515000000000000000e+03 1.464860916137695312e+00 -3.458683967590332031e+00 -1.593537442386150360e-02 -2.686688862740993500e-02 -1.284067891538143158e-02 -1.884209364652633667e-02
1.516000000000000000e+03 5.426963567733764648e-01 -5.098214626312255859e+00 -4.892773460596799850e-03 -2.326055243611335754e-02 -8.445997722446918488e-03 -1.606983877718448639e-02
1.517000000000000000e+03 4.985138177871704102e-01 4.966218948364257812e+00 -1.269801941816695035e-05 -1.028755083680152893e-01 -3.086646273732185364e-02 1.888605020940303802e-02
1.518000000000000000e+03 1.555418968200683594e+00 1.049797916412353516e+01 6.983257830142974854e-03 -1.892550140619277954e-01 -5.468152835965156555e-02 8.028469048440456390e-03
1.519000000000000000e+03 5.158426165580749512e-01 1.062830638885498047e+01 7.248341571539640427e-04 -2.292017191648483276e-01 -6.854306906461715698e-02 2.805986441671848297e-03
1.520000000000000000e+03 1.625895023345947266e+00 1.326809024810791016e+01 4.030763637274503708e-03 -1.887159198522567749e-01 -5.540554597973823547e-02 -6.603272166103124619e-03
1.521000000000000000e+03 1.672345042228698730e+00 2.023913955688476562e+01 -1.399843487888574600e-03 -1.514095813035964966e-01 -4.584283009171485901e-02 -1.158172823488712311e-02
1.522000000000000000e+03 1.676401853561401367e+00 1.885422515869140625e+01 5.704573704861104488e-04 -1.593271493911743164e-01 -4.762700945138931274e-02 -1.264535542577505112e-02
1.523000000000000000e+03 1.742408394813537598e+00 2.443839073181152344e+01 1.951004924194421619e-05 -1.283850222826004028e-01 -3.850965201854705811e-02 -9.373216889798641205e-03
1.524000000000000000e+03 6.313591766357421875e+01 3.601426315307617188e+01 1.954399466514587402e+00 5.315947055816650391e+00 2.181103944778442383e+00 -4.493857383728027344e+00
1.525000000000000000e+03 6.184209060668945312e+01 3.607077789306640625e+01 9.367371201515197754e-01 1.685770034790039062e+00 7.867521643638610840e-01 -1.758342027664184570e+00
1.526000000000000000e+03 6.455117797851562500e+01 3.570216369628906250e+01 1.703538149595260620e-01 1.751200675964355469e+01 5.304708480834960938e+00 -4.539278984069824219e+00
1.527000000000000000e+03 2.744766426086425781e+01 4.195838928222656250e+00 -2.288385391235351562e+00 -1.035375952720642090e+00 -9.971284270286560059e-01 -1.228755593299865723e+00
1.528000000000000000e+03 2.310964202880859375e+01 1.430981397628784180e+00 -2.706740379333496094e+00 -3.698004484176635742e-01 -9.229622483253479004e-01 -1.424052357673645020e+00
1.529000000000000000e+03 2.852441978454589844e+01 4.839426517486572266e+00 -2.063824415206909180e+00 -1.245100498199462891e+00 -9.926775097846984863e-01 -1.132305502891540527e+00
1.530000000000000000e+03 2.531035232543945312e+01 2.882063150405883789e+00 -2.654998779296875000e+00 -6.263588070869445801e-01 -9.844072461128234863e-01 -1.202996373176574707e+00
1.531000000000000000e+03 2.450912666320800781e+01 2.702419042587280273e+00 -2.942886352539062500e+00 -6.527176499366760254e-01 -1.078681230545043945e+00 -1.358152627944946289e+00
1.532000000000000000e+03 2.365254020690917969e+01 2.191120386123657227e+00 -2.964601516723632812e+00 -5.872030258178710938e-01 -1.065541386604309082e+00 -1.464755058288574219e+00
1.533000000000000000e+03 2.321045494079589844e+01 1.831249594688415527e+00 -2.868459463119506836e+00 -5.583541393280029297e-01 -1.028044104576110840e+00 -1.508389592170715332e+00
1.534000000000000000e+03 1.703843307495117188e+01 -2.444338083267211914e+00 -1.589416742324829102e+00 -9.725546836853027344e-01 -7.685914039611816406e-01 -9.609104394912719727e-01
1.535000000000000000e+03 1.683217048645019531e+01 -2.130417585372924805e+00 -1.740341544151306152e+00 -8.965287208557128906e-01 -7.910610437393188477e-01 -1.014087677001953125e+00
1.536000000000000000e+03 2.553214263916015625e+01 2.931526422500610352e+00 -2.617586612701416016e+00 -6.697148680686950684e-01 -9.861904382705688477e-01 -1.167444705963134766e+00
1.537000000000000000e+03 2.519754791259765625e+01 3.116310834884643555e+00 -2.839551448822021484e+00 -7.262586355209350586e-01 -1.069743037223815918e+00 -1.333073019981384277e+00
1.538000000000000000e+03 2.434277153015136719e+01 2.584973573684692383e+00 -2.923195838928222656e+00 -5.979821681976318359e-01 -1.056353449821472168e+00 -1.350327491760253906e+00
1.539000000000000000e+03 2.348508644104003906e+01 2.097645759582519531e+00 -3.057688951492309570e+00 -6.138073801994323730e-01 -1.101448893547058105e+00 -1.494888067245483398e+00
1.540000000000000000e+03 2.726549720764160156e+01 4.401099205017089844e+00 -2.436569690704345703e+00 -1.077254295349121094e+00 -1.054147243499755859e+00 -1.364507317543029785e+00
1.541000000000000000e+03 2.376917648315429688e+01 2.004146337509155273e+00 -2.842145442962646484e+00 -5.252748727798461914e-01 -1.010226130485534668e+00 -1.341088771820068359e+00
1.542000000000000000e+03 1.736940193176269531e+01 -2.690169811248779297e+00 -1.486461997032165527e+00 -1.413637876510620117e+00 -8.700299859046936035e-01 -1.182027459144592285e+00
1.543000000000000000e+03 2.346245956420898438e+01 1.612860679626464844e+00 -2.624193429946899414e+00 -3.558205366134643555e-01 -8.940041661262512207e-01 -1.299055337905883789e+00
1.544000000000000000e+03 2.637241172790527344e+01 3.862738847732543945e+00 -2.620532751083374023e+00 -8.841198682785034180e-01 -1.051395773887634277e+00 -1.366315960884094238e+00
1.545000000000000000e+03 6.319438552856445312e+01 3.225020599365234375e+01 2.946416139602661133e+00 5.917254447937011719e+00 2.659101247787475586e+00 5.422349929809570312e+00
1.546000000000000000e+03 6.299276733398437500e+01 3.228454971313476562e+01 3.002491950988769531e+00 4.781804561614990234e+00 2.335289001464843750e+00 4.943958282470703125e+00
1.547000000000000000e+03 6.270640182495117188e+01 3.206254577636718750e+01 2.654829263687133789e+00 4.055640220642089844e+00 2.013140678405761719e+00 4.305407047271728516e+00
1.548000000000000000e+03 6.285637283325195312e+01 3.259632492065429688e+01 3.093176603317260742e+00 3.211264610290527344e+00 1.891332268714904785e+00 4.161168098449707031e+00
1.549000000000000000e+03 6.152364349365234375e+01 3.207796859741210938e+01 1.570285916328430176e+00 1.536794424057006836e+00 9.321240782737731934e-01 2.115727186203002930e+00
1.550000000000000000e+03 6.345766448974609375e+01 3.252951812744140625e+01 3.339718818664550781e+00 6.912684440612792969e+00 3.075721025466918945e+00 6.194194793701171875e+00
1.551000000000000000e+03 6.234996414184570312e+01 3.216788482666015625e+01 2.375355482101440430e+00 2.690628051757812500e+00 1.519795060157775879e+00 3.390924692153930664e+00
1.552000000000000000e+03 6.241407775878906250e+01 3.240453720092773438e+01 2.457686424255371094e+00 2.291960477828979492e+00 1.424894094467163086e+00 3.224817276000976562e+00
1.553000000000000000e+03 6.305588531494140625e+01 3.257162475585937500e+01 3.426079273223876953e+00 4.121582984924316406e+00 2.264298677444458008e+00 4.887855529785156250e+00
1.554000000000000000e+03 6.216665267944335938e+01 3.221684646606445312e+01 2.196270227432250977e+00 2.200541019439697266e+00 1.319043397903442383e+00 3.037928342819213867e+00
1.555000000000000000e+03 6.424376678466796875e+01 3.214262008666992188e+01 1.290673732757568359e+00 1.402564144134521484e+01 4.594894409179687500e+00 5.819487571716308594e+00
1.556000000000000000e+03 6.334597015380859375e+01 3.633424377441406250e+01 1.471960067749023438e+00 7.060475826263427734e+00 2.559730768203735352e+00 -4.752034187316894531e+00
1.557000000000000000e+03 6.448143005371093750e+01 3.243070602416992188e+01 1.136537194252014160e+00 1.680142974853515625e+01 5.381390094757080078e+00 5.580469608306884766e+00
1.558000000000000000e+03 6.554822540283203125e+01 3.544977569580078125e+01 2.391393184661865234e+00 2.051762199401855469e+01 6.872704505920410156e+00 1.776314735412597656e+00
1.559000000000000000e+03 6.640118408203125000e+01 3.588866424560546875e+01 2.365237474441528320e+00 1.718779945373535156e+01 5.865911483764648438e+00 2.317656755447387695e+00
1.560000000000000000e+03 6.648851776123046875e+01 3.436981201171875000e+01 8.397093772888183594e+00 1.578771209716796875e+01 7.255441665649414062e+00 1.345037221908569336e+00
1.561000000000000000e+03 6.649331665039062500e+01 3.336437988281250000e+01 7.286086559295654297e+00 1.587028694152832031e+01 6.946912288665771484e+00 -1.682299971580505371e+00
1.562000000000000000e+03 6.280471420288085938e+01 3.587018966674804688e+01 1.839297175407409668e+00 3.726032018661499023e+00 1.669598817825317383e+00 -3.453745365142822266e+00
1.563000000000000000e+03 2.161063003540039062e+01 4.649746417999267578e-01 -2.068656921386718750e+00 -2.178063094615936279e-01 -6.859389543533325195e-01 -2.292826890945434570e+00
1.564000000000000000e+03 2.019801139831542969e+01 -7.861041277647018433e-02 -2.191016197204589844e+00 -4.074985980987548828e+00 -1.879800677299499512e+00 -3.214229345321655273e+00
1.565000000000000000e+03 1.878481864929199219e+01 -1.014332175254821777e+00 -2.485378503799438477e+00 -1.981556177139282227e+00 -1.340080380439758301e+00 -1.906734943389892578e+00
1.566000000000000000e+03 2.092273902893066406e+01 4.616045951843261719e-01 -1.909814834594726562e+00 -1.408745527267456055e+00 -9.955680966377258301e-01 -2.846327066421508789e+00
1.567000000000000000e+03 1.515652370452880859e+01 5.778884887695312500e+00 1.899961084127426147e-01 3.566265702247619629e-01 1.639868021011352539e-01 2.552527189254760742e-01
1.568000000000000000e+03 3.101409912109375000e+01 2.293106079101562500e+01 5.593127384781837463e-02 7.902935147285461426e-02 4.048818722367286682e-02 7.130521535873413086e-02
1.569000000000000000e+03 3.131672096252441406e+01 2.244089126586914062e+01 5.905027687549591064e-02 7.701086252927780151e-02 4.081834480166435242e-02 7.253211736679077148e-02
1.570000000000000000e+03 3.130171585083007812e+01 2.161266517639160156e+01 6.577512621879577637e-02 7.434454560279846191e-02 4.203590378165245056e-02 7.055084407329559326e-02
1.571000000000000000e+03 1.972885322570800781e+01 1.069429111480712891e+01 1.260939687490463257e-01 1.551330536603927612e-01 8.436810225248336792e-02 1.454152017831802368e-01
1.572000000000000000e+03 4.869969558715820312e+01 3.870092773437500000e+01 1.767310202121734619e-01 1.245508342981338501e-02 5.675582960247993469e-02 3.842438384890556335e-02
1.573000000000000000e+03 3.959175109863281250e+01 2.034122085571289062e+01 -1.020855903625488281e+00 -1.112026333808898926e+00 -6.398646831512451172e-01 -1.136534333229064941e+00
1.574000000000000000e+03 4.011947250366210938e+01 2.037495231628417969e+01 -1.029425263404846191e+00 -1.074448108673095703e+00 -6.311619877815246582e-01 -1.140965700149536133e+00
1.575000000000000000e+03 4.035550689697265625e+01 2.066406059265136719e+01 -1.053873181343078613e+00 -1.071282267570495605e+00 -6.375465989112854004e-01 -1.144119739532470703e+00
1.576000000000000000e+03 1.642190742492675781e+01 7.183753013610839844e+00 1.561899632215499878e-01 2.587727010250091553e-01 1.244888007640838623e-01 2.033683657646179199e-01
1.577000000000000000e+03 1.719230651855468750e+01 7.491950511932373047e+00 1.650902777910232544e-01 2.146638631820678711e-01 1.139262393116950989e-01 1.902144104242324829e-01
1.578000000000000000e+03 4.094603729248046875e+01 2.171505165100097656e+01 -1.254168868064880371e+00 -1.112552762031555176e+00 -7.100164890289306641e-01 -1.183978676795959473e+00
1.579000000000000000e+03 3.456753158569335938e+01 1.413836002349853516e+01 -1.244079828262329102e+00 -1.384748578071594238e+00 -7.886484861373901367e-01 -1.289859294891357422e+00
1.580000000000000000e+03 3.175573921203613281e+01 1.179727649688720703e+01 -1.424509882926940918e+00 -1.414068937301635742e+00 -8.515736460685729980e-01 -1.371606230735778809e+00
1.581000000000000000e+03 3.260044479370117188e+01 1.198104667663574219e+01 -1.322180032730102539e+00 -1.329448223114013672e+00 -7.954884767532348633e-01 -1.299031972885131836e+00
1.582000000000000000e+03 2.486709403991699219e+01 1.571048545837402344e+01 9.751498699188232422e-02 1.091840490698814392e-01 6.200971081852912903e-02 1.068703010678291321e-01
1.583000000000000000e+03 3.335361099243164062e+01 2.384893035888671875e+01 5.522354319691658020e-02 7.710282504558563232e-02 3.969790786504745483e-02 6.574045121669769287e-02
1.584000000000000000e+03 2.930925750732421875e+01 9.670052528381347656e+00 -1.821085691452026367e+00 -1.080533146858215332e+00 -8.704856634140014648e-01 -1.439274907112121582e+00
1.585000000000000000e+03 4.689523696899414062e+01 2.610795593261718750e+01 -1.073316216468811035e+00 -9.218460321426391602e-01 -5.985486507415771484e-01 -1.038053512573242188e+00
1.586000000000000000e+03 2.973433876037597656e+01 1.997746467590332031e+01 7.926219701766967773e-02 8.248278498649597168e-02 4.852349311113357544e-02 8.146978169679641724e-02
1.587000000000000000e+03 4.153154754638671875e+01 2.223181343078613281e+01 -1.324202895164489746e+00 -1.147339344024658203e+00 -7.414626479148864746e-01 -1.208621740341186523e+00
1.588000000000000000e+03 4.667898178100585938e+01 2.646543693542480469e+01 -1.131976962089538574e+00 -1.010151982307434082e+00 -6.426386833190917969e-01 -1.110299825668334961e+00
1.589000000000000000e+03 3.306052398681640625e+01 2.358306503295898438e+01 5.635631829500198364e-02 7.687938958406448364e-02 3.997071087360382080e-02 6.507876515388488770e-02
1.590000000000000000e+03 1.814881515502929688e+01 8.825582504272460938e+00 1.562764346599578857e-01 1.977654248476028442e-01 1.062125563621520996e-01 1.646631062030792236e-01
1.591000000000000000e+03 1.688638877868652344e+01 8.805387496948242188e+00 1.255870312452316284e-01 2.251702547073364258e-01 1.052271872758865356e-01 1.637545228004455566e-01
1.592000000000000000e+03 2.137736892700195312e+01 1.230252742767333984e+01 1.159238591790199280e-01 1.442897468805313110e-01 7.806408405303955078e-02 1.312399208545684814e-01
1.593000000000000000e+03 4.579877471923828125e+01 2.566571044921875000e+01 -1.184135317802429199e+00 -1.062534213066101074e+00 -6.740008592605590820e-01 -1.140629649162292480e+00
1.594000000000000000e+03 3.802507781982421875e+01 1.853224372863769531e+01 -1.087757349014282227e+00 -1.413649678230285645e+00 -7.504221200942993164e-01 -1.227762103080749512e+00
1.595000000000000000e+03 4.240060043334960938e+01 2.302791213989257812e+01 -1.322943687438964844e+00 -1.141485095024108887e+00 -7.393286228179931641e-01 -1.240566134452819824e+00
1.596000000000000000e+03 4.317164230346679688e+01 2.325390625000000000e+01 -1.255267143249511719e+00 -1.110798478126525879e+00 -7.098196744918823242e-01 -1.189795732498168945e+00
1.597000000000000000e+03 4.719908905029296875e+01 2.637436676025390625e+01 -1.062983274459838867e+00 -9.110165238380432129e-01 -5.921999216079711914e-01 -1.024699091911315918e+00
1.598000000000000000e+03 3.507755661010742188e+01 1.473698329925537109e+01 -1.202162861824035645e+00 -1.384707093238830566e+00 -7.760609984397888184e-01 -1.295446276664733887e+00
1.599000000000000000e+03 3.455912780761718750e+01 1.469483947753906250e+01 -1.246187090873718262e+00 -1.452567696571350098e+00 -8.096264600753784180e-01 -1.350592970848083496e+00
1.600000000000000000e+03 1.642040824890136719e+01 6.662780284881591797e+00 1.837938725948333740e-01 2.624595165252685547e-01 1.338760107755661011e-01 2.186104804277420044e-01
1.601000000000000000e+03 1.502418136596679688e+01 6.250301361083984375e+00 1.472744643688201904e-01 3.883720934391021729e-01 1.606939733028411865e-01 2.134310603141784668e-01
1.602000000000000000e+03 4.259709167480468750e+01 2.272893142700195312e+01 -1.255300521850585938e+00 -1.094298243522644043e+00 -7.048796415328979492e-01 -1.181107878684997559e+00
1.603000000000000000e+03 2.084208297729492188e+01 1.123130035400390625e+01 1.287658363580703735e-01 1.520120799541473389e-01 8.423337340354919434e-02 1.374939829111099243e-01
1.604000000000000000e+03 2.000513076782226562e+01 1.095217895507812500e+01 1.264737099409103394e-01 1.540444493293762207e-01 8.415544778108596802e-02 1.403610408306121826e-01
1.605000000000000000e+03 3.120611953735351562e+01 1.129219341278076172e+01 -1.462540507316589355e+00 -1.380054116249084473e+00 -8.527783751487731934e-01 -1.371782183647155762e+00
1.606000000000000000e+03 4.763488388061523438e+01 2.790630912780761719e+01 -1.249195098876953125e+00 -1.076375484466552734e+00 -6.976711750030517578e-01 -1.163110136985778809e+00
1.607000000000000000e+03 3.533629989624023438e+01 1.502961349487304688e+01 -1.190523743629455566e+00 -1.388552188873291016e+00 -7.737227678298950195e-01 -1.286673903465270996e+00
1.608000000000000000e+03 3.316225814819335938e+01 1.257798862457275391e+01 -1.262046456336975098e+00 -1.356824159622192383e+00 -7.856611609458923340e-01 -1.304637193679809570e+00
1.609000000000000000e+03 1.631203842163085938e+01 7.699297904968261719e+00 1.379022002220153809e-01 2.596819996833801270e-01 1.192752569913864136e-01 1.885274499654769897e-01
1.610000000000000000e+03 3.636953353881835938e+01 2.737272071838378906e+01 5.647794157266616821e-02 7.457614690065383911e-02 3.931622579693794250e-02 6.356170028448104858e-02
1.611000000000000000e+03 3.775616455078125000e+01 1.823370933532714844e+01 -1.121099114418029785e+00 -1.453359007835388184e+00 -7.723374366760253906e-01 -1.251353502273559570e+00
1.612000000000000000e+03 4.726999664306640625e+01 2.700589752197265625e+01 -1.132728815078735352e+00 -9.948847889900207520e-01 -6.382840871810913086e-01 -1.090109229087829590e+00
1.613000000000000000e+03 3.878910064697265625e+01 3.001436996459960938e+01 5.953232198953628540e-02 6.076016277074813843e-02 3.608774393796920776e-02 5.872904509305953979e-02
1.614000000000000000e+03 3.228113555908203125e+01 1.168888092041015625e+01 -1.341386556625366211e+00 -1.325836658477783203e+00 -8.001669645309448242e-01 -1.290616393089294434e+00
1.615000000000000000e+03 2.274648284912109375e+01 1.321913528442382812e+01 1.217284128069877625e-01 1.370508372783660889e-01 7.763377577066421509e-02 1.256715357303619385e-01
1.616000000000000000e+03 2.190987205505371094e+01 1.285729885101318359e+01 1.155911684036254883e-01 1.386439353227615356e-01 7.627052813768386841e-02 1.273247748613357544e-01
1.617000000000000000e+03 4.346186447143554688e+01 2.351776504516601562e+01 -1.260311365127563477e+00 -1.125006318092346191e+00 -7.155953049659729004e-01 -1.188407063484191895e+00
1.618000000000000000e+03 2.623037147521972656e+01 1.675135803222656250e+01 9.752304106950759888e-02 1.075294762849807739e-01 6.151575595140457153e-02 1.005192920565605164e-01
1.619000000000000000e+03 2.535563659667968750e+01 1.660603713989257812e+01 9.344533085823059082e-02 1.073875054717063904e-01 6.024985015392303467e-02 1.011029183864593506e-01
1.620000000000000000e+03 4.850341415405273438e+01 2.874457550048828125e+01 -1.271921634674072266e+00 -1.104224085807800293e+00 -7.128437161445617676e-01 -1.167467355728149414e+00
1.621000000000000000e+03 2.921742057800292969e+01 1.995446395874023438e+01 7.752134650945663452e-02 8.549866080284118652e-02 4.890600219368934631e-02 8.233522623777389526e-02
1.622000000000000000e+03 4.060976028442382812e+01 2.093154716491699219e+01 -1.088045239448547363e+00 -1.074172496795654297e+00 -6.486653089523315430e-01 -1.145918965339660645e+00
1.623000000000000000e+03 4.473877334594726562e+01 2.517671012878417969e+01 -1.323986768722534180e+00 -1.251671433448791504e+00 -7.726974487304687500e-01 -1.248152017593383789e+00
1.624000000000000000e+03 4.550704574584960938e+01 2.539840507507324219e+01 -1.213326573371887207e+00 -1.087870717048645020e+00 -6.903591752052307129e-01 -1.146828532218933105e+00
1.625000000000000000e+03 5.035787200927734375e+01 3.009339141845703125e+01 -1.103983879089355469e+00 -9.542207717895507812e-01 -6.174613833427429199e-01 -1.020159363746643066e+00
1.626000000000000000e+03 4.990608215332031250e+01 3.013741302490234375e+01 -1.190681219100952148e+00 -1.090977191925048828e+00 -6.844975352287292480e-01 -1.135178685188293457e+00
1.627000000000000000e+03 4.821626281738281250e+01 2.846342277526855469e+01 -1.269675612449645996e+00 -1.095239877700805664e+00 -7.094746232032775879e-01 -1.166791200637817383e+00
1.628000000000000000e+03 4.934834671020507812e+01 2.958612823486328125e+01 -1.236406922340393066e+00 -1.107362985610961914e+00 -7.031309604644775391e-01 -1.156873941421508789e+00
1.629000000000000000e+03 3.559783554077148438e+01 1.532013416290283203e+01 -1.176192998886108398e+00 -1.388698339462280273e+00 -7.694674134254455566e-01 -1.282486557960510254e+00
1.630000000000000000e+03 3.468954467773437500e+01 2.518136787414550781e+01 5.687114968895912170e-02 7.777727395296096802e-02 4.039452597498893738e-02 6.458197534084320068e-02
1.631000000000000000e+03 3.399179840087890625e+01 2.486260986328125000e+01 5.516370013356208801e-02 7.612181454896926880e-02 3.938565403223037720e-02 6.551793962717056274e-02
1.632000000000000000e+03 5.064289093017578125e+01 3.035809326171875000e+01 -1.084781527519226074e+00 -9.289323687553405762e-01 -6.041141748428344727e-01 -9.952403903007507324e-01
1.633000000000000000e+03 3.768338012695312500e+01 2.930656051635742188e+01 5.632108449935913086e-02 6.740099191665649414e-02 3.711662068963050842e-02 5.950053781270980835e-02
1.634000000000000000e+03 2.811855316162109375e+01 1.896380424499511719e+01 8.320848643779754639e-02 9.243375062942504883e-02 5.269267410039901733e-02 8.809052407741546631e-02
1.635000000000000000e+03 2.891126632690429688e+01 1.917216682434082031e+01 8.452843874692916870e-02 8.598598837852478027e-02 5.115432664752006531e-02 8.595960587263107300e-02
1.636000000000000000e+03 4.756217575073242188e+01 2.728146362304687500e+01 -1.139395952224731445e+00 -9.933994412422180176e-01 -6.398386359214782715e-01 -1.082650184631347656e+00
1.637000000000000000e+03 3.586184692382812500e+01 1.560985660552978516e+01 -1.175517559051513672e+00 -1.391940593719482422e+00 -7.702374458312988281e-01 -1.273000955581665039e+00
1.638000000000000000e+03 3.612773132324218750e+01 1.589984989166259766e+01 -1.168562173843383789e+00 -1.392293214797973633e+00 -7.682566046714782715e-01 -1.269708752632141113e+00
1.639000000000000000e+03 3.641907501220703125e+01 1.675160598754882812e+01 -1.207144737243652344e+00 -1.466579556465148926e+00 -8.021172881126403809e-01 -1.317242622375488281e+00
1.640000000000000000e+03 3.639503097534179688e+01 1.619072341918945312e+01 -1.167580008506774902e+00 -1.396686315536499023e+00 -7.692798972129821777e-01 -1.262192368507385254e+00
1.641000000000000000e+03 3.951054763793945312e+01 3.060388755798339844e+01 5.968374758958816528e-02 5.796216055750846863e-02 3.529377281665802002e-02 5.700853839516639709e-02
1.642000000000000000e+03 4.231118011474609375e+01 2.246453285217285156e+01 -1.254598498344421387e+00 -1.094257831573486328e+00 -7.046568989753723145e-01 -1.169747471809387207e+00
1.643000000000000000e+03 2.780577278137207031e+01 1.873629760742187500e+01 8.437456190586090088e-02 9.473115950822830200e-02 5.373171716928482056e-02 8.966200053691864014e-02
1.644000000000000000e+03 4.375325393676757812e+01 2.378327941894531250e+01 -1.266261935234069824e+00 -1.140164375305175781e+00 -7.219278812408447266e-01 -1.185742020606994629e+00
1.645000000000000000e+03 2.862420463562011719e+01 1.891491317749023438e+01 8.641631156206130981e-02 8.803793042898178101e-02 5.233627185225486755e-02 8.755843341350555420e-02
1.646000000000000000e+03 2.895645904541015625e+01 1.969553947448730469e+01 7.896672189235687256e-02 8.663161098957061768e-02 4.967949911952018738e-02 8.381018042564392090e-02
1.647000000000000000e+03 3.666328048706054688e+01 1.648273658752441406e+01 -1.159278512001037598e+00 -1.398523211479187012e+00 -7.673404812812805176e-01 -1.257714152336120605e+00
1.648000000000000000e+03 1.350760173797607422e+01 3.423414707183837891e+00 3.028372526168823242e-01 1.570682287216186523e+00 5.620558261871337891e-01 -7.258456200361251831e-02
1.649000000000000000e+03 4.008393859863281250e+01 3.208167648315429688e+01 5.884352698922157288e-02 5.406321585178375244e-02 3.387202322483062744e-02 5.532657727599143982e-02
1.650000000000000000e+03 4.028264999389648438e+01 3.142719841003417969e+01 6.044632196426391602e-02 5.383471399545669556e-02 3.428431227803230286e-02 5.641404539346694946e-02
1.651000000000000000e+03 3.121030998229980469e+01 9.887121200561523438e+00 -1.300210714340209961e+00 -1.230593562126159668e+00 -7.592412829399108887e-01 -1.175359249114990234e+00
1.652000000000000000e+03 3.049576759338378906e+01 1.000998497009277344e+01 -1.399456739425659180e+00 -1.229937911033630371e+00 -7.888184189796447754e-01 -1.231558322906494141e+00
1.653000000000000000e+03 3.140473937988281250e+01 2.312536239624023438e+01 5.634211748838424683e-02 7.768335193395614624e-02 4.020763933658599854e-02 7.123404741287231445e-02
1.654000000000000000e+03 2.973005104064941406e+01 2.049848937988281250e+01 7.498455047607421875e-02 8.313246816396713257e-02 4.743510484695434570e-02 7.926560193300247192e-02
1.655000000000000000e+03 2.708857154846191406e+01 1.763863372802734375e+01 9.451080113649368286e-02 1.018812656402587891e-01 5.891761928796768188e-02 9.637720137834548950e-02
1.656000000000000000e+03 2.738889694213867188e+01 1.791564559936523438e+01 9.303265064954757690e-02 9.944257140159606934e-02 5.774256587028503418e-02 9.471851587295532227e-02
1.657000000000000000e+03 4.785330581665039062e+01 2.756387519836425781e+01 -1.147327065467834473e+00 -9.933937788009643555e-01 -6.422162652015686035e-01 -1.076545238494873047e+00
1.658000000000000000e+03 4.842699432373046875e+01 2.814061737060546875e+01 -1.165633797645568848e+00 -9.989989995956420898e-01 -6.493898034095764160e-01 -1.068598151206970215e+00
1.659000000000000000e+03 4.003520202636718750e+01 3.110383796691894531e+01 6.142715364694595337e-02 5.541887134313583374e-02 3.505380824208259583e-02 5.620276927947998047e-02
1.660000000000000000e+03 4.186045455932617188e+01 3.289109420776367188e+01 6.418900191783905029e-02 4.850659891963005066e-02 3.380868211388587952e-02 5.357579514384269714e-02
1.661000000000000000e+03 3.748908615112304688e+01 1.793549156188964844e+01 -1.150812149047851562e+00 -1.481443405151367188e+00 -7.896766662597656250e-01 -1.270061492919921875e+00
1.662000000000000000e+03 3.215711975097656250e+01 2.351180458068847656e+01 5.680393427610397339e-02 7.468860596418380737e-02 3.944776207208633423e-02 6.790901720523834229e-02
1.663000000000000000e+03 2.140529441833496094e+01 2.412608116865158081e-01 -1.803535819053649902e+00 -1.836461722850799561e-01 -5.961545705795288086e-01 -2.693091392517089844e+00
1.664000000000000000e+03 1.864570808410644531e+01 -1.727175235748291016e+00 -2.141907215118408203e+00 -2.366064310073852539e+00 -1.352391481399536133e+00 -1.729669809341430664e+00
1.665000000000000000e+03 2.062574768066406250e+01 -3.099035322666168213e-01 -1.692009568214416504e+00 -9.651867151260375977e-01 -7.971588969230651855e-01 -2.899860143661499023e+00
1.666000000000000000e+03 1.870041275024414062e+01 -8.596539497375488281e-01 -2.266584157943725586e+00 -1.716269135475158691e+00 -1.194856047630310059e+00 -1.662877440452575684e+00
1.667000000000000000e+03 2.253963851928710938e+01 8.141961693763732910e-01 -2.242926597595214844e+00 -1.189317405223846436e-01 -7.085574865341186523e-01 -1.635525703430175781e+00
1.668000000000000000e+03 2.651821899414062500e+01 1.703689575195312500e+01 9.711156785488128662e-02 1.061962768435478210e-01 6.099235266447067261e-02 9.960938245058059692e-02
1.669000000000000000e+03 2.436579704284667969e+01 1.604942703247070312e+01 9.079673141241073608e-02 1.140632331371307373e-01 6.145798787474632263e-02 1.052379831671714783e-01
1.670000000000000000e+03 2.301281547546386719e+01 1.351680088043212891e+01 1.210622414946556091e-01 1.346104443073272705e-01 7.670180499553680420e-02 1.241661608219146729e-01
1.671000000000000000e+03 2.164486312866210938e+01 1.257764339447021484e+01 1.161890923976898193e-01 1.417140513658523560e-01 7.737094163894653320e-02 1.289486885070800781e-01
1.672000000000000000e+03 5.093303680419921875e+01 3.061978912353515625e+01 -1.062375545501708984e+00 -9.007754921913146973e-01 -5.889452695846557617e-01 -9.637898206710815430e-01
1.673000000000000000e+03 2.747444343566894531e+01 1.851785850524902344e+01 8.486202359199523926e-02 9.781970828771591187e-02 5.480451881885528564e-02 9.048791229724884033e-02
1.674000000000000000e+03 1.737232589721679688e+01 8.712085723876953125e+00 1.425820589065551758e-01 2.108301222324371338e-01 1.060236543416976929e-01 1.667429506778717041e-01
1.675000000000000000e+03 3.377508926391601562e+01 1.376891040802001953e+01 -1.321483016014099121e+00 -1.462190628051757812e+00 -8.351020812988281250e-01 -1.334976196289062500e+00
1.676000000000000000e+03 3.431483078002929688e+01 1.382631969451904297e+01 -1.261107921600341797e+00 -1.390043735504150391e+00 -7.953454852104187012e-01 -1.274850487709045410e+00
1.677000000000000000e+03 3.980364227294921875e+01 3.080963897705078125e+01 6.127943843603134155e-02 5.643879249691963196e-02 3.531546890735626221e-02 5.679773911833763123e-02
1.678000000000000000e+03 4.525680541992187500e+01 3.550300979614257812e+01 8.968372642993927002e-02 4.276964440941810608e-02 3.973601013422012329e-02 6.321317702531814575e-02
1.679000000000000000e+03 4.496673202514648438e+01 3.607909774780273438e+01 9.130164980888366699e-02 3.857101872563362122e-02 3.896180167794227600e-02 5.924276635050773621e-02
1.680000000000000000e+03 3.693187332153320312e+01 1.677583694458007812e+01 -1.154649019241333008e+00 -1.402629494667053223e+00 -7.671836018562316895e-01 -1.246682524681091309e+00
1.681000000000000000e+03 4.638346862792968750e+01 2.619846916198730469e+01 -1.140600919723510742e+00 -1.024220824241638184e+00 -6.494465470314025879e-01 -1.121706724166870117e+00
1.682000000000000000e+03 3.840731430053710938e+01 3.108634376525878906e+01 5.708834156394004822e-02 6.147273257374763489e-02 3.556832298636436462e-02 5.546586960554122925e-02
1.683000000000000000e+03 3.878083419799804688e+01 3.072802543640136719e+01 5.880184471607208252e-02 6.024372577667236328e-02 3.571367263793945312e-02 5.635194107890129089e-02
1.684000000000000000e+03 4.570932769775390625e+01 3.619632339477539062e+01 1.067253351211547852e-01 3.838839754462242126e-02 4.353411868214607239e-02 6.351669132709503174e-02
1.685000000000000000e+03 4.554259872436523438e+01 3.719633102416992188e+01 1.297203600406646729e-01 3.228923305869102478e-02 4.860287532210350037e-02 5.426520481705665588e-02
1.686000000000000000e+03 5.122509765625000000e+01 3.087562942504882812e+01 -1.039925336837768555e+00 -8.553256392478942871e-01 -5.685753226280212402e-01 -9.288823604583740234e-01
1.687000000000000000e+03 2.496521568298339844e+01 1.644820022583007812e+01 9.176736325025558472e-02 1.096204072237014771e-01 6.041632965207099915e-02 1.024115234613418579e-01
1.688000000000000000e+03 2.559478187561035156e+01 1.623576927185058594e+01 9.699552506208419800e-02 1.069935485720634460e-01 6.119672209024429321e-02 1.022377759218215942e-01
1.689000000000000000e+03 4.202497863769531250e+01 2.219905662536621094e+01 -1.244564294815063477e+00 -1.097769379615783691e+00 -7.027001380920410156e-01 -1.157665610313415527e+00
1.690000000000000000e+03 4.088065338134765625e+01 2.118067359924316406e+01 -1.121775746345520020e+00 -1.084858059883117676e+00 -6.619901657104492188e-01 -1.146001815795898438e+00
1.691000000000000000e+03 4.144847106933593750e+01 2.167465782165527344e+01 -1.191356539726257324e+00 -1.103960037231445312e+00 -6.885949373245239258e-01 -1.143616318702697754e+00
1.692000000000000000e+03 5.223914718627929688e+01 3.226118850708007812e+01 -9.173370003700256348e-01 -6.792289614677429199e-01 -4.789697825908660889e-01 -8.153277039527893066e-01
1.693000000000000000e+03 4.222126770019531250e+01 3.310621261596679688e+01 6.845474988222122192e-02 4.586577042937278748e-02 3.429615497589111328e-02 5.373086780309677124e-02
1.694000000000000000e+03 2.998758888244628906e+01 2.080899238586425781e+01 7.276321202516555786e-02 8.215668797492980957e-02 4.647596925497055054e-02 7.728908956050872803e-02
1.695000000000000000e+03 4.404527282714843750e+01 2.405083465576171875e+01 -1.271589398384094238e+00 -1.154417157173156738e+00 -7.278019785881042480e-01 -1.179962158203125000e+00
1.696000000000000000e+03 4.433761596679687500e+01 2.432013320922851562e+01 -1.273240923881530762e+00 -1.161538958549499512e+00 -7.304339408874511719e-01 -1.172080039978027344e+00
1.697000000000000000e+03 3.681696701049804688e+01 2.801917266845703125e+01 5.769791081547737122e-02 7.371928542852401733e-02 3.942516073584556580e-02 6.282188743352890015e-02
1.698000000000000000e+03 3.885675811767578125e+01 1.881636238098144531e+01 -1.040343403816223145e+00 -1.205482959747314453e+00 -6.737478971481323242e-01 -1.160791754722595215e+00
1.699000000000000000e+03 3.720011138916015625e+01 1.706953048706054688e+01 -1.144605517387390137e+00 -1.399831056594848633e+00 -7.633309960365295410e-01 -1.236109137535095215e+00
1.700000000000000000e+03 3.746780395507812500e+01 1.736289024353027344e+01 -1.136940360069274902e+00 -1.392247200012207031e+00 -7.587562799453735352e-01 -1.220111846923828125e+00
1.701000000000000000e+03 4.256769561767578125e+01 3.332413101196289062e+01 6.656280159950256348e-02 4.671504721045494080e-02 3.398335352540016174e-02 5.450659245252609253e-02
1.702000000000000000e+03 4.235271453857421875e+01 3.364898300170898438e+01 7.180937379598617554e-02 4.517982527613639832e-02 3.509676083922386169e-02 5.290552601218223572e-02
1.703000000000000000e+03 1.945638275146484375e+01 1.099237632751464844e+01 1.189852058887481689e-01 1.626502722501754761e-01 8.449064195156097412e-02 1.415686458349227905e-01
1.704000000000000000e+03 4.297098922729492188e+01 3.488660049438476562e+01 7.936489582061767578e-02 4.324844852089881897e-02 3.678400442004203796e-02 5.441912263631820679e-02
1.705000000000000000e+03 4.261416625976562500e+01 3.388619995117187500e+01 7.139620184898376465e-02 4.692161828279495239e-02 3.549534454941749573e-02 5.479936301708221436e-02
1.706000000000000000e+03 3.147198486328125000e+01 1.155341625213623047e+01 -1.470790386199951172e+00 -1.428669691085815430e+00 -8.698379993438720703e-01 -1.358436584472656250e+00
1.707000000000000000e+03 2.327804756164550781e+01 1.381664466857910156e+01 1.203467324376106262e-01 1.315313726663589478e-01 7.556343078613281250e-02 1.211924254894256592e-01
1.708000000000000000e+03 3.195233917236328125e+01 1.149330902099609375e+01 -1.381517291069030762e+00 -1.354056835174560547e+00 -8.206722140312194824e-01 -1.277805685997009277e+00
1.709000000000000000e+03 3.356033325195312500e+01 2.493496322631835938e+01 5.431598424911499023e-02 7.646483182907104492e-02 3.923424333333969116e-02 6.537262350320816040e-02
1.710000000000000000e+03 4.471232986450195312e+01 3.445403671264648438e+01 7.662470638751983643e-02 4.546561092138290405e-02 3.662709519267082214e-02 5.881960690021514893e-02
1.711000000000000000e+03 4.501791763305664062e+01 3.521496200561523438e+01 8.787212520837783813e-02 4.338122531771659851e-02 3.937600553035736084e-02 5.846035107970237732e-02
1.712000000000000000e+03 5.256911087036132812e+01 3.249144744873046875e+01 -8.839084506034851074e-01 -5.168640017509460449e-01 -4.202317297458648682e-01 -7.666761279106140137e-01
1.713000000000000000e+03 4.463017272949218750e+01 2.459042167663574219e+01 -1.270319819450378418e+00 -1.157966852188110352e+00 -7.284860014915466309e-01 -1.163106918334960938e+00
1.714000000000000000e+03 3.310239791870117188e+01 2.422012138366699219e+01 5.442634969949722290e-02 7.696024328470230103e-02 3.941597789525985718e-02 6.549166142940521240e-02
1.715000000000000000e+03 2.110682868957519531e+01 1.202983283996582031e+01 1.178253367543220520e-01 1.483851522207260132e-01 7.986314594745635986e-02 1.316118985414505005e-01
1.716000000000000000e+03 2.083257865905761719e+01 1.175803661346435547e+01 1.191861927509307861e-01 1.502149999141693115e-01 8.082035928964614868e-02 1.331772655248641968e-01
1.717000000000000000e+03 3.481852722167968750e+01 2.598296165466308594e+01 5.259979516267776489e-02 7.693461328744888306e-02 3.886032104492187500e-02 6.362728774547576904e-02
1.718000000000000000e+03 3.464435195922851562e+01 2.567400360107421875e+01 5.476940795779228210e-02 7.690242677927017212e-02 3.950155153870582581e-02 6.320925056934356689e-02
1.719000000000000000e+03 3.743456649780273438e+01 2.984951591491699219e+01 5.598065257072448730e-02 6.700025498867034912e-02 3.689427301287651062e-02 5.805872753262519836e-02
1.720000000000000000e+03 3.720576477050781250e+01 2.916808891296386719e+01 5.748664587736129761e-02 6.924109160900115967e-02 3.801832348108291626e-02 5.941521003842353821e-02
1.721000000000000000e+03 2.217208671569824219e+01 1.314332294464111328e+01 1.160856112837791443e-01 1.373469084501266479e-01 7.602975517511367798e-02 1.241531223058700562e-01
1.722000000000000000e+03 3.316168212890625000e+01 1.199398231506347656e+01 -1.248093366622924805e+00 -1.291149497032165527e+00 -7.617728710174560547e-01 -1.243796586990356445e+00
1.723000000000000000e+03 2.293657302856445312e+01 1.404290199279785156e+01 1.109404116868972778e-01 1.319109499454498291e-01 7.285540550947189331e-02 1.167757809162139893e-01
1.724000000000000000e+03 3.027946853637695312e+01 2.109762954711914062e+01 7.103948295116424561e-02 8.112734556198120117e-02 4.565005004405975342e-02 7.517874985933303833e-02
1.725000000000000000e+03 5.151939010620117188e+01 3.112518882751464844e+01 -1.015918016433715820e+00 -7.978165745735168457e-01 -5.441203713417053223e-01 -8.870531916618347168e-01
1.726000000000000000e+03 2.366461944580078125e+01 1.498886013031005859e+01 9.989807009696960449e-02 1.237364858388900757e-01 6.709036976099014282e-02 1.105789095163345337e-01
1.727000000000000000e+03 2.318259811401367188e+01 1.435314464569091797e+01 1.079609319567680359e-01 1.297178864479064941e-01 7.130364328622817993e-02 1.140553206205368042e-01
1.728000000000000000e+03 3.348289871215820312e+01 1.284554862976074219e+01 -1.234162449836730957e+00 -1.366229057312011719e+00 -7.801174521446228027e-01 -1.292614102363586426e+00
1.729000000000000000e+03 3.660241317749023438e+01 2.768501091003417969e+01 5.869274958968162537e-02 7.490792870521545410e-02 4.008020460605621338e-02 6.238234415650367737e-02
1.730000000000000000e+03 3.100548744201660156e+01 2.200353622436523438e+01 6.193089857697486877e-02 7.928807288408279419e-02 4.236568883061408997e-02 7.305026799440383911e-02
1.731000000000000000e+03 3.085160446166992188e+01 2.149680519104003906e+01 6.658393144607543945e-02 7.879921048879623413e-02 4.361494258046150208e-02 7.222473621368408203e-02
1.732000000000000000e+03 5.212087249755859375e+01 3.160425186157226562e+01 -9.717444181442260742e-01 -6.123052835464477539e-01 -4.752148985862731934e-01 -8.030999302864074707e-01
1.733000000000000000e+03 3.249773788452148438e+01 2.371948051452636719e+01 5.603249743580818176e-02 7.568287104368209839e-02 3.951460868120193481e-02 6.637710332870483398e-02
1.734000000000000000e+03 5.181769561767578125e+01 3.136914253234863281e+01 -9.908722639083862305e-01 -7.139105200767517090e-01 -5.114348530769348145e-01 -8.445209860801696777e-01
1.735000000000000000e+03 5.168968963623046875e+01 3.075533103942871094e+01 -9.719716906547546387e-01 -6.386226415634155273e-01 -4.831783175468444824e-01 -8.050462007522583008e-01
1.736000000000000000e+03 3.092527008056640625e+01 1.029322242736816406e+01 -1.345691919326782227e+00 -1.243675708770751953e+00 -7.768102884292602539e-01 -1.275258183479309082e+00
1.737000000000000000e+03 3.116425323486328125e+01 1.081357669830322266e+01 -1.378788113594055176e+00 -1.304919600486755371e+00 -8.051123023033142090e-01 -1.291913390159606934e+00
1.738000000000000000e+03 3.655530929565429688e+01 2.862823295593261719e+01 5.430202931165695190e-02 7.156030088663101196e-02 3.775870054960250854e-02 5.930810049176216125e-02
1.739000000000000000e+03 3.288421630859375000e+01 1.228070163726806641e+01 -1.284143805503845215e+00 -1.331894516944885254e+00 -7.848114967346191406e-01 -1.316949605941772461e+00
1.740000000000000000e+03 1.569564723968505859e+01 6.458999633789062500e+00 1.771318167448043823e-01 3.179801106452941895e-01 1.485335826873779297e-01 2.093574106693267822e-01
1.741000000000000000e+03 1.889150810241699219e+01 9.895316123962402344e+00 1.309605091810226440e-01 1.791765838861465454e-01 9.304112941026687622e-02 1.524340957403182983e-01
1.742000000000000000e+03 1.859151840209960938e+01 9.658141136169433594e+00 1.334252655506134033e-01 1.847549080848693848e-01 9.545405209064483643e-02 1.548254042863845825e-01
1.743000000000000000e+03 6.153266525268554688e+01 3.753915405273437500e+01 7.504912614822387695e-01 3.015435934066772461e+00 1.129778146743774414e+00 -2.018306732177734375e+00
1.744000000000000000e+03 3.023484039306640625e+01 5.476309776306152344e+00 -1.675323128700256348e+00 -9.056822061538696289e-01 -7.743015885353088379e-01 -9.561961889266967773e-01
1.745000000000000000e+03 2.950968551635742188e+01 5.467732906341552734e+00 -1.891749978065490723e+00 -1.133636355400085449e+00 -9.076159000396728516e-01 -1.023049712181091309e+00
1.746000000000000000e+03 4.739271163940429688e+01 3.683337020874023438e+01 1.624024361371994019e-01 6.115731224417686462e-02 6.706792861223220825e-02 7.795359194278717041e-02
1.747000000000000000e+03 4.498008346557617188e+01 3.831952667236328125e+01 1.223968043923377991e-01 2.119386941194534302e-02 4.307720065116882324e-02 2.698541432619094849e-02
1.748000000000000000e+03 4.807281875610351562e+01 3.828342819213867188e+01 1.825373619794845581e-01 3.751120343804359436e-02 6.601456552743911743e-02 4.164454713463783264e-02
1.749000000000000000e+03 1.461079597473144531e+01 6.218535900115966797e+00 1.315276920795440674e-01 4.189489781856536865e-01 1.651429980993270874e-01 1.938439607620239258e-01
1.750000000000000000e+03 1.616084098815917969e+01 6.918828487396240234e+00 1.645107269287109375e-01 2.856815457344055176e-01 1.350576877593994141e-01 2.035240083932876587e-01
1.751000000000000000e+03 1.592844581604003906e+01 6.659494876861572266e+00 1.676505357027053833e-01 2.988965809345245361e-01 1.399641335010528564e-01 2.093265801668167114e-01
1.752000000000000000e+03 1.367515373229980469e+01 4.731699466705322266e+00 1.079984307289123535e-01 8.360503911972045898e-01 2.832146584987640381e-01 1.045185029506683350e-01
1.753000000000000000e+03 5.383551406860351562e+01 3.947887802124023438e+01 6.448145210742950439e-02 -9.365036487579345703e-01 -2.616066634654998779e-01 4.279182553291320801e-01
1.754000000000000000e+03 5.471341705322265625e+01 3.900718688964843750e+01 4.121039435267448425e-02 -7.993375062942504883e-01 -2.274381369352340698e-01 4.476871490478515625e-01
1.755000000000000000e+03 1.287166023254394531e+01 3.066344976425170898e+00 6.324627995491027832e-01 9.447021484375000000e-01 4.731494784355163574e-01 -4.546100497245788574e-01
1.756000000000000000e+03 1.369031143188476562e+01 3.828239917755126953e+00 2.473561018705368042e-01 1.312232851982116699e+00 4.678766727447509766e-01 1.086701080203056335e-01
1.757000000000000000e+03 1.217246055603027344e+01 2.071664571762084961e+00 7.491930127143859863e-01 -1.945700347423553467e-01 1.663868874311447144e-01 8.198320865631103516e-02
1.758000000000000000e+03 5.633757400512695312e+01 3.847587966918945312e+01 7.480951398611068726e-02 -2.169740945100784302e-01 -4.264937341213226318e-02 5.567037463188171387e-01
1.759000000000000000e+03 5.617510604858398438e+01 3.777963638305664062e+01 -1.819810569286346436e-01 -1.232408955693244934e-01 -9.156658500432968140e-02 6.915926933288574219e-01
1.760000000000000000e+03 1.337742042541503906e+01 2.997600793838500977e+00 4.971423149108886719e-01 1.735460996627807617e+00 6.697809696197509766e-01 -3.651947677135467529e-01
1.761000000000000000e+03 5.368199920654296875e+01 3.290316390991210938e+01 -8.884798884391784668e-01 -3.913290798664093018e-02 -2.782838344573974609e-01 -6.435311436653137207e-01
1.762000000000000000e+03 5.152656555175781250e+01 3.914139556884765625e+01 8.141435682773590088e-02 4.587049409747123718e-02 3.818545490503311157e-02 1.891623288393020630e-01
1.763000000000000000e+03 5.210881805419921875e+01 3.906084060668945312e+01 -1.943302154541015625e-02 -3.698290139436721802e-02 -1.692477613687515259e-02 2.387261837720870972e-01
1.764000000000000000e+03 5.930723190307617188e+01 3.765536117553710938e+01 4.691677689552307129e-01 3.691209256649017334e-01 2.514865994453430176e-01 4.097947385162115097e-03
1.765000000000000000e+03 6.263640213012695312e+01 3.624077224731445312e+01 1.589972734451293945e+00 3.612695455551147461e+00 1.560800433158874512e+00 -3.235515117645263672e+00
1.766000000000000000e+03 6.266618728637695312e+01 3.678533172607421875e+01 1.291201233863830566e+00 5.085388183593750000e+00 1.912976861000061035e+00 -3.518155336380004883e+00
1.767000000000000000e+03 5.901156234741210938e+01 3.196487426757812500e+01 -4.391668364405632019e-02 4.787167310714721680e-01 1.304400116205215454e-01 2.362074851989746094e-01
1.768000000000000000e+03 6.257073593139648438e+01 3.181013870239257812e+01 2.341996431350708008e+00 4.118360996246337891e+00 1.938107252120971680e+00 4.108796596527099609e+00
1.769000000000000000e+03 5.842691040039062500e+01 3.202212142944335938e+01 -2.747567296028137207e-01 4.156703650951385498e-01 4.227409139275550842e-02 9.483351372182369232e-03
1.770000000000000000e+03 4.942706680297851562e+01 3.896992111206054688e+01 2.047875821590423584e-01 -1.432644203305244446e-02 5.713834241032600403e-02 5.335425958037376404e-02
1.771000000000000000e+03 1.028037071228027344e+01 -2.810668468475341797e+00 -4.767498970031738281e-01 -4.244789108633995056e-02 -1.557593345642089844e-01 -2.580113112926483154e-01
1.772000000000000000e+03 4.662707519531250000e+01 3.666596221923828125e+01 1.379894465208053589e-01 4.190468043088912964e-02 5.396823585033416748e-02 7.187347114086151123e-02
1.773000000000000000e+03 5.639993667602539062e+01 3.264645385742187500e+01 -9.214685559272766113e-01 2.957401573657989502e-01 -1.877185106277465820e-01 -4.879763126373291016e-01
1.774000000000000000e+03 5.329691696166992188e+01 3.268795394897460938e+01 -8.711249828338623047e-01 -1.799378991127014160e-01 -3.153188824653625488e-01 -6.665632128715515137e-01
1.775000000000000000e+03 5.504399490356445312e+01 4.115357208251953125e+01 7.337911725044250488e-01 -6.232218742370605469e-01 3.317080438137054443e-02 4.620669409632682800e-02
1.776000000000000000e+03 5.453194808959960938e+01 3.975162506103515625e+01 4.055488705635070801e-01 -8.318536877632141113e-01 -1.278914511203765869e-01 1.436256468296051025e-01
1.777000000000000000e+03 8.423628807067871094e+00 3.222423791885375977e+00 4.738695174455642700e-02 -1.980406790971755981e-01 -4.519611969590187073e-02 2.231580168008804321e-01
1.778000000000000000e+03 6.953895568847656250e+00 3.327049255371093750e+00 -1.969808898866176605e-02 -1.255785375833511353e-01 -4.358298704028129578e-02 1.931202858686447144e-01
1.779000000000000000e+03 5.587163925170898438e+00 4.200369358062744141e+00 1.159790996462106705e-02 -1.111695989966392517e-01 -2.987150661647319794e-02 1.452228724956512451e-01
1.780000000000000000e+03 3.247442483901977539e+00 2.891442537307739258e+00 -3.528524935245513916e-02 -4.902994260191917419e-02 -2.529455721378326416e-02 8.250088989734649658e-02
1.781000000000000000e+03 4.732968330383300781e+00 2.738053321838378906e+00 -6.368985027074813843e-02 -5.466508492827415466e-02 -3.550647944211959839e-02 1.219961121678352356e-01
1.782000000000000000e+03 6.237098217010498047e+00 3.379432916641235352e+00 -2.937697991728782654e-02 -1.087439656257629395e-01 -4.143628478050231934e-02 1.745404303073883057e-01
1.783000000000000000e+03 9.875988006591796875e+00 2.427108287811279297e+00 4.738336428999900818e-02 -3.220917582511901855e-01 -8.241251856088638306e-02 3.234271705150604248e-01
1.784000000000000000e+03 4.036963939666748047e+00 3.674565792083740234e+00 -2.105772867798805237e-02 -7.460340857505798340e-02 -2.869834005832672119e-02 1.105419844388961792e-01
1.785000000000000000e+03 3.987937927246093750e+00 2.815589666366577148e+00 -4.876932129263877869e-02 -5.357051268219947815e-02 -3.070195019245147705e-02 1.026634350419044495e-01
1.786000000000000000e+03 1.847420930862426758e+00 2.966126203536987305e+00 -1.697528734803199768e-02 -4.488372802734375000e-02 -1.855770498514175415e-02 5.020377039909362793e-02
1.787000000000000000e+03 1.063793945312500000e+01 2.321546554565429688e+00 1.893692016601562500e-01 -3.657847642898559570e-01 -5.292467027902603149e-02 2.968099415302276611e-01
1.788000000000000000e+03 9.966851234436035156e+00 3.079004526138305664e+00 2.363981902599334717e-01 -2.828715145587921143e-01 -1.394199859350919724e-02 1.852308958768844604e-01
1.789000000000000000e+03 1.109636688232421875e+01 -3.619511842727661133e+00 -5.650858879089355469e-01 -1.105159595608711243e-01 -2.026805579662322998e-01 -4.002060592174530029e-01
1.790000000000000000e+03 1.413383388519287109e+01 -3.026785373687744141e+00 -1.027047514915466309e+00 -2.663187086582183838e-01 -3.880098760128021240e-01 -6.221925616264343262e-01
1.791000000000000000e+03 1.139891719818115234e+01 2.187103033065795898e+00 3.858315050601959229e-01 -3.767809271812438965e-01 2.715166192501783371e-03 2.540822625160217285e-01
1.792000000000000000e+03 1.323449039459228516e+01 5.730310916900634766e+00 8.501376211643218994e-02 5.681432485580444336e-01 1.959470957517623901e-01 1.728338003158569336e-02
1.793000000000000000e+03 3.101348495483398438e+01 8.651309013366699219e+00 -1.161307096481323242e+00 -1.202134132385253906e+00 -7.090323567390441895e-01 -1.029077053070068359e+00
1.794000000000000000e+03 3.128632545471191406e+01 7.325049877166748047e+00 -1.114544630050659180e+00 -1.100965142250061035e+00 -6.646529436111450195e-01 -1.115734457969665527e+00
1.795000000000000000e+03 3.106453704833984375e+01 6.152026653289794922e+00 -1.342881441116333008e+00 -9.116929769515991211e-01 -6.763723492622375488e-01 -1.040059447288513184e+00
1.796000000000000000e+03 5.838148117065429688e+01 3.154414939880371094e+01 1.235063828062266111e-04 5.743269324302673340e-01 1.723351329565048218e-01 1.444375216960906982e-01
1.797000000000000000e+03 5.576536941528320312e+01 3.194339179992675781e+01 -7.260528206825256348e-01 3.489470779895782471e-01 -1.131317242980003357e-01 -5.143280625343322754e-01
1.798000000000000000e+03 4.547502899169921875e+01 3.583050918579101562e+01 1.007987111806869507e-01 4.423098638653755188e-02 4.350890964269638062e-02 5.991318449378013611e-02
1.799000000000000000e+03 1.574927806854248047e+01 -3.045764923095703125e+00 -1.242762684822082520e+00 -6.831702589988708496e-01 -5.777798891067504883e-01 -8.576385974884033203e-01
1.800000000000000000e+03 8.840117454528808594e+00 -3.605937957763671875e+00 -3.533267974853515625e-01 -5.247780308127403259e-02 -1.217413842678070068e-01 -2.640190422534942627e-01
1.801000000000000000e+03 5.552745819091796875e+00 -2.880444526672363281e+00 -1.276842802762985229e-01 -4.555008932948112488e-02 -5.197031423449516296e-02 -1.035115942358970642e-01
1.802000000000000000e+03 7.290872573852539062e+00 -3.697540760040283203e+00 -2.412756681442260742e-01 -5.965919420123100281e-02 -9.028045833110809326e-02 -2.035825252532958984e-01
1.803000000000000000e+03 4.746496200561523438e+00 -2.918386936187744141e+00 -9.952102601528167725e-02 -4.022227600216865540e-02 -4.192299023270606995e-02 -8.179086446762084961e-02
1.804000000000000000e+03 6.501720905303955078e+00 -3.756254911422729492e+00 -1.888443976640701294e-01 -7.460669428110122681e-02 -7.903532683849334717e-02 -1.781172901391983032e-01
1.805000000000000000e+03 5.706191062927246094e+00 -3.813375234603881836e+00 -1.543575078248977661e-01 -6.803423166275024414e-02 -6.671752035617828369e-02 -1.506056338548660278e-01
1.806000000000000000e+03 2.308744668960571289e+00 -3.175792217254638672e+00 -3.168318793177604675e-02 -3.672654926776885986e-02 -2.052292227745056152e-02 -3.121480718255043030e-02
1.807000000000000000e+03 3.577799081802368164e+00 -8.126265525817871094e+00 -4.492080211639404297e-02 -2.581964433193206787e-01 -9.093517065048217773e-02 -2.100092619657516479e-01
1.808000000000000000e+03 1.583019256591796875e+00 -5.400993824005126953e+00 -1.480670273303985596e-02 -8.175943046808242798e-02 -2.896983921527862549e-02 -5.339727550745010376e-02
1.809000000000000000e+03 5.288377380371093750e+01 3.158829116821289062e+01 -9.275528788566589355e-01 -2.702040672302246094e-01 -3.593270778656005859e-01 -6.952102780342102051e-01
1.810000000000000000e+03 5.476619720458984375e+01 3.225168609619140625e+01 -8.638294935226440430e-01 2.211839556694030762e-01 -1.927936673164367676e-01 -6.134652495384216309e-01
1.811000000000000000e+03 1.074647617340087891e+01 2.943752288818359375e+00 3.742897510528564453e-01 -2.955078780651092529e-01 2.363456785678863525e-02 1.306210756301879883e-01
1.812000000000000000e+03 1.423832035064697266e+01 -4.455760002136230469e+00 -7.668598294258117676e-01 -4.720983207225799561e-01 -3.716874420642852783e-01 -7.708317637443542480e-01
1.813000000000000000e+03 1.337664127349853516e+01 -3.709557771682739258e+00 -8.239731788635253906e-01 -2.495210021734237671e-01 -3.220482468605041504e-01 -6.135910153388977051e-01
1.814000000000000000e+03 1.184270000457763672e+01 -3.654990911483764648e+00 -6.472581028938293457e-01 -1.117610633373260498e-01 -2.277057468891143799e-01 -4.560450315475463867e-01
1.815000000000000000e+03 1.259798145294189453e+01 -3.689043283462524414e+00 -7.495207786560058594e-01 -1.970620900392532349e-01 -2.839748561382293701e-01 -5.439451932907104492e-01
1.816000000000000000e+03 1.819855690002441406e+01 -5.861211299896240234e+00 -5.741384625434875488e-02 -1.469829916954040527e+00 -4.581731259822845459e-01 -4.582368731498718262e-01
1.817000000000000000e+03 5.544129180908203125e+01 3.794277572631835938e+01 -3.431032299995422363e-01 -3.924015164375305176e-01 -2.206514179706573486e-01 7.008817791938781738e-01
1.818000000000000000e+03 2.167897415161132812e+01 -9.167193770408630371e-01 6.547768712043762207e-01 2.100196361541748047e+00 8.264919519424438477e-01 -1.098517537117004395e+00
1.819000000000000000e+03 2.282738685607910156e+01 -1.066891193389892578e+00 8.404226303100585938e-01 8.894813060760498047e-01 5.189712047576904297e-01 -8.908638954162597656e-01
1.820000000000000000e+03 6.177291488647460938e+01 3.790877532958984375e+01 1.020598292350769043e+00 4.239643573760986328e+00 1.578072547912597656e+00 -2.686218023300170898e+00
1.821000000000000000e+03 6.181017303466796875e+01 3.842820358276367188e+01 7.023719549179077148e-01 4.365735054016113281e+00 1.520432114601135254e+00 -2.331893682479858398e+00
1.822000000000000000e+03 5.745400619506835938e+01 3.801010894775390625e+01 5.448229238390922546e-02 6.297336816787719727e-01 2.052647918462753296e-01 5.095726251602172852e-01
1.823000000000000000e+03 1.871240997314453125e+01 -1.243400692939758301e+00 -2.160749435424804688e+00 -2.189222574234008789e+00 -1.304991602897644043e+00 -1.898795604705810547e+00
1.824000000000000000e+03 3.488878250122070312e+01 -1.265644454956054688e+01 1.701726168394088745e-01 -1.840644031763076782e-01 -4.167538136243820190e-03 -3.725305665284395218e-03
1.825000000000000000e+03 3.985918426513671875e+01 -2.106321525573730469e+01 -7.280233502388000488e-02 2.572320401668548584e-01 5.532891303300857544e-02 5.986667051911354065e-02
1.826000000000000000e+03 2.318126296997070312e+01 -2.044546890258789062e+01 2.043156623840332031e-01 3.511767089366912842e-01 1.666477024555206299e-01 -3.374222218990325928e-01
1.827000000000000000e+03 2.923391723632812500e+01 -6.749302864074707031e+00 5.793616771697998047e-01 7.334877550601959229e-02 1.958131343126296997e-01 -3.398872017860412598e-01
1.828000000000000000e+03 2.974936294555664062e+01 -3.880313634872436523e+00 6.529664397239685059e-01 -3.307168185710906982e-01 9.667488932609558105e-02 -1.502044051885604858e-01
1.829000000000000000e+03 2.442544174194335938e+01 -1.979120063781738281e+01 1.962857693433761597e-01 4.807596504688262939e-01 2.031136304140090942e-01 -3.329307138919830322e-01
1.830000000000000000e+03 2.375424575805664062e+01 -2.166654014587402344e+01 2.064722478389739990e-01 4.061075747013092041e-01 1.837739497423171997e-01 -3.388439118862152100e-01
1.831000000000000000e+03 3.307104110717773438e+01 -1.230224323272705078e+01 1.062927842140197754e-01 -2.566914260387420654e-01 -4.511959478259086609e-02 3.477297350764274597e-02
1.832000000000000000e+03 3.569377899169921875e+01 -1.379303836822509766e+01 1.075861006975173950e-01 -1.411769688129425049e-01 -1.007726043462753296e-02 1.920201815664768219e-02
1.833000000000000000e+03 3.289525985717773438e+01 -3.573983764648437500e+01 6.291541457176208496e-01 6.595230698585510254e-01 3.866031765937805176e-01 -4.965039491653442383e-01
1.834000000000000000e+03 2.245153999328613281e+01 -2.231346321105957031e+01 2.191622257232666016e-01 2.697285413742065430e-01 1.466672271490097046e-01 -3.395727872848510742e-01
1.835000000000000000e+03 2.360260772705078125e+01 -2.493143081665039062e+01 2.337101697921752930e-01 3.586569428443908691e-01 1.777101308107376099e-01 -3.518292605876922607e-01
1.836000000000000000e+03 2.191583061218261719e+01 -1.812140846252441406e+01 2.023064345121383667e-01 2.450492084026336670e-01 1.342066973447799683e-01 -3.131104409694671631e-01
1.837000000000000000e+03 4.358798563480377197e-01 3.530069828033447266e+00 -3.419434651732444763e-03 -5.467030778527259827e-02 -1.742692291736602783e-02 1.470578927546739578e-02
1.838000000000000000e+03 2.508611488342285156e+01 -2.291073083877563477e+00 1.031725883483886719e+00 3.897904157638549805e-01 4.264549016952514648e-01 -7.686023116111755371e-01
1.839000000000000000e+03 2.746438217163085938e+01 -3.641310453414916992e+00 9.152663350105285645e-01 -3.850307781249284744e-03 2.734248042106628418e-01 -4.558724462985992432e-01
1.840000000000000000e+03 2.734017372131347656e+01 -2.907287597656250000e+01 2.944575846195220947e-01 6.100024580955505371e-01 2.713380157947540283e-01 -4.100463092327117920e-01
1.841000000000000000e+03 4.120529174804687500e+01 -2.341691780090332031e+01 -9.473272413015365601e-02 4.857453107833862305e-01 1.173037737607955933e-01 2.168610505759716034e-02
1.842000000000000000e+03 3.172536277770996094e+01 -8.248176574707031250e+00 4.833582043647766113e-01 -2.170262932777404785e-01 7.989957183599472046e-02 -1.747019439935684204e-01
1.843000000000000000e+03 2.683168601989746094e+01 -2.777536201477050781e+01 2.782007753849029541e-01 5.938000679016113281e-01 2.616002559661865234e-01 -3.955745995044708252e-01
1.844000000000000000e+03 2.746841812133789062e+01 -2.592533493041992188e+01 2.340255081653594971e-01 6.887816190719604492e-01 2.768421173095703125e-01 -3.954025208950042725e-01
1.845000000000000000e+03 4.408161544799804688e+01 -2.791921615600585938e+01 -1.285476833581924438e-01 1.344480633735656738e+00 3.647798895835876465e-01 -8.486127853393554688e-02
1.846000000000000000e+03 3.717685699462890625e+01 -1.617402648925781250e+01 2.865906618535518646e-02 -4.360673204064369202e-02 -4.484299570322036743e-03 5.504497885704040527e-02
1.847000000000000000e+03 4.257163619995117188e+01 -2.570741462707519531e+01 -1.139291077852249146e-01 8.122215867042541504e-01 2.094877511262893677e-01 -4.161563143134117126e-02
1.848000000000000000e+03 4.081700134277343750e+01 -2.531979370117187500e+01 -1.050324738025665283e-01 2.768983542919158936e-01 5.155976861715316772e-02 4.533671960234642029e-02
1.849000000000000000e+03 4.430583572387695312e+01 -2.604111671447753906e+01 -1.342607736587524414e-01 1.369256138801574707e+00 3.704986274242401123e-01 -5.247934535145759583e-02
1.850000000000000000e+03 3.742974472045898438e+01 -1.937921905517578125e+01 -9.602975100278854370e-02 -1.703561246395111084e-01 -7.991576194763183594e-02 1.484464108943939209e-01
1.851000000000000000e+03 1.866682624816894531e+01 -1.304501533508300781e+01 2.336760461330413818e-01 -2.362105399370193481e-01 -7.603490375913679600e-04 -3.068154752254486084e-01
1.852000000000000000e+03 3.032390403747558594e+01 -4.673622608184814453e+00 6.974475979804992676e-01 -3.172819316387176514e-01 1.140497103333473206e-01 -1.633253842592239380e-01
1.853000000000000000e+03 1.522466945648193359e+01 -7.096878051757812500e+00 -1.597379744052886963e-01 -7.375357151031494141e-01 -2.691821157932281494e-01 -7.379992604255676270e-01
1.854000000000000000e+03 3.876445770263671875e+01 -2.179201698303222656e+01 -1.082287207245826721e-01 -4.296033456921577454e-02 -4.535671696066856384e-02 1.347512900829315186e-01
1.855000000000000000e+03 3.809976577758789062e+01 -2.059198188781738281e+01 -1.048252582550048828e-01 -1.030731424689292908e-01 -6.236952170729637146e-02 1.486013084650039673e-01
1.856000000000000000e+03 7.804090118408203125e+01 -3.574909973144531250e+01 -6.100662983953952789e-03 7.612719058990478516e+00 2.281985521316528320e+00 5.854026228189468384e-02
1.857000000000000000e+03 7.443109893798828125e+01 -3.721681594848632812e+01 2.130126580595970154e-02 7.081246376037597656e+00 2.130764245986938477e+00 2.571325190365314484e-02
1.858000000000000000e+03 7.491126251220703125e+01 -3.291510772705078125e+01 1.235458534210920334e-02 7.173115253448486328e+00 2.155641078948974609e+00 1.080071479082107544e-01
1.859000000000000000e+03 7.688523101806640625e+01 -3.578371810913085938e+01 9.577439777785912156e-05 7.455225467681884766e+00 2.236596345901489258e+00 7.745932787656784058e-02
1.860000000000000000e+03 7.424878692626953125e+01 -2.306966781616210938e+01 2.239471301436424255e-03 7.303290843963623047e+00 2.191658973693847656e+00 1.904898434877395630e-01
1.861000000000000000e+03 7.802703857421875000e+01 -2.901344871520996094e+01 2.541138557717204094e-03 7.776152610778808594e+00 2.333608150482177734e+00 5.777087062597274780e-02
1.862000000000000000e+03 7.825971984863281250e+01 1.939205551147460938e+01 -5.194328352808952332e-02 8.564024925231933594e+00 2.553624391555786133e+00 -3.628264069557189941e-01
1.863000000000000000e+03 7.573933410644531250e+01 1.654693031311035156e+01 -1.932278871536254883e-01 8.525651931762695312e+00 2.499727249145507812e+00 -3.811468780040740967e-01
1.864000000000000000e+03 7.782490539550781250e+01 3.570000457763671875e+01 2.093028277158737183e-01 5.059365272521972656e+00 1.580600380897521973e+00 4.643555730581283569e-03
1.865000000000000000e+03 7.639719390869140625e+01 3.180591011047363281e+01 3.976516723632812500e-01 6.406045436859130859e+00 2.041109085083007812e+00 -8.260715007781982422e-01
1.866000000000000000e+03 7.810461425781250000e+01 -2.212206268310546875e+01 6.036603008396923542e-04 8.026170730590820312e+00 2.408032178878784180e+00 6.883166730403900146e-02
1.867000000000000000e+03 7.681266021728515625e+01 -2.337077903747558594e+01 2.486617770045995712e-03 7.752052307128906250e+00 2.326361656188964844e+00 1.135621145367622375e-01
1.868000000000000000e+03 7.663344573974609375e+01 -3.022231101989746094e+01 5.395880434662103653e-03 7.514116287231445312e+00 2.255853652954101562e+00 9.263391792774200439e-02
1.869000000000000000e+03 7.669707489013671875e+01 -2.883511924743652344e+01 5.356797017157077789e-03 7.560815811157226562e+00 2.269851922988891602e+00 9.844154119491577148e-02
1.870000000000000000e+03 7.672787475585937500e+01 -2.747114181518554688e+01 9.044979698956012726e-03 7.606625556945800781e+00 2.284701108932495117e+00 1.028877422213554382e-01
1.871000000000000000e+03 7.675349426269531250e+01 -2.610746955871582031e+01 5.275705829262733459e-03 7.656511306762695312e+00 2.298536062240600586e+00 1.092448532581329346e-01
1.872000000000000000e+03 7.654354858398437500e+01 -3.162906455993652344e+01 2.837937092408537865e-03 7.462288379669189453e+00 2.239537954330444336e+00 9.052447974681854248e-02
1.873000000000000000e+03 7.655504608154296875e+01 -3.445359039306640625e+01 -3.276956500485539436e-03 7.442795276641845703e+00 2.231855392456054688e+00 8.253044635057449341e-02
1.874000000000000000e+03 7.402139282226562500e+01 -2.854879570007324219e+01 2.391608245670795441e-02 7.114110469818115234e+00 2.141407966613769531e+00 1.717078834772109985e-01
1.875000000000000000e+03 7.467723083496093750e+01 -4.024939346313476562e+01 6.298151612281799316e-02 7.098803997039794922e+00 2.148535490036010742e+00 -4.227330442517995834e-03
1.876000000000000000e+03 7.615612030029296875e+01 2.461482048034667969e+01 -1.762413978576660156e-01 7.834239959716796875e+00 2.297399520874023438e+00 -1.126743674278259277e+00
1.877000000000000000e+03 7.723758697509765625e+01 2.340799522399902344e+01 -1.158119887113571167e-01 7.828865528106689453e+00 2.313915967941284180e+00 -8.348803520202636719e-01
1.878000000000000000e+03 7.696754455566406250e+01 1.242281723022460938e+01 -6.947301328182220459e-02 8.852596282958984375e+00 2.634936809539794922e+00 -1.122935786843299866e-01
1.879000000000000000e+03 7.817733764648437500e+01 1.247120285034179688e+01 -3.026069700717926025e-02 9.147190093994140625e+00 2.735078811645507812e+00 -8.834643661975860596e-02
1.880000000000000000e+03 7.459999847412109375e+01 1.366178321838378906e+01 -2.088826447725296021e-01 8.365427017211914062e+00 2.446963310241699219e+00 -1.847442388534545898e-01
1.881000000000000000e+03 7.696322631835937500e+01 1.381330776214599609e+01 -8.299026638269424438e-02 8.821721076965332031e+00 2.621619224548339844e+00 -1.736746281385421753e-01
1.882000000000000000e+03 7.831583404541015625e+01 2.625984001159667969e+01 -1.955182105302810669e-02 6.822779655456542969e+00 2.040968418121337891e+00 -6.982638239860534668e-01
1.883000000000000000e+03 7.811560821533203125e+01 -2.074163055419921875e+01 -1.415960141457617283e-03 8.080326080322265625e+00 2.423672914505004883e+00 6.779174506664276123e-02
1.884000000000000000e+03 7.683934783935546875e+01 -2.199923706054687500e+01 1.909865677589550614e-04 7.803380012512207031e+00 2.341071367263793945e+00 1.128734573721885681e-01
1.885000000000000000e+03 7.592050170898437500e+01 2.854341125488281250e+01 9.148072451353073120e-02 7.243517875671386719e+00 2.200499534606933594e+00 -1.313734173774719238e+00
1.886000000000000000e+03 7.813091278076171875e+01 6.943882465362548828e+00 -1.404149364680051804e-02 9.139915466308593750e+00 2.737762212753295898e+00 1.212318893522024155e-02
1.887000000000000000e+03 7.528550720214843750e+01 -1.515029549598693848e+00 -1.655156351625919342e-02 8.169651985168457031e+00 2.445930004119873047e+00 1.695753931999206543e-01
1.888000000000000000e+03 7.813688659667968750e+01 -8.362423896789550781e+00 4.525433178059756756e-04 8.578252792358398438e+00 2.573611736297607422e+00 6.735780835151672363e-02
1.889000000000000000e+03 7.809883880615234375e+01 5.552359580993652344e+00 -1.104809995740652084e-02 9.100824356079101562e+00 2.726933002471923828e+00 2.771162427961826324e-02
1.890000000000000000e+03 7.531572723388671875e+01 2.820566415786743164e+00 -3.033114597201347351e-02 8.311777114868164062e+00 2.484433889389038086e+00 1.328404992818832397e-01
1.891000000000000000e+03 7.566223144531250000e+01 -8.380459785461425781e+00 6.194061134010553360e-04 8.031547546386718750e+00 2.409650087356567383e+00 1.616297215223312378e-01
1.892000000000000000e+03 7.812272644042968750e+01 -1.524159717559814453e+01 -1.405791612342000008e-03 8.295647621154785156e+00 2.488272428512573242e+00 6.807485222816467285e-02
1.893000000000000000e+03 7.558659362792968750e+01 -1.512685489654541016e+01 5.043415585532784462e-04 7.793410778045654297e+00 2.338174581527709961e+00 1.597049534320831299e-01
1.894000000000000000e+03 7.715960693359375000e+01 2.070286560058593750e+01 -1.306107938289642334e-01 8.296400070190429688e+00 2.449736833572387695e+00 -6.228569746017456055e-01
1.895000000000000000e+03 7.762693023681640625e+01 3.707994079589843750e+01 2.099172174930572510e-01 4.992841243743896484e+00 1.560827493667602539e+00 1.287904679775238037e-01
1.896000000000000000e+03 7.684140777587890625e+01 5.557591915130615234e+00 -2.753971889615058899e-02 8.769063949584960938e+00 2.622457265853881836e+00 6.134967133402824402e-02
1.897000000000000000e+03 7.800246429443359375e+01 -1.412184476852416992e+00 -4.098478239029645920e-03 8.838135719299316406e+00 2.650211095809936523e+00 6.584929674863815308e-02
1.898000000000000000e+03 7.672441101074218750e+01 -2.855885028839111328e+00 -7.915414869785308838e-03 8.471031188964843750e+00 2.538934707641601562e+00 1.219596266746520996e-01
1.899000000000000000e+03 7.689522552490234375e+01 -9.734275817871093750e+00 -2.002827677642926574e-04 8.253614425659179688e+00 2.476024150848388672e+00 1.168298423290252686e-01
1.900000000000000000e+03 7.686246490478515625e+01 -1.654134178161621094e+01 -7.983262767083942890e-04 7.998007774353027344e+00 2.399162769317626953e+00 1.148911640048027039e-01
1.901000000000000000e+03 7.688764190673828125e+01 3.383589935302734375e+01 3.981386721134185791e-01 5.926867008209228516e+00 1.897501826286315918e+00 -3.701051473617553711e-01
1.902000000000000000e+03 7.526779174804687500e+01 3.118143081665039062e+01 5.252300500869750977e-01 7.159958839416503906e+00 2.305556774139404297e+00 -1.131939291954040527e+00
1.903000000000000000e+03 7.684622955322265625e+01 3.034461021423339844e+01 1.952382028102874756e-01 6.383413791656494141e+00 1.973595619201660156e+00 -9.755331873893737793e-01
1.904000000000000000e+03 7.594379425048828125e+01 1.931126976013183594e+01 -2.293913066387176514e-01 8.412672042846679688e+00 2.454984188079833984e+00 -6.178652644157409668e-01
1.905000000000000000e+03 7.693721008300781250e+01 9.673044204711914062e+00 -4.293646663427352905e-02 8.861814498901367188e+00 2.645663499832153320e+00 -2.152479067444801331e-02
1.906000000000000000e+03 7.689227294921875000e+01 6.940421581268310547e+00 -3.098005242645740509e-02 8.816626548767089844e+00 2.635693788528442383e+00 3.749978542327880859e-02
1.907000000000000000e+03 7.685961914062500000e+01 -1.518298625946044922e+01 9.887327905744314194e-04 8.046236991882324219e+00 2.414167642593383789e+00 1.159823834896087646e-01
1.908000000000000000e+03 7.689602661132812500e+01 -8.369893074035644531e+00 -2.002975204959511757e-03 8.304277420043945312e+00 2.490682363510131836e+00 1.158597022294998169e-01
1.909000000000000000e+03 7.640783691406250000e+01 3.523752975463867188e+01 4.264563620090484619e-01 6.151473522186279297e+00 1.973379015922546387e+00 -1.296588927507400513e-01
1.910000000000000000e+03 7.547717285156250000e+01 4.222959041595458984e+00 -3.539578616619110107e-02 8.391241073608398438e+00 2.506753683090209961e+00 1.132014319300651550e-01
1.911000000000000000e+03 7.660643005371093750e+01 -3.508800268173217773e-02 -9.474147111177444458e-03 8.548048019409179688e+00 2.561572074890136719e+00 1.130256727337837219e-01
1.912000000000000000e+03 7.676169586181640625e+01 4.170565605163574219e+00 -1.976129971444606781e-02 8.713363647460937500e+00 2.608080863952636719e+00 7.799164950847625732e-02
1.913000000000000000e+03 7.684931182861328125e+01 -5.633448123931884766e+00 -2.619222039356827736e-03 8.396472930908203125e+00 2.518156051635742188e+00 1.183262020349502563e-01
1.914000000000000000e+03 7.688214874267578125e+01 -7.004077434539794922e+00 7.470531854778528214e-04 8.351978302001953125e+00 2.505817651748657227e+00 1.176795288920402527e-01
1.915000000000000000e+03 7.679537200927734375e+01 -4.252675533294677734e+00 -8.695921860635280609e-04 8.434494018554687500e+00 2.530087471008300781e+00 1.201896667480468750e-01
1.916000000000000000e+03 7.687416076660156250e+01 -1.246300601959228516e+01 1.283147867070510983e-04 8.148555755615234375e+00 2.444605112075805664e+00 1.171336546540260315e-01
1.917000000000000000e+03 7.686397552490234375e+01 -1.382422351837158203e+01 -8.394115138798952103e-04 8.095886230468750000e+00 2.428514003753662109e+00 1.166950166225433350e-01
1.918000000000000000e+03 7.688582611083984375e+01 -1.109890842437744141e+01 -1.973569160327315331e-03 8.200221061706542969e+00 2.459474325180053711e+00 1.162093952298164368e-01
1.919000000000000000e+03 7.685914611816406250e+01 -2.062924766540527344e+01 -4.237274988554418087e-04 7.853306770324707031e+00 2.355865001678466797e+00 1.140357628464698792e-01
1.920000000000000000e+03 7.686766052246093750e+01 -1.790083694458007812e+01 3.045549092348664999e-04 7.950291156768798828e+00 2.385178804397583008e+00 1.149394363164901733e-01
1.921000000000000000e+03 7.686859130859375000e+01 -1.926305389404296875e+01 -8.025452843867242336e-04 7.902093410491943359e+00 2.370387315750122070e+00 1.131790131330490112e-01
1.922000000000000000e+03 2.259297180175781250e+01 -1.926560592651367188e+01 2.035476863384246826e-01 3.242865204811096191e-01 1.583502590656280518e-01 -3.151142001152038574e-01
1.923000000000000000e+03 2.151479530334472656e+01 -1.506851959228515625e+01 2.281831651926040649e-01 2.240089327096939087e-01 1.356576234102249146e-01 -2.563833594322204590e-01
1.924000000000000000e+03 2.016308212280273438e+01 -1.580328273773193359e+01 2.233541160821914673e-01 3.601617738604545593e-02 7.781109213829040527e-02 -2.925652861595153809e-01
1.925000000000000000e+03 3.070450401306152344e+01 -3.247507095336914062e+01 4.441002011299133301e-01 7.671986818313598633e-01 3.633896708488464355e-01 -4.854171574115753174e-01
1.926000000000000000e+03 2.090437412261962891e+00 3.540393829345703125e+01 9.254426113329827785e-04 -9.536444395780563354e-02 -2.833170071244239807e-02 -4.268419928848743439e-03
1.927000000000000000e+03 6.221495151519775391e+00 3.787985229492187500e+01 -2.394791459664702415e-03 -5.372325330972671509e-02 -1.683541387319564819e-02 -2.013189019635319710e-03
1.928000000000000000e+03 4.821133136749267578e+00 3.240093231201171875e+01 -2.486407523974776268e-03 -7.211493700742721558e-02 -2.238040417432785034e-02 -7.656519301235675812e-03
1.929000000000000000e+03 3.449691057205200195e+00 3.483577728271484375e+01 -1.683317823335528374e-03 -8.461032807826995850e-02 -2.588809467852115631e-02 -5.083147436380386353e-03
1.930000000000000000e+03 2.962326049804687500e+00 3.120521926879882812e+01 -5.628707585856318474e-04 -9.295192360877990723e-02 -2.805443666875362396e-02 -7.727217394858598709e-03
1.931000000000000000e+03 1.833322167396545410e+00 2.729727363586425781e+01 1.030716884997673333e-05 -1.164092198014259338e-01 -3.491967543959617615e-02 -7.565204985439777374e-03
1.932000000000000000e+03 2.879383802413940430e+00 2.416858863830566406e+01 -2.744084689766168594e-03 -1.109451502561569214e-01 -3.410677239298820496e-02 -1.366980001330375671e-02
1.933000000000000000e+03 3.135875225067138672e+00 2.848394584655761719e+01 -1.190224895253777504e-03 -9.654229879379272461e-02 -2.931975759565830231e-02 -9.838867932558059692e-03
1.934000000000000000e+03 2.926353454589843750e+00 3.246889877319335938e+01 -1.939651672728359699e-03 -9.139543771743774414e-02 -2.800052799284458160e-02 -5.922554060816764832e-03
1.935000000000000000e+03 3.092421531677246094e+00 3.367601013183593750e+01 3.766446316149085760e-04 -8.810557425022125244e-02 -2.631867863237857819e-02 -6.046022288501262665e-03
1.936000000000000000e+03 4.799949169158935547e+00 -3.375558471679687500e+01 2.670208550989627838e-02 -1.181598663330078125e+00 -3.464689850807189941e-01 -7.436458766460418701e-02
1.937000000000000000e+03 3.614432096481323242e+00 -3.729389572143554688e+01 2.859835512936115265e-02 -1.316281318664550781e+00 -3.863048851490020752e-01 -3.125056996941566467e-02
1.938000000000000000e+03 4.207249641418457031e+00 -3.232081985473632812e+01 1.667240820825099945e-02 -1.218636631965637207e+00 -3.605892658233642578e-01 -8.066142350435256958e-02
1.939000000000000000e+03 2.150368928909301758e+00 -3.002056694030761719e+01 8.073112927377223969e-03 -1.358370184898376465e+00 -4.050891399383544922e-01 -5.385357514023780823e-02
1.940000000000000000e+03 3.308397054672241211e+00 -2.831549644470214844e+01 1.882064342498779297e-02 -1.209685921669006348e+00 -3.572596013545989990e-01 -9.885613620281219482e-02
1.941000000000000000e+03 3.232989549636840820e+00 -2.565541839599609375e+01 1.800240948796272278e-02 -1.136604189872741699e+00 -3.355805575847625732e-01 -1.222518458962440491e-01
1.942000000000000000e+03 1.678093194961547852e+00 2.162581062316894531e+01 3.237270284444093704e-04 -1.434345543384552002e-01 -4.293324798345565796e-02 -1.122530456632375717e-02
1.943000000000000000e+03 2.661650419235229492e+00 -1.065994167327880859e+01 -1.387612987309694290e-02 -3.892913460731506348e-01 -1.209502443671226501e-01 -1.918627172708511353e-01
1.944000000000000000e+03 3.008921623229980469e+00 -1.740053176879882812e+01 1.860300078988075256e-02 -7.947053313255310059e-01 -2.328306883573532104e-01 -1.965485066175460815e-01
1.945000000000000000e+03 1.708342909812927246e+00 -1.479200935363769531e+01 -1.323333854088559747e-04 -6.705455183982849121e-01 -2.012033611536026001e-01 -1.306408196687698364e-01
1.946000000000000000e+03 2.818244695663452148e+00 1.727340316772460938e+01 1.131045864894986153e-03 -1.378149986267089844e-01 -4.100518673658370972e-02 -1.839256100356578827e-02
1.947000000000000000e+03 2.719379901885986328e+00 1.308979129791259766e+01 7.876625284552574158e-03 -1.538951396942138672e-01 -4.380555450916290283e-02 -7.651751860976219177e-03
1.948000000000000000e+03 3.080714464187622070e+00 -1.877800941467285156e+01 1.550688873976469040e-02 -8.607285618782043457e-01 -2.535665035247802734e-01 -1.831153482198715210e-01
1.949000000000000000e+03 2.796384811401367188e+00 -1.332983016967773438e+01 -3.669982470455579460e-05 -5.575290322303771973e-01 -1.672697067260742188e-01 -2.068917602300643921e-01
1.950000000000000000e+03 1.500145435333251953e+00 -8.002850532531738281e+00 -8.416028693318367004e-03 -2.031077295541763306e-01 -6.345713138580322266e-02 -9.189979732036590576e-02
1.951000000000000000e+03 3.447133302688598633e+00 -4.900367736816406250e+00 -6.652697920799255371e-02 -1.013032048940658569e-01 -5.034905672073364258e-02 -1.111239790916442871e-01
1.952000000000000000e+03 3.758722782135009766e+00 5.548330307006835938e+00 2.232581935822963715e-02 -1.124596446752548218e-01 -2.704014629125595093e-02 9.204513579607009888e-02
1.953000000000000000e+03 2.544422149658203125e+00 9.015502929687500000e+00 1.922988705337047577e-02 -1.530465632677078247e-01 -4.014500230550765991e-02 2.802254073321819305e-02
1.954000000000000000e+03 1.652839422225952148e+00 1.466801357269287109e+01 1.054913969710469246e-03 -1.830710321664810181e-01 -5.460483580827713013e-02 -9.761637076735496521e-03
1.955000000000000000e+03 2.800859451293945312e+00 1.588440418243408203e+01 1.435589278116822243e-03 -1.436084508895874023e-01 -4.265185818076133728e-02 -1.642238907516002655e-02
1.956000000000000000e+03 2.609789848327636719e+00 1.035089588165283203e+01 1.565141230821609497e-02 -1.578093022108078003e-01 -4.264736920595169067e-02 1.422205753624439240e-02
1.957000000000000000e+03 2.535705566406250000e+00 -8.084523200988769531e+00 -2.831777371466159821e-02 -2.340570539236068726e-01 -7.871244847774505615e-02 -1.522473394870758057e-01
1.958000000000000000e+03 1.940391063690185547e+00 -4.448178768157958984e+00 -2.192291058599948883e-02 -5.754344537854194641e-02 -2.383990772068500519e-02 -4.468782991170883179e-02
1.959000000000000000e+03 3.195189476013183594e+00 -2.155289649963378906e+01 1.711609400808811188e-02 -9.837607145309448242e-01 -2.899933755397796631e-01 -1.582072377204895020e-01
1.960000000000000000e+03 5.725604057312011719e+00 -3.677418899536132812e+01 4.467637091875076294e-02 -1.135226964950561523e+00 -3.271651864051818848e-01 -5.534927546977996826e-02
1.961000000000000000e+03 2.788842201232910156e+00 2.138226890563964844e+01 -2.275222213938832283e-03 -1.223457455635070801e-01 -3.738629072904586792e-02 -1.614106446504592896e-02
1.962000000000000000e+03 2.594430685043334961e+00 -9.355320930480957031e+00 -1.683593913912773132e-02 -3.110048174858093262e-01 -9.835223108530044556e-02 -1.750283986330032349e-01
1.963000000000000000e+03 2.937161207199096680e+00 -1.603354072570800781e+01 9.959222748875617981e-03 -7.180089950561523438e-01 -2.124149352312088013e-01 -2.013642042875289917e-01
1.964000000000000000e+03 2.865218639373779297e+00 -1.467883682250976562e+01 1.091059856116771698e-02 -6.425042748451232910e-01 -1.894780993461608887e-01 -2.084646224975585938e-01
1.965000000000000000e+03 1.915212750434875488e+00 -2.312837982177734375e+01 5.464206915348768234e-03 -1.141531825065612793e+00 -3.408202826976776123e-01 -8.861296623945236206e-02
1.966000000000000000e+03 6.269792556762695312e+00 -3.291710662841796875e+01 4.356868937611579895e-02 -1.060626149177551270e+00 -3.051172196865081787e-01 -1.089564040303230286e-01
1.967000000000000000e+03 4.558755874633789062e+00 -2.546351814270019531e+01 2.988488227128982544e-02 -1.031915068626403809e+00 -3.006090521812438965e-01 -1.604068875312805176e-01
1.968000000000000000e+03 2.728675127029418945e+00 -1.198798465728759766e+01 -1.477353274822235107e-03 -4.759532809257507324e-01 -1.432291865348815918e-01 -2.037214338779449463e-01
1.969000000000000000e+03 2.666731834411621094e+00 1.170996856689453125e+01 1.314403396099805832e-02 -1.570900380611419678e-01 -4.318380355834960938e-02 5.490318289957940578e-04
1.970000000000000000e+03 3.805883169174194336e+00 1.290677547454833984e+01 1.558509189635515213e-02 -1.214298307895660400e-01 -3.175342082977294922e-02 -1.002339925616979599e-02
1.971000000000000000e+03 2.765591621398925781e+00 1.448585033416748047e+01 5.341156385838985443e-03 -1.487471312284469604e-01 -4.302179068326950073e-02 -1.411742344498634338e-02
1.972000000000000000e+03 3.965731859207153320e+00 1.847404861450195312e+01 -8.214921399485319853e-05 -1.049832776188850403e-01 -3.151962533593177795e-02 -2.205441333353519440e-02
1.973000000000000000e+03 2.814527273178100586e+00 2.276305198669433594e+01 -8.651561802253127098e-04 -1.166913211345672607e-01 -3.526694327592849731e-02 -1.524945069104433060e-02
1.974000000000000000e+03 2.812441587448120117e+00 1.865262603759765625e+01 -1.413023215718567371e-03 -1.327552050352096558e-01 -4.025046527385711670e-02 -1.775301434099674225e-02
1.975000000000000000e+03 1.597073554992675781e+01 -6.838075637817382812e+00 -1.730835437774658203e-01 -8.810881376266479492e-01 -3.162514865398406982e-01 -7.196516394615173340e-01
1.976000000000000000e+03 3.919802093505859375e+01 -1.986202812194824219e+01 -6.007798761129379272e-02 1.610072851181030273e-01 3.027879074215888977e-02 6.566834449768066406e-02
1.977000000000000000e+03 3.406937789916992188e+01 -1.153820228576660156e+01 2.106417566537857056e-01 -2.040751278400421143e-01 1.969985896721482277e-03 -3.643590584397315979e-02
1.978000000000000000e+03 1.794633865356445312e+01 -1.009343719482421875e+01 1.747407764196395874e-01 -5.450638532638549805e-01 -1.110969334840774536e-01 -3.531570732593536377e-01
1.979000000000000000e+03 4.492189407348632812e+01 -2.900946807861328125e+01 -1.550011485815048218e-01 1.732869267463684082e+00 4.733604192733764648e-01 -7.250213623046875000e-02
1.980000000000000000e+03 2.885641670227050781e+01 -4.303584575653076172e+00 7.818021774291992188e-01 -1.806060820817947388e-01 1.803588271141052246e-01 -2.769965231418609619e-01
1.981000000000000000e+03 2.938931274414062500e+01 -3.383064270019531250e+01 4.677599072456359863e-01 6.006438732147216797e-01 3.205211460590362549e-01 -3.798367381095886230e-01
1.982000000000000000e+03 2.825450897216796875e+01 -3.233770751953125000e+01 3.954001665115356445e-01 5.785576701164245605e-01 2.921873629093170166e-01 -3.836962282657623291e-01
1.983000000000000000e+03 1.767885017395019531e+01 -4.903634548187255859e+00 -4.196675419807434082e-01 -1.560380101203918457e+00 -5.940142869949340820e-01 -7.679355144500732422e-01
1.984000000000000000e+03 1.694627571105957031e+01 -5.530112743377685547e+00 -3.050982058048248291e-01 -1.198542356491088867e+00 -4.510921835899353027e-01 -7.972093224525451660e-01
1.985000000000000000e+03 4.648726272583007812e+01 -3.145568275451660156e+01 -1.841503754258155823e-02 2.408573150634765625e+00 7.170474529266357422e-01 7.865110784769058228e-02
1.986000000000000000e+03 4.576019668579101562e+01 -3.015640068054199219e+01 -8.203496038913726807e-02 2.060798883438110352e+00 5.936291813850402832e-01 3.675464540719985962e-02
1.987000000000000000e+03 1.771441459655761719e+01 -8.721560478210449219e+00 1.549834609031677246e-01 -6.880908012390136719e-01 -1.599322110414505005e-01 -3.546731770038604736e-01
1.988000000000000000e+03 2.943979644775390625e+01 -5.217882633209228516e+00 7.332667112350463867e-01 -1.671206504106521606e-01 1.698438078165054321e-01 -2.708762884140014648e-01
1.989000000000000000e+03 4.881257247924804688e+01 -3.444604873657226562e+01 5.249965190887451172e-01 2.935514211654663086e+00 1.038153171539306641e+00 4.279989004135131836e-01
1.990000000000000000e+03 4.954996871948242188e+01 -2.910344886779785156e+01 -1.774910464882850647e-02 2.876977682113647461e+00 8.577685952186584473e-01 2.393030226230621338e-01
1.991000000000000000e+03 5.009781265258789062e+01 -3.721647262573242188e+01 8.130586743354797363e-01 3.052681207656860352e+00 1.159721970558166504e+00 3.351529240608215332e-01
1.992000000000000000e+03 4.833240127563476562e+01 -3.617956924438476562e+01 7.357943058013916016e-01 2.795955657958984375e+00 1.059525012969970703e+00 3.805155158042907715e-01
1.993000000000000000e+03 2.468306159973144531e+01 1.874112486839294434e+00 -2.269682407379150391e+00 -3.557175099849700928e-01 -7.876199483871459961e-01 -9.442350864410400391e-01
1.994000000000000000e+03 2.471122932434082031e+01 2.161266326904296875e+00 -2.547808885574340820e+00 -4.706828892230987549e-01 -9.055475592613220215e-01 -1.065292119979858398e+00
1.995000000000000000e+03 2.536778068542480469e+01 2.663463354110717773e+00 -2.559266328811645508e+00 -6.166061758995056152e-01 -9.527617692947387695e-01 -1.100701093673706055e+00
1.996000000000000000e+03 2.495289421081542969e+01 2.732684373855590820e+00 -2.730572938919067383e+00 -6.088519692420959473e-01 -1.001827478408813477e+00 -1.249298930168151855e+00
1.997000000000000000e+03 2.576711463928222656e+01 3.410439968109130859e+00 -2.698760747909545898e+00 -7.637276053428649902e-01 -1.038746476173400879e+00 -1.313613414764404297e+00
1.998000000000000000e+03 2.284657478332519531e+01 1.046862602233886719e+00 -2.312694311141967773e+00 -2.207332253456115723e-01 -7.600282430648803711e-01 -1.385650277137756348e+00
1.999000000000000000e+03 2.449402427673339844e+01 2.336973428726196289e+00 -2.701714277267456055e+00 -5.422535538673400879e-01 -9.731903672218322754e-01 -1.212992787361145020e+00
2.000000000000000000e+03 2.435349655151367188e+01 1.898165106773376465e+00 -2.515728235244750977e+00 -4.224465787410736084e-01 -8.814524412155151367e-01 -1.089170098304748535e+00
2.001000000000000000e+03 2.642747879028320312e+01 3.371007204055786133e+00 -2.392073392868041992e+00 -7.631822228431701660e-01 -9.465766549110412598e-01 -1.127106308937072754e+00
2.002000000000000000e+03 2.679608535766601562e+01 3.048902273178100586e+00 -2.126554727554321289e+00 -7.345522046089172363e-01 -8.583320975303649902e-01 -9.301847219467163086e-01
2.003000000000000000e+03 2.843387985229492188e+01 5.110954761505126953e+00 -2.153323888778686523e+00 -1.338870048522949219e+00 -1.047658205032348633e+00 -1.261073827743530273e+00
2.004000000000000000e+03 6.183378982543945312e+01 3.227451705932617188e+01 1.741279363632202148e+00 1.568890810012817383e+00 9.930510520935058594e-01 2.358364820480346680e+00
2.005000000000000000e+03 6.626108551025390625e+01 3.289231109619140625e+01 5.281165122985839844e+00 1.718181991577148438e+01 6.738895893096923828e+00 -2.123824119567871094e+00
2.006000000000000000e+03 6.638348388671875000e+01 3.508914184570312500e+01 5.987423419952392578e+00 1.698879432678222656e+01 6.892865657806396484e+00 2.882748842239379883e+00
2.007000000000000000e+03 6.570396423339843750e+01 3.578564071655273438e+01 1.581878066062927246e+00 1.923652458190917969e+01 6.245521068572998047e+00 1.342133164405822754e+00
2.008000000000000000e+03 6.641213989257812500e+01 3.459161376953125000e+01 8.213985443115234375e+00 1.622484970092773438e+01 7.331650257110595703e+00 2.099608182907104492e+00
2.009000000000000000e+03 6.435043334960937500e+01 3.635198974609375000e+01 -2.720420062541961670e-01 1.446959018707275391e+01 4.259264469146728516e+00 -4.197982311248779297e+00
2.010000000000000000e+03 6.167579269409179688e+01 3.173593711853027344e+01 1.845042109489440918e+00 2.196023941040039062e+00 1.212319731712341309e+00 2.627578496932983398e+00
2.011000000000000000e+03 6.076236343383789062e+01 3.217425537109375000e+01 7.858467698097229004e-01 8.733476996421813965e-01 4.977583289146423340e-01 1.165194749832153320e+00
2.012000000000000000e+03 6.057477569580078125e+01 3.168041229248046875e+01 1.008925557136535645e+00 1.156264066696166992e+00 6.495568752288818359e-01 1.388136625289916992e+00
2.013000000000000000e+03 2.262459373474121094e+01 3.674010336399078369e-01 -1.661108493804931641e+00 2.405659854412078857e-01 -4.261627495288848877e-01 -1.397771239280700684e+00
2.014000000000000000e+03 2.217559623718261719e+01 9.386398196220397949e-01 -2.374860525131225586e+00 -2.485287785530090332e-01 -7.870168089866638184e-01 -1.868065714836120605e+00
2.015000000000000000e+03 2.366297340393066406e+01 -1.491199016571044922e+00 1.457886099815368652e+00 7.233179211616516113e-01 6.543611884117126465e-01 -8.563390970230102539e-01
2.016000000000000000e+03 2.288547897338867188e+01 -5.057767033576965332e-03 -1.052577853202819824e+00 5.377798676490783691e-01 -1.544394046068191528e-01 -8.746478557586669922e-01
2.017000000000000000e+03 6.216924667358398438e+01 3.677236175537109375e+01 1.261355876922607422e+00 3.346852302551269531e+00 1.382462501525878906e+00 -2.593090534210205078e+00
2.018000000000000000e+03 1.405410671234130859e+01 5.453869819641113281e+00 9.292908012866973877e-02 6.058126091957092285e-01 2.096225172281265259e-01 1.805945336818695068e-01
2.019000000000000000e+03 2.922784996032714844e+01 4.968315601348876953e+00 -1.881535649299621582e+00 -1.132871985435485840e+00 -9.043223261833190918e-01 -9.461132884025573730e-01
2.020000000000000000e+03 1.952165222167968750e+01 -4.501601755619049072e-01 -2.940608501434326172e+00 -3.813212394714355469e+00 -2.026146173477172852e+00 -1.769603490829467773e+00
2.021000000000000000e+03 3.092047119140625000e+01 2.419905662536621094e+01 5.159473046660423279e-02 8.076106011867523193e-02 3.970673680305480957e-02 6.861461699008941650e-02
2.022000000000000000e+03 1.943078994750976562e+01 1.044617652893066406e+01 1.260506510734558105e-01 1.633130311965942383e-01 8.680910617113113403e-02 1.478807777166366577e-01
2.023000000000000000e+03 3.281409072875976562e+01 2.395130538940429688e+01 5.537134408950805664e-02 7.602059841156005859e-02 3.941758349537849426e-02 6.580185890197753906e-02
2.024000000000000000e+03 3.089797210693359375e+01 2.234366798400878906e+01 5.894768610596656799e-02 7.957363128662109375e-02 4.155639559030532837e-02 7.247816771268844604e-02
2.025000000000000000e+03 3.099018287658691406e+01 2.171695899963378906e+01 6.344841420650482178e-02 7.849027216434478760e-02 4.258160665631294250e-02 7.212336361408233643e-02
2.026000000000000000e+03 1.825270080566406250e+01 9.440120697021484375e+00 1.376815140247344971e-01 1.941853314638137817e-01 9.956005215644836426e-02 1.546559184789657593e-01
2.027000000000000000e+03 4.040365600585937500e+01 2.014158630371093750e+01 -1.005580782890319824e+00 -1.055187702178955078e+00 -6.182305216789245605e-01 -1.127608180046081543e+00
2.028000000000000000e+03 4.060550689697265625e+01 2.042571640014648438e+01 -1.019648313522338867e+00 -1.054857134819030762e+00 -6.223516464233398438e-01 -1.129414796829223633e+00
2.029000000000000000e+03 3.966603088378906250e+01 1.973376846313476562e+01 -1.007867932319641113e+00 -1.103786349296569824e+00 -6.334962844848632812e-01 -1.146278500556945801e+00
2.030000000000000000e+03 1.690074729919433594e+01 7.739216804504394531e+00 1.510192155838012695e-01 2.277451455593109131e-01 1.136293113231658936e-01 1.917215138673782349e-01
2.031000000000000000e+03 4.116142272949218750e+01 2.142405319213867188e+01 -1.156885623931884766e+00 -1.098009824752807617e+00 -6.764686703681945801e-01 -1.143495082855224609e+00
2.032000000000000000e+03 6.640119934082031250e+01 3.482340621948242188e+01 6.970865249633789062e+00 1.667863845825195312e+01 7.094851016998291016e+00 2.604622364044189453e+00
2.033000000000000000e+03 3.579450607299804688e+01 2.681797981262207031e+01 5.371762439608573914e-02 7.364642620086669922e-02 3.820921480655670166e-02 6.441208720207214355e-02
2.034000000000000000e+03 3.495082855224609375e+01 2.632736968994140625e+01 5.316740274429321289e-02 7.617632299661636353e-02 3.880311548709869385e-02 6.330019980669021606e-02
2.035000000000000000e+03 3.509712219238281250e+01 1.366489887237548828e+01 -1.160707950592041016e+00 -1.265542149543762207e+00 -7.278750538825988770e-01 -1.182229280471801758e+00
2.036000000000000000e+03 2.027930641174316406e+01 1.121741390228271484e+01 1.242607533931732178e-01 1.518214792013168335e-01 8.282466977834701538e-02 1.374247521162033081e-01
2.037000000000000000e+03 1.971794509887695312e+01 1.123750400543212891e+01 1.177630648016929626e-01 1.570437252521514893e-01 8.244203776121139526e-02 1.387431770563125610e-01
2.038000000000000000e+03 3.856814193725585938e+01 1.852722167968750000e+01 -1.064651846885681152e+00 -1.254154562950134277e+00 -6.956419348716735840e-01 -1.169260382652282715e+00
2.039000000000000000e+03 3.941949081420898438e+01 1.941292953491210938e+01 -1.010191559791564941e+00 -1.129184603691101074e+00 -6.418128609657287598e-01 -1.149932384490966797e+00
2.040000000000000000e+03 2.568307113647460938e+01 1.681408691406250000e+01 9.359972178936004639e-02 1.070105731487274170e-01 6.018308922648429871e-02 9.924410283565521240e-02
2.041000000000000000e+03 4.173746109008789062e+01 2.193452644348144531e+01 -1.222368717193603516e+00 -1.104120731353759766e+00 -6.979468464851379395e-01 -1.147485613822937012e+00
2.042000000000000000e+03 1.710909652709960938e+01 7.984490394592285156e+00 1.534671187400817871e-01 2.189787477254867554e-01 1.117337569594383240e-01 1.825815886259078979e-01
2.043000000000000000e+03 1.677721023559570312e+01 8.052147865295410156e+00 1.423873752355575562e-01 2.349778711795806885e-01 1.132095679640769958e-01 1.839129626750946045e-01
2.044000000000000000e+03 1.616797828674316406e+01 7.390553474426269531e+00 1.465217918157577515e-01 2.760597765445709229e-01 1.267744749784469604e-01 1.928543150424957275e-01
2.045000000000000000e+03 3.340781784057617188e+01 2.445125389099121094e+01 5.435826629400253296e-02 7.670704275369644165e-02 3.931958973407745361e-02 6.583993136882781982e-02
2.046000000000000000e+03 4.680511474609375000e+01 2.548804664611816406e+01 -1.038687825202941895e+00 -8.425199389457702637e-01 -5.643623471260070801e-01 -9.690904021263122559e-01
2.047000000000000000e+03 3.828436660766601562e+01 1.823760604858398438e+01 -1.086828351020812988e+00 -1.299171209335327148e+00 -7.157998681068420410e-01 -1.181592226028442383e+00
2.048000000000000000e+03 4.629690170288085938e+01 2.558596611022949219e+01 -1.113909006118774414e+00 -9.510616064071655273e-01 -6.194912195205688477e-01 -1.057733654975891113e+00
2.049000000000000000e+03 2.134997177124023438e+01 1.280774784088134766e+01 1.101775467395782471e-01 1.426217108964920044e-01 7.583978027105331421e-02 1.262458413839340210e-01
2.050000000000000000e+03 3.144076728820800781e+01 1.105188179016113281e+01 -1.391718626022338867e+00 -1.358617305755615234e+00 -8.251007795333862305e-01 -1.289658546447753906e+00
2.051000000000000000e+03 3.288451004028320312e+01 1.165867233276367188e+01 -1.259166240692138672e+00 -1.272904515266418457e+00 -7.596212029457092285e-01 -1.234899401664733887e+00
2.052000000000000000e+03 3.444857788085937500e+01 2.538576889038085938e+01 5.505704134702682495e-02 7.673394680023193359e-02 3.953729569911956787e-02 6.397704780101776123e-02
2.053000000000000000e+03 1.786086082458496094e+01 9.235647201538085938e+00 1.368755549192428589e-01 1.982199549674987793e-01 1.005286574363708496e-01 1.577826738357543945e-01
2.054000000000000000e+03 1.724182891845703125e+01 8.319156646728515625e+00 1.479963064193725586e-01 2.135814577341079712e-01 1.084733307361602783e-01 1.786564737558364868e-01
2.055000000000000000e+03 3.423321914672851562e+01 2.511291503906250000e+01 5.556919053196907043e-02 7.647310942411422729e-02 3.961269184947013855e-02 6.447704136371612549e-02
2.056000000000000000e+03 3.380841827392578125e+01 2.510795402526855469e+01 5.422475934028625488e-02 7.641536742448806763e-02 3.919203951954841614e-02 6.453989446163177490e-02
2.057000000000000000e+03 2.160916900634765625e+01 1.308033370971679688e+01 1.104843541979789734e-01 1.404657512903213501e-01 7.528503239154815674e-02 1.235220581293106079e-01
2.058000000000000000e+03 2.517848777770996094e+01 1.695417594909667969e+01 8.855150640010833740e-02 1.089755445718765259e-01 5.925811827182769775e-02 9.873499721288681030e-02
2.059000000000000000e+03 3.154512596130371094e+01 2.379565620422363281e+01 5.428762733936309814e-02 7.792299985885620117e-02 3.966318815946578979e-02 6.881582736968994141e-02
2.060000000000000000e+03 4.336599731445312500e+01 2.295386123657226562e+01 -1.184321761131286621e+00 -1.057944416999816895e+00 -6.726798415184020996e-01 -1.124656438827514648e+00
2.061000000000000000e+03 4.288347625732421875e+01 2.299147987365722656e+01 -1.254854559898376465e+00 -1.100196123123168945e+00 -7.065151929855346680e-01 -1.187160372734069824e+00
2.062000000000000000e+03 4.365275192260742188e+01 2.321547889709472656e+01 -1.184650659561157227e+00 -1.066681861877441406e+00 -6.753997206687927246e-01 -1.121213197708129883e+00
2.063000000000000000e+03 4.773939514160156250e+01 2.627144622802734375e+01 -9.848985671997070312e-01 -8.006253242492675781e-01 -5.356571674346923828e-01 -9.246412515640258789e-01
2.064000000000000000e+03 3.533349990844726562e+01 1.448425102233886719e+01 -1.178853988647460938e+00 -1.325070381164550781e+00 -7.511773109436035156e-01 -1.238356113433837891e+00
2.065000000000000000e+03 3.482141113281250000e+01 1.444070434570312500e+01 -1.229497909545898438e+00 -1.386134982109069824e+00 -7.846899032592773438e-01 -1.291491150856018066e+00
2.066000000000000000e+03 3.800719070434570312e+01 1.794685935974121094e+01 -1.108460545539855957e+00 -1.341292977333068848e+00 -7.349260449409484863e-01 -1.192195653915405273e+00
2.067000000000000000e+03 4.521539688110351562e+01 2.513034248352050781e+01 -1.239879727363586426e+00 -1.115853428840637207e+00 -7.067199349403381348e-01 -1.150637507438659668e+00
2.068000000000000000e+03 4.599875259399414062e+01 2.532652854919433594e+01 -1.138279318809509277e+00 -9.709106087684631348e-01 -6.327570080757141113e-01 -1.064716458320617676e+00
2.069000000000000000e+03 2.947356414794921875e+01 2.022167587280273438e+01 7.604869455099105835e-02 8.414803445339202881e-02 4.805902019143104553e-02 8.097542077302932739e-02
2.070000000000000000e+03 3.071824073791503906e+01 2.170536422729492188e+01 6.412818282842636108e-02 8.059885352849960327e-02 4.341810941696166992e-02 7.312984764575958252e-02
2.071000000000000000e+03 4.749938201904296875e+01 2.664512443542480469e+01 -1.057528614997863770e+00 -9.038143754005432129e-01 -5.884028673171997070e-01 -1.010714173316955566e+00
2.072000000000000000e+03 4.814197540283203125e+01 2.785129928588867188e+01 -1.156385540962219238e+00 -9.969578981399536133e-01 -6.460030674934387207e-01 -1.072376966476440430e+00
2.073000000000000000e+03 3.406060791015625000e+01 1.349904537200927734e+01 -1.247642397880554199e+00 -1.386774182319641113e+00 -7.903249859809875488e-01 -1.272942423820495605e+00
2.074000000000000000e+03 3.558893966674804688e+01 1.477129840850830078e+01 -1.157832264900207520e+00 -1.326383352279663086e+00 -7.452647089958190918e-01 -1.239099502563476562e+00
2.075000000000000000e+03 3.793210220336914062e+01 3.005821800231933594e+01 5.592717975378036499e-02 6.487654149532318115e-02 3.624111413955688477e-02 5.799397826194763184e-02
2.076000000000000000e+03 3.718026351928710938e+01 3.035419845581054688e+01 5.277195945382118225e-02 6.731887906789779663e-02 3.602724894881248474e-02 5.565951019525527954e-02
2.077000000000000000e+03 6.336444091796875000e+01 3.608401107788085938e+01 1.836275219917297363e+00 6.767705440521240234e+00 2.581194162368774414e+00 -5.008209705352783203e+00
2.078000000000000000e+03 2.055581855773925781e+01 1.148682880401611328e+01 1.226516738533973694e-01 1.523765176534652710e-01 8.250845223665237427e-02 1.338939368724822998e-01
2.079000000000000000e+03 2.896495056152343750e+01 2.020195388793945312e+01 7.384631782770156860e-02 8.715684711933135986e-02 4.830095171928405762e-02 8.153226226568222046e-02
2.080000000000000000e+03 4.279885864257812500e+01 2.243350601196289062e+01 -1.182679653167724609e+00 -1.047064661979675293e+00 -6.689232587814331055e-01 -1.119197607040405273e+00
2.081000000000000000e+03 4.779370498657226562e+01 2.692671585083007812e+01 -1.055235385894775391e+00 -9.005759954452514648e-01 -5.867434144020080566e-01 -9.990057945251464844e-01
2.082000000000000000e+03 3.168189239501953125e+01 1.131405162811279297e+01 -1.394170999526977539e+00 -1.352410435676574707e+00 -8.239744305610656738e-01 -1.301658749580383301e+00
2.083000000000000000e+03 2.944612884521484375e+01 2.072199630737304688e+01 7.151602208614349365e-02 8.488453179597854614e-02 4.692016541957855225e-02 7.865031808614730835e-02
2.084000000000000000e+03 2.792726135253906250e+01 1.926108551025390625e+01 7.888390868902206421e-02 9.379566460847854614e-02 5.180387198925018311e-02 8.677201718091964722e-02
2.085000000000000000e+03 2.243117713928222656e+01 1.343644714355468750e+01 1.148998364806175232e-01 1.355417519807815552e-01 7.513247430324554443e-02 1.220310479402542114e-01
2.086000000000000000e+03 2.186436653137207031e+01 1.336062908172607422e+01 1.094279140233993530e-01 1.377150267362594604e-01 7.414288073778152466e-02 1.215461343526840210e-01
2.087000000000000000e+03 1.864440536499023438e+01 1.016198062896728516e+01 1.213069632649421692e-01 1.812151968479156494e-01 9.075664728879928589e-02 1.497686058282852173e-01
2.088000000000000000e+03 2.762135887145996094e+01 1.906125068664550781e+01 7.930900901556015015e-02 9.633627533912658691e-02 5.269358307123184204e-02 8.761439472436904907e-02
2.089000000000000000e+03 2.546732711791992188e+01 1.712326812744140625e+01 8.874578773975372314e-02 1.074252724647521973e-01 5.885131657123565674e-02 9.746468812227249146e-02
2.090000000000000000e+03 2.841283035278320312e+01 1.920166015625000000e+01 8.203059434890747070e-02 8.991254866123199463e-02 5.158294364809989929e-02 8.676154166460037231e-02
2.091000000000000000e+03 2.846583175659179688e+01 1.972411918640136719e+01 7.661962509155273438e-02 8.999310433864593506e-02 4.998381808400154114e-02 8.426097035408020020e-02
2.092000000000000000e+03 2.871881675720214844e+01 1.995762443542480469e+01 7.529403269290924072e-02 8.890253305435180664e-02 4.925896972417831421e-02 8.293563127517700195e-02
2.093000000000000000e+03 4.394112396240234375e+01 2.347972488403320312e+01 -1.187718987464904785e+00 -1.075091958045959473e+00 -6.788432598114013672e-01 -1.113663792610168457e+00
2.094000000000000000e+03 5.008010482788085938e+01 2.982679557800292969e+01 -1.124462962150573730e+00 -9.685472249984741211e-01 -6.279030442237854004e-01 -1.036464452743530273e+00
2.095000000000000000e+03 5.081143188476562500e+01 3.003753662109375000e+01 -1.023535728454589844e+00 -8.000153303146362305e-01 -5.470653176307678223e-01 -9.044908881187438965e-01
2.096000000000000000e+03 3.989676284790039062e+01 3.166364479064941406e+01 6.185544654726982117e-02 5.546320974826812744e-02 3.519559651613235474e-02 5.444806069135665894e-02
2.097000000000000000e+03 3.967785644531250000e+01 3.130821418762207031e+01 5.835446715354919434e-02 5.735158920288085938e-02 3.471181541681289673e-02 5.626294761896133423e-02
2.098000000000000000e+03 4.926317977905273438e+01 2.900127983093261719e+01 -1.169731736183166504e+00 -9.980776309967041016e-01 -6.503428220748901367e-01 -1.058590292930603027e+00
2.099000000000000000e+03 4.999397659301757812e+01 2.925635147094726562e+01 -1.072225332260131836e+00 -8.658328056335449219e-01 -5.814174413681030273e-01 -9.519375562667846680e-01
2.100000000000000000e+03 3.584782028198242188e+01 1.505658054351806641e+01 -1.150224804878234863e+00 -1.329511880874633789e+00 -7.439209818840026855e-01 -1.230334043502807617e+00
2.101000000000000000e+03 2.390114402770996094e+01 1.532192325592041016e+01 9.593639522790908813e-02 1.202436089515686035e-01 6.485399603843688965e-02 1.094536632299423218e-01
2.102000000000000000e+03 2.342505455017089844e+01 1.466748046875000000e+01 1.034465208649635315e-01 1.266502887010574341e-01 6.902904063463211060e-02 1.125068217515945435e-01
2.103000000000000000e+03 4.363216781616210938e+01 3.507010269165039062e+01 8.213125914335250854e-02 3.745993971824645996e-02 3.587735816836357117e-02 5.175013467669487000e-02
2.104000000000000000e+03 4.325604629516601562e+01 3.448232269287109375e+01 7.643481343984603882e-02 4.111196845769882202e-02 3.526403382420539856e-02 5.358817428350448608e-02
2.105000000000000000e+03 3.364848709106445312e+01 1.250664710998535156e+01 -1.212036132812500000e+00 -1.316218733787536621e+00 -7.584764957427978516e-01 -1.239403128623962402e+00
2.106000000000000000e+03 3.459125137329101562e+01 1.359031581878662109e+01 -1.205186963081359863e+00 -1.324902653694152832e+00 -7.590268850326538086e-01 -1.226121425628662109e+00
2.107000000000000000e+03 3.637379837036132812e+01 1.562871551513671875e+01 -1.134073138236999512e+00 -1.330967307090759277e+00 -7.395121455192565918e-01 -1.215425372123718262e+00
2.108000000000000000e+03 3.664001083374023438e+01 1.591714763641357422e+01 -1.125196576118469238e+00 -1.328868269920349121e+00 -7.362194657325744629e-01 -1.209157347679138184e+00
2.109000000000000000e+03 1.999048233032226562e+01 1.149191284179687500e+01 1.172636598348617554e-01 1.556160449981689453e-01 8.186390995979309082e-02 1.345404088497161865e-01
2.110000000000000000e+03 4.035449600219726562e+01 3.250994110107421875e+01 6.295782327651977539e-02 5.307950079441070557e-02 3.481119498610496521e-02 5.294160544872283936e-02
2.111000000000000000e+03 3.690810775756835938e+01 1.620725250244140625e+01 -1.122040510177612305e+00 -1.328679323196411133e+00 -7.352159619331359863e-01 -1.198109745979309082e+00
2.112000000000000000e+03 3.625843429565429688e+01 2.789562797546386719e+01 5.560026317834854126e-02 7.341875135898590088e-02 3.870570659637451172e-02 6.174153834581375122e-02
2.113000000000000000e+03 4.808360290527343750e+01 2.722286033630371094e+01 -1.059187054634094238e+00 -8.998017311096191406e-01 -5.876966118812561035e-01 -9.910438060760498047e-01
2.114000000000000000e+03 4.864760971069335938e+01 2.782690620422363281e+01 -1.073792934417724609e+00 -9.002630710601806641e-01 -5.922167897224426270e-01 -9.769734144210815430e-01
2.115000000000000000e+03 4.878791809082031250e+01 2.902629280090332031e+01 -1.267817854881286621e+00 -1.110690832138061523e+00 -7.135525941848754883e-01 -1.165224194526672363e+00
2.116000000000000000e+03 1.849967002868652344e+01 -2.786658048629760742e+00 -1.304277896881103516e+00 -2.744883775711059570e+00 -1.214748501777648926e+00 -1.456858992576599121e+00
2.117000000000000000e+03 4.448732757568359375e+01 3.599787521362304688e+01 9.406885504722595215e-02 4.438982158899307251e-02 4.153760150074958801e-02 6.110595539212226868e-02
2.118000000000000000e+03 2.338243293762207031e+01 1.394940853118896484e+00 -2.377693176269531250e+00 -2.154764235019683838e-01 -7.779508829116821289e-01 -1.181753396987915039e+00
2.119000000000000000e+03 2.315377998352050781e+01 1.063854813575744629e+00 -2.092317819595336914e+00 -5.590907856822013855e-02 -6.444681286811828613e-01 -1.239491939544677734e+00
2.120000000000000000e+03 3.483383941650390625e+01 1.389705657958984375e+01 -1.208509087562561035e+00 -1.324617028236389160e+00 -7.599378228187561035e-01 -1.229726791381835938e+00
2.121000000000000000e+03 3.764673233032226562e+01 3.054483795166015625e+01 5.584870651364326477e-02 6.484374403953552246e-02 3.620773553848266602e-02 5.607061088085174561e-02
2.122000000000000000e+03 4.953539657592773438e+01 2.928065299987792969e+01 -1.158782720565795898e+00 -9.905946254730224609e-01 -6.448132395744323730e-01 -1.054803490638732910e+00
2.123000000000000000e+03 4.492303085327148438e+01 2.486091423034667969e+01 -1.259022474288940430e+00 -1.141399621963500977e+00 -7.201266288757324219e-01 -1.155529260635375977e+00
2.124000000000000000e+03 4.570004272460937500e+01 2.506672477722167969e+01 -1.160456299781799316e+00 -9.954320192337036133e-01 -6.467664837837219238e-01 -1.068470954895019531e+00
2.125000000000000000e+03 4.898781967163085938e+01 2.871756172180175781e+01 -1.172818779945373535e+00 -1.001928925514221191e+00 -6.524243354797363281e-01 -1.062548398971557617e+00
2.126000000000000000e+03 4.423033142089843750e+01 2.374584007263183594e+01 -1.191186547279357910e+00 -1.079490661621093750e+00 -6.812031865119934082e-01 -1.104551672935485840e+00
2.127000000000000000e+03 4.083749389648437500e+01 2.067278671264648438e+01 -1.039780616760253906e+00 -1.055874943733215332e+00 -6.286966800689697266e-01 -1.125859737396240234e+00
2.128000000000000000e+03 3.773598098754882812e+01 1.765530204772949219e+01 -1.123639345169067383e+00 -1.370724916458129883e+00 -7.483093142509460449e-01 -1.207321166992187500e+00
2.129000000000000000e+03 4.980693054199218750e+01 2.955612754821777344e+01 -1.143902301788330078e+00 -9.823389649391174316e-01 -6.378723978996276855e-01 -1.048323631286621094e+00
2.130000000000000000e+03 2.968119049072265625e+01 2.099757957458496094e+01 6.952319294214248657e-02 8.417493104934692383e-02 4.610943794250488281e-02 7.685962319374084473e-02
2.131000000000000000e+03 2.680137443542480469e+01 1.733691215515136719e+01 9.628133475780487061e-02 1.045351773500442505e-01 6.024495512247085571e-02 9.770345687866210938e-02
2.132000000000000000e+03 5.110254669189453125e+01 3.028542709350585938e+01 -1.008721470832824707e+00 -7.558935880661010742e-01 -5.293844938278198242e-01 -8.735514879226684570e-01
2.133000000000000000e+03 2.597632980346679688e+01 1.706033515930175781e+01 9.287890046834945679e-02 1.064249202609062195e-01 5.979114770889282227e-02 9.800262004137039185e-02
2.134000000000000000e+03 4.251689529418945312e+01 2.216934013366699219e+01 -1.174815297126770020e+00 -1.048082351684570312e+00 -6.668692827224731445e-01 -1.111499786376953125e+00
2.135000000000000000e+03 3.402146530151367188e+01 2.532611846923828125e+01 5.440180003643035889e-02 7.620628178119659424e-02 3.918242454528808594e-02 6.418348103761672974e-02
2.136000000000000000e+03 4.289001464843750000e+01 3.419485855102539062e+01 7.338327914476394653e-02 4.485037177801132202e-02 3.547009453177452087e-02 5.337633565068244934e-02
2.137000000000000000e+03 3.254205703735351562e+01 1.134852886199951172e+01 -1.298494935035705566e+00 -1.276779294013977051e+00 -7.725822925567626953e-01 -1.219100117683410645e+00
2.138000000000000000e+03 3.504774475097656250e+01 2.672518157958984375e+01 5.154842138290405273e-02 7.494071125984191895e-02 3.794673830270767212e-02 6.338191777467727661e-02
2.139000000000000000e+03 3.717742156982421875e+01 1.649859237670898438e+01 -1.113919258117675781e+00 -1.322908401489257812e+00 -7.310482859611511230e-01 -1.189429879188537598e+00
2.140000000000000000e+03 3.694123458862304688e+01 2.966775512695312500e+01 5.292827636003494263e-02 6.950304657220840454e-02 3.672939911484718323e-02 5.705640465021133423e-02
2.141000000000000000e+03 3.722573852539062500e+01 2.873040771484375000e+01 5.594112724065780640e-02 7.046619802713394165e-02 3.792219609022140503e-02 6.093659624457359314e-02
2.142000000000000000e+03 2.268622207641601562e+01 1.373658466339111328e+01 1.139841824769973755e-01 1.342374533414840698e-01 7.446648925542831421e-02 1.188843026757240295e-01
2.143000000000000000e+03 2.651902961730957031e+01 1.764949607849121094e+01 8.982404321432113647e-02 1.045183315873146057e-01 5.830271169543266296e-02 9.488663077354431152e-02
2.144000000000000000e+03 5.139538192749023438e+01 3.052367401123046875e+01 -9.889288544654846191e-01 -7.062986493110656738e-01 -5.085682272911071777e-01 -8.381299376487731934e-01
2.145000000000000000e+03 2.650495719909667969e+01 1.914628219604492188e+01 7.216619700193405151e-02 1.021818369626998901e-01 5.230440944433212280e-02 8.568964153528213501e-02
2.146000000000000000e+03 2.487591171264648438e+01 1.684313201904296875e+01 8.733954280614852905e-02 1.103001683950424194e-01 5.929191410541534424e-02 9.954391419887542725e-02
2.147000000000000000e+03 2.108708000183105469e+01 1.254026317596435547e+01 1.112121343612670898e-01 1.463338434696197510e-01 7.726378738880157471e-02 1.271960586309432983e-01
2.148000000000000000e+03 3.156159400939941406e+01 9.587616920471191406e+00 -1.211831092834472656e+00 -1.204329967498779297e+00 -7.248482704162597656e-01 -1.119579076766967773e+00
2.149000000000000000e+03 4.083126068115234375e+01 3.373203277587890625e+01 6.973440200090408325e-02 4.968974366784095764e-02 3.582724183797836304e-02 5.140931531786918640e-02
2.150000000000000000e+03 3.914462661743164062e+01 1.910969352722167969e+01 -1.022053718566894531e+00 -1.162797808647155762e+00 -6.554554700851440430e-01 -1.153020381927490234e+00
2.151000000000000000e+03 2.679216003417968750e+01 1.799940681457519531e+01 8.729013055562973022e-02 1.029148623347282410e-01 5.706149712204933167e-02 9.263956546783447266e-02
2.152000000000000000e+03 2.693032264709472656e+01 1.873683357238769531e+01 7.915833592414855957e-02 1.010353192687034607e-01 5.405809357762336731e-02 8.866260945796966553e-02
2.153000000000000000e+03 4.220676803588867188e+01 3.438600158691406250e+01 7.331106066703796387e-02 4.898578673601150513e-02 3.668905422091484070e-02 5.120057612657546997e-02
2.154000000000000000e+03 3.744664764404296875e+01 1.679016304016113281e+01 -1.110731482505798340e+00 -1.315503120422363281e+00 -7.278704047203063965e-01 -1.175591230392456055e+00
2.155000000000000000e+03 3.771457672119140625e+01 1.708041000366210938e+01 -1.102900624275207520e+00 -1.298887729644775391e+00 -7.205364704132080078e-01 -1.164734601974487305e+00
2.156000000000000000e+03 1.564266109466552734e+01 6.766004562377929688e+00 1.576682031154632568e-01 3.154446482658386230e-01 1.419338583946228027e-01 2.040811330080032349e-01
2.157000000000000000e+03 4.227073287963867188e+01 3.399248123168945312e+01 7.075725495815277100e-02 4.181673377752304077e-02 3.377219662070274353e-02 5.249396339058876038e-02
2.158000000000000000e+03 4.199244689941406250e+01 3.349707412719726562e+01 6.617959588766098022e-02 4.698330909013748169e-02 3.394887223839759827e-02 5.371797829866409302e-02
2.159000000000000000e+03 5.229252624511718750e+01 3.120513343811035156e+01 -9.412102103233337402e-01 -4.584114849567413330e-01 -4.198864996433258057e-01 -7.406588792800903320e-01
2.160000000000000000e+03 3.229136657714843750e+01 2.411195564270019531e+01 5.470704659819602966e-02 7.633446156978607178e-02 3.931245207786560059e-02 6.670936197042465210e-02
2.161000000000000000e+03 3.059148406982421875e+01 2.131217765808105469e+01 6.921954452991485596e-02 8.002253621816635132e-02 4.477262496948242188e-02 7.388614118099212646e-02
2.162000000000000000e+03 3.412849807739257812e+01 1.290398216247558594e+01 -1.190026998519897461e+00 -1.311899065971374512e+00 -7.505778074264526367e-01 -1.216141939163208008e+00
2.163000000000000000e+03 3.057477569580078125e+01 2.219481849670410156e+01 5.956372991204261780e-02 8.197636902332305908e-02 4.246202856302261353e-02 7.314963638782501221e-02
2.164000000000000000e+03 4.659453964233398438e+01 2.584581947326660156e+01 -1.091207146644592285e+00 -9.355855584144592285e-01 -6.080378293991088867e-01 -1.048972964286804199e+00
2.165000000000000000e+03 4.138023757934570312e+01 2.111614418029785156e+01 -1.080751895904541016e+00 -1.065103173255920410e+00 -6.437565088272094727e-01 -1.107453942298889160e+00
2.166000000000000000e+03 4.195248794555664062e+01 2.163191032409667969e+01 -1.135860562324523926e+00 -1.057653069496154785e+00 -6.580541133880615234e-01 -1.099474191665649414e+00
2.167000000000000000e+03 3.399191284179687500e+01 1.249895858764648438e+01 -1.189207196235656738e+00 -1.277551412582397461e+00 -7.400275468826293945e-01 -1.201138615608215332e+00
2.168000000000000000e+03 4.452038574218750000e+01 2.401262092590332031e+01 -1.194738388061523438e+00 -1.077976584434509277e+00 -6.818144917488098145e-01 -1.093805789947509766e+00
2.169000000000000000e+03 4.481194305419921875e+01 2.427881622314453125e+01 -1.194759845733642578e+00 -1.067339539527893066e+00 -6.786298155784606934e-01 -1.084082961082458496e+00
2.170000000000000000e+03 2.211396598815917969e+01 1.365034198760986328e+01 1.088544651865959167e-01 1.362787634134292603e-01 7.353997230529785156e-02 1.182335987687110901e-01
2.171000000000000000e+03 2.346503448486328125e+01 1.557061004638671875e+01 9.033288806676864624e-02 1.234768033027648926e-01 6.414290517568588257e-02 1.060636118054389954e-01
2.172000000000000000e+03 2.325344657897949219e+01 1.522837924957275391e+01 9.295317530632019043e-02 1.261247098445892334e-01 6.572336703538894653e-02 1.079399436712265015e-01
2.173000000000000000e+03 2.303690719604492188e+01 1.489750194549560547e+01 9.697271138429641724e-02 1.288286149501800537e-01 6.774039566516876221e-02 1.091464981436729431e-01
2.174000000000000000e+03 5.242824172973632812e+01 3.182050895690917969e+01 -9.512184858322143555e-01 -4.913836121559143066e-01 -4.327806234359741211e-01 -7.610607147216796875e-01
2.175000000000000000e+03 4.510601425170898438e+01 2.454362106323242188e+01 -1.190647006034851074e+00 -1.047825694084167480e+00 -6.715418100357055664e-01 -1.076335310935974121e+00
2.176000000000000000e+03 3.642559814453125000e+01 2.823187065124511719e+01 5.751931294798851013e-02 7.287451624870300293e-02 3.911814838647842407e-02 5.969445407390594482e-02
2.177000000000000000e+03 3.068472862243652344e+01 2.195475578308105469e+01 6.223526969552040100e-02 8.015534281730651855e-02 4.271718487143516541e-02 7.266642898321151733e-02
2.178000000000000000e+03 2.081954002380371094e+01 1.227559471130371094e+01 1.115419790148735046e-01 1.484294086694717407e-01 7.799141854047775269e-02 1.291148215532302856e-01
2.179000000000000000e+03 2.054654884338378906e+01 1.201237201690673828e+01 1.137566491961479187e-01 1.515969932079315186e-01 7.960608601570129395e-02 1.297065317630767822e-01
2.180000000000000000e+03 3.420226287841796875e+01 2.558294868469238281e+01 5.427955463528633118e-02 7.647742331027984619e-02 3.922709450125694275e-02 6.350028514862060547e-02
2.181000000000000000e+03 3.452773666381835938e+01 2.611871528625488281e+01 5.348974838852882385e-02 7.625407725572586060e-02 3.892314806580543518e-02 6.293361634016036987e-02
2.182000000000000000e+03 3.437079620361328125e+01 2.585436058044433594e+01 5.287401378154754639e-02 7.686044275760650635e-02 3.892033547163009644e-02 6.319350004196166992e-02
2.183000000000000000e+03 5.198855972290039062e+01 3.098351287841796875e+01 -9.578707814216613770e-01 -5.568289160728454590e-01 -4.544098973274230957e-01 -7.712220549583435059e-01
2.184000000000000000e+03 5.259479904174804688e+01 3.141118240356445312e+01 -9.350789785385131836e-01 -3.556061685085296631e-01 -3.872055411338806152e-01 -7.172341346740722656e-01
2.185000000000000000e+03 3.678686141967773438e+01 2.899285125732421875e+01 5.532728508114814758e-02 7.136610150337219238e-02 3.800801560282707214e-02 5.840973183512687683e-02
2.186000000000000000e+03 3.348159027099609375e+01 1.184339046478271484e+01 -1.206762909889221191e+00 -1.248632431030273438e+00 -7.366185784339904785e-01 -1.193068385124206543e+00
2.187000000000000000e+03 5.512655258178710938e+01 3.175446701049804688e+01 -7.584469914436340332e-01 3.023568689823150635e-01 -1.368270367383956909e-01 -5.441009998321533203e-01
2.188000000000000000e+03 5.274411773681640625e+01 3.199856758117675781e+01 -9.259889721870422363e-01 -3.620673120021820068e-01 -3.864168822765350342e-01 -7.325184941291809082e-01
2.189000000000000000e+03 3.583718490600585938e+01 2.733790397644042969e+01 5.483590438961982727e-02 7.353322207927703857e-02 3.851073980331420898e-02 6.287255138158798218e-02
2.190000000000000000e+03 1.738879966735839844e+01 9.153694152832031250e+00 1.301225572824478149e-01 2.101907581090927124e-01 1.020939946174621582e-01 1.581908911466598511e-01
2.191000000000000000e+03 1.538263416290283203e+01 6.341759681701660156e+00 1.721773445606231689e-01 3.369522988796234131e-01 1.527388989925384521e-01 2.220206260681152344e-01
2.192000000000000000e+03 1.452298831939697266e+01 7.072017669677734375e+00 1.012633517384529114e-01 3.750268518924713135e-01 1.428870707750320435e-01 1.448598951101303101e-01
2.193000000000000000e+03 3.135067367553710938e+01 1.050918292999267578e+01 -1.326227545738220215e+00 -1.302942633628845215e+00 -7.887510657310485840e-01 -1.230023503303527832e+00
2.194000000000000000e+03 1.836640357971191406e+01 9.980625152587890625e+00 1.235349625349044800e-01 1.891131848096847534e-01 9.379444271326065063e-02 1.491418778896331787e-01
2.195000000000000000e+03 1.804740715026855469e+01 9.801231384277343750e+00 1.228825598955154419e-01 1.935415863990783691e-01 9.492724388837814331e-02 1.498065739870071411e-01
2.196000000000000000e+03 3.947510528564453125e+01 3.095279502868652344e+01 6.157800182700157166e-02 5.788765102624893188e-02 3.583969548344612122e-02 5.643344670534133911e-02
2.197000000000000000e+03 1.343632316589355469e+01 5.253997325897216797e+00 8.877878636121749878e-02 6.794152855873107910e-01 2.304582297801971436e-01 4.393196851015090942e-02
2.198000000000000000e+03 1.388708400726318359e+01 5.094198703765869141e+00 1.127744168043136597e-01 7.116938233375549316e-01 2.473404705524444580e-01 1.546337902545928955e-01
2.199000000000000000e+03 1.526364231109619141e+01 7.090658187866210938e+00 1.279132664203643799e-01 3.339217305183410645e-01 1.385504901409149170e-01 1.811186522245407104e-01
2.200000000000000000e+03 1.530147075653076172e+01 6.720948696136474609e+00 1.404274851083755493e-01 3.471112847328186035e-01 1.462616324424743652e-01 1.956940591335296631e-01
2.201000000000000000e+03 6.484306335449218750e+01 3.600732421875000000e+01 -3.708824813365936279e-01 1.791979217529296875e+01 5.264672756195068359e+00 -2.919857263565063477e+00
2.202000000000000000e+03 6.516336822509765625e+01 3.601731872558593750e+01 -1.725374311208724976e-01 1.879616546630859375e+01 5.587088108062744141e+00 -1.172646880149841309e+00
2.203000000000000000e+03 6.546385955810546875e+01 3.593115615844726562e+01 5.040419697761535645e-01 1.913605690002441406e+01 5.892029762268066406e+00 1.829650551080703735e-01
2.204000000000000000e+03 1.321628093719482422e+01 3.947828054428100586e+00 2.487907707691192627e-01 1.057531833648681641e+00 3.918967843055725098e-01 -1.511504054069519043e-01
2.205000000000000000e+03 2.974531936645507812e+01 5.573944568634033203e+00 -1.848755478858947754e+00 -1.059136629104614258e+00 -8.723676204681396484e-01 -1.052982807159423828e+00
2.206000000000000000e+03 3.139626312255859375e+01 5.442413806915283203e+00 -1.337533712387084961e+00 -7.627388238906860352e-01 -6.300817728042602539e-01 -8.155891895294189453e-01
2.207000000000000000e+03 2.244817352294921875e+01 -5.588828325271606445e-01 -1.638206243515014648e-01 9.705593585968017578e-01 2.420216202735900879e-01 -9.957867264747619629e-01
2.208000000000000000e+03 1.149434661865234375e+01 2.775403976440429688e+00 5.874977707862854004e-01 -1.956178843975067139e-01 1.175639703869819641e-01 -1.359523087739944458e-02
2.209000000000000000e+03 1.677188110351562500e+01 -2.729948759078979492e+00 -1.488797783851623535e+00 -1.004827737808227539e+00 -7.480876445770263672e-01 -1.054726004600524902e+00
2.210000000000000000e+03 1.653571128845214844e+01 -3.606758594512939453e+00 -1.122895717620849609e+00 -1.030857205390930176e+00 -6.461258530616760254e-01 -1.021083235740661621e+00
2.211000000000000000e+03 3.168953704833984375e+01 1.080509281158447266e+01 -1.306883692741394043e+00 -1.299761652946472168e+00 -7.819936275482177734e-01 -1.235765218734741211e+00
2.212000000000000000e+03 3.086405563354492188e+01 9.517933845520019531e+00 -1.276089191436767578e+00 -1.207811951637268066e+00 -7.451703548431396484e-01 -1.167252540588378906e+00
2.213000000000000000e+03 5.893368530273437500e+01 3.150150108337402344e+01 2.465691566467285156e-01 6.732162237167358398e-01 2.759356200695037842e-01 3.970921933650970459e-01
2.214000000000000000e+03 5.324040603637695312e+01 3.998586654663085938e+01 3.365240395069122314e-01 -8.225569128990173340e-01 -1.458098590373992920e-01 4.601970911026000977e-01
2.215000000000000000e+03 4.500152969360351562e+01 3.664279937744140625e+01 1.221653223037719727e-01 3.676077723503112793e-02 4.767782986164093018e-02 5.309694260358810425e-02
2.216000000000000000e+03 5.567540740966796875e+01 3.983728027343750000e+01 6.407376527786254883e-01 -5.088301301002502441e-01 3.957224637269973755e-02 3.451319634914398193e-01
2.217000000000000000e+03 5.956665039062500000e+01 3.189234924316406250e+01 2.756302654743194580e-01 6.021255850791931152e-01 2.633267641067504883e-01 5.355370640754699707e-01
2.218000000000000000e+03 1.043915748596191406e+01 -4.348316669464111328e+00 -4.664271175861358643e-01 -1.418531984090805054e-01 -1.824840903282165527e-01 -4.233676195144653320e-01
2.219000000000000000e+03 3.178324127197265625e+01 6.706499099731445312e+00 -1.167873740196228027e+00 -9.271435737609863281e-01 -6.285051703453063965e-01 -9.885066747665405273e-01
2.220000000000000000e+03 6.164419555664062500e+01 3.958296966552734375e+01 4.389573633670806885e-01 4.716655254364013672e+00 1.546683788299560547e+00 -1.735779047012329102e+00
2.221000000000000000e+03 6.229757690429687500e+01 3.729909133911132812e+01 1.027895569801330566e+00 3.879942655563354492e+00 1.472351431846618652e+00 -2.850315332412719727e+00
2.222000000000000000e+03 2.941930961608886719e+01 5.065805912017822266e+00 -1.831413149833679199e+00 -1.101796865463256836e+00 -8.799629807472229004e-01 -9.309241771697998047e-01
2.223000000000000000e+03 2.908583450317382812e+01 4.560188770294189453e+00 -1.811312794685363770e+00 -1.042657613754272461e+00 -8.561910986900329590e-01 -8.613960146903991699e-01
2.224000000000000000e+03 5.646464157104492188e+01 3.203956604003906250e+01 -6.705538630485534668e-01 3.550658822059631348e-01 -9.464640170335769653e-02 -4.368333220481872559e-01
2.225000000000000000e+03 5.138658142089843750e+01 3.965202713012695312e+01 1.484417617321014404e-01 -5.637282878160476685e-02 2.762067876756191254e-02 1.706882566213607788e-01
2.226000000000000000e+03 6.004138183593750000e+01 3.881246185302734375e+01 6.153575181961059570e-01 2.384684085845947266e+00 9.000124931335449219e-01 -6.391698122024536133e-01
2.227000000000000000e+03 5.024698638916015625e+01 3.919063186645507812e+01 1.628451049327850342e-01 1.076973229646682739e-02 5.208444967865943909e-02 9.063652902841567993e-02
2.228000000000000000e+03 1.118002891540527344e+01 -4.357843399047851562e+00 -5.351338982582092285e-01 -1.383794695138931274e-01 -2.020540088415145874e-01 -4.759535193443298340e-01
2.229000000000000000e+03 8.959649085998535156e+00 -4.426501750946044922e+00 -3.439484536647796631e-01 -1.167690083384513855e-01 -1.382152289152145386e-01 -3.354492187500000000e-01
2.230000000000000000e+03 8.467797279357910156e+00 3.914915800094604492e+00 1.320550590753555298e-01 -1.996724456548690796e-01 -2.028521522879600525e-02 1.697624772787094116e-01
2.231000000000000000e+03 7.681221008300781250e+00 3.276587724685668945e+00 4.997252020984888077e-03 -1.660412698984146118e-01 -4.831320792436599731e-02 2.173296809196472168e-01
2.232000000000000000e+03 5.229740524291992188e+01 4.033733367919921875e+01 2.017520964145660400e-01 -3.944827020168304443e-01 -5.781918019056320190e-02 3.502658903598785400e-01
2.233000000000000000e+03 9.700640678405761719e+00 -4.371259212493896484e+00 -4.136351048946380615e-01 -9.849818795919418335e-02 -1.536399871110916138e-01 -3.734272420406341553e-01
2.234000000000000000e+03 7.765279769897460938e+00 4.735867977142333984e+00 1.309978663921356201e-01 -1.609588265419006348e-01 -8.988288231194019318e-03 1.268615424633026123e-01
2.235000000000000000e+03 6.990568637847900391e+00 4.074355602264404297e+00 4.833868891000747681e-02 -1.472120732069015503e-01 -2.966201677918434143e-02 1.701163053512573242e-01
2.236000000000000000e+03 7.720249176025390625e+00 3.998641252517700195e+00 8.252651244401931763e-02 -1.650797575712203979e-01 -2.476597204804420471e-02 1.697233617305755615e-01
2.237000000000000000e+03 3.464332818984985352e+00 6.441777229309082031e+00 2.832088805735111237e-02 -1.215416938066482544e-01 -2.796624042093753815e-02 7.721128314733505249e-02
2.238000000000000000e+03 4.792175769805908203e+00 3.538687229156494141e+00 -2.754203788936138153e-02 -8.218652755022048950e-02 -3.291856870055198669e-02 1.322045028209686279e-01
2.239000000000000000e+03 2.490185260772705078e+00 5.045001029968261719e+00 3.937426488846540451e-03 -1.013779938220977783e-01 -2.923217043280601501e-02 7.529863715171813965e-02
2.240000000000000000e+03 6.305347919464111328e+00 4.933571815490722656e+00 6.577973067760467529e-02 -1.330094337463378906e-01 -2.016890980303287506e-02 1.323717087507247925e-01
2.241000000000000000e+03 2.489188671112060547e+00 3.924137830734252930e+00 -9.853953495621681213e-03 -7.473067939281463623e-02 -2.537539042532444000e-02 7.299708575010299683e-02
2.242000000000000000e+03 1.503009676933288574e+00 4.979309558868408203e+00 8.832042221911251545e-04 -1.003205031156539917e-01 -2.983118966221809387e-02 4.849721863865852356e-02
2.243000000000000000e+03 5.440343856811523438e+01 3.197353744506835938e+01 -8.314307332038879395e-01 1.800132542848587036e-01 -1.954252570867538452e-01 -6.149170398712158203e-01
2.244000000000000000e+03 5.429033660888671875e+01 3.240932464599609375e+01 -9.128611683845520020e-01 1.248135343194007874e-01 -2.364142835140228271e-01 -6.499277353286743164e-01
2.245000000000000000e+03 1.229715251922607422e+01 3.169826269149780273e+00 6.617970466613769531e-01 3.709819018840789795e-01 3.098336756229400635e-01 -3.632380664348602295e-01
2.246000000000000000e+03 5.308544921875000000e+01 3.211350631713867188e+01 -9.179621934890747070e-01 -2.324532121419906616e-01 -3.451246321201324463e-01 -7.024616599082946777e-01
2.247000000000000000e+03 5.714619827270507812e+01 3.207390594482421875e+01 -5.902777910232543945e-01 3.759868741035461426e-01 -6.428727507591247559e-02 -3.203764259815216064e-01
2.248000000000000000e+03 5.660188293457031250e+01 3.145126152038574219e+01 -4.376214742660522461e-01 4.690475463867187500e-01 9.427815675735473633e-03 -3.095869421958923340e-01
2.249000000000000000e+03 4.829075241088867188e+01 3.942238616943359375e+01 1.414371132850646973e-01 3.395669534802436829e-02 5.261814221739768982e-02 1.770805940032005310e-02
2.250000000000000000e+03 5.602888870239257812e+01 3.128972625732421875e+01 -4.944098293781280518e-01 4.495838880538940430e-01 -1.344778109341859818e-02 -3.744670748710632324e-01
2.251000000000000000e+03 5.319282913208007812e+01 3.164787864685058594e+01 -8.952802419662475586e-01 -1.370107680559158325e-01 -3.096873164176940918e-01 -6.687780618667602539e-01
2.252000000000000000e+03 5.720283889770507812e+01 3.153319740295410156e+01 -3.348937034606933594e-01 4.862910509109497070e-01 4.541920498013496399e-02 -2.053654193878173828e-01
2.253000000000000000e+03 5.063103199005126953e+00 -4.837879657745361328e+00 -1.282903254032135010e-01 -1.079744473099708557e-01 -7.087942957878112793e-02 -1.721500754356384277e-01
2.254000000000000000e+03 5.868062973022460938e+00 -4.768699169158935547e+00 -1.593937873840332031e-01 -1.148221790790557861e-01 -8.226478844881057739e-02 -2.045715451240539551e-01
2.255000000000000000e+03 6.663352966308593750e+00 -4.685245513916015625e+00 -2.065194547176361084e-01 -1.024324446916580200e-01 -9.268557280302047729e-02 -2.339479029178619385e-01
2.256000000000000000e+03 8.070422172546386719e+00 -3.644760847091674805e+00 -2.855773568153381348e-01 -7.106924057006835938e-02 -1.069939732551574707e-01 -2.332789450883865356e-01
2.257000000000000000e+03 7.445094585418701172e+00 -4.593998908996582031e+00 -2.433222234249114990e-01 -1.125929951667785645e-01 -1.067745611071586609e-01 -2.673785090446472168e-01
2.258000000000000000e+03 3.327262163162231445e+00 -3.977237462997436523e+00 -5.725329369306564331e-02 -6.941673904657363892e-02 -3.800100833177566528e-02 -7.554217427968978882e-02
2.259000000000000000e+03 3.479879856109619141e+00 -5.883251667022705078e+00 -6.252765655517578125e-02 -1.468990594148635864e-01 -6.282801181077957153e-02 -1.447353959083557129e-01
2.260000000000000000e+03 2.665590047836303711e+00 -4.840940475463867188e+00 -3.766290843486785889e-02 -9.433095902204513550e-02 -3.959815949201583862e-02 -8.260138332843780518e-02
2.261000000000000000e+03 2.556417703628540039e+00 -5.747829437255859375e+00 -4.221674799919128418e-02 -1.221758425235748291e-01 -4.931777715682983398e-02 -1.014078110456466675e-01
2.262000000000000000e+03 1.578645324707031250e+01 -3.758565425872802734e+00 -1.011829137802124023e+00 -8.305583596229553223e-01 -5.527162551879882812e-01 -9.247453808784484863e-01
2.263000000000000000e+03 4.469638442993164062e+01 3.545563888549804688e+01 8.990106731653213501e-02 4.070633649826049805e-02 3.918221965432167053e-02 5.788780376315116882e-02
2.264000000000000000e+03 4.486511230468750000e+01 3.573503494262695312e+01 9.984266757965087891e-02 3.730573132634162903e-02 4.114452004432678223e-02 5.817978084087371826e-02
2.265000000000000000e+03 1.089840888977050781e+01 3.585674524307250977e+00 4.420084059238433838e-01 -1.390050202608108521e-01 9.090101718902587891e-02 -4.943368956446647644e-02
2.266000000000000000e+03 9.240149497985839844e+00 3.831193923950195312e+00 2.065187841653823853e-01 -2.148722559213638306e-01 -2.506044926121830940e-03 1.354185193777084351e-01
2.267000000000000000e+03 2.242872810363769531e+01 -1.008736863732337952e-01 -1.005243182182312012e+00 8.622162938117980957e-01 -4.290807247161865234e-02 -1.272081375122070312e+00
2.268000000000000000e+03 4.723096847534179688e+01 3.909494018554687500e+01 1.399644613265991211e-01 2.701657637953758240e-02 5.009431019425392151e-02 2.878893725574016571e-02
2.269000000000000000e+03 4.866788482666015625e+01 3.780617904663085938e+01 1.899733692407608032e-01 2.778375707566738129e-02 6.532713770866394043e-02 6.732392311096191406e-02
2.270000000000000000e+03 1.516391658782958984e+01 -5.051122188568115234e+00 -6.258026957511901855e-01 -7.408419847488403320e-01 -4.099933803081512451e-01 -8.613445758819580078e-01
2.271000000000000000e+03 4.767063140869140625e+01 3.771141052246093750e+01 1.701496690511703491e-01 3.482402861118316650e-02 6.149210780858993530e-02 5.490430071949958801e-02
2.272000000000000000e+03 1.192345523834228516e+01 -4.391499042510986328e+00 -6.048676967620849609e-01 -2.141754925251007080e-01 -2.457129508256912231e-01 -5.492826700210571289e-01
2.273000000000000000e+03 1.267884159088134766e+01 -4.433235645294189453e+00 -6.517620682716369629e-01 -2.503715157508850098e-01 -2.706400752067565918e-01 -6.160222887992858887e-01
2.274000000000000000e+03 5.096931076049804688e+01 3.920313644409179688e+01 1.327322572469711304e-01 -4.930656403303146362e-02 2.502770721912384033e-02 1.125731468200683594e-01
2.275000000000000000e+03 4.658628845214843750e+01 3.823258972167968750e+01 1.559001654386520386e-01 3.553885221481323242e-02 5.743170157074928284e-02 3.074597008526325226e-02
2.276000000000000000e+03 1.566297245025634766e+01 -4.494751453399658203e+00 -7.486459612846374512e-01 -8.171175122261047363e-01 -4.697290360927581787e-01 -9.043422341346740723e-01
2.277000000000000000e+03 1.496939849853515625e+01 -3.717400550842285156e+00 -9.640575647354125977e-01 -5.234087705612182617e-01 -4.462398886680603027e-01 -8.072085976600646973e-01
2.278000000000000000e+03 1.699052429199218750e+01 -4.264106750488281250e+00 -7.153391242027282715e-01 -1.352477788925170898e+00 -6.203450560569763184e-01 -1.001270055770874023e+00
2.279000000000000000e+03 2.672719573974609375e+01 -2.641230583190917969e+00 7.528620362281799316e-01 -1.022234708070755005e-01 1.951915621757507324e-01 -3.616594970226287842e-01
2.280000000000000000e+03 2.613162994384765625e+01 -1.812371730804443359e+00 5.720418691635131836e-01 -7.635964429937303066e-04 1.713834851980209351e-01 -3.672370016574859619e-01
2.281000000000000000e+03 1.877052307128906250e+01 -1.637478828430175781e+01 2.445634454488754272e-01 -8.421969413757324219e-02 4.810312390327453613e-02 -3.008152246475219727e-01
2.282000000000000000e+03 2.014599037170410156e+01 -1.800685119628906250e+01 2.262146025896072388e-01 5.246255546808242798e-02 8.360315114259719849e-02 -3.044976890087127686e-01
2.283000000000000000e+03 2.142538833618164062e+01 -1.988103294372558594e+01 2.120388746261596680e-01 1.908384412527084351e-01 1.208631992340087891e-01 -3.200880885124206543e-01
2.284000000000000000e+03 3.680999755859375000e+01 -1.292669868469238281e+01 2.092289030551910400e-01 -9.419572539627552032e-03 5.994279682636260986e-02 -3.189106285572052002e-02
2.285000000000000000e+03 3.503667449951171875e+01 -1.074177265167236328e+01 3.201233744621276855e-01 -1.547482162714004517e-01 4.961254447698593140e-02 -6.916023790836334229e-02
2.286000000000000000e+03 3.645810699462890625e+01 -1.496319293975830078e+01 7.289673388004302979e-02 -1.000745445489883423e-01 -8.153341710567474365e-03 3.733804449439048767e-02
2.287000000000000000e+03 3.762083435058593750e+01 -1.411792659759521484e+01 1.484988629817962646e-01 7.413386553525924683e-02 6.678982079029083252e-02 -1.566530950367450714e-02
2.288000000000000000e+03 3.419848632812500000e+01 -9.680381774902343750e+00 3.629375696182250977e-01 -1.982720643281936646e-01 4.939964786171913147e-02 -9.442973881959915161e-02
2.289000000000000000e+03 2.752154159545898438e+01 -1.971993923187255859e+00 4.711479842662811279e-01 -2.945185899734497070e-01 5.298882350325584412e-02 -2.213933467864990234e-01
2.290000000000000000e+03 3.341299438476562500e+01 -8.621850013732910156e+00 4.612310826778411865e-01 -2.442132681608200073e-01 6.510534882545471191e-02 -1.221950054168701172e-01
2.291000000000000000e+03 3.248819732666015625e+01 -9.340775489807128906e+00 3.483211100101470947e-01 -2.142005264759063721e-01 4.023617506027221680e-02 -1.292329281568527222e-01
2.292000000000000000e+03 4.095447540283203125e+01 -2.035070991516113281e+01 -4.655187949538230896e-02 5.298987030982971191e-01 1.450040340423583984e-01 4.826491232961416245e-03
2.293000000000000000e+03 2.191781234741210938e+01 -2.106874847412109375e+01 2.124757617712020874e-01 2.454276531934738159e-01 1.373710185289382935e-01 -3.202128112316131592e-01
2.294000000000000000e+03 4.509218978881835938e+01 -2.705088615417480469e+01 -1.540782004594802856e-01 1.666352272033691406e+00 4.536822438240051270e-01 -4.078790545463562012e-02
2.295000000000000000e+03 4.229933929443359375e+01 -2.269006919860839844e+01 -8.608783036470413208e-02 8.021004199981689453e-01 2.148037701845169067e-01 -2.181035093963146210e-02
2.296000000000000000e+03 2.112030982971191406e+01 -2.294577980041503906e+01 2.200134694576263428e-01 1.604531109333038330e-01 1.141399741172790527e-01 -3.218494951725006104e-01
2.297000000000000000e+03 2.433883666992187500e+01 -2.292103767395019531e+01 2.165046185255050659e-01 4.410812854766845703e-01 1.972757726907730103e-01 -3.556543290615081787e-01
2.298000000000000000e+03 4.297473907470703125e+01 -2.383771514892578125e+01 -1.068591549992561340e-01 9.686238169670104980e-01 2.585293948650360107e-01 -3.031952492892742157e-02
2.299000000000000000e+03 4.188508224487304688e+01 -2.457213592529296875e+01 -1.136890798807144165e-01 6.305259466171264648e-01 1.550510674715042114e-01 -1.675496436655521393e-02
2.300000000000000000e+03 3.899937438964843750e+01 -1.666924858093261719e+01 5.163117125630378723e-02 2.456799149513244629e-01 8.919332176446914673e-02 9.041002020239830017e-03
2.301000000000000000e+03 2.093303489685058594e+01 -1.879622650146484375e+01 2.114962190389633179e-01 1.700801253318786621e-01 1.144729033112525940e-01 -3.013540804386138916e-01
2.302000000000000000e+03 2.556238174438476562e+01 -2.541075706481933594e+01 2.374937087297439575e-01 5.308092236518859863e-01 2.304908782243728638e-01 -3.697895109653472900e-01
2.303000000000000000e+03 2.751270484924316406e+01 -2.741027116775512695e+00 7.576195597648620605e-01 -1.345464885234832764e-01 1.869219243526458740e-01 -2.640641033649444580e-01
2.304000000000000000e+03 7.578031158447265625e+01 1.237195873260498047e+01 -1.173482164740562439e-01 8.589785575866699219e+00 2.541731357574462891e+00 -1.192483305931091309e-01
2.305000000000000000e+03 7.392539215087890625e+01 -1.664195656776428223e+00 -1.488133333623409271e-02 7.837749958038330078e+00 2.346860647201538086e+00 2.088480591773986816e-01
2.306000000000000000e+03 7.561119079589843750e+01 5.584485054016113281e+00 -4.188479483127593994e-02 8.459704399108886719e+00 2.525345802307128906e+00 9.181424975395202637e-02
2.307000000000000000e+03 7.661296844482421875e+01 1.369206905364990234e+00 -9.295200929045677185e-03 8.596719741821289062e+00 2.576227188110351562e+00 1.077597960829734802e-01
2.308000000000000000e+03 7.517719268798828125e+01 -7.072423398494720459e-02 -1.526666525751352310e-02 8.202751159667968750e+00 2.456245422363281250e+00 1.647248417139053345e-01
2.309000000000000000e+03 7.444113159179687500e+01 -8.390127182006835938e+00 -1.341708237305283546e-03 7.762273311614990234e+00 2.328279495239257812e+00 1.997887492179870605e-01
2.310000000000000000e+03 7.427178192138671875e+01 3.554555130004882812e+01 8.404551148414611816e-01 7.541217803955078125e+00 2.514501810073852539e+00 -2.215232932940125465e-03
2.311000000000000000e+03 7.740248107910156250e+01 3.257567977905273438e+01 2.125637084245681763e-01 5.659533023834228516e+00 1.761629104614257812e+00 -5.702754259109497070e-01
2.312000000000000000e+03 7.691740417480468750e+01 8.312344551086425781e+00 -3.747439384460449219e-02 8.845006942749023438e+00 2.642259836196899414e+00 8.997773751616477966e-03
2.313000000000000000e+03 7.567514038085937500e+01 6.940014839172363281e+00 -5.922827124595642090e-02 8.506070137023925781e+00 2.534052610397338867e+00 6.432611495256423950e-02
2.314000000000000000e+03 7.552906036376953125e+01 -4.328595161437988281e+00 -4.944033455103635788e-03 8.137315750122070312e+00 2.439711332321166992e+00 1.641919910907745361e-01
2.315000000000000000e+03 7.560568237304687500e+01 -5.689397335052490234e+00 -2.004812558880075812e-04 8.109148025512695312e+00 2.432684421539306641e+00 1.634593755006790161e-01
2.316000000000000000e+03 7.541809082031250000e+01 -2.939382553100585938e+00 -5.075660068541765213e-03 8.154444694519042969e+00 2.444810867309570312e+00 1.673678606748580933e-01
2.317000000000000000e+03 7.667427062988281250e+01 2.773167610168457031e+00 -1.763020828366279602e-02 8.656023979187011719e+00 2.591518163681030273e+00 9.447582811117172241e-02
2.318000000000000000e+03 7.575226593017578125e+01 1.100219058990478516e+01 -1.003899723291397095e-01 8.582653045654296875e+00 2.544678926467895508e+00 -6.164884194731712341e-02
2.319000000000000000e+03 7.432617187500000000e+01 -1.642177772521972656e+01 7.859601173549890518e-04 7.503524303436279297e+00 2.251292943954467773e+00 1.963441222906112671e-01
2.320000000000000000e+03 7.558049774169921875e+01 -2.186941909790039062e+01 -9.569902613293379545e-05 7.579200744628906250e+00 2.273731470108032227e+00 1.541740447282791138e-01
2.321000000000000000e+03 7.563498687744140625e+01 -1.107687759399414062e+01 -4.873805737588554621e-04 7.936207294464111328e+00 2.380716085433959961e+00 1.618075221776962280e-01
2.322000000000000000e+03 7.561148834228515625e+01 -1.242961025238037109e+01 -6.061520543880760670e-04 7.884951591491699219e+00 2.365303516387939453e+00 1.608615517616271973e-01
2.323000000000000000e+03 7.565473175048828125e+01 -9.726338386535644531e+00 -2.137227449566125870e-03 7.984134674072265625e+00 2.394599199295043945e+00 1.597657203674316406e-01
2.324000000000000000e+03 7.494318389892578125e+01 2.064745712280273438e+01 -3.527068197727203369e-01 8.352880477905273438e+00 2.400052070617675781e+00 -8.080028891563415527e-01
2.325000000000000000e+03 7.576100158691406250e+01 1.375545406341552734e+01 -1.458547562360763550e-01 8.579752922058105469e+00 2.530169486999511719e+00 -1.910308152437210083e-01
2.326000000000000000e+03 7.569676208496093750e+01 9.643155097961425781e+00 -8.027186244726181030e-02 8.565879821777343750e+00 2.545682191848754883e+00 -9.672340005636215210e-03
2.327000000000000000e+03 7.561356353759765625e+01 -1.782013320922851562e+01 -1.316045090788975358e-04 7.711754322052001953e+00 2.313486814498901367e+00 1.559460461139678955e-01
2.328000000000000000e+03 7.562281799316406250e+01 -1.916569137573242188e+01 5.688473465852439404e-04 7.669968605041503906e+00 2.301161289215087891e+00 1.566354185342788696e-01
2.329000000000000000e+03 7.559655761718750000e+01 -1.647394752502441406e+01 1.354406820610165596e-03 7.751266956329345703e+00 2.325786352157592773e+00 1.587563008069992065e-01
2.330000000000000000e+03 7.720906066894531250e+01 2.205931282043457031e+01 -1.303006708621978760e-01 8.083343505859375000e+00 2.385912656784057617e+00 -7.296167016029357910e-01
2.331000000000000000e+03 7.603865814208984375e+01 2.066010284423828125e+01 -2.379817366600036621e-01 8.314461708068847656e+00 2.422943830490112305e+00 -7.453437447547912598e-01
2.332000000000000000e+03 7.698101806640625000e+01 1.658263969421386719e+01 -1.092996746301651001e-01 8.696686744689941406e+00 2.576215982437133789e+00 -3.262054026126861572e-01
2.333000000000000000e+03 7.583480834960937500e+01 1.793871879577636719e+01 -2.234163135290145874e-01 8.480463981628417969e+00 2.477114200592041016e+00 -4.948605000972747803e-01
2.334000000000000000e+03 7.703224182128906250e+01 1.796147918701171875e+01 -1.208513751626014709e-01 8.600800514221191406e+00 2.543984651565551758e+00 -4.177246093750000000e-01
2.335000000000000000e+03 7.536397552490234375e+01 -2.865720748901367188e+01 1.368065457791090012e-02 7.344109058380126953e+00 2.207336902618408203e+00 1.384987384080886841e-01
2.336000000000000000e+03 7.547487640380859375e+01 -2.458865737915039062e+01 7.367803715169429779e-03 7.478271007537841797e+00 2.245691537857055664e+00 1.538789868354797363e-01
2.337000000000000000e+03 7.721404266357421875e+01 2.609505081176757812e+01 -5.863911658525466919e-02 7.233675479888916016e+00 2.152510881423950195e+00 -1.010161757469177246e+00
2.338000000000000000e+03 7.615016937255859375e+01 2.330797386169433594e+01 -2.164143770933151245e-01 8.019435882568359375e+00 2.340906381607055664e+00 -1.006718635559082031e+00
2.339000000000000000e+03 7.612882995605468750e+01 2.591605186462402344e+01 -1.241690516471862793e-01 7.633110523223876953e+00 2.252682447433471680e+00 -1.225528120994567871e+00
2.340000000000000000e+03 7.542222595214843750e+01 -2.595219612121582031e+01 1.003300864249467850e-02 7.427481651306152344e+00 2.231254577636718750e+00 1.459818929433822632e-01
2.341000000000000000e+03 7.678269195556640625e+01 -2.473995208740234375e+01 3.284059930592775345e-03 7.702642440795898438e+00 2.311778068542480469e+00 1.088655516505241394e-01
2.342000000000000000e+03 7.553125000000000000e+01 -2.322905158996582031e+01 4.274664912372827530e-03 7.531019687652587891e+00 2.260588169097900391e+00 1.530847400426864624e-01
2.343000000000000000e+03 7.704125976562500000e+01 2.885316276550292969e+01 8.427249640226364136e-02 6.614815711975097656e+00 2.009726524353027344e+00 -1.047270059585571289e+00
2.344000000000000000e+03 7.508274841308593750e+01 -3.141831779479980469e+01 1.764969155192375183e-02 7.230683326721191406e+00 2.174499988555908203e+00 1.139874458312988281e-01
2.345000000000000000e+03 7.265572357177734375e+01 -3.619877624511718750e+01 7.545088976621627808e-02 6.766753673553466797e+00 2.052661418914794922e+00 9.679773449897766113e-02
2.346000000000000000e+03 7.562538146972656250e+01 -3.628973007202148438e+01 2.586576389148831367e-03 7.283092021942138672e+00 2.185703754425048828e+00 6.934815645217895508e-02
2.347000000000000000e+03 7.471916961669921875e+01 3.242216491699218750e+01 8.014842867851257324e-01 7.363087654113769531e+00 2.449371576309204102e+00 -8.989818692207336426e-01
2.348000000000000000e+03 7.492914581298828125e+01 -3.457234573364257812e+01 1.264105364680290222e-02 7.172845840454101562e+00 2.155646085739135742e+00 7.825676351785659790e-02
2.349000000000000000e+03 7.648929595947265625e+01 -3.304357910156250000e+01 4.866844974458217621e-04 7.441408157348632812e+00 2.232568502426147461e+00 7.524676620960235596e-02
2.350000000000000000e+03 7.528067016601562500e+01 -3.001208496093750000e+01 1.427445374429225922e-02 7.282324314117431641e+00 2.188979625701904297e+00 1.308978050947189331e-01
2.351000000000000000e+03 2.494103431701660156e+01 -2.417786788940429688e+01 2.193955183029174805e-01 4.898773133754730225e-01 2.127818465232849121e-01 -3.578652441501617432e-01
2.352000000000000000e+03 7.468410491943359375e+01 3.680914306640625000e+01 5.401908159255981445e-01 7.409239768981933594e+00 2.384829044342041016e+00 2.104415893554687500e-01
2.353000000000000000e+03 3.853497314453125000e+01 -1.864123916625976562e+01 -3.700798377394676208e-02 8.982317149639129639e-02 1.584455557167530060e-02 6.969183683395385742e-02
2.354000000000000000e+03 2.620474433898925781e+01 -2.659717369079589844e+01 2.419136464595794678e-01 5.685608983039855957e-01 2.431423664093017578e-01 -3.833267390727996826e-01
2.355000000000000000e+03 4.128295898437500000e+00 -1.587970066070556641e+01 2.470399625599384308e-02 -6.828190088272094727e-01 -1.974345147609710693e-01 -2.694524526596069336e-01
2.356000000000000000e+03 3.890310049057006836e+00 2.251644897460937500e+01 -3.741577267646789551e-03 -9.723313897848129272e-02 -3.029241412878036499e-02 -1.825385726988315582e-02
2.357000000000000000e+03 2.794886827468872070e+00 2.001880264282226562e+01 -2.254133432870730758e-04 -1.276218891143798828e-01 -3.835419192910194397e-02 -1.762931421399116516e-02
2.358000000000000000e+03 4.229338645935058594e+00 -1.722374343872070312e+01 2.623244933784008026e-02 -7.398788332939147949e-01 -2.140939235687255859e-01 -2.559814453125000000e-01
2.359000000000000000e+03 4.515013694763183594e+00 -2.136022377014160156e+01 3.792692720890045166e-02 -9.012363553047180176e-01 -2.589928209781646729e-01 -2.175942361354827881e-01
2.360000000000000000e+03 3.918867111206054688e+00 1.982840156555175781e+01 -2.543317619711160660e-03 -1.028541699051856995e-01 -3.161924704909324646e-02 -2.069010026752948761e-02
2.361000000000000000e+03 3.976832151412963867e+00 1.709292793273925781e+01 4.903458175249397755e-04 -1.079880073666572571e-01 -3.224929794669151306e-02 -2.113201469182968140e-02
2.362000000000000000e+03 4.529227733612060547e+00 -2.802629661560058594e+01 3.105754591524600983e-02 -1.101974010467529297e+00 -3.212749361991882324e-01 -1.320624351501464844e-01
2.363000000000000000e+03 3.223787784576416016e+00 -2.293456840515136719e+01 2.122116647660732269e-02 -1.041008591651916504e+00 -3.059362471103668213e-01 -1.490034013986587524e-01
2.364000000000000000e+03 4.567089557647705078e+00 -2.274149131774902344e+01 3.302118927240371704e-02 -9.436317086219787598e-01 -2.731831669807434082e-01 -1.955273747444152832e-01
2.365000000000000000e+03 3.879329681396484375e+00 1.429750537872314453e+01 8.235761895775794983e-03 -1.166782006621360779e-01 -3.253272920846939087e-02 -1.538459304720163345e-02
2.366000000000000000e+03 5.026628017425537109e+00 2.360607528686523438e+01 -5.155596416443586349e-03 -7.564126700162887573e-02 -2.423905767500400543e-02 -1.850622147321701050e-02
2.367000000000000000e+03 4.133753299713134766e+00 2.530195236206054688e+01 -4.090864676982164383e-03 -8.813539147377014160e-02 -2.766787633299827576e-02 -1.533177960664033890e-02
2.368000000000000000e+03 4.415058612823486328e+00 2.980115509033203125e+01 -2.253455109894275665e-03 -7.732436805963516235e-02 -2.387334778904914856e-02 -1.043784059584140778e-02
2.369000000000000000e+03 5.454032897949218750e+00 -1.702567672729492188e+01 4.523952677845954895e-02 -6.997094154357910156e-01 -1.963409781455993652e-01 -3.148311078548431396e-01
2.370000000000000000e+03 4.332757472991943359e+00 -1.858732032775878906e+01 3.522275015711784363e-02 -8.008667230606079102e-01 -2.296932041645050049e-01 -2.479217648506164551e-01
2.371000000000000000e+03 5.934700012207031250e+00 -2.534774589538574219e+01 5.158230662345886230e-02 -9.288403391838073730e-01 -2.631774246692657471e-01 -2.071341723203659058e-01
2.372000000000000000e+03 4.581541538238525391e+00 -2.411001014709472656e+01 3.567358851432800293e-02 -9.896807670593261719e-01 -2.862021625041961670e-01 -1.843317151069641113e-01
2.373000000000000000e+03 3.234181880950927734e+00 -2.430232048034667969e+01 1.606767997145652771e-02 -1.090261936187744141e+00 -3.222582936286926270e-01 -1.307064443826675415e-01
2.374000000000000000e+03 3.766487121582031250e+00 -1.061765766143798828e+01 -1.871195994317531586e-02 -3.994436264038085938e-01 -1.254466772079467773e-01 -2.588351070880889893e-01
2.375000000000000000e+03 3.672994375228881836e+00 -9.350075721740722656e+00 -3.662633150815963745e-02 -3.226605653762817383e-01 -1.077860668301582336e-01 -2.374265938997268677e-01
2.376000000000000000e+03 4.029242515563964844e+00 -1.455296039581298828e+01 1.266412530094385147e-02 -6.132524013519287109e-01 -1.801764816045761108e-01 -2.720560133457183838e-01
2.377000000000000000e+03 3.978044986724853516e+00 2.389317512512207031e+01 -2.404357306659221649e-03 -9.294401854276657104e-02 -2.860451303422451019e-02 -1.693539693951606750e-02
2.378000000000000000e+03 4.335186481475830078e+00 2.675818252563476562e+01 -2.654892159625887871e-03 -8.231168985366821289e-02 -2.548997476696968079e-02 -1.409728452563285828e-02
2.379000000000000000e+03 4.788595676422119141e+00 1.137661743164062500e+01 3.355266526341438293e-02 -9.836332499980926514e-02 -1.944319903850555420e-02 -1.889120787382125854e-03
2.380000000000000000e+03 3.495435714721679688e+00 -2.964423179626464844e+01 1.776823401451110840e-02 -1.226795196533203125e+00 -3.627080917358398438e-01 -9.022431820631027222e-02
2.381000000000000000e+03 4.729444503784179688e+00 -2.923594665527343750e+01 3.228345885872840881e-02 -1.115393996238708496e+00 -3.249331712722778320e-01 -1.250043511390686035e-01
2.382000000000000000e+03 4.093914031982421875e+00 3.113265228271484375e+01 -2.742229029536247253e-03 -8.066481351852416992e-02 -2.502211183309555054e-02 -8.330438286066055298e-03
2.383000000000000000e+03 5.683435916900634766e+00 3.669499206542968750e+01 -3.354765009135007858e-03 -5.861075595021247864e-02 -1.858965680003166199e-02 -4.602039698511362076e-03
2.384000000000000000e+03 4.025411128997802734e+00 3.694504547119140625e+01 3.156747698085382581e-05 -8.109995722770690918e-02 -2.432051673531532288e-02 -2.892322838306427002e-03
2.385000000000000000e+03 3.740794897079467773e+00 1.153522682189941406e+01 2.239050157368183136e-02 -1.268788129091262817e-01 -3.134649246931076050e-02 1.649302779696881771e-03
2.386000000000000000e+03 3.851148843765258789e+00 -1.191671657562255859e+01 -9.558800607919692993e-03 -4.694771468639373779e-01 -1.437107920646667480e-01 -2.693580389022827148e-01
2.387000000000000000e+03 4.360859870910644531e+00 -5.896781444549560547e+00 -9.571914374828338623e-02 -1.513747721910476685e-01 -7.412817329168319702e-02 -1.838067024946212769e-01
2.388000000000000000e+03 8.344676971435546875e+00 -3.205947494506835938e+01 8.136143535375595093e-02 -8.441603779792785645e-01 -2.288396805524826050e-01 -1.595471054315567017e-01
2.389000000000000000e+03 5.185599327087402344e+00 -3.045193099975585938e+01 3.177940472960472107e-02 -1.103960871696472168e+00 -3.216544389724731445e-01 -1.204602718353271484e-01
2.390000000000000000e+03 5.606397151947021484e+00 -3.173058128356933594e+01 3.903717920184135437e-02 -1.097351431846618652e+00 -3.174942731857299805e-01 -1.129430681467056274e-01
2.391000000000000000e+03 3.807029485702514648e+00 -3.096920013427734375e+01 1.872527599334716797e-02 -1.234112143516540527e+00 -3.646160662174224854e-01 -8.557417243719100952e-02
2.392000000000000000e+03 5.593444347381591797e+00 3.028563880920410156e+01 -3.890620078891515732e-03 -6.221988797187805176e-02 -1.983315311372280121e-02 -1.073723006993532181e-02
2.393000000000000000e+03 5.566880702972412109e+00 3.487334060668945312e+01 -3.963783849030733109e-03 -6.492011249065399170e-02 -2.066517062485218048e-02 -6.782897282391786575e-03
2.394000000000000000e+03 4.775880813598632812e+00 3.600328445434570312e+01 -6.296124192886054516e-04 -6.988543272018432617e-02 -2.115451358258724213e-02 -2.778028137981891632e-03
2.395000000000000000e+03 2.490251779556274414e+00 7.692647457122802734e+00 1.987382955849170685e-02 -1.447195559740066528e-01 -3.745371848344802856e-02 4.635414481163024902e-02
2.396000000000000000e+03 3.585542201995849609e+00 8.877807617187500000e+00 3.350464999675750732e-02 -1.336100548505783081e-01 -3.003162331879138947e-02 3.522282093763351440e-02
2.397000000000000000e+03 4.330504894256591797e+00 5.151360034942626953e+00 2.031095698475837708e-02 -1.050551384687423706e-01 -2.542325481772422791e-02 1.060513406991958618e-01
2.398000000000000000e+03 2.511963129043579102e+00 -6.865449905395507812e+00 -3.023260086774826050e-02 -1.729532033205032349e-01 -6.095574051141738892e-02 -1.257519125938415527e-01
2.399000000000000000e+03 4.602237319946289062e+01 -2.803679466247558594e+01 -1.528962403535842896e-01 1.991933822631835938e+00 5.517112612724304199e-01 2.607017941772937775e-02
2.400000000000000000e+03 2.608955764770507812e+01 -2.948034667968750000e+01 3.251046836376190186e-01 5.004510283470153809e-01 2.476667165756225586e-01 -3.787930011749267578e-01
2.401000000000000000e+03 1.736382484436035156e+01 -1.380647563934326172e+01 2.430435419082641602e-01 -3.033981323242187500e-01 -1.810637488961219788e-02 -3.455347418785095215e-01
2.402000000000000000e+03 1.815789794921875000e+01 -1.156916236877441406e+01 2.468155026435852051e-01 -3.471858799457550049e-01 -3.011111170053482056e-02 -2.926339507102966309e-01
2.403000000000000000e+03 3.266818618774414062e+01 -7.552661418914794922e+00 5.134119987487792969e-01 -2.706808447837829590e-01 7.281933724880218506e-02 -1.379632353782653809e-01
2.404000000000000000e+03 2.574446678161621094e+01 -9.433223605155944824e-01 1.409578025341033936e-01 -9.958005696535110474e-02 1.241332385689020157e-02 -3.335043489933013916e-01
2.405000000000000000e+03 2.282214164733886719e+01 6.442655920982360840e-01 -1.861136198043823242e+00 1.490651965141296387e-01 -5.136212706565856934e-01 -1.279327273368835449e+00
2.406000000000000000e+03 4.704659271240234375e+01 -2.915623092651367188e+01 -1.208145767450332642e-01 2.334472656250000000e+00 6.640974283218383789e-01 6.584975123405456543e-02
2.407000000000000000e+03 7.614241790771484375e+01 3.827550888061523438e+01 3.039104044437408447e-01 5.907912254333496094e+00 1.863546729087829590e+00 -1.297805160284042358e-01
2.408000000000000000e+03 1.671733665466308594e+01 -1.018723392486572266e+01 1.904905736446380615e-01 -5.861951112747192383e-01 -1.187113597989082336e-01 -4.362307488918304443e-01
2.409000000000000000e+03 1.744557571411132812e+01 -7.432148933410644531e+00 2.347038500010967255e-02 -1.011268973350524902e+00 -2.963396012783050537e-01 -5.153126716613769531e-01
2.410000000000000000e+03 1.660749626159667969e+01 -8.905802726745605469e+00 9.533976018428802490e-02 -7.716633677482604980e-01 -2.028970867395401001e-01 -5.321803689002990723e-01
2.411000000000000000e+03 3.096036338806152344e+01 -7.175695419311523438e+00 5.548292994499206543e-01 -1.946434676647186279e-01 1.080557480454444885e-01 -2.149687260389328003e-01
2.412000000000000000e+03 3.194792556762695312e+01 -6.463131427764892578e+00 6.177563071250915527e-01 -3.082297146320343018e-01 9.285797923803329468e-02 -1.513543725013732910e-01
2.413000000000000000e+03 5.685534286499023438e+01 3.919449615478515625e+01 4.999567270278930664e-01 2.710736989974975586e-01 2.313091307878494263e-01 5.606213212013244629e-01
2.414000000000000000e+03 5.835809707641601562e+01 3.958343505859375000e+01 7.047610878944396973e-01 1.189298272132873535e+00 5.682178139686584473e-01 -1.381030771881341934e-02
2.415000000000000000e+03 3.592163467407226562e+01 -1.181874752044677734e+01 2.516548931598663330e-01 -8.072772622108459473e-02 5.127814784646034241e-02 -4.611876979470252991e-02
2.416000000000000000e+03 3.212296676635742188e+01 -4.105259704589843750e+01 9.246569275856018066e-01 4.264938533306121826e-01 4.053452312946319580e-01 -1.168236359953880310e-01
2.417000000000000000e+03 3.086573219299316406e+01 -3.622703933715820312e+01 5.315274596214294434e-01 5.940306782722473145e-01 3.376674354076385498e-01 -4.018182158470153809e-01
2.418000000000000000e+03 5.095099258422851562e+01 -3.475677108764648438e+01 4.972103536128997803e-01 3.181374788284301758e+00 1.103575587272644043e+00 3.676962554454803467e-01
2.419000000000000000e+03 4.793932723999023438e+01 -4.113058471679687500e+01 1.187168240547180176e+00 2.760235309600830078e+00 1.184221029281616211e+00 1.195481047034263611e-01
2.420000000000000000e+03 2.493458175659179688e+01 -2.740092658996582031e+01 2.739294171333312988e-01 4.478392004966735840e-01 2.165305912494659424e-01 -3.637804687023162842e-01
2.421000000000000000e+03 1.944214630126953125e+01 -1.442950725555419922e+01 2.485800087451934814e-01 -5.564714223146438599e-02 5.787986144423484802e-02 -2.657238841056823730e-01
2.422000000000000000e+03 5.108216476440429688e+01 -3.229315185546875000e+01 2.586500048637390137e-01 3.212410449981689453e+00 1.041318178176879883e+00 3.932554721832275391e-01
2.423000000000000000e+03 4.883527755737304688e+01 -3.242783737182617188e+01 1.836019903421401978e-01 2.892403364181518555e+00 9.228016138076782227e-01 3.273378312587738037e-01
2.424000000000000000e+03 4.818865966796875000e+01 -2.786037063598632812e+01 -1.299541890621185303e-01 2.521873474121093750e+00 7.175757884979248047e-01 1.447324454784393311e-01
2.425000000000000000e+03 2.835337066650390625e+01 4.367468357086181641e+00 -2.007544040679931641e+00 -1.094266414642333984e+00 -9.305431246757507324e-01 -1.023816466331481934e+00
2.426000000000000000e+03 2.813512420654296875e+01 4.295670986175537109e+00 -2.073954343795776367e+00 -1.078454375267028809e+00 -9.457225799560546875e-01 -1.064043760299682617e+00
2.427000000000000000e+03 2.727742958068847656e+01 4.060694694519042969e+00 -2.319346666336059570e+00 -9.941750764846801758e-01 -9.940565228462219238e-01 -1.224347949028015137e+00
2.428000000000000000e+03 2.669937705993652344e+01 3.345424413681030273e+00 -2.327202081680297852e+00 -7.983559966087341309e-01 -9.376674294471740723e-01 -1.086463689804077148e+00
2.429000000000000000e+03 6.278700256347656250e+01 3.168201828002929688e+01 2.270613193511962891e+00 5.148400306701660156e+00 2.225703954696655273e+00 4.540804862976074219e+00
2.430000000000000000e+03 2.558604812622070312e+01 2.652888298034667969e+00 -2.405110597610473633e+00 -6.012382507324218750e-01 -9.019046425819396973e-01 -1.049212217330932617e+00
2.431000000000000000e+03 2.436505126953125000e+01 1.536907553672790527e+00 -2.125201225280761719e+00 -2.391694933176040649e-01 -7.093112468719482422e-01 -9.226245880126953125e-01
2.432000000000000000e+03 2.468118858337402344e+01 -2.630028724670410156e-01 -4.523890614509582520e-01 1.637341678142547607e-01 -8.659646660089492798e-02 -3.651733100414276123e-01
2.433000000000000000e+03 2.532982826232910156e+01 2.475921630859375000e+00 -2.413575887680053711e+00 -5.701634287834167480e-01 -8.951217532157897949e-01 -1.049290180206298828e+00
2.434000000000000000e+03 2.574304389953613281e+01 3.025240659713745117e+00 -2.556762695312500000e+00 -6.605045199394226074e-01 -9.651801586151123047e-01 -1.162930727005004883e+00
2.435000000000000000e+03 2.597093009948730469e+01 3.112648963928222656e+00 -2.494775056838989258e+00 -7.120454907417297363e-01 -9.620462059974670410e-01 -1.132664322853088379e+00
2.436000000000000000e+03 2.773190116882324219e+01 4.477606296539306641e+00 -2.273079872131347656e+00 -1.120408773422241211e+00 -1.018046617507934570e+00 -1.268280982971191406e+00
2.437000000000000000e+03 2.728723144531250000e+01 3.701763868331909180e+00 -2.220510721206665039e+00 -9.067589640617370605e-01 -9.381809234619140625e-01 -1.092697739601135254e+00
2.438000000000000000e+03 2.798303413391113281e+01 4.523973464965820312e+00 -2.196689128875732422e+00 -1.161349892616271973e+00 -1.007411718368530273e+00 -1.211999535560607910e+00
2.439000000000000000e+03 6.290792083740234375e+01 3.198744583129882812e+01 2.608540534973144531e+00 5.117040634155273438e+00 2.317674398422241211e+00 4.755534648895263672e+00
2.440000000000000000e+03 6.403565979003906250e+01 3.215211486816406250e+01 1.670302748680114746e+00 1.244716453552246094e+01 4.235239982604980469e+00 6.196364402770996094e+00
2.441000000000000000e+03 6.607819366455078125e+01 3.194620704650878906e+01 1.591647148132324219e+00 1.672316360473632812e+01 5.494442939758300781e+00 -7.830034494400024414e-01
2.442000000000000000e+03 6.714505767822265625e+01 3.344355773925781250e+01 6.283867359161376953e+00 1.393748760223388672e+01 6.066406726837158203e+00 -1.130269527435302734e+00
2.443000000000000000e+03 6.464999389648437500e+01 3.201403808593750000e+01 5.860574841499328613e-01 1.628428459167480469e+01 5.061102390289306641e+00 4.267778873443603516e+00
2.444000000000000000e+03 6.117927932739257812e+01 3.203793716430664062e+01 1.305404305458068848e+00 1.186757087707519531e+00 7.476484179496765137e-01 1.704404592514038086e+00
2.445000000000000000e+03 6.533918762207031250e+01 3.165896034240722656e+01 2.554434537887573242e-01 1.654420661926269531e+01 5.039895057678222656e+00 1.564269542694091797e+00
2.446000000000000000e+03 6.676889801025390625e+01 3.297187805175781250e+01 5.448019027709960938e+00 1.531963634490966797e+01 6.230296611785888672e+00 -1.883132696151733398e+00
2.447000000000000000e+03 7.327372741699218750e+01 3.009578514099121094e+01 6.178515553474426270e-01 8.429279327392578125e+00 2.714139461517333984e+00 -1.553247809410095215e+00
2.448000000000000000e+03 6.656119537353515625e+01 3.411157989501953125e+01 8.590045928955078125e+00 1.529525566101074219e+01 7.165590763092041016e+00 3.956598341464996338e-01
2.449000000000000000e+03 6.655194854736328125e+01 3.385483551025390625e+01 8.420647621154785156e+00 1.530022621154785156e+01 7.116262435913085938e+00 -3.292414844036102295e-01
2.450000000000000000e+03 6.638137817382812500e+01 3.542942047119140625e+01 3.935607194900512695e+00 1.707901191711425781e+01 6.304385662078857422e+00 2.632758617401123047e+00
2.451000000000000000e+03 2.302210617065429688e+01 -5.401687622070312500e-01 -7.557083666324615479e-02 6.912651658058166504e-01 1.847082972526550293e-01 -8.836934566497802734e-01
2.452000000000000000e+03 2.940161514282226562e+01 4.658592700958251953e+00 -1.790143728256225586e+00 -1.016045808792114258e+00 -8.418568968772888184e-01 -8.443922996520996094e-01
2.453000000000000000e+03 2.439927101135253906e+01 -8.269572854042053223e-01 3.624369800090789795e-01 3.750639259815216064e-01 2.212502658367156982e-01 -4.154472947120666504e-01
2.454000000000000000e+03 1.915760421752929688e+01 1.128306579589843750e+01 1.090470850467681885e-01 1.659997850656509399e-01 8.251406252384185791e-02 1.372957825660705566e-01
2.455000000000000000e+03 2.372678184509277344e+01 1.487047791481018066e+00 -2.244970083236694336e+00 -2.520782053470611572e-01 -7.491144537925720215e-01 -1.064772725105285645e+00
2.456000000000000000e+03 4.003018951416015625e+01 1.944505310058593750e+01 -9.882394075393676758e-01 -1.045278906822204590e+00 -6.100555062294006348e-01 -1.121610283851623535e+00
2.457000000000000000e+03 4.110113906860351562e+01 2.089146232604980469e+01 -1.060757517814636230e+00 -1.062062263488769531e+00 -6.368459463119506836e-01 -1.115895628929138184e+00
2.458000000000000000e+03 1.594284248352050781e+01 7.798590660095214844e+00 1.252330094575881958e-01 2.806525230407714844e-01 1.217656582593917847e-01 1.760192960500717163e-01
2.459000000000000000e+03 2.920078086853027344e+01 2.046333694458007812e+01 7.279940694570541382e-02 8.603754639625549316e-02 4.765108600258827209e-02 7.997101545333862305e-02
2.460000000000000000e+03 3.038350105285644531e+01 2.195206260681152344e+01 6.193163990974426270e-02 8.275245130062103271e-02 4.340522736310958862e-02 7.355375587940216064e-02
2.461000000000000000e+03 3.452050018310546875e+01 2.679184722900390625e+01 5.241645872592926025e-02 7.597313076257705688e-02 3.851687908172607422e-02 6.242132186889648438e-02
2.462000000000000000e+03 3.458731079101562500e+01 2.640659713745117188e+01 5.127898603677749634e-02 7.627110928297042847e-02 3.826502710580825806e-02 6.274133920669555664e-02
2.463000000000000000e+03 3.337692642211914062e+01 1.231597614288330078e+01 -1.228655099868774414e+00 -1.317202687263488770e+00 -7.637573480606079102e-01 -1.263845205307006836e+00
2.464000000000000000e+03 3.193414688110351562e+01 1.115488815307617188e+01 -1.342699885368347168e+00 -1.315131306648254395e+00 -7.973493337631225586e-01 -1.246049404144287109e+00
2.465000000000000000e+03 3.882787322998046875e+01 1.821488952636718750e+01 -1.053859829902648926e+00 -1.166514873504638672e+00 -6.661124229431152344e-01 -1.131652593612670898e+00
2.466000000000000000e+03 3.977901458740234375e+01 1.907884407043457031e+01 -9.977532625198364258e-01 -1.056407332420349121e+00 -6.162481904029846191e-01 -1.117340087890625000e+00
2.467000000000000000e+03 2.385880470275878906e+01 1.629666900634765625e+01 8.475535362958908081e-02 1.182521209120750427e-01 6.090224161744117737e-02 1.020416542887687683e-01
2.468000000000000000e+03 3.327908706665039062e+01 2.480343055725097656e+01 5.354036390781402588e-02 7.654762268066406250e-02 3.902639821171760559e-02 6.508555263280868530e-02
2.469000000000000000e+03 2.449574089050292969e+01 1.648095893859863281e+01 8.834087103605270386e-02 1.124829575419425964e-01 6.024714931845664978e-02 1.020023599267005920e-01
2.470000000000000000e+03 3.259661102294921875e+01 2.428408050537109375e+01 5.414510890841484070e-02 7.673679292201995850e-02 3.926457092165946960e-02 6.591055542230606079e-02
2.471000000000000000e+03 4.731943130493164062e+01 2.537888908386230469e+01 -9.629089236259460449e-01 -7.293157577514648438e-01 -5.076674222946166992e-01 -8.770921826362609863e-01
2.472000000000000000e+03 4.742440414428710938e+01 2.600607681274414062e+01 -9.954384565353393555e-01 -8.111393451690673828e-01 -5.419733524322509766e-01 -9.416019320487976074e-01
2.473000000000000000e+03 4.223513031005859375e+01 2.190141677856445312e+01 -1.159295678138732910e+00 -1.052872657775878906e+00 -6.636505126953125000e-01 -1.102403163909912109e+00
2.474000000000000000e+03 4.166669082641601562e+01 2.136602210998535156e+01 -1.107370615005493164e+00 -1.064628839492797852e+00 -6.515998244285583496e-01 -1.100887179374694824e+00
2.475000000000000000e+03 2.105895614624023438e+01 1.303882694244384766e+01 1.049746572971343994e-01 1.445001214742660522e-01 7.484243065118789673e-02 1.220723837614059448e-01
2.476000000000000000e+03 2.026894760131835938e+01 1.175076770782470703e+01 1.148541122674942017e-01 1.526012569665908813e-01 8.023660629987716675e-02 1.324054300785064697e-01
2.477000000000000000e+03 1.941837310791015625e+01 1.152899456024169922e+01 1.093359738588333130e-01 1.626770049333572388e-01 8.160389214754104614e-02 1.340419799089431763e-01
2.478000000000000000e+03 3.853373718261718750e+01 1.793638992309570312e+01 -1.072396755218505859e+00 -1.209481000900268555e+00 -6.845633387565612793e-01 -1.136063933372497559e+00
2.479000000000000000e+03 3.945033645629882812e+01 1.877401351928710938e+01 -1.014279961585998535e+00 -1.086363792419433594e+00 -6.301931738853454590e-01 -1.121725440025329590e+00
2.480000000000000000e+03 4.650201416015625000e+01 2.523593139648437500e+01 -1.060695052146911621e+00 -8.611668944358825684e-01 -5.765585899353027344e-01 -9.799540042877197266e-01
2.481000000000000000e+03 2.080146980285644531e+01 1.278116798400878906e+01 1.049943417310714722e-01 1.465319097042083740e-01 7.545787841081619263e-02 1.243373900651931763e-01
2.482000000000000000e+03 6.009193420410156250e+01 3.179814147949218750e+01 6.431766748428344727e-01 8.299812674522399902e-01 4.419473707675933838e-01 9.229194521903991699e-01
2.483000000000000000e+03 4.308155441284179688e+01 2.269416046142578125e+01 -1.183745384216308594e+00 -1.050731301307678223e+00 -6.703429818153381348e-01 -1.124568104743957520e+00
2.484000000000000000e+03 4.384865570068359375e+01 2.291468811035156250e+01 -1.116361737251281738e+00 -1.003040790557861328e+00 -6.358207464218139648e-01 -1.054437279701232910e+00
2.485000000000000000e+03 3.571656036376953125e+01 2.828650474548339844e+01 5.390660464763641357e-02 7.335765659809112549e-02 3.817927837371826172e-02 5.994868651032447815e-02
2.486000000000000000e+03 1.769340133666992188e+01 9.655591964721679688e+00 1.217290833592414856e-01 2.030062824487686157e-01 9.742061048746109009e-02 1.495202630758285522e-01
2.487000000000000000e+03 4.831848526000976562e+01 2.619889831542968750e+01 -9.001966118812561035e-01 -6.756224632263183594e-01 -4.727457165718078613e-01 -8.136034011840820312e-01
2.488000000000000000e+03 4.836807632446289062e+01 2.752535247802734375e+01 -1.066339135169982910e+00 -8.977763652801513672e-01 -5.892346501350402832e-01 -9.833065867424011230e-01
2.489000000000000000e+03 2.367011260986328125e+01 1.592530632019042969e+01 8.700720965862274170e-02 1.205699369311332703e-01 6.227314472198486328e-02 1.045315936207771301e-01
2.490000000000000000e+03 3.558673477172851562e+01 1.423269557952880859e+01 -1.140188097953796387e+00 -1.264451384544372559e+00 -7.213918566703796387e-01 -1.188056588172912598e+00
2.491000000000000000e+03 3.508161163330078125e+01 1.419363498687744141e+01 -1.189558982849121094e+00 -1.322560429573059082e+00 -7.536358237266540527e-01 -1.240010142326354980e+00
2.492000000000000000e+03 3.435522079467773438e+01 1.326480197906494141e+01 -1.211001157760620117e+00 -1.324530005455017090e+00 -7.606593370437622070e-01 -1.217448115348815918e+00
2.493000000000000000e+03 4.413359069824218750e+01 2.317798233032226562e+01 -1.117733716964721680e+00 -1.004830479621887207e+00 -6.367692351341247559e-01 -1.046265006065368652e+00
2.494000000000000000e+03 2.155949592590332031e+01 1.357479763031005859e+01 1.036852523684501648e-01 1.393559873104095459e-01 7.291237264871597290e-02 1.178107932209968567e-01
2.495000000000000000e+03 2.526438522338867188e+01 1.740019798278808594e+01 8.472559601068496704e-02 1.082948148250579834e-01 5.790612474083900452e-02 9.513933211565017700e-02
2.496000000000000000e+03 4.328491210937500000e+01 2.240008544921875000e+01 -1.115223884582519531e+00 -9.972326159477233887e-01 -6.337369680404663086e-01 -1.062011718750000000e+00
2.497000000000000000e+03 3.773526763916015625e+01 3.124346160888671875e+01 5.507177114486694336e-02 6.328776478767395020e-02 3.550786152482032776e-02 5.361938849091529846e-02
2.498000000000000000e+03 4.804191207885742188e+01 2.656533813476562500e+01 -9.802255630493164062e-01 -7.966909408569335938e-01 -5.330749750137329102e-01 -9.112750291824340820e-01
2.499000000000000000e+03 3.004470062255859375e+01 2.146249198913574219e+01 6.577749550342559814e-02 8.341309428215026855e-02 4.475717619061470032e-02 7.466767728328704834e-02
2.500000000000000000e+03 3.583959197998046875e+01 1.451030349731445312e+01 -1.131691813468933105e+00 -1.265573382377624512e+00 -7.191795706748962402e-01 -1.183044195175170898e+00
2.501000000000000000e+03 3.610964965820312500e+01 1.534198665618896484e+01 -1.136856555938720703e+00 -1.329548478126525879e+00 -7.399215102195739746e-01 -1.225273251533508301e+00
2.502000000000000000e+03 1.589882659912109375e+01 7.476977348327636719e+00 1.326366662979125977e-01 2.891992330551147461e-01 1.265507638454437256e-01 1.847723871469497681e-01
2.503000000000000000e+03 3.282193756103515625e+01 1.104081821441650391e+01 -1.224800348281860352e+00 -1.226291418075561523e+00 -7.353275418281555176e-01 -1.164632439613342285e+00
2.504000000000000000e+03 3.365498733520507812e+01 2.533971405029296875e+01 5.395575240254402161e-02 7.630350440740585327e-02 3.907777741551399231e-02 6.440631300210952759e-02
2.505000000000000000e+03 5.070269393920898438e+01 2.948220825195312500e+01 -9.800765514373779297e-01 -7.133728861808776855e-01 -5.080348253250122070e-01 -8.417988419532775879e-01
2.506000000000000000e+03 2.775480461120605469e+01 1.954165267944335938e+01 7.475867867469787598e-02 9.528823196887969971e-02 5.101407319307327271e-02 8.517612516880035400e-02
2.507000000000000000e+03 2.820759010314941406e+01 1.948633384704589844e+01 7.763513177633285522e-02 9.201548993587493896e-02 5.089518800377845764e-02 8.535245805978775024e-02
2.508000000000000000e+03 2.747002220153808594e+01 1.938371467590332031e+01 7.530802488327026367e-02 9.690003842115402222e-02 5.166241899132728577e-02 8.605477958917617798e-02
2.509000000000000000e+03 2.729220962524414062e+01 1.888763046264648438e+01 7.988307625055313110e-02 9.841281175613403320e-02 5.348876491189002991e-02 8.850679546594619751e-02
2.510000000000000000e+03 4.540228271484375000e+01 2.480613708496093750e+01 -1.178533196449279785e+00 -1.022420167922973633e+00 -6.602860093116760254e-01 -1.071481823921203613e+00
2.511000000000000000e+03 4.619570541381835938e+01 2.498524475097656250e+01 -1.080479502677917480e+00 -8.833100795745849609e-01 -5.891368985176086426e-01 -9.872466325759887695e-01
2.512000000000000000e+03 3.486620712280273438e+01 1.337093925476074219e+01 -1.171333312988281250e+00 -1.266512155532836914e+00 -7.313536405563354492e-01 -1.174637436866760254e+00
2.513000000000000000e+03 3.194061088562011719e+01 2.394822311401367188e+01 5.433978512883186340e-02 7.686298340559005737e-02 3.936083242297172546e-02 6.780502200126647949e-02
2.514000000000000000e+03 5.097901153564453125e+01 2.972331809997558594e+01 -9.657950401306152344e-01 -6.715329885482788086e-01 -4.911984205245971680e-01 -8.192833662033081055e-01
2.515000000000000000e+03 5.052913665771484375e+01 2.978292465209960938e+01 -1.041875839233398438e+00 -8.281515240669250488e-01 -5.610082149505615234e-01 -9.266003966331481934e-01
2.516000000000000000e+03 3.989201354980468750e+01 3.298053741455078125e+01 6.188254803419113159e-02 5.423318967223167419e-02 3.483472019433975220e-02 5.399762094020843506e-02
2.517000000000000000e+03 3.635706329345703125e+01 1.506688594818115234e+01 -1.108303308486938477e+00 -1.265660762786865234e+00 -7.121892571449279785e-01 -1.171552062034606934e+00
2.518000000000000000e+03 5.127003097534179688e+01 2.994853591918945312e+01 -9.485132098197937012e-01 -6.241869330406188965e-01 -4.718100428581237793e-01 -7.901126742362976074e-01
2.519000000000000000e+03 3.040314102172851562e+01 2.162107658386230469e+01 6.441695243120193481e-02 8.160657435655593872e-02 4.380705580115318298e-02 7.347385585308074951e-02
2.520000000000000000e+03 3.961747360229492188e+01 3.220272445678710938e+01 6.301405280828475952e-02 5.685186386108398438e-02 3.595977649092674255e-02 5.492676421999931335e-02
2.521000000000000000e+03 4.832972335815429688e+01 2.688995361328125000e+01 -9.791456460952758789e-01 -7.916781306266784668e-01 -5.312471389770507812e-01 -9.029088020324707031e-01
2.522000000000000000e+03 4.973111343383789062e+01 2.898285484313964844e+01 -1.083152770996093750e+00 -8.779311180114746094e-01 -5.883251428604125977e-01 -9.594557881355285645e-01
2.523000000000000000e+03 3.661972427368164062e+01 1.534987163543701172e+01 -1.096126079559326172e+00 -1.262610435485839844e+00 -7.076209783554077148e-01 -1.164859414100646973e+00
2.524000000000000000e+03 3.179238700866699219e+01 2.437477684020996094e+01 5.277629941701889038e-02 7.811120152473449707e-02 3.926625102758407593e-02 6.695754826068878174e-02
2.525000000000000000e+03 3.109085464477539062e+01 2.364482688903808594e+01 5.300365388393402100e-02 7.955277711153030396e-02 3.976692631840705872e-02 6.947637349367141724e-02
2.526000000000000000e+03 3.688476943969726562e+01 1.563584709167480469e+01 -1.092384934425354004e+00 -1.260611414909362793e+00 -7.058988809585571289e-01 -1.154172301292419434e+00
2.527000000000000000e+03 4.300637054443359375e+01 2.214381027221679688e+01 -1.110178709030151367e+00 -9.973828792572021484e-01 -6.322684884071350098e-01 -1.061280131340026855e+00
2.528000000000000000e+03 3.825259780883789062e+01 1.765376472473144531e+01 -1.085346579551696777e+00 -1.245522499084472656e+00 -6.992607116699218750e-01 -1.145191431045532227e+00
2.529000000000000000e+03 4.115602493286132812e+01 3.313985061645507812e+01 6.361949443817138672e-02 4.995267093181610107e-02 3.407165035605430603e-02 5.259541422128677368e-02
2.530000000000000000e+03 2.625117111206054688e+01 1.733843231201171875e+01 9.208612143993377686e-02 1.058879122138023376e-01 5.939221009612083435e-02 9.618441015481948853e-02
2.531000000000000000e+03 4.441919326782226562e+01 2.344310569763183594e+01 -1.121018290519714355e+00 -1.003957271575927734e+00 -6.374926567077636719e-01 -1.035308957099914551e+00
2.532000000000000000e+03 3.715276336669921875e+01 1.592422580718994141e+01 -1.083980083465576172e+00 -1.253250598907470703e+00 -7.011692523956298828e-01 -1.145765304565429688e+00
2.533000000000000000e+03 2.235609054565429688e+01 1.394978427886962891e+01 1.063587367534637451e-01 1.343395411968231201e-01 7.220948487520217896e-02 1.160071268677711487e-01
2.534000000000000000e+03 2.131169891357421875e+01 1.330225276947021484e+01 1.039401814341545105e-01 1.412168741226196289e-01 7.354711741209030151e-02 1.206963434815406799e-01
2.535000000000000000e+03 5.025856399536132812e+01 2.952320671081542969e+01 -1.058846354484558105e+00 -8.524757027626037598e-01 -5.733966231346130371e-01 -9.434280395507812500e-01
2.536000000000000000e+03 4.946632766723632812e+01 2.870281982421875000e+01 -1.085767507553100586e+00 -8.883565068244934082e-01 -5.922371745109558105e-01 -9.643344879150390625e-01
2.537000000000000000e+03 3.031865692138671875e+01 2.245285987854003906e+01 5.753124132752418518e-02 8.300102502107620239e-02 4.215968027710914612e-02 7.247023284435272217e-02
2.538000000000000000e+03 2.971000480651855469e+01 2.130600166320800781e+01 6.651011109352111816e-02 8.435670286417007446e-02 4.526004567742347717e-02 7.576211541891098022e-02
2.539000000000000000e+03 4.892393875122070312e+01 2.812459754943847656e+01 -1.082030415534973145e+00 -8.989188671112060547e-01 -5.942848324775695801e-01 -9.726760983467102051e-01
2.540000000000000000e+03 4.919708251953125000e+01 2.841666793823242188e+01 -1.085752367973327637e+00 -8.952242136001586914e-01 -5.942929387092590332e-01 -9.672365784645080566e-01
2.541000000000000000e+03 4.158365631103515625e+01 3.333555603027343750e+01 6.909180432558059692e-02 4.792186617851257324e-02 3.510409966111183167e-02 5.276738852262496948e-02
2.542000000000000000e+03 3.920291519165039062e+01 3.393784713745117188e+01 6.445502489805221558e-02 5.578482151031494141e-02 3.607195243239402771e-02 5.089319124817848206e-02
2.543000000000000000e+03 3.130098724365234375e+01 9.173345565795898438e+00 -1.210576653480529785e+00 -1.170404195785522461e+00 -7.142942547798156738e-01 -1.096186518669128418e+00
2.544000000000000000e+03 2.644119262695312500e+01 1.827056694030761719e+01 8.156438916921615601e-02 1.036631315946578979e-01 5.556825920939445496e-02 9.071862697601318359e-02
2.545000000000000000e+03 4.941595458984375000e+01 2.812636947631835938e+01 -1.007640004158020020e+00 -7.880855202674865723e-01 -5.387176871299743652e-01 -8.805366158485412598e-01
2.546000000000000000e+03 3.798176956176757812e+01 1.736833572387695312e+01 -1.096536040306091309e+00 -1.278089284896850586e+00 -7.123876214027404785e-01 -1.152297973632812500e+00
2.547000000000000000e+03 1.690090751647949219e+01 9.201948165893554688e+00 1.187915802001953125e-01 2.211303561925888062e-01 1.019765809178352356e-01 1.536175310611724854e-01
2.548000000000000000e+03 2.281618309020996094e+01 1.457482624053955078e+01 1.001381427049636841e-01 1.307921558618545532e-01 6.927908957004547119e-02 1.113011464476585388e-01
2.549000000000000000e+03 4.185020446777343750e+01 3.391725921630859375e+01 7.174028456211090088e-02 4.927945882081985474e-02 3.630592301487922668e-02 5.068621411919593811e-02
2.550000000000000000e+03 4.137939071655273438e+01 3.384614944458007812e+01 6.598529964685440063e-02 4.726662486791610718e-02 3.397557884454727173e-02 5.330365151166915894e-02
2.551000000000000000e+03 5.156398773193359375e+01 3.016246986389160156e+01 -9.377992153167724609e-01 -5.657543540000915527e-01 -4.510660767555236816e-01 -7.581749558448791504e-01
2.552000000000000000e+03 2.622028160095214844e+01 1.791132545471191406e+01 8.537358790636062622e-02 1.049888804554939270e-01 5.710874125361442566e-02 9.241958707571029663e-02
2.553000000000000000e+03 2.500732231140136719e+01 1.728433799743652344e+01 8.348297327756881714e-02 1.094588786363601685e-01 5.788255482912063599e-02 9.610737115144729614e-02
2.554000000000000000e+03 4.259118270874023438e+01 3.460929489135742188e+01 7.763285934925079346e-02 4.098032042384147644e-02 3.558395430445671082e-02 5.216926336288452148e-02
2.555000000000000000e+03 2.653837394714355469e+01 1.870283508300781250e+01 7.796846330165863037e-02 1.026271134614944458e-01 5.417867377400398254e-02 8.833756297826766968e-02
2.556000000000000000e+03 3.361713409423828125e+01 1.217415904998779297e+01 -1.203818798065185547e+00 -1.270048022270202637e+00 -7.421600222587585449e-01 -1.214109659194946289e+00
2.557000000000000000e+03 2.943821144104003906e+01 2.116647911071777344e+01 6.665511429309844971e-02 8.582974225282669067e-02 4.574545845389366150e-02 7.666393369436264038e-02
2.558000000000000000e+03 3.446606826782226562e+01 1.273671340942382812e+01 -1.160178661346435547e+00 -1.247049808502197266e+00 -7.221685051918029785e-01 -1.161925077438354492e+00
2.559000000000000000e+03 4.711005020141601562e+01 2.574476432800292969e+01 -1.015168905258178711e+00 -8.268335461616516113e-01 -5.526007413864135742e-01 -9.564456343650817871e-01
2.560000000000000000e+03 1.970094871520996094e+01 1.177469062805175781e+01 1.081875860691070557e-01 1.574306786060333252e-01 7.968547940254211426e-02 1.318082511425018311e-01
2.561000000000000000e+03 3.742348480224609375e+01 1.621401405334472656e+01 -1.080543756484985352e+00 -1.245974779129028320e+00 -6.979555487632751465e-01 -1.133025288581848145e+00
2.562000000000000000e+03 4.130634307861328125e+01 2.057099533081054688e+01 -1.006945252418518066e+00 -1.024937272071838379e+00 -6.095647811889648438e-01 -1.084763407707214355e+00
2.563000000000000000e+03 2.598180961608886719e+01 1.760899543762207031e+01 8.690993487834930420e-02 1.059051677584648132e-01 5.784453079104423523e-02 9.440351277589797974e-02
2.564000000000000000e+03 4.194633102416992188e+01 3.472705459594726562e+01 7.730110734701156616e-02 4.552073031663894653e-02 3.684655204415321350e-02 5.158646777272224426e-02
2.565000000000000000e+03 2.258984375000000000e+01 1.425865936279296875e+01 1.040622517466545105e-01 1.329418718814849854e-01 7.110124081373214722e-02 1.130254343152046204e-01
2.566000000000000000e+03 4.180490875244140625e+01 3.434477615356445312e+01 7.221118360757827759e-02 4.169431701302528381e-02 3.417164832353591919e-02 5.293992161750793457e-02
2.567000000000000000e+03 5.185818481445312500e+01 3.037691879272460938e+01 -9.213893413543701172e-01 -4.986590743064880371e-01 -4.260145127773284912e-01 -7.273715138435363770e-01
2.568000000000000000e+03 1.849084091186523438e+01 1.045909214019775391e+01 1.129544228315353394e-01 1.838659495115280151e-01 8.904611319303512573e-02 1.439021825790405273e-01
2.569000000000000000e+03 3.899810409545898438e+01 1.732875251770019531e+01 -1.019606113433837891e+00 -1.059253454208374023e+00 -6.236578822135925293e-01 -1.051296234130859375e+00
2.570000000000000000e+03 3.769517135620117188e+01 1.650374794006347656e+01 -1.073810935020446777e+00 -1.231418132781982422e+00 -6.915687322616577148e-01 -1.124127149581909180e+00
2.571000000000000000e+03 4.470555877685546875e+01 2.370730590820312500e+01 -1.123693108558654785e+00 -9.972807168960571289e-01 -6.362921595573425293e-01 -1.024667024612426758e+00
2.572000000000000000e+03 2.573187446594238281e+01 1.734690284729003906e+01 8.864261209964752197e-02 1.067257374525070190e-01 5.861050263047218323e-02 9.561748802661895752e-02
2.573000000000000000e+03 3.281488800048828125e+01 2.454629898071289062e+01 5.355032905936241150e-02 7.649619877338409424e-02 3.901395946741104126e-02 6.565807759761810303e-02
2.574000000000000000e+03 3.248501586914062500e+01 2.462968063354492188e+01 5.335494503378868103e-02 7.720549404621124268e-02 3.916813060641288757e-02 6.584510207176208496e-02
2.575000000000000000e+03 3.429980087280273438e+01 2.630580902099609375e+01 5.187956988811492920e-02 7.688979804515838623e-02 3.863080963492393494e-02 6.291877478361129761e-02
2.576000000000000000e+03 4.189498901367187500e+01 2.104967880249023438e+01 -1.038128614425659180e+00 -1.011485457420349121e+00 -6.148841977119445801e-01 -1.059578299522399902e+00
2.577000000000000000e+03 4.217821121215820312e+01 2.133291244506835938e+01 -1.061893463134765625e+00 -1.009375095367431641e+00 -6.213805675506591797e-01 -1.052343130111694336e+00
2.578000000000000000e+03 2.053782844543457031e+01 1.252626800537109375e+01 1.062812358140945435e-01 1.500325500965118408e-01 7.689413428306579590e-02 1.251061409711837769e-01
2.579000000000000000e+03 2.179862022399902344e+01 1.385873603820800781e+01 1.018284857273101807e-01 1.369417905807495117e-01 7.163108140230178833e-02 1.157787516713142395e-01
2.580000000000000000e+03 2.979025650024414062e+01 2.182926559448242188e+01 6.158917024731636047e-02 8.491881936788558960e-02 4.395239800214767456e-02 7.415767014026641846e-02
2.581000000000000000e+03 5.246432495117187500e+01 3.081966209411621094e+01 -8.984657526016235352e-01 -3.278484046459197998e-01 -3.678942620754241943e-01 -6.792300343513488770e-01
2.582000000000000000e+03 3.005506896972656250e+01 2.213512611389160156e+01 5.949552729725837708e-02 8.405348658561706543e-02 4.306470602750778198e-02 7.340075820684432983e-02
2.583000000000000000e+03 3.253809738159179688e+01 1.074995899200439453e+01 -1.238356351852416992e+00 -1.230107307434082031e+00 -7.405390739440917969e-01 -1.156450033187866211e+00
2.584000000000000000e+03 2.302339172363281250e+01 1.579970550537109375e+01 8.391340821981430054e-02 1.255304962396621704e-01 6.283316761255264282e-02 1.031070947647094727e-01
2.585000000000000000e+03 2.264219284057617188e+01 1.511081123352050781e+01 9.033465385437011719e-02 1.299643814563751221e-01 6.608971208333969116e-02 1.066193729639053345e-01
2.586000000000000000e+03 4.499414443969726562e+01 2.396908187866210938e+01 -1.125696420669555664e+00 -9.835453629493713379e-01 -6.327725648880004883e-01 -1.014071345329284668e+00
2.587000000000000000e+03 4.528706359863281250e+01 2.422769737243652344e+01 -1.122626185417175293e+00 -9.627550244331359863e-01 -6.256143450736999512e-01 -1.005494236946105957e+00
2.588000000000000000e+03 3.533862304687500000e+01 1.395146846771240234e+01 -1.157911300659179688e+00 -1.264870643615722656e+00 -7.268345952033996582e-01 -1.183455228805541992e+00
2.589000000000000000e+03 3.154380989074707031e+01 1.017444705963134766e+01 -1.263234496116638184e+00 -1.243465542793273926e+00 -7.520099878311157227e-01 -1.198501944541931152e+00
2.590000000000000000e+03 3.391462707519531250e+01 1.209698677062988281e+01 -1.167277693748474121e+00 -1.228994131088256836e+00 -7.188815474510192871e-01 -1.168149590492248535e+00
2.591000000000000000e+03 3.605023574829101562e+01 2.835117912292480469e+01 5.334309488534927368e-02 7.242008298635482788e-02 3.772895410656929016e-02 5.916503816843032837e-02
2.592000000000000000e+03 3.605272674560546875e+01 2.874213600158691406e+01 5.528113618493080139e-02 7.250265777111053467e-02 3.833513706922531128e-02 5.859318748116493225e-02
2.593000000000000000e+03 5.345606231689453125e+01 3.221301651000976562e+01 -9.027514457702636719e-01 -8.972539752721786499e-02 -2.977430522441864014e-01 -6.726352572441101074e-01
2.594000000000000000e+03 1.887665557861328125e+01 1.072837829589843750e+01 1.141074001789093018e-01 1.735733598470687866e-01 8.630422502756118774e-02 1.440468877553939819e-01
2.595000000000000000e+03 1.998660850524902344e+01 1.202212429046630859e+01 1.083062738180160522e-01 1.552860140800476074e-01 7.907768338918685913e-02 1.286599785089492798e-01
2.596000000000000000e+03 1.370469474792480469e+01 5.934519290924072266e+00 7.711014896631240845e-02 5.440695881843566895e-01 1.863539218902587891e-01 1.048370674252510071e-01
2.597000000000000000e+03 5.215655899047851562e+01 3.059770774841308594e+01 -9.069586396217346191e-01 -4.185012280941009521e-01 -3.976379632949829102e-01 -7.023615241050720215e-01
2.598000000000000000e+03 5.277676391601562500e+01 3.103981018066406250e+01 -8.828932642936706543e-01 -2.310849279165267944e-01 -3.341934382915496826e-01 -6.606040000915527344e-01
2.599000000000000000e+03 3.508609771728515625e+01 2.718490791320800781e+01 5.367810651659965515e-02 7.462219148874282837e-02 3.849008679389953613e-02 6.242161244153976440e-02
2.600000000000000000e+03 3.187840461730957031e+01 1.025100708007812500e+01 -1.242129087448120117e+00 -1.256237745285034180e+00 -7.495100498199462891e-01 -1.158098816871643066e+00
2.601000000000000000e+03 3.224357223510742188e+01 1.099627971649169922e+01 -1.282796502113342285e+00 -1.280851483345031738e+00 -7.690944075584411621e-01 -1.206485271453857422e+00
2.602000000000000000e+03 3.643843078613281250e+01 2.944774627685546875e+01 5.407943576574325562e-02 7.070756703615188599e-02 3.743610158562660217e-02 5.727779865264892578e-02
2.603000000000000000e+03 3.590635299682617188e+01 2.924043655395507812e+01 5.133310705423355103e-02 7.150329649448394775e-02 3.685092180967330933e-02 5.623845383524894714e-02
2.604000000000000000e+03 3.090262413024902344e+01 5.632640361785888672e+00 -1.486175417900085449e+00 -8.275947570800781250e-01 -6.941310763359069824e-01 -9.240995645523071289e-01
2.605000000000000000e+03 3.043327713012695312e+01 5.770750999450683594e+00 -1.611934065818786621e+00 -9.157246947288513184e-01 -7.582976222038269043e-01 -1.001449465751647949e+00
2.606000000000000000e+03 6.678893280029296875e+01 3.450006866455078125e+01 7.365324497222900391e+00 1.485745811462402344e+01 6.666834831237792969e+00 1.423077702522277832e+00
2.607000000000000000e+03 1.817449760437011719e+01 1.033076572418212891e+01 1.114772632718086243e-01 1.877415925264358521e-01 8.976566046476364136e-02 1.433096528053283691e-01
2.608000000000000000e+03 1.494631576538085938e+01 6.675633907318115234e+00 1.310142427682876587e-01 3.682579398155212402e-01 1.497816592454910278e-01 1.859664171934127808e-01
2.609000000000000000e+03 1.595227432250976562e+01 7.186793804168701172e+00 1.457623541355133057e-01 2.903634607791900635e-01 1.308377385139465332e-01 1.967512369155883789e-01
2.610000000000000000e+03 1.754755020141601562e+01 1.002698516845703125e+01 1.094462275505065918e-01 2.017938196659088135e-01 9.337201714515686035e-02 1.435585618019104004e-01
2.611000000000000000e+03 1.729771041870117188e+01 9.585856437683105469e+00 1.167367547750473022e-01 2.081262916326522827e-01 9.745891392230987549e-02 1.483795791864395142e-01
2.612000000000000000e+03 6.675038909912109375e+01 3.533706665039062500e+01 4.525970458984375000e+00 1.572324466705322266e+01 6.074764728546142578e+00 2.415167808532714844e+00
2.613000000000000000e+03 1.416500282287597656e+01 6.252032279968261719e+00 9.421535581350326538e-02 4.706568419933319092e-01 1.694616526365280151e-01 1.607412546873092651e-01
2.614000000000000000e+03 6.305019378662109375e+01 3.624785614013671875e+01 1.694169521331787109e+00 5.632824420928955078e+00 2.198098182678222656e+00 -4.359677791595458984e+00
2.615000000000000000e+03 6.419181060791015625e+01 3.686108016967773438e+01 -3.313741683959960938e-01 1.224654293060302734e+01 3.574550867080688477e+00 -3.500665426254272461e+00
2.616000000000000000e+03 1.562589073181152344e+01 7.110313892364501953e+00 1.382533609867095947e-01 3.140003383159637451e-01 1.356761157512664795e-01 1.902042329311370850e-01
2.617000000000000000e+03 1.490283584594726562e+01 7.073032379150390625e+00 1.107479482889175415e-01 3.594626784324645996e-01 1.410631984472274780e-01 1.670866459608078003e-01
2.618000000000000000e+03 6.451170349121093750e+01 3.820298767089843750e+01 -1.161388158798217773e+00 1.183227729797363281e+01 3.201266527175903320e+00 -1.999405026435852051e+00
2.619000000000000000e+03 2.234915733337402344e+01 2.155936062335968018e-01 -1.657358646392822266e+00 2.942299842834472656e-01 -4.089385867118835449e-01 -1.488585829734802246e+00
2.620000000000000000e+03 2.174053764343261719e+01 -1.022535488009452820e-01 -1.638433218002319336e+00 4.408460557460784912e-01 -3.592761754989624023e-01 -1.958461761474609375e+00
2.621000000000000000e+03 1.301941108703613281e+01 3.518223047256469727e+00 4.238188564777374268e-01 1.064515233039855957e+00 4.465002119541168213e-01 -3.351598083972930908e-01
2.622000000000000000e+03 1.296459579467773438e+01 4.518332958221435547e+00 1.875853687524795532e-01 7.702126502990722656e-01 2.873394191265106201e-01 -1.404284238815307617e-01
2.623000000000000000e+03 2.964121818542480469e+01 4.867580890655517578e+00 -1.773032069206237793e+00 -9.760045409202575684e-01 -8.247109651565551758e-01 -8.377887010574340820e-01
2.624000000000000000e+03 1.360797595977783203e+01 5.589201450347900391e+00 9.328505396842956543e-02 6.129727959632873535e-01 2.118773460388183594e-01 8.205658197402954102e-02
2.625000000000000000e+03 1.122209548950195312e+01 4.157593250274658203e+00 4.105873703956604004e-01 3.815900906920433044e-02 1.346239149570465088e-01 -1.533783823251724243e-01
2.626000000000000000e+03 5.398539733886718750e+01 3.182672119140625000e+01 -8.579087853431701660e-01 9.561634808778762817e-02 -2.286877185106277466e-01 -6.302065849304199219e-01
2.627000000000000000e+03 3.159937858581542969e+01 8.456316947937011719e+00 -1.073483586311340332e+00 -1.149475336074829102e+00 -6.668876409530639648e-01 -1.031921982765197754e+00
2.628000000000000000e+03 3.199840164184570312e+01 1.061425495147705078e+01 -1.278180837631225586e+00 -1.256724357604980469e+00 -7.604715228080749512e-01 -1.187899947166442871e+00
2.629000000000000000e+03 5.945734786987304688e+01 3.143338966369628906e+01 5.195670127868652344e-01 8.389143943786621094e-01 4.075444340705871582e-01 7.103943228721618652e-01
2.630000000000000000e+03 6.238610076904296875e+01 3.156533622741699219e+01 2.152765035629272461e+00 3.990767478942871094e+00 1.843059659004211426e+00 3.856735706329345703e+00
2.631000000000000000e+03 1.164319324493408203e+01 3.337743282318115234e+00 5.774419903755187988e-01 2.493121661245822906e-02 1.807119697332382202e-01 -1.870069205760955811e-01
2.632000000000000000e+03 6.705852508544921875e+01 3.634817886352539062e+01 1.594949722290039062e+00 1.505777072906494141e+01 4.995816230773925781e+00 1.815914034843444824e+00
2.633000000000000000e+03 6.599416351318359375e+01 3.906445312500000000e+01 -1.810916781425476074e+00 1.342336368560791016e+01 3.483734130859375000e+00 -5.266818404197692871e-01
2.634000000000000000e+03 5.995171737670898438e+01 3.133603668212890625e+01 8.147231936454772949e-01 1.104210019111633301e+00 5.756799578666687012e-01 1.088036179542541504e+00
2.635000000000000000e+03 3.197159767150878906e+01 6.275912284851074219e+00 -1.180433034896850586e+00 -8.283705711364746094e-01 -6.026410460472106934e-01 -8.991335034370422363e-01
2.636000000000000000e+03 6.846889019012451172e+00 -8.883483886718750000e+00 -9.639241546392440796e-02 -3.359967470169067383e-01 -1.297167539596557617e-01 -4.015334546566009521e-01
2.637000000000000000e+03 8.626512527465820312e+00 -6.194491386413574219e+00 -2.757472991943359375e-01 -1.958189159631729126e-01 -1.414698660373687744e-01 -4.187735021114349365e-01
2.638000000000000000e+03 1.456076240539550781e+01 6.658134460449218750e+00 1.073384806513786316e-01 4.039694964885711670e-01 1.533923894166946411e-01 1.673809587955474854e-01
2.639000000000000000e+03 5.780183792114257812e+01 3.155847358703613281e+01 -1.844051629304885864e-01 5.230075120925903320e-01 1.015807017683982849e-01 -4.918462410569190979e-02
2.640000000000000000e+03 5.835959625244140625e+01 3.107100105285644531e+01 2.232078760862350464e-01 7.621525526046752930e-01 2.956081330776214600e-01 3.121256232261657715e-01
2.641000000000000000e+03 3.187490081787109375e+01 7.238820552825927734e+00 -1.114279389381408691e+00 -1.004537582397460938e+00 -6.356450915336608887e-01 -1.004946827888488770e+00
2.642000000000000000e+03 3.162488174438476562e+01 5.904073715209960938e+00 -1.271604418754577637e+00 -8.127663135528564453e-01 -6.253112554550170898e-01 -8.788472414016723633e-01
2.643000000000000000e+03 2.682211685180664062e+01 -1.931959152221679688e+00 6.310964226722717285e-01 -9.203027188777923584e-02 1.617198437452316284e-01 -2.261056303977966309e-01
2.644000000000000000e+03 4.151344776153564453e+00 4.482174873352050781e+00 4.245188552886247635e-03 -9.660654515027999878e-02 -2.770840749144554138e-02 1.130645051598548889e-01
2.645000000000000000e+03 6.241103363037109375e+01 3.634011459350585938e+01 1.408743500709533691e+00 3.218661546707153320e+00 1.388221502304077148e+00 -2.891181468963623047e+00
2.646000000000000000e+03 6.281598567962646484e+00 4.137664318084716797e+00 2.631616964936256409e-02 -1.215736120939254761e-01 -2.857723459601402283e-02 1.552638113498687744e-01
2.647000000000000000e+03 5.577798366546630859e+00 5.765774250030517578e+00 6.549610197544097900e-02 -1.220740154385566711e-01 -1.697337441146373749e-02 1.021249294281005859e-01
2.648000000000000000e+03 4.370697975158691406e+00 5.761266708374023438e+00 3.457491472363471985e-02 -1.169047951698303223e-01 -2.469896338880062103e-02 9.771361202001571655e-02
2.649000000000000000e+03 4.883573532104492188e+00 4.299885272979736328e+00 5.276227369904518127e-03 -9.759414196014404297e-02 -2.769537456333637238e-02 1.276866644620895386e-01
2.650000000000000000e+03 2.491906738281250000e+01 -1.142358660697937012e+00 4.162193536758422852e-01 1.420314610004425049e-01 1.674752384424209595e-01 -4.694948494434356689e-01
2.651000000000000000e+03 2.546806907653808594e+01 -1.553756475448608398e+00 5.662635564804077148e-01 6.718887388706207275e-02 1.900357156991958618e-01 -4.223290383815765381e-01
2.652000000000000000e+03 7.022728443145751953e+00 4.852418899536132812e+00 9.454400092363357544e-02 -1.416068822145462036e-01 -1.411886326968669891e-02 1.279665231704711914e-01
2.653000000000000000e+03 1.006716060638427734e+01 3.760874748229980469e+00 3.121155798435211182e-01 -2.087256908416748047e-01 3.101697005331516266e-02 6.861235946416854858e-02
2.654000000000000000e+03 8.514264106750488281e+00 4.610977649688720703e+00 1.812286227941513062e-01 -1.676686406135559082e-01 4.067994654178619385e-03 1.023898497223854065e-01
2.655000000000000000e+03 2.935909271240234375e+01 -3.127024173736572266e+00 6.164501905441284180e-01 -3.600793778896331787e-01 7.691124081611633301e-02 -1.265693306922912598e-01
2.656000000000000000e+03 5.887313079833984375e+01 3.104671669006347656e+01 4.290792942047119141e-01 8.850666284561157227e-01 3.942437767982482910e-01 5.612914562225341797e-01
2.657000000000000000e+03 3.931790924072265625e+01 3.149659347534179688e+01 6.085179373621940613e-02 5.723306909203529358e-02 3.542545810341835022e-02 5.477571114897727966e-02
2.658000000000000000e+03 1.198440551757812500e+01 -5.125576972961425781e+00 -5.207468271255493164e-01 -2.517445683479309082e-01 -2.317474186420440674e-01 -6.026958823204040527e-01
2.659000000000000000e+03 1.247585391998291016e+01 3.651241779327392578e+00 4.805906414985656738e-01 5.844385027885437012e-01 3.195087313652038574e-01 -3.414704203605651855e-01
2.660000000000000000e+03 8.209619522094726562e+00 -4.504555702209472656e+00 -3.016929328441619873e-01 -9.505565464496612549e-02 -1.190245747566223145e-01 -2.981540560722351074e-01
2.661000000000000000e+03 9.117726325988769531e+00 -5.227769374847412109e+00 -3.432323336601257324e-01 -1.425105929374694824e-01 -1.457228809595108032e-01 -3.965536355972290039e-01
2.662000000000000000e+03 5.386035537719726562e+01 4.054724502563476562e+01 3.354149162769317627e-01 -6.919333338737487793e-01 -1.069555208086967468e-01 2.876471579074859619e-01
2.663000000000000000e+03 5.256216049194335938e+01 4.106972503662109375e+01 4.352222383022308350e-01 -5.787095427513122559e-01 -4.304618015885353088e-02 3.857835531234741211e-01
2.664000000000000000e+03 3.871001434326171875e+01 3.140911674499511719e+01 5.834461003541946411e-02 6.015467643737792969e-02 3.554978594183921814e-02 5.505498126149177551e-02
2.665000000000000000e+03 3.667493820190429688e+01 3.018305778503417969e+01 5.369883403182029724e-02 6.876057386398315430e-02 3.673782199621200562e-02 5.565327405929565430e-02
2.666000000000000000e+03 2.497429275512695312e+01 1.511168718338012695e+00 -1.906712889671325684e+00 -2.730258107185363770e-01 -6.539216041564941406e-01 -7.340475916862487793e-01
2.667000000000000000e+03 7.832833290100097656e+00 5.479133605957031250e+00 1.558339446783065796e-01 -1.338841468095779419e-01 6.584936752915382385e-03 7.514967024326324463e-02
2.668000000000000000e+03 6.265720367431640625e+01 3.818503570556640625e+01 4.805503785610198975e-01 5.986534595489501953e+00 1.940125465393066406e+00 -2.849987506866455078e+00
2.669000000000000000e+03 6.370643234252929688e+01 3.735811233520507812e+01 2.529446408152580261e-02 9.285711288452148438e+00 2.793301582336425781e+00 -3.512198686599731445e+00
2.670000000000000000e+03 3.510552644729614258e+00 -6.961309909820556641e+00 -5.992549657821655273e-02 -1.936403065919876099e-01 -7.606974244117736816e-02 -1.773234009742736816e-01
2.671000000000000000e+03 5.782730865478515625e+01 3.105997467041015625e+01 3.635266795754432678e-02 6.824958920478820801e-01 2.156545668840408325e-01 1.099812909960746765e-01
2.672000000000000000e+03 5.213429927825927734e+00 -5.844956398010253906e+00 -1.232726648449897766e-01 -1.606425642967224121e-01 -8.517456799745559692e-02 -2.223758697509765625e-01
2.673000000000000000e+03 6.042037010192871094e+00 -5.752130031585693359e+00 -1.647835224866867065e-01 -1.521975249052047729e-01 -9.509431570768356323e-02 -2.564221620559692383e-01
2.674000000000000000e+03 6.242382049560546875e+00 -6.764619350433349609e+00 -1.462851017713546753e-01 -2.147227972745895386e-01 -1.083023697137832642e-01 -3.101905584335327148e-01
2.675000000000000000e+03 5.521549606323242188e+01 3.118884658813476562e+01 -6.009745597839355469e-01 3.675858974456787109e-01 -7.001660019159317017e-02 -4.641577303409576416e-01
2.676000000000000000e+03 5.728809738159179688e+01 3.100783348083496094e+01 -1.040068268775939941e-01 6.349125504493713379e-01 1.592717170715332031e-01 -3.659608587622642517e-02
2.677000000000000000e+03 6.342061233520507812e+01 3.914859771728515625e+01 -4.107646942138671875e-01 8.137798309326171875e+00 2.318109989166259766e+00 -1.900617837905883789e+00
2.678000000000000000e+03 6.215867233276367188e+01 3.770520782470703125e+01 1.001572847366333008e+00 4.053949356079101562e+00 1.516656637191772461e+00 -2.869352817535400391e+00
2.679000000000000000e+03 7.634123802185058594e+00 -5.495142459869384766e+00 -2.479344606399536133e-01 -1.454682350158691406e-01 -1.180208101868629456e-01 -3.260699212551116943e-01
2.680000000000000000e+03 8.390001296997070312e+00 -5.355710029602050781e+00 -2.821449637413024902e-01 -1.621295213699340820e-01 -1.332823485136032104e-01 -3.635185360908508301e-01
2.681000000000000000e+03 1.187610721588134766e+01 3.850811719894409180e+00 4.760903716087341309e-01 2.470188736915588379e-01 2.169327735900878906e-01 -2.677989304065704346e-01
2.682000000000000000e+03 1.121303176879882812e+01 5.006110668182373047e+00 3.064114451408386230e-01 1.439093053340911865e-01 1.350962221622467041e-01 -1.654523462057113647e-01
2.683000000000000000e+03 5.560962677001953125e+01 3.100556945800781250e+01 -5.075370073318481445e-01 4.472827911376953125e-01 -1.807626150548458099e-02 -3.819145560264587402e-01
2.684000000000000000e+03 5.308081817626953125e+01 3.128262138366699219e+01 -8.821022510528564453e-01 -1.470244675874710083e-01 -3.087380230426788330e-01 -6.449937820434570312e-01
2.685000000000000000e+03 5.429860687255859375e+01 3.086993789672851562e+01 -6.979748606681823730e-01 2.366032451391220093e-01 -1.384114921092987061e-01 -5.065302252769470215e-01
2.686000000000000000e+03 1.756723403930664062e+01 -3.575528144836425781e+00 -1.087968349456787109e+00 -1.636219739913940430e+00 -8.172563910484313965e-01 -1.202730655670166016e+00
2.687000000000000000e+03 1.707439041137695312e+01 -3.175941467285156250e+00 -1.217112541198730469e+00 -1.198970556259155273e+00 -7.248249053955078125e-01 -1.008291006088256836e+00
2.688000000000000000e+03 9.265396118164062500e+00 4.498766899108886719e+00 2.390540540218353271e-01 -1.767697483301162720e-01 1.868529058992862701e-02 7.310888916254043579e-02
2.689000000000000000e+03 5.112655258178710938e+01 4.039836120605468750e+01 1.503295749425888062e-01 -1.388008296489715576e-01 3.458620049059391022e-03 2.015639096498489380e-01
2.690000000000000000e+03 4.906401443481445312e+01 3.970777893066406250e+01 1.490439772605895996e-01 -3.151175379753112793e-02 3.525966778397560120e-02 7.255942560732364655e-03
2.691000000000000000e+03 4.834402847290039062e+01 4.024103927612304688e+01 1.575517654418945312e-01 3.049231134355068207e-02 5.641322210431098938e-02 1.478457264602184296e-02
2.692000000000000000e+03 3.200907897949218750e+01 7.782473087310791016e+00 -1.074380517005920410e+00 -1.038389563560485840e+00 -6.338310241699218750e-01 -1.014398813247680664e+00
2.693000000000000000e+03 1.438382244110107422e+01 -5.269634246826171875e+00 -5.911499261856079102e-01 -6.053113937377929688e-01 -3.589383959770202637e-01 -8.306145668029785156e-01
2.694000000000000000e+03 1.345666980743408203e+01 -4.462979316711425781e+00 -7.290176153182983398e-01 -3.747638761997222900e-01 -3.311344385147094727e-01 -7.132012844085693359e-01
2.695000000000000000e+03 4.392155456542968750e+01 3.546193695068359375e+01 9.533674269914627075e-02 3.234728798270225525e-02 3.830520808696746826e-02 5.440069362521171570e-02
2.696000000000000000e+03 1.638878631591796875e+01 -7.738951206207275391e+00 -2.670614980161190033e-02 -8.177085518836975098e-01 -2.533244192600250244e-01 -6.313168406486511230e-01
2.697000000000000000e+03 3.888167953491210938e+01 -1.322842788696289062e+01 2.252216935157775879e-01 2.633516490459442139e-01 1.465719938278198242e-01 -4.336113855242729187e-02
2.698000000000000000e+03 3.432520294189453125e+01 -7.911255836486816406e+00 4.785280823707580566e-01 -2.321232110261917114e-01 7.392146438360214233e-02 -9.201601147651672363e-02
2.699000000000000000e+03 3.509241867065429688e+01 -8.914522171020507812e+00 4.419210255146026611e-01 -1.742989718914031982e-01 8.028662204742431641e-02 -8.684735000133514404e-02
2.700000000000000000e+03 1.633464622497558594e+01 -4.934634208679199219e+00 -6.301980614662170410e-01 -1.069914937019348145e+00 -5.100339055061340332e-01 -9.074568748474121094e-01
2.701000000000000000e+03 2.500524282455444336e+00 6.350171089172363281e+00 1.592833176255226135e-02 -1.240917518734931946e-01 -3.244902566075325012e-02 6.314517557621002197e-02
2.702000000000000000e+03 2.018803215026855469e+01 -2.036119270324707031e+01 2.199549823999404907e-01 8.330433815717697144e-02 9.097779542207717896e-02 -3.146455883979797363e-01
2.703000000000000000e+03 1.726533889770507812e+01 -6.316914081573486328e+00 -1.266988515853881836e-01 -1.073275804519653320e+00 -3.599923849105834961e-01 -6.274704933166503906e-01
2.704000000000000000e+03 4.597278594970703125e+01 -2.613025283813476562e+01 -1.447488218545913696e-01 1.899472475051879883e+00 5.264170765876770020e-01 1.526009384542703629e-02
2.705000000000000000e+03 4.475784683227539062e+01 -2.425541114807128906e+01 -1.281673461198806763e-01 1.468892097473144531e+00 4.022174477577209473e-01 -3.682437911629676819e-02
2.706000000000000000e+03 2.221898269653320312e+01 -2.568141937255859375e+01 2.318582534790039062e-01 2.343298047780990601e-01 1.398564130067825317e-01 -3.347638249397277832e-01
2.707000000000000000e+03 4.162042999267578125e+01 -2.152739906311035156e+01 -6.445544958114624023e-02 6.610274910926818848e-01 1.789716035127639771e-01 -2.179035916924476624e-03
2.708000000000000000e+03 4.029999160766601562e+01 -1.915246582031250000e+01 -1.916439272463321686e-02 4.277844727039337158e-01 1.225860267877578735e-01 1.425082609057426453e-02
2.709000000000000000e+03 4.487599182128906250e+01 -1.942390823364257812e+01 -1.468600891530513763e-02 1.436391472816467285e+00 4.265116453170776367e-01 -2.649789303541183472e-02
2.710000000000000000e+03 3.303546524047851562e+01 -5.849421977996826172e+00 5.691262483596801758e-01 -3.412719666957855225e-01 6.835629045963287354e-02 -7.402570545673370361e-02
2.711000000000000000e+03 4.410220718383789062e+01 -2.311926078796386719e+01 -9.907452762126922607e-02 1.292155265808105469e+00 3.579242229461669922e-01 -4.012522846460342407e-02
2.712000000000000000e+03 4.363452529907226562e+01 -2.496016693115234375e+01 -1.348855644464492798e-01 1.148812174797058105e+00 3.041779994964599609e-01 -5.361727997660636902e-02
2.713000000000000000e+03 2.301914596557617188e+01 -2.361350250244140625e+01 2.185694426298141479e-01 3.223770856857299805e-01 1.622839570045471191e-01 -3.402793109416961670e-01
2.714000000000000000e+03 3.833400344848632812e+01 -1.538877868652343750e+01 1.052599251270294189e-01 1.558738797903060913e-01 7.834014296531677246e-02 -1.344410586170852184e-03
2.715000000000000000e+03 4.271417999267578125e+01 -2.081793785095214844e+01 -5.016313120722770691e-02 9.370741844177246094e-01 2.660733163356781006e-01 -2.980145812034606934e-02
2.716000000000000000e+03 7.484443664550781250e+01 2.820495033264160156e+01 9.057466685771942139e-02 7.839731693267822266e+00 2.379091978073120117e+00 -1.479240059852600098e+00
2.717000000000000000e+03 4.015099334716796875e+01 -1.598130130767822266e+01 1.015110984444618225e-01 4.547583162784576416e-01 1.668808311223983765e-01 -2.799416333436965942e-02
2.718000000000000000e+03 7.537934112548828125e+01 -2.731451416015625000e+01 1.315658912062644958e-02 7.389452457427978516e+00 2.220782756805419922e+00 1.443654447793960571e-01
2.719000000000000000e+03 7.395326232910156250e+01 2.672634696960449219e+01 -1.734693646430969238e-01 8.363619804382324219e+00 2.457045078277587891e+00 -1.517833352088928223e+00
2.720000000000000000e+03 7.506134796142578125e+01 2.573044395446777344e+01 -2.005200833082199097e-01 8.018218040466308594e+00 2.345309495925903320e+00 -1.357110857963562012e+00
2.721000000000000000e+03 7.605850219726562500e+01 2.722182846069335938e+01 -2.058780007064342499e-02 7.425499439239501953e+00 2.221473455429077148e+00 -1.287464976310729980e+00
2.722000000000000000e+03 7.498900604248046875e+01 2.697092437744140625e+01 -9.224237501621246338e-02 7.906868457794189453e+00 2.344387769699096680e+00 -1.451959609985351562e+00
2.723000000000000000e+03 7.561257934570312500e+01 -2.051472854614257812e+01 1.254764501936733723e-03 7.625058650970458984e+00 2.287894010543823242e+00 1.527390182018280029e-01
2.724000000000000000e+03 7.433535003662109375e+01 -2.172804260253906250e+01 3.399345092475414276e-03 7.353861808776855469e+00 2.207178354263305664e+00 1.875630915164947510e-01
2.725000000000000000e+03 7.481883239746093750e+01 1.932967567443847656e+01 -3.465740680694580078e-01 8.384998321533203125e+00 2.411527156829833984e+00 -6.636145710945129395e-01
2.726000000000000000e+03 7.464489746093750000e+01 1.232140445709228516e+01 -1.685427427291870117e-01 8.362377166748046875e+00 2.458150148391723633e+00 -1.123019754886627197e-01
2.727000000000000000e+03 7.442475128173828125e+01 -9.713326454162597656e+00 3.476133570075035095e-04 7.717504501342773438e+00 2.315355777740478516e+00 2.019306272268295288e-01
2.728000000000000000e+03 7.559249877929687500e+01 -1.377964019775390625e+01 1.317189889959990978e-03 7.838632106781005859e+00 2.351984739303588867e+00 1.607742011547088623e-01
2.729000000000000000e+03 7.429868316650390625e+01 -1.507763576507568359e+01 3.213363932445645332e-03 7.535725116729736328e+00 2.261681556701660156e+00 1.987310647964477539e-01
2.730000000000000000e+03 7.443414306640625000e+01 5.645571231842041016e+00 -7.007315009832382202e-02 8.177298545837402344e+00 2.432167768478393555e+00 1.169102638959884644e-01
2.731000000000000000e+03 7.414058685302734375e+01 -3.082220792770385742e+00 -8.932308293879032135e-03 7.852434158325195312e+00 2.353050708770751953e+00 2.049177438020706177e-01
2.732000000000000000e+03 7.564850616455078125e+01 -7.036727428436279297e+00 -1.710082869976758957e-03 8.074535369873046875e+00 2.421847581863403320e+00 1.610404849052429199e-01
2.733000000000000000e+03 7.422045898437500000e+01 4.352140903472900391e+00 -4.951018467545509338e-02 8.097788810729980469e+00 2.414483547210693359e+00 1.474945992231369019e-01
2.734000000000000000e+03 7.429038238525390625e+01 -4.442390918731689453e+00 -4.620637279003858566e-03 7.847475528717041016e+00 2.352856397628784180e+00 2.044654041528701782e-01
2.735000000000000000e+03 7.438223266601562500e+01 -5.765417098999023438e+00 -3.028587670996785164e-03 7.830214023590087891e+00 2.348155498504638672e+00 2.023927122354507446e-01
2.736000000000000000e+03 7.518579101562500000e+01 1.379560470581054688e+00 -2.330650389194488525e-02 8.248463630676269531e+00 2.467547178268432617e+00 1.507461220026016235e-01
2.737000000000000000e+03 7.438699340820312500e+01 -1.104769134521484375e+01 -1.377095817588269711e-03 7.667614936828613281e+00 2.299871444702148438e+00 1.995507180690765381e-01
2.738000000000000000e+03 7.434128570556640625e+01 -1.239147186279296875e+01 9.075946290977299213e-04 7.622365474700927734e+00 2.286981821060180664e+00 2.017322033643722534e-01
2.739000000000000000e+03 7.436399841308593750e+01 -1.775650596618652344e+01 1.550819026306271553e-03 7.470082759857177734e+00 2.241490125656127930e+00 1.965871900320053101e-01
2.740000000000000000e+03 7.438948822021484375e+01 -1.907929229736328125e+01 2.761233365163207054e-03 7.438164710998535156e+00 2.232277631759643555e+00 1.903012692928314209e-01
2.741000000000000000e+03 7.610996246337890625e+01 2.199070549011230469e+01 -2.292940914630889893e-01 8.181855201721191406e+00 2.385768175125122070e+00 -8.770288228988647461e-01
2.742000000000000000e+03 7.572050476074218750e+01 1.514993762969970703e+01 -1.718902140855789185e-01 8.556968688964843750e+00 2.515523672103881836e+00 -2.825420200824737549e-01
2.743000000000000000e+03 7.414897155761718750e+01 -2.442103385925292969e+01 1.306152530014514923e-02 7.257238864898681641e+00 2.181090116500854492e+00 1.878255605697631836e-01
2.744000000000000000e+03 7.408056640625000000e+01 -2.578623008728027344e+01 1.090981625020503998e-02 7.204602241516113281e+00 2.164653539657592773e+00 1.929598897695541382e-01
2.745000000000000000e+03 7.567623138427734375e+01 8.294484138488769531e+00 -6.449921429157257080e-02 8.540464401245117188e+00 2.542789697647094727e+00 3.005693852901458740e-02
2.746000000000000000e+03 7.440457153320312500e+01 8.248116493225097656e+00 -1.031313687562942505e-01 8.232760429382324219e+00 2.438888788223266602e+00 5.960970371961593628e-02
2.747000000000000000e+03 7.442903137207031250e+01 -7.075978279113769531e+00 8.483732235617935658e-04 7.799515724182128906e+00 2.340109348297119141e+00 2.022092789411544800e-01
2.748000000000000000e+03 7.365481567382812500e+01 -1.515577584505081177e-01 -2.682637237012386322e-02 7.815330982208251953e+00 2.336551427841186523e+00 2.107292413711547852e-01
2.749000000000000000e+03 7.396353912353515625e+01 2.956373929977416992e+00 -5.017895251512527466e-02 7.987885951995849609e+00 2.381312131881713867e+00 1.772227436304092407e-01
2.750000000000000000e+03 7.430432128906250000e+01 -1.373476600646972656e+01 1.966246170923113823e-03 7.574508190155029297e+00 2.272942304611206055e+00 2.006727457046508789e-01
2.751000000000000000e+03 7.458193206787109375e+01 1.099577617645263672e+01 -1.506229788064956665e-01 8.328071594238281250e+00 2.453234672546386719e+00 -4.612939432263374329e-02
2.752000000000000000e+03 7.503106689453125000e+01 2.194177627563476562e+01 -3.525526225566864014e-01 8.296082496643066406e+00 2.383059024810791016e+00 -9.560520648956298828e-01
2.753000000000000000e+03 7.513925933837890625e+01 3.449461364746093750e+01 7.656030058860778809e-01 7.047923088073730469e+00 2.344057798385620117e+00 -2.939238846302032471e-01
2.754000000000000000e+03 7.438308715820312500e+01 -2.039992523193359375e+01 2.014291239902377129e-03 7.401261806488037109e+00 2.220982789993286133e+00 1.917305141687393188e-01
2.755000000000000000e+03 7.444084167480468750e+01 1.506757831573486328e+01 -2.607223391532897949e-01 8.353393554687500000e+00 2.427801370620727539e+00 -2.806883156299591064e-01
2.756000000000000000e+03 7.465408325195312500e+01 1.797266006469726562e+01 -3.295529186725616455e-01 8.389033317565917969e+00 2.417844057083129883e+00 -5.274280309677124023e-01
2.757000000000000000e+03 7.399542236328125000e+01 -2.975279617309570312e+01 2.680070884525775909e-02 7.090922832489013672e+00 2.135317087173461914e+00 1.555934399366378784e-01
2.758000000000000000e+03 7.508814239501953125e+01 2.448148155212402344e+01 -2.881590127944946289e-01 8.123296737670898438e+00 2.350541353225708008e+00 -1.242249131202697754e+00
2.759000000000000000e+03 7.318872070312500000e+01 -3.258947753906250000e+01 3.265934810042381287e-02 6.902261257171630859e+00 2.080476045608520508e+00 1.429715007543563843e-01
2.760000000000000000e+03 7.396109771728515625e+01 -2.720215415954589844e+01 2.398013137280941010e-02 7.134860038757324219e+00 2.147652149200439453e+00 1.839552372694015503e-01
2.761000000000000000e+03 7.372319793701171875e+01 3.173855400085449219e+01 9.734175801277160645e-01 7.990329265594482422e+00 2.689124107360839844e+00 -1.186518549919128418e+00
2.762000000000000000e+03 7.422607421875000000e+01 3.060810279846191406e+01 6.227067112922668457e-01 7.858769416809082031e+00 2.544442892074584961e+00 -1.373984456062316895e+00
2.763000000000000000e+03 5.808781147003173828e+00 3.287921905517578125e+01 -2.870082389563322067e-03 -5.829976499080657959e-02 -1.835095509886741638e-02 -8.358951658010482788e-03
2.764000000000000000e+03 6.298475265502929688e+00 -2.972472000122070312e+01 5.147632211446762085e-02 -1.009448885917663574e+00 -2.873917818069458008e-01 -1.588898003101348877e-01
2.765000000000000000e+03 4.536681175231933594e+00 2.829342460632324219e+01 -3.991646692156791687e-03 -7.779693603515625000e-02 -2.453657612204551697e-02 -1.224305108189582825e-02
2.766000000000000000e+03 6.678818702697753906e+00 2.936103057861328125e+01 -6.035095080733299255e-03 -5.107274278998374939e-02 -1.713235117495059967e-02 -1.236273441463708878e-02
2.767000000000000000e+03 4.518205165863037109e+00 -2.677769660949707031e+01 3.085171431303024292e-02 -1.068952202796936035e+00 -3.114301264286041260e-01 -1.500241756439208984e-01
2.768000000000000000e+03 4.883402347564697266e+00 -1.055592536926269531e+01 -3.423674777150154114e-02 -3.972133100032806396e-01 -1.294350177049636841e-01 -3.180513679981231689e-01
2.769000000000000000e+03 5.257674694061279297e+00 2.493977546691894531e+01 -4.025998525321483612e-03 -7.067662477493286133e-02 -2.241078764200210571e-02 -1.726642809808254242e-02
2.770000000000000000e+03 5.956405639648437500e+00 -2.254892921447753906e+01 5.684548243880271912e-02 -8.567111492156982422e-01 -2.399597018957138062e-01 -2.467027902603149414e-01
2.771000000000000000e+03 7.293756103515625000e+01 -3.438154220581054688e+01 4.194121062755584717e-02 6.829217433929443359e+00 2.061347723007202148e+00 1.210527569055557251e-01
2.772000000000000000e+03 5.324019908905029297e+00 -1.570938777923583984e+01 3.270148113369941711e-02 -6.445664763450622559e-01 -1.835595071315765381e-01 -3.216316401958465576e-01
2.773000000000000000e+03 5.588824272155761719e+00 -1.837257194519042969e+01 4.819908365607261658e-02 -7.394260764122009277e-01 -2.073681056499481201e-01 -2.952698171138763428e-01
2.774000000000000000e+03 4.432591438293457031e+00 -1.996930122375488281e+01 3.294259682297706604e-02 -8.493575453758239746e-01 -2.449244856834411621e-01 -2.284445166587829590e-01
2.775000000000000000e+03 3.943048238754272461e+00 1.569847869873046875e+01 5.040253978222608566e-03 -1.117082312703132629e-01 -3.200039267539978027e-02 -2.019568160176277161e-02
2.776000000000000000e+03 5.142151832580566406e+00 1.833640289306640625e+01 -1.528172986581921577e-03 -7.692955434322357178e-02 -2.353731729090213776e-02 -2.312697097659111023e-02
2.777000000000000000e+03 5.156239509582519531e+00 1.692471313476562500e+01 3.043066710233688354e-03 -7.726304233074188232e-02 -2.226599119603633881e-02 -2.337173186242580414e-02
2.778000000000000000e+03 3.877258062362670898e+00 2.116590309143066406e+01 -1.451064250431954861e-03 -1.006401926279067993e-01 -3.062737546861171722e-02 -2.009255252778530121e-02
2.779000000000000000e+03 4.984567642211914062e+00 1.409387207031250000e+01 1.459032576531171799e-02 -8.553480356931686401e-02 -2.128334343433380127e-02 -1.836768910288810730e-02
2.780000000000000000e+03 5.096137523651123047e+00 1.550319385528564453e+01 6.217583548277616501e-03 -8.010394126176834106e-02 -2.216590754687786102e-02 -2.094909176230430603e-02
2.781000000000000000e+03 5.655907154083251953e+00 -2.784338378906250000e+01 4.850722104310989380e-02 -1.004996180534362793e+00 -2.869466841220855713e-01 -1.664735227823257446e-01
2.782000000000000000e+03 5.576669692993164062e+00 2.633531379699707031e+01 -5.457123275846242905e-03 -6.592104583978652954e-02 -2.141345106065273285e-02 -1.554213557392358780e-02
2.783000000000000000e+03 3.936923503875732422e+00 -1.323234176635742188e+01 6.821777205914258957e-03 -5.474664568901062012e-01 -1.621934026479721069e-01 -2.766971290111541748e-01
2.784000000000000000e+03 4.979986190795898438e+00 -1.183660888671875000e+01 -9.379154071211814880e-03 -4.717077910900115967e-01 -1.443260908126831055e-01 -3.340966105461120605e-01
2.785000000000000000e+03 3.941859245300292969e+00 3.225444412231445312e+01 -1.710655284114181995e-03 -8.195291459560394287e-02 -2.509907074272632599e-02 -7.525835186243057251e-03
2.786000000000000000e+03 7.241580963134765625e+01 3.378648376464843750e+01 1.703007936477661133e+00 8.640468597412109375e+00 3.103042840957641602e+00 -5.218651294708251953e-01
2.787000000000000000e+03 4.906472682952880859e+00 2.230149269104003906e+01 -3.285655751824378967e-03 -7.857381552457809448e-02 -2.455784194171428680e-02 -2.011167444288730621e-02
2.788000000000000000e+03 5.040259838104248047e+00 1.970012092590332031e+01 -1.612459542229771614e-03 -7.788731157779693604e-02 -2.384993061423301697e-02 -2.329168282449245453e-02
2.789000000000000000e+03 4.921465396881103516e+00 2.100811004638671875e+01 -4.115958232432603836e-03 -7.860391587018966675e-02 -2.481596171855926514e-02 -2.140560373663902283e-02
2.790000000000000000e+03 1.183988571166992188e+01 -3.226501464843750000e+01 1.333883553743362427e-01 -5.891599655151367188e-01 -1.367314904928207397e-01 -1.820158958435058594e-01
2.791000000000000000e+03 7.754620075225830078e+00 -3.380358123779296875e+01 6.768421083688735962e-02 -9.492514729499816895e-01 -2.644701898097991943e-01 -1.170185580849647522e-01
2.792000000000000000e+03 4.736057758331298828e+00 3.402164459228515625e+01 -1.297568669542670250e-03 -7.112184166908264160e-02 -2.172582410275936127e-02 -6.459924858063459396e-03
2.793000000000000000e+03 5.861083507537841797e+00 -2.115168380737304688e+01 5.372968316078186035e-02 -8.186900615692138672e-01 -2.294881194829940796e-01 -2.590390145778656006e-01
2.794000000000000000e+03 5.728619575500488281e+00 -1.975252532958984375e+01 5.705245211720466614e-02 -7.860547304153442383e-01 -2.187006771564483643e-01 -2.837232351303100586e-01
2.795000000000000000e+03 3.953375244140625000e+01 -1.465136051177978516e+01 1.534202545881271362e-01 3.723103404045104980e-01 1.577191799879074097e-01 -2.894279547035694122e-02
2.796000000000000000e+03 5.795131683349609375e+00 -2.879240798950195312e+01 4.155462607741355896e-02 -1.020554065704345703e+00 -2.936998307704925537e-01 -1.539069563150405884e-01
2.797000000000000000e+03 5.981366157531738281e+00 2.784098434448242188e+01 -4.681516904383897781e-03 -5.887334421277046204e-02 -1.906645856797695160e-02 -1.414810027927160263e-02
2.798000000000000000e+03 4.866748809814453125e+00 1.272074890136718750e+01 2.178101614117622375e-02 -9.232757240533828735e-02 -2.116396650671958923e-02 -9.932739660143852234e-03
2.799000000000000000e+03 3.681070089340209961e+00 1.018441867828369141e+01 2.994858659803867340e-02 -1.307548880577087402e-01 -3.024189174175262451e-02 1.565716229379177094e-02
2.800000000000000000e+03 4.781864643096923828e+00 1.000372505187988281e+01 4.528254270553588867e-02 -1.061289981007575989e-01 -1.825393550097942352e-02 1.584668643772602081e-02
2.801000000000000000e+03 5.199024677276611328e+00 -1.441287040710449219e+01 2.452610060572624207e-02 -5.960903167724609375e-01 -1.714692562818527222e-01 -3.336321413516998291e-01
2.802000000000000000e+03 4.667939662933349609e+00 8.672250747680664062e+00 5.524460226297378540e-02 -1.140295267105102539e-01 -1.763547770678997040e-02 3.507746383547782898e-02
2.803000000000000000e+03 4.465345382690429688e+00 -6.967822551727294922e+00 -8.395623415708541870e-02 -2.087656408548355103e-01 -8.781656622886657715e-02 -2.256809175014495850e-01
2.804000000000000000e+03 4.597860813140869141e+00 -8.106274604797363281e+00 -7.388069480657577515e-02 -2.649524509906768799e-01 -1.016499474644660950e-01 -2.640055418014526367e-01
2.805000000000000000e+03 5.576996326446533203e+00 -8.005640983581542969e+00 -9.737317264080047607e-02 -2.725079953670501709e-01 -1.109643504023551941e-01 -3.144487142562866211e-01
2.806000000000000000e+03 3.797079086303710938e+01 -1.195174121856689453e+01 2.707221806049346924e-01 1.499212086200714111e-01 1.261930167675018311e-01 -4.897677525877952576e-02
2.807000000000000000e+03 3.689891433715820312e+01 -1.091239261627197266e+01 3.341048061847686768e-01 4.004480782896280289e-03 1.014327853918075562e-01 -5.908206477761268616e-02
2.808000000000000000e+03 4.669966506958007812e+01 4.030981445312500000e+01 1.230226755142211914e-01 2.351179346442222595e-02 4.396034032106399536e-02 6.868270225822925568e-03
2.809000000000000000e+03 3.112817382812500000e+01 -5.495423316955566406e+00 6.380899548530578613e-01 -3.237522244453430176e-01 9.430132061243057251e-02 -1.475281864404678345e-01
2.810000000000000000e+03 1.817053031921386719e+01 -1.505148220062255859e+01 2.501232922077178955e-01 -2.042676955461502075e-01 1.375667564570903778e-02 -3.229242563247680664e-01
2.811000000000000000e+03 1.639191436767578125e+01 -1.708375549316406250e+01 2.385306209325790405e-01 -2.897561490535736084e-01 -1.536765508353710175e-02 -3.630518019199371338e-01
2.812000000000000000e+03 2.481716537475585938e+01 -2.940211677551269531e+01 3.033190965652465820e-01 3.865578770637512207e-01 2.069630920886993408e-01 -3.431055545806884766e-01
2.813000000000000000e+03 2.567454910278320312e+01 -2.839958572387695312e+01 2.683578729629516602e-01 4.912297427654266357e-01 2.278762906789779663e-01 -3.778428435325622559e-01
2.814000000000000000e+03 1.492736339569091797e+01 -1.244599151611328125e+01 1.697074174880981445e-01 -5.207074284553527832e-01 -1.053000092506408691e-01 -4.973469376564025879e-01
2.815000000000000000e+03 1.668651390075683594e+01 -1.159196949005126953e+01 1.993268430233001709e-01 -5.018696784973144531e-01 -9.076283872127532959e-02 -4.289915859699249268e-01
2.816000000000000000e+03 5.791567993164062500e+01 4.148556137084960938e+01 1.052654266357421875e+00 6.326010823249816895e-01 5.055766105651855469e-01 1.006652936339378357e-01
2.817000000000000000e+03 1.553942680358886719e+01 -1.011642265319824219e+01 1.139893382787704468e-01 -6.462095975875854492e-01 -1.596660763025283813e-01 -5.597601532936096191e-01
2.818000000000000000e+03 2.843599891662597656e+01 -3.588307571411132812e+01 4.997703433036804199e-01 4.840942025184631348e-01 2.951593697071075439e-01 -3.379851877689361572e-01
2.819000000000000000e+03 2.623715972900390625e+01 -3.093731117248535156e+01 3.297383785247802734e-01 4.855878651142120361e-01 2.445978671312332153e-01 -3.540381193161010742e-01
2.820000000000000000e+03 3.047699356079101562e+01 -3.417363882064819336e+00 5.723675489425659180e-01 -4.059536755084991455e-01 4.992416501045227051e-02 -7.217717915773391724e-02
2.821000000000000000e+03 1.620697402954101562e+01 -1.293580722808837891e+01 2.453865855932235718e-01 -4.542064070701599121e-01 -6.264594942331314087e-02 -4.117259681224822998e-01
2.822000000000000000e+03 2.888620376586914062e+01 -1.726647973060607910e+00 3.224270343780517578e-01 -4.268043935298919678e-01 -3.131321072578430176e-02 -6.595474481582641602e-02
2.823000000000000000e+03 6.330658340454101562e+01 3.155901145935058594e+01 1.882798910140991211e+00 7.678671836853027344e+00 2.868441104888916016e+00 5.196950912475585938e+00
2.824000000000000000e+03 2.846193504333496094e+01 4.068409442901611328e+00 -1.919767856597900391e+00 -1.018275499343872070e+00 -8.814129829406738281e-01 -9.216556549072265625e-01
2.825000000000000000e+03 2.765070724487304688e+01 3.989438295364379883e+00 -2.156859397888183594e+00 -9.928740262985229492e-01 -9.449200034141540527e-01 -1.099256277084350586e+00
2.826000000000000000e+03 2.767672348022460938e+01 3.452534437179565430e+00 -2.004642724990844727e+00 -8.603290915489196777e-01 -8.594915270805358887e-01 -9.126693010330200195e-01
2.827000000000000000e+03 2.746842765808105469e+01 3.847454309463500977e+00 -2.188656330108642578e+00 -9.329164028167724609e-01 -9.364718198776245117e-01 -1.084157347679138184e+00
2.828000000000000000e+03 2.649118995666503906e+01 2.894458770751953125e+00 -2.211527585983276367e+00 -6.674626469612121582e-01 -8.636971116065979004e-01 -9.465391039848327637e-01
2.829000000000000000e+03 2.699033164978027344e+01 2.729819536209106445e+00 -1.972358345985412598e+00 -6.842259168624877930e-01 -7.969752550125122070e-01 -7.973763346672058105e-01
2.830000000000000000e+03 2.544841003417968750e+01 2.181133270263671875e+00 -2.172965526580810547e+00 -4.992798864841461182e-01 -8.016735911369323730e-01 -8.920279741287231445e-01
2.831000000000000000e+03 2.511255073547363281e+01 2.044401645660400391e+00 -2.204200029373168945e+00 -4.405138194561004639e-01 -7.934141159057617188e-01 -9.104034304618835449e-01
2.832000000000000000e+03 2.809288597106933594e+01 3.701146364212036133e+00 -1.936238050460815430e+00 -9.224756956100463867e-01 -8.576141595840454102e-01 -8.863137364387512207e-01
2.833000000000000000e+03 6.336803817749023438e+01 3.121751213073730469e+01 1.414361596107482910e+00 8.163459777832031250e+00 2.873346328735351562e+00 4.909914970397949219e+00
2.834000000000000000e+03 6.450431823730468750e+01 3.171542930603027344e+01 4.650239050388336182e-01 1.446056270599365234e+01 4.477675914764404297e+00 4.466115951538085938e+00
2.835000000000000000e+03 6.625605010986328125e+01 3.168897247314453125e+01 1.276840448379516602e+00 1.595164680480957031e+01 5.168546199798583984e+00 -7.329558730125427246e-01
2.836000000000000000e+03 6.676226043701171875e+01 3.221962356567382812e+01 3.111292839050292969e+00 1.525721549987792969e+01 5.510552406311035156e+00 -1.800248026847839355e+00
2.837000000000000000e+03 6.687584686279296875e+01 3.323824691772460938e+01 6.422100543975830078e+00 1.468979835510253906e+01 6.333569526672363281e+00 -1.532001018524169922e+00
2.838000000000000000e+03 6.664389038085937500e+01 3.271860122680664062e+01 4.680304527282714844e+00 1.576379966735839844e+01 6.133231163024902344e+00 -2.023890256881713867e+00
2.839000000000000000e+03 6.638899993896484375e+01 3.207860183715820312e+01 2.255777120590209961e+00 1.624964523315429688e+01 5.551626682281494141e+00 -1.383051395416259766e+00
2.840000000000000000e+03 2.877691459655761719e+01 4.515378952026367188e+00 -1.938098788261413574e+00 -1.099491596221923828e+00 -9.112771153450012207e-01 -9.630032181739807129e-01
2.841000000000000000e+03 7.281937408447265625e+01 3.112904739379882812e+01 1.036486268043518066e+00 8.597672462463378906e+00 2.890247583389282227e+00 -1.441228508949279785e+00
2.842000000000000000e+03 2.370823860168457031e+01 5.366294384002685547e-01 -1.605284214019775391e+00 3.722178936004638672e-02 -4.704187214374542236e-01 -7.873011827468872070e-01
2.843000000000000000e+03 2.319930267333984375e+01 3.202562332153320312e-01 -1.270442962646484375e+00 2.375482320785522461e-01 -3.098684251308441162e-01 -9.249246120452880859e-01
2.844000000000000000e+03 1.911624145507812500e+01 1.183427715301513672e+01 9.949881583452224731e-02 1.639655381441116333e-01 7.903930544853210449e-02 1.290203034877777100e-01
2.845000000000000000e+03 1.848148345947265625e+01 1.083559608459472656e+01 1.073974221944808960e-01 1.805714517831802368e-01 8.639065921306610107e-02 1.388416588306427002e-01
2.846000000000000000e+03 4.085150909423828125e+01 2.022126197814941406e+01 -9.916416406631469727e-01 -1.024022817611694336e+00 -6.046993136405944824e-01 -1.106154680252075195e+00
2.847000000000000000e+03 4.053676605224609375e+01 1.964301872253417969e+01 -9.784654974937438965e-01 -1.019053697586059570e+00 -5.992557406425476074e-01 -1.104138731956481934e+00
2.848000000000000000e+03 1.602178382873535156e+01 8.929833412170410156e+00 1.011111512780189514e-01 2.510485053062438965e-01 1.056478992104530334e-01 1.482723951339721680e-01
2.849000000000000000e+03 3.938801193237304688e+01 1.815050125122070312e+01 -1.015072584152221680e+00 -1.055635213851928711e+00 -6.212123036384582520e-01 -1.085738301277160645e+00
2.850000000000000000e+03 1.641901969909667969e+01 8.485330581665039062e+00 1.210214644670486450e-01 2.446888834238052368e-01 1.097131073474884033e-01 1.668663769960403442e-01
2.851000000000000000e+03 1.373117923736572266e+01 6.310356616973876953e+00 8.603188395500183105e-02 4.863860011100769043e-01 1.717253625392913818e-01 9.684962034225463867e-02
2.852000000000000000e+03 3.273313903808593750e+01 2.522212982177734375e+01 5.204685404896736145e-02 7.719431817531585693e-02 3.877235203981399536e-02 6.453096121549606323e-02
2.853000000000000000e+03 4.160146331787109375e+01 2.078167915344238281e+01 -1.019087672233581543e+00 -1.020938158035278320e+00 -6.120077371597290039e-01 -1.070587754249572754e+00
2.854000000000000000e+03 2.357804489135742188e+01 1.692808532714843750e+01 7.650803029537200928e-02 1.184823289513587952e-01 5.849710851907730103e-02 9.671978652477264404e-02
2.855000000000000000e+03 2.401889801025390625e+01 1.669769859313964844e+01 8.162163943052291870e-02 1.160532981157302856e-01 5.930247902870178223e-02 9.981483221054077148e-02
2.856000000000000000e+03 4.725155258178710938e+01 2.473924636840820312e+01 -9.128375053405761719e-01 -6.444909572601318359e-01 -4.671985507011413574e-01 -7.994695901870727539e-01
2.857000000000000000e+03 3.877224349975585938e+01 1.763146781921386719e+01 -1.047785758972167969e+00 -1.129992008209228516e+00 -6.533333063125610352e-01 -1.095814704895019531e+00
2.858000000000000000e+03 3.972613906860351562e+01 1.840788459777832031e+01 -9.968590140342712402e-01 -1.022030591964721680e+00 -6.056668758392333984e-01 -1.080822587013244629e+00
2.859000000000000000e+03 1.558050918579101562e+01 8.209031105041503906e+00 1.053793132305145264e-01 2.842590510845184326e-01 1.168915107846260071e-01 1.547255069017410278e-01
2.860000000000000000e+03 1.558197784423828125e+01 7.471507072448730469e+00 1.243150606751441956e-01 3.048450648784637451e-01 1.287480443716049194e-01 1.771534532308578491e-01
2.861000000000000000e+03 3.367921066284179688e+01 1.117238235473632812e+01 -1.153053641319274902e+00 -1.164320707321166992e+00 -6.952123045921325684e-01 -1.101213097572326660e+00
2.862000000000000000e+03 4.701731109619140625e+01 2.512231445312500000e+01 -9.806336760520935059e-01 -7.507376670837402344e-01 -5.194113850593566895e-01 -8.890893459320068359e-01
2.863000000000000000e+03 4.763912200927734375e+01 2.563189125061035156e+01 -9.362642168998718262e-01 -7.033122777938842773e-01 -4.918729364871978760e-01 -8.537534475326538086e-01
2.864000000000000000e+03 3.535405349731445312e+01 1.343819904327392578e+01 -1.127904295921325684e+00 -1.208830714225769043e+00 -7.010204792022705078e-01 -1.131942510604858398e+00
2.865000000000000000e+03 3.433257293701171875e+01 1.238022136688232422e+01 -1.143043398857116699e+00 -1.227232336997985840e+00 -7.110826969146728516e-01 -1.145968556404113770e+00
2.866000000000000000e+03 1.644642066955566406e+01 8.872297286987304688e+00 1.146975085139274597e-01 2.390797883272171021e-01 1.061331927776336670e-01 1.560987234115600586e-01
2.867000000000000000e+03 2.472388458251953125e+01 1.716433715820312500e+01 8.300884068012237549e-02 1.107280626893043518e-01 5.812107026576995850e-02 9.638088196516036987e-02
2.868000000000000000e+03 3.407474517822265625e+01 2.661783027648925781e+01 5.139055103063583374e-02 7.570381462574005127e-02 3.812830895185470581e-02 6.181075423955917358e-02
2.869000000000000000e+03 3.394235610961914062e+01 2.576509475708007812e+01 5.271565169095993042e-02 7.632593810558319092e-02 3.871247544884681702e-02 6.313148885965347290e-02
2.870000000000000000e+03 3.303734207153320312e+01 2.543375015258789062e+01 5.207225680351257324e-02 7.658778876066207886e-02 3.859801590442657471e-02 6.380319595336914062e-02
2.871000000000000000e+03 4.799221038818359375e+01 2.587224960327148438e+01 -9.085813164710998535e-01 -6.828424930572509766e-01 -4.774271249771118164e-01 -8.260102272033691406e-01
2.872000000000000000e+03 2.126145935058593750e+01 1.378399562835693359e+01 9.703875333070755005e-02 1.400989890098571777e-01 7.114132493734359741e-02 1.151921227574348450e-01
2.873000000000000000e+03 3.029515075683593750e+01 2.307242202758789062e+01 5.387026816606521606e-02 8.315324783325195312e-02 4.110705479979515076e-02 7.126386463642120361e-02
2.874000000000000000e+03 2.916381263732910156e+01 2.096756744384765625e+01 6.732957065105438232e-02 8.710787445306777954e-02 4.633123427629470825e-02 7.784917205572128296e-02
2.875000000000000000e+03 3.214886093139648438e+01 2.450514030456542969e+01 5.281240120530128479e-02 7.708150148391723633e-02 3.896817192435264587e-02 6.635108590126037598e-02
2.876000000000000000e+03 4.860622024536132812e+01 2.721503829956054688e+01 -9.861969947814941406e-01 -7.969686985015869141e-01 -5.349497199058532715e-01 -8.961833715438842773e-01
2.877000000000000000e+03 4.356554031372070312e+01 2.265567398071289062e+01 -1.115347862243652344e+00 -9.996313452720642090e-01 -6.344937682151794434e-01 -1.060167312622070312e+00
2.878000000000000000e+03 4.405051040649414062e+01 2.261611557006835938e+01 -1.051437735557556152e+00 -9.350016117095947266e-01 -5.959318280220031738e-01 -9.905801415443420410e-01
2.879000000000000000e+03 3.913364410400390625e+01 1.849119186401367188e+01 -1.035877346992492676e+00 -1.125818490982055664e+00 -6.485087871551513672e-01 -1.125105381011962891e+00
2.880000000000000000e+03 6.101648712158203125e+01 3.154732704162597656e+01 1.368892192840576172e+00 1.629509091377258301e+00 8.995203971862792969e-01 1.913434743881225586e+00
2.881000000000000000e+03 6.217323303222656250e+01 3.176947784423828125e+01 2.182089567184448242e+00 3.028528213500976562e+00 1.563185334205627441e+00 3.414384603500366211e+00
2.882000000000000000e+03 4.272933959960937500e+01 2.188148880004882812e+01 -1.100788116455078125e+00 -1.000292420387268066e+00 -6.303241848945617676e-01 -1.056886434555053711e+00
2.883000000000000000e+03 4.245418548583984375e+01 2.161112594604492188e+01 -1.084020495414733887e+00 -1.005335569381713867e+00 -6.268067955970764160e-01 -1.054211258888244629e+00
2.884000000000000000e+03 3.583615112304687500e+01 1.397829914093017578e+01 -1.109392523765563965e+00 -1.205490469932556152e+00 -6.944648623466491699e-01 -1.132488131523132324e+00
2.885000000000000000e+03 4.854967880249023438e+01 2.545230865478515625e+01 -8.097737431526184082e-01 -5.026301145553588867e-01 -3.937211334705352783e-01 -6.857197880744934082e-01
2.886000000000000000e+03 3.197461318969726562e+01 9.387164115905761719e+00 -1.161543488502502441e+00 -1.153781890869140625e+00 -6.945976018905639648e-01 -1.080553174018859863e+00
2.887000000000000000e+03 4.588887786865234375e+01 2.473469352722167969e+01 -1.099633574485778809e+00 -9.094351530075073242e-01 -6.027206182479858398e-01 -9.927325248718261719e-01
2.888000000000000000e+03 4.670582962036132812e+01 2.487955284118652344e+01 -9.980831742286682129e-01 -7.700549364089965820e-01 -5.304414629936218262e-01 -8.996756076812744141e-01
2.889000000000000000e+03 3.608817672729492188e+01 1.424084758758544922e+01 -1.093407273292541504e+00 -1.203716516494750977e+00 -6.891371011734008789e-01 -1.132492065429687500e+00
2.890000000000000000e+03 3.609672164916992188e+01 1.478729438781738281e+01 -1.114213347434997559e+00 -1.265681862831115723e+00 -7.139685750007629395e-01 -1.180556893348693848e+00
2.891000000000000000e+03 4.433140945434570312e+01 2.288062095642089844e+01 -1.053915500640869141e+00 -9.331346154212951660e-01 -5.961150527000427246e-01 -9.809671640396118164e-01
2.892000000000000000e+03 3.465121459960937500e+01 1.306462955474853516e+01 -1.161813497543334961e+00 -1.261461019515991211e+00 -7.269823551177978516e-01 -1.170226931571960449e+00
2.893000000000000000e+03 3.513429260253906250e+01 1.315983867645263672e+01 -1.126152992248535156e+00 -1.209201693534851074e+00 -7.006064057350158691e-01 -1.129144430160522461e+00
2.894000000000000000e+03 2.870800971984863281e+01 2.043408966064453125e+01 7.059737294912338257e-02 8.915863931179046631e-02 4.792680218815803528e-02 8.055453747510910034e-02
2.895000000000000000e+03 2.026666641235351562e+01 1.227288246154785156e+01 1.066775545477867126e-01 1.517317891120910645e-01 7.752280682325363159e-02 1.274430751800537109e-01
2.896000000000000000e+03 4.859331512451171875e+01 2.658662796020507812e+01 -9.066593050956726074e-01 -6.867871284484863281e-01 -4.780339300632476807e-01 -8.152688741683959961e-01
2.897000000000000000e+03 4.887773895263671875e+01 2.752910995483398438e+01 -9.941238164901733398e-01 -7.985836267471313477e-01 -5.378122329711914062e-01 -8.917638659477233887e-01
2.898000000000000000e+03 2.848020744323730469e+01 2.023125076293945312e+01 7.154407352209091187e-02 9.033861011266708374e-02 4.856480658054351807e-02 8.189202845096588135e-02
2.899000000000000000e+03 4.349353027343750000e+01 2.210564613342285156e+01 -1.047749519348144531e+00 -9.397082924842834473e-01 -5.962373614311218262e-01 -1.001863598823547363e+00
2.900000000000000000e+03 2.202587127685546875e+01 1.415427112579345703e+01 1.003007292747497559e-01 1.355106234550476074e-01 7.074340432882308960e-02 1.126914918422698975e-01
2.901000000000000000e+03 2.102017021179199219e+01 1.352243328094482422e+01 9.843343496322631836e-02 1.429582089185714722e-01 7.241749018430709839e-02 1.167529821395874023e-01
2.902000000000000000e+03 2.779592132568359375e+01 1.995985221862792969e+01 7.119456678628921509e-02 9.470169246196746826e-02 4.976888000965118408e-02 8.313351124525070190e-02
2.903000000000000000e+03 2.800339126586914062e+01 1.975353813171386719e+01 7.395672053098678589e-02 9.327674657106399536e-02 5.017003789544105530e-02 8.431935310363769531e-02
2.904000000000000000e+03 2.736148452758789062e+01 1.969912719726562500e+01 7.108988612890243530e-02 9.733651578426361084e-02 5.052791908383369446e-02 8.407679200172424316e-02
2.905000000000000000e+03 2.716339874267578125e+01 1.926734161376953125e+01 7.448569685220718384e-02 9.909309446811676025e-02 5.207363516092300415e-02 8.615108579397201538e-02
2.906000000000000000e+03 2.283460426330566406e+01 1.544998931884765625e+01 8.752603083848953247e-02 1.279756426811218262e-01 6.465050578117370605e-02 1.045605540275573730e-01
2.907000000000000000e+03 3.849338531494140625e+01 1.735773277282714844e+01 -1.058516740798950195e+00 -1.165386319160461426e+00 -6.671708822250366211e-01 -1.098566532135009766e+00
2.908000000000000000e+03 3.862886047363281250e+01 3.206513214111328125e+01 5.922083929181098938e-02 5.912487581372261047e-02 3.550371527671813965e-02 5.389398708939552307e-02
2.909000000000000000e+03 3.897660064697265625e+01 3.174677467346191406e+01 5.737643316388130188e-02 5.936226993799209595e-02 3.502161055803298950e-02 5.382867157459259033e-02
2.910000000000000000e+03 1.787015533447265625e+01 1.014913082122802734e+01 1.117542982101440430e-01 1.969911903142929077e-01 9.262365102767944336e-02 1.431746631860733032e-01
2.911000000000000000e+03 1.645802879333496094e+01 9.265475273132324219e+00 1.049107611179351807e-01 2.333007752895355225e-01 1.014634594321250916e-01 1.475982367992401123e-01
2.912000000000000000e+03 3.514751052856445312e+01 2.766701316833496094e+01 5.181721970438957214e-02 7.364995777606964111e-02 3.764015436172485352e-02 6.073623895645141602e-02
2.913000000000000000e+03 1.942272186279296875e+01 1.206673049926757812e+01 1.009798049926757812e-01 1.606790572404861450e-01 7.849765568971633911e-02 1.267430484294891357e-01
2.914000000000000000e+03 2.607917404174804688e+01 1.843047904968261719e+01 7.790020853281021118e-02 1.047980785369873047e-01 5.480948835611343384e-02 8.906629681587219238e-02
2.915000000000000000e+03 5.019083786010742188e+01 2.896782875061035156e+01 -1.006085991859436035e+00 -7.524941563606262207e-01 -5.275740623474121094e-01 -8.640730381011962891e-01
2.916000000000000000e+03 4.461218261718750000e+01 2.314534187316894531e+01 -1.056374192237854004e+00 -9.287213683128356934e-01 -5.955286622047424316e-01 -9.713867902755737305e-01
2.917000000000000000e+03 3.634488677978515625e+01 1.450693130493164062e+01 -1.086282253265380859e+00 -1.200913429260253906e+00 -6.861587166786193848e-01 -1.125095129013061523e+00
2.918000000000000000e+03 5.044400024414062500e+01 2.922945594787597656e+01 -9.938386678695678711e-01 -7.344381213188171387e-01 -5.184830427169799805e-01 -8.519368767738342285e-01
2.919000000000000000e+03 5.143018722534179688e+01 2.960316085815429688e+01 -8.895040750503540039e-01 -5.001229643821716309e-01 -4.168881177902221680e-01 -7.103751301765441895e-01
2.920000000000000000e+03 3.660477828979492188e+01 1.478074264526367188e+01 -1.071143031120300293e+00 -1.197486042976379395e+00 -6.805887222290039062e-01 -1.120042681694030762e+00
2.921000000000000000e+03 3.686610031127929688e+01 1.506114768981933594e+01 -1.066345691680908203e+00 -1.194513559341430664e+00 -6.782577633857727051e-01 -1.111316561698913574e+00
2.922000000000000000e+03 3.712924575805664062e+01 1.534631347656250000e+01 -1.056344032287597656e+00 -1.187022447586059570e+00 -6.730099320411682129e-01 -1.103617906570434570e+00
2.923000000000000000e+03 4.032265853881835938e+01 3.342223358154296875e+01 6.389505416154861450e-02 5.295884236693382263e-02 3.505617007613182068e-02 5.064225196838378906e-02
2.924000000000000000e+03 4.069462585449218750e+01 3.447824478149414062e+01 6.507359445095062256e-02 4.805389791727066040e-02 3.393824771046638489e-02 4.981469362974166870e-02
2.925000000000000000e+03 2.375471496582031250e+01 1.738562774658203125e+01 7.284749299287796021e-02 1.159654483199119568e-01 5.664388090372085571e-02 9.356235712766647339e-02
2.926000000000000000e+03 3.306878662109375000e+01 1.072425746917724609e+01 -1.180124402046203613e+00 -1.182057738304138184e+00 -7.086546421051025391e-01 -1.109479069709777832e+00
2.927000000000000000e+03 3.314955902099609375e+01 1.131576347351074219e+01 -1.220327377319335938e+00 -1.223672509193420410e+00 -7.331999540328979492e-01 -1.165168166160583496e+00
2.928000000000000000e+03 3.796456909179687500e+01 1.679163551330566406e+01 -1.072461962699890137e+00 -1.214996337890625000e+00 -6.862374544143676758e-01 -1.112334370613098145e+00
2.929000000000000000e+03 4.103834152221679688e+01 2.041818046569824219e+01 -1.000657439231872559e+00 -1.025818586349487305e+00 -6.079428195953369141e-01 -1.098772644996643066e+00
2.930000000000000000e+03 4.558543777465820312e+01 2.448271942138671875e+01 -1.114972114562988281e+00 -9.369333386421203613e-01 -6.155716180801391602e-01 -9.983606338500976562e-01
2.931000000000000000e+03 4.914770126342773438e+01 2.783229064941406250e+01 -1.000706315040588379e+00 -7.950968146324157715e-01 -5.387409329414367676e-01 -8.864081501960754395e-01
2.932000000000000000e+03 4.993756103515625000e+01 2.869607543945312500e+01 -1.006240248680114746e+00 -7.665238976478576660e-01 -5.318292379379272461e-01 -8.707698583602905273e-01
2.933000000000000000e+03 4.489313888549804688e+01 2.340681838989257812e+01 -1.059749126434326172e+00 -9.191819429397583008e-01 -5.936793088912963867e-01 -9.603819251060485840e-01
2.934000000000000000e+03 3.822903442382812500e+01 1.707674598693847656e+01 -1.065635323524475098e+00 -1.190939784049987793e+00 -6.769725084304809570e-01 -1.105417490005493164e+00
2.935000000000000000e+03 4.009626770019531250e+01 1.867449569702148438e+01 -9.737837314605712891e-01 -9.862710833549499512e-01 -5.880164504051208496e-01 -1.073118448257446289e+00
2.936000000000000000e+03 3.359552764892578125e+01 2.559004592895507812e+01 5.211410298943519592e-02 7.641408592462539673e-02 3.855845704674720764e-02 6.357782334089279175e-02
2.937000000000000000e+03 4.937784194946289062e+01 2.755406951904296875e+01 -9.295325279235839844e-01 -6.905825734138488770e-01 -4.860345423221588135e-01 -8.051204085350036621e-01
2.938000000000000000e+03 4.968031311035156250e+01 2.841425323486328125e+01 -1.008099555969238281e+00 -7.781730294227600098e-01 -5.358817577362060547e-01 -8.738017082214355469e-01
2.939000000000000000e+03 3.409654235839843750e+01 2.605023574829101562e+01 5.291373282670974731e-02 7.614038884639739990e-02 3.871623799204826355e-02 6.294975429773330688e-02
2.940000000000000000e+03 2.684153556823730469e+01 1.918600463867187500e+01 7.389798760414123535e-02 1.005019247531890869e-01 5.231997370719909668e-02 8.613611012697219849e-02
2.941000000000000000e+03 5.173148727416992188e+01 2.978210449218750000e+01 -8.707867264747619629e-01 -4.326971471309661865e-01 -3.910451531410217285e-01 -6.794210672378540039e-01
2.942000000000000000e+03 6.695358276367187500e+01 3.499033737182617188e+01 5.698916912078857422e+00 1.477856159210205078e+01 6.143243312835693359e+00 2.185251235961914062e+00
2.943000000000000000e+03 6.691169738769531250e+01 3.421659851074218750e+01 7.462586879730224609e+00 1.443032932281494141e+01 6.567874908447265625e+00 6.378843188285827637e-01
2.944000000000000000e+03 4.321870040893554688e+01 2.185883712768554688e+01 -1.044422388076782227e+00 -9.425891041755676270e-01 -5.961034297943115234e-01 -1.005242109298706055e+00
2.945000000000000000e+03 2.224065208435058594e+01 1.446189689636230469e+01 9.702914953231811523e-02 1.336149424314498901e-01 6.919322907924652100e-02 1.107467785477638245e-01
2.946000000000000000e+03 2.169822502136230469e+01 1.434748744964599609e+01 9.371793270111083984e-02 1.362656801939010620e-01 6.899508088827133179e-02 1.105040088295936584e-01
2.947000000000000000e+03 3.138994979858398438e+01 2.427521324157714844e+01 5.156430229544639587e-02 7.881153374910354614e-02 3.911275044083595276e-02 6.775548309087753296e-02
2.948000000000000000e+03 2.570521354675292969e+01 1.785520744323730469e+01 8.266092836856842041e-02 1.065173596143722534e-01 5.675348266959190369e-02 9.233651310205459595e-02
2.949000000000000000e+03 3.991514968872070312e+01 3.460259246826171875e+01 6.975773721933364868e-02 5.232569202780723572e-02 3.662502765655517578e-02 4.623708128929138184e-02
2.950000000000000000e+03 3.739624023437500000e+01 1.563449287414550781e+01 -1.052443027496337891e+00 -1.180858612060546875e+00 -6.699905395507812500e-01 -1.092434644699096680e+00
2.951000000000000000e+03 2.052029418945312500e+01 1.302624702453613281e+01 9.950010478496551514e-02 1.482570320367813110e-01 7.432714104652404785e-02 1.200644820928573608e-01
2.952000000000000000e+03 2.244509696960449219e+01 1.478130817413330078e+01 9.428106993436813354e-02 1.321207582950592041e-01 6.792055070400238037e-02 1.081407442688941956e-01
2.953000000000000000e+03 3.065414237976074219e+01 2.340019798278808594e+01 5.315824598073959351e-02 8.159584552049636841e-02 4.042622819542884827e-02 7.102557271718978882e-02
2.954000000000000000e+03 4.149389266967773438e+01 3.501455307006835938e+01 7.391326874494552612e-02 4.188219085335731506e-02 3.473863750696182251e-02 4.817257821559906006e-02
2.955000000000000000e+03 5.232789611816406250e+01 3.021460342407226562e+01 -8.537743687629699707e-01 -2.943013906478881836e-01 -3.444227278232574463e-01 -6.366030573844909668e-01
2.956000000000000000e+03 2.677397727966308594e+01 1.960572624206542969e+01 6.896606087684631348e-02 1.004218086600303650e-01 5.081636086106300354e-02 8.376015722751617432e-02
2.957000000000000000e+03 2.591317749023437500e+01 1.812658691406250000e+01 8.016031235456466675e-02 1.056973189115524292e-01 5.575729161500930786e-02 9.085386991500854492e-02
2.958000000000000000e+03 2.997960281372070312e+01 2.274661827087402344e+01 5.491456016898155212e-02 8.466421067714691162e-02 4.187363013625144958e-02 7.238318026065826416e-02
2.959000000000000000e+03 2.950902557373046875e+01 2.159624481201171875e+01 6.318397074937820435e-02 8.596082031726837158e-02 4.474343731999397278e-02 7.519998401403427124e-02
2.960000000000000000e+03 5.473931884765625000e+01 3.105576705932617188e+01 -6.685441732406616211e-01 2.919348776340484619e-01 -1.129827946424484253e-01 -4.994401335716247559e-01
2.961000000000000000e+03 3.995827484130859375e+01 1.801366233825683594e+01 -9.677278399467468262e-01 -9.556980133056640625e-01 -5.770277380943298340e-01 -1.032813906669616699e+00
2.962000000000000000e+03 3.766832351684570312e+01 1.592354679107666016e+01 -1.045284867286682129e+00 -1.167490482330322266e+00 -6.638326048851013184e-01 -1.083937048912048340e+00
2.963000000000000000e+03 3.794449996948242188e+01 1.621139526367187500e+01 -1.041705012321472168e+00 -1.152724504470825195e+00 -6.583288311958312988e-01 -1.071700692176818848e+00
2.964000000000000000e+03 3.179261779785156250e+01 8.950821876525878906e+00 -1.142809391021728516e+00 -1.156416177749633789e+00 -6.897676587104797363e-01 -1.044361114501953125e+00
2.965000000000000000e+03 3.230833816528320312e+01 1.046274375915527344e+01 -1.224066138267517090e+00 -1.230776906013488770e+00 -7.364529371261596680e-01 -1.147373795509338379e+00
2.966000000000000000e+03 4.183084869384765625e+01 2.041342163085937500e+01 -9.589394330978393555e-01 -9.579156637191772461e-01 -5.750565528869628906e-01 -1.025819063186645508e+00
2.967000000000000000e+03 4.213842773437500000e+01 2.074607276916503906e+01 -9.793409109115600586e-01 -9.564195275306701660e-01 -5.807281136512756348e-01 -1.014654755592346191e+00
2.968000000000000000e+03 4.377083969116210938e+01 2.235687255859375000e+01 -1.050366878509521484e+00 -9.377745389938354492e-01 -5.964424014091491699e-01 -9.971948266029357910e-01
2.969000000000000000e+03 3.929440307617187500e+01 1.756701469421386719e+01 -1.005523562431335449e+00 -1.029440760612487793e+00 -6.104893088340759277e-01 -1.047724485397338867e+00
2.970000000000000000e+03 3.607842636108398438e+01 1.371568965911865234e+01 -1.071413636207580566e+00 -1.146347999572753906e+00 -6.653285026550292969e-01 -1.084045410156250000e+00
2.971000000000000000e+03 1.740033149719238281e+01 1.036247539520263672e+01 1.006153374910354614e-01 2.013334780931472778e-01 9.058464318513870239e-02 1.353812068700790405e-01
2.972000000000000000e+03 1.598250675201416016e+01 8.159729003906250000e+00 1.162759065628051758e-01 2.699397802352905273e-01 1.158647090196609497e-01 1.685658842325210571e-01
2.973000000000000000e+03 3.036436080932617188e+01 5.148161888122558594e+00 -1.597618341445922852e+00 -8.507781028747558594e-01 -7.345189452171325684e-01 -8.338720798492431641e-01
2.974000000000000000e+03 3.352009201049804688e+01 1.150464630126953125e+01 -1.180953741073608398e+00 -1.206390261650085449e+00 -7.162032127380371094e-01 -1.156450271606445312e+00
2.975000000000000000e+03 3.613844680786132812e+01 3.000191879272460938e+01 5.021670088171958923e-02 7.037487626075744629e-02 3.617747128009796143e-02 5.451210960745811462e-02
2.976000000000000000e+03 1.557686519622802734e+01 7.834628105163574219e+00 1.125551164150238037e-01 2.959943711757659912e-01 1.225648522377014160e-01 1.658026576042175293e-01
2.977000000000000000e+03 1.523678588867187500e+01 7.461155414581298828e+00 1.122152805328369141e-01 3.248762786388397217e-01 1.311274617910385132e-01 1.669907122850418091e-01
2.978000000000000000e+03 2.548120117187500000e+01 1.761190605163574219e+01 8.360815048217773438e-02 1.074076592922210693e-01 5.730474367737770081e-02 9.412489086389541626e-02
2.979000000000000000e+03 2.321141624450683594e+01 1.615627670288085938e+01 8.168134093284606934e-02 1.231772899627685547e-01 6.145758926868438721e-02 1.010385304689407349e-01
2.980000000000000000e+03 3.451208114624023438e+01 2.728875160217285156e+01 5.012190341949462891e-02 7.486464083194732666e-02 3.749596327543258667e-02 6.107088178396224976e-02
2.981000000000000000e+03 3.573006057739257812e+01 2.780592727661132812e+01 5.355558171868324280e-02 7.381899654865264893e-02 3.821237385272979736e-02 6.143618747591972351e-02
2.982000000000000000e+03 4.517642211914062500e+01 2.366371917724609375e+01 -1.060684919357299805e+00 -9.038568139076232910e-01 -5.893625020980834961e-01 -9.502536058425903320e-01
2.983000000000000000e+03 4.546534347534179688e+01 2.391551208496093750e+01 -1.059540271759033203e+00 -8.825716376304626465e-01 -5.826335549354553223e-01 -9.401910305023193359e-01
2.984000000000000000e+03 2.970420455932617188e+01 2.241776847839355469e+01 5.678240954875946045e-02 8.583993464708328247e-02 4.278670623898506165e-02 7.290110737085342407e-02
2.985000000000000000e+03 3.237290191650390625e+01 2.505796051025390625e+01 5.139544978737831116e-02 7.727037370204925537e-02 3.859974816441535950e-02 6.509445607662200928e-02
2.986000000000000000e+03 3.170299911499023438e+01 2.477974891662597656e+01 5.054634064435958862e-02 7.848650217056274414e-02 3.870985284447669983e-02 6.638664752244949341e-02
2.987000000000000000e+03 5.263532638549804688e+01 3.044809150695800781e+01 -8.415753245353698730e-01 -2.055564522743225098e-01 -3.141395151615142822e-01 -6.151469945907592773e-01
2.988000000000000000e+03 5.284107208251953125e+01 2.970893859863281250e+01 -7.340715527534484863e-01 -5.422656610608100891e-02 -2.364894300699234009e-01 -5.036714673042297363e-01
2.989000000000000000e+03 2.257113075256347656e+01 1.601911163330078125e+01 7.869608700275421143e-02 1.270956993103027344e-01 6.173753738403320312e-02 9.952110797166824341e-02
2.990000000000000000e+03 2.240743446350097656e+01 1.565432262420654297e+01 8.121355623006820679e-02 1.291889846324920654e-01 6.312076002359390259e-02 1.017613857984542847e-01
2.991000000000000000e+03 2.026337623596191406e+01 1.278106975555419922e+01 9.962124377489089966e-02 1.500514149665832520e-01 7.490179687738418579e-02 1.223288625478744507e-01
2.992000000000000000e+03 1.999751472473144531e+01 1.253734493255615234e+01 1.006724610924720764e-01 1.537161618471145630e-01 7.631658762693405151e-02 1.231792196631431580e-01
2.993000000000000000e+03 4.638674545288085938e+01 2.464124488830566406e+01 -1.019489765167236328e+00 -7.971611618995666504e-01 -5.449953079223632812e-01 -9.107733964920043945e-01
2.994000000000000000e+03 5.371149444580078125e+01 3.116734886169433594e+01 -8.126913309097290039e-01 5.900067090988159180e-02 -2.261072099208831787e-01 -5.900928378105163574e-01
2.995000000000000000e+03 6.601557159423828125e+01 3.665103149414062500e+01 -2.127138674259185791e-01 1.617782974243164062e+01 4.789535045623779297e+00 5.265079140663146973e-01
2.996000000000000000e+03 3.251174163818359375e+01 1.023029136657714844e+01 -1.193748116493225098e+00 -1.191340327262878418e+00 -7.155265212059020996e-01 -1.105427503585815430e+00
2.997000000000000000e+03 3.231922531127929688e+01 8.810670852661132812e+00 -1.084158182144165039e+00 -1.097381830215454102e+00 -6.544620394706726074e-01 -1.012900829315185547e+00
2.998000000000000000e+03 3.538400650024414062e+01 2.905323410034179688e+01 5.163970217108726501e-02 7.255596667528152466e-02 3.725869953632354736e-02 5.724794045090675354e-02
2.999000000000000000e+03 3.557580184936523438e+01 2.862945365905761719e+01 5.242200568318367004e-02 7.153660804033279419e-02 3.718758374452590942e-02 5.742720514535903931e-02
3.000000000000000000e+03 1.722020721435546875e+01 9.951474189758300781e+00 1.076523065567016602e-01 2.082853615283966064e-01 9.478130191564559937e-02 1.418457478284835815e-01
3.001000000000000000e+03 3.002090263366699219e+01 5.080901622772216797e+00 -1.721531033515930176e+00 -9.169250130653381348e-01 -7.915368080139160156e-01 -8.616033792495727539e-01
3.002000000000000000e+03 1.687747764587402344e+01 9.610951423645019531e+00 1.070618927478790283e-01 2.186333090066909790e-01 9.770856052637100220e-02 1.446357369422912598e-01
3.003000000000000000e+03 1.332043457031250000e+01 6.011360645294189453e+00 8.633717894554138184e-02 5.256848335266113281e-01 1.836065948009490967e-01 3.660969436168670654e-02
3.004000000000000000e+03 1.806710815429687500e+01 1.095266056060791016e+01 9.955798089504241943e-02 1.855540126562118530e-01 8.553359657526016235e-02 1.349062174558639526e-01
3.005000000000000000e+03 1.770890998840332031e+01 1.044745635986328125e+01 1.028992235660552979e-01 1.953764557838439941e-01 8.948270231485366821e-02 1.387365609407424927e-01
3.006000000000000000e+03 6.686231231689453125e+01 3.371504974365234375e+01 7.440682411193847656e+00 1.445526790618896484e+01 6.568785190582275391e+00 -6.459275484085083008e-01
3.007000000000000000e+03 1.487863159179687500e+01 7.454614639282226562e+00 1.030703634023666382e-01 3.396387696266174316e-01 1.328127384185791016e-01 1.512884944677352905e-01
3.008000000000000000e+03 2.385735893249511719e+01 9.969081282615661621e-01 -1.932248473167419434e+00 -1.831634193658828735e-01 -6.346235871315002441e-01 -9.615765810012817383e-01
3.009000000000000000e+03 1.414567852020263672e+01 6.676259040832519531e+00 9.648015350103378296e-02 4.226846992969512939e-01 1.557494550943374634e-01 1.325645297765731812e-01
3.010000000000000000e+03 1.270760059356689453e+01 4.101164340972900391e+00 3.189214169979095459e-01 7.310391664505004883e-01 3.149881660938262939e-01 -2.687571644783020020e-01
3.011000000000000000e+03 1.277060794830322266e+01 5.112449645996093750e+00 1.490794420242309570e-01 5.978919863700866699e-01 2.240914255380630493e-01 -1.067197844386100769e-01
3.012000000000000000e+03 5.936221313476562500e+01 3.099014663696289062e+01 6.619009375572204590e-01 1.080438494682312012e+00 5.227017998695373535e-01 8.634005784988403320e-01
3.013000000000000000e+03 6.506708526611328125e+01 3.748733520507812500e+01 -1.277260303497314453e+00 1.454465770721435547e+01 3.980219125747680664e+00 -1.825751662254333496e+00
3.014000000000000000e+03 1.302491569519042969e+01 5.447546482086181641e+00 1.110593155026435852e-01 6.065289378166198730e-01 2.152764797210693359e-01 -3.872389718890190125e-02
3.015000000000000000e+03 1.071463584899902344e+01 4.636070728302001953e+00 3.362282216548919678e-01 -9.273174218833446503e-03 9.808651357889175415e-02 -1.006383821368217468e-01
3.016000000000000000e+03 2.751334381103515625e+01 -1.304510712623596191e+00 2.828117012977600098e-01 -2.846066951751708984e-01 -5.385023541748523712e-04 -8.476258814334869385e-02
3.017000000000000000e+03 2.523162651062011719e+01 2.274952173233032227e+00 -2.384454727172851562e+00 -4.915962815284729004e-01 -8.628153204917907715e-01 -9.540912508964538574e-01
3.018000000000000000e+03 3.805599212646484375e+01 3.079390335083007812e+01 5.612678825855255127e-02 6.336013972759246826e-02 3.584607690572738647e-02 5.593567714095115662e-02
3.019000000000000000e+03 3.586248779296875000e+01 3.059707260131835938e+01 5.139764398336410522e-02 6.952826678752899170e-02 3.627777472138404846e-02 5.295365676283836365e-02
3.020000000000000000e+03 3.275294113159179688e+01 6.316997528076171875e+00 -1.069414854049682617e+00 -7.628180384635925293e-01 -5.496698617935180664e-01 -7.937634587287902832e-01
3.021000000000000000e+03 3.239767074584960938e+01 5.943587779998779297e+00 -1.140551924705505371e+00 -7.486563324928283691e-01 -5.667624473571777344e-01 -7.780288457870483398e-01
3.022000000000000000e+03 3.908486938476562500e+01 3.111524772644042969e+01 5.819686874747276306e-02 5.876777321100234985e-02 3.508939221501350403e-02 5.583540722727775574e-02
3.023000000000000000e+03 3.836935043334960938e+01 3.172928047180175781e+01 5.665078759193420410e-02 6.036133691668510437e-02 3.510363772511482239e-02 5.278987064957618713e-02
3.024000000000000000e+03 5.982645034790039062e+01 3.089717864990234375e+01 9.006682634353637695e-01 1.355881094932556152e+00 6.769648194313049316e-01 1.216103911399841309e+00
3.025000000000000000e+03 1.414595794677734375e+01 5.837333202362060547e+00 1.069437265396118164e-01 5.309931039810180664e-01 1.913810521364212036e-01 1.742778122425079346e-01
3.026000000000000000e+03 5.627919387817382812e+01 3.074823570251464844e+01 -2.811125218868255615e-01 5.834025740623474121e-01 9.068701416254043579e-02 -2.060568332672119141e-01
3.027000000000000000e+03 5.645654296875000000e+01 3.025402450561523438e+01 -1.243258938193321228e-01 7.100197672843933105e-01 1.757081598043441772e-01 -4.462002217769622803e-02
3.028000000000000000e+03 5.356974029541015625e+01 3.169228172302246094e+01 -8.842802047729492188e-01 -2.079799212515354156e-02 -2.715234458446502686e-01 -6.448411345481872559e-01
3.029000000000000000e+03 6.536151123046875000e+01 3.710794448852539062e+01 -1.440834879875183105e+00 1.612859725952148438e+01 4.406328678131103516e+00 -1.592986822128295898e+00
3.030000000000000000e+03 5.460111618041992188e+01 3.153063964843750000e+01 -7.779464125633239746e-01 2.461601197719573975e-01 -1.595358848571777344e-01 -5.662934184074401855e-01
3.031000000000000000e+03 5.527073287963867188e+01 3.075285530090332031e+01 -5.105894207954406738e-01 4.448155462741851807e-01 -1.973216049373149872e-02 -3.681887984275817871e-01
3.032000000000000000e+03 2.598134613037109375e+01 -4.280772805213928223e-01 -1.210043728351593018e-01 -1.745649129152297974e-01 -8.867079019546508789e-02 -2.165657132863998413e-01
3.033000000000000000e+03 3.019820785522460938e+01 2.377754020690917969e+01 5.100489035248756409e-02 8.319482952356338501e-02 4.025991633534431458e-02 6.929851323366165161e-02
3.034000000000000000e+03 3.064467430114746094e+01 2.271176719665527344e+01 5.637388303875923157e-02 8.144270628690719604e-02 4.134497791528701782e-02 7.235057651996612549e-02
3.035000000000000000e+03 3.925013351440429688e+01 3.204400253295898438e+01 6.043095141649246216e-02 5.588351562619209290e-02 3.489433974027633667e-02 5.365741625428199768e-02
3.036000000000000000e+03 3.904779815673828125e+01 3.466776657104492188e+01 6.013740226626396179e-02 5.434511601924896240e-02 3.434475511312484741e-02 4.413693770766258240e-02
3.037000000000000000e+03 5.411921977996826172e+00 7.155591011047363281e+00 7.470190525054931641e-02 -1.155711412429809570e-01 -1.226077135652303696e-02 6.382534652948379517e-02
3.038000000000000000e+03 3.953223037719726562e+01 3.182806777954101562e+01 5.676410719752311707e-02 5.800443515181541443e-02 3.443056344985961914e-02 5.502992495894432068e-02
3.039000000000000000e+03 3.941571044921875000e+01 3.266238021850585938e+01 5.896269902586936951e-02 5.591277033090591431e-02 3.446264192461967468e-02 5.107152834534645081e-02
3.040000000000000000e+03 4.336424827575683594e+00 6.524225234985351562e+00 4.973641037940979004e-02 -1.217181608080863953e-01 -2.159452438354492188e-02 7.974983751773834229e-02
3.041000000000000000e+03 5.630217075347900391e+00 4.965445995330810547e+00 4.736299812793731689e-02 -1.185281872749328613e-01 -2.134955860674381256e-02 1.240999177098274231e-01
3.042000000000000000e+03 6.269736289978027344e+00 5.818124294281005859e+00 9.080475568771362305e-02 -1.257016509771347046e-01 -1.046906970441341400e-02 9.471445530652999878e-02
3.043000000000000000e+03 5.836010360717773438e+01 3.060807037353515625e+01 3.717285990715026855e-01 9.671776294708251953e-01 4.016718566417694092e-01 4.837781190872192383e-01
3.044000000000000000e+03 4.991429328918457031e+00 5.700067520141601562e+00 4.573944956064224243e-02 -1.179644092917442322e-01 -2.166748791933059692e-02 1.007342040538787842e-01
3.045000000000000000e+03 3.132883834838867188e+01 2.475710487365722656e+01 5.072830244898796082e-02 7.971302419900894165e-02 3.913239762187004089e-02 6.674316525459289551e-02
3.046000000000000000e+03 7.064994335174560547e+00 5.661855220794677734e+00 1.190000548958778381e-01 -1.335048824548721313e-01 -4.351448267698287964e-03 9.301422536373138428e-02
3.047000000000000000e+03 3.230462265014648438e+01 6.631781578063964844e+00 -1.097464084625244141e+00 -8.617116808891296387e-01 -5.877526998519897461e-01 -8.763604760169982910e-01
3.048000000000000000e+03 1.003818511962890625e+01 4.447242259979248047e+00 3.158174157142639160e-01 -1.263366043567657471e-01 5.684424564242362976e-02 -1.194064598530530930e-02
3.049000000000000000e+03 9.295967102050781250e+00 5.164738178253173828e+00 2.467353045940399170e-01 -1.124096363782882690e-01 4.029769822955131531e-02 5.619900301098823547e-03
3.050000000000000000e+03 7.175086975097656250e+00 6.459430694580078125e+00 1.301244199275970459e-01 -1.104765310883522034e-01 5.894368514418601990e-03 5.453521013259887695e-02
3.051000000000000000e+03 4.405701446533203125e+01 3.658813095092773438e+01 1.065618023276329041e-01 2.581223472952842712e-02 3.971220925450325012e-02 4.495413601398468018e-02
3.052000000000000000e+03 4.274935150146484375e+01 3.533981323242187500e+01 8.126031607389450073e-02 3.805848211050033569e-02 3.579564020037651062e-02 4.691055417060852051e-02
3.053000000000000000e+03 5.374269962310791016e+00 -6.897804737091064453e+00 -1.191193312406539917e-01 -2.068110108375549316e-01 -9.777910262346267700e-02 -2.677177190780639648e-01
3.054000000000000000e+03 2.630850028991699219e+01 -1.173381090164184570e+00 2.721633911132812500e-01 -1.136973127722740173e-01 4.753982648253440857e-02 -2.360991835594177246e-01
3.055000000000000000e+03 3.644676208496093750e+01 3.072887420654296875e+01 5.032883957028388977e-02 6.816103309392929077e-02 3.554696217179298401e-02 5.340376496315002441e-02
3.056000000000000000e+03 8.929509162902832031e+00 -7.017959117889404297e+00 -2.325146496295928955e-01 -2.708786427974700928e-01 -1.510179936885833740e-01 -4.744532704353332520e-01
3.057000000000000000e+03 6.850250244140625000e+00 -5.631177425384521484e+00 -1.965223252773284912e-01 -1.608080267906188965e-01 -1.071991026401519775e-01 -2.937132716178894043e-01
3.058000000000000000e+03 3.216500854492187500e+01 8.313402175903320312e+00 -1.065824270248413086e+00 -1.095355868339538574e+00 -6.483540534973144531e-01 -1.010516881942749023e+00
3.059000000000000000e+03 3.221036148071289062e+01 1.015701007843017578e+01 -1.210638523101806641e+00 -1.196405768394470215e+00 -7.221132516860961914e-01 -1.133837461471557617e+00
3.060000000000000000e+03 1.217464733123779297e+01 4.315738201141357422e+00 3.401607275009155273e-01 4.322373569011688232e-01 2.317194193601608276e-01 -2.546322345733642578e-01
3.061000000000000000e+03 5.676203918457031250e+01 3.090562820434570312e+01 -2.128936052322387695e-01 5.978431701660156250e-01 1.154848709702491760e-01 -1.454851776361465454e-01
3.062000000000000000e+03 5.738384628295898438e+01 3.050617027282714844e+01 7.731214910745620728e-02 7.996290922164916992e-01 2.630823850631713867e-01 1.416404694318771362e-01
3.063000000000000000e+03 2.833148384094238281e+01 -2.638770818710327148e+00 6.250568628311157227e-01 -2.938990294933319092e-01 9.934734553098678589e-02 -1.891613453626632690e-01
3.064000000000000000e+03 7.075899124145507812e+00 -6.588445663452148438e+00 -1.910470426082611084e-01 -2.022990286350250244e-01 -1.180038228631019592e-01 -3.462988734245300293e-01
3.065000000000000000e+03 3.300768280029296875e+01 1.016614627838134766e+01 -1.144681811332702637e+00 -1.142789244651794434e+00 -6.862412691116333008e-01 -1.063690423965454102e+00
3.066000000000000000e+03 5.585136032104492188e+01 3.054445648193359375e+01 -3.374693989753723145e-01 5.468215942382812500e-01 6.280566006898880005e-02 -2.406756430864334106e-01
3.067000000000000000e+03 8.581516265869140625e+00 5.308023929595947266e+00 1.957657039165496826e-01 -1.349913626909255981e-01 1.823230274021625519e-02 5.634412541985511780e-02
3.068000000000000000e+03 2.371269798278808594e+01 -6.567336320877075195e-01 -1.646284610033035278e-01 3.850029408931732178e-01 6.611234694719314575e-02 -5.741021633148193359e-01
3.069000000000000000e+03 1.165419006347656250e+01 4.615655899047851562e+00 3.327077031135559082e-01 2.550272345542907715e-01 1.763204932212829590e-01 -2.134581655263900757e-01
3.070000000000000000e+03 1.176470756530761719e+01 6.553707122802734375e+00 1.352322846651077271e-01 2.828575074672698975e-01 1.254269480705261230e-01 -8.837973326444625854e-02
3.071000000000000000e+03 1.199432754516601562e+01 -5.854609012603759766e+00 -4.480868875980377197e-01 -3.441059291362762451e-01 -2.376578450202941895e-01 -6.441335082054138184e-01
3.072000000000000000e+03 9.826651573181152344e+00 -5.127533912658691406e+00 -3.777571320533752441e-01 -1.782974153757095337e-01 -1.668163686990737915e-01 -4.388979673385620117e-01
3.073000000000000000e+03 5.262255096435546875e+01 4.196966934204101562e+01 5.026090145111083984e-01 -4.994245469570159912e-01 9.553472045809030533e-04 1.229932010173797607e-01
3.074000000000000000e+03 3.008038902282714844e+01 -2.757632493972778320e+00 4.767604470252990723e-01 -4.225930571556091309e-01 1.625022292137145996e-02 -4.843405261635780334e-02
3.075000000000000000e+03 6.658889770507812500e+01 3.679300308227539062e+01 1.893836557865142822e-01 1.576314544677734375e+01 4.785758972167968750e+00 1.267155289649963379e+00
3.076000000000000000e+03 4.341283035278320312e+01 3.594664001464843750e+01 8.864322304725646973e-02 3.419001772999763489e-02 3.684997186064720154e-02 4.565003141760826111e-02
3.077000000000000000e+03 1.354437637329101562e+01 -6.097961425781250000e+00 -4.490127563476562500e-01 -5.210027098655700684e-01 -2.910046577453613281e-01 -7.626132965087890625e-01
3.078000000000000000e+03 1.273658370971679688e+01 -5.198581218719482422e+00 -5.683338046073913574e-01 -3.580742776393890381e-01 -2.779224514961242676e-01 -6.805684566497802734e-01
3.079000000000000000e+03 3.101365470886230469e+01 -4.079244136810302734e+00 5.881996154785156250e-01 -4.010437428951263428e-01 5.614676326513290405e-02 -8.009780943393707275e-02
3.080000000000000000e+03 4.707625961303710938e+01 4.176792907714843750e+01 1.196771115064620972e-01 1.277039572596549988e-02 3.973425179719924927e-02 9.257858619093894958e-03
3.081000000000000000e+03 1.442838573455810547e+01 -6.156583309173583984e+00 -3.772287070751190186e-01 -6.337619423866271973e-01 -3.032971918582916260e-01 -7.846592068672180176e-01
3.082000000000000000e+03 4.215585327148437500e+01 3.898712539672851562e+01 1.003362312912940979e-01 3.848145529627799988e-02 4.164530709385871887e-02 2.124835923314094543e-02
3.083000000000000000e+03 3.474378585815429688e+00 7.632978916168212891e+00 3.557777777314186096e-02 -1.299040615558624268e-01 -2.829788252711296082e-02 5.368578433990478516e-02
3.084000000000000000e+03 3.594586181640625000e+01 -9.911292076110839844e+00 3.656708598136901855e-01 -8.941310644149780273e-02 8.287733048200607300e-02 -7.262401282787322998e-02
3.085000000000000000e+03 3.593947982788085938e+01 -8.141410827636718750e+00 4.494726061820983887e-01 -1.226779893040657043e-01 9.803838282823562622e-02 -6.079648435115814209e-02
3.086000000000000000e+03 1.125656509399414062e+01 -5.072854042053222656e+00 -4.846105575561523438e-01 -2.321928888559341431e-01 -2.150410264730453491e-01 -5.431174039840698242e-01
3.087000000000000000e+03 4.029904174804687500e+01 -1.261756515502929688e+01 2.533417344093322754e-01 4.830182194709777832e-01 2.209079861640930176e-01 -3.533791378140449524e-02
3.088000000000000000e+03 3.886970520019531250e+01 -1.072200202941894531e+01 3.386215269565582275e-01 2.532115876674652100e-01 1.775499284267425537e-01 -4.280169680714607239e-02
3.089000000000000000e+03 3.673340606689453125e+01 -7.366354942321777344e+00 4.685660302639007568e-01 -6.522811949253082275e-02 1.210013777017593384e-01 -3.436619415879249573e-02
3.090000000000000000e+03 3.363626861572265625e+01 -6.893378734588623047e+00 5.542312860488891602e-01 -2.931971251964569092e-01 7.831025123596191406e-02 -1.004231646656990051e-01
3.091000000000000000e+03 2.043915748596191406e+01 -2.488913345336914062e+01 2.262230813503265381e-01 9.517294913530349731e-02 9.641880542039871216e-02 -3.191745281219482422e-01
3.092000000000000000e+03 4.936983871459960938e+01 4.118855285644531250e+01 1.100627258419990540e-01 -5.913214012980461121e-02 1.527917664498090744e-02 1.216945121996104717e-03
3.093000000000000000e+03 4.775963973999023438e+01 -2.539873695373535156e+01 -1.325224488973617554e-01 2.305238962173461914e+00 6.518149375915527344e-01 7.018807530403137207e-02
3.094000000000000000e+03 4.604182434082031250e+01 -2.365416908264160156e+01 -1.235138773918151855e-01 1.837247967720031738e+00 5.141202211380004883e-01 -9.891970083117485046e-03
3.095000000000000000e+03 1.528968715667724609e+01 -6.332459449768066406e+00 -3.667011857032775879e-01 -7.940819263458251953e-01 -3.482349514961242676e-01 -7.996132969856262207e-01
3.096000000000000000e+03 1.700049209594726562e+01 -1.565425968170166016e+01 2.482928186655044556e-01 -2.765836119651794434e-01 -8.487244136631488800e-03 -3.544028401374816895e-01
3.097000000000000000e+03 1.438654804229736328e+01 -8.016998291015625000e+00 -1.016966998577117920e-01 -6.277227401733398438e-01 -2.188258320093154907e-01 -6.966309547424316406e-01
3.098000000000000000e+03 2.280217361450195312e+01 -2.713071632385253906e+01 2.605613768100738525e-01 2.675909101963043213e-01 1.584456861019134521e-01 -3.390089273452758789e-01
3.099000000000000000e+03 4.523807525634765625e+01 -2.241349411010742188e+01 -8.355548977851867676e-02 1.587530970573425293e+00 4.511926472187042236e-01 -1.572484336793422699e-02
3.100000000000000000e+03 6.973986816406250000e+01 -2.608734321594238281e+01 2.795786596834659576e-02 6.446443080902099609e+00 1.942320346832275391e+00 2.683244943618774414e-01
3.101000000000000000e+03 7.138743591308593750e+01 -3.190914916992187500e+01 6.439273804426193237e-02 6.594092369079589844e+00 1.997545599937438965e+00 1.928777545690536499e-01
3.102000000000000000e+03 7.382222747802734375e+01 2.788345527648925781e+01 2.069413289427757263e-02 8.337368965148925781e+00 2.507419109344482422e+00 -1.590369224548339844e+00
3.103000000000000000e+03 7.360308074951171875e+01 2.901130294799804688e+01 2.902857959270477295e-01 8.377252578735351562e+00 2.600261688232421875e+00 -1.601558923721313477e+00
3.104000000000000000e+03 7.406962585449218750e+01 3.358266067504882812e+01 1.106764197349548340e+00 7.652455329895019531e+00 2.627765893936157227e+00 -5.715689063072204590e-01
3.105000000000000000e+03 8.453891754150390625e+00 3.292499542236328125e+01 -6.543499883264303207e-03 -3.096869401633739471e-02 -1.125365775078535080e-02 -6.949545815587043762e-03
3.106000000000000000e+03 4.204943084716796875e+01 -1.965527725219726562e+01 -1.876083575189113617e-02 8.006395697593688965e-01 2.345636188983917236e-01 -1.949278824031352997e-02
3.107000000000000000e+03 4.340269851684570312e+01 -2.197000885009765625e+01 -7.100696116685867310e-02 1.106521487236022949e+00 3.106543719768524170e-01 -3.025988116860389709e-02
3.108000000000000000e+03 7.297647857666015625e+01 -2.287188529968261719e+01 6.637434940785169601e-03 7.075986385345458984e+00 2.124787092208862305e+00 2.207064479589462280e-01
3.109000000000000000e+03 7.401688385009765625e+01 2.555070114135742188e+01 -3.214736580848693848e-01 8.377618789672851562e+00 2.416843414306640625e+00 -1.419661045074462891e+00
3.110000000000000000e+03 7.373312377929687500e+01 1.940153312683105469e+01 -4.638420641422271729e-01 8.368439674377441406e+00 2.371379375457763672e+00 -6.639684438705444336e-01
3.111000000000000000e+03 7.387607574462890625e+01 2.066502189636230469e+01 -4.812182486057281494e-01 8.399639129638671875e+00 2.375526428222656250e+00 -8.163403868675231934e-01
3.112000000000000000e+03 7.357795715332031250e+01 1.227483654022216797e+01 -2.296600788831710815e-01 8.156212806701660156e+00 2.377965688705444336e+00 -8.812760561704635620e-02
3.113000000000000000e+03 7.351046752929687500e+01 1.348272514343261719e+01 -2.604569792747497559e-01 8.178952217102050781e+00 2.375548601150512695e+00 -1.582042425870895386e-01
3.114000000000000000e+03 6.713701248168945312e+00 3.549791717529296875e+01 -3.966167103499174118e-03 -5.051891505718231201e-02 -1.634552329778671265e-02 -6.483099423348903656e-03
3.115000000000000000e+03 7.305508422851562500e+01 -1.640468978881835938e+01 1.197646022774279118e-03 7.246961593627929688e+00 2.174447774887084961e+00 2.337760776281356812e-01
3.116000000000000000e+03 7.312564849853515625e+01 -1.772802162170410156e+01 5.674309562891721725e-03 7.230068683624267578e+00 2.170722723007202148e+00 2.257096469402313232e-01
3.117000000000000000e+03 7.321511077880859375e+01 -9.690422058105468750e+00 -7.812409603502601385e-05 7.453891277313232422e+00 2.236143827438354492e+00 2.360058128833770752e-01
3.118000000000000000e+03 7.315298461914062500e+01 -1.100192737579345703e+01 2.539521083235740662e-03 7.405046463012695312e+00 2.222275733947753906e+00 2.374965697526931763e-01
3.119000000000000000e+03 7.262005615234375000e+01 -1.966461062431335449e+00 -1.596613973379135132e-02 7.537387371063232422e+00 2.256426334381103516e+00 2.456269264221191406e-01
3.120000000000000000e+03 7.291222381591796875e+01 -3.300323486328125000e+00 -1.244068890810012817e-02 7.563545703887939453e+00 2.265331506729125977e+00 2.412021905183792114e-01
3.121000000000000000e+03 7.441724395751953125e+01 9.630025863647460938e+00 -1.266145110130310059e-01 8.263185501098632812e+00 2.440971374511718750e+00 1.353414356708526611e-02
3.122000000000000000e+03 7.099324798583984375e+01 2.468709945678710938e+00 -7.731264829635620117e-02 7.243591308593750000e+00 2.149883508682250977e+00 2.665043771266937256e-01
3.123000000000000000e+03 7.332888793945312500e+01 5.802919387817382812e+00 -9.083805233240127563e-02 7.915575981140136719e+00 2.347421407699584961e+00 1.499875336885452271e-01
3.124000000000000000e+03 7.451366424560546875e+01 6.918230533599853516e+00 -7.585585862398147583e-02 8.222237586975097656e+00 2.443914651870727539e+00 8.905452489852905273e-02
3.125000000000000000e+03 7.347456359863281250e+01 6.828262329101562500e+00 -9.721957147121429443e-02 8.007242202758789062e+00 2.373006582260131836e+00 1.188902184367179871e-01
3.126000000000000000e+03 7.308572387695312500e+01 -4.593069076538085938e+00 -7.887604646384716034e-03 7.568521022796630859e+00 2.268190145492553711e+00 2.402494549751281738e-01
3.127000000000000000e+03 7.267182159423828125e+01 3.244259357452392578e+00 -6.477622687816619873e-02 7.694881916046142578e+00 2.289031744003295898e+00 2.066384702920913696e-01
3.128000000000000000e+03 7.321049499511718750e+01 7.931374549865722656e+00 -1.287703961133956909e-01 7.962602138519287109e+00 2.350149393081665039e+00 9.159849584102630615e-02
3.129000000000000000e+03 7.320609283447265625e+01 9.860397338867187500e+00 -1.808564662933349609e-01 8.006593704223632812e+00 2.347721099853515625e+00 3.212732449173927307e-02
3.130000000000000000e+03 6.021892070770263672e+00 2.327856826782226562e+01 -4.982687067240476608e-03 -5.831740424036979675e-02 -1.899002678692340851e-02 -1.925879530608654022e-02
3.131000000000000000e+03 7.261906433105468750e+01 -2.689969635009765625e+01 3.114515729248523712e-02 6.927701950073242188e+00 2.087654113769531250e+00 2.112414836883544922e-01
3.132000000000000000e+03 7.507876586914062500e+01 2.321922492980957031e+01 -3.268564641475677490e-01 8.218641281127929688e+00 2.367535352706909180e+00 -1.102200865745544434e+00
3.133000000000000000e+03 7.397190093994140625e+01 2.191126441955566406e+01 -4.774479568004608154e-01 8.413143157958984375e+00 2.380708456039428711e+00 -9.714489579200744629e-01
3.134000000000000000e+03 7.319692993164062500e+01 1.679198837280273438e+01 -4.185105264186859131e-01 8.236903190612792969e+00 2.345517635345458984e+00 -3.835693597793579102e-01
3.135000000000000000e+03 7.444561767578125000e+01 1.653763580322265625e+01 -3.065775930881500244e-01 8.362910270690917969e+00 2.416899681091308594e+00 -3.926580250263214111e-01
3.136000000000000000e+03 1.538471603393554688e+01 -7.970806121826171875e+00 -8.364495635032653809e-02 -7.473692297935485840e-01 -2.493042647838592529e-01 -6.740645766258239746e-01
3.137000000000000000e+03 1.445357227325439453e+01 -8.986089706420898438e+00 -2.873658575117588043e-02 -6.498225331306457520e-01 -2.035677284002304077e-01 -6.549075245857238770e-01
3.138000000000000000e+03 6.228914737701416016e+00 -1.300693798065185547e+01 1.362623181194067001e-02 -5.277675390243530273e-01 -1.542423963546752930e-01 -3.896017670631408691e-01
3.139000000000000000e+03 8.071677207946777344e+00 -1.787333869934082031e+01 8.975423872470855713e-02 -6.438968777656555176e-01 -1.662427932024002075e-01 -3.721763491630554199e-01
3.140000000000000000e+03 6.838203430175781250e+00 -1.813282203674316406e+01 7.073777914047241211e-02 -6.951996684074401855e-01 -1.873385608196258545e-01 -3.441126942634582520e-01
3.141000000000000000e+03 6.655552864074707031e+00 -2.809175300598144531e+01 6.124257668852806091e-02 -9.290446043014526367e-01 -2.603406012058258057e-01 -1.855307817459106445e-01
3.142000000000000000e+03 5.842473030090332031e+00 -9.201274871826171875e+00 -7.651423662900924683e-02 -3.346457183361053467e-01 -1.233479902148246765e-01 -3.540170192718505859e-01
3.143000000000000000e+03 4.754705905914306641e+00 -9.305745124816894531e+00 -5.016953498125076294e-02 -3.368395864963531494e-01 -1.161027401685714722e-01 -2.974955141544342041e-01
3.144000000000000000e+03 6.719169616699218750e+01 3.437652969360351562e+01 6.529039382934570312e+00 1.383796596527099609e+01 6.110101699829101562e+00 8.619548678398132324e-01
3.145000000000000000e+03 7.268619537353515625e+01 2.866013145446777344e+01 1.974882334470748901e-01 8.862347602844238281e+00 2.717950582504272461e+00 -1.668689846992492676e+00
3.146000000000000000e+03 3.177518463134765625e+01 -4.682181358337402344e+00 6.145076751708984375e-01 -3.835424780845642090e-01 6.928956508636474609e-02 -7.819175720214843750e-02
3.147000000000000000e+03 6.355532646179199219e+00 1.676030540466308594e+01 3.134011989459395409e-03 -4.630895331501960754e-02 -1.295248232781887054e-02 -2.281445451080799103e-02
3.148000000000000000e+03 6.354382514953613281e+00 1.826618766784667969e+01 -2.675467694643884897e-04 -4.705437645316123962e-02 -1.419657748192548752e-02 -2.380193583667278290e-02
3.149000000000000000e+03 6.263291835784912109e+00 1.527796936035156250e+01 1.008116174489259720e-02 -4.864079132676124573e-02 -1.156788878142833710e-02 -2.215170487761497498e-02
3.150000000000000000e+03 4.077710342407226562e+01 -1.405210018157958984e+01 1.870006173849105835e-01 5.686451792716979980e-01 2.266937345266342163e-01 -4.312450438737869263e-02
3.151000000000000000e+03 4.077063751220703125e+01 -1.724871253967285156e+01 5.408430844545364380e-02 5.636230707168579102e-01 1.853122115135192871e-01 -1.748962700366973877e-02
3.152000000000000000e+03 5.876598358154296875e+00 2.095386505126953125e+01 -3.518183948472142220e-03 -6.032468378543853760e-02 -1.915286108851432800e-02 -2.161405608057975769e-02
3.153000000000000000e+03 1.001944923400878906e+01 -3.232157897949218750e+01 9.335256367921829224e-02 -7.262705564498901367e-01 -1.898753941059112549e-01 -1.606978774070739746e-01
3.154000000000000000e+03 8.589904785156250000e+00 -3.038512420654296875e+01 7.749722152948379517e-02 -8.152678608894348145e-01 -2.213311791419982910e-01 -1.750281453132629395e-01
3.155000000000000000e+03 7.309638977050781250e+00 2.705914497375488281e+01 -6.969312205910682678e-03 -4.070098325610160828e-02 -1.430108863860368729e-02 -1.421840116381645203e-02
3.156000000000000000e+03 5.839089393615722656e+00 2.211693191528320312e+01 -5.588608793914318085e-03 -6.128897145390510559e-02 -2.006327360868453979e-02 -2.050865814089775085e-02
3.157000000000000000e+03 7.311754608154296875e+01 3.280219650268554688e+01 1.367176890373229980e+00 8.246380805969238281e+00 2.884067296981811523e+00 -9.080545902252197266e-01
3.158000000000000000e+03 6.762061119079589844e+00 1.110565185546875000e+01 5.271022021770477295e-02 -4.374690353870391846e-02 2.688995096832513809e-03 -1.111481897532939911e-02
3.159000000000000000e+03 6.074894428253173828e+00 1.384951591491699219e+01 1.868225447833538055e-02 -5.411406606435775757e-02 -1.062954310327768326e-02 -1.837454177439212799e-02
3.160000000000000000e+03 6.253914356231689453e+00 8.997794151306152344e+00 7.684327661991119385e-02 -8.010526746511459351e-02 -9.785963920876383781e-04 1.534730289131402969e-02
3.161000000000000000e+03 5.808188915252685547e+00 1.002719211578369141e+01 6.010629981756210327e-02 -8.211744576692581177e-02 -6.603343877941370010e-03 6.932880729436874390e-03
3.162000000000000000e+03 7.393455028533935547e+00 7.187448024749755859e+00 1.278530359268188477e-01 -9.150455147027969360e-02 1.090454589575529099e-02 3.121130168437957764e-02
3.163000000000000000e+03 5.083247661590576172e+00 -1.312427139282226562e+01 6.632735487073659897e-03 -5.314062237739562988e-01 -1.574320346117019653e-01 -3.331573009490966797e-01
3.164000000000000000e+03 6.012083053588867188e+00 -1.048149108886718750e+01 -4.199591651558876038e-02 -4.088079035282135010e-01 -1.352411508560180664e-01 -3.814994394779205322e-01
3.165000000000000000e+03 4.995629119873046875e+01 4.014259719848632812e+01 2.002000808715820312e-01 -6.514040380716323853e-02 4.051790386438369751e-02 6.790400296449661255e-02
3.166000000000000000e+03 4.250498580932617188e+01 -1.781385612487792969e+01 4.402285441756248474e-02 9.140329360961914062e-01 2.874167561531066895e-01 -2.895226329565048218e-02
3.167000000000000000e+03 1.881500816345214844e+01 -2.068504333496093750e+01 2.225809991359710693e-01 -5.068749189376831055e-02 5.156804993748664856e-02 -3.317075967788696289e-01
3.168000000000000000e+03 4.700019454956054688e+01 -2.686393165588378906e+01 -1.428239792585372925e-01 2.177774429321289062e+00 6.104851365089416504e-01 3.397105634212493896e-02
3.169000000000000000e+03 1.764394569396972656e+01 -1.791234970092773438e+01 2.409612834453582764e-01 -1.754544824361801147e-01 1.965204253792762756e-02 -3.249207437038421631e-01
3.170000000000000000e+03 3.773455429077148438e+01 -9.910492897033691406e+00 3.638336360454559326e-01 8.714719861745834351e-02 1.352942436933517456e-01 -5.483234301209449768e-02
3.171000000000000000e+03 7.345722198486328125e+01 3.654361724853515625e+01 7.957973480224609375e-01 8.307558059692382812e+00 2.731006622314453125e+00 2.713707387447357178e-01
3.172000000000000000e+03 4.448569869995117188e+01 -2.125412178039550781e+01 -6.266916543245315552e-02 1.371468067169189453e+00 3.926396667957305908e-01 -3.295041993260383606e-02
3.173000000000000000e+03 4.379709625244140625e+01 -2.011693000793457031e+01 -2.968318015336990356e-02 1.202385306358337402e+00 3.518106341361999512e-01 -2.838648855686187744e-02
3.174000000000000000e+03 4.313611221313476562e+01 4.160826492309570312e+01 9.959162771701812744e-02 3.873622417449951172e-02 4.149835556745529175e-02 -2.808184828609228134e-03
3.175000000000000000e+03 2.321019363403320312e+01 -3.138793563842773438e+01 3.002218306064605713e-01 2.353853434324264526e-01 1.606821566820144653e-01 -2.909362912178039551e-01
3.176000000000000000e+03 1.637438392639160156e+01 -1.469079685211181641e+01 2.457364797592163086e-01 -3.715071082115173340e-01 -3.773119300603866577e-02 -3.849316537380218506e-01
3.177000000000000000e+03 1.543715286254882812e+01 -1.412146568298339844e+01 2.115242183208465576e-01 -4.246048331260681152e-01 -6.392418593168258667e-02 -4.291870892047882080e-01
3.178000000000000000e+03 1.537171840667724609e+01 -1.128784465789794922e+01 1.804304569959640503e-01 -5.610991120338439941e-01 -1.142005920410156250e-01 -4.965915977954864502e-01
3.179000000000000000e+03 7.311550903320312500e+01 -2.156866264343261719e+01 4.340196959674358368e-03 7.137047767639160156e+00 2.142416238784790039e+00 2.241955101490020752e-01
3.180000000000000000e+03 7.298393249511718750e+01 -1.504701995849609375e+01 3.253238508477807045e-03 7.273651123046875000e+00 2.183071374893188477e+00 2.340167909860610962e-01
3.181000000000000000e+03 7.323880004882812500e+01 -8.397357940673828125e+00 1.315326812800776679e-06 7.496767997741699219e+00 2.249030828475952148e+00 2.383119016885757446e-01
3.182000000000000000e+03 7.366668701171875000e+01 1.432928919792175293e+00 -3.525402396917343140e-02 7.861051082611083984e+00 2.347739219665527344e+00 2.018877416849136353e-01
3.183000000000000000e+03 8.580965042114257812e+00 -2.872059822082519531e+01 8.690226823091506958e-02 -7.985581159591674805e-01 -2.134967595338821411e-01 -2.090990394353866577e-01
3.184000000000000000e+03 7.290678977966308594e+00 -2.901341056823730469e+01 5.964193120598793030e-02 -8.858551383018493652e-01 -2.478639632463455200e-01 -1.798111200332641602e-01
3.185000000000000000e+03 6.285174179077148438e+01 3.120605850219726562e+01 1.793714880943298340e+00 6.147497653961181641e+00 2.382363796234130859e+00 4.530533790588378906e+00
3.186000000000000000e+03 2.696413421630859375e+01 -7.360946536064147949e-01 1.558004412800073624e-02 -2.721024155616760254e-01 -7.695671170949935913e-02 -1.248828545212745667e-01
3.187000000000000000e+03 2.699495506286621094e+01 3.271122455596923828e+00 -2.146083593368530273e+00 -7.867506742477416992e-01 -8.798502683639526367e-01 -9.784700274467468262e-01
3.188000000000000000e+03 2.782210350036621094e+01 4.149975776672363281e+00 -2.134177923202514648e+00 -1.034654378890991211e+00 -9.506496787071228027e-01 -1.098754763603210449e+00
3.189000000000000000e+03 2.670640182495117188e+01 2.610767126083374023e+00 -1.942122340202331543e+00 -6.330565214157104492e-01 -7.725536823272705078e-01 -7.760581374168395996e-01
3.190000000000000000e+03 2.575705337524414062e+01 2.315310478210449219e+00 -2.158156394958496094e+00 -5.295552015304565430e-01 -8.063135147094726562e-01 -8.706139922142028809e-01
3.191000000000000000e+03 2.468376922607421875e+01 1.530349493026733398e+00 -2.103625297546386719e+00 -3.027755320072174072e-01 -7.219202518463134766e-01 -8.301724791526794434e-01
3.192000000000000000e+03 2.412452125549316406e+01 1.141585946083068848e+00 -1.917515397071838379e+00 -9.967432916164398193e-02 -6.051568984985351562e-01 -8.606573939323425293e-01
3.193000000000000000e+03 2.523929977416992188e+01 1.394969105720520020e+00 -1.733182311058044434e+00 -3.318545222282409668e-01 -6.195110678672790527e-01 -6.353316307067871094e-01
3.194000000000000000e+03 6.357295227050781250e+01 3.163013076782226562e+01 1.687107682228088379e+00 9.165630340576171875e+00 3.255821466445922852e+00 5.451909065246582031e+00
3.195000000000000000e+03 6.472761535644531250e+01 3.149942016601562500e+01 1.561226546764373779e-01 1.478166770935058594e+01 4.481337070465087891e+00 3.635193347930908203e+00
3.196000000000000000e+03 6.390140914916992188e+01 3.148188400268554688e+01 1.088249087333679199e+00 1.083184719085693359e+01 3.576029062271118164e+00 5.157220363616943359e+00
3.197000000000000000e+03 6.747753906250000000e+01 3.476854324340820312e+01 5.459279537200927734e+00 1.352243328094482422e+01 5.694513797760009766e+00 1.431353569030761719e+00
3.198000000000000000e+03 7.093267822265625000e+01 3.922185516357421875e+01 -4.470474123954772949e-01 1.059021854400634766e+01 3.042951345443725586e+00 9.711143970489501953e-01
3.199000000000000000e+03 3.078520393371582031e+01 5.146816730499267578e+00 -1.503465056419372559e+00 -7.959883213043212891e-01 -6.898360252380371094e-01 -7.940745949745178223e-01
3.200000000000000000e+03 6.517855834960937500e+01 3.140049552917480469e+01 -1.835520379245281219e-02 1.562256240844726562e+01 4.681262016296386719e+00 2.178797483444213867e+00
3.201000000000000000e+03 6.121677780151367188e+01 3.090119934082031250e+01 1.497141122817993164e+00 2.593489170074462891e+00 1.227189064025878906e+00 2.481553554534912109e+00
3.202000000000000000e+03 6.041061782836914062e+01 3.121024894714355469e+01 1.116491794586181641e+00 1.476381778717041016e+00 7.778620719909667969e-01 1.523461222648620605e+00
3.203000000000000000e+03 6.646109771728515625e+01 3.250365066528320312e+01 3.874885797500610352e+00 1.619576072692871094e+01 6.021193981170654297e+00 -1.871703624725341797e+00
3.204000000000000000e+03 7.201039123535156250e+01 3.058752822875976562e+01 9.641347527503967285e-01 9.134653091430664062e+00 3.029636383056640625e+00 -1.614253997802734375e+00
3.205000000000000000e+03 6.082978820800781250e+01 3.106396102905273438e+01 1.362639665603637695e+00 1.984537005424499512e+00 1.004153013229370117e+00 2.018725395202636719e+00
3.206000000000000000e+03 1.895038604736328125e+01 1.103087806701660156e+01 1.110188215970993042e-01 1.707588583230972290e-01 8.453330397605895996e-02 1.391093432903289795e-01
3.207000000000000000e+03 1.879872512817382812e+01 1.158401203155517578e+01 1.000178456306457520e-01 1.707519590854644775e-01 8.123093843460083008e-02 1.302579641342163086e-01
3.208000000000000000e+03 6.759356689453125000e+01 3.297548675537109375e+01 4.980813980102539062e+00 1.324945354461669922e+01 5.469079971313476562e+00 -1.510806441307067871e+00
3.209000000000000000e+03 6.714565277099609375e+01 3.394592666625976562e+01 6.967146873474121094e+00 1.382507324218750000e+01 6.237666130065917969e+00 -8.901312947273254395e-02
3.210000000000000000e+03 6.896632385253906250e+01 3.428838348388671875e+01 4.083162307739257812e+00 1.129089450836181641e+01 4.612216949462890625e+00 2.320139408111572266e-01
3.211000000000000000e+03 4.070847702026367188e+01 1.994029045104980469e+01 -9.852018952369689941e-01 -1.021592140197753906e+00 -6.020382046699523926e-01 -1.104779958724975586e+00
3.212000000000000000e+03 3.961420440673828125e+01 1.779233932495117188e+01 -9.896111488342285156e-01 -9.942035079002380371e-01 -5.951443910598754883e-01 -1.042392849922180176e+00
3.213000000000000000e+03 4.082344818115234375e+01 1.942527389526367188e+01 -9.471142292022705078e-01 -9.597041606903076172e-01 -5.720455050468444824e-01 -1.060579776763916016e+00
3.214000000000000000e+03 4.105847930908203125e+01 1.975759887695312500e+01 -9.516784548759460449e-01 -9.671916365623474121e-01 -5.756610035896301270e-01 -1.062160611152648926e+00
3.215000000000000000e+03 4.147174072265625000e+01 2.018354415893554688e+01 -9.562510848045349121e-01 -9.707554578781127930e-01 -5.781019330024719238e-01 -1.046730518341064453e+00
3.216000000000000000e+03 1.558824348449707031e+01 8.595040321350097656e+00 9.657286852598190308e-02 2.730643153190612793e-01 1.108911558985710144e-01 1.461854875087738037e-01
3.217000000000000000e+03 3.432736968994140625e+01 1.097739219665527344e+01 -1.070895671844482422e+00 -1.080847740173339844e+00 -6.455230116844177246e-01 -1.023971438407897949e+00
3.218000000000000000e+03 3.226565933227539062e+01 2.550304603576660156e+01 5.058756470680236816e-02 7.813631743192672729e-02 3.861716389656066895e-02 6.424622237682342529e-02
3.219000000000000000e+03 3.464572525024414062e+01 1.227457714080810547e+01 -1.115274667739868164e+00 -1.175380229949951172e+00 -6.871964931488037109e-01 -1.103761792182922363e+00
3.220000000000000000e+03 3.423544311523437500e+01 1.199818897247314453e+01 -1.137886285781860352e+00 -1.193781137466430664e+00 -6.995002627372741699e-01 -1.123235821723937988e+00
3.221000000000000000e+03 5.296736145019531250e+01 3.067186737060546875e+01 -8.326671123504638672e-01 -1.285819709300994873e-01 -2.883747220039367676e-01 -6.003574728965759277e-01
3.222000000000000000e+03 5.323756790161132812e+01 2.983126449584960938e+01 -6.921960115432739258e-01 7.264292985200881958e-02 -1.858659386634826660e-01 -4.621394276618957520e-01
3.223000000000000000e+03 4.781357192993164062e+01 2.525738906860351562e+01 -8.853229880332946777e-01 -6.233360171318054199e-01 -4.525976777076721191e-01 -7.821235656738281250e-01
3.224000000000000000e+03 2.339720726013183594e+01 1.652624320983886719e+01 7.869120687246322632e-02 1.207137852907180786e-01 5.982149764895439148e-02 9.943526983261108398e-02
3.225000000000000000e+03 1.794549751281738281e+01 1.061926364898681641e+01 1.041903942823410034e-01 1.909612417221069336e-01 8.854549378156661987e-02 1.374496221542358398e-01
3.226000000000000000e+03 4.268164443969726562e+01 2.133532524108886719e+01 -1.019187331199645996e+00 -9.544742107391357422e-01 -5.920984745025634766e-01 -1.006364464759826660e+00
3.227000000000000000e+03 1.971710014343261719e+01 1.229903507232666016e+01 1.004297882318496704e-01 1.559162586927413940e-01 7.690381258726119995e-02 1.256490498781204224e-01
3.228000000000000000e+03 1.885241317749023438e+01 1.217121124267578125e+01 9.239917993545532227e-02 1.663500070571899414e-01 7.762475311756134033e-02 1.229645907878875732e-01
3.229000000000000000e+03 4.816430664062500000e+01 2.540180206298828125e+01 -8.545455336570739746e-01 -5.748527050018310547e-01 -4.288194775581359863e-01 -7.442219257354736328e-01
3.230000000000000000e+03 2.077221298217773438e+01 1.327182674407958984e+01 9.857666492462158203e-02 1.448223292827606201e-01 7.301969826221466064e-02 1.190841719508171082e-01
3.231000000000000000e+03 2.918097114562988281e+01 4.192679882049560547e+00 -1.745028376579284668e+00 -9.671484231948852539e-01 -8.136530518531799316e-01 -7.769453525543212891e-01
3.232000000000000000e+03 4.690296554565429688e+01 2.451403808593750000e+01 -9.373121261596679688e-01 -6.761916875839233398e-01 -4.840511381626129150e-01 -8.205267786979675293e-01
3.233000000000000000e+03 2.023953628540039062e+01 1.327834224700927734e+01 9.298292547464370728e-02 1.481734514236450195e-01 7.234691083431243896e-02 1.169334501028060913e-01
3.234000000000000000e+03 2.418097877502441406e+01 1.710996627807617188e+01 7.969447970390319824e-02 1.139327660202980042e-01 5.808817222714424133e-02 9.663200378417968750e-02
3.235000000000000000e+03 4.425950622558593750e+01 2.232261466979980469e+01 -9.904791712760925293e-01 -8.651294112205505371e-01 -5.566825866699218750e-01 -9.276161789894104004e-01
3.236000000000000000e+03 3.213570022583007812e+01 9.790398597717285156e+00 -1.183729529380798340e+00 -1.190293550491333008e+00 -7.122069001197814941e-01 -1.094896554946899414e+00
3.237000000000000000e+03 3.358681106567382812e+01 1.065294837951660156e+01 -1.125619173049926758e+00 -1.120048403739929199e+00 -6.737002730369567871e-01 -1.057001471519470215e+00
3.238000000000000000e+03 2.889840126037597656e+01 2.071883773803710938e+01 6.884833425283432007e-02 8.803697675466537476e-02 4.706559330224990845e-02 7.925456017255783081e-02
3.239000000000000000e+03 3.633348083496093750e+01 1.395553112030029297e+01 -1.061967253684997559e+00 -1.140139818191528320e+00 -6.606320738792419434e-01 -1.076064825057983398e+00
3.240000000000000000e+03 3.559007263183593750e+01 1.371172809600830078e+01 -1.115994691848754883e+00 -1.207020044326782227e+00 -6.969044208526611328e-01 -1.135329127311706543e+00
3.241000000000000000e+03 4.885489273071289062e+01 2.693332290649414062e+01 -9.161625504493713379e-01 -6.971668601036071777e-01 -4.839988052845001221e-01 -8.155418038368225098e-01
3.242000000000000000e+03 2.852220726013183594e+01 2.091528320312500000e+01 6.550396978855133057e-02 9.060420095920562744e-02 4.683245345950126648e-02 7.862466573715209961e-02
3.243000000000000000e+03 3.493480300903320312e+01 1.287858295440673828e+01 -1.130971550941467285e+00 -1.206531643867492676e+00 -7.012509703636169434e-01 -1.123735189437866211e+00
3.244000000000000000e+03 3.559938812255859375e+01 1.321595382690429688e+01 -1.087401390075683594e+00 -1.153604507446289062e+00 -6.723017692565917969e-01 -1.085904598236083984e+00
3.245000000000000000e+03 2.148895835876464844e+01 1.405926895141601562e+01 9.618269652128219604e-02 1.384103149175643921e-01 7.037790119647979736e-02 1.123487055301666260e-01
3.246000000000000000e+03 1.602952957153320312e+01 9.323111534118652344e+00 9.550278633832931519e-02 2.428236305713653564e-01 1.014979258179664612e-01 1.382556259632110596e-01
3.247000000000000000e+03 3.379017257690429688e+01 1.173393726348876953e+01 -1.166288018226623535e+00 -1.198806881904602051e+00 -7.095284461975097656e-01 -1.141950488090515137e+00
3.248000000000000000e+03 3.476481628417968750e+01 1.258834457397460938e+01 -1.119390845298767090e+00 -1.195609807968139648e+00 -6.945002079010009766e-01 -1.117327928543090820e+00
3.249000000000000000e+03 4.370812225341796875e+01 2.180331420898437500e+01 -9.865311384201049805e-01 -8.777520656585693359e-01 -5.592849850654602051e-01 -9.435386061668395996e-01
3.250000000000000000e+03 3.364686965942382812e+01 2.590082168579101562e+01 5.249757319688796997e-02 7.668530941009521484e-02 3.875486552715301514e-02 6.304103881120681763e-02
3.251000000000000000e+03 3.290850067138671875e+01 2.584248352050781250e+01 5.078996345400810242e-02 7.745396345853805542e-02 3.847317770123481750e-02 6.360802054405212402e-02
3.252000000000000000e+03 2.801607131958007812e+01 2.062231254577636719e+01 6.589821726083755493e-02 9.312315285205841064e-02 4.770641028881072998e-02 7.985792309045791626e-02
3.253000000000000000e+03 3.379349136352539062e+01 2.625737571716308594e+01 5.099567398428916931e-02 7.639885693788528442e-02 3.821836039423942566e-02 6.233389675617218018e-02
3.254000000000000000e+03 2.792776298522949219e+01 2.024336242675781250e+01 6.860736012458801270e-02 9.358943998813629150e-02 4.865904152393341064e-02 8.196183294057846069e-02
3.255000000000000000e+03 4.453527832031250000e+01 2.259097862243652344e+01 -9.934850335121154785e-01 -8.615716695785522461e-01 -5.565170049667358398e-01 -9.199222326278686523e-01
3.256000000000000000e+03 2.756543159484863281e+01 2.003388023376464844e+01 6.899808347225189209e-02 9.603608399629592896e-02 4.951025173068046570e-02 8.258655667304992676e-02
3.257000000000000000e+03 2.707825279235839844e+01 1.964406013488769531e+01 7.051215320825576782e-02 9.871539473533630371e-02 5.076826363801956177e-02 8.400904387235641479e-02
3.258000000000000000e+03 2.542510604858398438e+01 1.808840370178222656e+01 7.730996608734130859e-02 1.074283868074417114e-01 5.542150512337684631e-02 9.068608283996582031e-02
3.259000000000000000e+03 4.294760894775390625e+01 2.160429573059082031e+01 -1.034040212631225586e+00 -9.491609930992126465e-01 -5.949603319168090820e-01 -1.007776379585266113e+00
3.260000000000000000e+03 4.911538696289062500e+01 2.725225639343261719e+01 -9.240944981575012207e-01 -6.963588595390319824e-01 -4.861359894275665283e-01 -8.119276762008666992e-01
3.261000000000000000e+03 5.106392669677734375e+01 2.895601844787597656e+01 -8.684667348861694336e-01 -4.960314929485321045e-01 -4.093494713306427002e-01 -6.896939873695373535e-01
3.262000000000000000e+03 5.087968444824218750e+01 2.919890594482421875e+01 -9.214877486228942871e-01 -5.956681370735168457e-01 -4.551467895507812500e-01 -7.616459727287292480e-01
3.263000000000000000e+03 3.659268951416015625e+01 1.421078777313232422e+01 -1.046971440315246582e+00 -1.135256648063659668e+00 -6.546684503555297852e-01 -1.073131084442138672e+00
3.264000000000000000e+03 2.987752342224121094e+01 2.339780044555664062e+01 5.105590447783470154e-02 8.496101200580596924e-02 4.080507531762123108e-02 7.099362462759017944e-02
3.265000000000000000e+03 3.187010383605957031e+01 2.559437751770019531e+01 4.828800261020660400e-02 7.847899198532104492e-02 3.803009912371635437e-02 6.409609317779541016e-02
3.266000000000000000e+03 4.607043075561523438e+01 2.440288734436035156e+01 -1.039438009262084961e+00 -8.270874619483947754e-01 -5.599576234817504883e-01 -9.210368394851684570e-01
3.267000000000000000e+03 4.656476211547851562e+01 2.429573059082031250e+01 -9.626171588897705078e-01 -7.144842147827148438e-01 -5.031304359436035156e-01 -8.388594985008239746e-01
3.268000000000000000e+03 3.178119850158691406e+01 9.924529075622558594e+00 -1.237702965736389160e+00 -1.201830267906188965e+00 -7.318599820137023926e-01 -1.145401358604431152e+00
3.269000000000000000e+03 3.539123535156250000e+01 1.295058250427246094e+01 -1.094778299331665039e+00 -1.153384089469909668e+00 -6.744487285614013672e-01 -1.083765506744384766e+00
3.270000000000000000e+03 2.520866394042968750e+01 1.785010910034179688e+01 7.910448312759399414e-02 1.085008531808853149e-01 5.628160014748573303e-02 9.199617803096771240e-02
3.271000000000000000e+03 2.432869529724121094e+01 1.816522789001464844e+01 6.925186514854431152e-02 1.116289049386978149e-01 5.426422879099845886e-02 8.898711204528808594e-02
3.272000000000000000e+03 1.521627426147460938e+01 7.836979866027832031e+00 1.031137481331825256e-01 3.114898800849914551e-01 1.243810877203941345e-01 1.541072279214859009e-01
3.273000000000000000e+03 2.900038146972656250e+01 2.126108169555664062e+01 6.467972695827484131e-02 8.835743367671966553e-02 4.591114819049835205e-02 7.713415473699569702e-02
3.274000000000000000e+03 3.685402297973632812e+01 1.448207759857177734e+01 -1.041908860206604004e+00 -1.128650307655334473e+00 -6.511677503585815430e-01 -1.066238522529602051e+00
3.275000000000000000e+03 2.615939521789550781e+01 1.877376747131347656e+01 7.425177097320556641e-02 1.042699217796325684e-01 5.355650931596755981e-02 8.745877444744110107e-02
3.276000000000000000e+03 2.673917388916015625e+01 2.004434394836425781e+01 6.516601890325546265e-02 9.965345263481140137e-02 4.944584146142005920e-02 8.162795752286911011e-02
3.277000000000000000e+03 3.711455917358398438e+01 1.476259326934814453e+01 -1.029941439628601074e+00 -1.120990753173828125e+00 -6.452796459197998047e-01 -1.059297084808349609e+00
3.278000000000000000e+03 2.189105224609375000e+01 1.464994335174560547e+01 9.161199629306793213e-02 1.348343938589096069e-01 6.793391704559326172e-02 1.077722907066345215e-01
3.279000000000000000e+03 2.074009132385253906e+01 1.374247360229492188e+01 9.194126725196838379e-02 1.433413326740264893e-01 7.058478146791458130e-02 1.138453930616378784e-01
3.280000000000000000e+03 3.737419891357421875e+01 1.505074405670166016e+01 -1.025631546974182129e+00 -1.117553710937500000e+00 -6.429556012153625488e-01 -1.051184773445129395e+00
3.281000000000000000e+03 3.848521423339843750e+01 1.678155899047851562e+01 -1.035129308700561523e+00 -1.113941192626953125e+00 -6.447211503982543945e-01 -1.058063626289367676e+00
3.282000000000000000e+03 4.053633499145507812e+01 1.887079620361328125e+01 -9.495629668235778809e-01 -9.519082903861999512e-01 -5.704413652420043945e-01 -1.054205417633056641e+00
3.283000000000000000e+03 4.964331054687500000e+01 2.784705734252929688e+01 -9.325757622718811035e-01 -6.787530183792114258e-01 -4.833986163139343262e-01 -7.975373864173889160e-01
3.284000000000000000e+03 4.343326950073242188e+01 2.157405662536621094e+01 -9.810335636138916016e-01 -8.845339417457580566e-01 -5.596702694892883301e-01 -9.528506398200988770e-01
3.285000000000000000e+03 4.480973052978515625e+01 2.285507392883300781e+01 -9.972670674324035645e-01 -8.542238473892211914e-01 -5.554472804069519043e-01 -9.101458787918090820e-01
3.286000000000000000e+03 2.224245071411132812e+01 1.530435276031494141e+01 8.515588939189910889e-02 1.313904821872711182e-01 6.496390700340270996e-02 1.035098433494567871e-01
3.287000000000000000e+03 3.763761138916015625e+01 1.534206390380859375e+01 -1.018152594566345215e+00 -1.106084346771240234e+00 -6.372710466384887695e-01 -1.044985294342041016e+00
3.288000000000000000e+03 5.040029525756835938e+01 2.869124412536621094e+01 -9.342200160026550293e-01 -6.358561515808105469e-01 -4.710228443145751953e-01 -7.777559161186218262e-01
3.289000000000000000e+03 5.223762893676757812e+01 2.956033325195312500e+01 -7.852993011474609375e-01 -2.213401943445205688e-01 -3.019918501377105713e-01 -5.648897290229797363e-01
3.290000000000000000e+03 3.462913131713867188e+01 2.783458518981933594e+01 5.217619240283966064e-02 7.417026162147521973e-02 3.790393844246864319e-02 5.992009490728378296e-02
3.291000000000000000e+03 2.500822257995605469e+01 1.758905029296875000e+01 8.005551993846893311e-02 1.096027866005897522e-01 5.689749121665954590e-02 9.384617954492568970e-02
3.292000000000000000e+03 5.312829589843750000e+01 3.026632881164550781e+01 -7.680137753486633301e-01 -3.869883343577384949e-02 -2.420137822628021240e-01 -5.424378514289855957e-01
3.293000000000000000e+03 4.935812377929687500e+01 2.699342155456542969e+01 -8.596903085708618164e-01 -5.945512652397155762e-01 -4.362724721431732178e-01 -7.344951033592224121e-01
3.294000000000000000e+03 4.990759277343750000e+01 2.813673019409179688e+01 -9.383504986763000488e-01 -6.685934662818908691e-01 -4.820832014083862305e-01 -7.895903587341308594e-01
3.295000000000000000e+03 2.644770622253417969e+01 1.955728149414062500e+01 6.845892220735549927e-02 1.015698686242103577e-01 5.100863799452781677e-02 8.373749256134033203e-02
3.296000000000000000e+03 3.822027206420898438e+01 1.649710273742675781e+01 -1.035362124443054199e+00 -1.131909012794494629e+00 -6.501813530921936035e-01 -1.064865350723266602e+00
3.297000000000000000e+03 5.203298568725585938e+01 2.998312568664550781e+01 -8.637722730636596680e-01 -3.697786331176757812e-01 -3.700652718544006348e-01 -6.531817913055419922e-01
3.298000000000000000e+03 5.156155395507812500e+01 2.923756027221679688e+01 -8.318397402763366699e-01 -3.890645503997802734e-01 -3.662712872028350830e-01 -6.391472220420837402e-01
3.299000000000000000e+03 1.946902465820312500e+01 1.257885742187500000e+01 9.408155828714370728e-02 1.580777615308761597e-01 7.564779371023178101e-02 1.208550408482551575e-01
3.300000000000000000e+03 4.576291275024414062e+01 2.416170501708984375e+01 -1.051946759223937988e+00 -8.561802506446838379e-01 -5.724381208419799805e-01 -9.309532642364501953e-01
3.301000000000000000e+03 4.032702255249023438e+01 1.822352600097656250e+01 -9.440564513206481934e-01 -9.195826053619384766e-01 -5.590916872024536133e-01 -1.019292593002319336e+00
3.302000000000000000e+03 2.889458465576171875e+01 2.200108718872070312e+01 5.713421106338500977e-02 8.911630511283874512e-02 4.387515410780906677e-02 7.445234060287475586e-02
3.303000000000000000e+03 5.279410552978515625e+01 3.009421539306640625e+01 -7.800733447074890137e-01 -1.177318021655082703e-01 -2.693415284156799316e-01 -5.555888414382934570e-01
3.304000000000000000e+03 2.207137489318847656e+01 1.496934127807617188e+01 8.798383921384811401e-02 1.330039203166961670e-01 6.629632413387298584e-02 1.059794574975967407e-01
3.305000000000000000e+03 2.154266929626464844e+01 1.481979656219482422e+01 8.565805107355117798e-02 1.356887519359588623e-01 6.640404462814331055e-02 1.056875735521316528e-01
3.306000000000000000e+03 3.605186080932617188e+01 1.323380756378173828e+01 -1.046722054481506348e+00 -1.100414752960205078e+00 -6.441410183906555176e-01 -1.040306806564331055e+00
3.307000000000000000e+03 4.398361206054687500e+01 2.205615997314453125e+01 -9.870975017547607422e-01 -8.691278100013732910e-01 -5.568675994873046875e-01 -9.360713362693786621e-01
3.308000000000000000e+03 3.790893936157226562e+01 1.563128852844238281e+01 -1.014733433723449707e+00 -1.094584345817565918e+00 -6.327953338623046875e-01 -1.033614516258239746e+00
3.309000000000000000e+03 2.561393165588378906e+01 1.833132743835449219e+01 7.629442960023880005e-02 1.064314469695091248e-01 5.481776222586631775e-02 8.908157050609588623e-02
3.310000000000000000e+03 1.857358360290527344e+01 1.124515056610107422e+01 1.007595807313919067e-01 1.752080619335174561e-01 8.279029279947280884e-02 1.341852545738220215e-01
3.311000000000000000e+03 1.706366729736328125e+01 1.026312637329101562e+01 9.543921798467636108e-02 2.073705792427062988e-01 9.084293991327285767e-02 1.346533894538879395e-01
3.312000000000000000e+03 3.330349731445312500e+01 1.040348243713378906e+01 -1.126459121704101562e+00 -1.127456665039062500e+00 -6.761747598648071289e-01 -1.060777187347412109e+00
3.313000000000000000e+03 3.336386108398437500e+01 1.096638584136962891e+01 -1.159685373306274414e+00 -1.170979738235473633e+00 -6.991995573043823242e-01 -1.110082626342773438e+00
3.314000000000000000e+03 3.981317520141601562e+01 1.741798973083496094e+01 -9.598617553710937500e-01 -9.293881058692932129e-01 -5.667749643325805664e-01 -9.957454800605773926e-01
3.315000000000000000e+03 3.899544906616210938e+01 1.679140663146972656e+01 -9.943593144416809082e-01 -1.014893651008605957e+00 -6.027759313583374023e-01 -1.011012434959411621e+00
3.316000000000000000e+03 3.174978828430175781e+01 2.515911293029785156e+01 5.048087611794471741e-02 7.876612246036529541e-02 3.877409920096397400e-02 6.524571776390075684e-02
3.317000000000000000e+03 3.090391731262207031e+01 2.475486755371093750e+01 4.788354784250259399e-02 8.086952567100524902e-02 3.862592205405235291e-02 6.644710898399353027e-02
3.318000000000000000e+03 3.391935729980468750e+01 2.744678497314453125e+01 5.042184144258499146e-02 7.563824951648712158e-02 3.781802579760551453e-02 6.011642143130302429e-02
3.319000000000000000e+03 3.368778228759765625e+01 2.691737365722656250e+01 4.898376390337944031e-02 7.632700353860855103e-02 3.759323060512542725e-02 6.138102710247039795e-02
3.320000000000000000e+03 3.818976974487304688e+01 1.591544628143310547e+01 -1.007475376129150391e+00 -1.076419472694396973e+00 -6.251684427261352539e-01 -1.025797605514526367e+00
3.321000000000000000e+03 3.847924804687500000e+01 1.619608497619628906e+01 -1.002574682235717773e+00 -1.053295016288757324e+00 -6.167609095573425293e-01 -1.015369176864624023e+00
3.322000000000000000e+03 4.213381958007812500e+01 2.012342262268066406e+01 -9.157973527908325195e-01 -8.945440053939819336e-01 -5.431023836135864258e-01 -9.784955382347106934e-01
3.323000000000000000e+03 4.266869735717773438e+01 2.079541397094726562e+01 -9.512608051300048828e-01 -9.025407433509826660e-01 -5.561404824256896973e-01 -9.671439528465270996e-01
3.324000000000000000e+03 1.999534988403320312e+01 1.303711414337158203e+01 9.367866069078445435e-02 1.517151296138763428e-01 7.361813634634017944e-02 1.177217587828636169e-01
3.325000000000000000e+03 3.039759254455566406e+01 2.425346183776855469e+01 4.844348877668380737e-02 8.242803812026977539e-02 3.926145657896995544e-02 6.832864135503768921e-02
3.326000000000000000e+03 4.508341217041015625e+01 2.311311340332031250e+01 -9.995866417884826660e-01 -8.431839942932128906e-01 -5.528311729431152344e-01 -9.005323648452758789e-01
3.327000000000000000e+03 3.422169113159179688e+01 2.849895095825195312e+01 5.016126483678817749e-02 7.407359778881072998e-02 3.727045655250549316e-02 5.759488791227340698e-02
3.328000000000000000e+03 3.493539428710937500e+01 2.879685401916503906e+01 5.037617683410644531e-02 7.276862859725952148e-02 3.694344311952590942e-02 5.614032223820686340e-02
3.329000000000000000e+03 2.927087020874023438e+01 2.139224433898925781e+01 6.459666788578033447e-02 8.673186600208282471e-02 4.539855942130088806e-02 7.644618302583694458e-02
3.330000000000000000e+03 2.089857292175292969e+01 1.442181777954101562e+01 8.541139960289001465e-02 1.403038799762725830e-01 6.771458685398101807e-02 1.068990677595138550e-01
3.331000000000000000e+03 5.331866073608398438e+01 3.093293190002441406e+01 -8.304659128189086914e-01 -4.056130349636077881e-02 -2.613081634044647217e-01 -6.011033058166503906e-01
3.332000000000000000e+03 2.275151062011718750e+01 1.638280296325683594e+01 7.559744268655776978e-02 1.248614788055419922e-01 6.013767421245574951e-02 9.806080162525177002e-02
3.333000000000000000e+03 2.208804893493652344e+01 1.623175621032714844e+01 7.197815924882888794e-02 1.285417824983596802e-01 6.015598028898239136e-02 9.623804688453674316e-02
3.334000000000000000e+03 3.413084411621093750e+01 1.158648300170898438e+01 -1.118917822837829590e+00 -1.161550283432006836e+00 -6.841404438018798828e-01 -1.097899079322814941e+00
3.335000000000000000e+03 2.197332763671875000e+01 1.582914352416992188e+01 7.649052143096923828e-02 1.307444572448730469e-01 6.217049434781074524e-02 9.875418990850448608e-02
3.336000000000000000e+03 4.535875320434570312e+01 2.336455345153808594e+01 -1.001534938812255859e+00 -8.269481062889099121e-01 -5.485448837280273438e-01 -8.900718092918395996e-01
3.337000000000000000e+03 4.564014434814453125e+01 2.360899353027343750e+01 -9.993989467620849609e-01 -8.055918216705322266e-01 -5.414972305297851562e-01 -8.797655701637268066e-01
3.338000000000000000e+03 5.618021774291992188e+01 2.963484954833984375e+01 -8.149336278438568115e-02 8.035070896148681641e-01 2.166041284799575806e-01 4.968614503741264343e-02
3.339000000000000000e+03 3.471483612060546875e+01 2.838072395324707031e+01 4.936123266816139221e-02 7.325571030378341675e-02 3.678508102893829346e-02 5.821284651756286621e-02
3.340000000000000000e+03 3.242871093750000000e+01 9.264259338378906250e+00 -1.120604991912841797e+00 -1.127465724945068359e+00 -6.744212508201599121e-01 -1.031949281692504883e+00
3.341000000000000000e+03 3.278728866577148438e+01 1.047195816040039062e+01 -1.177577972412109375e+00 -1.181273937225341797e+00 -7.076556086540222168e-01 -1.108731508255004883e+00
3.342000000000000000e+03 1.645420837402343750e+01 9.679953575134277344e+00 9.857126325368881226e-02 2.262097150087356567e-01 9.743428975343704224e-02 1.378767937421798706e-01
3.343000000000000000e+03 3.515887451171875000e+01 2.841343307495117188e+01 5.184613168239593506e-02 7.399224489927291870e-02 3.775151446461677551e-02 5.914144590497016907e-02
3.344000000000000000e+03 2.996664810180664062e+01 4.755770683288574219e+00 -1.643996238708496094e+00 -9.017454981803894043e-01 -7.637225389480590820e-01 -7.654818296432495117e-01
3.345000000000000000e+03 1.764067268371582031e+01 1.072189521789550781e+01 9.715262800455093384e-02 1.933133304119110107e-01 8.713978528976440430e-02 1.325150132179260254e-01
3.346000000000000000e+03 5.486640930175781250e+01 3.059114265441894531e+01 -5.396098494529724121e-01 3.874386250972747803e-01 -4.565136134624481201e-02 -3.882685005664825439e-01
3.347000000000000000e+03 1.729173660278320312e+01 1.069902420043945312e+01 9.242048114538192749e-02 1.980764269828796387e-01 8.714906871318817139e-02 1.297380328178405762e-01
3.348000000000000000e+03 1.687723159790039062e+01 1.000911712646484375e+01 9.985103458166122437e-02 2.128730267286300659e-01 9.381721913814544678e-02 1.358357071876525879e-01
3.349000000000000000e+03 5.414199829101562500e+01 3.134168243408203125e+01 -7.945925593376159668e-01 1.617386192083358765e-01 -1.898561716079711914e-01 -5.755231976509094238e-01
3.350000000000000000e+03 5.388719558715820312e+01 3.067595863342285156e+01 -7.246232628822326660e-01 1.518641859292984009e-01 -1.718277186155319214e-01 -5.134449005126953125e-01
3.351000000000000000e+03 1.450240898132324219e+01 7.465423107147216797e+00 8.738910406827926636e-02 3.558932542800903320e-01 1.329847127199172974e-01 1.327964365482330322e-01
3.352000000000000000e+03 1.411867523193359375e+01 7.094931125640869141e+00 8.141946047544479370e-02 3.941870033740997314e-01 1.426819413900375366e-01 1.195972859859466553e-01
3.353000000000000000e+03 1.330896663665771484e+01 6.353501319885253906e+00 7.394100725650787354e-02 4.853916764259338379e-01 1.677998006343841553e-01 4.695114493370056152e-02
3.354000000000000000e+03 6.665222167968750000e+01 3.474963378906250000e+01 6.859807014465332031e+00 1.562937736511230469e+01 6.746755123138427734e+00 2.033507108688354492e+00
3.355000000000000000e+03 1.449979209899902344e+01 7.835692882537841797e+00 8.404205739498138428e-02 3.340496718883514404e-01 1.254275143146514893e-01 1.191197112202644348e-01
3.356000000000000000e+03 5.883294296264648438e+01 3.060620307922363281e+01 5.520862936973571777e-01 1.110832691192626953e+00 4.988757073879241943e-01 7.211210727691650391e-01
3.357000000000000000e+03 6.066807174682617188e+01 3.060939216613769531e+01 1.258792042732238770e+00 2.268234252929687500e+00 1.058107852935791016e+00 2.039238691329956055e+00
3.358000000000000000e+03 7.159950256347656250e+01 3.300022506713867188e+01 2.039348363876342773e+00 9.203516960144042969e+00 3.372859716415405273e+00 -9.040629267692565918e-01
3.359000000000000000e+03 6.863596343994140625e+01 3.524848175048828125e+01 3.559121370315551758e+00 1.194622135162353516e+01 4.651602745056152344e+00 1.158796906471252441e+00
3.360000000000000000e+03 3.280309677124023438e+01 5.618850231170654297e+00 -1.055110573768615723e+00 -6.729533076286315918e-01 -5.184191465377807617e-01 -6.723133325576782227e-01
3.361000000000000000e+03 2.971377754211425781e+01 2.405978965759277344e+01 4.718112573027610779e-02 8.545439690351486206e-02 3.979065641760826111e-02 6.891766190528869629e-02
3.362000000000000000e+03 3.246217727661132812e+01 7.131083488464355469e+00 -1.075037837028503418e+00 -8.935687541961669922e-01 -5.905819535255432129e-01 -9.135459661483764648e-01
3.363000000000000000e+03 3.209020614624023438e+01 5.579953193664550781e+00 -1.179546952247619629e+00 -7.169097661972045898e-01 -5.689370632171630859e-01 -7.495931386947631836e-01
3.364000000000000000e+03 1.248357009887695312e+01 4.735289573669433594e+00 2.327287048101425171e-01 5.625467300415039062e-01 2.385826259851455688e-01 -1.999030262231826782e-01
3.365000000000000000e+03 3.033967590332031250e+01 4.759657859802246094e+00 -1.567174792289733887e+00 -8.139325976371765137e-01 -7.143322229385375977e-01 -7.367893457412719727e-01
3.366000000000000000e+03 3.250957107543945312e+01 5.281464576721191406e+00 -1.102418422698974609e+00 -6.634973883628845215e-01 -5.297747254371643066e-01 -6.476068496704101562e-01
3.367000000000000000e+03 3.134959030151367188e+01 2.523921394348144531e+01 4.758873581886291504e-02 7.969912141561508179e-02 3.818635642528533936e-02 6.496261060237884521e-02
3.368000000000000000e+03 3.272126007080078125e+01 8.203818321228027344e+00 -1.043872594833374023e+00 -9.927048087120056152e-01 -6.109731793403625488e-01 -9.523078203201293945e-01
3.369000000000000000e+03 5.793330764770507812e+01 3.010817909240722656e+01 3.386875092983245850e-01 1.073275327682495117e+00 4.235888421535491943e-01 4.728661179542541504e-01
3.370000000000000000e+03 4.229705810546875000e+01 3.507275772094726562e+01 7.651461660861968994e-02 4.705095663666725159e-02 3.706967458128929138e-02 5.008267238736152649e-02
3.371000000000000000e+03 2.426836395263671875e+01 1.737321615219116211e-01 -8.844154477119445801e-01 1.154611036181449890e-01 -2.306862920522689819e-01 -5.828737020492553711e-01
3.372000000000000000e+03 3.677632141113281250e+01 3.142798805236816406e+01 5.208257958292961121e-02 6.513857841491699219e-02 3.516634926199913025e-02 5.173741653561592102e-02
3.373000000000000000e+03 3.559986877441406250e+01 2.979462432861328125e+01 5.141480639576911926e-02 7.121001929044723511e-02 3.678744658827781677e-02 5.543807148933410645e-02
3.374000000000000000e+03 3.739477920532226562e+01 3.101065063476562500e+01 5.272594094276428223e-02 6.570819020271301270e-02 3.553023934364318848e-02 5.417444556951522827e-02
3.375000000000000000e+03 2.521746826171875000e+01 -6.179300546646118164e-01 1.028240919113159180e-01 2.013990655541419983e-02 3.688919916749000549e-02 -2.843075692653656006e-01
3.376000000000000000e+03 2.596095657348632812e+01 9.309760928153991699e-01 -1.220904231071472168e+00 -3.120945394039154053e-01 -4.598996043205261230e-01 -3.981400132179260254e-01
3.377000000000000000e+03 5.787290954589843750e+01 3.057535171508789062e+01 2.173768430948257446e-01 8.711304664611816406e-01 3.265521824359893799e-01 2.934780120849609375e-01
3.378000000000000000e+03 3.257034301757812500e+01 7.677259445190429688e+00 -1.049295186996459961e+00 -9.701521992683410645e-01 -6.058341860771179199e-01 -9.371414780616760254e-01
3.379000000000000000e+03 5.602687454223632812e+01 3.008234024047851562e+01 -1.987426877021789551e-01 6.764368414878845215e-01 1.433082520961761475e-01 -9.468884021043777466e-02
3.380000000000000000e+03 5.706859111785888672e+00 8.203271865844726562e+00 7.778577506542205811e-02 -1.043664366006851196e-01 -7.974198088049888611e-03 3.747363016009330750e-02
3.381000000000000000e+03 2.748587608337402344e+01 -7.113516330718994141e-01 -6.942040473222732544e-02 -3.645222187042236328e-01 -1.301827877759933472e-01 -1.467038094997406006e-01
3.382000000000000000e+03 2.690546989440917969e+01 -1.289956688880920410e+00 2.236700057983398438e-01 -2.336494177579879761e-01 -2.993824193254113197e-03 -2.027935981750488281e-01
3.383000000000000000e+03 4.449275493621826172e+00 7.502390861511230469e+00 5.224921181797981262e-02 -1.224964782595634460e-01 -2.107418142259120941e-02 6.172923743724822998e-02
3.384000000000000000e+03 3.092573356628417969e+01 2.528776931762695312e+01 4.794180020689964294e-02 8.072599768638610840e-02 3.860033676028251648e-02 6.507965177297592163e-02
3.385000000000000000e+03 3.109795379638671875e+01 -2.944911241531372070e+00 4.486172199249267578e-01 -4.524799287319183350e-01 -1.158812665380537510e-03 -9.976631030440330505e-03
3.386000000000000000e+03 6.333007812500000000e+00 6.756444931030273438e+00 9.922947734594345093e-02 -1.162774935364723206e-01 -5.114404950290918350e-03 6.661300361156463623e-02
3.387000000000000000e+03 5.881867599487304688e+01 3.018020820617675781e+01 6.215493083000183105e-01 1.338321328163146973e+00 5.879611968994140625e-01 8.706588149070739746e-01
3.388000000000000000e+03 2.551672172546386719e+01 -1.125480681657791138e-01 -5.149328112602233887e-01 -8.871845155954360962e-02 -1.810953766107559204e-01 -2.655010521411895752e-01
3.389000000000000000e+03 3.637355041503906250e+01 3.184037590026855469e+01 4.934739693999290466e-02 6.636542826890945435e-02 3.471384570002555847e-02 5.046128854155540466e-02
3.390000000000000000e+03 9.927095413208007812e+00 5.067718982696533203e+00 2.644339501857757568e-01 -6.434167176485061646e-02 6.002768129110336304e-02 -3.228732571005821228e-02
3.391000000000000000e+03 8.684088706970214844e+00 5.981443881988525391e+00 1.918848156929016113e-01 -8.946394920349121094e-02 3.072626143693923950e-02 1.199679821729660034e-02
3.392000000000000000e+03 4.132460403442382812e+01 3.441782760620117188e+01 7.332503050565719604e-02 5.026708170771598816e-02 3.707763180136680603e-02 4.805947840213775635e-02
3.393000000000000000e+03 4.190881729125976562e+01 3.558399581909179688e+01 8.296949416399002075e-02 4.288130253553390503e-02 3.775523975491523743e-02 4.789248108863830566e-02
3.394000000000000000e+03 3.980474853515625000e+01 3.386903762817382812e+01 6.062286719679832458e-02 5.251813307404518127e-02 3.394230082631111145e-02 5.102792754769325256e-02
3.395000000000000000e+03 3.861419296264648438e+01 3.370026016235351562e+01 5.976710096001625061e-02 5.601765215396881104e-02 3.473542630672454834e-02 4.620350152254104614e-02
3.396000000000000000e+03 7.945130348205566406e+00 6.194038867950439453e+00 1.581495553255081177e-01 -1.100771203637123108e-01 1.442173123359680176e-02 4.414527118206024170e-02
3.397000000000000000e+03 2.404474258422851562e+01 6.321994066238403320e-01 -1.434116721153259277e+00 6.721523404121398926e-02 -4.100704193115234375e-01 -6.685030460357666016e-01
3.398000000000000000e+03 6.495955467224121094e+00 -7.806069374084472656e+00 -1.328597366809844971e-01 -2.640938460826873779e-01 -1.190860792994499207e-01 -3.549135029315948486e-01
3.399000000000000000e+03 4.085287475585937500e+01 3.531261444091796875e+01 7.644821703433990479e-02 4.948974773287773132e-02 3.778138756752014160e-02 4.310724884271621704e-02
3.400000000000000000e+03 3.806091308593750000e+01 3.149140167236328125e+01 5.553045496344566345e-02 6.206564605236053467e-02 3.527883067727088928e-02 5.376018583774566650e-02
3.401000000000000000e+03 7.873609066009521484e+00 -6.392065525054931641e+00 -2.209145873785018921e-01 -2.138897329568862915e-01 -1.304412931203842163e-01 -3.860927522182464600e-01
3.402000000000000000e+03 7.720742225646972656e+00 -8.451367378234863281e+00 -1.416236460208892822e-01 -3.144915699958801270e-01 -1.368345618247985840e-01 -4.416348934173583984e-01
3.403000000000000000e+03 9.328008651733398438e+00 -6.011409759521484375e+00 -3.025550544261932373e-01 -2.211817055940628052e-01 -1.571210324764251709e-01 -4.568406343460083008e-01
3.404000000000000000e+03 3.947457885742187500e+01 3.344621658325195312e+01 6.138000637292861938e-02 5.493919551372528076e-02 3.489575907588005066e-02 4.783991724252700806e-02
3.405000000000000000e+03 3.896628952026367188e+01 3.239384078979492188e+01 5.784225091338157654e-02 5.935603752732276917e-02 3.515948727726936340e-02 5.330421775579452515e-02
3.406000000000000000e+03 1.042033386230468750e+01 5.175817012786865234e+00 2.773410081863403320e-01 1.281659584492444992e-03 8.358680456876754761e-02 -8.218496292829513550e-02
3.407000000000000000e+03 7.000638961791992188e+00 8.318186759948730469e+00 1.008323058485984802e-01 -7.589890062808990479e-02 7.480020169168710709e-03 1.683658920228481293e-02
3.408000000000000000e+03 1.288087177276611328e+01 6.341987133026123047e+00 9.142997860908508301e-02 4.558941125869750977e-01 1.641972362995147705e-01 -2.117193117737770081e-02
3.409000000000000000e+03 1.551439476013183594e+01 -8.991007804870605469e+00 4.391571879386901855e-02 -6.700938344001770020e-01 -1.878534406423568726e-01 -6.120039224624633789e-01
3.410000000000000000e+03 7.186343193054199219e+00 -1.168581771850585938e+01 -1.171610504388809204e-02 -4.727527499198913574e-01 -1.453406512737274170e-01 -4.358949363231658936e-01
3.411000000000000000e+03 1.084039688110351562e+01 5.467493057250976562e+00 2.627626359462738037e-01 8.681632578372955322e-02 1.048736870288848877e-01 -1.192694976925849915e-01
3.412000000000000000e+03 1.003674983978271484e+01 5.593814373016357422e+00 2.412179708480834961e-01 -7.415277417749166489e-03 7.014080882072448730e-02 -5.897057801485061646e-02
3.413000000000000000e+03 4.209075164794921875e+01 3.690861129760742188e+01 9.016463160514831543e-02 4.095038399100303650e-02 3.933450579643249512e-02 3.896366804838180542e-02
3.414000000000000000e+03 7.410922050476074219e+00 -9.744313240051269531e+00 -8.610139787197113037e-02 -3.769034743309020996e-01 -1.389014571905136108e-01 -4.402613639831542969e-01
3.415000000000000000e+03 9.989557266235351562e+00 -5.853126049041748047e+00 -3.621223270893096924e-01 -2.007555514574050903e-01 -1.688633561134338379e-01 -4.885411262512207031e-01
3.416000000000000000e+03 7.183970642089843750e+01 2.075574111938476562e+01 -7.221772074699401855e-01 8.462366104125976562e+00 2.322056531906127930e+00 -6.872281432151794434e-01
3.417000000000000000e+03 4.172666549682617188e+01 -1.231887722015380859e+01 2.575295865535736084e-01 7.313673496246337891e-01 2.966690659523010254e-01 -2.560844644904136658e-02
3.418000000000000000e+03 6.656753540039062500e+00 2.193049812316894531e+01 -5.134107545018196106e-03 -4.604262858629226685e-02 -1.535302121192216873e-02 -2.028523012995719910e-02
3.419000000000000000e+03 9.508831024169921875e+00 2.528510475158691406e+01 -9.267170913517475128e-03 -6.276175379753112793e-03 -4.663003608584403992e-03 -1.124941371381282806e-02
3.420000000000000000e+03 2.977170372009277344e+01 -2.114285945892333984e+00 3.782073259353637695e-01 -4.531907737255096436e-01 -2.249502949416637421e-02 -2.881979197263717651e-02
3.421000000000000000e+03 2.908887672424316406e+01 -2.409352540969848633e+00 4.789922833442687988e-01 -3.618292510509490967e-01 3.514890745282173157e-02 -8.057963103055953979e-02
3.422000000000000000e+03 1.263729000091552734e+01 -6.824472904205322266e+00 -3.400903046131134033e-01 -4.643025994300842285e-01 -2.413178682327270508e-01 -7.044942378997802734e-01
3.423000000000000000e+03 1.064130496978759766e+01 -5.748379707336425781e+00 -3.839385509490966797e-01 -2.529623508453369141e-01 -1.910702586174011230e-01 -5.329997539520263672e-01
3.424000000000000000e+03 1.130386638641357422e+01 -5.750879764556884766e+00 -4.233258366584777832e-01 -2.536245584487915039e-01 -2.030851244926452637e-01 -5.803472995758056641e-01
3.425000000000000000e+03 3.818038940429687500e+01 -7.284770488739013672e+00 4.357527494430541992e-01 1.074267551302909851e-01 1.629538536071777344e-01 -9.437810629606246948e-03
3.426000000000000000e+03 2.821455001831054688e+01 -1.899291992187500000e+00 4.151296615600585938e-01 -3.024794459342956543e-01 3.379506245255470276e-02 -9.574692696332931519e-02
3.427000000000000000e+03 3.275514984130859375e+01 -4.830590248107910156e+00 5.611690282821655273e-01 -3.830958604812622070e-01 5.342195183038711548e-02 -5.671305581927299500e-02
3.428000000000000000e+03 3.208975601196289062e+01 -3.940581798553466797e+00 5.091087222099304199e-01 -4.219038784503936768e-01 2.616144903004169464e-02 -2.046194858849048615e-02
3.429000000000000000e+03 6.653804779052734375e+01 3.773328399658203125e+01 -1.004661679267883301e+00 1.473962306976318359e+01 4.120488643646240234e+00 3.569745123386383057e-01
3.430000000000000000e+03 7.198384857177734375e+01 2.740174865722656250e+01 -2.063097655773162842e-01 9.214625358581542969e+00 2.702494621276855469e+00 -1.591103434562683105e+00
3.431000000000000000e+03 1.589574337005615234e+01 -1.622287559509277344e+01 2.324252873659133911e-01 -3.606686890125274658e-01 -3.847301751375198364e-02 -3.860060870647430420e-01
3.432000000000000000e+03 1.746814537048339844e+01 -1.673324584960937500e+01 2.389958351850509644e-01 -2.303211987018585205e-01 2.602389315143227577e-03 -3.446785211563110352e-01
3.433000000000000000e+03 7.460420608520507812e+00 1.499002838134765625e+01 1.209131162613630295e-02 -1.463923882693052292e-02 -7.643782300874590874e-04 -1.993405260145664215e-02
3.434000000000000000e+03 8.707932472229003906e+00 1.801882743835449219e+01 -5.230111419223248959e-04 6.256814114749431610e-03 1.720140920951962471e-03 -1.719002984464168549e-02
3.435000000000000000e+03 1.978610610961914062e+01 -2.360982513427734375e+01 2.274368852376937866e-01 3.752837702631950378e-02 7.948958128690719604e-02 -3.273116648197174072e-01
3.436000000000000000e+03 2.365285301208496094e+01 -2.852139854431152344e+01 2.708733081817626953e-01 3.258014619350433350e-01 1.790024340152740479e-01 -3.390442132949829102e-01
3.437000000000000000e+03 2.073945999145507812e+01 -2.627743339538574219e+01 2.319894731044769287e-01 9.482176601886749268e-02 9.804337471723556519e-02 -3.246040940284729004e-01
3.438000000000000000e+03 1.914895248413085938e+01 -2.220062255859375000e+01 2.200423181056976318e-01 -9.153173305094242096e-03 6.326674669981002808e-02 -3.219555914402008057e-01
3.439000000000000000e+03 4.022581481933593750e+01 -1.110892486572265625e+01 3.043367266654968262e-01 4.514563083648681641e-01 2.267379015684127808e-01 -3.722654655575752258e-02
3.440000000000000000e+03 3.941316986083984375e+01 -9.422446250915527344e+00 3.681289851665496826e-01 3.220325410366058350e-01 2.070484608411788940e-01 -2.419839426875114441e-02
3.441000000000000000e+03 4.203994750976562500e+01 -1.358967590332031250e+01 2.055946439504623413e-01 8.006238937377929688e-01 3.018655478954315186e-01 -2.496801689267158508e-02
3.442000000000000000e+03 4.162732315063476562e+01 -1.103552055358886719e+01 2.971260845661163330e-01 7.019776701927185059e-01 2.997311353683471680e-01 -9.033318608999252319e-03
3.443000000000000000e+03 3.677284622192382812e+01 -9.044371604919433594e+00 4.234690964221954346e-01 -3.208001703023910522e-02 1.174167245626449585e-01 -5.851218476891517639e-02
3.444000000000000000e+03 3.751391983032226562e+01 -8.155785560607910156e+00 4.257957637310028076e-01 3.649777173995971680e-02 1.386880576610565186e-01 -3.476914018392562866e-02
3.445000000000000000e+03 4.725628280639648438e+01 -2.280529975891113281e+01 -1.023864522576332092e-01 2.094940423965454102e+00 5.977661609649658203e-01 2.837932109832763672e-02
3.446000000000000000e+03 4.628218078613281250e+01 -2.165216255187988281e+01 -7.700425386428833008e-02 1.818586587905883789e+00 5.224747061729431152e-01 -2.717935247346758842e-03
3.447000000000000000e+03 7.317658996582031250e+01 -2.029042053222656250e+01 3.325860714539885521e-03 7.179319858551025391e+00 2.154793739318847656e+00 2.193058580160140991e-01
3.448000000000000000e+03 6.379556179046630859e+00 -1.425305271148681641e+01 3.114107064902782440e-02 -5.703436732292175293e-01 -1.617607772350311279e-01 -3.803990483283996582e-01
3.449000000000000000e+03 7.070655059814453125e+01 -3.882442235946655273e+00 -8.320713415741920471e-03 7.041958808898925781e+00 2.110091447830200195e+00 3.086210489273071289e-01
3.450000000000000000e+03 7.296176147460937500e+01 2.651317596435546875e+01 -2.997821569442749023e-01 8.754548072814941406e+00 2.536429643630981445e+00 -1.529510378837585449e+00
3.451000000000000000e+03 7.297563171386718750e+01 4.620227336883544922e+00 -7.894277572631835938e-02 7.804867267608642578e+00 2.317777395248413086e+00 1.771335452795028687e-01
3.452000000000000000e+03 7.134934997558593750e+01 6.019598841667175293e-01 -4.602709412574768066e-02 7.308769702911376953e+00 2.178822755813598633e+00 2.674394845962524414e-01
3.453000000000000000e+03 7.886495590209960938e+00 2.500592231750488281e+01 -8.057252503931522369e-03 -2.967097610235214233e-02 -1.131846848875284195e-02 -1.536190509796142578e-02
3.454000000000000000e+03 6.773039340972900391e+00 2.573577499389648438e+01 -5.995224229991436005e-03 -4.713137447834014893e-02 -1.593798026442527771e-02 -1.605699025094509125e-02
3.455000000000000000e+03 7.140314483642578125e+01 -2.384511756896972656e+01 1.503190491348505020e-02 6.771537780761718750e+00 2.035970926284790039e+00 2.468729764223098755e-01
3.456000000000000000e+03 7.275037384033203125e+01 -2.562394142150878906e+01 1.898248679935932159e-02 6.979291915893554688e+00 2.099482297897338867e+00 2.161962687969207764e-01
3.457000000000000000e+03 3.747056198120117188e+01 -6.601480484008789062e+00 4.407689273357391357e-01 6.772941444069147110e-03 1.342625617980957031e-01 1.437235740013420582e-03
3.458000000000000000e+03 3.459305953979492188e+01 -6.276824474334716797e+00 5.167682766914367676e-01 -2.670225799083709717e-01 7.492370903491973877e-02 -4.262210428714752197e-02
3.459000000000000000e+03 7.268495178222656250e+01 1.951658439636230469e+01 -5.830312967300415039e-01 8.354804992675781250e+00 2.331532001495361328e+00 -6.280116438865661621e-01
3.460000000000000000e+03 1.384495067596435547e+01 -1.195154285430908203e+01 1.513141095638275146e-01 -5.532268285751342773e-01 -1.205738186836242676e-01 -5.318667888641357422e-01
3.461000000000000000e+03 7.156464385986328125e+01 1.135122585296630859e+01 -2.929880023002624512e-01 7.696132183074951172e+00 2.220943212509155273e+00 3.657917678356170654e-02
3.462000000000000000e+03 4.140324783325195312e+01 -1.846951484680175781e+01 1.356490980833768845e-02 6.687607169151306152e-01 2.046976834535598755e-01 -2.108255960047245026e-02
3.463000000000000000e+03 7.180653381347656250e+01 -1.645921134948730469e+01 2.514018444344401360e-03 6.999545574188232422e+00 2.100617885589599609e+00 2.525056898593902588e-01
3.464000000000000000e+03 6.994698333740234375e+01 3.049537658691406250e+00 -9.402146190404891968e-02 7.021295070648193359e+00 2.078181982040405273e+00 2.916494607925415039e-01
3.465000000000000000e+03 7.057337188720703125e+01 -1.201613426208496094e+01 2.689342014491558075e-03 6.844067096710205078e+00 2.054026842117309570e+00 2.913447916507720947e-01
3.466000000000000000e+03 6.093038082122802734e+00 -1.176106929779052734e+01 -1.253455504775047302e-02 -4.665438532829284668e-01 -1.437235176563262939e-01 -3.844185471534729004e-01
3.467000000000000000e+03 7.191259765625000000e+01 -4.761538982391357422e+00 -8.100020699203014374e-03 7.293016433715820312e+00 2.185474872589111328e+00 2.701822817325592041e-01
3.468000000000000000e+03 7.244615173339843750e+01 1.834354209899902344e+01 -5.528264641761779785e-01 8.253159523010253906e+00 2.310099840164184570e+00 -4.869673550128936768e-01
3.469000000000000000e+03 7.299661254882812500e+01 2.539213943481445312e+01 -4.513395726680755615e-01 8.717590332031250000e+00 2.479875326156616211e+00 -1.390746712684631348e+00
3.470000000000000000e+03 7.402426147460937500e+01 2.314278602600097656e+01 -4.606865644454956055e-01 8.411279678344726562e+00 2.385178089141845703e+00 -1.130318045616149902e+00
3.471000000000000000e+03 7.221920776367187500e+01 7.402946472167968750e+00 -1.578577160835266113e-01 7.676312446594238281e+00 2.255536556243896484e+00 1.408820003271102905e-01
3.472000000000000000e+03 7.256940460205078125e+01 8.860640525817871094e+00 -1.684302389621734619e-01 7.835097312927246094e+00 2.300000190734863281e+00 8.664000034332275391e-02
3.473000000000000000e+03 7.300147247314453125e+01 2.424805068969726562e+01 -5.470094680786132812e-01 8.651887893676757812e+00 2.431463479995727539e+00 -1.249453902244567871e+00
3.474000000000000000e+03 7.298529052734375000e+01 2.307870483398437500e+01 -5.931928157806396484e-01 8.592545509338378906e+00 2.399805545806884766e+00 -1.089284777641296387e+00
3.475000000000000000e+03 7.174656677246093750e+01 1.493123912811279297e+01 -4.356972575187683105e-01 7.933523654937744141e+00 2.249347925186157227e+00 -1.616842448711395264e-01
3.476000000000000000e+03 7.255490875244140625e+01 1.568190288543701172e+01 -4.159556925296783447e-01 8.110964775085449219e+00 2.308502912521362305e+00 -2.678256332874298096e-01
3.477000000000000000e+03 7.565506458282470703e+00 1.811157798767089844e+01 -1.843636040575802326e-03 -1.971180178225040436e-02 -6.466631311923265457e-03 -2.029518596827983856e-02
3.478000000000000000e+03 5.984179496765136719e+00 -2.394875526428222656e+01 5.135324597358703613e-02 -8.889079093933105469e-01 -2.512663900852203369e-01 -2.204312682151794434e-01
3.479000000000000000e+03 7.298451995849609375e+01 -1.368630313873291016e+01 5.134184379130601883e-03 7.306704998016357422e+00 2.193551778793334961e+00 2.353444695472717285e-01
3.480000000000000000e+03 7.161708068847656250e+01 -1.506386566162109375e+01 8.519283495843410492e-03 6.982794761657714844e+00 2.097394227981567383e+00 2.644172012805938721e-01
3.481000000000000000e+03 7.822375774383544922e+00 1.929410552978515625e+01 -3.586539765819907188e-03 -1.784478873014450073e-02 -6.429398432374000549e-03 -2.029971033334732056e-02
3.482000000000000000e+03 1.429459667205810547e+01 -1.097448921203613281e+01 9.726405888795852661e-02 -5.833539962768554688e-01 -1.458269804716110229e-01 -5.775536894798278809e-01
3.483000000000000000e+03 8.111496925354003906e+00 6.851530551910400391e+00 1.540900468826293945e-01 -7.532354444265365601e-02 2.362995222210884094e-02 1.251457538455724716e-02
3.484000000000000000e+03 1.005620002746582031e+01 2.870553970336914062e+01 -7.914958521723747253e-03 -7.938435301184654236e-03 -4.756018519401550293e-03 -7.679803762584924698e-03
3.485000000000000000e+03 8.081540107727050781e+00 8.411229133605957031e+00 1.112210303544998169e-01 -3.299579396843910217e-02 2.346757054328918457e-02 -7.199256680905818939e-03
3.486000000000000000e+03 5.897354602813720703e+00 1.251437282562255859e+01 3.097163140773773193e-02 -6.358922272920608521e-02 -9.785277768969535828e-03 -1.394250057637691498e-02
3.487000000000000000e+03 7.225717067718505859e+00 -2.091367530822753906e+01 8.245532959699630737e-02 -7.491099238395690918e-01 -1.999963670969009399e-01 -3.052807152271270752e-01
3.488000000000000000e+03 7.179851531982421875e+01 -1.223351192474365234e+01 4.728958010673522949e-03 7.087248325347900391e+00 2.127593040466308594e+00 2.715497910976409912e-01
3.489000000000000000e+03 2.169650077819824219e+01 -2.428118515014648438e+01 2.292835861444473267e-01 1.849329918622970581e-01 1.242649778723716736e-01 -3.365667164325714111e-01
3.490000000000000000e+03 7.293357849121093750e+01 -2.910254287719726562e+01 3.651461750268936157e-02 6.922088146209716797e+00 2.087580919265747070e+00 1.886510103940963745e-01
3.491000000000000000e+03 6.820891571044921875e+01 -2.936890220642089844e+01 7.840694487094879150e-02 6.106314659118652344e+00 1.855416536331176758e+00 2.771759331226348877e-01
3.492000000000000000e+03 7.196124267578125000e+01 -1.898742103576660156e+01 1.037199143320322037e-02 6.981317996978759766e+00 2.097506999969482422e+00 2.508336007595062256e-01
3.493000000000000000e+03 7.322394561767578125e+01 -7.119043350219726562e+00 -1.202755491249263287e-03 7.531211376190185547e+00 2.259002447128295898e+00 2.357179671525955200e-01
3.494000000000000000e+03 4.528624343872070312e+01 -2.532147407531738281e+01 -1.464642435312271118e-01 1.627965569496154785e+00 4.444504082202911377e-01 -2.919990941882133484e-02
3.495000000000000000e+03 7.185098266601562500e+01 -2.813838386535644531e+01 4.206017777323722839e-02 6.785451889038085938e+00 2.048253536224365234e+00 2.207981646060943604e-01
3.496000000000000000e+03 7.217785644531250000e+01 -5.802890062332153320e-01 -3.014120087027549744e-02 7.467355251312255859e+00 2.231164216995239258e+00 2.561316192150115967e-01
3.497000000000000000e+03 6.929174041748046875e+01 2.194723129272460938e+00 -8.699724823236465454e-02 6.843808174133300781e+00 2.027043342590332031e+00 3.132236599922180176e-01
3.498000000000000000e+03 7.197116851806640625e+01 -5.949052333831787109e+00 -2.008068840950727463e-03 7.285005569458007812e+00 2.184899330139160156e+00 2.700675129890441895e-01
3.499000000000000000e+03 1.251349830627441406e+01 -2.159723663330078125e+01 1.688355654478073120e-01 -4.796918928623199463e-01 -9.325689822435379028e-02 -3.465017676353454590e-01
3.500000000000000000e+03 8.775485038757324219e+00 -2.536596679687500000e+01 9.256607294082641602e-02 -7.345721125602722168e-01 -1.926018148660659790e-01 -2.584567964076995850e-01
3.501000000000000000e+03 3.409444427490234375e+01 -5.343876361846923828e+00 5.254941582679748535e-01 -3.200801312923431396e-01 6.162420287728309631e-02 -3.010971471667289734e-02
3.502000000000000000e+03 8.007301330566406250e+00 2.845083999633789062e+01 -6.681789644062519073e-03 -3.331347182393074036e-02 -1.199857890605926514e-02 -1.230343617498874664e-02
3.503000000000000000e+03 7.330760955810546875e+01 3.463203811645507812e+01 1.279211282730102539e+00 8.098548889160156250e+00 2.813328027725219727e+00 -2.408733069896697998e-01
3.504000000000000000e+03 7.068520355224609375e+01 -3.369951248168945312e+01 7.569440454244613647e-02 6.433063507080078125e+00 1.952627420425415039e+00 1.724238097667694092e-01
3.505000000000000000e+03 2.450895118713378906e+01 -3.246662139892578125e+01 3.540589809417724609e-01 3.030888736248016357e-01 1.971443593502044678e-01 -2.908570468425750732e-01
3.506000000000000000e+03 2.213008689880371094e+01 -2.980534362792968750e+01 2.825470864772796631e-01 1.770116388797760010e-01 1.378676146268844604e-01 -3.093248903751373291e-01
3.507000000000000000e+03 6.877666473388671875e+01 -2.708290100097656250e+01 5.028833448886871338e-02 6.261593341827392578e+00 1.893564581871032715e+00 2.708892226219177246e-01
3.508000000000000000e+03 6.820803833007812500e+01 3.783515930175781250e+01 -9.600751101970672607e-02 1.310607624053955078e+01 3.903020620346069336e+00 1.325549602508544922e+00
3.509000000000000000e+03 7.271804809570312500e+01 3.799917221069335938e+01 2.285162359476089478e-01 9.237051963806152344e+00 2.839670658111572266e+00 6.658108830451965332e-01
3.510000000000000000e+03 9.056743621826171875e+00 -3.681563568115234375e+01 7.725180685520172119e-02 -8.543065190315246582e-01 -2.331164181232452393e-01 -8.737549930810928345e-02
3.511000000000000000e+03 9.782928466796875000e+00 -3.443585205078125000e+01 1.047751754522323608e-01 -7.505643963813781738e-01 -1.937367618083953857e-01 -1.396713852882385254e-01
3.512000000000000000e+03 1.005437278747558594e+01 -3.041433525085449219e+01 1.079642921686172485e-01 -7.017483711242675781e-01 -1.781352162361145020e-01 -1.960889846086502075e-01
3.513000000000000000e+03 7.232269287109375000e+00 -3.028611373901367188e+01 6.428637355566024780e-02 -9.198985695838928223e-01 -2.566836476325988770e-01 -1.652565151453018188e-01
3.514000000000000000e+03 4.189393997192382812e+01 -1.661672973632812500e+01 8.449982106685638428e-02 7.842010259628295898e-01 2.606102526187896729e-01 -3.632648661732673645e-02
3.515000000000000000e+03 6.724446868896484375e+01 3.315737533569335938e+01 5.603868484497070312e+00 1.376089668273925781e+01 5.809429645538330078e+00 -1.476256608963012695e+00
3.516000000000000000e+03 8.481815338134765625e+00 2.619649314880371094e+01 -7.537853904068470001e-03 -2.265006490051746368e-02 -9.056375361979007721e-03 -1.333288475871086121e-02
3.517000000000000000e+03 9.198482513427734375e+00 2.744860267639160156e+01 -8.398130536079406738e-03 -1.595442555844783783e-02 -7.305766921490430832e-03 -1.044674217700958252e-02
3.518000000000000000e+03 1.146680259704589844e+01 -2.529164123535156250e+01 1.385800093412399292e-01 -5.716156363487243652e-01 -1.299106776714324951e-01 -2.852446436882019043e-01
3.519000000000000000e+03 6.236955642700195312e+01 3.110547828674316406e+01 1.822302341461181641e+00 4.709707260131835938e+00 1.959602832794189453e+00 3.885982990264892578e+00
3.520000000000000000e+03 2.733229637145996094e+01 2.813510894775390625e+00 -1.844449281692504883e+00 -7.107211947441101074e-01 -7.665511369705200195e-01 -7.413213849067687988e-01
3.521000000000000000e+03 2.678613281250000000e+01 2.313067913055419922e+00 -1.816419959068298340e+00 -5.965144634246826172e-01 -7.238803505897521973e-01 -6.715612411499023438e-01
3.522000000000000000e+03 2.597990417480468750e+01 2.160703182220458984e+00 -2.034369945526123047e+00 -4.704781472682952881e-01 -7.514544129371643066e-01 -7.576473355293273926e-01
3.523000000000000000e+03 2.619694519042968750e+01 1.941830754280090332e+00 -1.793242096900939941e+00 -5.043284893035888672e-01 -6.892711520195007324e-01 -6.563692092895507812e-01
3.524000000000000000e+03 6.364425659179687500e+01 3.135170555114746094e+01 1.259379863739013672e+00 9.470509529113769531e+00 3.218966722488403320e+00 5.102676868438720703e+00
3.525000000000000000e+03 6.495079803466796875e+01 3.119838905334472656e+01 -1.350542306900024414e-01 1.463496112823486328e+01 4.349972248077392578e+00 2.803443431854248047e+00
3.526000000000000000e+03 6.719867706298828125e+01 3.284099197387695312e+01 4.817812919616699219e+00 1.393923377990722656e+01 5.627114295959472656e+00 -1.714650988578796387e+00
3.527000000000000000e+03 1.849637031555175781e+01 1.197086906433105469e+01 8.989056944847106934e-02 1.706322282552719116e-01 7.815684378147125244e-02 1.238499060273170471e-01
3.528000000000000000e+03 6.542308044433593750e+01 3.108959388732910156e+01 -1.673396974802017212e-01 1.488160324096679688e+01 4.414278984069824219e+00 1.603358268737792969e+00
3.529000000000000000e+03 6.709531402587890625e+01 3.466223526000976562e+01 6.304577350616455078e+00 1.428434944152832031e+01 6.176678180694580078e+00 1.613827824592590332e+00
3.530000000000000000e+03 4.149562454223632812e+01 1.969411468505859375e+01 -9.208590388298034668e-01 -9.200442433357238770e-01 -5.522710084915161133e-01 -1.016236782073974609e+00
3.531000000000000000e+03 4.201762390136718750e+01 1.873336982727050781e+01 -8.322492241859436035e-01 -7.554252147674560547e-01 -4.763023257255554199e-01 -8.948296904563903809e-01
3.532000000000000000e+03 4.196063995361328125e+01 1.967099952697753906e+01 -8.869179487228393555e-01 -8.650792241096496582e-01 -5.255991220474243164e-01 -9.659421443939208984e-01
3.533000000000000000e+03 1.517606735229492188e+01 9.037098884582519531e+00 7.838157564401626587e-02 2.684457302093505859e-01 1.040481925010681152e-01 1.211323887109756470e-01
3.534000000000000000e+03 1.974219703674316406e+01 1.280123138427734375e+01 9.361500293016433716e-02 1.538700014352798462e-01 7.424549758434295654e-02 1.200621724128723145e-01
3.535000000000000000e+03 1.896020126342773438e+01 1.268732738494873047e+01 8.641069382429122925e-02 1.622901111841201782e-01 7.461024075746536255e-02 1.171703115105628967e-01
3.536000000000000000e+03 7.094628906250000000e+01 2.903699493408203125e+01 2.674389183521270752e-01 9.878721237182617188e+00 3.043848037719726562e+00 -1.692373752593994141e+00
3.537000000000000000e+03 3.402138137817382812e+01 1.119213771820068359e+01 -1.124490618705749512e+00 -1.124632477760314941e+00 -6.747369170188903809e-01 -1.071453332901000977e+00
3.538000000000000000e+03 3.384754180908203125e+01 1.089542293548583984e+01 -1.106115579605102539e+00 -1.111006259918212891e+00 -6.651365756988525391e-01 -1.054893136024475098e+00
3.539000000000000000e+03 3.383981704711914062e+01 1.036369991302490234e+01 -1.076954960823059082e+00 -1.064242124557495117e+00 -6.423591375350952148e-01 -1.009803295135498047e+00
3.540000000000000000e+03 6.797883605957031250e+01 3.337190628051757812e+01 5.024588108062744141e+00 1.246833419799804688e+01 5.247876644134521484e+00 -9.311780929565429688e-01
3.541000000000000000e+03 6.753454589843750000e+01 3.369210433959960938e+01 6.031937599182128906e+00 1.309063148498535156e+01 5.736770629882812500e+00 -5.556129813194274902e-01
3.542000000000000000e+03 4.754071807861328125e+01 2.502152252197265625e+01 -8.981136679649353027e-01 -6.287952065467834473e-01 -4.580726623535156250e-01 -7.933328151702880859e-01
3.543000000000000000e+03 6.709184265136718750e+01 3.248848724365234375e+01 3.942172527313232422e+00 1.443139457702636719e+01 5.512070178985595703e+00 -1.867874264717102051e+00
3.544000000000000000e+03 3.949191284179687500e+01 1.722533607482910156e+01 -9.796087741851806641e-01 -9.705712199211120605e-01 -5.850539803504943848e-01 -1.007308363914489746e+00
3.545000000000000000e+03 3.201028442382812500e+01 2.607577514648437500e+01 4.865945130586624146e-02 7.812792807817459106e-02 3.803621232509613037e-02 6.249554827809333801e-02
3.546000000000000000e+03 4.706885147094726562e+01 2.413352966308593750e+01 -8.831651806831359863e-01 -5.942279100418090820e-01 -4.432179331779479980e-01 -7.496753334999084473e-01
3.547000000000000000e+03 1.560369396209716797e+01 9.372995376586914062e+00 8.323999494314193726e-02 2.509393990039825439e-01 1.002538129687309265e-01 1.271728873252868652e-01
3.548000000000000000e+03 3.340278625488281250e+01 2.642907714843750000e+01 5.109647661447525024e-02 7.658033072948455811e-02 3.830303996801376343e-02 6.203679740428924561e-02
3.549000000000000000e+03 6.026207351684570312e+01 3.076677703857421875e+01 1.113278985023498535e+00 1.757586240768432617e+00 8.612595796585083008e-01 1.624966859817504883e+00
3.550000000000000000e+03 2.332121086120605469e+01 1.755346107482910156e+01 6.840433925390243530e-02 1.175287663936614990e-01 5.577993020415306091e-02 9.085318446159362793e-02
3.551000000000000000e+03 4.864727020263671875e+01 2.593934631347656250e+01 -8.398448824882507324e-01 -5.624343752861022949e-01 -4.206837713718414307e-01 -7.286134958267211914e-01
3.552000000000000000e+03 1.517878055572509766e+01 8.230771064758300781e+00 9.244356304407119751e-02 2.988380193710327148e-01 1.173844709992408752e-01 1.410504579544067383e-01
3.553000000000000000e+03 2.315194129943847656e+01 1.713269996643066406e+01 7.104969024658203125e-02 1.197702139616012573e-01 5.724597349762916565e-02 9.387893974781036377e-02
3.554000000000000000e+03 2.295213699340820312e+01 1.674704933166503906e+01 7.357191294431686401e-02 1.224439367651939392e-01 5.880475416779518127e-02 9.582576900720596313e-02
3.555000000000000000e+03 2.162152671813964844e+01 1.632703399658203125e+01 6.825650483369827271e-02 1.294767707586288452e-01 5.931998044252395630e-02 9.358039498329162598e-02
3.556000000000000000e+03 2.097689628601074219e+01 1.398658466339111328e+01 9.175378829240798950e-02 1.415165960788726807e-01 6.998112052679061890e-02 1.114985719323158264e-01
3.557000000000000000e+03 4.887020111083984375e+01 2.634415626525878906e+01 -8.517900109291076660e-01 -5.901868343353271484e-01 -4.325930476188659668e-01 -7.411345839500427246e-01
3.558000000000000000e+03 4.015783691406250000e+01 1.760963058471679688e+01 -9.384371042251586914e-01 -8.925518989562988281e-01 -5.492966771125793457e-01 -9.823812246322631836e-01
3.559000000000000000e+03 4.149301528930664062e+01 1.915983200073242188e+01 -8.877753615379333496e-01 -8.646458387374877930e-01 -5.257263779640197754e-01 -9.806592464447021484e-01
3.560000000000000000e+03 3.657440948486328125e+01 1.364119338989257812e+01 -1.027051568031311035e+00 -1.077280998229980469e+00 -6.312997937202453613e-01 -1.025046706199645996e+00
3.561000000000000000e+03 3.583117294311523438e+01 1.347257232666015625e+01 -1.083340525627136230e+00 -1.151659607887268066e+00 -6.705000400543212891e-01 -1.085629940032958984e+00
3.562000000000000000e+03 2.819375038146972656e+01 2.143167304992675781e+01 6.008001416921615601e-02 9.208977967500686646e-02 4.565093666315078735e-02 7.646806538105010986e-02
3.563000000000000000e+03 4.240740585327148438e+01 2.048716926574707031e+01 -9.337763786315917969e-01 -9.036205410957336426e-01 -5.512191057205200195e-01 -9.723643064498901367e-01
3.564000000000000000e+03 4.420759582519531250e+01 2.176165580749511719e+01 -9.264803528785705566e-01 -7.983945608139038086e-01 -5.174624919891357422e-01 -8.751628994941711426e-01
3.565000000000000000e+03 2.881418609619140625e+01 4.134118556976318359e+00 -1.792410016059875488e+00 -9.860503077507019043e-01 -8.335381150245666504e-01 -8.198130726814270020e-01
3.566000000000000000e+03 4.316964721679687500e+01 2.133936309814453125e+01 -9.740707874298095703e-01 -8.924632668495178223e-01 -5.599602460861206055e-01 -9.570705294609069824e-01
3.567000000000000000e+03 2.952137947082519531e+01 -1.487828135490417480e+00 2.097345292568206787e-01 -4.419150054454803467e-01 -6.965414434671401978e-02 -3.646141150966286659e-03
3.568000000000000000e+03 3.684178924560546875e+01 1.389641094207763672e+01 -1.015219926834106445e+00 -1.064916253089904785e+00 -6.240408420562744141e-01 -1.017415881156921387e+00
3.569000000000000000e+03 4.624015426635742188e+01 2.407357978820800781e+01 -9.808200597763061523e-01 -7.478882670402526855e-01 -5.186125040054321289e-01 -8.550471663475036621e-01
3.570000000000000000e+03 4.671959686279296875e+01 2.395075225830078125e+01 -9.084254503250122070e-01 -6.356502771377563477e-01 -4.632227122783660889e-01 -7.742374539375305176e-01
3.571000000000000000e+03 2.467177391052246094e+01 1.781146430969238281e+01 7.619198411703109741e-02 1.103980764746665955e-01 5.597701668739318848e-02 9.182210266590118408e-02
3.572000000000000000e+03 4.447663497924804688e+01 2.204159164428710938e+01 -9.332839250564575195e-01 -7.962795495986938477e-01 -5.188690423965454102e-01 -8.692167401313781738e-01
3.573000000000000000e+03 3.502771377563476562e+01 1.244954204559326172e+01 -1.095752000808715820e+00 -1.150496006011962891e+00 -6.738744378089904785e-01 -1.080126523971557617e+00
3.574000000000000000e+03 3.582564163208007812e+01 1.300350666046142578e+01 -1.061584353446960449e+00 -1.102778673171997070e+00 -6.493089199066162109e-01 -1.042960762977600098e+00
3.575000000000000000e+03 2.118841171264648438e+01 1.424855518341064453e+01 9.007247537374496460e-02 1.390371322631835938e-01 6.873288005590438843e-02 1.100454106926918030e-01
3.576000000000000000e+03 2.761219215393066406e+01 2.115097427368164062e+01 5.971352010965347290e-02 9.489933401346206665e-02 4.638385772705078125e-02 7.734736055135726929e-02
3.577000000000000000e+03 2.840358734130859375e+01 2.055339241027832031e+01 6.795503199100494385e-02 9.096043556928634644e-02 4.767464101314544678e-02 8.044982701539993286e-02
3.578000000000000000e+03 5.015655517578125000e+01 2.842298889160156250e+01 -9.357686042785644531e-01 -6.522412896156311035e-01 -4.764029681682586670e-01 -7.857992053031921387e-01
3.579000000000000000e+03 4.910977172851562500e+01 2.668530654907226562e+01 -8.563086986541748047e-01 -5.951943397521972656e-01 -4.354509115219116211e-01 -7.394037842750549316e-01
3.580000000000000000e+03 1.924881362915039062e+01 1.285734748840332031e+01 8.717147260904312134e-02 1.575463563203811646e-01 7.341534644365310669e-02 1.170219555497169495e-01
3.581000000000000000e+03 2.757704544067382812e+01 2.032649421691894531e+01 6.622456014156341553e-02 9.569049626588821411e-02 4.857451468706130981e-02 8.113979548215866089e-02
3.582000000000000000e+03 5.161840820312500000e+01 2.884149742126464844e+01 -7.799892425537109375e-01 -2.951735556125640869e-01 -3.225488364696502686e-01 -5.751518607139587402e-01
3.583000000000000000e+03 5.064268112182617188e+01 2.894762039184570312e+01 -9.352316856384277344e-01 -6.280580163002014160e-01 -4.689868986606597900e-01 -7.698797583580017090e-01
3.584000000000000000e+03 2.723334503173828125e+01 2.027970314025878906e+01 6.472399085760116577e-02 9.770453721284866333e-02 4.872855916619300842e-02 8.099141716957092285e-02
3.585000000000000000e+03 2.731490707397460938e+01 2.000110626220703125e+01 6.844739615917205811e-02 9.713976830244064331e-02 4.967614635825157166e-02 8.253363519906997681e-02
3.586000000000000000e+03 2.492114830017089844e+01 1.810676193237304688e+01 7.403460890054702759e-02 1.093048602342605591e-01 5.500183999538421631e-02 9.021125733852386475e-02
3.587000000000000000e+03 4.363798522949218750e+01 2.127456665039062500e+01 -9.236375689506530762e-01 -8.156899809837341309e-01 -5.217982530593872070e-01 -8.979784250259399414e-01
3.588000000000000000e+03 3.920289993286132812e+01 1.704188728332519531e+01 -9.910714030265808105e-01 -1.004594445228576660e+00 -5.986997485160827637e-01 -1.015030980110168457e+00
3.589000000000000000e+03 1.602374076843261719e+01 9.736994743347167969e+00 8.659145981073379517e-02 2.347721457481384277e-01 9.640908241271972656e-02 1.287883520126342773e-01
3.590000000000000000e+03 1.765744972229003906e+01 1.104701042175292969e+01 9.204629808664321899e-02 1.901298165321350098e-01 8.465283364057540894e-02 1.283064782619476318e-01
3.591000000000000000e+03 3.710672760009765625e+01 1.417258071899414062e+01 -1.001169085502624512e+00 -1.054169535636901855e+00 -6.166015863418579102e-01 -1.012084841728210449e+00
3.592000000000000000e+03 4.474529647827148438e+01 2.231237411499023438e+01 -9.380823373794555664e-01 -7.896274924278259277e-01 -5.183129906654357910e-01 -8.614199161529541016e-01
3.593000000000000000e+03 3.469615936279296875e+01 1.019391822814941406e+01 -9.992932677268981934e-01 -9.595941305160522461e-01 -5.876662135124206543e-01 -9.158163666725158691e-01
3.594000000000000000e+03 4.898798370361328125e+01 2.580940628051757812e+01 -7.810576558113098145e-01 -4.563847482204437256e-01 -3.712327182292938232e-01 -6.472507119178771973e-01
3.595000000000000000e+03 3.736976242065429688e+01 1.445538806915283203e+01 -9.988074302673339844e-01 -1.053737878799438477e+00 -6.157636046409606934e-01 -1.005407691001892090e+00
3.596000000000000000e+03 3.520138931274414062e+01 1.268739795684814453e+01 -1.092872381210327148e+00 -1.152759075164794922e+00 -6.736894249916076660e-01 -1.081262707710266113e+00
3.597000000000000000e+03 1.410355186462402344e+01 7.502164840698242188e+00 8.051268756389617920e-02 3.624773025512695312e-01 1.328970044851303101e-01 1.034023240208625793e-01
3.598000000000000000e+03 3.762255859375000000e+01 1.475561809539794922e+01 -9.899789094924926758e-01 -1.043089628219604492e+00 -6.099205613136291504e-01 -1.003265976905822754e+00
3.599000000000000000e+03 2.576646041870117188e+01 1.857007980346679688e+01 7.449319958686828613e-02 1.058574765920639038e-01 5.410520359873771667e-02 8.828973025083541870e-02
3.600000000000000000e+03 5.543967437744140625e+01 3.033355140686035156e+01 -3.918533623218536377e-01 5.199773907661437988e-01 3.843720629811286926e-02 -2.700060904026031494e-01
3.601000000000000000e+03 5.127637863159179688e+01 2.913121032714843750e+01 -8.547884821891784668e-01 -4.603233337402343750e-01 -3.945335447788238525e-01 -6.757588982582092285e-01
3.602000000000000000e+03 3.787674331665039062e+01 1.505525493621826172e+01 -9.882804751396179199e-01 -1.036645054817199707e+00 -6.074776649475097656e-01 -9.950592517852783203e-01
3.603000000000000000e+03 5.070040893554687500e+01 2.809017372131347656e+01 -8.165776729583740234e-01 -4.472631812095642090e-01 -3.791522681713104248e-01 -6.354561448097229004e-01
3.604000000000000000e+03 3.265744400024414062e+01 2.620987319946289062e+01 4.980074986815452576e-02 7.703596353530883789e-02 3.805101290345191956e-02 6.207314133644104004e-02
3.605000000000000000e+03 4.291967391967773438e+01 2.107656478881835938e+01 -9.685618877410888672e-01 -8.992360830307006836e-01 -5.603393912315368652e-01 -9.614165425300598145e-01
3.606000000000000000e+03 2.169774818420410156e+01 1.513444995880126953e+01 8.316354453563690186e-02 1.341481655836105347e-01 6.519351154565811157e-02 1.031423658132553101e-01
3.607000000000000000e+03 2.105383872985839844e+01 1.468493175506591797e+01 8.303949981927871704e-02 1.383566409349441528e-01 6.641884148120880127e-02 1.054195389151573181e-01
3.608000000000000000e+03 4.593252944946289062e+01 2.384524536132812500e+01 -9.937728643417358398e-01 -7.793228626251220703e-01 -5.319287180900573730e-01 -8.681645989418029785e-01
3.609000000000000000e+03 4.744208908081054688e+01 2.430175209045410156e+01 -8.478345870971679688e-01 -5.422681570053100586e-01 -4.170308113098144531e-01 -7.147918939590454102e-01
3.610000000000000000e+03 2.932596588134765625e+01 2.267637825012207031e+01 5.359479784965515137e-02 8.735805004835128784e-02 4.228585213422775269e-02 7.239051908254623413e-02
3.611000000000000000e+03 2.891356277465820312e+01 2.290489387512207031e+01 5.173097178339958191e-02 8.868201076984405518e-02 4.212389513850212097e-02 7.142204791307449341e-02
3.612000000000000000e+03 3.681346130371093750e+01 1.326788043975830078e+01 -9.874848127365112305e-01 -1.003476858139038086e+00 -5.972885489463806152e-01 -9.656613469123840332e-01
3.613000000000000000e+03 4.914923477172851562e+01 2.615391159057617188e+01 -7.999387383460998535e-01 -4.862331449985504150e-01 -3.858515620231628418e-01 -6.651778817176818848e-01
3.614000000000000000e+03 3.814225769042968750e+01 1.534326076507568359e+01 -9.815253615379333496e-01 -1.025023341178894043e+00 -6.019645929336547852e-01 -9.898477792739868164e-01
3.615000000000000000e+03 3.877406311035156250e+01 1.648265838623046875e+01 -9.960224032402038574e-01 -1.027667164802551270e+00 -6.071068644523620605e-01 -1.009211659431457520e+00
3.616000000000000000e+03 4.072965240478515625e+01 1.840321159362792969e+01 -9.179790616035461426e-01 -8.848918080329895020e-01 -5.408612489700317383e-01 -9.994360208511352539e-01
3.617000000000000000e+03 4.501228713989257812e+01 2.257359695434570312e+01 -9.414317011833190918e-01 -7.807360887527465820e-01 -5.166503190994262695e-01 -8.526661992073059082e-01
3.618000000000000000e+03 2.958560371398925781e+01 2.303341293334960938e+01 5.268422886729240417e-02 8.610059320926666260e-02 4.163544625043869019e-02 7.124590873718261719e-02
3.619000000000000000e+03 5.039297485351562500e+01 2.817394828796386719e+01 -8.713293075561523438e-01 -5.367910265922546387e-01 -4.224360883235931396e-01 -7.050359249114990234e-01
3.620000000000000000e+03 4.317910766601562500e+01 2.083172416687011719e+01 -9.176763892173767090e-01 -8.412104249000549316e-01 -5.276660323143005371e-01 -9.160213470458984375e-01
3.621000000000000000e+03 2.637331008911132812e+01 1.995954895019531250e+01 6.325346976518630981e-02 1.014729440212249756e-01 4.941792413592338562e-02 8.115805685520172119e-02
3.622000000000000000e+03 4.892041397094726562e+01 2.541295433044433594e+01 -7.586970925331115723e-01 -4.096182286739349365e-01 -3.504945933818817139e-01 -6.148803234100341797e-01
3.623000000000000000e+03 4.987404251098632812e+01 2.757747459411621094e+01 -8.668271303176879883e-01 -5.700087547302246094e-01 -4.310507774353027344e-01 -7.194706797599792480e-01
3.624000000000000000e+03 2.184127807617187500e+01 1.547095012664794922e+01 7.940180599689483643e-02 1.323674619197845459e-01 6.353078037500381470e-02 1.012205481529235840e-01
3.625000000000000000e+03 5.690753936767578125e+01 3.039867782592773438e+01 -2.958320640027523041e-02 7.554277181625366211e-01 2.177533507347106934e-01 3.355141356587409973e-02
3.626000000000000000e+03 3.286098098754882812e+01 9.653853416442871094e+00 -1.114311337471008301e+00 -1.112144112586975098e+00 -6.679366230964660645e-01 -1.030089497566223145e+00
3.627000000000000000e+03 1.994871330261230469e+01 1.354279899597167969e+01 8.630498498678207397e-02 1.498371362686157227e-01 7.084263861179351807e-02 1.119616255164146423e-01
3.628000000000000000e+03 2.466018486022949219e+01 1.844151878356933594e+01 6.920313090085983276e-02 1.096452847123146057e-01 5.365452542901039124e-02 8.715116232633590698e-02
3.629000000000000000e+03 2.995363235473632812e+01 4.371141433715820312e+00 -1.604515314102172852e+00 -8.597227334976196289e-01 -7.392714023590087891e-01 -6.914183497428894043e-01
3.630000000000000000e+03 5.114040756225585938e+01 2.941850090026855469e+01 -9.070603847503662109e-01 -5.562703609466552734e-01 -4.389992356300354004e-01 -7.409253120422363281e-01
3.631000000000000000e+03 4.033369064331054688e+01 1.720664978027343750e+01 -9.069092273712158203e-01 -8.310149312019348145e-01 -5.213772654533386230e-01 -9.336733818054199219e-01
3.632000000000000000e+03 5.332953643798828125e+01 2.936648941040039062e+01 -6.048135161399841309e-01 1.551498919725418091e-01 -1.348990947008132935e-01 -3.811271488666534424e-01
3.633000000000000000e+03 5.349810028076171875e+01 3.047014617919921875e+01 -7.429030537605285645e-01 7.114517688751220703e-02 -2.015273720026016235e-01 -5.228183269500732422e-01
3.634000000000000000e+03 2.582024002075195312e+01 1.882896041870117188e+01 7.182163745164871216e-02 1.051109507679939270e-01 5.307977646589279175e-02 8.646208792924880981e-02
3.635000000000000000e+03 3.509728240966796875e+01 2.953691864013671875e+01 4.905805736780166626e-02 7.207635045051574707e-02 3.634032234549522400e-02 5.441805347800254822e-02
3.636000000000000000e+03 4.248273086547851562e+01 1.995163154602050781e+01 -8.714196681976318359e-01 -8.282650113105773926e-01 -5.099053978919982910e-01 -9.247481226921081543e-01
3.637000000000000000e+03 2.071620178222656250e+01 1.417841243743896484e+01 8.627001941204071045e-02 1.416270583868026733e-01 6.836912781000137329e-02 1.090756580233573914e-01
3.638000000000000000e+03 2.119623565673828125e+01 1.496756553649902344e+01 8.098585903644561768e-02 1.369925737380981445e-01 6.539352983236312866e-02 1.029025167226791382e-01
3.639000000000000000e+03 3.842329025268554688e+01 1.561701774597167969e+01 -9.772713184356689453e-01 -1.006638169288635254e+00 -5.951728820800781250e-01 -9.793973565101623535e-01
3.640000000000000000e+03 3.872298812866210938e+01 1.587964344024658203e+01 -9.679296016693115234e-01 -9.826865792274475098e-01 -5.851848721504211426e-01 -9.715605378150939941e-01
3.641000000000000000e+03 4.270029449462890625e+01 2.026855278015136719e+01 -8.936378955841064453e-01 -8.405420184135437012e-01 -5.202539563179016113e-01 -9.256830811500549316e-01
3.642000000000000000e+03 1.917291259765625000e+01 1.237083339691162109e+01 9.298042953014373779e-02 1.606662869453430176e-01 7.609401643276214600e-02 1.225657537579536438e-01
3.643000000000000000e+03 2.870779991149902344e+01 2.253076362609863281e+01 5.269880965352058411e-02 8.962475508451461792e-02 4.269706830382347107e-02 7.253199070692062378e-02
3.644000000000000000e+03 3.998416519165039062e+01 1.703537750244140625e+01 -9.293638467788696289e-01 -8.701441884040832520e-01 -5.398523807525634766e-01 -9.477727413177490234e-01
3.645000000000000000e+03 3.930768585205078125e+01 1.672319602966308594e+01 -9.704427719116210938e-01 -9.562513232231140137e-01 -5.780082345008850098e-01 -9.804880619049072266e-01
3.646000000000000000e+03 4.684441375732421875e+01 2.361412620544433594e+01 -8.591764569282531738e-01 -5.662079453468322754e-01 -4.276153147220611572e-01 -7.169826030731201172e-01
3.647000000000000000e+03 3.044534683227539062e+01 2.479913139343261719e+01 4.801904782652854919e-02 8.211877942085266113e-02 3.904134780168533325e-02 6.639853864908218384e-02
3.648000000000000000e+03 2.251772880554199219e+01 1.698561859130859375e+01 6.738868355751037598e-02 1.235737726092338562e-01 5.728873610496520996e-02 9.255086630582809448e-02
3.649000000000000000e+03 1.689484024047851562e+01 1.062777328491210938e+01 8.778534829616546631e-02 2.058424055576324463e-01 8.808832615613937378e-02 1.256949603557586670e-01
3.650000000000000000e+03 1.559870243072509766e+01 8.983533859252929688e+00 9.095203876495361328e-02 2.620643973350524902e-01 1.059049293398857117e-01 1.358649432659149170e-01
3.651000000000000000e+03 1.972991561889648438e+01 1.328347110748291016e+01 8.706002682447433472e-02 1.520998477935791016e-01 7.174796611070632935e-02 1.147272810339927673e-01
3.652000000000000000e+03 4.527723693847656250e+01 2.282680320739746094e+01 -9.443812370300292969e-01 -7.680545449256896973e-01 -5.137307643890380859e-01 -8.427258133888244629e-01
3.653000000000000000e+03 4.554209136962890625e+01 2.307260322570800781e+01 -9.450618028640747070e-01 -7.519634962081909180e-01 -5.091075897216796875e-01 -8.333235979080200195e-01
3.654000000000000000e+03 3.296333694458007812e+01 2.662588500976562500e+01 4.815043881535530090e-02 7.720865309238433838e-02 3.760772570967674255e-02 6.181898340582847595e-02
3.655000000000000000e+03 3.334370040893554688e+01 2.766920661926269531e+01 4.660246893763542175e-02 7.565884292125701904e-02 3.667839244008064270e-02 5.887658521533012390e-02
3.656000000000000000e+03 3.320360946655273438e+01 2.712090873718261719e+01 4.921153560280799866e-02 7.633784413337707520e-02 3.766481205821037292e-02 6.018775328993797302e-02
3.657000000000000000e+03 2.144339752197265625e+01 1.560645294189453125e+01 7.492488622665405273e-02 1.333109438419342041e-01 6.247074902057647705e-02 9.832830727100372314e-02
3.658000000000000000e+03 3.354650115966796875e+01 1.007867813110351562e+01 -1.090964317321777344e+00 -1.073716640472412109e+00 -6.494042873382568359e-01 -1.010210871696472168e+00
3.659000000000000000e+03 4.639409255981445312e+01 2.375053977966308594e+01 -9.275107979774475098e-01 -6.743639707565307617e-01 -4.805624485015869141e-01 -7.946209907531738281e-01
3.660000000000000000e+03 2.226586341857910156e+01 1.663144683837890625e+01 6.976125389337539673e-02 1.262573599815368652e-01 5.880558490753173828e-02 9.385678917169570923e-02
3.661000000000000000e+03 1.516707801818847656e+01 8.639414787292480469e+00 8.645518869161605835e-02 2.845000028610229492e-01 1.112865582108497620e-01 1.300690621137619019e-01
3.662000000000000000e+03 1.486268615722656250e+01 7.823785305023193359e+00 9.253039956092834473e-02 3.242241740226745605e-01 1.250263750553131104e-01 1.409239172935485840e-01
3.663000000000000000e+03 3.452622604370117188e+01 1.155023479461669922e+01 -1.089944839477539062e+00 -1.108106970787048340e+00 -6.594155430793762207e-01 -1.053298950195312500e+00
3.664000000000000000e+03 3.494016647338867188e+01 1.220403289794921875e+01 -1.079720139503479004e+00 -1.133040547370910645e+00 -6.638281941413879395e-01 -1.065021872520446777e+00
3.665000000000000000e+03 3.293774414062500000e+01 9.238389968872070312e+00 -1.073465824127197266e+00 -1.060785531997680664e+00 -6.402754187583923340e-01 -9.918070435523986816e-01
3.666000000000000000e+03 3.342725372314453125e+01 9.424141883850097656e+00 -1.054246187210083008e+00 -1.032768249511718750e+00 -6.261042952537536621e-01 -9.649087190628051758e-01
3.667000000000000000e+03 1.807182312011718750e+01 1.185998153686523438e+01 8.592155575752258301e-02 1.775689870119094849e-01 7.904716581106185913e-02 1.216626614332199097e-01
3.668000000000000000e+03 3.409947586059570312e+01 1.066187763214111328e+01 -1.083207845687866211e+00 -1.071472883224487305e+00 -6.464042067527770996e-01 -1.013508081436157227e+00
3.669000000000000000e+03 1.371905040740966797e+01 6.715470314025878906e+00 7.441056519746780396e-02 4.413154721260070801e-01 1.547178030014038086e-01 9.502179920673370361e-02
3.670000000000000000e+03 7.162734985351562500e+01 3.470969772338867188e+01 1.948912262916564941e+00 9.277883529663085938e+00 3.368038654327392578e+00 -5.570882931351661682e-03
3.671000000000000000e+03 6.781669616699218750e+01 3.436801528930664062e+01 5.500104427337646484e+00 1.272876071929931641e+01 5.468659400939941406e+00 6.833359599113464355e-01
3.672000000000000000e+03 3.521863555908203125e+01 3.041177558898925781e+01 4.713404178619384766e-02 7.129096239805221558e-02 3.552750125527381897e-02 5.189372226595878601e-02
3.673000000000000000e+03 3.430105209350585938e+01 2.973938179016113281e+01 4.546830803155899048e-02 7.375864684581756592e-02 3.576808795332908630e-02 5.305607616901397705e-02
3.674000000000000000e+03 1.646303749084472656e+01 1.012634944915771484e+01 8.817270398139953613e-02 2.196024358272552490e-01 9.233254194259643555e-02 1.287996768951416016e-01
3.675000000000000000e+03 1.297212219238281250e+01 5.967702388763427734e+00 8.983819186687469482e-02 5.130967497825622559e-01 1.808804869651794434e-01 -1.884027756750583649e-02
3.676000000000000000e+03 9.415372848510742188e+00 5.827234745025634766e+00 2.141820043325424194e-01 -4.958108812570571899e-02 4.938027635216712952e-02 -2.310441806912422180e-02
3.677000000000000000e+03 1.724605560302734375e+01 1.106335449218750000e+01 8.576816320419311523e-02 1.956542879343032837e-01 8.442673087120056152e-02 1.238243803381919861e-01
3.678000000000000000e+03 3.184398269653320312e+01 5.191743850708007812e+00 -1.227375149726867676e+00 -7.031062245368957520e-01 -5.791444182395935059e-01 -6.970284581184387207e-01
3.679000000000000000e+03 3.122143936157226562e+01 5.002355575561523438e+00 -1.371067643165588379e+00 -7.293828725814819336e-01 -6.301351785659790039e-01 -7.152645587921142578e-01
3.680000000000000000e+03 5.971444320678710938e+01 3.048907661437988281e+01 9.117217659950256348e-01 1.593565821647644043e+00 7.515863180160522461e-01 1.316196680068969727e+00
3.681000000000000000e+03 6.257433700561523438e+01 3.086749076843261719e+01 1.591647982597351074e+00 5.531190872192382812e+00 2.136851787567138672e+00 4.046343803405761719e+00
3.682000000000000000e+03 3.097862625122070312e+01 2.582923126220703125e+01 4.469073936343193054e-02 8.047010004520416260e-02 3.754825517535209656e-02 6.309714168310165405e-02
3.683000000000000000e+03 2.991625022888183594e+01 2.441518592834472656e+01 4.745977744460105896e-02 8.431886136531829834e-02 3.953358903527259827e-02 6.745777279138565063e-02
3.684000000000000000e+03 1.451556682586669922e+01 8.168241500854492188e+00 7.595899701118469238e-02 3.183020949363708496e-01 1.182783320546150208e-01 1.155363023281097412e-01
3.685000000000000000e+03 2.955766105651855469e+01 4.292140483856201172e+00 -1.643263936042785645e+00 -9.037877917289733887e-01 -7.641155123710632324e-01 -7.071239948272705078e-01
3.686000000000000000e+03 3.225962448120117188e+01 4.923846244812011719e+00 -1.123970031738281250e+00 -6.396266222000122070e-01 -5.290790200233459473e-01 -6.077100038528442383e-01
3.687000000000000000e+03 3.289070892333984375e+01 8.732499122619628906e+00 -1.051800131797790527e+00 -1.039588212966918945e+00 -6.274164915084838867e-01 -9.669255614280700684e-01
3.688000000000000000e+03 3.471872329711914062e+01 3.007033348083496094e+01 4.731732234358787537e-02 7.173092663288116455e-02 3.571447730064392090e-02 5.350261554121971130e-02
3.689000000000000000e+03 3.490666580200195312e+01 1.052986812591552734e+01 -9.944810271263122559e-01 -9.699009656906127930e-01 -5.893146395683288574e-01 -9.243107438087463379e-01
3.690000000000000000e+03 1.235692119598388672e+01 5.377536296844482422e+00 1.726682335138320923e-01 4.686439335346221924e-01 1.923936456441879272e-01 -1.408158391714096069e-01
3.691000000000000000e+03 5.923048019409179688e+01 3.017334175109863281e+01 7.657800316810607910e-01 1.531305551528930664e+00 6.891257166862487793e-01 1.114361882209777832e+00
3.692000000000000000e+03 5.928416061401367188e+01 3.056970405578613281e+01 7.334652543067932129e-01 1.304279088973999023e+00 6.113232970237731934e-01 9.936516880989074707e-01
3.693000000000000000e+03 3.314281845092773438e+01 5.936887741088867188e+00 -1.013749599456787109e+00 -6.859318017959594727e-01 -5.099043846130371094e-01 -6.830288767814636230e-01
3.694000000000000000e+03 3.302825164794921875e+01 7.088139057159423828e+00 -1.021960616111755371e+00 -8.388223648071289062e-01 -5.582349300384521484e-01 -8.300232887268066406e-01
3.695000000000000000e+03 5.660413360595703125e+01 2.979071426391601562e+01 5.615926813334226608e-03 8.641538023948669434e-01 2.609309256076812744e-01 1.211492344737052917e-01
3.696000000000000000e+03 5.560258102416992188e+01 2.989461135864257812e+01 -2.654041647911071777e-01 6.262475848197937012e-01 1.082530319690704346e-01 -1.370789855718612671e-01
3.697000000000000000e+03 5.748117446899414062e+01 3.003016090393066406e+01 2.165276259183883667e-01 9.892528057098388672e-01 3.617341220378875732e-01 3.247533142566680908e-01
3.698000000000000000e+03 6.605198860168457031e+00 7.618554115295410156e+00 1.048857644200325012e-01 -9.326472133398056030e-02 3.486313391476869583e-03 3.392167761921882629e-02
3.699000000000000000e+03 1.328815937042236328e+01 6.751872539520263672e+00 7.754021883010864258e-02 4.314800202846527100e-01 1.527060717344284058e-01 3.881411254405975342e-02
3.700000000000000000e+03 3.047823333740234375e+01 2.533669090270996094e+01 4.477347433567047119e-02 8.187805116176605225e-02 3.799545764923095703e-02 6.463968008756637573e-02
3.701000000000000000e+03 2.504130363464355469e+01 2.017380148172378540e-01 -7.688072919845581055e-01 -6.151608377695083618e-02 -2.490970194339752197e-01 -4.124934971332550049e-01
3.702000000000000000e+03 3.998441314697265625e+01 3.558145523071289062e+01 6.515617668628692627e-02 4.939432442188262939e-02 3.436515107750892639e-02 4.347396269440650940e-02
3.703000000000000000e+03 3.728147125244140625e+01 3.151974868774414062e+01 5.524504557251930237e-02 6.556878238916397095e-02 3.624414652585983276e-02 5.279101431369781494e-02
3.704000000000000000e+03 3.738127136230468750e+01 3.214594268798828125e+01 5.273265391588211060e-02 6.271307915449142456e-02 3.463371843099594116e-02 5.056277289986610413e-02
3.705000000000000000e+03 3.663582611083984375e+01 3.250013732910156250e+01 5.325602740049362183e-02 6.562025845050811768e-02 3.566288575530052185e-02 4.864877834916114807e-02
3.706000000000000000e+03 3.325038146972656250e+01 8.085728645324707031e+00 -1.010016679763793945e+00 -9.361356496810913086e-01 -5.838457345962524414e-01 -8.931989669799804688e-01
3.707000000000000000e+03 2.463038825988769531e+01 5.257219076156616211e-01 -1.187976717948913574e+00 -4.406020510941743851e-03 -3.577148318290710449e-01 -5.115320086479187012e-01
3.708000000000000000e+03 3.166370582580566406e+01 -2.497076272964477539e+00 3.614230751991271973e-01 -4.637708961963653564e-01 -3.070433810353279114e-02 2.050184644758701324e-02
3.709000000000000000e+03 3.155466270446777344e+01 -3.500088453292846680e+00 5.179876089096069336e-01 -4.284057021141052246e-01 2.687457948923110962e-02 -3.038593009114265442e-02
3.710000000000000000e+03 7.468456745147705078e+00 8.894184112548828125e+00 9.333565831184387207e-02 -4.566382244229316711e-02 1.430155150592327118e-02 -3.017481882125139236e-03
3.711000000000000000e+03 5.404066848754882812e+01 3.020689010620117188e+01 -6.232774257659912109e-01 2.478999793529510498e-01 -1.126132234930992126e-01 -4.254182279109954834e-01
3.712000000000000000e+03 5.517903518676757812e+01 2.969937705993652344e+01 -3.256564140319824219e-01 5.783987045288085938e-01 7.582268863916397095e-02 -1.724357306957244873e-01
3.713000000000000000e+03 3.901844787597656250e+01 3.314715576171875000e+01 5.963695421814918518e-02 5.791229382157325745e-02 3.526477515697479248e-02 5.328748375177383423e-02
3.714000000000000000e+03 8.175126075744628906e+00 -7.271397113800048828e+00 -2.072549164295196533e-01 -2.548225522041320801e-01 -1.386232376098632812e-01 -4.358030259609222412e-01
3.715000000000000000e+03 2.811817550659179688e+01 -1.234317541122436523e+00 1.702784448862075806e-01 -4.083069264888763428e-01 -7.140854746103286743e-02 -1.153333485126495361e-01
3.716000000000000000e+03 8.905596733093261719e+00 7.163288116455078125e+00 1.597969233989715576e-01 -2.341149933636188507e-02 4.091563075780868530e-02 -2.422815561294555664e-02
3.717000000000000000e+03 7.060966491699218750e+00 -1.055536270141601562e+01 -4.772595688700675964e-02 -4.116322100162506104e-01 -1.378074437379837036e-01 -4.270532131195068359e-01
3.718000000000000000e+03 9.614225387573242188e+00 -6.776169776916503906e+00 -2.876617014408111572e-01 -2.537408471107482910e-01 -1.624207645654678345e-01 -5.040737986564636230e-01
3.719000000000000000e+03 1.222683143615722656e+01 -1.070127487182617188e+01 3.140944615006446838e-02 -5.457432866096496582e-01 -1.543001532554626465e-01 -5.924852490425109863e-01
3.720000000000000000e+03 1.022622013092041016e+01 -6.545324325561523438e+00 -3.028657436370849609e-01 -2.864289581775665283e-01 -1.767884045839309692e-01 -5.377634167671203613e-01
3.721000000000000000e+03 3.492012786865234375e+01 3.117022132873535156e+01 4.842808842658996582e-02 7.064015418291091919e-02 3.572047129273414612e-02 5.037288367748260498e-02
3.722000000000000000e+03 1.447804832458496094e+01 -9.982074737548828125e+00 6.661532074213027954e-02 -5.962478518486022949e-01 -1.588897556066513062e-01 -5.997009873390197754e-01
3.723000000000000000e+03 1.128801155090332031e+01 -6.360663890838623047e+00 -3.659403622150421143e-01 -3.292721509933471680e-01 -2.085637599229812622e-01 -6.090433597564697266e-01
3.724000000000000000e+03 1.125873088836669922e+01 5.754774570465087891e+00 2.192516177892684937e-01 1.896396279335021973e-01 1.226673722267150879e-01 -1.331163793802261353e-01
3.725000000000000000e+03 8.794998168945312500e+00 6.609120845794677734e+00 1.727538853883743286e-01 -5.782974511384963989e-02 3.447724506258964539e-02 -4.705407191067934036e-03
3.726000000000000000e+03 3.129788017272949219e+01 -1.965967178344726562e+00 2.670067846775054932e-01 -4.796584546566009521e-01 -6.379549950361251831e-02 3.618647530674934387e-02
3.727000000000000000e+03 3.071669197082519531e+01 -2.364426374435424805e+00 3.797767460346221924e-01 -4.643144607543945312e-01 -2.536131069064140320e-02 1.669121993472799659e-04
3.728000000000000000e+03 1.076481819152832031e+01 -6.352871894836425781e+00 -3.596547245979309082e-01 -2.646447718143463135e-01 -1.872898489236831665e-01 -5.647104382514953613e-01
3.729000000000000000e+03 7.076429748535156250e+01 -4.866729736328125000e+00 -1.183682028204202652e-02 7.020227432250976562e+00 2.102517127990722656e+00 3.040536642074584961e-01
3.730000000000000000e+03 7.021185302734375000e+01 -2.855676114559173584e-01 -4.138804599642753601e-02 6.999699115753173828e+00 2.087493419647216797e+00 3.017124831676483154e-01
3.731000000000000000e+03 7.147992706298828125e+01 3.618318796157836914e+00 -8.281733095645904541e-02 7.410563468933105469e+00 2.198323965072631836e+00 2.349227815866470337e-01
3.732000000000000000e+03 3.271279907226562500e+01 -4.021398544311523438e+00 5.126839876174926758e-01 -4.045794904232025146e-01 3.243134170770645142e-02 6.843478186056017876e-04
3.733000000000000000e+03 6.825151062011718750e+01 3.955053710937500000e+01 -1.420660614967346191e+00 1.269151592254638672e+01 3.381256580352783203e+00 5.178391933441162109e-01
3.734000000000000000e+03 6.794086456298828125e+01 3.588483047485351562e+01 3.067765474319458008e+00 1.364467048645019531e+01 5.013731002807617188e+00 2.114500045776367188e+00
3.735000000000000000e+03 4.425686645507812500e+01 3.988483047485351562e+01 1.116056442260742188e-01 2.981373481452465057e-02 4.242581129074096680e-02 1.715004257857799530e-02
3.736000000000000000e+03 4.092453384399414062e+01 3.781617355346679688e+01 7.987298816442489624e-02 3.800242766737937927e-02 3.536262363195419312e-02 3.154342994093894958e-02
3.737000000000000000e+03 7.293375396728515625e+01 2.189420890808105469e+01 -6.158266663551330566e-01 8.519895553588867188e+00 2.371220588684082031e+00 -9.298206567764282227e-01
3.738000000000000000e+03 7.192741394042968750e+01 2.188086318969726562e+01 -7.390605211257934570e-01 8.596427917480468750e+00 2.357210159301757812e+00 -8.257600069046020508e-01
3.739000000000000000e+03 7.749259948730468750e+00 -1.530793666839599609e+01 6.474658846855163574e-02 -5.896144509315490723e-01 -1.574603617191314697e-01 -4.098860025405883789e-01
3.740000000000000000e+03 1.294502735137939453e+01 -1.138376235961914062e+01 6.476520746946334839e-02 -5.464187860488891602e-01 -1.444960683584213257e-01 -5.865044593811035156e-01
3.741000000000000000e+03 1.106491947174072266e+01 -6.832388877868652344e+00 -2.948610484600067139e-01 -3.377959430217742920e-01 -1.897971034049987793e-01 -5.950435400009155273e-01
3.742000000000000000e+03 7.184987640380859375e+01 2.838681221008300781e+01 8.412686735391616821e-02 9.323510169982910156e+00 2.822291135787963867e+00 -1.671958565711975098e+00
3.743000000000000000e+03 1.336591148376464844e+01 -1.478202247619628906e+01 1.806201040744781494e-01 -4.882541596889495850e-01 -9.229022264480590820e-02 -4.631935954093933105e-01
3.744000000000000000e+03 1.535139560699462891e+01 -1.523264122009277344e+01 2.307158410549163818e-01 -3.963865041732788086e-01 -4.970119521021842957e-02 -4.102701246738433838e-01
3.745000000000000000e+03 3.500246810913085938e+01 -4.800232410430908203e+00 4.661773741245269775e-01 -2.654858827590942383e-01 6.020745262503623962e-02 1.082388125360012054e-02
3.746000000000000000e+03 7.164295196533203125e+01 2.929094123840332031e+01 4.133452177047729492e-01 9.420522689819335938e+00 2.950160264968872070e+00 -1.709259510040283203e+00
3.747000000000000000e+03 1.425675582885742188e+01 -1.364669418334960938e+01 2.067814618349075317e-01 -5.017822980880737305e-01 -8.850025385618209839e-02 -4.695453941822052002e-01
3.748000000000000000e+03 4.128158569335937500e+01 3.614094924926757812e+01 7.780105620622634888e-02 3.955141827464103699e-02 3.520574048161506653e-02 4.224932566285133362e-02
3.749000000000000000e+03 4.333751678466796875e+01 3.766564559936523438e+01 1.014311388134956360e-01 3.534912317991256714e-02 4.103408008813858032e-02 3.453274071216583252e-02
3.750000000000000000e+03 6.201606750488281250e+01 4.147020339965820312e+01 -2.514474987983703613e-01 6.361554145812988281e+00 1.833032011985778809e+00 -6.222857832908630371e-01
3.751000000000000000e+03 7.203875732421875000e+01 -9.655582427978515625e+00 3.355498425662517548e-03 7.200084209442138672e+00 2.161031961441040039e+00 2.672923803329467773e-01
3.752000000000000000e+03 7.175045776367187500e+01 -3.580547571182250977e+00 -1.377303991466760635e-02 7.280742645263671875e+00 2.180090904235839844e+00 2.762211561203002930e-01
3.753000000000000000e+03 7.029490661621093750e+01 -2.920354127883911133e+00 -1.819868013262748718e-02 6.958929061889648438e+00 2.082219123840332031e+00 3.057271242141723633e-01
3.754000000000000000e+03 7.206147003173828125e+01 -8.406232833862304688e+00 4.162848927080631256e-04 7.233806610107421875e+00 2.170266866683959961e+00 2.677188813686370850e-01
3.755000000000000000e+03 7.079499816894531250e+01 -1.079661560058593750e+01 6.221602205187082291e-03 6.908203601837158203e+00 2.074327468872070312e+00 2.919653058052062988e-01
3.756000000000000000e+03 7.041796875000000000e+01 3.978544950485229492e+00 -1.038573309779167175e-01 7.147784709930419922e+00 2.113178253173828125e+00 2.680756151676177979e-01
3.757000000000000000e+03 1.180708503723144531e+01 -8.499361991882324219e+00 -1.623857617378234863e-01 -4.645639657974243164e-01 -1.880849152803421021e-01 -6.471925377845764160e-01
3.758000000000000000e+03 9.996200561523437500e+00 -7.520975589752197266e+00 -2.251883149147033691e-01 -3.362095952033996582e-01 -1.684193760156631470e-01 -5.534371137619018555e-01
3.759000000000000000e+03 7.065589904785156250e+01 -1.782330513000488281e+01 3.320952644571661949e-03 6.758917808532714844e+00 2.028671741485595703e+00 2.744553387165069580e-01
3.760000000000000000e+03 7.071179199218750000e+01 -1.902562713623046875e+01 9.549885056912899017e-03 6.757171630859375000e+00 2.030016422271728516e+00 2.803694307804107666e-01
3.761000000000000000e+03 6.954102325439453125e+01 -2.411882400512695312e+01 2.056007459759712219e-02 6.434788227081298828e+00 1.936604499816894531e+00 2.795188128948211670e-01
3.762000000000000000e+03 6.963650512695312500e+01 -2.826671981811523438e+01 6.445677578449249268e-02 6.407077312469482422e+00 1.941460251808166504e+00 2.612766921520233154e-01
3.763000000000000000e+03 8.590787887573242188e+00 1.458546543121337891e+01 1.688184402883052826e-02 1.751609332859516144e-02 1.031938102096319199e-02 -1.963988319039344788e-02
3.764000000000000000e+03 7.127459049224853516e+00 1.353436756134033203e+01 2.487574703991413116e-02 -2.299971505999565125e-02 5.628096405416727066e-04 -2.034767158329486847e-02
3.765000000000000000e+03 7.168051147460937500e+01 1.964951705932617188e+01 -6.904205679893493652e-01 8.330653190612792969e+00 2.292069911956787109e+00 -5.473152399063110352e-01
3.766000000000000000e+03 7.209233093261718750e+01 1.723200416564941406e+01 -5.447227358818054199e-01 8.135975837707519531e+00 2.277375936508178711e+00 -3.578614890575408936e-01
3.767000000000000000e+03 7.250879669189453125e+01 1.324688816070556641e+01 -3.222481608390808105e-01 7.980680465698242188e+00 2.297529697418212891e+00 -1.085279732942581177e-01
3.768000000000000000e+03 3.897541046142578125e+01 -7.874675750732421875e+00 4.017812907695770264e-01 2.299333512783050537e-01 1.895143836736679077e-01 -4.205474629998207092e-03
3.769000000000000000e+03 7.218601989746093750e+01 1.025797939300537109e+01 -2.315510362386703491e-01 7.774158000946044922e+00 2.262782096862792969e+00 5.299656465649604797e-02
3.770000000000000000e+03 7.165824890136718750e+01 6.026093006134033203e+00 -1.234393641352653503e-01 7.527315616607666016e+00 2.221162796020507812e+00 1.877586990594863892e-01
3.771000000000000000e+03 3.840835189819335938e+01 -8.864429473876953125e+00 4.082473218441009521e-01 1.638044565916061401e-01 1.716155260801315308e-01 -3.492705523967742920e-02
3.772000000000000000e+03 6.961357116699218750e+00 2.285257148742675781e+01 -6.815843284130096436e-03 -4.219963029026985168e-02 -1.470464188605546951e-02 -1.918469369411468506e-02
3.773000000000000000e+03 7.380610942840576172e+00 2.388668251037597656e+01 -6.823820993304252625e-03 -3.527517989277839661e-02 -1.262969989329576492e-02 -1.749558933079242706e-02
3.774000000000000000e+03 8.885168075561523438e+00 2.419331359863281250e+01 -7.997764274477958679e-03 -1.184903085231781006e-02 -5.954038817435503006e-03 -1.398668438196182251e-02
3.775000000000000000e+03 7.119530487060546875e+01 2.727032852172851562e+01 -3.510282039642333984e-01 9.562458992004394531e+00 2.763429403305053711e+00 -1.494524121284484863e+00
3.776000000000000000e+03 1.757561683654785156e+01 -1.919933319091796875e+01 2.268537133932113647e-01 -1.548005193471908569e-01 2.161595784127712250e-02 -3.404872119426727295e-01
3.777000000000000000e+03 7.143438720703125000e+01 1.857767295837402344e+01 -6.668244600296020508e-01 8.195046424865722656e+00 2.258466720581054688e+00 -4.166890084743499756e-01
3.778000000000000000e+03 7.257900238037109375e+01 1.223443412780761719e+01 -2.765200138092041016e-01 7.959479331970214844e+00 2.304887771606445312e+00 -5.590175464749336243e-02
3.779000000000000000e+03 7.165363311767578125e+01 1.219927978515625000e+01 -3.247959017753601074e-01 7.755081176757812500e+00 2.229085445404052734e+00 -1.020075473934412003e-02
3.780000000000000000e+03 7.260197448730468750e+01 6.430721759796142578e+00 -1.134346425533294678e-01 7.756749629974365234e+00 2.292994499206542969e+00 1.572379022836685181e-01
3.781000000000000000e+03 8.533599853515625000e+00 -8.115561485290527344e+00 -1.621574312448501587e-01 -3.233390450477600098e-01 -1.456489413976669312e-01 -4.798204898834228516e-01
3.782000000000000000e+03 7.177407073974609375e+01 8.209463119506835938e+00 -1.684021055698394775e-01 7.630600929260253906e+00 2.238659620285034180e+00 1.335405707359313965e-01
3.783000000000000000e+03 7.224417114257812500e+01 1.417918014526367188e+01 -3.809134960174560547e-01 7.974956512451171875e+00 2.278212785720825195e+00 -1.498427987098693848e-01
3.784000000000000000e+03 7.090173339843750000e+01 -1.289952278137207031e+00 -3.552808612585067749e-02 7.129393577575683594e+00 2.128159761428833008e+00 2.910580933094024658e-01
3.785000000000000000e+03 7.027259063720703125e+01 1.458932399749755859e+00 -6.499485671520233154e-02 7.063336849212646484e+00 2.099502563476562500e+00 2.941468656063079834e-01
3.786000000000000000e+03 8.921828269958496094e+00 -8.913392066955566406e+00 -1.321161687374114990e-01 -3.661217987537384033e-01 -1.494713872671127319e-01 -5.100981593132019043e-01
3.787000000000000000e+03 7.225444793701171875e+01 3.210110855102539062e+01 1.506975054740905762e+00 8.828470230102539062e+00 3.100633621215820312e+00 -1.232823729515075684e+00
3.788000000000000000e+03 7.241303253173828125e+01 2.965327453613281250e+01 5.505540966987609863e-01 8.979075431823730469e+00 2.858888864517211914e+00 -1.673509716987609863e+00
3.789000000000000000e+03 4.314072799682617188e+01 -1.897632026672363281e+01 1.542207552120089531e-03 1.044319629669189453e+00 3.137585520744323730e-01 -3.368514403700828552e-02
3.790000000000000000e+03 4.552313232421875000e+01 -2.054044723510742188e+01 -4.206704720854759216e-02 1.609384894371032715e+00 4.701953530311584473e-01 -6.376917939633131027e-03
3.791000000000000000e+03 6.528500556945800781e+00 -1.551807880401611328e+01 4.982417076826095581e-02 -6.223211288452148438e-01 -1.717490851879119873e-01 -3.752721846103668213e-01
3.792000000000000000e+03 4.081230926513671875e+01 -8.577524185180664062e+00 3.610236048698425293e-01 5.144426822662353516e-01 2.626398801803588867e-01 1.308128889650106430e-02
3.793000000000000000e+03 1.106858348846435547e+01 2.989701652526855469e+01 -8.168903179466724396e-03 -7.283307495526969433e-04 -2.669170266017317772e-03 -5.102331750094890594e-03
3.794000000000000000e+03 8.882160186767578125e+00 2.992166519165039062e+01 -7.966213859617710114e-03 -2.502932026982307434e-02 -9.898659773170948029e-03 -9.646526537835597992e-03
3.795000000000000000e+03 8.955438613891601562e+00 -2.211166191101074219e+01 1.086615324020385742e-01 -6.847830414772033691e-01 -1.728364527225494385e-01 -3.147448599338531494e-01
3.796000000000000000e+03 8.280228614807128906e+00 -1.920884513854980469e+01 9.908498078584671021e-02 -6.699799299240112305e-01 -1.712684780359268188e-01 -3.578804731369018555e-01
3.797000000000000000e+03 7.905208587646484375e+00 -1.657769775390625000e+01 8.030223101377487183e-02 -6.274418234825134277e-01 -1.641418784856796265e-01 -3.991471827030181885e-01
3.798000000000000000e+03 1.476783466339111328e+01 8.726045608520507812e+00 7.473114877939224243e-02 2.888624966144561768e-01 1.090780869126319885e-01 1.142102479934692383e-01
3.799000000000000000e+03 6.896889209747314453e+00 9.445890426635742188e+00 7.977684587240219116e-02 -5.891805142164230347e-02 6.257638335227966309e-03 1.225634827278554440e-03
3.800000000000000000e+03 7.024974822998046875e+01 -2.320530128479003906e+01 1.816560886800289154e-02 6.554724693298339844e+00 1.971867084503173828e+00 2.668975591659545898e-01
3.801000000000000000e+03 1.689620971679687500e+01 -2.189803695678710938e+01 2.094001770019531250e-01 -1.798206865787506104e-01 8.873845450580120087e-03 -3.331539034843444824e-01
3.802000000000000000e+03 1.470664501190185547e+01 9.477011680603027344e+00 6.390754878520965576e-02 2.607029080390930176e-01 9.738313406705856323e-02 9.744552522897720337e-02
3.803000000000000000e+03 9.180103302001953125e+00 2.234346008300781250e+01 -7.332722190767526627e-03 -1.602120581082999706e-03 -2.680452773347496986e-03 -1.392145827412605286e-02
3.804000000000000000e+03 9.775990486145019531e+00 2.334744071960449219e+01 -8.768058381974697113e-03 3.911615349352359772e-03 -1.456932979635894299e-03 -1.126337423920631409e-02
3.805000000000000000e+03 4.302462387084960938e+01 -1.202882194519042969e+01 2.525820434093475342e-01 9.706181287765502930e-01 3.669600486755371094e-01 2.004633191972970963e-03
3.806000000000000000e+03 5.010481262207031250e+01 -2.469524955749511719e+01 -9.487762302160263062e-02 2.838905572891235352e+00 8.232083916664123535e-01 1.637331843376159668e-01
3.807000000000000000e+03 6.847251892089843750e+01 3.378286361694335938e+01 4.647431850433349609e+00 1.179556941986083984e+01 4.932900428771972656e+00 -3.133151233196258545e-01
3.808000000000000000e+03 4.248833465576171875e+01 -1.482935523986816406e+01 1.539029181003570557e-01 8.941666483879089355e-01 3.144208788871765137e-01 -3.338283300399780273e-02
3.809000000000000000e+03 4.290671157836914062e+01 -1.086249828338623047e+01 2.834140658378601074e-01 9.205748438835144043e-01 3.611966669559478760e-01 1.034062169492244720e-02
3.810000000000000000e+03 9.016781806945800781e+00 -2.372616004943847656e+01 1.034665629267692566e-01 -6.966232657432556152e-01 -1.779470145702362061e-01 -2.804331481456756592e-01
3.811000000000000000e+03 7.196588897705078125e+01 2.301957321166992188e+01 -7.406820654869079590e-01 8.741638183593750000e+00 2.400286912918090820e+00 -9.858329892158508301e-01
3.812000000000000000e+03 9.250397682189941406e+00 1.552078437805175781e+01 8.250740356743335724e-03 2.848916128277778625e-02 1.102196983993053436e-02 -1.450635213404893875e-02
3.813000000000000000e+03 8.801306724548339844e+00 1.668078613281250000e+01 3.829129505902528763e-03 1.539389602839946747e-02 5.766907706856727600e-03 -1.630435697734355927e-02
3.814000000000000000e+03 3.339842605590820312e+01 -3.715082645416259766e+00 4.690289795398712158e-01 -3.907636404037475586e-01 2.347960323095321655e-02 7.257259450852870941e-03
3.815000000000000000e+03 9.266465187072753906e+00 2.056514358520507812e+01 -5.818874109536409378e-03 7.668539416044950485e-03 5.548996850848197937e-04 -1.426617521792650223e-02
3.816000000000000000e+03 6.689064025878906250e+00 2.106097793579101562e+01 -5.421224515885114670e-03 -4.441865533590316772e-02 -1.495196390897035599e-02 -2.148605324327945709e-02
3.817000000000000000e+03 7.054148864746093750e+01 -2.219748306274414062e+01 1.734211668372154236e-02 6.638733863830566406e+00 1.996822834014892578e+00 2.621752917766571045e-01
3.818000000000000000e+03 6.915073394775390625e+00 1.224825477600097656e+01 3.630411252379417419e-02 -3.391594067215919495e-02 7.164518465287983418e-04 -1.531205326318740845e-02
3.819000000000000000e+03 1.775723838806152344e+01 -2.300044059753417969e+01 2.224873602390289307e-01 -1.316716074943542480e-01 2.724472805857658386e-02 -3.227979838848114014e-01
3.820000000000000000e+03 2.112144470214843750e+01 -2.802578163146972656e+01 2.477822452783584595e-01 1.192779839038848877e-01 1.101180687546730042e-01 -3.088020682334899902e-01
3.821000000000000000e+03 7.199582672119140625e+01 -2.019705200195312500e+01 3.360901726409792900e-03 6.958255767822265625e+00 2.088485002517700195e+00 2.492531538009643555e-01
3.822000000000000000e+03 6.968045043945312500e+01 -3.085134887695312500e+01 7.115197181701660156e-02 6.339758396148681641e+00 1.923273086547851562e+00 2.376168072223663330e-01
3.823000000000000000e+03 7.079945373535156250e+01 -2.942149162292480469e+01 5.307749286293983459e-02 6.549849510192871094e+00 1.980878114700317383e+00 2.302840203046798706e-01
3.824000000000000000e+03 7.246501159667968750e+01 3.566310119628906250e+01 1.239667177200317383e+00 8.825940132141113281e+00 3.019682407379150391e+00 2.436812072992324829e-01
3.825000000000000000e+03 7.159805297851562500e+01 -1.361806488037109375e+01 7.238431368023157120e-03 7.009387016296386719e+00 2.104987621307373047e+00 2.696093916893005371e-01
3.826000000000000000e+03 4.938919830322265625e+01 -2.235006904602050781e+01 -8.445124328136444092e-02 2.567311763763427734e+00 7.448582053184509277e-01 1.022359728813171387e-01
3.827000000000000000e+03 7.202616119384765625e+01 2.635818099975585938e+01 -4.420665204524993896e-01 9.122898101806640625e+00 2.604249477386474609e+00 -1.449778556823730469e+00
3.828000000000000000e+03 7.197363281250000000e+01 2.415710639953613281e+01 -6.898786425590515137e-01 8.884668350219726562e+00 2.458436965942382812e+00 -1.147492527961730957e+00
3.829000000000000000e+03 7.091905212402343750e+01 -8.429141044616699219e+00 4.035216290503740311e-03 6.983639717102050781e+00 2.096302509307861328e+00 2.941164076328277588e-01
3.830000000000000000e+03 2.186576271057128906e+01 -3.288744735717773438e+01 3.013805449008941650e-01 1.211911812424659729e-01 1.267715245485305786e-01 -2.463436573743820190e-01
3.831000000000000000e+03 2.032935333251953125e+01 -3.120512199401855469e+01 2.452841252088546753e-01 1.802141405642032623e-02 7.899166643619537354e-02 -2.642741203308105469e-01
3.832000000000000000e+03 7.072193908691406250e+01 -2.713949584960937500e+01 4.331558197736740112e-02 6.584179878234863281e+00 1.988248586654663086e+00 2.546978890895843506e-01
3.833000000000000000e+03 6.869097900390625000e+01 -2.512155532836914062e+01 2.981447614729404449e-02 6.251277923583984375e+00 1.884327650070190430e+00 2.846356630325317383e-01
3.834000000000000000e+03 1.003911304473876953e+01 -2.865878295898437500e+01 9.698180109262466431e-02 -6.858416199684143066e-01 -1.766579598188400269e-01 -2.133594900369644165e-01
3.835000000000000000e+03 7.020645618438720703e+00 -3.554766464233398438e+01 4.493594169616699219e-02 -1.034319281578063965e+00 -2.968150079250335693e-01 -8.431790024042129517e-02
3.836000000000000000e+03 1.024069499969482422e+01 2.641086578369140625e+01 -8.823647163808345795e-03 1.371512189507484436e-03 -2.235640538856387138e-03 -8.732913061976432800e-03
3.837000000000000000e+03 2.364939689636230469e+01 -3.428907394409179688e+01 3.571420907974243164e-01 2.303230017423629761e-01 1.762395352125167847e-01 -2.412753552198410034e-01
3.838000000000000000e+03 8.574357986450195312e+00 -2.060584640502929688e+01 1.027401760220527649e-01 -6.725389361381530762e-01 -1.709396243095397949e-01 -3.306340277194976807e-01
3.839000000000000000e+03 7.405261039733886719e+00 -2.235048103332519531e+01 7.576841115951538086e-02 -7.672249078750610352e-01 -2.074369490146636963e-01 -2.769865691661834717e-01
3.840000000000000000e+03 2.710770034790039062e+01 2.357462882995605469e+00 -1.677815914154052734e+00 -6.186619997024536133e-01 -6.889433860778808594e-01 -6.154636144638061523e-01
3.841000000000000000e+03 2.801574707031250000e+01 3.387992143630981445e+00 -1.801841139793395996e+00 -8.625105023384094238e-01 -7.993054986000061035e-01 -7.924303412437438965e-01
3.842000000000000000e+03 2.652404403686523438e+01 2.437260389328002930e+00 -1.939432382583618164e+00 -5.773157477378845215e-01 -7.550244331359863281e-01 -7.470079660415649414e-01
3.843000000000000000e+03 6.375244522094726562e+01 3.108376502990722656e+01 8.868088722229003906e-01 9.879029273986816406e+00 3.229751348495483398e+00 4.809164524078369141e+00
3.844000000000000000e+03 6.596488189697265625e+01 3.087601470947265625e+01 -8.133053779602050781e-02 1.477295017242431641e+01 4.407485961914062500e+00 4.977894127368927002e-01
3.845000000000000000e+03 6.438779449462890625e+01 3.105083084106445312e+01 1.545001417398452759e-01 1.254768848419189453e+01 3.810656547546386719e+00 4.056630611419677734e+00
3.846000000000000000e+03 2.794787788391113281e+01 2.264616012573242188e+00 -1.466103315353393555e+00 -6.640270948410034180e-01 -6.390390992164611816e-01 -4.992617368698120117e-01
3.847000000000000000e+03 3.039496040344238281e+01 -1.784039735794067383e+00 2.568878233432769775e-01 -4.712104499340057373e-01 -6.429678946733474731e-02 1.493804343044757843e-02
3.848000000000000000e+03 1.779826736450195312e+01 1.275475788116455078e+01 7.030354440212249756e-02 1.712002903223037720e-01 7.245115190744400024e-02 1.065437346696853638e-01
3.849000000000000000e+03 4.101634979248046875e+01 1.903336906433105469e+01 -9.157586693763732910e-01 -9.085851311683654785e-01 -5.473031401634216309e-01 -1.020190119743347168e+00
3.850000000000000000e+03 4.115977859497070312e+01 1.855190658569335938e+01 -8.888871073722839355e-01 -8.419584035873413086e-01 -5.192536711692810059e-01 -9.682523608207702637e-01
3.851000000000000000e+03 4.194766616821289062e+01 1.918727493286132812e+01 -8.607712388038635254e-01 -8.132396340370178223e-01 -5.022032260894775391e-01 -9.341062307357788086e-01
3.852000000000000000e+03 3.438037872314453125e+01 1.041763305664062500e+01 -1.032415866851806641e+00 -1.019057869911193848e+00 -6.154421567916870117e-01 -9.642348289489746094e-01
3.853000000000000000e+03 8.561763763427734375e+00 1.281351184844970703e+01 3.441626206040382385e-02 2.308885380625724792e-02 1.725153625011444092e-02 -2.044339105486869812e-02
3.854000000000000000e+03 4.242791748046875000e+01 1.879444503784179688e+01 -8.063822984695434570e-01 -7.068226933479309082e-01 -4.539614915847778320e-01 -8.532425761222839355e-01
3.855000000000000000e+03 4.236030578613281250e+01 1.958868217468261719e+01 -8.543098568916320801e-01 -8.040356636047363281e-01 -4.975036680698394775e-01 -9.139336347579956055e-01
3.856000000000000000e+03 3.407050323486328125e+01 2.799102210998535156e+01 4.807852953672409058e-02 7.468771934509277344e-02 3.682987391948699951e-02 5.868680775165557861e-02
3.857000000000000000e+03 6.536041259765625000e+01 3.043589591979980469e+01 -5.209986567497253418e-01 1.346508026123046875e+01 3.883224487304687500e+00 1.848120450973510742e+00
3.858000000000000000e+03 1.517097663879394531e+01 9.424079895019531250e+00 7.596526294946670532e-02 2.560908496379852295e-01 9.961683303117752075e-02 1.136773824691772461e-01
3.859000000000000000e+03 2.772347259521484375e+01 2.162446212768554688e+01 5.568936094641685486e-02 9.400588274002075195e-02 4.490857571363449097e-02 7.553732395172119141e-02
3.860000000000000000e+03 2.834748268127441406e+01 2.180147552490234375e+01 5.699093267321586609e-02 9.144242107868194580e-02 4.453000426292419434e-02 7.540273666381835938e-02
3.861000000000000000e+03 6.738722991943359375e+01 3.176866340637207031e+01 2.323139190673828125e+00 1.386946773529052734e+01 4.857781887054443359e+00 -1.751450896263122559e+00
3.862000000000000000e+03 1.879100418090820312e+01 1.301593494415283203e+01 7.972855865955352783e-02 1.606053709983825684e-01 7.210017740726470947e-02 1.123330667614936829e-01
3.863000000000000000e+03 4.393042373657226562e+01 2.147446060180664062e+01 -9.208431243896484375e-01 -8.050591945648193359e-01 -5.177707076072692871e-01 -8.814647793769836426e-01
3.864000000000000000e+03 4.784701538085937500e+01 2.485957527160644531e+01 -8.454171419143676758e-01 -5.471329689025878906e-01 -4.177650511264801025e-01 -7.227658033370971680e-01
3.865000000000000000e+03 4.052295684814453125e+01 1.778985023498535156e+01 -9.135597348213195801e-01 -8.554849028587341309e-01 -5.307133793830871582e-01 -9.668945670127868652e-01
3.866000000000000000e+03 4.159330368041992188e+01 1.866255378723144531e+01 -8.617255687713623047e-01 -7.983094453811645508e-01 -4.980104863643646240e-01 -9.355528950691223145e-01
3.867000000000000000e+03 2.048853492736816406e+01 1.351212120056152344e+01 9.290534257888793945e-02 1.465910971164703369e-01 7.184892892837524414e-02 1.149478629231452942e-01
3.868000000000000000e+03 4.718412780761718750e+01 2.375068283081054688e+01 -8.286982178688049316e-01 -5.170977711677551270e-01 -4.037387967109680176e-01 -6.832682490348815918e-01
3.869000000000000000e+03 2.578798866271972656e+01 1.913901519775390625e+01 6.886028498411178589e-02 1.046815216541290283e-01 5.206254124641418457e-02 8.460050821304321289e-02
3.870000000000000000e+03 2.327507781982421875e+01 1.870078849792480469e+01 5.710605904459953308e-02 1.146338880062103271e-01 5.152198672294616699e-02 8.246431499719619751e-02
3.871000000000000000e+03 2.020737075805664062e+01 1.377738952636718750e+01 8.591236174106597900e-02 1.463943123817443848e-01 6.969200074672698975e-02 1.111851409077644348e-01
3.872000000000000000e+03 3.710240554809570312e+01 1.357664585113525391e+01 -9.770368933677673340e-01 -9.893916845321655273e-01 -5.899285674095153809e-01 -9.631487131118774414e-01
3.873000000000000000e+03 3.630465698242187500e+01 1.343542385101318359e+01 -1.036356091499328613e+00 -1.086085677146911621e+00 -6.367325186729431152e-01 -1.034705162048339844e+00
3.874000000000000000e+03 2.274728965759277344e+01 1.734511947631835938e+01 6.549793481826782227e-02 1.210377365350723267e-01 5.596069991588592529e-02 9.000105410814285278e-02
3.875000000000000000e+03 3.563489151000976562e+01 1.274936389923095703e+01 -1.055512785911560059e+00 -1.100458383560180664e+00 -6.467913985252380371e-01 -1.043121099472045898e+00
3.876000000000000000e+03 3.623390197753906250e+01 1.299848747253417969e+01 -1.030057549476623535e+00 -1.059345245361328125e+00 -6.268208026885986328e-01 -1.006546974182128906e+00
3.877000000000000000e+03 4.444828033447265625e+01 2.149777793884277344e+01 -8.766208291053771973e-01 -7.313404679298400879e-01 -4.823883771896362305e-01 -8.209748268127441406e-01
3.878000000000000000e+03 2.085242271423339844e+01 1.509185504913330078e+01 7.585345953702926636e-02 1.379826664924621582e-01 6.415084004402160645e-02 1.008986756205558777e-01
3.879000000000000000e+03 5.067805862426757812e+01 2.769962310791015625e+01 -7.689058184623718262e-01 -3.740262389183044434e-01 -3.428796231746673584e-01 -5.846074819564819336e-01
3.880000000000000000e+03 2.808462715148925781e+01 2.103793334960937500e+01 6.194836273789405823e-02 9.243897348642349243e-02 4.631619900465011597e-02 7.798591256141662598e-02
3.881000000000000000e+03 2.294439315795898438e+01 1.770999336242675781e+01 6.379738450050354004e-02 1.188222318887710571e-01 5.478588491678237915e-02 8.880942314863204956e-02
3.882000000000000000e+03 3.492539215087890625e+01 1.189945125579833984e+01 -1.075041532516479492e+00 -1.099036693572998047e+00 -6.522234678268432617e-01 -1.040478587150573730e+00
3.883000000000000000e+03 4.470110702514648438e+01 2.178043937683105469e+01 -8.823812007904052734e-01 -7.259240150451660156e-01 -4.824915528297424316e-01 -8.148916363716125488e-01
3.884000000000000000e+03 2.610923385620117188e+01 1.950225830078125000e+01 6.668962538242340088e-02 1.031786054372787476e-01 5.096046999096870422e-02 8.327330648899078369e-02
3.885000000000000000e+03 2.532617759704589844e+01 1.855812263488769531e+01 7.146415114402770996e-02 1.071979627013206482e-01 5.359863489866256714e-02 8.755292743444442749e-02
3.886000000000000000e+03 1.559933757781982422e+01 9.774402618408203125e+00 7.893060147762298584e-02 2.406471967697143555e-01 9.587334096431732178e-02 1.187559440732002258e-01
3.887000000000000000e+03 3.011839103698730469e+01 -1.209085702896118164e+00 1.231849715113639832e-01 -5.011761784553527832e-01 -1.133973598480224609e-01 1.706388778984546661e-02
3.888000000000000000e+03 3.964678955078125000e+01 1.686507225036621094e+01 -9.488954544067382812e-01 -9.068979024887084961e-01 -5.567380189895629883e-01 -9.627610445022583008e-01
3.889000000000000000e+03 5.015706634521484375e+01 2.786884880065917969e+01 -8.680676817893981934e-01 -5.499758720397949219e-01 -4.254130423069000244e-01 -7.055945992469787598e-01
3.890000000000000000e+03 4.961198806762695312e+01 2.728726768493652344e+01 -8.638505339622497559e-01 -5.859422087669372559e-01 -4.349378049373626709e-01 -7.285280823707580566e-01
3.891000000000000000e+03 4.365866851806640625e+01 2.094281387329101562e+01 -8.859986066818237305e-01 -7.787218093872070312e-01 -4.994161427021026611e-01 -8.661585450172424316e-01
3.892000000000000000e+03 2.581767845153808594e+01 1.977834582328796387e+00 -1.952976465225219727e+00 -4.765620827674865723e-01 -7.288615703582763672e-01 -7.468294501304626465e-01
3.893000000000000000e+03 3.350638961791992188e+01 2.822860717773437500e+01 4.788213595747947693e-02 7.535003870725631714e-02 3.696965426206588745e-02 5.754380300641059875e-02
3.894000000000000000e+03 3.413761901855468750e+01 2.898234176635742188e+01 4.657176882028579712e-02 7.426554709672927856e-02 3.625119477510452271e-02 5.519695207476615906e-02
3.895000000000000000e+03 2.710500335693359375e+01 2.067509269714355469e+01 6.119148805737495422e-02 9.749540686607360840e-02 4.760606959462165833e-02 7.903801649808883667e-02
3.896000000000000000e+03 2.757705879211425781e+01 2.070164680480957031e+01 6.242954358458518982e-02 9.527543187141418457e-02 4.731149226427078247e-02 7.929200679063796997e-02
3.897000000000000000e+03 2.705710792541503906e+01 2.002695465087890625e+01 6.610607355833053589e-02 9.841085970401763916e-02 4.935507848858833313e-02 8.201102167367935181e-02
3.898000000000000000e+03 2.665538978576660156e+01 2.052224731445312500e+01 5.974498763680458069e-02 9.958431124687194824e-02 4.779879003763198853e-02 7.900413870811462402e-02
3.899000000000000000e+03 2.794941139221191406e+01 2.811202526092529297e+00 -1.644787430763244629e+00 -7.223912477493286133e-01 -7.101535797119140625e-01 -6.310257911682128906e-01
3.900000000000000000e+03 2.400388336181640625e+01 1.781984138488769531e+01 7.098642736673355103e-02 1.137149035930633545e-01 5.541040003299713135e-02 9.065006673336029053e-02
3.901000000000000000e+03 2.516305732727050781e+01 1.832267379760742188e+01 7.353474199771881104e-02 1.083331555128097534e-01 5.456036701798439026e-02 8.868909627199172974e-02
3.902000000000000000e+03 5.199287033081054688e+01 2.890505790710449219e+01 -7.377305030822753906e-01 -1.894003897905349731e-01 -2.781392633914947510e-01 -5.192432999610900879e-01
3.903000000000000000e+03 5.087525558471679688e+01 2.867189598083496094e+01 -8.653427362442016602e-01 -5.037233829498291016e-01 -4.107198417186737061e-01 -6.844090819358825684e-01
3.904000000000000000e+03 4.294385528564453125e+01 2.055521392822265625e+01 -9.030450582504272461e-01 -8.408756256103515625e-01 -5.231761932373046875e-01 -9.200667738914489746e-01
3.905000000000000000e+03 3.736335754394531250e+01 1.385504531860351562e+01 -9.682661890983581543e-01 -9.867071509361267090e-01 -5.864920020103454590e-01 -9.555836915969848633e-01
3.906000000000000000e+03 2.619184303283691406e+01 6.032384037971496582e-01 -9.631555676460266113e-01 -3.002166450023651123e-01 -3.790116608142852783e-01 -2.988384068012237549e-01
3.907000000000000000e+03 2.061182975769042969e+01 1.456771850585937500e+01 8.037216216325759888e-02 1.408499181270599365e-01 6.636662036180496216e-02 1.049466207623481750e-01
3.908000000000000000e+03 2.132765769958496094e+01 1.527410697937011719e+01 7.777819782495498657e-02 1.351634413003921509e-01 6.388249248266220093e-02 1.009292230010032654e-01
3.909000000000000000e+03 5.240920257568359375e+01 2.905496025085449219e+01 -7.053564786911010742e-01 -9.473345428705215454e-02 -2.400269806385040283e-01 -4.761613607406616211e-01
3.910000000000000000e+03 4.609335327148437500e+01 2.353627204895019531e+01 -9.386249184608459473e-01 -7.050623893737792969e-01 -4.931061863899230957e-01 -8.101009130477905273e-01
3.911000000000000000e+03 6.660553741455078125e+01 3.150298881530761719e+01 1.273708820343017578e+00 1.503135490417480469e+01 4.891519069671630859e+00 -1.085528373718261719e+00
3.912000000000000000e+03 6.639725494384765625e+01 3.119086265563964844e+01 5.820980668067932129e-01 1.483415699005126953e+01 4.624876499176025391e+00 -4.378470182418823242e-01
3.913000000000000000e+03 3.764410018920898438e+01 1.413393974304199219e+01 -9.575721025466918945e-01 -9.759872555732727051e-01 -5.800678133964538574e-01 -9.516258835792541504e-01
3.914000000000000000e+03 7.088270568847656250e+01 3.382067871093750000e+01 2.529541730880737305e+00 9.711243629455566406e+00 3.672235727310180664e+00 -4.122792184352874756e-01
3.915000000000000000e+03 5.107787322998046875e+01 2.809220886230468750e+01 -7.722164988517761230e-01 -3.343744575977325439e-01 -3.319773077964782715e-01 -5.715296268463134766e-01
3.916000000000000000e+03 5.286840820312500000e+01 2.921834373474121094e+01 -6.587042808532714844e-01 3.310107439756393433e-02 -1.876809597015380859e-01 -4.297383725643157959e-01
3.917000000000000000e+03 2.154230117797851562e+01 1.595534133911132812e+01 7.152835279703140259e-02 1.312857270240783691e-01 6.084422394633293152e-02 9.612123668193817139e-02
3.918000000000000000e+03 3.787914276123046875e+01 1.447811412811279297e+01 -9.573279619216918945e-01 -9.741026759147644043e-01 -5.794292092323303223e-01 -9.521949887275695801e-01
3.919000000000000000e+03 1.950136566162109375e+01 1.305690383911132812e+01 8.799050748348236084e-02 1.554013639688491821e-01 7.301756739616394043e-02 1.155228763818740845e-01
3.920000000000000000e+03 3.811351776123046875e+01 1.478724575042724609e+01 -9.553647637367248535e-01 -9.715900421142578125e-01 -5.780864357948303223e-01 -9.526802301406860352e-01
3.921000000000000000e+03 2.551738548278808594e+01 1.877557945251464844e+01 7.051730901002883911e-02 1.065136343240737915e-01 5.310928449034690857e-02 8.633008599281311035e-02
3.922000000000000000e+03 4.347518157958984375e+01 2.060845756530761719e+01 -8.645466566085815430e-01 -7.688826918601989746e-01 -4.900287985801696777e-01 -8.620969057083129883e-01
3.923000000000000000e+03 4.522048187255859375e+01 2.229914283752441406e+01 -8.890429735183715820e-01 -7.071212530136108398e-01 -4.788492619991302490e-01 -7.958595156669616699e-01
3.924000000000000000e+03 5.492364501953125000e+01 2.905936431884765625e+01 -2.846556603908538818e-01 6.345634460449218750e-01 1.049723401665687561e-01 -8.180005848407745361e-02
3.925000000000000000e+03 5.363740921020507812e+01 3.001121520996093750e+01 -6.594324111938476562e-01 1.586087346076965332e-01 -1.502470970153808594e-01 -4.410370290279388428e-01
3.926000000000000000e+03 1.411366939544677734e+01 7.892730712890625000e+00 7.076720893383026123e-02 3.390362560749053955e-01 1.229410395026206970e-01 9.939649701118469238e-02
3.927000000000000000e+03 1.462606430053710938e+01 8.439931869506835938e+00 7.942650467157363892e-02 3.029505610466003418e-01 1.147131174802780151e-01 1.142014637589454651e-01
3.928000000000000000e+03 4.928768157958984375e+01 2.572153472900390625e+01 -7.418535947799682617e-01 -3.745926916599273682e-01 -3.349338769912719727e-01 -5.861615538597106934e-01
3.929000000000000000e+03 3.863962554931640625e+01 1.531756210327148438e+01 -9.443797469139099121e-01 -9.427633285522460938e-01 -5.661429166793823242e-01 -9.384322762489318848e-01
3.930000000000000000e+03 1.963151931762695312e+01 1.373403835296630859e+01 8.052567392587661743e-02 1.501946598291397095e-01 6.921610236167907715e-02 1.089490354061126709e-01
3.931000000000000000e+03 1.864420700073242188e+01 1.253700351715087891e+01 8.398659527301788330e-02 1.653188019990921021e-01 7.479161769151687622e-02 1.174203827977180481e-01
3.932000000000000000e+03 5.036614227294921875e+01 2.758752059936523438e+01 -8.000305891036987305e-01 -4.494661092758178711e-01 -3.748490214347839355e-01 -6.301975250244140625e-01
3.933000000000000000e+03 5.062500762939453125e+01 2.842225265502929688e+01 -8.694617748260498047e-01 -5.237706303596496582e-01 -4.179697334766387939e-01 -6.944014430046081543e-01
3.934000000000000000e+03 4.936777114868164062e+01 2.645516586303710938e+01 -8.019857406616210938e-01 -4.934436082839965820e-01 -3.886288106441497803e-01 -6.654558181762695312e-01
3.935000000000000000e+03 6.793974304199218750e+01 3.475877761840820312e+01 4.917583942413330078e+00 1.275484275817871094e+01 5.301727771759033203e+00 1.102275371551513672e+00
3.936000000000000000e+03 4.940557861328125000e+01 2.597765541076660156e+01 -7.451657056808471680e-01 -3.925258219242095947e-01 -3.413074612617492676e-01 -5.936741232872009277e-01
3.937000000000000000e+03 4.985158920288085938e+01 2.702527236938476562e+01 -7.983931303024291992e-01 -4.759830832481384277e-01 -3.823128640651702881e-01 -6.495227813720703125e-01
3.938000000000000000e+03 3.904521560668945312e+01 1.613741493225097656e+01 -9.591993689537048340e-01 -9.507031440734863281e-01 -5.729707479476928711e-01 -9.596390128135681152e-01
3.939000000000000000e+03 5.158193969726562500e+01 2.842159652709960938e+01 -7.395721673965454102e-01 -2.335290461778640747e-01 -2.919303774833679199e-01 -5.227165818214416504e-01
3.940000000000000000e+03 2.500659942626953125e+01 1.862069320678710938e+01 6.972672045230865479e-02 1.081944257020950317e-01 5.337634310126304626e-02 8.691775053739547729e-02
3.941000000000000000e+03 4.235604095458984375e+01 1.919615554809570312e+01 -8.330613374710083008e-01 -7.629093527793884277e-01 -4.787912070751190186e-01 -8.896014094352722168e-01
3.942000000000000000e+03 4.090812683105468750e+01 1.795075416564941406e+01 -8.870640397071838379e-01 -8.166481256484985352e-01 -5.111136436462402344e-01 -9.438463449478149414e-01
3.943000000000000000e+03 4.581185531616210938e+01 2.330981254577636719e+01 -9.446889162063598633e-01 -7.310211658477783203e-01 -5.027130246162414551e-01 -8.227316141128540039e-01
3.944000000000000000e+03 2.914939880371093750e+01 2.329514312744140625e+01 4.931296408176422119e-02 8.788052201271057129e-02 4.115804657340049744e-02 7.070866227149963379e-02
3.945000000000000000e+03 2.815030670166015625e+01 2.231739044189453125e+01 5.243262648582458496e-02 9.149139374494552612e-02 4.317720606923103333e-02 7.294540852308273315e-02
3.946000000000000000e+03 4.784797286987304688e+01 2.439187812805175781e+01 -8.045425415039062500e-01 -4.713718891143798828e-01 -3.827743232250213623e-01 -6.644946932792663574e-01
3.947000000000000000e+03 4.324159240722656250e+01 2.031332015991210938e+01 -8.572004437446594238e-01 -7.708364129066467285e-01 -4.884110391139984131e-01 -8.661469817161560059e-01
3.948000000000000000e+03 3.254658126831054688e+01 2.687767982482910156e+01 4.779964312911033630e-02 7.706759124994277954e-02 3.746017068624496460e-02 6.046212092041969299e-02
3.949000000000000000e+03 2.940968704223632812e+01 2.370710945129394531e+01 4.887171462178230286e-02 8.624640107154846191e-02 4.053543508052825928e-02 6.911668926477432251e-02
3.950000000000000000e+03 2.819935417175292969e+01 2.372945213317871094e+01 4.383856058120727539e-02 9.066937118768692017e-02 4.035238176584243774e-02 6.820593029260635376e-02
3.951000000000000000e+03 3.893737792968750000e+01 1.554863739013671875e+01 -9.355184435844421387e-01 -9.143356084823608398e-01 -5.549561977386474609e-01 -9.247341752052307129e-01
3.952000000000000000e+03 3.940960693359375000e+01 1.633705139160156250e+01 -9.409126043319702148e-01 -9.068498015403747559e-01 -5.543287396430969238e-01 -9.435736536979675293e-01
3.953000000000000000e+03 3.284060287475585938e+01 2.771243667602539062e+01 4.671392589807510376e-02 7.688250392675399780e-02 3.707892820239067078e-02 5.850176140666007996e-02
3.954000000000000000e+03 3.142814064025878906e+01 2.574338531494140625e+01 4.794934019446372986e-02 7.955521345138549805e-02 3.825136646628379822e-02 6.372573226690292358e-02
3.955000000000000000e+03 2.577246475219726562e+01 1.945424270629882812e+01 6.631506234407424927e-02 1.047159805893898010e-01 5.130931362509727478e-02 8.357270061969757080e-02
3.956000000000000000e+03 1.682832908630371094e+01 1.105103874206542969e+01 7.902438193559646606e-02 2.007151842117309570e-01 8.392187207937240601e-02 1.185302659869194031e-01
3.957000000000000000e+03 1.721997070312500000e+01 1.144602298736572266e+01 7.928767800331115723e-02 1.912994533777236938e-01 8.117613941431045532e-02 1.178944110870361328e-01
3.958000000000000000e+03 4.269040679931640625e+01 1.954368591308593750e+01 -8.294572234153747559e-01 -7.545276880264282227e-01 -4.751954674720764160e-01 -8.745187520980834961e-01
3.959000000000000000e+03 4.277544784545898438e+01 1.980738449096679688e+01 -8.424853682518005371e-01 -7.752372622489929199e-01 -4.853167831897735596e-01 -8.827583789825439453e-01
3.960000000000000000e+03 4.049251174926757812e+01 1.681054306030273438e+01 -8.760174512863159180e-01 -7.714851498603820801e-01 -4.942507743835449219e-01 -8.847603797912597656e-01
3.961000000000000000e+03 3.031054115295410156e+01 4.414464950561523438e+00 -1.503418803215026855e+00 -7.846446037292480469e-01 -6.864190101623535156e-01 -6.409767866134643555e-01
3.962000000000000000e+03 3.925786209106445312e+01 1.575617980957031250e+01 -9.192338585853576660e-01 -8.750272393226623535e-01 -5.382783412933349609e-01 -9.104143381118774414e-01
3.963000000000000000e+03 1.812042427062988281e+01 1.138860893249511719e+01 9.372043609619140625e-02 1.803443282842636108e-01 8.221942931413650513e-02 1.282605677843093872e-01
3.964000000000000000e+03 4.547649383544921875e+01 2.254642105102539062e+01 -8.909143805503845215e-01 -6.936787366867065430e-01 -4.753779470920562744e-01 -7.879734635353088379e-01
3.965000000000000000e+03 2.794629287719726562e+01 2.199939346313476562e+01 5.403190478682518005e-02 9.293617308139801025e-02 4.409042373299598694e-02 7.382474094629287720e-02
3.966000000000000000e+03 1.926762580871582031e+01 1.329666805267333984e+01 8.171183615922927856e-02 1.548607647418975830e-01 7.097177952527999878e-02 1.119682788848876953e-01
3.967000000000000000e+03 1.906711769104003906e+01 1.312451648712158203e+01 8.189716190099716187e-02 1.586643010377883911e-01 7.216843962669372559e-02 1.125738993287086487e-01
3.968000000000000000e+03 1.369823837280273438e+01 7.973869323730468750e+00 6.912005692720413208e-02 3.339799046516418457e-01 1.209299862384796143e-01 6.916924566030502319e-02
3.969000000000000000e+03 2.105504035949707031e+01 1.571200370788574219e+01 7.014170289039611816e-02 1.345371603965759277e-01 6.140365824103355408e-02 9.590757638216018677e-02
3.970000000000000000e+03 3.521684646606445312e+01 1.224914550781250000e+01 -1.059483289718627930e+00 -1.098048210144042969e+00 -6.472594738006591797e-01 -1.038930892944335938e+00
3.971000000000000000e+03 3.648281860351562500e+01 1.311686038970947266e+01 -1.004158496856689453e+00 -1.023016095161437988e+00 -6.081523895263671875e-01 -9.885940551757812500e-01
3.972000000000000000e+03 2.212275314331054688e+01 1.727922248840332031e+01 6.193948537111282349e-02 1.242293566465377808e-01 5.585065484046936035e-02 8.835534006357192993e-02
3.973000000000000000e+03 2.146929168701171875e+01 1.668307304382324219e+01 6.312005966901779175e-02 1.287479102611541748e-01 5.756039172410964966e-02 8.988203108310699463e-02
3.974000000000000000e+03 3.278693771362304688e+01 2.727124404907226562e+01 4.601849615573883057e-02 7.698623090982437134e-02 3.690141811966896057e-02 5.966961756348609924e-02
3.975000000000000000e+03 4.572913360595703125e+01 2.278794479370117188e+01 -8.937168121337890625e-01 -6.763191223144531250e-01 -4.710107743740081787e-01 -7.782832384109497070e-01
3.976000000000000000e+03 4.665450286865234375e+01 2.315329170227050781e+01 -8.330456614494323730e-01 -5.414283275604248047e-01 -4.123421907424926758e-01 -6.900473237037658691e-01
3.977000000000000000e+03 6.012041473388671875e+01 3.035614967346191406e+01 1.060967683792114258e+00 1.972874045372009277e+00 9.101524949073791504e-01 1.662713408470153809e+00
3.978000000000000000e+03 3.321630477905273438e+01 9.823870658874511719e+00 -1.098017811775207520e+00 -1.087565422058105469e+00 -6.556749343872070312e-01 -1.016935467720031738e+00
3.979000000000000000e+03 6.808596038818359375e+01 3.186838531494140625e+01 2.536413192749023438e+00 1.259514904022216797e+01 4.539468765258789062e+00 -1.746453762054443359e+00
3.980000000000000000e+03 6.839347839355468750e+01 3.298442459106445312e+01 4.296494007110595703e+00 1.202077770233154297e+01 4.895181655883789062e+00 -1.242265820503234863e+00
3.981000000000000000e+03 3.317968750000000000e+01 6.611052036285400391e+00 -1.009316921234130859e+00 -7.725273370742797852e-01 -5.345532894134521484e-01 -7.749307751655578613e-01
3.982000000000000000e+03 3.412065505981445312e+01 1.009130954742431641e+01 -1.042094230651855469e+00 -1.015505671501159668e+00 -6.172800064086914062e-01 -9.599777460098266602e-01
3.983000000000000000e+03 2.441059112548828125e+01 1.747645759582519531e+01 7.731343805789947510e-02 1.121235266327857971e-01 5.683108791708946228e-02 9.427100419998168945e-02
3.984000000000000000e+03 1.644025039672851562e+01 1.060079002380371094e+01 8.121800422668457031e-02 2.112564593553543091e-01 8.774233609437942505e-02 1.202551573514938354e-01
3.985000000000000000e+03 1.600099563598632812e+01 1.018124580383300781e+01 7.993621379137039185e-02 2.248513698577880859e-01 9.143627434968948364e-02 1.192187815904617310e-01
3.986000000000000000e+03 1.162171649932861328e+01 5.351981639862060547e+00 2.382135093212127686e-01 2.741242051124572754e-01 1.537013202905654907e-01 -1.645103245973587036e-01
3.987000000000000000e+03 1.197936916351318359e+01 5.675613880157470703e+00 1.796989142894744873e-01 3.528160452842712402e-01 1.597544997930526733e-01 -1.357803791761398315e-01
3.988000000000000000e+03 1.265772342681884766e+01 5.722518444061279297e+00 1.207733228802680969e-01 4.882851839065551758e-01 1.827175468206405640e-01 -7.268659770488739014e-02
3.989000000000000000e+03 9.487096786499023438e+00 6.497054576873779297e+00 1.907285898923873901e-01 -8.631199598312377930e-03 5.462921783328056335e-02 -3.917225822806358337e-02
3.990000000000000000e+03 2.996910095214843750e+01 2.487901687622070312e+01 4.498721659183502197e-02 8.354613184928894043e-02 3.856000304222106934e-02 6.607444584369659424e-02
3.991000000000000000e+03 2.646040153503417969e+01 -6.450183987617492676e-01 -1.016064584255218506e-01 -2.372454553842544556e-01 -1.016555726528167725e-01 -2.158930599689483643e-01
3.992000000000000000e+03 2.623150062561035156e+01 -4.425982944667339325e-03 -5.154517292976379395e-01 -2.280260175466537476e-01 -2.230433225631713867e-01 -1.888854354619979858e-01
3.993000000000000000e+03 1.638728523254394531e+01 1.106288814544677734e+01 7.203742116689682007e-02 2.050500065088272095e-01 8.312623202800750732e-02 1.113501787185668945e-01
3.994000000000000000e+03 6.140388107299804688e+01 3.135996627807617188e+01 1.664256453514099121e+00 2.280007362365722656e+00 1.183279156684875488e+00 2.499534606933593750e+00
3.995000000000000000e+03 2.489548683166503906e+01 8.218924999237060547e-01 -1.397662401199340820e+00 -1.041442677378654480e-01 -4.505420029163360596e-01 -5.464153289794921875e-01
3.996000000000000000e+03 1.518149185180664062e+01 9.811515808105468750e+00 6.877608597278594971e-02 2.456314265727996826e-01 9.432225674390792847e-02 1.073986366391181946e-01
3.997000000000000000e+03 1.475046539306640625e+01 9.078920364379882812e+00 7.171006500720977783e-02 2.725837230682373047e-01 1.032881289720535278e-01 1.055875793099403381e-01
3.998000000000000000e+03 1.426979351043701172e+01 8.610269546508789062e+00 6.592550873756408691e-02 2.954754233360290527e-01 1.084202826023101807e-01 9.326682984828948975e-02
3.999000000000000000e+03 3.070354080200195312e+01 4.721810340881347656e+00 -1.458035826683044434e+00 -7.587768435478210449e-01 -6.650437712669372559e-01 -6.832019686698913574e-01
4.000000000000000000e+03 6.105467987060546875e+01 3.044033432006835938e+01 1.354352235794067383e+00 2.860414981842041016e+00 1.264430165290832520e+00 2.463430643081665039e+00
4.001000000000000000e+03 5.757871627807617188e+01 2.957448577880859375e+01 3.045422136783599854e-01 1.183567166328430176e+00 4.464327991008758545e-01 4.981551468372344971e-01
4.002000000000000000e+03 5.883605957031250000e+01 2.976622200012207031e+01 6.680568456649780273e-01 1.583993077278137207e+00 6.756149530410766602e-01 1.021976947784423828e+00
4.003000000000000000e+03 3.237201309204101562e+01 2.587579727172851562e+01 4.863893240690231323e-02 7.803183048963546753e-02 3.800123184919357300e-02 6.344726681709289551e-02
4.004000000000000000e+03 3.225807571411132812e+01 2.649404716491699219e+01 4.669906571507453918e-02 7.823485136032104492e-02 3.748017549514770508e-02 6.199962645769119263e-02
4.005000000000000000e+03 5.632566070556640625e+01 2.920298767089843750e+01 1.410119887441396713e-02 9.544280171394348145e-01 2.905587553977966309e-01 1.970014572143554688e-01
4.006000000000000000e+03 2.846706771850585938e+01 2.310575485229492188e+01 4.822641238570213318e-02 9.034904092550277710e-02 4.157263413071632385e-02 7.066439837217330933e-02
4.007000000000000000e+03 6.799937438964843750e+01 3.661291503906250000e+01 1.618784785270690918e+00 1.349334621429443359e+01 4.533639430999755859e+00 1.840464115142822266e+00
4.008000000000000000e+03 6.799509429931640625e+01 3.528020477294921875e+01 3.958114147186279297e+00 1.312031936645507812e+01 5.123529911041259766e+00 1.631783485412597656e+00
4.009000000000000000e+03 1.369507026672363281e+01 7.136254787445068359e+00 7.708415389060974121e-02 3.959089517593383789e-01 1.418979316949844360e-01 7.892832905054092407e-02
4.010000000000000000e+03 3.163764572143554688e+01 4.793716907501220703e+00 -1.248512148857116699e+00 -6.790745258331298828e-01 -5.782759785652160645e-01 -6.387376189231872559e-01
4.011000000000000000e+03 3.820510864257812500e+01 3.240830230712890625e+01 5.482112616300582886e-02 6.106426939368247986e-02 3.476561978459358215e-02 5.120410770177841187e-02
4.012000000000000000e+03 5.444967269897460938e+01 3.040383720397949219e+01 -5.889735221862792969e-01 3.136250972747802734e-01 -8.260452747344970703e-02 -4.124098420143127441e-01
4.013000000000000000e+03 2.802082252502441406e+01 -6.272135972976684570e-01 -4.458243027329444885e-02 -3.863755464553833008e-01 -1.292873919010162354e-01 -3.471136093139648438e-02
4.014000000000000000e+03 3.051777648925781250e+01 2.588719940185546875e+01 4.458620399236679077e-02 8.170211315155029297e-02 3.788649663329124451e-02 6.304024904966354370e-02
4.015000000000000000e+03 2.828465652465820312e+01 2.783503770828247070e+00 -1.566731333732604980e+00 -7.597202658653259277e-01 -6.979355216026306152e-01 -5.844950079917907715e-01
4.016000000000000000e+03 3.375168991088867188e+01 7.933131217956542969e+00 -9.753829836845397949e-01 -8.467999100685119629e-01 -5.466548800468444824e-01 -8.278431296348571777e-01
4.017000000000000000e+03 3.381262969970703125e+01 9.758746147155761719e+00 -1.040815114974975586e+00 -1.013449430465698242e+00 -6.162793636322021484e-01 -9.600638747215270996e-01
4.018000000000000000e+03 3.567629623413085938e+01 3.126365280151367188e+01 4.733176156878471375e-02 6.898289173841476440e-02 3.489439561963081360e-02 5.084809288382530212e-02
4.019000000000000000e+03 5.376349639892578125e+01 2.955039978027343750e+01 -5.649065971374511719e-01 2.563301920890808105e-01 -9.257292747497558594e-02 -3.512857854366302490e-01
4.020000000000000000e+03 5.460273361206054688e+01 2.994574737548828125e+01 -4.791815578937530518e-01 4.163517951965332031e-01 -1.884892955422401428e-02 -3.049966096878051758e-01
4.021000000000000000e+03 3.000580596923828125e+01 2.539377593994140625e+01 4.432788863778114319e-02 8.337692916393280029e-02 3.831144422292709351e-02 6.444951891899108887e-02
4.022000000000000000e+03 2.948467826843261719e+01 2.444263458251953125e+01 4.491777718067169189e-02 8.554726094007492065e-02 3.913951292634010315e-02 6.677529215812683105e-02
4.023000000000000000e+03 5.703660964965820312e+01 2.992380905151367188e+01 1.001271456480026245e-01 9.173269867897033691e-01 3.052362501621246338e-01 2.071776092052459717e-01
4.024000000000000000e+03 5.575981521606445312e+01 2.945930862426757812e+01 -1.562940180301666260e-01 7.538862228393554688e-01 1.792776584625244141e-01 -2.921300474554300308e-03
4.025000000000000000e+03 3.797087478637695312e+01 3.194794845581054688e+01 5.730080604553222656e-02 6.315972656011581421e-02 3.613815829157829285e-02 5.355909094214439392e-02
4.026000000000000000e+03 3.696857833862304688e+01 3.327145004272460938e+01 5.229953676462173462e-02 6.239907070994377136e-02 3.440958261489868164e-02 4.656516388058662415e-02
4.027000000000000000e+03 3.748391723632812500e+01 3.395173263549804688e+01 5.807064473628997803e-02 5.900786817073822021e-02 3.512355312705039978e-02 4.475864022970199585e-02
4.028000000000000000e+03 2.871970939636230469e+01 -1.089991450309753418e+00 1.075447350740432739e-01 -4.064703285694122314e-01 -8.967768400907516479e-02 -2.194308862090110779e-02
4.029000000000000000e+03 3.889038848876953125e+01 3.568944168090820312e+01 6.732939183712005615e-02 5.329814553260803223e-02 3.618825972080230713e-02 4.166325181722640991e-02
4.030000000000000000e+03 3.401443862915039062e+01 3.108035278320312500e+01 4.265934228897094727e-02 7.171967625617980957e-02 3.431370481848716736e-02 4.895984381437301636e-02
4.031000000000000000e+03 3.629170227050781250e+01 3.129228782653808594e+01 5.199667066335678101e-02 6.802370399236679077e-02 3.600611165165901184e-02 5.103614926338195801e-02
4.032000000000000000e+03 3.565684127807617188e+01 3.200979995727539062e+01 5.065382644534111023e-02 6.815030425786972046e-02 3.564123809337615967e-02 4.870000481605529785e-02
4.033000000000000000e+03 1.044030475616455078e+01 5.980683326721191406e+00 2.188352942466735840e-01 5.570426210761070251e-02 8.236186951398849487e-02 -8.315479755401611328e-02
4.034000000000000000e+03 1.164211940765380859e+01 6.013213634490966797e+00 1.753279715776443481e-01 2.771529853343963623e-01 1.357442885637283325e-01 -1.223854273557662964e-01
4.035000000000000000e+03 1.202713871002197266e+01 5.015056133270263672e+00 2.460363507270812988e-01 3.811763525009155273e-01 1.881638169288635254e-01 -1.883918792009353638e-01
4.036000000000000000e+03 1.228787422180175781e+01 6.004869461059570312e+00 1.329376250505447388e-01 4.070524871349334717e-01 1.619970351457595825e-01 -9.414759278297424316e-02
4.037000000000000000e+03 3.345396804809570312e+01 8.593126296997070312e+00 -1.013898611068725586e+00 -9.507991075515747070e-01 -5.894092917442321777e-01 -9.069462418556213379e-01
4.038000000000000000e+03 9.298791885375976562e+00 -7.820780277252197266e+00 -2.082207500934600830e-01 -3.127053976058959961e-01 -1.562778502702713013e-01 -5.147192478179931641e-01
4.039000000000000000e+03 3.358649063110351562e+01 7.508466243743896484e+00 -9.749501943588256836e-01 -8.293762207031250000e-01 -5.412979125976562500e-01 -8.064166903495788574e-01
4.040000000000000000e+03 7.921404838562011719e+00 9.459822654724121094e+00 8.583844453096389771e-02 -2.029788866639137268e-02 1.966216601431369781e-02 -1.240248326212167740e-02
4.041000000000000000e+03 3.206951141357421875e+01 -3.010191202163696289e+00 4.093026816844940186e-01 -4.503069221973419189e-01 -1.230127178132534027e-02 2.472533285617828369e-02
4.042000000000000000e+03 2.934409332275390625e+01 3.411501407623291016e+00 -1.501264333724975586e+00 -8.076959848403930664e-01 -6.926881074905395508e-01 -5.615420937538146973e-01
4.043000000000000000e+03 6.904325866699218750e+01 3.632118701934814453e+00 -1.146404445171356201e-01 6.818310737609863281e+00 2.011101007461547852e+00 3.083329200744628906e-01
4.044000000000000000e+03 6.915224456787109375e+01 -1.031441688537597656e+00 -4.109182208776473999e-02 6.728909015655517578e+00 2.006345033645629883e+00 3.309942185878753662e-01
4.045000000000000000e+03 1.094135761260986328e+01 6.232987403869628906e+00 1.930019408464431763e-01 1.444611251354217529e-01 1.012389212846755981e-01 -1.037814840674400330e-01
4.046000000000000000e+03 9.604996681213378906e+00 7.939210414886474609e+00 1.293989866971969604e-01 4.925835877656936646e-02 5.359720438718795776e-02 -4.231248795986175537e-02
4.047000000000000000e+03 6.954326629638671875e+01 4.331787586212158203e+00 -1.294720172882080078e-01 6.955150127410888672e+00 2.047703504562377930e+00 2.854793667793273926e-01
4.048000000000000000e+03 7.133023071289062500e+01 7.037114143371582031e+00 -1.641914546489715576e-01 7.472246170043945312e+00 2.192416429519653320e+00 1.842050701379776001e-01
4.049000000000000000e+03 3.247785568237304688e+01 -3.479484796524047852e+00 4.743835628032684326e-01 -4.315258860588073730e-01 1.285730861127376556e-02 -4.475508350878953934e-03
4.050000000000000000e+03 3.548230361938476562e+01 -5.674079895019531250e+00 4.912191629409790039e-01 -2.138956338167190552e-01 8.319705724716186523e-02 -1.281010173261165619e-02
4.051000000000000000e+03 1.335319423675537109e+01 -7.983502864837646484e+00 -1.730975508689880371e-01 -5.731860995292663574e-01 -2.238851040601730347e-01 -7.043694257736206055e-01
4.052000000000000000e+03 6.836515045166015625e+01 -4.105329990386962891e+00 -1.369896531105041504e-02 6.474038124084472656e+00 1.938101768493652344e+00 3.510272800922393799e-01
4.053000000000000000e+03 7.071610260009765625e+01 -6.008112907409667969e+00 9.639917989261448383e-04 6.986032962799072266e+00 2.096099138259887695e+00 3.032748699188232422e-01
4.054000000000000000e+03 1.339715290069580078e+01 -8.991174697875976562e+00 -6.097088754177093506e-02 -5.536465048789978027e-01 -1.843852251768112183e-01 -6.591252088546752930e-01
4.055000000000000000e+03 8.520403861999511719e+00 1.354863548278808594e+01 2.198858559131622314e-02 1.606285013258457184e-02 1.141543034464120865e-02 -1.789375208318233490e-02
4.056000000000000000e+03 1.020705127716064453e+01 1.594404220581054688e+01 5.674891173839569092e-03 5.413223057985305786e-02 1.794213615357875824e-02 -8.376906625926494598e-03
4.057000000000000000e+03 3.807936096191406250e+01 3.331184387207031250e+01 5.579913407564163208e-02 6.068244203925132751e-02 3.494447469711303711e-02 4.963121935725212097e-02
4.058000000000000000e+03 7.963743209838867188e+00 -1.049782180786132812e+01 -4.574842378497123718e-02 -4.357913732528686523e-01 -1.444619446992874146e-01 -4.761052727699279785e-01
4.059000000000000000e+03 8.161408424377441406e+00 -9.274204254150390625e+00 -9.618544578552246094e-02 -3.748936057090759277e-01 -1.413237154483795166e-01 -4.687874615192413330e-01
4.060000000000000000e+03 7.159476470947265625e+01 1.303879737854003906e+01 -3.667942285537719727e-01 7.796257019042968750e+00 2.228838920593261719e+00 -5.211005732417106628e-02
4.061000000000000000e+03 7.106330871582031250e+01 2.819966697692871094e+01 -5.253874137997627258e-02 9.729814529418945312e+00 2.903182744979858398e+00 -1.612198472023010254e+00
4.062000000000000000e+03 7.096166229248046875e+01 2.185862350463867188e+01 -8.532385230064392090e-01 8.631739616394042969e+00 2.333550214767456055e+00 -6.879333257675170898e-01
4.063000000000000000e+03 6.969602966308593750e+01 -1.062026882171630859e+01 6.577954627573490143e-03 6.678956985473632812e+00 2.005660533905029297e+00 3.108802139759063721e-01
4.064000000000000000e+03 7.022657012939453125e+01 -1.328535079956054688e+01 1.047361269593238831e-02 6.744593143463134766e+00 2.026520013809204102e+00 3.017226755619049072e-01
4.065000000000000000e+03 4.028295135498046875e+01 4.040945434570312500e+01 7.508470118045806885e-02 4.108666628599166870e-02 3.485140949487686157e-02 1.292204856872558594e-02
4.066000000000000000e+03 3.687137222290039062e+01 4.110614013671875000e+01 6.518515944480895996e-02 5.408367142081260681e-02 3.578064963221549988e-02 1.055944710969924927e-02
4.067000000000000000e+03 3.879776382446289062e+01 -6.458367824554443359e+00 4.069122672080993652e-01 1.808047890663146973e-01 1.763151139020919800e-01 2.694052085280418396e-02
4.068000000000000000e+03 3.816063690185546875e+01 -5.856590747833251953e+00 4.243038594722747803e-01 8.326815813779830933e-02 1.522716134786605835e-01 2.466838248074054718e-02
4.069000000000000000e+03 7.013617706298828125e+01 3.453590774536132812e+01 2.934455156326293945e+00 1.036941814422607422e+01 3.991162061691284180e+00 2.187485098838806152e-01
4.070000000000000000e+03 6.640635967254638672e+00 1.016582584381103516e+01 6.603096425533294678e-02 -5.605483055114746094e-02 2.992840250954031944e-03 -2.082095714285969734e-03
4.071000000000000000e+03 1.098091697692871094e+01 -9.092652320861816406e+00 -9.968689084053039551e-02 -4.585756361484527588e-01 -1.674787700176239014e-01 -5.997830033302307129e-01
4.072000000000000000e+03 1.285750484466552734e+01 -1.012218379974365234e+01 -8.056664839386940002e-03 -5.372609496116638184e-01 -1.635952889919281006e-01 -6.253432631492614746e-01
4.073000000000000000e+03 8.155565261840820312e+00 1.121362972259521484e+01 5.440729111433029175e-02 5.586127750575542450e-03 1.799802482128143311e-02 -1.855803281068801880e-02
4.074000000000000000e+03 6.998001098632812500e+01 2.718175506591796875e+01 -5.676260590553283691e-01 1.006109714508056641e+01 2.848041296005249023e+00 -1.254100680351257324e+00
4.075000000000000000e+03 1.881146812438964844e+01 -1.920619201660156250e+01 2.281383126974105835e-01 -4.986428096890449524e-02 5.348220840096473694e-02 -3.204663097858428955e-01
4.076000000000000000e+03 3.948398590087890625e+01 -6.978023052215576172e+00 4.060009419918060303e-01 2.817942500114440918e-01 2.063385546207427979e-01 2.232447452843189240e-02
4.077000000000000000e+03 6.931977844238281250e+01 -1.784334182739257812e+01 6.154018919914960861e-03 6.466602802276611328e+00 1.941827058792114258e+00 3.066935539245605469e-01
4.078000000000000000e+03 6.985194396972656250e+01 -2.045692634582519531e+01 1.351982820779085159e-02 6.534532070159912109e+00 1.964415550231933594e+00 2.862932980060577393e-01
4.079000000000000000e+03 8.346588134765625000e+00 1.003059101104736328e+01 7.703523337841033936e-02 9.376572445034980774e-03 2.592354081571102142e-02 -2.183824591338634491e-02
4.080000000000000000e+03 7.575914382934570312e+00 -1.407239151000976562e+01 4.667813330888748169e-02 -5.640982985496520996e-01 -1.552260369062423706e-01 -4.314088225364685059e-01
4.081000000000000000e+03 8.806658744812011719e+00 -1.385994815826416016e+01 6.017522513866424561e-02 -5.417045950889587402e-01 -1.444588154554367065e-01 -4.619213640689849854e-01
4.082000000000000000e+03 1.316375350952148438e+01 -1.294213962554931641e+01 1.296175420284271240e-01 -5.280077457427978516e-01 -1.195170655846595764e-01 -5.278753638267517090e-01
4.083000000000000000e+03 6.952587127685546875e+01 3.372550582885742188e+01 3.595165014266967773e+00 1.076677513122558594e+01 4.308581829071044922e+00 -4.211753308773040771e-01
4.084000000000000000e+03 7.147679901123046875e+01 3.145886039733886719e+01 1.489301323890686035e+00 9.430412292480468750e+00 3.275914192199707031e+00 -1.507176518440246582e+00
4.085000000000000000e+03 7.199728393554687500e+01 2.527352142333984375e+01 -5.991794466972351074e-01 8.994077682495117188e+00 2.518469333648681641e+00 -1.304214119911193848e+00
4.086000000000000000e+03 7.103679656982421875e+01 1.545265293121337891e+01 -5.060123801231384277e-01 7.856393337249755859e+00 2.205114364624023438e+00 -1.472848504781723022e-01
4.087000000000000000e+03 7.378811359405517578e+00 -1.286674404144287109e+01 1.651410385966300964e-02 -5.123848319053649902e-01 -1.487612277269363403e-01 -4.331044554710388184e-01
4.088000000000000000e+03 1.039806175231933594e+01 2.437907218933105469e+01 -8.794466964900493622e-03 1.028384268283843994e-02 4.468126280698925257e-04 -8.844274096190929413e-03
4.089000000000000000e+03 7.063085937500000000e+01 4.964042663574218750e+00 -1.309181898832321167e-01 7.231725215911865234e+00 2.130242109298706055e+00 2.434088438749313354e-01
4.090000000000000000e+03 1.225424957275390625e+01 -1.218783378601074219e+01 1.038743406534194946e-01 -5.485651493072509766e-01 -1.334072500467300415e-01 -5.486973524093627930e-01
4.091000000000000000e+03 7.106975555419921875e+01 8.700760841369628906e+00 -1.978613138198852539e-01 7.474973201751708984e+00 2.183133602142333984e+00 1.438112407922744751e-01
4.092000000000000000e+03 6.937673187255859375e+01 5.949380397796630859e-01 -5.144598335027694702e-02 6.830374240875244141e+00 2.033678293228149414e+00 3.187174499034881592e-01
4.093000000000000000e+03 7.130597686767578125e+01 3.011399841308593750e+01 8.244743943214416504e-01 9.651498794555664062e+00 3.142791986465454102e+00 -1.715298414230346680e+00
4.094000000000000000e+03 7.059046936035156250e+01 5.940620899200439453e+00 -1.447027921676635742e-01 7.281987667083740234e+00 2.141185522079467773e+00 2.210572063922882080e-01
4.095000000000000000e+03 7.323863983154296875e+01 1.471125888824462891e+01 -3.336032629013061523e-01 8.165735244750976562e+00 2.349639415740966797e+00 -2.322234064340591431e-01
4.096000000000000000e+03 1.013853263854980469e+01 -2.547794914245605469e+01 1.008626297116279602e-01 -6.635352373123168945e-01 -1.688017845153808594e-01 -2.631930112838745117e-01
4.097000000000000000e+03 6.977613830566406250e+01 -1.950453400611877441e+00 -2.764471247792243958e-02 6.853819370269775391e+00 2.047852277755737305e+00 3.152464628219604492e-01
4.098000000000000000e+03 4.171112060546875000e+01 -9.793937683105468750e+00 3.209473788738250732e-01 6.803771257400512695e-01 3.003973662853240967e-01 4.722724497696617618e-06
4.099000000000000000e+03 6.853166198730468750e+01 -2.313063430786132812e+01 2.575813978910446167e-02 6.245769500732421875e+00 1.881458282470703125e+00 3.012758493423461914e-01
4.100000000000000000e+03 4.327285003662109375e+01 -1.318407344818115234e+01 2.123721539974212646e-01 1.030342578887939453e+00 3.728144168853759766e-01 -1.603541336953639984e-02
4.101000000000000000e+03 7.062553405761718750e+01 -1.661060523986816406e+01 1.484726381022483110e-04 6.767662525177001953e+00 2.030343294143676758e+00 2.787001430988311768e-01
4.102000000000000000e+03 7.117470550537109375e+01 2.629630661010742188e+01 -5.697937011718750000e-01 9.417919158935546875e+00 2.654437541961669922e+00 -1.348682284355163574e+00
4.103000000000000000e+03 3.757758712768554688e+01 -5.200170993804931641e+00 4.133614897727966309e-01 -7.201288244687020779e-04 1.237924024462699890e-01 3.902657330036163330e-02
4.104000000000000000e+03 8.325681686401367188e+00 2.316707229614257812e+01 -8.125122636556625366e-03 -1.877806708216667175e-02 -8.070956915616989136e-03 -1.563830487430095673e-02
4.105000000000000000e+03 7.871833801269531250e+00 2.076493072509765625e+01 -5.046166013926267624e-03 -1.692713052034378052e-02 -6.591989193111658096e-03 -1.838470809161663055e-02
4.106000000000000000e+03 4.022677993774414062e+01 -7.371630668640136719e+00 3.807843625545501709e-01 3.999408483505249023e-01 2.342175543308258057e-01 2.849827148020267487e-02
4.107000000000000000e+03 3.985196304321289062e+01 -8.318604469299316406e+00 3.932693898677825928e-01 3.594819009304046631e-01 2.258253842592239380e-01 5.592439323663711548e-03
4.108000000000000000e+03 6.878833770751953125e+01 -2.113523101806640625e+01 1.952293142676353455e-02 6.330914974212646484e+00 1.905131459236145020e+00 2.997006177902221680e-01
4.109000000000000000e+03 8.279096603393554688e+00 -1.151355457305908203e+01 -1.925219595432281494e-02 -4.624955058097839355e-01 -1.445243060588836670e-01 -4.805209636688232422e-01
4.110000000000000000e+03 8.643413543701171875e+00 -1.003749275207519531e+01 -7.672232389450073242e-02 -4.157749712467193604e-01 -1.477491855621337891e-01 -5.051586627960205078e-01
4.111000000000000000e+03 7.082192230224609375e+01 1.216817474365234375e+01 -3.577275872230529785e-01 7.578840255737304688e+00 2.166333675384521484e+00 3.552915900945663452e-02
4.112000000000000000e+03 7.000041198730468750e+01 1.155184364318847656e+01 -3.792567253112792969e-01 7.372477531433105469e+00 2.097966194152832031e+00 1.233200058341026306e-01
4.113000000000000000e+03 6.983504486083984375e+01 1.989427757263183594e+01 -8.717471957206726074e-01 8.241451263427734375e+00 2.210911273956298828e+00 -3.045935928821563721e-01
4.114000000000000000e+03 7.049414062500000000e+01 1.878815460205078125e+01 -7.558578252792358398e-01 8.135810852050781250e+00 2.213985919952392578e+00 -3.200415670871734619e-01
4.115000000000000000e+03 3.372648620605468750e+01 -4.462957382202148438e+00 4.941705465316772461e-01 -3.527261912822723389e-01 4.243331030011177063e-02 -2.474460517987608910e-03
4.116000000000000000e+03 7.147824096679687500e+01 3.669838333129882812e+01 1.101304650306701660e+00 9.846066474914550781e+00 3.284211397171020508e+00 7.894310355186462402e-01
4.117000000000000000e+03 6.936298370361328125e+01 3.503530883789062500e+01 3.362235784530639648e+00 1.116645717620849609e+01 4.358607769012451172e+00 7.861683368682861328e-01
4.118000000000000000e+03 9.285859107971191406e+00 -1.761677169799804688e+01 1.114257574081420898e-01 -6.116594672203063965e-01 -1.500701159238815308e-01 -4.042910039424896240e-01
4.119000000000000000e+03 9.139901161193847656e+00 -1.634928512573242188e+01 1.039956733584403992e-01 -5.898314118385314941e-01 -1.457507163286209106e-01 -4.196149408817291260e-01
4.120000000000000000e+03 1.652460670471191406e+01 -1.798017501831054688e+01 2.253694385290145874e-01 -2.664858400821685791e-01 -1.233491860330104828e-02 -3.623557388782501221e-01
4.121000000000000000e+03 7.088332366943359375e+01 2.080443572998046875e+01 -8.237215876579284668e-01 8.460736274719238281e+00 2.291104316711425781e+00 -5.590885877609252930e-01
4.122000000000000000e+03 7.073063659667968750e+01 1.977937507629394531e+01 -7.926356792449951172e-01 8.294999122619628906e+00 2.250709056854248047e+00 -4.386606812477111816e-01
4.123000000000000000e+03 6.957292175292968750e+01 -1.672338867187500000e+01 5.179971456527709961e-03 6.537873744964599609e+00 1.962916016578674316e+00 3.077902495861053467e-01
4.124000000000000000e+03 7.100948333740234375e+01 2.522980499267578125e+01 -7.564650774002075195e-01 9.271218299865722656e+00 2.554425954818725586e+00 -1.136382818222045898e+00
4.125000000000000000e+03 8.714428901672363281e+00 1.914312171936035156e+01 -4.536366555839776993e-03 1.415344653651118279e-03 -9.363066055811941624e-04 -1.678810641169548035e-02
4.126000000000000000e+03 7.084340667724609375e+01 -7.233726978302001953e+00 -1.510810106992721558e-03 6.986505031585693359e+00 2.095498323440551758e+00 2.952068448066711426e-01
4.127000000000000000e+03 6.969773101806640625e+01 -7.381324768066406250e+00 7.673128042370080948e-03 6.737423896789550781e+00 2.023529052734375000e+00 3.238948583602905273e-01
4.128000000000000000e+03 4.715225982666015625e+01 -2.082641601562500000e+01 -6.085545942187309265e-02 2.009678602218627930e+00 5.846469402313232422e-01 1.326015684753656387e-02
4.129000000000000000e+03 4.360222625732421875e+01 -1.717868614196777344e+01 6.363726407289505005e-02 1.140188455581665039e+00 3.611477017402648926e-01 -3.237603232264518738e-02
4.130000000000000000e+03 6.751524353027343750e+01 -2.766738510131835938e+01 6.709497421979904175e-02 6.011767864227294922e+00 1.823658823966979980e+00 2.940953969955444336e-01
4.131000000000000000e+03 7.202849578857421875e+01 -7.166838169097900391e+00 -1.452705590054392815e-03 7.260098457336425781e+00 2.177593708038330078e+00 2.718661427497863770e-01
4.132000000000000000e+03 8.538547515869140625e+00 -1.267503833770751953e+01 3.038385510444641113e-02 -5.205920338630676270e-01 -1.470624655485153198e-01 -4.833823740482330322e-01
4.133000000000000000e+03 7.303627490997314453e+00 2.149839210510253906e+01 -6.193618290126323700e-03 -3.267991915345191956e-02 -1.166206039488315582e-02 -2.010117843747138977e-02
4.134000000000000000e+03 8.445484161376953125e+00 2.000279998779296875e+01 -5.404074676334857941e-03 -8.043972775340080261e-03 -4.034414421766996384e-03 -1.671090908348560333e-02
4.135000000000000000e+03 9.859541893005371094e+00 1.479162406921386719e+01 1.503956224769353867e-02 5.338549613952636719e-02 2.052751742303371429e-02 -1.180996093899011612e-02
4.136000000000000000e+03 1.041466808319091797e+01 1.441919040679931641e+01 1.727608777582645416e-02 7.173225283622741699e-02 2.670250087976455688e-02 -7.704589981585741043e-03
4.137000000000000000e+03 4.855843734741210938e+01 -2.383958053588867188e+01 -9.729330986738204956e-02 2.421838760375976562e+00 6.973636150360107422e-01 7.487320154905319214e-02
4.138000000000000000e+03 9.808417320251464844e+00 3.487599563598632812e+01 -5.145940463989973068e-03 -1.788302510976791382e-02 -6.908689625561237335e-03 -4.119981545954942703e-03
4.139000000000000000e+03 4.815135574340820312e+01 -2.160848236083984375e+01 -6.745365262031555176e-02 2.265390634536743164e+00 6.593811511993408203e-01 4.987315833568572998e-02
4.140000000000000000e+03 4.995647811889648438e+01 -2.090673446655273438e+01 -4.027152806520462036e-02 2.650871515274047852e+00 7.831799983978271484e-01 1.053422689437866211e-01
4.141000000000000000e+03 4.301756668090820312e+01 -1.602455902099609375e+01 1.078179404139518738e-01 1.014127254486083984e+00 3.365835547447204590e-01 -2.726011537015438080e-02
4.142000000000000000e+03 5.244519805908203125e+01 -2.320648765563964844e+01 -5.943703278899192810e-02 3.227185964584350586e+00 9.503247141838073730e-01 2.055364400148391724e-01
4.143000000000000000e+03 6.786583709716796875e+01 -2.623731613159179688e+01 3.544823080301284790e-02 6.079441070556640625e+00 1.834466814994812012e+00 2.984378933906555176e-01
4.144000000000000000e+03 1.743552207946777344e+01 -2.964982223510742188e+01 2.228215783834457397e-01 -1.722402870655059814e-01 1.517438702285289764e-02 -2.567504048347473145e-01
4.145000000000000000e+03 7.017673492431640625e+01 -3.578075027465820312e+01 1.040391921997070312e-01 6.356287479400634766e+00 1.938097953796386719e+00 1.418159753084182739e-01
4.146000000000000000e+03 6.329366683959960938e+01 3.073070144653320312e+01 1.008552193641662598e+00 8.073297500610351562e+00 2.724554777145385742e+00 4.423783302307128906e+00
4.147000000000000000e+03 2.758750343322753906e+01 2.140662193298339844e+00 -1.467818617820739746e+00 -6.108818054199218750e-01 -6.236101388931274414e-01 -4.846234321594238281e-01
4.148000000000000000e+03 6.607721710205078125e+01 3.150891876220703125e+01 7.450204491615295410e-01 1.580451107025146484e+01 4.964859485626220703e+00 -2.027970552444458008e-01
4.149000000000000000e+03 2.856707763671875000e+01 3.268139600753784180e+00 -1.659240722656250000e+00 -8.344114422798156738e-01 -7.480956315994262695e-01 -6.693210601806640625e-01
4.150000000000000000e+03 2.795382499694824219e+01 3.118015527725219727e+00 -1.777078747749328613e+00 -7.924569249153137207e-01 -7.708606719970703125e-01 -7.185912728309631348e-01
4.151000000000000000e+03 2.537912368774414062e+01 1.941164135932922363e+00 -2.114004135131835938e+00 -4.135117828845977783e-01 -7.582548260688781738e-01 -7.927145361900329590e-01
4.152000000000000000e+03 2.585596847534179688e+01 3.022285699844360352e-01 -7.725380659103393555e-01 -2.236339598894119263e-01 -2.988516092300415039e-01 -3.286130726337432861e-01
4.153000000000000000e+03 6.174063873291015625e+01 3.115264701843261719e+01 1.787616968154907227e+00 3.189953327178955078e+00 1.493271112442016602e+00 3.049821853637695312e+00
4.154000000000000000e+03 2.777744483947753906e+01 2.581015586853027344e+00 -1.613492488861083984e+00 -6.925942897796630859e-01 -6.918260455131530762e-01 -5.842976570129394531e-01
4.155000000000000000e+03 6.158979034423828125e+01 3.073985481262207031e+01 1.564386844635009766e+00 3.342052459716796875e+00 1.471931815147399902e+00 2.970600366592407227e+00
4.156000000000000000e+03 2.560659790039062500e+01 7.012784481048583984e-01 -1.088816285133361816e+00 -1.930415034294128418e-01 -3.845573365688323975e-01 -3.704211711883544922e-01
4.157000000000000000e+03 4.213204574584960938e+01 1.829468154907226562e+01 -8.041498064994812012e-01 -6.899225115776062012e-01 -4.482217133045196533e-01 -8.493715524673461914e-01
4.158000000000000000e+03 4.131031799316406250e+01 1.808829307556152344e+01 -8.606410622596740723e-01 -7.761250138282775879e-01 -4.910298287868499756e-01 -9.181812405586242676e-01
4.159000000000000000e+03 1.768678855895996094e+01 1.317438983917236328e+01 6.406992673873901367e-02 1.671138405799865723e-01 6.935513019561767578e-02 1.003481820225715637e-01
4.160000000000000000e+03 6.594300079345703125e+01 3.122208213806152344e+01 2.670459449291229248e-01 1.531009578704833984e+01 4.673142433166503906e+00 2.961066365242004395e-01
4.161000000000000000e+03 6.632732391357421875e+01 3.145073318481445312e+01 9.042708277702331543e-01 1.533243846893310547e+01 4.871012687683105469e+00 -5.750991106033325195e-01
4.162000000000000000e+03 2.856866645812988281e+01 -4.996231794357299805e-01 -1.359227448701858521e-01 -4.767171442508697510e-01 -1.837919652462005615e-01 -6.382184475660324097e-02
4.163000000000000000e+03 1.355747890472412109e+01 9.379805564880371094e+00 5.482182279229164124e-02 2.591155469417572021e-01 9.418120980262756348e-02 5.189700424671173096e-02
4.164000000000000000e+03 2.783000564575195312e+01 2.282785797119140625e+01 4.754032194614410400e-02 9.263749420642852783e-02 4.205334559082984924e-02 7.088021934032440186e-02
4.165000000000000000e+03 2.718977546691894531e+01 2.179150009155273438e+01 5.291862785816192627e-02 9.582629054784774780e-02 4.462347552180290222e-02 7.409449666738510132e-02
4.166000000000000000e+03 4.355683517456054688e+01 2.003887367248535156e+01 -8.053618073463439941e-01 -6.837292909622192383e-01 -4.467273354530334473e-01 -8.053203821182250977e-01
4.167000000000000000e+03 4.754159545898437500e+01 2.384462356567382812e+01 -7.918965816497802734e-01 -4.467214643955230713e-01 -3.715853989124298096e-01 -6.390186548233032227e-01
4.168000000000000000e+03 4.013665771484375000e+01 1.665186691284179688e+01 -8.973293900489807129e-01 -8.134139180183410645e-01 -5.132229924201965332e-01 -9.044569134712219238e-01
4.169000000000000000e+03 4.171998977661132812e+01 1.820092010498046875e+01 -8.315341472625732422e-01 -7.350243926048278809e-01 -4.699675738811492920e-01 -8.850233554840087891e-01
4.170000000000000000e+03 6.515553283691406250e+01 3.083846092224121094e+01 -3.535171151161193848e-01 1.402287864685058594e+01 4.100808620452880859e+00 2.237779617309570312e+00
4.171000000000000000e+03 4.825595092773437500e+01 2.442028236389160156e+01 -7.543027997016906738e-01 -3.839765191078186035e-01 -3.414838016033172607e-01 -6.019280552864074707e-01
4.172000000000000000e+03 6.308688735961914062e+01 3.098290824890136719e+01 1.435138940811157227e+00 7.154987335205078125e+00 2.577037811279296875e+00 4.556882381439208984e+00
4.173000000000000000e+03 4.791579055786132812e+01 2.389460563659667969e+01 -7.571561336517333984e-01 -3.766181766986846924e-01 -3.401322960853576660e-01 -5.926337242126464844e-01
4.174000000000000000e+03 6.953559112548828125e+01 2.815502929687500000e+01 -3.514907062053680420e-01 1.050620841979980469e+01 3.046415328979492188e+00 -1.302181243896484375e+00
4.175000000000000000e+03 6.693167114257812500e+01 3.185582542419433594e+01 2.285836219787597656e+00 1.474595260620117188e+01 5.109536647796630859e+00 -1.636411309242248535e+00
4.176000000000000000e+03 4.821804428100585938e+01 2.490195083618164062e+01 -8.009635806083679199e-01 -4.629049003124237061e-01 -3.791605532169342041e-01 -6.622989177703857422e-01
4.177000000000000000e+03 2.888282585144042969e+01 3.738476753234863281e+00 -1.706974029541015625e+00 -9.027926325798034668e-01 -7.829300165176391602e-01 -7.244334220886230469e-01
4.178000000000000000e+03 2.401150512695312500e+01 1.858910560607910156e+01 6.358679383993148804e-02 1.120191738009452820e-01 5.268179252743721008e-02 8.523622900247573853e-02
4.179000000000000000e+03 2.895855712890625000e+01 3.338072776794433594e+00 -1.542221784591674805e+00 -8.086045980453491211e-01 -7.052478790283203125e-01 -5.812393426895141602e-01
4.180000000000000000e+03 2.926461219787597656e+01 3.807551622390747070e+00 -1.595813274383544922e+00 -8.662948608398437500e-01 -7.386324405670166016e-01 -6.404161453247070312e-01
4.181000000000000000e+03 4.069707489013671875e+01 1.736773872375488281e+01 -8.829345107078552246e-01 -7.918164730072021484e-01 -5.024253129959106445e-01 -9.137996435165405273e-01
4.182000000000000000e+03 4.186135864257812500e+01 1.775794410705566406e+01 -8.026761412620544434e-01 -6.683395504951477051e-01 -4.413047134876251221e-01 -8.352327942848205566e-01
4.183000000000000000e+03 2.588861656188964844e+01 2.019756889343261719e+01 5.894845724105834961e-02 1.030981615185737610e-01 4.861398413777351379e-02 7.941755652427673340e-02
4.184000000000000000e+03 3.744618606567382812e+01 1.346312427520751953e+01 -9.463899731636047363e-01 -9.362462162971496582e-01 -5.647908449172973633e-01 -9.188488721847534180e-01
4.185000000000000000e+03 1.213991737365722656e+01 6.899101257324218750e+00 1.030825674533843994e-01 3.209998905658721924e-01 1.272247433662414551e-01 -5.313903093338012695e-02
4.186000000000000000e+03 1.286786556243896484e+01 6.768103599548339844e+00 7.901568710803985596e-02 4.044069349765777588e-01 1.450267881155014038e-01 -2.620702376589179039e-03
4.187000000000000000e+03 4.493059921264648438e+01 2.153723907470703125e+01 -8.365239500999450684e-01 -6.524856090545654297e-01 -4.467028677463531494e-01 -7.603942751884460449e-01
4.188000000000000000e+03 4.419821929931640625e+01 2.118508911132812500e+01 -8.676505088806152344e-01 -7.300910949707031250e-01 -4.793224930763244629e-01 -8.233466744422912598e-01
4.189000000000000000e+03 2.709256362915039062e+01 2.122434425354003906e+01 5.607317015528678894e-02 9.702455252408981323e-02 4.592931643128395081e-02 7.663186639547348022e-02
4.190000000000000000e+03 4.470702743530273438e+01 2.127044105529785156e+01 -8.339620232582092285e-01 -6.570285558700561523e-01 -4.472971856594085693e-01 -7.678080797195434570e-01
4.191000000000000000e+03 4.624712371826171875e+01 2.323981475830078125e+01 -8.884071111679077148e-01 -6.346228122711181641e-01 -4.569089710712432861e-01 -7.562931180000305176e-01
4.192000000000000000e+03 4.725201034545898438e+01 2.339331817626953125e+01 -7.900164127349853516e-01 -4.474970996379852295e-01 -3.712540566921234131e-01 -6.307151913642883301e-01
4.193000000000000000e+03 2.740545272827148438e+01 -1.685742139816284180e-01 -2.930920422077178955e-01 -3.619488775730133057e-01 -1.965122818946838379e-01 -7.823611050844192505e-02
4.194000000000000000e+03 4.496086502075195312e+01 2.204555320739746094e+01 -8.870559334754943848e-01 -7.171385288238525391e-01 -4.812583327293395996e-01 -8.059385418891906738e-01
4.195000000000000000e+03 2.039344406127929688e+01 1.493557834625244141e+01 7.301335036754608154e-02 1.406574100255966187e-01 6.410122662782669067e-02 1.000488549470901489e-01
4.196000000000000000e+03 2.255575561523437500e+01 1.798073387145996094e+01 5.919456481933593750e-02 1.198124289512634277e-01 5.370209738612174988e-02 8.557610958814620972e-02
4.197000000000000000e+03 3.643085098266601562e+01 1.281136894226074219e+01 -9.901146888732910156e-01 -1.004796862602233887e+00 -5.984734892845153809e-01 -9.643623232841491699e-01
4.198000000000000000e+03 5.433576202392578125e+01 2.929082107543945312e+01 -4.288945198059082031e-01 4.457008242607116699e-01 5.041894968599081039e-03 -2.246606647968292236e-01
4.199000000000000000e+03 2.120419502258300781e+01 1.641483879089355469e+01 6.310015916824340820e-02 1.310897320508956909e-01 5.825696885585784912e-02 9.106954187154769897e-02
4.200000000000000000e+03 2.179817390441894531e+01 1.697709465026855469e+01 6.245482712984085083e-02 1.263017505407333374e-01 5.662697553634643555e-02 8.978004008531570435e-02
4.201000000000000000e+03 2.697328758239746094e+01 -2.827375829219818115e-01 -3.020060062408447266e-01 -3.386630117893218994e-01 -1.922007054090499878e-01 -1.867120116949081421e-01
4.202000000000000000e+03 4.960657882690429688e+01 2.673977661132812500e+01 -8.012064099311828613e-01 -4.874861836433410645e-01 -3.866077661514282227e-01 -6.568636894226074219e-01
4.203000000000000000e+03 5.119058609008789062e+01 2.848994445800781250e+01 -8.024215698242187500e-01 -3.754217028617858887e-01 -3.533529937267303467e-01 -6.031483411788940430e-01
4.204000000000000000e+03 5.345679092407226562e+01 2.887622833251953125e+01 -5.262710452079772949e-01 2.622863352298736572e-01 -7.919541746377944946e-02 -2.883616685867309570e-01
4.205000000000000000e+03 3.978361511230468750e+01 1.648896217346191406e+01 -9.170971512794494629e-01 -8.563902378082275391e-01 -5.320461988449096680e-01 -9.206078052520751953e-01
4.206000000000000000e+03 4.299084472656250000e+01 2.005144500732421875e+01 -8.453930616378784180e-01 -7.728947401046752930e-01 -4.854863584041595459e-01 -8.747425079345703125e-01
4.207000000000000000e+03 4.399156951904296875e+01 2.080568695068359375e+01 -8.444745540618896484e-01 -7.129626870155334473e-01 -4.672311842441558838e-01 -8.168526291847229004e-01
4.208000000000000000e+03 3.797715377807617188e+01 1.389229488372802734e+01 -9.265355467796325684e-01 -9.011827111244201660e-01 -5.483154654502868652e-01 -9.004850387573242188e-01
4.209000000000000000e+03 5.010184097290039062e+01 2.731279563903808594e+01 -8.013837337493896484e-01 -4.683559238910675049e-01 -3.809219002723693848e-01 -6.433231830596923828e-01
4.210000000000000000e+03 5.147116851806640625e+01 2.800697708129882812e+01 -7.029837369918823242e-01 -2.066352516412734985e-01 -2.728857100009918213e-01 -4.890199601650238037e-01
4.211000000000000000e+03 4.543584823608398438e+01 2.202504158020019531e+01 -8.393335938453674316e-01 -6.318994164466857910e-01 -4.413699209690093994e-01 -7.433635592460632324e-01
4.212000000000000000e+03 3.154202651977539062e+01 2.631529998779296875e+01 4.499961063265800476e-02 7.936047762632369995e-02 3.730802610516548157e-02 6.198981404304504395e-02
4.213000000000000000e+03 3.814801025390625000e+01 1.425382518768310547e+01 -9.258023500442504883e-01 -9.119576215744018555e-01 -5.513280034065246582e-01 -9.114568233489990234e-01
4.214000000000000000e+03 3.460106277465820312e+01 1.072433757781982422e+01 -1.036764740943908691e+00 -1.018442273139953613e+00 -6.165620684623718262e-01 -9.680091738700866699e-01
4.215000000000000000e+03 3.565806198120117188e+01 1.197403907775878906e+01 -1.010105848312377930e+00 -1.020229578018188477e+00 -6.091006398200988770e-01 -9.738593697547912598e-01
4.216000000000000000e+03 3.857793426513671875e+01 1.479959392547607422e+01 -9.235123991966247559e-01 -9.033188819885253906e-01 -5.480493903160095215e-01 -9.068626761436462402e-01
4.217000000000000000e+03 3.836605834960937500e+01 1.506553077697753906e+01 -9.536780714988708496e-01 -9.605439305305480957e-01 -5.742666125297546387e-01 -9.450135827064514160e-01
4.218000000000000000e+03 2.025368690490722656e+01 1.441894435882568359e+01 7.871843874454498291e-02 1.437314450740814209e-01 6.673496961593627930e-02 1.048334091901779175e-01
4.219000000000000000e+03 2.030383300781250000e+01 1.419025135040283203e+01 8.217374980449676514e-02 1.438644528388977051e-01 6.781145930290222168e-02 1.073674336075782776e-01
4.220000000000000000e+03 1.556690979003906250e+01 1.020526409149169922e+01 7.042327523231506348e-02 2.325965613126754761e-01 9.090594947338104248e-02 1.095381081104278564e-01
4.221000000000000000e+03 4.926407241821289062e+01 2.539895057678222656e+01 -7.167864441871643066e-01 -3.300607502460479736e-01 -3.140541613101959229e-01 -5.575634837150573730e-01
4.222000000000000000e+03 5.202447509765625000e+01 2.837986373901367188e+01 -6.669903397560119629e-01 -9.036051481962203979e-02 -2.272052615880966187e-01 -4.382264018058776855e-01
4.223000000000000000e+03 5.800537109375000000e+01 2.965726470947265625e+01 4.262223541736602783e-01 1.294257521629333496e+00 5.161439180374145508e-01 6.470601558685302734e-01
4.224000000000000000e+03 3.883625030517578125e+01 1.502007198333740234e+01 -9.174308776855468750e-01 -8.813125491142272949e-01 -5.396230220794677734e-01 -8.969742655754089355e-01
4.225000000000000000e+03 2.521669006347656250e+01 6.254914999008178711e-01 -1.185278534889221191e+00 -1.617818772792816162e-01 -4.041181206703186035e-01 -4.193970859050750732e-01
4.226000000000000000e+03 5.132159805297851562e+01 2.764536666870117188e+01 -6.688927412033081055e-01 -1.791368275880813599e-01 -2.544088661670684814e-01 -4.627179503440856934e-01
4.227000000000000000e+03 3.379793167114257812e+01 2.948648452758789062e+01 4.665241762995719910e-02 7.374501973390579224e-02 3.611923381686210632e-02 5.507833138108253479e-02
4.228000000000000000e+03 3.377072525024414062e+01 2.869464492797851562e+01 4.649105295538902283e-02 7.468905299901962280e-02 3.635403141379356384e-02 5.675601586699485779e-02
4.229000000000000000e+03 4.598330307006835938e+01 2.302071189880371094e+01 -8.920551538467407227e-01 -6.576559543609619141e-01 -4.649133384227752686e-01 -7.677981853485107422e-01
4.230000000000000000e+03 2.442662429809570312e+01 1.886513519287109375e+01 6.340086460113525391e-02 1.101115122437477112e-01 5.205371230840682983e-02 8.469294011592864990e-02
4.231000000000000000e+03 3.912150955200195312e+01 1.521917629241943359e+01 -9.051091074943542480e-01 -8.499464988708496094e-01 -5.265166759490966797e-01 -8.846518397331237793e-01
4.232000000000000000e+03 2.110274314880371094e+01 1.606647872924804688e+01 6.636897474527359009e-02 1.326092034578323364e-01 5.969345197081565857e-02 9.285755455493927002e-02
4.233000000000000000e+03 4.568565368652343750e+01 2.226788139343261719e+01 -8.417502045631408691e-01 -6.136223673820495605e-01 -4.366117715835571289e-01 -7.316996455192565918e-01
4.234000000000000000e+03 4.959823608398437500e+01 2.542331314086914062e+01 -6.729798316955566406e-01 -2.520919740200042725e-01 -2.775215506553649902e-01 -4.969838559627532959e-01
4.235000000000000000e+03 2.626125144958496094e+01 2.034152793884277344e+01 5.994682759046554565e-02 1.014879867434501648e-01 4.843044653534889221e-02 7.967708259820938110e-02
4.236000000000000000e+03 2.601991653442382812e+01 1.985568428039550781e+01 6.306187808513641357e-02 1.031079217791557312e-01 4.985093697905540466e-02 8.162429183721542358e-02
4.237000000000000000e+03 4.296580123901367188e+01 1.960979461669921875e+01 -8.142428994178771973e-01 -7.223141789436340332e-01 -4.609671235084533691e-01 -8.441923260688781738e-01
4.238000000000000000e+03 4.381775283813476562e+01 2.038389587402343750e+01 -8.167566657066345215e-01 -6.852877140045166016e-01 -4.506133198738098145e-01 -8.011592030525207520e-01
4.239000000000000000e+03 1.946092414855957031e+01 1.350280952453613281e+01 8.205419033765792847e-02 1.532498002052307129e-01 7.059119641780853271e-02 1.104316338896751404e-01
4.240000000000000000e+03 5.673863983154296875e+01 2.934818649291992188e+01 1.002332568168640137e-01 1.019669175148010254e+00 3.359707593917846680e-01 2.740085422992706299e-01
4.241000000000000000e+03 5.160789489746093750e+01 2.745856857299804688e+01 -6.208663582801818848e-01 -5.824078619480133057e-02 -2.037321329116821289e-01 -3.866096735000610352e-01
4.242000000000000000e+03 5.101561737060546875e+01 2.770088768005371094e+01 -7.253060936927795410e-01 -2.901207506656646729e-01 -3.046280443668365479e-01 -5.314915180206298828e-01
4.243000000000000000e+03 4.986267089843750000e+01 2.647624397277832031e+01 -7.432073354721069336e-01 -3.703151345252990723e-01 -3.340567350387573242e-01 -5.784292221069335938e-01
4.244000000000000000e+03 5.033691024780273438e+01 2.706744003295898438e+01 -7.351811528205871582e-01 -3.453882932662963867e-01 -3.241708278656005859e-01 -5.567309260368347168e-01
4.245000000000000000e+03 6.050287628173828125e+01 3.017751121520996094e+01 1.162164211273193359e+00 2.473366498947143555e+00 1.090659141540527344e+00 2.025279521942138672e+00
4.246000000000000000e+03 3.959631347656250000e+01 1.593390560150146484e+01 -9.069399833679199219e-01 -8.381171822547912598e-01 -5.235171318054199219e-01 -8.941736817359924316e-01
4.247000000000000000e+03 1.899559593200683594e+01 1.339817333221435547e+01 7.732088863849639893e-02 1.565576791763305664e-01 7.016357034444808960e-02 1.085771471261978149e-01
4.248000000000000000e+03 6.798670959472656250e+01 3.259758758544921875e+01 3.961277008056640625e+00 1.268858909606933594e+01 4.994959831237792969e+00 -1.537679791450500488e+00
4.249000000000000000e+03 2.651193618774414062e+01 3.334292173385620117e-01 -6.893677711486816406e-01 -3.362266123294830322e-01 -3.076783120632171631e-01 -2.710369825363159180e-01
4.250000000000000000e+03 2.595330238342285156e+01 1.749712228775024414e+00 -1.741321206092834473e+00 -3.981953263282775879e-01 -6.418549418449401855e-01 -6.210191845893859863e-01
4.251000000000000000e+03 4.308411026000976562e+01 1.932224845886230469e+01 -7.898284196853637695e-01 -6.734802722930908203e-01 -4.389926195144653320e-01 -8.126016259193420410e-01
4.252000000000000000e+03 4.085601806640625000e+01 1.695705413818359375e+01 -8.518778681755065918e-01 -7.313361167907714844e-01 -4.749642014503479004e-01 -8.654592633247375488e-01
4.253000000000000000e+03 2.064283943176269531e+01 1.547387695312500000e+01 6.934656202793121338e-02 1.368563026189804077e-01 6.186085939407348633e-02 9.619375318288803101e-02
4.254000000000000000e+03 2.323297691345214844e+01 1.797692489624023438e+01 6.413891911506652832e-02 1.169900149106979370e-01 5.433867871761322021e-02 8.776307106018066406e-02
4.255000000000000000e+03 2.828643798828125000e+01 2.269923973083496094e+01 5.108408629894256592e-02 9.102087467908859253e-02 4.263148829340934753e-02 7.188553363084793091e-02
4.256000000000000000e+03 3.943709945678710938e+01 1.538819313049316406e+01 -8.922213315963745117e-01 -8.112077713012695312e-01 -5.110287070274353027e-01 -8.670005202293395996e-01
4.257000000000000000e+03 3.978553009033203125e+01 1.552729892730712891e+01 -8.697549700736999512e-01 -7.669371366500854492e-01 -4.910076260566711426e-01 -8.445209860801696777e-01
4.258000000000000000e+03 4.758360671997070312e+01 2.342910194396972656e+01 -7.600613832473754883e-01 -3.811919987201690674e-01 -3.423760235309600830e-01 -5.900976061820983887e-01
4.259000000000000000e+03 4.064270782470703125e+01 1.642408561706542969e+01 -8.444383144378662109e-01 -7.150133252143859863e-01 -4.678354859352111816e-01 -8.396948575973510742e-01
4.260000000000000000e+03 2.890354919433593750e+01 2.394985198974609375e+01 4.486443102359771729e-02 8.826281130313873291e-02 3.993817046284675598e-02 6.826078891754150391e-02
4.261000000000000000e+03 1.931099700927734375e+01 1.375262546539306641e+01 7.637259364128112793e-02 1.522942930459976196e-01 6.860006600618362427e-02 1.062981784343719482e-01
4.262000000000000000e+03 1.897533416748046875e+01 1.371455287933349609e+01 7.309348136186599731e-02 1.549407839775085449e-01 6.841027736663818359e-02 1.050693467259407043e-01
4.263000000000000000e+03 2.048801422119140625e+01 1.396631526947021484e+01 8.680388331413269043e-02 1.444811224937438965e-01 6.938549876213073730e-02 1.098076328635215759e-01
4.264000000000000000e+03 3.602792358398437500e+01 1.281176471710205078e+01 -1.026587128639221191e+00 -1.065890431404113770e+00 -6.277432441711425781e-01 -1.009765148162841797e+00
4.265000000000000000e+03 3.413566589355468750e+01 9.467747688293457031e+00 -1.003689050674438477e+00 -9.585515260696411133e-01 -5.886721611022949219e-01 -9.089131951332092285e-01
4.266000000000000000e+03 3.295432281494140625e+01 2.862596702575683594e+01 4.434771835803985596e-02 7.571653276681900024e-02 3.601927310228347778e-02 5.607140436768531799e-02
4.267000000000000000e+03 6.725892639160156250e+01 3.138483047485351562e+01 1.533623576164245605e+00 1.392665576934814453e+01 4.638083934783935547e+00 -1.477836251258850098e+00
4.268000000000000000e+03 6.780945587158203125e+01 3.151333045959472656e+01 2.060469865798950195e+00 1.310920524597167969e+01 4.550902843475341797e+00 -1.803757190704345703e+00
4.269000000000000000e+03 4.592570114135742188e+01 2.251033592224121094e+01 -8.417534232139587402e-01 -6.005153059959411621e-01 -4.326806068420410156e-01 -7.230332493782043457e-01
4.270000000000000000e+03 4.616027069091796875e+01 2.274604797363281250e+01 -8.445671796798706055e-01 -5.845071673393249512e-01 -4.287222921848297119e-01 -7.158349156379699707e-01
4.271000000000000000e+03 2.067712211608886719e+01 1.610081481933593750e+01 6.258168816566467285e-02 1.344768106937408447e-01 5.911755189299583435e-02 9.113272279500961304e-02
4.272000000000000000e+03 1.679703903198242188e+01 1.145312500000000000e+01 7.323993742465972900e-02 1.957709938287734985e-01 8.070328086614608765e-02 1.119016855955123901e-01
4.273000000000000000e+03 1.595486259460449219e+01 1.064929008483886719e+01 7.049400359392166138e-02 2.174180746078491211e-01 8.637362718582153320e-02 1.101640462875366211e-01
4.274000000000000000e+03 3.529472351074218750e+01 1.192051124572753906e+01 -1.034719824790954590e+00 -1.059443116188049316e+00 -6.282488703727722168e-01 -1.000345945358276367e+00
4.275000000000000000e+03 2.132816505432128906e+01 1.731620788574218750e+01 5.589233711361885071e-02 1.259256452322006226e-01 5.454539507627487183e-02 8.467390388250350952e-02
4.276000000000000000e+03 2.107085800170898438e+01 1.697268867492675781e+01 5.768851563334465027e-02 1.286036819219589233e-01 5.588765814900398254e-02 8.665244281291961670e-02
4.277000000000000000e+03 7.641786575317382812e+00 1.065719223022460938e+01 6.348079442977905273e-02 -1.878675259649753571e-02 1.340821199119091034e-02 -1.427245605736970901e-02
4.278000000000000000e+03 8.797935485839843750e+00 1.054852771759033203e+01 6.607308238744735718e-02 2.611996233463287354e-02 2.765791304409503937e-02 -2.142964676022529602e-02
4.279000000000000000e+03 1.387032604217529297e+01 8.784306526184082031e+00 6.241747736930847168e-02 2.918532192707061768e-01 1.062812060117721558e-01 7.102614641189575195e-02
4.280000000000000000e+03 5.961698532104492188e+01 3.012040519714355469e+01 8.901898264884948730e-01 1.784479975700378418e+00 8.024009466171264648e-01 1.373808264732360840e+00
4.281000000000000000e+03 5.997352218627929688e+01 2.999266242980957031e+01 1.000144720077514648e+00 2.138152837753295898e+00 9.414892792701721191e-01 1.677619576454162598e+00
4.282000000000000000e+03 1.325609779357910156e+01 7.178277015686035156e+00 6.720978766679763794e-02 3.876558840274810791e-01 1.364597082138061523e-01 4.282822459936141968e-02
4.283000000000000000e+03 3.423564529418945312e+01 8.801811218261718750e+00 -9.623132348060607910e-01 -8.797784447669982910e-01 -5.526275038719177246e-01 -8.460652232170104980e-01
4.284000000000000000e+03 1.761287879943847656e+01 1.184892082214355469e+01 7.958915829658508301e-02 1.821771860122680664e-01 7.852990180253982544e-02 1.171314418315887451e-01
4.285000000000000000e+03 5.475850296020507812e+01 2.949837684631347656e+01 -3.842052221298217773e-01 5.192661881446838379e-01 4.051828756928443909e-02 -1.996259242296218872e-01
4.286000000000000000e+03 5.418548202514648438e+01 2.974707412719726562e+01 -5.263038277626037598e-01 3.381490111351013184e-01 -5.644644796848297119e-02 -3.289978802204132080e-01
4.287000000000000000e+03 2.533927345275878906e+01 1.659256458282470703e+00 -1.849083781242370605e+00 -3.395745456218719482e-01 -6.565974950790405273e-01 -7.012524604797363281e-01
4.288000000000000000e+03 3.356173324584960938e+01 4.972547054290771484e+00 -9.059197902679443359e-01 -5.583864450454711914e-01 -4.392918646335601807e-01 -5.007750988006591797e-01
4.289000000000000000e+03 3.390029144287109375e+01 6.475700855255126953e+00 -9.295369386672973633e-01 -6.869520545005798340e-01 -4.849466979503631592e-01 -6.746678948402404785e-01
4.290000000000000000e+03 1.518748378753662109e+01 1.019480037689208984e+01 6.572552770376205444e-02 2.341550290584564209e-01 8.996416628360748291e-02 1.009573861956596375e-01
4.291000000000000000e+03 3.145030975341796875e+01 4.407389163970947266e+00 -1.251180529594421387e+00 -6.642928123474121094e-01 -5.746420025825500488e-01 -5.594033598899841309e-01
4.292000000000000000e+03 3.265258789062500000e+01 4.661923885345458984e+00 -1.026764988899230957e+00 -5.955565571784973145e-01 -4.866964519023895264e-01 -5.169622898101806641e-01
4.293000000000000000e+03 3.289866638183593750e+01 4.992997169494628906e+00 -1.008969902992248535e+00 -6.028811335563659668e-01 -4.835553169250488281e-01 -5.610921978950500488e-01
4.294000000000000000e+03 1.591983509063720703e+01 1.111954879760742188e+01 6.578257679939270020e-02 2.076557278633117676e-01 8.203148841857910156e-02 1.024066805839538574e-01
4.295000000000000000e+03 1.546573925018310547e+01 1.068338775634765625e+01 6.334812939167022705e-02 2.192209959030151367e-01 8.477073907852172852e-02 9.896278381347656250e-02
4.296000000000000000e+03 2.771042633056640625e+01 2.400700950622558594e+01 4.151211306452751160e-02 9.100069105625152588e-02 3.975383937358856201e-02 6.629011780023574829e-02
4.297000000000000000e+03 2.868244171142578125e+01 2.351878738403320312e+01 4.780929163098335266e-02 8.889406174421310425e-02 4.101100564002990723e-02 6.935759633779525757e-02
4.298000000000000000e+03 5.842831420898437500e+01 2.972013092041015625e+01 5.414983034133911133e-01 1.423962593078613281e+00 5.896382927894592285e-01 8.218343257904052734e-01
4.299000000000000000e+03 5.838329315185546875e+01 3.015752601623535156e+01 4.820512831211090088e-01 1.192442417144775391e+00 5.023481249809265137e-01 6.579703688621520996e-01
4.300000000000000000e+03 3.069990921020507812e+01 3.885197401046752930e+00 -1.331707477569580078e+00 -6.958777904510498047e-01 -6.082755923271179199e-01 -5.005674958229064941e-01
4.301000000000000000e+03 2.965346717834472656e+01 3.886479854583740234e+00 -1.549309492111206055e+00 -8.383975028991699219e-01 -7.163121104240417480e-01 -6.173408031463623047e-01
4.302000000000000000e+03 1.322962951660156250e+01 7.617150306701660156e+00 7.026547938585281372e-02 3.485674560070037842e-01 1.256498843431472778e-01 3.810957074165344238e-02
4.303000000000000000e+03 1.368181991577148438e+01 7.557759761810302734e+00 6.694395095109939575e-02 3.634491562843322754e-01 1.291179358959197998e-01 7.621304690837860107e-02
4.304000000000000000e+03 3.005937767028808594e+01 3.965488910675048828e+00 -1.452956795692443848e+00 -7.761527895927429199e-01 -6.687328815460205078e-01 -5.634133219718933105e-01
4.305000000000000000e+03 5.921527862548828125e+01 2.979675674438476562e+01 7.760165929794311523e-01 1.757328629493713379e+00 7.600035667419433594e-01 1.226860046386718750e+00
4.306000000000000000e+03 2.660051727294921875e+01 -2.248945236206054688e-01 -2.688217461109161377e-01 -2.856515049934387207e-01 -1.663419753313064575e-01 -1.775162667036056519e-01
4.307000000000000000e+03 3.082891845703125000e+01 2.699383163452148438e+01 4.173596948385238647e-02 8.016299456357955933e-02 3.656968846917152405e-02 5.874422565102577209e-02
4.308000000000000000e+03 2.948717498779296875e+01 2.493323326110839844e+01 4.407365620136260986e-02 8.545989543199539185e-02 3.886006399989128113e-02 6.569022685289382935e-02
4.309000000000000000e+03 3.090820121765136719e+01 4.225380897521972656e+00 -1.340686321258544922e+00 -7.052827477455139160e-01 -6.137906908988952637e-01 -5.631476044654846191e-01
4.310000000000000000e+03 3.376900482177734375e+01 9.065581321716308594e+00 -1.009438633918762207e+00 -9.656296372413635254e-01 -5.925204753875732422e-01 -9.144166111946105957e-01
4.311000000000000000e+03 3.453143692016601562e+01 9.214987754821777344e+00 -9.588631391525268555e-01 -8.914279341697692871e-01 -5.550873279571533203e-01 -8.529487848281860352e-01
4.312000000000000000e+03 3.216973495483398438e+01 2.717152976989746094e+01 4.506095498800277710e-02 7.781306654214859009e-02 3.686220571398735046e-02 5.980588868260383606e-02
4.313000000000000000e+03 2.842825508117675781e+01 4.572414979338645935e-02 -3.572145104408264160e-01 -4.555499851703643799e-01 -2.438293546438217163e-01 -4.822591319680213928e-02
4.314000000000000000e+03 2.823155593872070312e+01 1.016362786293029785e+00 -8.162322640419006348e-01 -5.122802257537841797e-01 -3.985537290573120117e-01 -1.699989587068557739e-01
4.315000000000000000e+03 1.209174346923828125e+01 6.525477409362792969e+00 1.206696704030036926e-01 3.382336497306823730e-01 1.376709938049316406e-01 -8.329341560602188110e-02
4.316000000000000000e+03 3.040846824645996094e+01 4.109802722930908203e+00 -1.428368210792541504e+00 -7.600568532943725586e-01 -6.565275192260742188e-01 -5.716615319252014160e-01
4.317000000000000000e+03 2.899989509582519531e+01 2.443955230712890625e+01 4.440904036164283752e-02 8.717786520719528198e-02 3.947607055306434631e-02 6.680712848901748657e-02
4.318000000000000000e+03 3.300788497924804688e+01 3.092717933654785156e+01 4.185842350125312805e-02 7.342322170734405518e-02 3.458449244499206543e-02 4.894397780299186707e-02
4.319000000000000000e+03 3.352340698242187500e+01 6.217289924621582031e+00 -9.718306064605712891e-01 -6.754290461540222168e-01 -4.941778779029846191e-01 -6.810171008110046387e-01
4.320000000000000000e+03 3.359829711914062500e+01 6.787470817565917969e+00 -9.650077819824218750e-01 -7.396579384803771973e-01 -5.113996863365173340e-01 -7.376216650009155273e-01
4.321000000000000000e+03 3.396780395507812500e+01 8.371241569519042969e+00 -9.632800221443176270e-01 -8.747851252555847168e-01 -5.514195561408996582e-01 -8.404470682144165039e-01
4.322000000000000000e+03 3.068008613586425781e+01 -9.064591526985168457e-01 2.859529107809066772e-02 -4.961163699626922607e-01 -1.402563303709030151e-01 3.776670992374420166e-02
4.323000000000000000e+03 6.864117431640625000e+01 3.609135818481445312e+01 2.314525365829467773e+00 1.242142677307128906e+01 4.420785903930664062e+00 1.592609405517578125e+00
4.324000000000000000e+03 6.843594360351562500e+01 3.460925674438476562e+01 4.520168781280517578e+00 1.198097610473632812e+01 4.950343608856201172e+00 7.155557870864868164e-01
4.325000000000000000e+03 1.830331802368164062e+01 1.240900421142578125e+01 8.120698481798171997e-02 1.705700755119323730e-01 7.553312182426452637e-02 1.157944947481155396e-01
4.326000000000000000e+03 5.382927322387695312e+01 2.788263130187988281e+01 -3.580776751041412354e-01 5.357770919799804688e-01 5.330983176827430725e-02 -7.102540880441665649e-02
4.327000000000000000e+03 5.777679824829101562e+01 2.869875907897949219e+01 3.894312679767608643e-01 1.614461898803710938e+00 6.011679768562316895e-01 8.063504099845886230e-01
4.328000000000000000e+03 3.097309494018554688e+01 -1.434937000274658203e+00 1.651272922754287720e-01 -4.958103895187377930e-01 -9.920492768287658691e-02 3.803365305066108704e-02
4.329000000000000000e+03 1.248875236511230469e+01 6.778836727142333984e+00 9.412243962287902832e-02 3.778312206268310547e-01 1.415860950946807861e-01 -3.779032453894615173e-02
4.330000000000000000e+03 2.930862808227539062e+01 -8.870591521263122559e-01 2.885007672011852264e-02 -4.939328432083129883e-01 -1.395248323678970337e-01 -1.491853501647710800e-02
4.331000000000000000e+03 3.478677368164062500e+01 1.098649024963378906e+01 -1.030586123466491699e+00 -1.025509834289550781e+00 -6.168287396430969238e-01 -9.739656448364257812e-01
4.332000000000000000e+03 3.539622879028320312e+01 1.073666954040527344e+01 -9.661765694618225098e-01 -9.350650310516357422e-01 -5.703724622726440430e-01 -8.950078487396240234e-01
4.333000000000000000e+03 3.482795333862304688e+01 3.206408691406250000e+01 4.454319924116134644e-02 6.894932687282562256e-02 3.404775634407997131e-02 4.671104252338409424e-02
4.334000000000000000e+03 3.239633560180664062e+01 2.911505889892578125e+01 4.237118363380432129e-02 7.598719745874404907e-02 3.550751507282257080e-02 5.358189716935157776e-02
4.335000000000000000e+03 4.027248001098632812e+01 3.666341781616210938e+01 7.886315882205963135e-02 4.826781526207923889e-02 3.813929110765457153e-02 3.426396846771240234e-02
4.336000000000000000e+03 3.413401412963867188e+01 3.030139923095703125e+01 4.723531752824783325e-02 7.239802926778793335e-02 3.589000552892684937e-02 5.205533653497695923e-02
4.337000000000000000e+03 3.505500030517578125e+01 9.998667716979980469e+00 -9.543508291244506836e-01 -9.039409160614013672e-01 -5.574875473976135254e-01 -8.661054968833923340e-01
4.338000000000000000e+03 9.161461830139160156e+00 7.579451560974121094e+00 1.422663331031799316e-01 6.043644621968269348e-03 4.449299350380897522e-02 -3.004140034317970276e-02
4.339000000000000000e+03 9.244799613952636719e+00 1.105748367309570312e+01 5.500366166234016418e-02 4.866600036621093750e-02 3.110089711844921112e-02 -2.284874208271503448e-02
4.340000000000000000e+03 3.579660415649414062e+01 3.287006378173828125e+01 4.728008061647415161e-02 6.584481894969940186e-02 3.393746912479400635e-02 4.585006088018417358e-02
4.341000000000000000e+03 1.371191596984863281e+01 9.801074028015136719e+00 4.878038167953491211e-02 2.450193464756011963e-01 8.813991397619247437e-02 5.725320428609848022e-02
4.342000000000000000e+03 1.014011764526367188e+01 6.597361087799072266e+00 1.855856180191040039e-01 5.479525402188301086e-02 7.211425900459289551e-02 -6.595867127180099487e-02
4.343000000000000000e+03 9.876250267028808594e+00 1.057037353515625000e+01 6.057053059339523315e-02 7.637484371662139893e-02 4.108361154794692993e-02 -2.284622564911842346e-02
4.344000000000000000e+03 5.534122848510742188e+01 2.926681900024414062e+01 -2.260939627885818481e-01 6.935766935348510742e-01 1.402448266744613647e-01 -4.683270677924156189e-02
4.345000000000000000e+03 7.072786712646484375e+01 3.553124237060546875e+01 2.014497995376586914e+00 1.017697048187255859e+01 3.657440423965454102e+00 6.119780540466308594e-01
4.346000000000000000e+03 3.183944320678710938e+01 -1.576288461685180664e+00 1.795354187488555908e-01 -4.821859300136566162e-01 -9.079515188932418823e-02 4.947616159915924072e-02
4.347000000000000000e+03 8.714260101318359375e+00 1.155076217651367188e+01 4.875553399324417114e-02 2.653163857758045197e-02 2.258615195751190186e-02 -1.955502294003963470e-02
4.348000000000000000e+03 9.423290252685546875e+00 7.111078739166259766e+00 1.597179770469665527e-01 1.114993914961814880e-02 5.126037448644638062e-02 -3.786183893680572510e-02
4.349000000000000000e+03 1.057423114776611328e+01 7.433300971984863281e+00 1.362330615520477295e-01 1.201970875263214111e-01 7.692904025316238403e-02 -6.366888433694839478e-02
4.350000000000000000e+03 3.218852996826171875e+01 -2.090682983398437500e+00 2.643242776393890381e-01 -4.654785990715026855e-01 -6.034630164504051208e-02 5.376746878027915955e-02
4.351000000000000000e+03 3.121041679382324219e+01 -5.874910354614257812e-01 -4.748142510652542114e-02 -5.092702507972717285e-01 -1.670254915952682495e-01 3.946575522422790527e-02
4.352000000000000000e+03 6.889352416992187500e+01 3.269221115112304688e+01 3.476627349853515625e+00 1.145302677154541016e+01 4.478896141052246094e+00 -1.313809037208557129e+00
4.353000000000000000e+03 7.097909545898437500e+01 2.294609832763671875e+01 -8.672952651977539062e-01 8.828212738037109375e+00 2.388275384902954102e+00 -8.127179145812988281e-01
4.354000000000000000e+03 6.996852111816406250e+01 2.083938026428222656e+01 -9.133424162864685059e-01 8.422463417053222656e+00 2.252736330032348633e+00 -4.057958424091339111e-01
4.355000000000000000e+03 1.238568210601806641e+01 -7.716374874114990234e+00 -2.052360177040100098e-01 -4.647220671176910400e-01 -2.009874284267425537e-01 -6.705123186111450195e-01
4.356000000000000000e+03 9.710273742675781250e+00 -8.614339828491210938e+00 -1.477582603693008423e-01 -3.843885362148284912e-01 -1.596440374851226807e-01 -5.536299943923950195e-01
4.357000000000000000e+03 6.829090881347656250e+01 4.302088260650634766e+00 -1.435938924551010132e-01 6.658543586730957031e+00 1.954484820365905762e+00 3.311250507831573486e-01
4.358000000000000000e+03 6.850500488281250000e+01 1.396071314811706543e+00 -7.272588461637496948e-02 6.635370254516601562e+00 1.968793272972106934e+00 3.384664356708526611e-01
4.359000000000000000e+03 8.554006576538085938e+00 2.148571395874023438e+01 -6.564047187566757202e-03 -1.006094366312026978e-02 -4.987497348338365555e-03 -1.531425211578607559e-02
4.360000000000000000e+03 7.003397369384765625e+01 3.748987579345703125e+01 7.823664546012878418e-01 1.130353736877441406e+01 3.625771284103393555e+00 1.283260226249694824e+00
4.361000000000000000e+03 8.341076850891113281e+00 7.448019027709960938e+00 1.414031088352203369e-01 -4.841733351349830627e-02 2.789572998881340027e-02 -2.983760787174105644e-03
4.362000000000000000e+03 8.504864692687988281e+00 8.952141761779785156e+00 9.868731349706649780e-02 2.301150001585483551e-03 3.029653988778591156e-02 -2.206765487790107727e-02
4.363000000000000000e+03 6.844414520263671875e+01 -1.132964706420898438e+01 1.274295803159475327e-02 6.387959480285644531e+00 1.920210719108581543e+00 3.238322734832763672e-01
4.364000000000000000e+03 6.943302154541015625e+01 -1.169350624084472656e+01 1.117405947297811508e-02 6.588724136352539062e+00 1.979969382286071777e+00 3.107575476169586182e-01
4.365000000000000000e+03 9.763464927673339844e+00 1.815618324279785156e+01 -1.297516282647848129e-03 2.991399727761745453e-02 8.584944531321525574e-03 -1.144569646567106247e-02
4.366000000000000000e+03 9.676285743713378906e+00 1.940830993652343750e+01 -4.835515748709440231e-03 1.945813931524753571e-02 4.386786837130784988e-03 -1.230783946812152863e-02
4.367000000000000000e+03 3.392898178100585938e+01 -2.132309675216674805e+00 2.437758445739746094e-01 -3.822793960571289062e-01 -4.155106842517852783e-02 6.597672402858734131e-02
4.368000000000000000e+03 9.493771553039550781e+00 1.413094139099121094e+01 2.005316503345966339e-02 4.813665896654129028e-02 2.045694738626480103e-02 -1.442628446966409683e-02
4.369000000000000000e+03 9.325095176696777344e+00 1.335826969146728516e+01 2.411526255309581757e-02 4.595721513032913208e-02 2.102174237370491028e-02 -1.557111740112304688e-02
4.370000000000000000e+03 7.080396270751953125e+01 3.086342430114746094e+01 1.283033013343811035e+00 9.937973022460937500e+00 3.366301774978637695e+00 -1.675016283988952637e+00
4.371000000000000000e+03 7.085018920898437500e+01 3.226356506347656250e+01 2.111165523529052734e+00 9.781436920166015625e+00 3.567780733108520508e+00 -1.301593303680419922e+00
4.372000000000000000e+03 7.034983825683593750e+01 2.918192291259765625e+01 2.871400713920593262e-01 1.024099254608154297e+01 3.158439636230468750e+00 -1.670503616333007812e+00
4.373000000000000000e+03 7.093325042724609375e+01 2.408222579956054688e+01 -8.491822481155395508e-01 9.061108589172363281e+00 2.463577985763549805e+00 -9.650597572326660156e-01
4.374000000000000000e+03 6.875383758544921875e+01 -1.640734100341796875e+01 6.723702419549226761e-03 6.387806415557861328e+00 1.918359041213989258e+00 3.133589327335357666e-01
4.375000000000000000e+03 6.808121490478515625e+01 -1.729822158813476562e+01 7.910951972007751465e-03 6.230261802673339844e+00 1.871451854705810547e+00 3.207533955574035645e-01
4.376000000000000000e+03 3.453299713134765625e+01 -2.468530893325805664e+00 2.997528314590454102e-01 -3.300656676292419434e-01 -9.093850851058959961e-03 6.254492700099945068e-02
4.377000000000000000e+03 6.875499725341796875e+01 -2.585661888122558594e+00 -2.011258713901042938e-02 6.592499732971191406e+00 1.971716165542602539e+00 3.415314555168151855e-01
4.378000000000000000e+03 6.930461120605468750e+01 -3.505613088607788086e+00 -1.619461737573146820e-02 6.698760986328125000e+00 2.004769802093505859e+00 3.261519968509674072e-01
4.379000000000000000e+03 3.819735336303710938e+01 3.444143676757812500e+01 5.960432812571525574e-02 5.842868611216545105e-02 3.540990501642227173e-02 4.701909795403480530e-02
4.380000000000000000e+03 3.670724868774414062e+01 3.478002166748046875e+01 5.299397557973861694e-02 6.146771833300590515e-02 3.433850780129432678e-02 4.162294045090675354e-02
4.381000000000000000e+03 3.999629592895507812e+01 -6.178966999053955078e+00 3.776244223117828369e-01 3.492357134819030762e-01 2.180580347776412964e-01 5.240371450781822205e-02
4.382000000000000000e+03 9.674693107604980469e+00 -1.240981197357177734e+01 3.403424844145774841e-02 -5.073089003562927246e-01 -1.419823914766311646e-01 -5.090070962905883789e-01
4.383000000000000000e+03 3.684374237060546875e+01 -5.862416267395019531e+00 4.579171836376190186e-01 -7.774005830287933350e-02 1.140531376004219055e-01 4.567972384393215179e-03
4.384000000000000000e+03 7.066833496093750000e+01 1.664727973937988281e+01 -6.137294769287109375e-01 7.905941486358642578e+00 2.187663555145263672e+00 -1.911906450986862183e-01
4.385000000000000000e+03 4.424826431274414062e+01 -1.173566341400146484e+01 2.369463592767715454e-01 1.191713929176330566e+00 4.285980761051177979e-01 1.537963654845952988e-02
4.386000000000000000e+03 6.988400268554687500e+01 -4.431211948394775391e+00 -6.563457660377025604e-03 6.821006774902343750e+00 2.044332981109619141e+00 3.162338137626647949e-01
4.387000000000000000e+03 6.954113006591796875e+01 2.471126365661621094e+01 -1.004445433616638184e+00 9.385725021362304688e+00 2.514383792877197266e+00 -7.083754539489746094e-01
4.388000000000000000e+03 6.882154846191406250e+01 -8.606383323669433594e+00 1.027329917997121811e-02 6.523046970367431641e+00 1.959996104240417480e+00 3.375632166862487793e-01
4.389000000000000000e+03 6.710600280761718750e+01 3.111053085327148438e+01 1.057443976402282715e+00 1.391062068939208984e+01 4.490419387817382812e+00 -1.212343215942382812e+00
4.390000000000000000e+03 7.076503753662109375e+01 1.288921546936035156e+01 -3.998124301433563232e-01 7.611403942108154297e+00 2.163477420806884766e+00 1.853969320654869080e-02
4.391000000000000000e+03 7.135363769531250000e+01 1.056315517425537109e+01 -2.710092663764953613e-01 7.636428356170654297e+00 2.209625720977783203e+00 7.869071513414382935e-02
4.392000000000000000e+03 6.898964691162109375e+01 -1.275969409942626953e+01 2.047024609055370092e-04 6.477062702178955078e+00 1.943180203437805176e+00 3.118103146553039551e-01
4.393000000000000000e+03 6.898783111572265625e+01 1.998654365539550781e+01 -9.348548650741577148e-01 8.153661727905273438e+00 2.165642023086547852e+00 -1.552927941083908081e-01
4.394000000000000000e+03 6.953266143798828125e+01 5.957554817199707031e+00 -1.696643382310867310e-01 7.002882003784179688e+00 2.049965381622314453e+00 2.683196663856506348e-01
4.395000000000000000e+03 4.185173416137695312e+01 -8.652030944824218750e+00 3.491999506950378418e-01 6.880975365638732910e-01 3.111892342567443848e-01 3.277165070176124573e-02
4.396000000000000000e+03 4.105039978027343750e+01 -7.581438541412353516e+00 3.739700913429260254e-01 5.376453995704650879e-01 2.734846472740173340e-01 4.342753440141677856e-02
4.397000000000000000e+03 6.663101196289062500e+01 -2.548636054992675781e+01 3.813472390174865723e-02 5.880057334899902344e+00 1.775457620620727539e+00 3.227989375591278076e-01
4.398000000000000000e+03 1.150124263763427734e+01 -1.607989501953125000e+01 1.521305590867996216e-01 -5.306479930877685547e-01 -1.135552302002906799e-01 -4.464997649192810059e-01
4.399000000000000000e+03 1.631862831115722656e+01 -1.907033538818359375e+01 2.357296049594879150e-01 -2.670759558677673340e-01 -9.403903968632221222e-03 -3.447281420230865479e-01
4.400000000000000000e+03 6.889462280273437500e+01 3.327646636962890625e+01 3.962869167327880859e+00 1.133411788940429688e+01 4.589096069335937500e+00 -8.615331053733825684e-01
4.401000000000000000e+03 1.182710933685302734e+01 2.441876983642578125e+01 -8.436683565378189087e-03 2.902924269437789917e-02 6.177767645567655563e-03 -2.694615162909030914e-03
4.402000000000000000e+03 1.110864543914794922e+01 2.537400054931640625e+01 -9.714625775814056396e-03 1.460201479494571686e-02 1.466216635890305042e-03 -5.806006491184234619e-03
4.403000000000000000e+03 6.982182312011718750e+01 -9.560372352600097656e+00 7.496489211916923523e-03 6.723937511444091797e+00 2.019430160522460938e+00 3.124828636646270752e-01
4.404000000000000000e+03 6.982867431640625000e+01 -8.488276481628417969e+00 2.124379388988018036e-03 6.736866950988769531e+00 2.021697521209716797e+00 3.114334940910339355e-01
4.405000000000000000e+03 4.056464767456054688e+01 -6.587294101715087891e+00 3.798105418682098389e-01 4.355276226997375488e-01 2.446014583110809326e-01 4.857767000794410706e-02
4.406000000000000000e+03 1.273689174652099609e+01 -5.989177227020263672e+00 -4.313020408153533936e-01 -3.922606408596038818e-01 -2.470688074827194214e-01 -6.956630945205688477e-01
4.407000000000000000e+03 1.347764682769775391e+01 -7.000263214111328125e+00 -2.759304940700531006e-01 -5.345215797424316406e-01 -2.431356310844421387e-01 -7.314673662185668945e-01
4.408000000000000000e+03 1.148575782775878906e+01 1.551294231414794922e+01 9.345002472400665283e-03 8.402307331562042236e-02 2.801042236387729645e-02 2.002410357818007469e-03
4.409000000000000000e+03 1.086816024780273438e+01 1.720420265197753906e+01 2.106480766087770462e-03 5.745066702365875244e-02 1.786714419722557068e-02 -3.862328128889203072e-03
4.410000000000000000e+03 1.060509872436523438e+01 -1.855889892578125000e+01 1.406363844871520996e-01 -5.814661979675292969e-01 -1.322489529848098755e-01 -4.024356901645660400e-01
4.411000000000000000e+03 9.003608703613281250e+00 -1.508421325683593750e+01 8.592136949300765991e-02 -5.779800415039062500e-01 -1.476175934076309204e-01 -4.532325267791748047e-01
4.412000000000000000e+03 9.483222961425781250e+00 -1.887628364562988281e+01 1.192635521292686462e-01 -6.124106645584106445e-01 -1.479441374540328979e-01 -3.762994408607482910e-01
4.413000000000000000e+03 6.962171936035156250e+01 1.897486686706542969e+01 -8.319976925849914551e-01 8.059168815612792969e+00 2.168151140213012695e+00 -2.063920050859451294e-01
4.414000000000000000e+03 1.584359836578369141e+01 -2.261488723754882812e+01 2.093467414379119873e-01 -2.738110721111297607e-01 -1.933929696679115295e-02 -3.318265974521636963e-01
4.415000000000000000e+03 1.197656345367431641e+01 2.626663208007812500e+01 -9.267284534871578217e-03 2.337762527167797089e-02 4.233102314174175262e-03 -2.930773887783288956e-03
4.416000000000000000e+03 1.046285915374755859e+01 1.509139156341552734e+01 1.067885942757129669e-02 6.409866362810134888e-02 2.243325673043727875e-02 -5.523579195141792297e-03
4.417000000000000000e+03 7.109246826171875000e+01 1.440408229827880859e+01 -4.525326490402221680e-01 7.796495914459228516e+00 2.203188896179199219e+00 -8.958633989095687866e-02
4.418000000000000000e+03 1.042367458343505859e+01 -2.148312187194824219e+01 1.300265789031982422e-01 -5.958069562911987305e-01 -1.397341191768646240e-01 -3.380804955959320068e-01
4.419000000000000000e+03 1.290916633605957031e+01 -2.306675338745117188e+01 1.663914471864700317e-01 -4.700122177600860596e-01 -9.108623117208480835e-02 -3.283416032791137695e-01
4.420000000000000000e+03 4.413183212280273438e+01 -1.545946407318115234e+01 1.222253665328025818e-01 1.234299540519714355e+00 4.069574773311614990e-01 -1.725019142031669617e-02
4.421000000000000000e+03 6.405850219726562500e+01 -2.598511695861816406e+01 6.471025943756103516e-02 5.365765571594238281e+00 1.629142761230468750e+00 3.381245136260986328e-01
4.422000000000000000e+03 5.127877807617187500e+01 -2.132005119323730469e+01 -5.141157284379005432e-02 2.937069416046142578e+00 8.656973838806152344e-01 1.617720425128936768e-01
4.423000000000000000e+03 4.914660263061523438e+01 -2.632009315490722656e+01 -9.238792210817337036e-02 2.686431884765625000e+00 7.782132029533386230e-01 1.404671818017959595e-01
4.424000000000000000e+03 5.149911499023437500e+01 -2.574579048156738281e+01 -4.987134784460067749e-02 3.137461900711059570e+00 9.262771606445312500e-01 2.251895070075988770e-01
4.425000000000000000e+03 1.387887001037597656e+01 2.993437576293945312e+01 -7.973178289830684662e-03 2.820149436593055725e-02 6.068495102226734161e-03 2.352704294025897980e-03
4.426000000000000000e+03 6.749539947509765625e+01 -8.668282032012939453e-01 -4.358934611082077026e-02 6.335545063018798828e+00 1.887586712837219238e+00 3.674151301383972168e-01
4.427000000000000000e+03 6.839569091796875000e+01 2.899039268493652344e+00 -1.050295531749725342e-01 6.645785331726074219e+00 1.962226748466491699e+00 3.371519744396209717e-01
4.428000000000000000e+03 6.765158843994140625e+01 2.156420707702636719e+00 -9.201452136039733887e-02 6.441411495208740234e+00 1.904819130897521973e+00 3.596574366092681885e-01
4.429000000000000000e+03 1.061722755432128906e+01 2.253266525268554688e+01 -7.441563066095113754e-03 2.136987634003162384e-02 4.178493749350309372e-03 -7.796862628310918808e-03
4.430000000000000000e+03 7.199762725830078125e+01 4.133127593994140625e+01 -8.763929009437561035e-01 1.013023853302001953e+01 2.776153802871704102e+00 3.219240605831146240e-01
4.431000000000000000e+03 1.036695575714111328e+01 -1.617333221435546875e+01 1.293933242559432983e-01 -5.665536522865295410e-01 -1.311480849981307983e-01 -4.453636407852172852e-01
4.432000000000000000e+03 1.156759738922119141e+01 -1.498170757293701172e+01 1.346936225891113281e-01 -5.348564982414245605e-01 -1.200488656759262085e-01 -4.808440208435058594e-01
4.433000000000000000e+03 6.959709930419921875e+01 -1.436870956420898438e+01 1.520280353724956512e-02 6.613487243652343750e+00 1.988607048988342285e+00 3.033066093921661377e-01
4.434000000000000000e+03 6.349462127685546875e+01 3.052993202209472656e+01 6.914876699447631836e-01 8.718314170837402344e+00 2.822940587997436523e+00 4.242966175079345703e+00
4.435000000000000000e+03 6.143811798095703125e+01 3.027655792236328125e+01 1.361330509185791016e+00 3.585589408874511719e+00 1.484076023101806641e+00 2.853920221328735352e+00
4.436000000000000000e+03 6.125977325439453125e+01 2.978800201416015625e+01 1.152618050575256348e+00 3.720177173614501953e+00 1.461838603019714355e+00 2.714359521865844727e+00
4.437000000000000000e+03 6.487842559814453125e+01 3.065020561218261719e+01 -3.769644498825073242e-01 1.321688270568847656e+01 3.851975440979003906e+00 2.785251140594482422e+00
4.438000000000000000e+03 6.408530426025390625e+01 3.095680999755859375e+01 3.742556273937225342e-01 1.109659671783447266e+01 3.441255569458007812e+00 4.275073528289794922e+00
4.439000000000000000e+03 6.619319152832031250e+01 3.052469444274902344e+01 -2.424815148115158081e-01 1.398284339904785156e+01 4.122108459472656250e+00 2.876723408699035645e-01
4.440000000000000000e+03 2.849582862854003906e+01 3.681042432785034180e+00 -1.755371689796447754e+00 -9.052318334579467773e-01 -7.981810569763183594e-01 -7.583888769149780273e-01
4.441000000000000000e+03 2.834276580810546875e+01 2.370837211608886719e+00 -1.377500653266906738e+00 -6.657364964485168457e-01 -6.129711270332336426e-01 -4.419055879116058350e-01
4.442000000000000000e+03 4.146279144287109375e+01 1.764327049255371094e+01 -8.293756842613220215e-01 -7.118330597877502441e-01 -4.623626172542572021e-01 -8.652222156524658203e-01
4.443000000000000000e+03 4.107392501831054688e+01 1.751369094848632812e+01 -8.573451638221740723e-01 -7.520899772644042969e-01 -4.828305542469024658e-01 -8.928717970848083496e-01
4.444000000000000000e+03 1.752124214172363281e+01 1.228150367736816406e+01 7.253250479698181152e-02 1.786324381828308105e-01 7.534947991371154785e-02 1.098464280366897583e-01
4.445000000000000000e+03 1.848157310485839844e+01 1.291387462615966797e+01 7.721801102161407471e-02 1.646237373352050781e-01 7.255252450704574585e-02 1.107188537716865540e-01
4.446000000000000000e+03 6.427593231201171875e+01 3.047585487365722656e+01 -1.629036851227283478e-02 1.117689418792724609e+01 3.348181247711181641e+00 3.703243017196655273e+00
4.447000000000000000e+03 6.206950378417968750e+01 3.101848602294921875e+01 1.795008778572082520e+00 4.045500755310058594e+00 1.752152919769287109e+00 3.514357089996337891e+00
4.448000000000000000e+03 6.660382843017578125e+01 3.099725532531738281e+01 5.193244218826293945e-01 1.430093574523925781e+01 4.446078300476074219e+00 -5.955862402915954590e-01
4.449000000000000000e+03 4.482403564453125000e+01 2.080123710632324219e+01 -7.762665748596191406e-01 -5.733367800712585449e-01 -4.048810005187988281e-01 -7.115606069564819336e-01
4.450000000000000000e+03 4.273204421997070312e+01 1.922825813293457031e+01 -8.094146251678466797e-01 -7.139903306961059570e-01 -4.570214748382568359e-01 -8.486821651458740234e-01
4.451000000000000000e+03 4.858044433593750000e+01 2.494867897033691406e+01 -7.656192779541015625e-01 -4.036381840705871582e-01 -3.507772386074066162e-01 -6.121824979782104492e-01
4.452000000000000000e+03 2.536522293090820312e+01 2.040361213684082031e+01 5.510657653212547302e-02 1.041797325015068054e-01 4.778589308261871338e-02 7.757045328617095947e-02
4.453000000000000000e+03 4.693991088867187500e+01 2.330111503601074219e+01 -8.151327371597290039e-01 -5.041983723640441895e-01 -3.957993388175964355e-01 -6.668381094932556152e-01
4.454000000000000000e+03 4.794482421875000000e+01 2.341270256042480469e+01 -7.157161831855773926e-01 -2.956492006778717041e-01 -3.034096062183380127e-01 -5.323317646980285645e-01
4.455000000000000000e+03 4.893796539306640625e+01 2.498524475097656250e+01 -7.241680026054382324e-01 -3.362658321857452393e-01 -3.181301355361938477e-01 -5.597183704376220703e-01
4.456000000000000000e+03 5.299578094482421875e+01 2.867444419860839844e+01 -5.688260793685913086e-01 1.592932343482971191e-01 -1.228598430752754211e-01 -3.262022733688354492e-01
4.457000000000000000e+03 5.406877899169921875e+01 2.861118125915527344e+01 -3.929100036621093750e-01 4.818083345890045166e-01 2.666950225830078125e-02 -1.490371227264404297e-01
4.458000000000000000e+03 6.284040069580078125e+01 3.065829658508300781e+01 1.275740981101989746e+00 6.489667892456054688e+00 2.329622507095336914e+00 4.162297725677490234e+00
4.459000000000000000e+03 2.672601127624511719e+01 9.738429784774780273e-01 -1.042015433311462402e+00 -4.177247285842895508e-01 -4.379220306873321533e-01 -3.190742135047912598e-01
4.460000000000000000e+03 5.362514877319335938e+01 2.838082695007324219e+01 -4.376700818538665771e-01 3.881464004516601562e-01 -1.485710591077804565e-02 -1.831002682447433472e-01
4.461000000000000000e+03 3.597452926635742188e+01 1.210458946228027344e+01 -9.874145388603210449e-01 -9.947454929351806641e-01 -5.946480035781860352e-01 -9.476474523544311523e-01
4.462000000000000000e+03 3.702637481689453125e+01 1.282439231872558594e+01 -9.429964423179626465e-01 -9.320265650749206543e-01 -5.625069141387939453e-01 -9.112831950187683105e-01
4.463000000000000000e+03 4.515322494506835938e+01 2.130878067016601562e+01 -7.985857725143432617e-01 -5.889858603477478027e-01 -4.162715077400207520e-01 -7.110853791236877441e-01
4.464000000000000000e+03 4.450778579711914062e+01 2.097819900512695312e+01 -8.175957202911376953e-01 -6.542913317680358887e-01 -4.415661096572875977e-01 -7.677661180496215820e-01
4.465000000000000000e+03 2.611368942260742188e+01 1.460769653320312500e+00 -1.529136061668395996e+00 -4.094444513320922852e-01 -5.815741419792175293e-01 -5.112991929054260254e-01
4.466000000000000000e+03 3.744822692871093750e+01 1.300519752502441406e+01 -9.172889590263366699e-01 -8.876736164093017578e-01 -5.414887666702270508e-01 -8.811675906181335449e-01
4.467000000000000000e+03 3.786961364746093750e+01 1.347096443176269531e+01 -9.099476337432861328e-01 -8.743157982826232910e-01 -5.352790355682373047e-01 -8.760172128677368164e-01
4.468000000000000000e+03 4.539957046508789062e+01 2.151295852661132812e+01 -7.944678068161010742e-01 -5.711916089057922363e-01 -4.096978306770324707e-01 -6.995607614517211914e-01
4.469000000000000000e+03 4.518070602416992188e+01 2.178413581848144531e+01 -8.368127346038818359e-01 -6.470676660537719727e-01 -4.451641440391540527e-01 -7.506666779518127441e-01
4.470000000000000000e+03 4.028822326660156250e+01 1.627164649963378906e+01 -8.673707842826843262e-01 -7.543216347694396973e-01 -4.865077435970306396e-01 -8.589690327644348145e-01
4.471000000000000000e+03 4.161262512207031250e+01 1.721111106872558594e+01 -8.004447817802429199e-01 -6.468271017074584961e-01 -4.341815710067749023e-01 -8.155142664909362793e-01
4.472000000000000000e+03 2.237562370300292969e+01 1.757414817810058594e+01 6.105978041887283325e-02 1.217096596956253052e-01 5.483083426952362061e-02 8.790226280689239502e-02
4.473000000000000000e+03 1.484728908538818359e+01 1.027412986755371094e+01 5.697218701243400574e-02 2.331728786230087280e-01 8.704352378845214844e-02 8.933451771736145020e-02
4.474000000000000000e+03 4.324146652221679688e+01 1.979494857788085938e+01 -8.081466555595397949e-01 -7.020983099937438965e-01 -4.530735015869140625e-01 -8.265563249588012695e-01
4.475000000000000000e+03 4.421685028076171875e+01 2.023279953002929688e+01 -7.765138745307922363e-01 -6.064364910125732422e-01 -4.148851037025451660e-01 -7.440337538719177246e-01
4.476000000000000000e+03 2.207920646667480469e+01 1.812364959716796875e+01 5.387905985116958618e-02 1.205464527010917664e-01 5.232765525579452515e-02 8.237752318382263184e-02
4.477000000000000000e+03 2.038257980346679688e+01 1.555395603179931641e+01 6.673035025596618652e-02 1.374712139368057251e-01 6.126046925783157349e-02 9.395184367895126343e-02
4.478000000000000000e+03 1.827991676330566406e+01 1.368125629425048828e+01 6.522774696350097656e-02 1.595442593097686768e-01 6.743159890174865723e-02 9.971050918102264404e-02
4.479000000000000000e+03 4.282274627685546875e+01 1.887203979492187500e+01 -7.813919186592102051e-01 -6.610245704650878906e-01 -4.327249526977539062e-01 -8.127827048301696777e-01
4.480000000000000000e+03 4.565916824340820312e+01 2.174257659912109375e+01 -7.885794043540954590e-01 -5.460354685783386230e-01 -4.003844559192657471e-01 -6.847938299179077148e-01
4.481000000000000000e+03 2.159657478332519531e+01 1.815404129028320312e+01 5.082749947905540466e-02 1.217885240912437439e-01 5.178480595350265503e-02 8.045320212841033936e-02
4.482000000000000000e+03 5.390364074707031250e+01 2.908146286010742188e+01 -4.766707420349121094e-01 3.596860766410827637e-01 -3.509540110826492310e-02 -2.555431127548217773e-01
4.483000000000000000e+03 5.468776321411132812e+01 2.839922332763671875e+01 -2.558193504810333252e-01 6.986530423164367676e-01 1.328501105308532715e-01 3.672499675303697586e-03
4.484000000000000000e+03 4.639871215820312500e+01 2.296369743347167969e+01 -8.414763212203979492e-01 -5.650942325592041016e-01 -4.219711720943450928e-01 -7.042722702026367188e-01
4.485000000000000000e+03 4.727530670166015625e+01 2.307571411132812500e+01 -7.598645091056823730e-01 -4.001859724521636963e-01 -3.480151593685150146e-01 -5.978689193725585938e-01
4.486000000000000000e+03 3.836120605468750000e+01 1.376955413818359375e+01 -8.835347890853881836e-01 -8.240751028060913086e-01 -5.122829675674438477e-01 -8.476358056068420410e-01
4.487000000000000000e+03 3.577734375000000000e+01 1.166934204101562500e+01 -9.910655021667480469e-01 -9.801143407821655273e-01 -5.913539528846740723e-01 -9.362432956695556641e-01
4.488000000000000000e+03 3.664990997314453125e+01 1.254640865325927734e+01 -9.616607427597045898e-01 -9.560235738754272461e-01 -5.753052830696105957e-01 -9.239883422851562500e-01
4.489000000000000000e+03 4.937553787231445312e+01 2.465374755859375000e+01 -6.530430912971496582e-01 -1.646416485309600830e-01 -2.453054189682006836e-01 -4.433717429637908936e-01
4.490000000000000000e+03 3.855780029296875000e+01 1.434278106689453125e+01 -9.032683968544006348e-01 -8.607620000839233398e-01 -5.292091369628906250e-01 -8.762816786766052246e-01
4.491000000000000000e+03 3.834479904174804688e+01 1.455071830749511719e+01 -9.287921190261840820e-01 -9.105259776115417480e-01 -5.517954230308532715e-01 -9.102969765663146973e-01
4.492000000000000000e+03 3.994098663330078125e+01 1.610214233398437500e+01 -8.900452852249145508e-01 -7.986886501312255859e-01 -5.066201686859130859e-01 -8.787298202514648438e-01
4.493000000000000000e+03 2.537384414672851562e+01 1.913290977478027344e+01 6.660803407430648804e-02 1.062654778361320496e-01 5.186205357313156128e-02 8.418238162994384766e-02
4.494000000000000000e+03 1.836210632324218750e+01 1.329477596282958984e+01 7.071924209594726562e-02 1.615790873765945435e-01 6.968949735164642334e-02 1.050978451967239380e-01
4.495000000000000000e+03 3.901456832885742188e+01 1.472475814819335938e+01 -8.891701698303222656e-01 -8.241837024688720703e-01 -5.140061378479003906e-01 -8.597323298454284668e-01
4.496000000000000000e+03 5.251217269897460938e+01 2.846815490722656250e+01 -6.093819141387939453e-01 4.681557416915893555e-02 -1.687698960304260254e-01 -3.698085546493530273e-01
4.497000000000000000e+03 4.529316711425781250e+01 2.103937339782714844e+01 -7.628808617591857910e-01 -5.234298110008239746e-01 -3.858931958675384521e-01 -6.720588803291320801e-01
4.498000000000000000e+03 4.434011459350585938e+01 2.063756179809570312e+01 -8.005021810531616211e-01 -6.392626762390136719e-01 -4.319294393062591553e-01 -7.588121891021728516e-01
4.499000000000000000e+03 2.610981178283691406e+01 2.067383766174316406e+01 5.648568645119667053e-02 1.015047132968902588e-01 4.739711806178092957e-02 7.768600434064865112e-02
4.500000000000000000e+03 2.574973869323730469e+01 2.055010604858398438e+01 5.646156147122383118e-02 1.023880243301391602e-01 4.765487462282180786e-02 7.787403464317321777e-02
4.501000000000000000e+03 4.591283035278320312e+01 2.198649978637695312e+01 -7.903241515159606934e-01 -5.324015021324157715e-01 -3.968176841735839844e-01 -6.748762130737304688e-01
4.502000000000000000e+03 3.927415466308593750e+01 1.490398597717285156e+01 -8.802807927131652832e-01 -7.942867875099182129e-01 -5.023702979087829590e-01 -8.484737277030944824e-01
4.503000000000000000e+03 4.962368011474609375e+01 2.511672782897949219e+01 -6.496130824089050293e-01 -1.740224510431289673e-01 -2.470906674861907959e-01 -4.536538124084472656e-01
4.504000000000000000e+03 5.110045623779296875e+01 2.739676666259765625e+01 -6.800473928451538086e-01 -2.047210633754730225e-01 -2.654305398464202881e-01 -4.663220643997192383e-01
4.505000000000000000e+03 2.019127464294433594e+01 1.582784271240234375e+01 6.157003343105316162e-02 1.372036188840866089e-01 5.963209643959999084e-02 9.057622402906417847e-02
4.506000000000000000e+03 6.733951568603515625e+01 3.084526443481445312e+01 8.522996902465820312e-01 1.342537593841552734e+01 4.283302783966064453e+00 -1.225336074829101562e+00
4.507000000000000000e+03 6.687749481201171875e+01 3.122322463989257812e+01 1.062958240509033203e+00 1.435910701751708984e+01 4.626619338989257812e+00 -1.092610597610473633e+00
4.508000000000000000e+03 2.973270606994628906e+01 3.485470771789550781e+00 -1.412326335906982422e+00 -7.614684104919433594e-01 -6.521384119987487793e-01 -5.006591081619262695e-01
4.509000000000000000e+03 5.224381637573242188e+01 2.756652259826660156e+01 -5.531373620033264160e-01 1.106653213500976562e-01 -1.327416151762008667e-01 -2.984428107738494873e-01
4.510000000000000000e+03 1.443789291381835938e+01 8.934292793273925781e+00 6.795556843280792236e-02 2.841511368751525879e-01 1.056320145726203918e-01 9.415940940380096436e-02
4.511000000000000000e+03 2.577538490295410156e+01 1.286771535873413086e+00 -1.493600487709045410e+00 -3.058986365795135498e-01 -5.398497581481933594e-01 -5.175070762634277344e-01
4.512000000000000000e+03 3.138259506225585938e+01 2.733210563659667969e+01 4.316943883895874023e-02 7.908307760953903198e-02 3.667575493454933167e-02 5.935201048851013184e-02
4.513000000000000000e+03 3.248268890380859375e+01 2.749226379394531250e+01 4.529045894742012024e-02 7.701338827610015869e-02 3.669115528464317322e-02 5.887982249259948730e-02
4.514000000000000000e+03 3.507004928588867188e+01 1.085207748413085938e+01 -1.005892515182495117e+00 -9.800643324851989746e-01 -5.957870483398437500e-01 -9.364475607872009277e-01
4.515000000000000000e+03 4.320343017578125000e+01 1.898389053344726562e+01 -7.615523338317871094e-01 -6.168061494827270508e-01 -4.135075509548187256e-01 -7.765791416168212891e-01
4.516000000000000000e+03 3.956562423706054688e+01 1.503380012512207031e+01 -8.628626465797424316e-01 -7.586769461631774902e-01 -4.864618778228759766e-01 -8.291037082672119141e-01
4.517000000000000000e+03 4.985375213623046875e+01 2.591997909545898438e+01 -6.910459995269775391e-01 -2.608981430530548096e-01 -2.855832278728485107e-01 -5.081810951232910156e-01
4.518000000000000000e+03 5.036861419677734375e+01 2.651978874206542969e+01 -6.800916790962219238e-01 -2.361861467361450195e-01 -2.748833596706390381e-01 -4.820776581764221191e-01
4.519000000000000000e+03 2.640580558776855469e+01 2.089280128479003906e+01 5.597813054919242859e-02 9.979000687599182129e-02 4.673044010996818542e-02 7.733058929443359375e-02
4.520000000000000000e+03 4.122898483276367188e+01 1.708997535705566406e+01 -8.260139822959899902e-01 -6.904446482658386230e-01 -4.549376070499420166e-01 -8.413065671920776367e-01
4.521000000000000000e+03 4.614329910278320312e+01 2.224070358276367188e+01 -7.955488562583923340e-01 -5.175209641456604004e-01 -3.939209580421447754e-01 -6.680874228477478027e-01
4.522000000000000000e+03 4.830995559692382812e+01 2.392730712890625000e+01 -7.180768847465515137e-01 -2.983254790306091309e-01 -3.049207031726837158e-01 -5.388336777687072754e-01
4.523000000000000000e+03 2.677663421630859375e+01 2.307077407836914062e+01 4.198132455348968506e-02 9.526447951793670654e-02 4.117374122142791748e-02 6.849829852581024170e-02
4.524000000000000000e+03 4.502802658081054688e+01 2.053523635864257812e+01 -7.376829981803894043e-01 -5.025621652603149414e-01 -3.720735609531402588e-01 -6.605674624443054199e-01
4.525000000000000000e+03 2.489736175537109375e+01 1.905319404602050781e+01 6.422437727451324463e-02 1.081454530358314514e-01 5.171094834804534912e-02 8.397962152957916260e-02
4.526000000000000000e+03 2.198188018798828125e+01 1.766470527648925781e+01 5.793689563870429993e-02 1.232800185680389404e-01 5.436507612466812134e-02 8.579438179731369019e-02
4.527000000000000000e+03 2.082878303527832031e+01 1.665621185302734375e+01 5.926670879125595093e-02 1.309509128332138062e-01 5.706528574228286743e-02 8.751504123210906982e-02
4.528000000000000000e+03 3.629898071289062500e+01 1.230450153350830078e+01 -9.733642935752868652e-01 -9.718788862228393555e-01 -5.835729241371154785e-01 -9.364349246025085449e-01
4.529000000000000000e+03 2.470275306701660156e+01 1.955964660644531250e+01 5.904342606663703918e-02 1.075176969170570374e-01 4.996833950281143188e-02 8.082686364650726318e-02
4.530000000000000000e+03 4.342844390869140625e+01 1.948023605346679688e+01 -7.744985222816467285e-01 -6.426839828491210938e-01 -4.251547455787658691e-01 -7.839268445968627930e-01
4.531000000000000000e+03 1.868273544311523438e+01 1.335528659820556641e+01 7.397034019231796265e-02 1.593576073646545410e-01 6.999838352203369141e-02 1.067529767751693726e-01
4.532000000000000000e+03 4.100371170043945312e+01 1.655638885498046875e+01 -8.210158944129943848e-01 -6.739192008972167969e-01 -4.484805166721343994e-01 -8.179967999458312988e-01
4.533000000000000000e+03 2.551986312866210938e+01 2.003449249267578125e+01 5.939006432890892029e-02 1.040428876876831055e-01 4.902988672256469727e-02 7.986462116241455078e-02
4.534000000000000000e+03 2.514751243591308594e+01 1.979535484313964844e+01 5.929924175143241882e-02 1.060446798801422119e-01 4.960317537188529968e-02 8.021000027656555176e-02
4.535000000000000000e+03 3.989854431152343750e+01 1.510587310791015625e+01 -8.405592441558837891e-01 -7.121410369873046875e-01 -4.658100903034210205e-01 -8.015820980072021484e-01
4.536000000000000000e+03 2.842045783996582031e+01 2.411310195922851562e+01 4.391949996352195740e-02 8.912252634763717651e-02 3.991260752081871033e-02 6.712528318166732788e-02
4.537000000000000000e+03 2.042259597778320312e+01 1.577976608276367188e+01 6.450174003839492798e-02 1.363127976655960083e-01 6.024436280131340027e-02 9.286264330148696899e-02
4.538000000000000000e+03 4.755651092529296875e+01 2.305978393554687500e+01 -7.277452945709228516e-01 -3.353770971298217773e-01 -3.189367353916168213e-01 -5.544005632400512695e-01
4.539000000000000000e+03 4.676863479614257812e+01 2.290324592590332031e+01 -7.940248250961303711e-01 -4.844755530357360840e-01 -3.835501074790954590e-01 -6.474388837814331055e-01
4.540000000000000000e+03 3.610493087768554688e+01 1.179496955871582031e+01 -9.661882519721984863e-01 -9.492588639259338379e-01 -5.746341347694396973e-01 -9.156229496002197266e-01
4.541000000000000000e+03 2.987505722045898438e+01 -6.441110372543334961e-01 -5.764010921120643616e-02 -4.848819077014923096e-01 -1.627566069364547729e-01 1.895026303827762604e-02
4.542000000000000000e+03 2.866486167907714844e+01 2.851621389389038086e+00 -1.458034992218017578e+00 -7.283791303634643555e-01 -6.559242010116577148e-01 -5.029473900794982910e-01
4.543000000000000000e+03 4.635247039794921875e+01 2.249356269836425781e+01 -7.969055771827697754e-01 -5.067589282989501953e-01 -3.910993635654449463e-01 -6.605840325355529785e-01
4.544000000000000000e+03 2.084623336791992188e+01 1.753778266906738281e+01 4.995546862483024597e-02 1.259024143218994141e-01 5.275736749172210693e-02 8.054058253765106201e-02
4.545000000000000000e+03 2.035475158691406250e+01 1.600901603698730469e+01 6.115688011050224304e-02 1.353724598884582520e-01 5.895880609750747681e-02 9.038511663675308228e-02
4.546000000000000000e+03 3.444013977050781250e+01 9.839475631713867188e+00 -9.947770237922668457e-01 -9.592682123184204102e-01 -5.862135887145996094e-01 -9.102473855018615723e-01
4.547000000000000000e+03 3.423810195922851562e+01 7.741997241973876953e+00 -9.211238622665405273e-01 -7.798773646354675293e-01 -5.103003382682800293e-01 -7.581490278244018555e-01
4.548000000000000000e+03 3.395964813232421875e+01 4.718076705932617188e+00 -8.206858634948730469e-01 -5.152596235275268555e-01 -4.007836282253265381e-01 -4.320665597915649414e-01
4.549000000000000000e+03 3.427962875366210938e+01 6.134607315063476562e+00 -8.790426850318908691e-01 -6.088099479675292969e-01 -4.463557898998260498e-01 -5.931282639503479004e-01
4.550000000000000000e+03 1.375729942321777344e+01 8.384105682373046875e+00 6.124364212155342102e-02 3.096302747726440430e-01 1.112621724605560303e-01 7.113242149353027344e-02
4.551000000000000000e+03 1.416328620910644531e+01 8.264060974121093750e+00 7.274426519870758057e-02 3.171045780181884766e-01 1.169546544551849365e-01 9.288103878498077393e-02
4.552000000000000000e+03 2.805644607543945312e+01 2.439479255676269531e+01 4.051609709858894348e-02 9.025237709283828735e-02 3.923054412007331848e-02 6.582436710596084595e-02
4.553000000000000000e+03 1.071264648437500000e+01 6.786181449890136719e+00 1.685284674167633057e-01 1.241599768400192261e-01 8.780653029680252075e-02 -8.452384918928146362e-02
4.554000000000000000e+03 1.245692539215087891e+01 6.385004043579101562e+00 1.021371185779571533e-01 3.979142010211944580e-01 1.500153988599777222e-01 -4.979595541954040527e-02
4.555000000000000000e+03 1.717733192443847656e+01 1.184800052642822266e+01 7.327515631914138794e-02 1.870469301939010620e-01 7.809662818908691406e-02 1.115639656782150269e-01
4.556000000000000000e+03 1.792876434326171875e+01 1.232309818267822266e+01 7.729893922805786133e-02 1.734600365161895752e-01 7.522769272327423096e-02 1.137745231389999390e-01
4.557000000000000000e+03 2.362179565429687500e+01 1.824698829650878906e+01 6.369507312774658203e-02 1.144007146358489990e-01 5.342873558402061462e-02 8.703467994928359985e-02
4.558000000000000000e+03 2.790647697448730469e+01 -5.257539078593254089e-02 -3.916637301445007324e-01 -4.425295591354370117e-01 -2.502579987049102783e-01 -1.233437359333038330e-01
4.559000000000000000e+03 5.849333572387695312e+01 2.929533958435058594e+01 5.776337385177612305e-01 1.673053622245788574e+00 6.752061843872070312e-01 9.793222546577453613e-01
4.560000000000000000e+03 1.637200736999511719e+01 1.148430728912353516e+01 6.714379787445068359e-02 1.981581151485443115e-01 7.959057390689849854e-02 1.053472235798835754e-01
4.561000000000000000e+03 1.541393661499023438e+01 1.120015907287597656e+01 5.536473914980888367e-02 2.099498808383941650e-01 7.959438115358352661e-02 9.058135002851486206e-02
4.562000000000000000e+03 6.847597503662109375e+01 3.221875381469726562e+01 3.008410692214965820e+00 1.202536010742187500e+01 4.510131359100341797e+00 -1.638092756271362305e+00
4.563000000000000000e+03 7.016188812255859375e+01 3.301117324829101562e+01 2.855720281600952148e+00 1.025220298767089844e+01 3.932376861572265625e+00 -9.440906643867492676e-01
4.564000000000000000e+03 1.194673156738281250e+01 6.245026111602783203e+00 1.437261998653411865e-01 3.164578974246978760e-01 1.380552202463150024e-01 -9.905478358268737793e-02
4.565000000000000000e+03 5.954769897460937500e+01 2.980178642272949219e+01 8.699754476547241211e-01 1.958491325378417969e+00 8.485400080680847168e-01 1.432172179222106934e+00
4.566000000000000000e+03 3.204393768310546875e+01 4.550786972045898438e+00 -1.137480735778808594e+00 -6.283550858497619629e-01 -5.297507047653198242e-01 -5.432436466217041016e-01
4.567000000000000000e+03 3.495024108886718750e+01 7.926344394683837891e+00 -8.652517795562744141e-01 -7.171044349670410156e-01 -4.747068583965301514e-01 -7.042607069015502930e-01
4.568000000000000000e+03 3.055397224426269531e+01 2.647583389282226562e+01 4.122364893555641174e-02 8.120137453079223633e-02 3.672750666737556458e-02 6.084315106272697449e-02
4.569000000000000000e+03 3.104129791259765625e+01 2.641259956359863281e+01 4.501035436987876892e-02 8.009736984968185425e-02 3.753231465816497803e-02 6.187176704406738281e-02
4.570000000000000000e+03 2.849849700927734375e+01 2.450559234619140625e+01 4.107829928398132324e-02 8.852494508028030396e-02 3.888097405433654785e-02 6.561756134033203125e-02
4.571000000000000000e+03 3.004236602783203125e+01 2.593578338623046875e+01 4.140380024909973145e-02 8.263023942708969116e-02 3.721021115779876709e-02 6.221512705087661743e-02
4.572000000000000000e+03 9.607085227966308594e+00 1.165375041961669922e+01 4.523705318570137024e-02 6.185483932495117188e-02 3.212756663560867310e-02 -1.895235851407051086e-02
4.573000000000000000e+03 1.323684501647949219e+01 8.065770149230957031e+00 6.156639754772186279e-02 3.196444511413574219e-01 1.143632605671882629e-01 4.315398260951042175e-02
4.574000000000000000e+03 6.815522003173828125e+01 3.125769996643066406e+01 1.748771190643310547e+00 1.255863666534423828e+01 4.292222499847412109e+00 -1.731599926948547363e+00
4.575000000000000000e+03 3.284272003173828125e+01 2.967911529541015625e+01 4.241630434989929199e-02 7.503487169742584229e-02 3.523535281419754028e-02 5.299462005496025085e-02
4.576000000000000000e+03 1.468778610229492188e+01 1.089086532592773438e+01 4.930674284696578979e-02 2.169228196144104004e-01 7.986886799335479736e-02 7.862404733896255493e-02
4.577000000000000000e+03 6.087648010253906250e+01 2.997625923156738281e+01 1.195666551589965820e+00 3.079635620117187500e+00 1.282590627670288086e+00 2.392212629318237305e+00
4.578000000000000000e+03 6.030641937255859375e+01 2.978401374816894531e+01 1.047901511192321777e+00 2.566685676574707031e+00 1.084376215934753418e+00 1.960140824317932129e+00
4.579000000000000000e+03 6.645908355712890625e+01 3.073697853088378906e+01 1.329785436391830444e-01 1.416647815704345703e+01 4.289836883544921875e+00 -2.701320648193359375e-01
4.580000000000000000e+03 6.760173034667968750e+01 3.113192367553710938e+01 1.354686498641967773e+00 1.331765556335449219e+01 4.401702404022216797e+00 -1.557827234268188477e+00
4.581000000000000000e+03 2.671273231506347656e+01 6.481968164443969727e-01 -9.388462305068969727e-01 -3.641527593135833740e-01 -3.908996880054473877e-01 -2.541296184062957764e-01
4.582000000000000000e+03 3.180319404602050781e+01 2.681610107421875000e+01 4.550892487168312073e-02 7.844112068414688110e-02 3.718501329421997070e-02 6.002284586429595947e-02
4.583000000000000000e+03 3.059881019592285156e+01 2.819933128356933594e+01 3.930252790451049805e-02 7.936276495456695557e-02 3.559958934783935547e-02 5.502793565392494202e-02
4.584000000000000000e+03 5.591648483276367188e+01 2.903531074523925781e+01 -6.725845485925674438e-02 8.854401707649230957e-01 2.454545199871063232e-01 1.306905746459960938e-01
4.585000000000000000e+03 5.726848983764648438e+01 2.903340339660644531e+01 2.632299065589904785e-01 1.285480499267578125e+00 4.646131396293640137e-01 5.304499268531799316e-01
4.586000000000000000e+03 3.487889099121093750e+01 1.124743938446044922e+01 -1.041155099868774414e+00 -1.041039228439331055e+00 -6.246582865715026855e-01 -9.902126789093017578e-01
4.587000000000000000e+03 3.583963775634765625e+01 1.103312397003173828e+01 -9.444413185119628906e-01 -9.088241457939147949e-01 -5.559796690940856934e-01 -8.765563964843750000e-01
4.588000000000000000e+03 5.889096832275390625e+01 2.936178970336914062e+01 6.780091524124145508e-01 1.837590694427490234e+00 7.546799182891845703e-01 1.167909741401672363e+00
4.589000000000000000e+03 5.958603668212890625e+01 2.952550888061523438e+01 8.540033102035522461e-01 2.185868978500366211e+00 9.119617342948913574e-01 1.534781098365783691e+00
4.590000000000000000e+03 5.551016235351562500e+01 2.884525299072265625e+01 -1.353806406259536743e-01 8.270985484123229980e-01 2.075153738260269165e-01 8.173729479312896729e-02
4.591000000000000000e+03 2.951154136657714844e+01 2.544876480102539062e+01 4.113353788852691650e-02 8.453864604234695435e-02 3.770165517926216125e-02 6.355235725641250610e-02
4.592000000000000000e+03 2.000457954406738281e+01 1.472119426727294922e+01 7.216668128967285156e-02 1.432818621397018433e-01 6.463456153869628906e-02 1.002367958426475525e-01
4.593000000000000000e+03 3.007273483276367188e+01 2.650884246826171875e+01 4.111080616712570190e-02 8.251845836639404297e-02 3.708878159523010254e-02 6.093695387244224548e-02
4.594000000000000000e+03 3.386095809936523438e+01 7.019701957702636719e+00 -9.348862171173095703e-01 -7.496728897094726562e-01 -5.053677558898925781e-01 -7.300944328308105469e-01
4.595000000000000000e+03 3.471242523193359375e+01 8.570175170898437500e+00 -9.119458794593811035e-01 -8.072054386138916016e-01 -5.157454013824462891e-01 -7.825126647949218750e-01
4.596000000000000000e+03 3.205718231201171875e+01 2.853501129150390625e+01 4.118352383375167847e-02 7.708647847175598145e-02 3.548100218176841736e-02 5.561595782637596130e-02
4.597000000000000000e+03 2.898793029785156250e+01 2.496586418151855469e+01 4.104283824563026428e-02 8.642102777957916260e-02 3.823915868997573853e-02 6.447201967239379883e-02
4.598000000000000000e+03 3.107595443725585938e+01 3.709368228912353516e+00 -1.197848200798034668e+00 -6.511022448539733887e-01 -5.546851158142089844e-01 -4.340934753417968750e-01
4.599000000000000000e+03 2.893663024902343750e+01 2.010735422372817993e-01 -4.038910865783691406e-01 -5.231587290763854980e-01 -2.781149446964263916e-01 -7.280163466930389404e-02
4.600000000000000000e+03 3.333931350708007812e+01 2.911672592163085938e+01 4.530967772006988525e-02 7.462693005800247192e-02 3.598098456859588623e-02 5.444345623254776001e-02
4.601000000000000000e+03 1.138787937164306641e+01 6.425404548645019531e+00 1.638958454132080078e-01 2.207567840814590454e-01 1.153957918286323547e-01 -1.032067686319351196e-01
4.602000000000000000e+03 8.943337440490722656e+00 9.470815658569335938e+00 8.753916621208190918e-02 2.554437145590782166e-02 3.392506018280982971e-02 -2.552716620266437531e-02
4.603000000000000000e+03 3.184344673156738281e+01 4.178894042968750000e+00 -1.138876318931579590e+00 -6.134001016616821289e-01 -5.256829261779785156e-01 -4.905641078948974609e-01
4.604000000000000000e+03 3.126356887817382812e+01 4.043331146240234375e+00 -1.241837739944458008e+00 -6.523083448410034180e-01 -5.682438015937805176e-01 -4.982076287269592285e-01
4.605000000000000000e+03 3.385160827636718750e+01 5.279486656188964844e+00 -8.953492045402526855e-01 -5.703074336051940918e-01 -4.396969974040985107e-01 -5.237606167793273926e-01
4.606000000000000000e+03 4.241449356079101562e+01 1.743355369567871094e+01 -7.451429963111877441e-01 -5.537797212600708008e-01 -3.896768093109130859e-01 -7.497260570526123047e-01
4.607000000000000000e+03 3.097237396240234375e+01 2.988326072692871094e+01 3.707726672291755676e-02 7.704480737447738647e-02 3.423662111163139343e-02 4.935178533196449280e-02
4.608000000000000000e+03 5.767708587646484375e+01 2.913264083862304688e+01 3.639851212501525879e-01 1.394737958908081055e+00 5.276169180870056152e-01 6.600253582000732422e-01
4.609000000000000000e+03 1.475856685638427734e+01 9.891244888305664062e+00 6.249538064002990723e-02 2.452820092439651489e-01 9.233321249485015869e-02 9.091053903102874756e-02
4.610000000000000000e+03 1.273467826843261719e+01 7.659259319305419922e+00 6.829735636711120605e-02 3.255702555179595947e-01 1.181602850556373596e-01 8.873883634805679321e-03
4.611000000000000000e+03 2.725961112976074219e+01 2.236781120300292969e+01 4.851377755403518677e-02 9.475043416023254395e-02 4.297926276922225952e-02 7.197494804859161377e-02
4.612000000000000000e+03 2.965431404113769531e+01 -9.476729482412338257e-02 -2.433985918760299683e-01 -5.323466658592224121e-01 -2.327235788106918335e-01 -2.018586732447147369e-02
4.613000000000000000e+03 5.646917724609375000e+01 2.878517150878906250e+01 8.318823575973510742e-02 1.107169270515441895e+00 3.571072220802307129e-01 3.330774903297424316e-01
4.614000000000000000e+03 2.775493431091308594e+01 2.235541343688964844e+01 5.131698399782180786e-02 9.345916658639907837e-02 4.343284294009208679e-02 7.276810705661773682e-02
4.615000000000000000e+03 2.650496292114257812e+01 2.454426193237304688e+01 3.430379927158355713e-02 9.277141094207763672e-02 3.812256082892417908e-02 6.180657818913459778e-02
4.616000000000000000e+03 3.388087844848632812e+01 3.205368041992187500e+01 4.448693618178367615e-02 7.125168293714523315e-02 3.472158685326576233e-02 4.617571085691452026e-02
4.617000000000000000e+03 3.389926147460937500e+01 3.310782623291015625e+01 4.272996261715888977e-02 6.834985315799713135e-02 3.332394361495971680e-02 4.184541851282119751e-02
4.618000000000000000e+03 2.904731750488281250e+01 2.927223205566406250e+00 -1.428905129432678223e+00 -7.559794783592224121e-01 -6.554653644561767578e-01 -4.957568347454071045e-01
4.619000000000000000e+03 2.911744880676269531e+01 -3.199175894260406494e-01 -1.897434443235397339e-01 -4.687436819076538086e-01 -1.975461393594741821e-01 -1.068762876093387604e-02
4.620000000000000000e+03 2.980245208740234375e+01 3.077893733978271484e+00 -1.307027459144592285e+00 -7.270975708961486816e-01 -6.102375388145446777e-01 -4.304511547088623047e-01
4.621000000000000000e+03 9.965765953063964844e+00 7.305539131164550781e+00 1.510684341192245483e-01 5.928822234272956848e-02 6.310699880123138428e-02 -5.287039652466773987e-02
4.622000000000000000e+03 3.258502197265625000e+01 -2.598226785659790039e+00 3.508457839488983154e-01 -4.454751908779144287e-01 -2.838881500065326691e-02 3.345343843102455139e-02
4.623000000000000000e+03 3.151932907104492188e+01 -1.074661493301391602e+00 7.297995686531066895e-02 -4.902750253677368164e-01 -1.251885145902633667e-01 5.228067189455032349e-02
4.624000000000000000e+03 3.486138534545898438e+01 3.309278869628906250e+01 4.784490540623664856e-02 6.816277652978897095e-02 3.480230644345283508e-02 4.468387737870216370e-02
4.625000000000000000e+03 3.183617401123046875e+01 2.800319480895996094e+01 4.330962896347045898e-02 7.792875170707702637e-02 3.637151420116424561e-02 5.700665712356567383e-02
4.626000000000000000e+03 9.063241958618164062e+00 8.458364486694335938e+00 1.119487583637237549e-01 1.989861764013767242e-02 3.955421224236488342e-02 -2.707685157656669617e-02
4.627000000000000000e+03 3.583231735229492188e+01 -4.283200263977050781e+00 4.243873953819274902e-01 -2.058212310075759888e-01 6.556984782218933105e-02 3.140385821461677551e-02
4.628000000000000000e+03 3.458349227905273438e+01 -3.918925046920776367e+00 4.337933957576751709e-01 -3.166771829128265381e-01 3.513486310839653015e-02 2.678536437451839447e-02
4.629000000000000000e+03 1.046447753906250000e+01 -8.271302223205566406e+00 -1.941414922475814819e-01 -3.786985576152801514e-01 -1.718520075082778931e-01 -5.836724042892456055e-01
4.630000000000000000e+03 9.270838737487792969e+00 -9.653006553649902344e+00 -8.815566450357437134e-02 -4.177966713905334473e-01 -1.517857015132904053e-01 -5.311579108238220215e-01
4.631000000000000000e+03 6.918135070800781250e+01 2.769280242919921875e+01 -6.014083027839660645e-01 1.052471828460693359e+01 2.976993083953857422e+00 -1.077302217483520508e+00
4.632000000000000000e+03 7.038416290283203125e+01 2.798032188415527344e+01 -2.290693819522857666e-01 1.006737136840820312e+01 2.951490640640258789e+00 -1.500808715820312500e+00
4.633000000000000000e+03 1.436790466308593750e+01 -7.078501224517822266e+00 -2.558653652667999268e-01 -6.603248715400695801e-01 -2.748570740222930908e-01 -7.500266432762145996e-01
4.634000000000000000e+03 6.892314910888671875e+01 3.172696876525878906e+01 2.309480905532836914e+00 1.154090785980224609e+01 4.155116558074951172e+00 -1.699254870414733887e+00
4.635000000000000000e+03 7.072647857666015625e+01 2.970191764831542969e+01 6.275818347930908203e-01 1.002707767486572266e+01 3.196398019790649414e+00 -1.732999086380004883e+00
4.636000000000000000e+03 7.017383575439453125e+01 3.154779434204101562e+01 1.887952685356140137e+00 1.039354801177978516e+01 3.684450149536132812e+00 -1.609368324279785156e+00
4.637000000000000000e+03 3.770463180541992188e+01 3.544442749023437500e+01 5.862510204315185547e-02 5.662191286683082581e-02 3.457410261034965515e-02 3.833927214145660400e-02
4.638000000000000000e+03 6.961714172363281250e+01 3.608712387084960938e+01 2.061429023742675781e+00 1.133568000793457031e+01 4.019132614135742188e+00 1.332308530807495117e+00
4.639000000000000000e+03 3.352688980102539062e+01 -2.673929452896118164e+00 3.405050933361053467e-01 -4.037422835826873779e-01 -1.897115446627140045e-02 4.892888665199279785e-02
4.640000000000000000e+03 6.779686737060546875e+01 -3.192177534103393555e+00 -1.894383504986763000e-02 6.363499641418457031e+00 1.903366804122924805e+00 3.594329059123992920e-01
4.641000000000000000e+03 7.015313720703125000e+01 2.546180534362792969e+01 -8.627157807350158691e-01 9.507885932922363281e+00 2.593551158905029297e+00 -9.891204833984375000e-01
4.642000000000000000e+03 6.930830383300781250e+01 2.685691642761230469e+01 -7.912697196006774902e-01 1.019315242767333984e+01 2.820564746856689453e+00 -9.461682438850402832e-01
4.643000000000000000e+03 7.052385711669921875e+01 2.719542884826660156e+01 -4.702781438827514648e-01 9.813036918640136719e+00 2.802827835083007812e+00 -1.380733728408813477e+00
4.644000000000000000e+03 7.003282165527343750e+01 2.181295013427734375e+01 -9.482260346412658691e-01 8.626364707946777344e+00 2.303441524505615234e+00 -5.061947107315063477e-01
4.645000000000000000e+03 1.027918815612792969e+01 -1.111441421508789062e+01 -8.196453563868999481e-03 -4.837281405925750732e-01 -1.475773751735687256e-01 -5.465445518493652344e-01
4.646000000000000000e+03 9.208746910095214844e+00 1.263330459594726562e+01 3.460472077131271362e-02 4.276727512478828430e-02 2.321159839630126953e-02 -1.676285453140735626e-02
4.647000000000000000e+03 3.609752273559570312e+01 3.384289169311523438e+01 5.295100808143615723e-02 6.429159641265869141e-02 3.517277911305427551e-02 4.306613653898239136e-02
4.648000000000000000e+03 1.171557140350341797e+01 1.829782867431640625e+01 -1.097536412999033928e-03 6.361750513315200806e-02 1.875599101185798645e-02 2.157670445740222931e-03
4.649000000000000000e+03 8.486978530883789062e+00 1.213941574096679688e+01 4.164395108819007874e-02 2.177595160901546478e-02 1.902597025036811829e-02 -1.916915364563465118e-02
4.650000000000000000e+03 6.982309722900390625e+01 2.965550422668457031e+01 4.901239573955535889e-01 1.073135089874267578e+01 3.366442441940307617e+00 -1.669675230979919434e+00
4.651000000000000000e+03 6.878618621826171875e+01 2.804161453247070312e+01 -5.892575979232788086e-01 1.083187007904052734e+01 3.072783708572387695e+00 -9.931627511978149414e-01
4.652000000000000000e+03 6.833379364013671875e+01 -6.612344264984130859e+00 9.466462070122361183e-04 6.421211719512939453e+00 1.926647543907165527e+00 3.425779938697814941e-01
4.653000000000000000e+03 3.408190536499023438e+01 -3.195421457290649414e+00 3.689394891262054443e-01 -3.544670045375823975e-01 4.341741092503070831e-03 4.839195683598518372e-02
4.654000000000000000e+03 1.309516811370849609e+01 -2.500775337219238281e+01 1.660100370645523071e-01 -4.579008519649505615e-01 -8.756723999977111816e-02 -2.942632734775543213e-01
4.655000000000000000e+03 4.445145416259765625e+01 -1.280560684204101562e+01 2.178126573562622070e-01 1.251730084419250488e+00 4.408628344535827637e-01 1.699209958314895630e-02
4.656000000000000000e+03 9.899579048156738281e+00 1.699202346801757812e+01 3.515283809974789619e-03 3.941868245601654053e-02 1.288019027560949326e-02 -1.082100439816713333e-02
4.657000000000000000e+03 6.758394622802734375e+01 3.624203205108642578e+00 -1.270507425069808960e-01 6.456524372100830078e+00 1.898842096328735352e+00 3.569922745227813721e-01
4.658000000000000000e+03 3.629841995239257812e+01 -5.088358879089355469e+00 4.420275092124938965e-01 -1.470396667718887329e-01 8.849634975194931030e-02 2.324704825878143311e-02
4.659000000000000000e+03 9.472017288208007812e+00 8.938154220581054688e+00 9.891424328088760376e-02 5.037721991539001465e-02 4.478743672370910645e-02 -3.278390318155288696e-02
4.660000000000000000e+03 1.001746654510498047e+01 8.427463531494140625e+00 1.087280884385108948e-01 8.267414569854736328e-02 5.742067098617553711e-02 -4.182380437850952148e-02
4.661000000000000000e+03 7.021115112304687500e+01 1.579414081573486328e+01 -5.797260999679565430e-01 7.743113040924072266e+00 2.149016141891479492e+00 -9.711764007806777954e-02
4.662000000000000000e+03 7.017450714111328125e+01 1.784307670593261719e+01 -7.224061489105224609e-01 7.970634937286376953e+00 2.174468517303466797e+00 -2.119730412960052490e-01
4.663000000000000000e+03 1.241841220855712891e+01 -9.311501502990722656e+00 -6.470330059528350830e-02 -5.317788124084472656e-01 -1.789446324110031128e-01 -6.379678249359130859e-01
4.664000000000000000e+03 6.893208312988281250e+01 1.514480972290039062e+01 -5.990744829177856445e-01 7.434798717498779297e+00 2.050717353820800781e+00 6.736868619918823242e-02
4.665000000000000000e+03 1.011280822753906250e+01 -1.358361721038818359e+01 8.208830654621124268e-02 -5.451518893241882324e-01 -1.389190703630447388e-01 -5.036053657531738281e-01
4.666000000000000000e+03 4.196531677246093750e+01 -7.607077121734619141e+00 3.442559540271759033e-01 6.916757822036743164e-01 3.107795119285583496e-01 4.915063455700874329e-02
4.667000000000000000e+03 6.969300842285156250e+01 1.080792999267578125e+01 -3.333004713058471680e-01 7.274640560150146484e+00 2.082401990890502930e+00 1.499809473752975464e-01
4.668000000000000000e+03 6.958453369140625000e+01 6.898788928985595703e+00 -1.874050945043563843e-01 7.046551704406738281e+00 2.057744026184082031e+00 2.530413866043090820e-01
4.669000000000000000e+03 7.057160186767578125e+01 1.063684558868408203e+01 -3.030162155628204346e-01 7.441601753234863281e+00 2.141575574874877930e+00 1.136924624443054199e-01
4.670000000000000000e+03 1.119866085052490234e+01 2.353882217407226562e+01 -8.869476616382598877e-03 2.338102832436561584e-02 4.353465046733617783e-03 -4.999576136469841003e-03
4.671000000000000000e+03 1.002117443084716797e+01 2.144002151489257812e+01 -7.186049129813909531e-03 1.557496283203363419e-02 2.516674110665917397e-03 -1.015614718198776245e-02
4.672000000000000000e+03 1.226564598083496094e+01 -1.393788528442382812e+01 1.523577421903610229e-01 -5.408738255500793457e-01 -1.165548264980316162e-01 -4.995758831501007080e-01
4.673000000000000000e+03 1.070824527740478516e+01 -1.198770427703857422e+01 4.371122270822525024e-02 -5.241936445236206055e-01 -1.441447287797927856e-01 -5.453514456748962402e-01
4.674000000000000000e+03 7.098072052001953125e+01 7.911777019500732422e+00 -2.026959061622619629e-01 7.422931194305419922e+00 2.166070699691772461e+00 1.766479909420013428e-01
4.675000000000000000e+03 7.016461944580078125e+01 9.221180915832519531e+00 -2.507432699203491211e-01 7.303362846374511719e+00 2.115785837173461914e+00 1.717776060104370117e-01
4.676000000000000000e+03 6.842914581298828125e+01 -1.685350239276885986e-01 -4.845619946718215942e-02 6.576708316802978516e+00 1.958475708961486816e+00 3.479403555393218994e-01
4.677000000000000000e+03 6.818044281005859375e+01 2.711732292175292969e+01 -9.549173712730407715e-01 1.052470207214355469e+01 2.870935440063476562e+00 -5.008546710014343262e-01
4.678000000000000000e+03 7.044203186035156250e+01 2.636602401733398438e+01 -6.659609675407409668e-01 9.667589187622070312e+00 2.700488328933715820e+00 -1.222111940383911133e+00
4.679000000000000000e+03 4.277391052246093750e+01 -5.383622169494628906e+00 3.189986348152160645e-01 7.850786447525024414e-01 3.312231898307800293e-01 1.161806732416152954e-01
4.680000000000000000e+03 4.119461441040039062e+01 -6.730522632598876953e+00 3.608135581016540527e-01 5.445061922073364258e-01 2.715959250926971436e-01 5.822107195854187012e-02
4.681000000000000000e+03 1.022662544250488281e+01 1.376654434204101562e+01 2.126011997461318970e-02 7.288024574518203735e-02 2.824211120605468750e-02 -1.057490520179271698e-02
4.682000000000000000e+03 6.881260681152343750e+01 1.914134788513183594e+01 -8.862165808677673340e-01 7.965895652770996094e+00 2.123903751373291016e+00 -7.742556184530258179e-02
4.683000000000000000e+03 6.762200927734375000e+01 -2.197825241088867188e+01 2.174791134893894196e-02 6.102262973785400391e+00 1.837203264236450195e+00 3.216603696346282959e-01
4.684000000000000000e+03 9.843661308288574219e+00 -2.014637374877929688e+01 1.299081444740295410e-01 -6.233959794044494629e-01 -1.480463445186614990e-01 -3.604160249233245850e-01
4.685000000000000000e+03 1.113375949859619141e+01 2.752540206909179688e+01 -9.722629562020301819e-03 8.950863033533096313e-03 -2.315301244379952550e-04 -5.077868700027465820e-03
4.686000000000000000e+03 1.561299228668212891e+01 -1.769927215576171875e+01 2.292434126138687134e-01 -3.511804640293121338e-01 -3.658111020922660828e-02 -3.742692470550537109e-01
4.687000000000000000e+03 4.633787536621093750e+01 -1.693643760681152344e+01 5.786932632327079773e-02 1.718412518501281738e+00 5.328845381736755371e-01 7.905405946075916290e-03
4.688000000000000000e+03 4.522342681884765625e+01 -1.490463542938232422e+01 1.324857920408248901e-01 1.454131007194519043e+00 4.759850502014160156e-01 1.141649321652948856e-03
4.689000000000000000e+03 1.200266551971435547e+01 2.879573059082031250e+01 -8.552300743758678436e-03 1.669165864586830139e-02 2.441807650029659271e-03 -2.297908533364534378e-03
4.690000000000000000e+03 4.364998626708984375e+01 -1.433435249328613281e+01 1.690576672554016113e-01 1.121687650680541992e+00 3.872236013412475586e-01 -1.192961353808641434e-02
4.691000000000000000e+03 3.915230941772460938e+01 3.854108810424804688e+01 7.724636793136596680e-02 4.900570958852767944e-02 3.787562623620033264e-02 2.241909131407737732e-02
4.692000000000000000e+03 1.157847690582275391e+01 -9.928930282592773438e+00 -6.157260015606880188e-02 -4.853434562683105469e-01 -1.640748232603073120e-01 -6.117064356803894043e-01
4.693000000000000000e+03 7.060182952880859375e+01 1.355092239379882812e+01 -4.447882473468780518e-01 7.640470504760742188e+00 2.158704757690429688e+00 -7.986661046743392944e-03
4.694000000000000000e+03 1.502035427093505859e+01 -1.878779220581054688e+01 2.128503322601318359e-01 -3.587828576564788818e-01 -4.377975314855575562e-02 -3.774351775646209717e-01
4.695000000000000000e+03 1.486083221435546875e+01 -1.695546150207519531e+01 2.191384285688400269e-01 -3.803580403327941895e-01 -4.836587980389595032e-02 -3.996964395046234131e-01
4.696000000000000000e+03 1.383544445037841797e+01 -1.804569435119628906e+01 2.063790112733840942e-01 -4.428637623786926270e-01 -7.094541937112808228e-02 -3.915277719497680664e-01
4.697000000000000000e+03 6.816108703613281250e+01 -1.706492900848388672e+00 -3.107879869639873505e-02 6.475704669952392578e+00 1.933387756347656250e+00 3.548070490360260010e-01
4.698000000000000000e+03 7.046405792236328125e+01 6.831793785095214844e+00 -1.631713360548019409e-01 7.289403438568115234e+00 2.137869596481323242e+00 2.031632363796234131e-01
4.699000000000000000e+03 6.946743011474609375e+01 -6.218807220458984375e+00 -2.851638710126280785e-03 6.706717014312744141e+00 2.011159658432006836e+00 3.264513611793518066e-01
4.700000000000000000e+03 6.860816955566406250e+01 -7.649771690368652344e+00 7.787209004163742065e-03 6.493351459503173828e+00 1.950341582298278809e+00 3.383243083953857422e-01
4.701000000000000000e+03 6.531198120117187500e+01 -2.439539146423339844e+01 3.950493410229682922e-02 5.656466960906982422e+00 1.708791494369506836e+00 3.301326036453247070e-01
4.702000000000000000e+03 6.415921783447265625e+01 -2.301608085632324219e+01 4.128916561603546143e-02 5.452559947967529297e+00 1.648154735565185547e+00 3.414075374603271484e-01
4.703000000000000000e+03 5.048172378540039062e+01 -2.732157135009765625e+01 -6.801399588584899902e-02 3.004505395889282227e+00 8.809474110603332520e-01 2.324461638927459717e-01
4.704000000000000000e+03 4.919284820556640625e+01 -1.916052246093750000e+01 -7.690879516303539276e-03 2.439339399337768555e+00 7.294945120811462402e-01 7.432270050048828125e-02
4.705000000000000000e+03 6.739540100097656250e+01 -4.653282642364501953e+00 -3.494181903079152107e-03 6.249665737152099609e+00 1.873851418495178223e+00 3.638870120048522949e-01
4.706000000000000000e+03 5.281971359252929688e+01 -2.462838554382324219e+01 -3.343696519732475281e-02 3.350066900253295898e+00 9.949889779090881348e-01 2.640755474567413330e-01
4.707000000000000000e+03 5.085842895507812500e+01 -2.298287200927734375e+01 -5.962556973099708557e-02 2.907348394393920898e+00 8.543168306350708008e-01 1.591486930847167969e-01
4.708000000000000000e+03 1.003979492187500000e+01 3.145366096496582031e+01 -8.576714433729648590e-03 -1.357232034206390381e-02 -6.644710432738065720e-03 -7.347507402300834656e-03
4.709000000000000000e+03 6.947486114501953125e+01 -2.233753967285156250e+01 2.015144564211368561e-02 6.440917015075683594e+00 1.938320517539978027e+00 2.923382222652435303e-01
4.710000000000000000e+03 2.668715095520019531e+01 1.966580510139465332e+00 -1.623685717582702637e+00 -5.300742387771606445e-01 -6.461279988288879395e-01 -5.723642110824584961e-01
4.711000000000000000e+03 2.628483390808105469e+01 1.144725084304809570e+00 -1.276550650596618652e+00 -3.611615002155303955e-01 -4.913136363029479980e-01 -4.126767814159393311e-01
4.712000000000000000e+03 3.013843345642089844e+01 3.551425933837890625e+00 -1.369149088859558105e+00 -7.384465336799621582e-01 -6.322786808013916016e-01 -4.914304912090301514e-01
4.713000000000000000e+03 6.233414459228515625e+01 3.049375152587890625e+01 1.388920903205871582e+00 5.186406612396240234e+00 1.972598195075988770e+00 3.698664665222167969e+00
4.714000000000000000e+03 4.268139266967773438e+01 1.796994400024414062e+01 -7.466400861740112305e-01 -5.750434398651123047e-01 -3.965050578117370605e-01 -7.620778679847717285e-01
4.715000000000000000e+03 2.744943809509277344e+01 2.468063116073608398e+00 -1.687090039253234863e+00 -6.562370061874389648e-01 -7.029981017112731934e-01 -6.231086254119873047e-01
4.716000000000000000e+03 2.719149971008300781e+01 2.568106651306152344e-01 -5.979023575782775879e-01 -4.038109779357910156e-01 -3.005140125751495361e-01 -2.189885824918746948e-01
4.717000000000000000e+03 4.872338867187500000e+01 2.396869850158691406e+01 -6.719018220901489258e-01 -2.031242400407791138e-01 -2.625078260898590088e-01 -4.748772978782653809e-01
4.718000000000000000e+03 6.620049285888671875e+01 3.102293968200683594e+01 2.831898629665374756e-01 1.487203502655029297e+01 4.546567440032958984e+00 -7.523354887962341309e-02
4.719000000000000000e+03 4.785792160034179688e+01 2.297865486145019531e+01 -6.891528367996215820e-01 -2.509453296661376953e-01 -2.820294499397277832e-01 -4.996668100357055664e-01
4.720000000000000000e+03 2.831576156616210938e+01 5.479611754417419434e-01 -6.209892630577087402e-01 -5.100854635238647461e-01 -3.393223881721496582e-01 -1.470123380422592163e-01
4.721000000000000000e+03 4.863837432861328125e+01 2.446833610534667969e+01 -7.159081697463989258e-01 -3.116613030433654785e-01 -3.082708418369293213e-01 -5.486401319503784180e-01
4.722000000000000000e+03 3.757578277587890625e+01 1.260217857360839844e+01 -8.870987296104431152e-01 -8.261166810989379883e-01 -5.139646530151367188e-01 -8.364238739013671875e-01
4.723000000000000000e+03 3.784313583374023438e+01 1.306963729858398438e+01 -8.938791751861572266e-01 -8.424131274223327637e-01 -5.208876729011535645e-01 -8.486586213111877441e-01
4.724000000000000000e+03 6.197465133666992188e+01 3.061835098266601562e+01 1.530720233917236328e+00 4.281993865966796875e+00 1.743814229965209961e+00 3.411180734634399414e+00
4.725000000000000000e+03 5.316924667358398438e+01 2.815059471130371094e+01 -4.827373325824737549e-01 2.931507825851440430e-01 -5.687595903873443604e-02 -2.217125296592712402e-01
4.726000000000000000e+03 5.188413619995117188e+01 2.786787223815917969e+01 -6.218012571334838867e-01 -4.427146911621093750e-02 -1.998218297958374023e-01 -3.928987681865692139e-01
4.727000000000000000e+03 4.254290008544921875e+01 1.838533592224121094e+01 -7.763383984565734863e-01 -6.442149877548217773e-01 -4.261660277843475342e-01 -8.092437982559204102e-01
4.728000000000000000e+03 4.468147277832031250e+01 2.052835083007812500e+01 -7.680957913398742676e-01 -5.615154504776000977e-01 -3.988833725452423096e-01 -7.092313766479492188e-01
4.729000000000000000e+03 4.900924682617187500e+01 2.454510116577148438e+01 -6.850957274436950684e-01 -2.426413744688034058e-01 -2.783211171627044678e-01 -4.947761595249176025e-01
4.730000000000000000e+03 2.564489555358886719e+01 2.094399261474609375e+01 5.171057581901550293e-02 1.022629737854003906e-01 4.619206488132476807e-02 7.537958025932312012e-02
4.731000000000000000e+03 4.541564559936523438e+01 2.067908859252929688e+01 -7.184965014457702637e-01 -4.504540860652923584e-01 -3.506851792335510254e-01 -6.264906525611877441e-01
4.732000000000000000e+03 1.548148918151855469e+01 1.171654605865478516e+01 5.310790985822677612e-02 1.979060620069503784e-01 7.530418783426284790e-02 8.492794632911682129e-02
4.733000000000000000e+03 4.379676818847656250e+01 1.967496109008789062e+01 -7.616733312606811523e-01 -6.053693294525146484e-01 -4.101127982139587402e-01 -7.537594437599182129e-01
4.734000000000000000e+03 4.957675552368164062e+01 2.573569869995117188e+01 -7.095356583595275879e-01 -3.026568293571472168e-01 -3.036577403545379639e-01 -5.338424444198608398e-01
4.735000000000000000e+03 3.829582977294921875e+01 1.337846755981445312e+01 -8.708546757698059082e-01 -8.018972873687744141e-01 -5.018255710601806641e-01 -8.271403312683105469e-01
4.736000000000000000e+03 4.559897613525390625e+01 2.121763992309570312e+01 -7.554748654365539551e-01 -4.842121899127960205e-01 -3.719061017036437988e-01 -6.458190083503723145e-01
4.737000000000000000e+03 3.619327926635742188e+01 1.143692588806152344e+01 -9.403452873229980469e-01 -9.027670025825500488e-01 -5.529336929321289062e-01 -8.749220371246337891e-01
4.738000000000000000e+03 3.721543502807617188e+01 1.237347412109375000e+01 -9.015632867813110352e-01 -8.532587885856628418e-01 -5.264466404914855957e-01 -8.505207300186157227e-01
4.739000000000000000e+03 2.063372993469238281e+01 1.721527099609375000e+01 5.160994455218315125e-02 1.286601722240447998e-01 5.408103764057159424e-02 8.189443498849868774e-02
4.740000000000000000e+03 5.450150299072265625e+01 2.883934020996093750e+01 -3.422536849975585938e-01 5.652634501457214355e-01 6.690292060375213623e-02 -1.161476299166679382e-01
4.741000000000000000e+03 4.044617843627929688e+01 1.591103267669677734e+01 -8.351420760154724121e-01 -6.993256211280822754e-01 -4.603403210639953613e-01 -8.150467276573181152e-01
4.742000000000000000e+03 4.113932800292968750e+01 1.616243553161621094e+01 -7.941906452178955078e-01 -6.166689395904541016e-01 -4.232578873634338379e-01 -7.753497362136840820e-01
4.743000000000000000e+03 1.824081611633300781e+01 1.450700092315673828e+01 5.625639483332633972e-02 1.522049158811569214e-01 6.253839284181594849e-02 9.047776460647583008e-02
4.744000000000000000e+03 2.005985641479492188e+01 1.497977447509765625e+01 6.991138309240341187e-02 1.412690579891204834e-01 6.335413455963134766e-02 9.764312207698822021e-02
4.745000000000000000e+03 2.149557113647460938e+01 1.773796081542968750e+01 5.373438075184822083e-02 1.234820708632469177e-01 5.316493660211563110e-02 8.276192098855972290e-02
4.746000000000000000e+03 6.336184692382812500e+01 3.026535224914550781e+01 6.264591813087463379e-01 8.297991752624511719e+00 2.677335262298583984e+00 4.066718101501464844e+00
4.747000000000000000e+03 6.388861465454101562e+01 3.079755210876464844e+01 4.689311087131500244e-01 1.033375930786132812e+01 3.240807056427001953e+00 4.346849441528320312e+00
4.748000000000000000e+03 5.132561874389648438e+01 2.715404129028320312e+01 -6.343474984169006348e-01 -9.057494252920150757e-02 -2.174767404794692993e-01 -3.983215093612670898e-01
4.749000000000000000e+03 5.104744720458984375e+01 2.690493392944335938e+01 -6.376671195030212402e-01 -1.212844550609588623e-01 -2.276854664087295532e-01 -4.173094630241394043e-01
4.750000000000000000e+03 5.012834548950195312e+01 2.619820976257324219e+01 -6.805799603462219238e-01 -2.362150847911834717e-01 -2.750385105609893799e-01 -4.863772094249725342e-01
4.751000000000000000e+03 2.523955917358398438e+01 2.082712745666503906e+01 5.144045874476432800e-02 1.036689504981040955e-01 4.653282463550567627e-02 7.553508132696151733e-02
4.752000000000000000e+03 4.463061904907226562e+01 2.019338035583496094e+01 -7.419341802597045898e-01 -5.338130593299865723e-01 -3.827241659164428711e-01 -6.907736659049987793e-01
4.753000000000000000e+03 2.204402923583984375e+01 1.860532379150390625e+01 5.022657662630081177e-02 1.185924857854843140e-01 5.064571648836135864e-02 7.945893704891204834e-02
4.754000000000000000e+03 3.869271850585937500e+01 1.409411430358886719e+01 -8.795746564865112305e-01 -8.076915144920349121e-01 -5.061798691749572754e-01 -8.388648629188537598e-01
4.755000000000000000e+03 4.588099670410156250e+01 2.145150375366210938e+01 -7.477956414222717285e-01 -4.575526714324951172e-01 -3.616044819355010986e-01 -6.274443864822387695e-01
4.756000000000000000e+03 6.711298370361328125e+01 3.003547859191894531e+01 -8.275939524173736572e-02 1.294220256805419922e+01 3.857832908630371094e+00 -6.019846200942993164e-01
4.757000000000000000e+03 5.187716674804687500e+01 2.718708229064941406e+01 -5.700901746749877930e-01 6.429924815893173218e-02 -1.517372727394104004e-01 -3.083240091800689697e-01
4.758000000000000000e+03 3.895137786865234375e+01 1.423405933380126953e+01 -8.682480454444885254e-01 -7.874948978424072266e-01 -4.967228770256042480e-01 -8.281813859939575195e-01
4.759000000000000000e+03 3.877471160888671875e+01 1.453097057342529297e+01 -8.987448215484619141e-01 -8.444519042968750000e-01 -5.229589939117431641e-01 -8.681066036224365234e-01
4.760000000000000000e+03 2.285934066772460938e+01 1.973676300048828125e+01 4.572507366538047791e-02 1.123346015810966492e-01 4.741790145635604858e-02 7.483530044555664062e-02
4.761000000000000000e+03 3.919002532958984375e+01 1.443448734283447266e+01 -8.622452616691589355e-01 -7.637086510658264160e-01 -4.877861738204956055e-01 -8.217998147010803223e-01
4.762000000000000000e+03 5.082614517211914062e+01 2.715727424621582031e+01 -6.889754533767700195e-01 -2.370394766330718994e-01 -2.778044641017913818e-01 -4.896313846111297607e-01
4.763000000000000000e+03 1.057185935974121094e+01 1.196619510650634766e+01 3.622533753514289856e-02 9.741777926683425903e-02 4.009293392300605774e-02 -9.839463979005813599e-03
4.764000000000000000e+03 4.012390136718750000e+01 1.571029949188232422e+01 -8.526411056518554688e-01 -7.314775586128234863e-01 -4.752356112003326416e-01 -8.272770643234252930e-01
4.765000000000000000e+03 4.078610610961914062e+01 1.605181121826171875e+01 -8.155784010887145996e-01 -6.620904207229614258e-01 -4.433006346225738525e-01 -7.976151704788208008e-01
4.766000000000000000e+03 2.049096107482910156e+01 1.645914459228515625e+01 5.759990215301513672e-02 1.325457394123077393e-01 5.704369023442268372e-02 8.739449083805084229e-02
4.767000000000000000e+03 5.268867111206054688e+01 2.790588760375976562e+01 -5.280631780624389648e-01 1.845842301845550537e-01 -1.030436754226684570e-01 -2.706645727157592773e-01
4.768000000000000000e+03 6.005280685424804688e+01 2.946831703186035156e+01 9.544952511787414551e-01 2.563513994216918945e+00 1.055402755737304688e+00 1.853497385978698730e+00
4.769000000000000000e+03 3.586236953735351562e+01 1.138193321228027344e+01 -9.588177204132080078e-01 -9.339790344238281250e-01 -5.678390264511108398e-01 -9.031608104705810547e-01
4.770000000000000000e+03 3.683720397949218750e+01 1.213160037994384766e+01 -9.191661477088928223e-01 -8.877457380294799805e-01 -5.420735478401184082e-01 -8.681709170341491699e-01
4.771000000000000000e+03 3.958344650268554688e+01 1.443830871582031250e+01 -8.282392621040344238e-01 -6.965810656547546387e-01 -4.574460983276367188e-01 -7.778696417808532715e-01
4.772000000000000000e+03 4.616856002807617188e+01 2.169890213012695312e+01 -7.378207445144653320e-01 -4.288274347782135010e-01 -3.499944508075714111e-01 -6.064261198043823242e-01
4.773000000000000000e+03 4.929064941406250000e+01 2.503636169433593750e+01 -6.802597641944885254e-01 -2.572101056575775146e-01 -2.812409698963165283e-01 -5.033639073371887207e-01
4.774000000000000000e+03 4.421415328979492188e+01 1.979110908508300781e+01 -7.411413788795471191e-01 -5.560268759727478027e-01 -3.891505002975463867e-01 -7.131960391998291016e-01
4.775000000000000000e+03 2.225612449645996094e+01 1.925146102905273438e+01 4.618069529533386230e-02 1.155709326267242432e-01 4.852548986673355103e-02 7.604364305734634399e-02
4.776000000000000000e+03 2.543309593200683594e+01 1.951009559631347656e+01 6.299857795238494873e-02 1.057517379522323608e-01 5.062509700655937195e-02 8.251273632049560547e-02
4.777000000000000000e+03 1.949330139160156250e+01 1.476070880889892578e+01 6.648410111665725708e-02 1.449548751115798950e-01 6.343169510364532471e-02 9.692689776420593262e-02
4.778000000000000000e+03 1.965181922912597656e+01 1.405664825439453125e+01 7.740553468465805054e-02 1.484295427799224854e-01 6.775052100419998169e-02 1.055797860026359558e-01
4.779000000000000000e+03 1.734416389465332031e+01 1.447217559814453125e+01 4.748539254069328308e-02 1.547190546989440918e-01 6.066133454442024231e-02 8.195654302835464478e-02
4.780000000000000000e+03 5.123915481567382812e+01 2.663782119750976562e+01 -5.932143330574035645e-01 -1.986762322485446930e-02 -1.839245855808258057e-01 -3.502532243728637695e-01
4.781000000000000000e+03 5.035216522216796875e+01 2.588848686218261719e+01 -6.299255490303039551e-01 -1.413193494081497192e-01 -2.313734740018844604e-01 -4.170721471309661865e-01
4.782000000000000000e+03 5.066098403930664062e+01 2.638396072387695312e+01 -6.372469663619995117e-01 -1.453941464424133301e-01 -2.347923368215560913e-01 -4.233572781085968018e-01
4.783000000000000000e+03 2.251809310913085938e+01 1.878948211669921875e+01 5.189682915806770325e-02 1.168453246355056763e-01 5.062264576554298401e-02 7.970405369997024536e-02
4.784000000000000000e+03 2.604065513610839844e+01 2.100425910949707031e+01 5.371112003922462463e-02 1.006391644477844238e-01 4.630508646368980408e-02 7.583113014698028564e-02
4.785000000000000000e+03 2.656397247314453125e+01 2.133229827880859375e+01 5.375062301754951477e-02 9.865772724151611328e-02 4.572250694036483765e-02 7.532595843076705933e-02
4.786000000000000000e+03 4.357104873657226562e+01 1.912627029418945312e+01 -7.434141039848327637e-01 -5.796135663986206055e-01 -3.969083130359649658e-01 -7.398728728294372559e-01
4.787000000000000000e+03 4.393662261962890625e+01 1.926888465881347656e+01 -7.201094031333923340e-01 -5.310237407684326172e-01 -3.753399550914764404e-01 -7.053093910217285156e-01
4.788000000000000000e+03 4.137374114990234375e+01 1.667490577697753906e+01 -7.972984313964843750e-01 -6.293758153915405273e-01 -4.280022680759429932e-01 -7.946588993072509766e-01
4.789000000000000000e+03 1.862224388122558594e+01 1.370428943634033203e+01 6.894429028034210205e-02 1.567061245441436768e-01 6.769512593746185303e-02 1.022182330489158630e-01
4.790000000000000000e+03 3.256520462036132812e+01 2.817127037048339844e+01 4.458567872643470764e-02 7.638586312532424927e-02 3.629146143794059753e-02 5.688520148396492004e-02
4.791000000000000000e+03 3.549406051635742188e+01 1.109436511993408203e+01 -9.823502302169799805e-01 -9.561160802841186523e-01 -5.815398693084716797e-01 -9.166274666786193848e-01
4.792000000000000000e+03 3.645605850219726562e+01 1.194842815399169922e+01 -9.452025890350341797e-01 -9.206138849258422852e-01 -5.597449541091918945e-01 -8.933377861976623535e-01
4.793000000000000000e+03 2.496306037902832031e+01 2.022808456420898438e+01 5.473497882485389709e-02 1.056603044271469116e-01 4.811858385801315308e-02 7.786484062671661377e-02
4.794000000000000000e+03 3.990953826904296875e+01 1.470251274108886719e+01 -8.174819946289062500e-01 -6.714709401130676270e-01 -4.466858804225921631e-01 -7.707824707031250000e-01
4.795000000000000000e+03 4.036159515380859375e+01 1.541587924957275391e+01 -8.214193582534790039e-01 -6.717902421951293945e-01 -4.479628801345825195e-01 -7.853565812110900879e-01
4.796000000000000000e+03 4.655599212646484375e+01 2.271943664550781250e+01 -7.989283800125122070e-01 -5.022650361061096191e-01 -3.903580307960510254e-01 -6.554948091506958008e-01
4.797000000000000000e+03 2.714795684814453125e+01 2.429126930236816406e+01 3.728172183036804199e-02 9.211175888776779175e-02 3.881804272532463074e-02 6.430703401565551758e-02
4.798000000000000000e+03 3.793663787841796875e+01 1.274946784973144531e+01 -8.644509315490722656e-01 -7.943796515464782715e-01 -4.976491630077362061e-01 -8.100650906562805176e-01
4.799000000000000000e+03 2.452041435241699219e+01 2.006301498413085938e+01 5.341055616736412048e-02 1.072571277618408203e-01 4.820030555129051208e-02 7.754609733819961548e-02
4.800000000000000000e+03 2.417305564880371094e+01 1.937183952331542969e+01 5.710584297776222229e-02 1.099780052900314331e-01 5.012515187263488770e-02 8.059310913085937500e-02
4.801000000000000000e+03 4.673051834106445312e+01 2.252189064025878906e+01 -7.593598961830139160e-01 -4.425792992115020752e-01 -3.605817556381225586e-01 -6.122798919677734375e-01
4.802000000000000000e+03 2.011841964721679688e+01 1.627256393432617188e+01 5.645969137549400330e-02 1.350104063749313354e-01 5.744102597236633301e-02 8.633602410554885864e-02
4.803000000000000000e+03 1.995063018798828125e+01 1.443086719512939453e+01 7.499971240758895874e-02 1.450416445732116699e-01 6.601241230964660645e-02 1.027180254459381104e-01
4.804000000000000000e+03 4.768631744384765625e+01 2.263123321533203125e+01 -6.737905740737915039e-01 -2.345794886350631714e-01 -2.725110352039337158e-01 -4.862047135829925537e-01
4.805000000000000000e+03 4.725391387939453125e+01 2.280235099792480469e+01 -7.352597117424011230e-01 -3.675603568553924561e-01 -3.308460116386413574e-01 -5.722712874412536621e-01
4.806000000000000000e+03 3.054658889770507812e+01 3.528332710266113281e+00 -1.263351917266845703e+00 -6.858734488487243652e-01 -5.847675800323486328e-01 -4.385326802730560303e-01
4.807000000000000000e+03 2.095414924621582031e+01 1.796054267883300781e+01 4.753912240266799927e-02 1.237953081727027893e-01 5.140032991766929626e-02 7.814785093069076538e-02
4.808000000000000000e+03 2.038829231262207031e+01 1.757331848144531250e+01 4.662521928548812866e-02 1.272445172071456909e-01 5.216091871261596680e-02 7.807702571153640747e-02
4.809000000000000000e+03 1.593869495391845703e+01 1.157297229766845703e+01 5.850713327527046204e-02 1.995991468429565430e-01 7.743188738822937012e-02 9.625056385993957520e-02
4.810000000000000000e+03 1.487581157684326172e+01 1.136626529693603516e+01 5.021127313375473022e-02 2.054898142814636230e-01 7.671032845973968506e-02 7.644671946763992310e-02
4.811000000000000000e+03 2.645792198181152344e+01 8.461859226226806641e-01 -1.054481267929077148e+00 -3.701411187648773193e-01 -4.273867309093475342e-01 -3.325857520103454590e-01
4.812000000000000000e+03 5.897760772705078125e+01 2.896085166931152344e+01 6.613852381706237793e-01 2.133482933044433594e+00 8.384605050086975098e-01 1.315335392951965332e+00
4.813000000000000000e+03 5.808729171752929688e+01 2.921966743469238281e+01 4.630229771137237549e-01 1.518030166625976562e+00 5.943159461021423340e-01 8.072351813316345215e-01
4.814000000000000000e+03 3.481096649169921875e+01 9.612817764282226562e+00 -9.573111534118652344e-01 -8.936650753021240234e-01 -5.552928447723388672e-01 -8.587172627449035645e-01
4.815000000000000000e+03 3.655969238281250000e+01 1.153768825531005859e+01 -9.145573973655700684e-01 -8.676696419715881348e-01 -5.346680879592895508e-01 -8.493055105209350586e-01
4.816000000000000000e+03 4.226886749267578125e+01 1.786333084106445312e+01 -7.736383080482482910e-01 -6.236273050308227539e-01 -4.191796779632568359e-01 -7.991650104522705078e-01
4.817000000000000000e+03 4.334034347534179688e+01 1.861356925964355469e+01 -7.279082536697387695e-01 -5.522819161415100098e-01 -3.840570449829101562e-01 -7.318884134292602539e-01
4.818000000000000000e+03 5.293516540527343750e+01 2.739376258850097656e+01 -4.349697828292846680e-01 3.614884614944458008e-01 -2.204440347850322723e-02 -1.494280695915222168e-01
4.819000000000000000e+03 2.784505653381347656e+01 4.902999401092529297e-01 -5.965858697891235352e-01 -4.599762856960296631e-01 -3.169686496257781982e-01 -1.272488683462142944e-01
4.820000000000000000e+03 3.564739608764648438e+01 1.024272537231445312e+01 -9.201055765151977539e-01 -8.566979765892028809e-01 -5.330410599708557129e-01 -8.294419050216674805e-01
4.821000000000000000e+03 2.789242935180664062e+01 2.489348220825195312e+01 3.810799866914749146e-02 8.904545754194259644e-02 3.814603760838508606e-02 6.322633475065231323e-02
4.822000000000000000e+03 5.926370620727539062e+01 2.943416595458984375e+01 7.753979563713073730e-01 2.025869607925415039e+00 8.403802514076232910e-01 1.360047459602355957e+00
4.823000000000000000e+03 5.661187744140625000e+01 2.838104248046875000e+01 1.387886404991149902e-01 1.277908682823181152e+00 4.250091910362243652e-01 4.686526060104370117e-01
4.824000000000000000e+03 1.281010150909423828e+01 7.197304248809814453e+00 7.977649569511413574e-02 3.574327826499938965e-01 1.311627924442291260e-01 1.401040586642920971e-03
4.825000000000000000e+03 1.340844535827636719e+01 8.954592704772949219e+00 5.423139035701751709e-02 2.753544151782989502e-01 9.887574613094329834e-02 4.958523437380790710e-02
4.826000000000000000e+03 1.329580307006835938e+01 8.515383720397949219e+00 6.146520003676414490e-02 2.967671453952789307e-01 1.074697077274322510e-01 4.351082444190979004e-02
4.827000000000000000e+03 1.676465797424316406e+01 1.185056781768798828e+01 6.753957271575927734e-02 1.900781840085983276e-01 7.728532701730728149e-02 1.062541976571083069e-01
4.828000000000000000e+03 6.701445007324218750e+01 3.070193290710449219e+01 4.399462938308715820e-01 1.369008350372314453e+01 4.239008903503417969e+00 -8.422281146049499512e-01
4.829000000000000000e+03 2.874838066101074219e+01 2.438650131225585938e+00 -1.330301165580749512e+00 -6.999813914299011230e-01 -6.090847849845886230e-01 -4.285812675952911377e-01
4.830000000000000000e+03 1.638198661804199219e+01 1.185993099212646484e+01 6.253794580698013306e-02 1.933168619871139526e-01 7.675644010305404663e-02 1.004368513822555542e-01
4.831000000000000000e+03 2.286460685729980469e+01 1.836611175537109375e+01 5.717724561691284180e-02 1.171716079115867615e-01 5.230465531349182129e-02 8.394874632358551025e-02
4.832000000000000000e+03 3.325096893310546875e+01 4.703918457031250000e+00 -9.304426312446594238e-01 -5.595428943634033203e-01 -4.469956755638122559e-01 -4.821437597274780273e-01
4.833000000000000000e+03 3.301974105834960938e+01 4.430639266967773438e+00 -9.451499581336975098e-01 -5.499789714813232422e-01 -4.485386610031127930e-01 -4.548528194427490234e-01
4.834000000000000000e+03 2.959173583984375000e+01 2.652454948425292969e+01 3.802878037095069885e-02 8.332505077123641968e-02 3.640614822506904602e-02 6.007356569170951843e-02
4.835000000000000000e+03 1.710399818420410156e+01 1.226366233825683594e+01 6.728713214397430420e-02 1.814160794019699097e-01 7.461096346378326416e-02 1.052980870008468628e-01
4.836000000000000000e+03 3.622369384765625000e+01 1.102913379669189453e+01 -9.101193547248840332e-01 -8.549062609672546387e-01 -5.295076966285705566e-01 -8.398422598838806152e-01
4.837000000000000000e+03 2.705589866638183594e+01 6.103523969650268555e-01 -7.653691768646240234e-01 -4.013892710208892822e-01 -3.500275313854217529e-01 -1.968193948268890381e-01
4.838000000000000000e+03 2.741953086853027344e+01 5.553654432296752930e-01 -7.483996748924255371e-01 -4.313886463642120361e-01 -3.539364933967590332e-01 -1.884532123804092407e-01
4.839000000000000000e+03 3.024867820739746094e+01 2.749240112304687500e+01 3.784069046378135681e-02 8.142484724521636963e-02 3.577966243028640747e-02 5.809076875448226929e-02
4.840000000000000000e+03 2.844289779663085938e+01 2.500465583801269531e+01 4.033716768026351929e-02 8.814174681901931763e-02 3.854367509484291077e-02 6.430772691965103149e-02
4.841000000000000000e+03 1.434921455383300781e+01 1.159972286224365234e+01 4.006392881274223328e-02 1.978310942649841309e-01 7.136850804090499878e-02 6.255690753459930420e-02
4.842000000000000000e+03 5.686681365966796875e+01 2.892020416259765625e+01 1.713258773088455200e-01 1.196639299392700195e+00 4.103895425796508789e-01 4.260023236274719238e-01
4.843000000000000000e+03 5.973693847656250000e+01 2.924748802185058594e+01 8.618636131286621094e-01 2.474744319915771484e+00 1.000982403755187988e+00 1.687868356704711914e+00
4.844000000000000000e+03 5.981428146362304688e+01 2.970055389404296875e+01 9.294463396072387695e-01 2.228943109512329102e+00 9.475168585777282715e-01 1.644029378890991211e+00
4.845000000000000000e+03 2.954115104675292969e+01 2.598974990844726562e+01 4.052231460809707642e-02 8.412316441535949707e-02 3.739364445209503174e-02 6.183959916234016418e-02
4.846000000000000000e+03 1.126954746246337891e+01 7.894541263580322266e+00 1.015931740403175354e-01 1.920259743928909302e-01 8.808574825525283813e-02 -5.099905282258987427e-02
4.847000000000000000e+03 2.667979240417480469e+01 2.247607612609863281e+01 4.645025357604026794e-02 9.659145772457122803e-02 4.291251301765441895e-02 7.077241688966751099e-02
4.848000000000000000e+03 6.843075561523437500e+01 3.151486968994140625e+01 2.111676216125488281e+00 1.217377090454101562e+01 4.285634040832519531e+00 -1.774185299873352051e+00
4.849000000000000000e+03 2.863401031494140625e+01 1.097837209701538086e+00 -8.276528716087341309e-01 -5.648203492164611816e-01 -4.177419841289520264e-01 -1.945114731788635254e-01
4.850000000000000000e+03 2.735769653320312500e+01 2.489677619934082031e+01 3.629054501652717590e-02 9.068690985441207886e-02 3.809323534369468689e-02 6.251332908868789673e-02
4.851000000000000000e+03 3.471415710449218750e+01 7.514290809631347656e+00 -8.737803101539611816e-01 -6.979908943176269531e-01 -4.715313613414764404e-01 -6.910777688026428223e-01
4.852000000000000000e+03 3.404009628295898438e+01 7.356015682220458984e+00 -9.319204688072204590e-01 -7.534717321395874023e-01 -5.056176781654357910e-01 -7.439587116241455078e-01
4.853000000000000000e+03 3.389076614379882812e+01 5.863276958465576172e+00 -9.070390462875366211e-01 -6.192404031753540039e-01 -4.578838348388671875e-01 -5.987083911895751953e-01
4.854000000000000000e+03 3.492675399780273438e+01 6.848115921020507812e+00 -8.312094807624816895e-01 -6.114860177040100098e-01 -4.328086376190185547e-01 -6.094290018081665039e-01
4.855000000000000000e+03 6.796492004394531250e+01 3.049489974975585938e+01 7.045953273773193359e-01 1.256787872314453125e+01 3.981742382049560547e+00 -1.405817151069641113e+00
4.856000000000000000e+03 3.525157546997070312e+01 1.037262153625488281e+01 -9.619942903518676758e-01 -9.146901965141296387e-01 -5.630053281784057617e-01 -8.791805505752563477e-01
4.857000000000000000e+03 2.692263984680175781e+01 2.367887496948242188e+01 4.015832394361495972e-02 9.367953240871429443e-02 4.015135765075683594e-02 6.620068848133087158e-02
4.858000000000000000e+03 2.732944107055664062e+01 2.294085311889648438e+01 4.589302092790603638e-02 9.381182491779327393e-02 4.191145300865173340e-02 6.979326158761978149e-02
4.859000000000000000e+03 2.900243949890136719e+01 2.549472236633300781e+01 4.072695970535278320e-02 8.600085973739624023e-02 3.801834583282470703e-02 6.330556422472000122e-02
4.860000000000000000e+03 2.848441314697265625e+01 2.553669548034667969e+01 3.693433851003646851e-02 8.758019655942916870e-02 3.735436126589775085e-02 6.202325597405433655e-02
4.861000000000000000e+03 6.903112030029296875e+01 3.105655097961425781e+01 1.607504129409790039e+00 1.145022201538085938e+01 3.917317867279052734e+00 -1.752418160438537598e+00
4.862000000000000000e+03 1.237802505493164062e+01 7.150349140167236328e+00 8.587217330932617188e-02 3.348193466663360596e-01 1.262074559926986694e-01 -3.218688070774078369e-02
4.863000000000000000e+03 1.271692371368408203e+01 8.156880378723144531e+00 6.732443720102310181e-02 2.964188456535339355e-01 1.091229841113090515e-01 9.217723272740840912e-03
4.864000000000000000e+03 3.277487182617187500e+01 3.204043579101562500e+01 3.784963488578796387e-02 7.195696234703063965e-02 3.294197842478752136e-02 4.453231394290924072e-02
4.865000000000000000e+03 3.220891952514648438e+01 3.037534523010253906e+01 3.942920267581939697e-02 7.500350475311279297e-02 3.432980924844741821e-02 4.869680479168891907e-02
4.866000000000000000e+03 3.568711090087890625e+01 9.227647781372070312e+00 -8.650048375129699707e-01 -7.524617314338684082e-01 -4.852399826049804688e-01 -7.422364354133605957e-01
4.867000000000000000e+03 3.497511672973632812e+01 8.990875244140625000e+00 -9.121023416519165039e-01 -8.137114644050598145e-01 -5.177441239356994629e-01 -7.902841567993164062e-01
4.868000000000000000e+03 3.446306991577148438e+01 8.151700973510742188e+00 -9.194255471229553223e-01 -7.883893847465515137e-01 -5.123444795608520508e-01 -7.715995311737060547e-01
4.869000000000000000e+03 3.051142692565917969e+01 3.156712055206298828e+00 -1.194196462631225586e+00 -6.693516969680786133e-01 -5.590644478797912598e-01 -3.773777186870574951e-01
4.870000000000000000e+03 3.243037414550781250e+01 3.267146587371826172e+00 -8.688504099845886230e-01 -5.301019549369812012e-01 -4.196857213973999023e-01 -2.911554872989654541e-01
4.871000000000000000e+03 3.187948799133300781e+01 2.754539299011230469e+01 4.275894910097122192e-02 7.809170335531234741e-02 3.625519573688507080e-02 5.830071493983268738e-02
4.872000000000000000e+03 3.127197456359863281e+01 2.804471397399902344e+01 3.901677206158638000e-02 7.906978577375411987e-02 3.542596846818923950e-02 5.642453581094741821e-02
4.873000000000000000e+03 4.200736236572265625e+01 1.732398605346679688e+01 -7.720819115638732910e-01 -6.026034951210021973e-01 -4.124056398868560791e-01 -7.837300896644592285e-01
4.874000000000000000e+03 2.662071037292480469e+01 2.189821434020996094e+01 4.893455654382705688e-02 9.746579080820083618e-02 4.392010346055030823e-02 7.286061346530914307e-02
4.875000000000000000e+03 1.701223182678222656e+01 1.268508625030517578e+01 6.089377775788307190e-02 1.770309060811996460e-01 7.137740403413772583e-02 9.800928831100463867e-02
4.876000000000000000e+03 1.793456649780273438e+01 1.364501285552978516e+01 6.164412572979927063e-02 1.610720306634902954e-01 6.681484729051589966e-02 9.731987118721008301e-02
4.877000000000000000e+03 5.489702606201171875e+01 2.798257446289062500e+01 -1.788950115442276001e-01 8.371924757957458496e-01 1.974892318248748779e-01 1.205618381500244141e-01
4.878000000000000000e+03 3.266126632690429688e+01 -1.735444784164428711e+00 2.091643512248992920e-01 -4.529746472835540771e-01 -7.314309477806091309e-02 5.297908559441566467e-02
4.879000000000000000e+03 2.914048194885253906e+01 2.510245800018310547e+00 -1.241493225097656250e+00 -6.736693978309631348e-01 -5.745487809181213379e-01 -3.680267632007598877e-01
4.880000000000000000e+03 3.016653251647949219e+01 3.137301445007324219e+00 -1.226907014846801758e+00 -6.807666420936584473e-01 -5.723021030426025391e-01 -3.861809968948364258e-01
4.881000000000000000e+03 3.469724273681640625e+01 5.710589885711669922e+00 -8.063256144523620605e-01 -5.383064746856689453e-01 -4.033896327018737793e-01 -5.063455104827880859e-01
4.882000000000000000e+03 1.109430503845214844e+01 1.624011039733886719e+01 6.240529939532279968e-03 6.840209662914276123e-02 2.239278890192508698e-02 -1.560287084430456161e-03
4.883000000000000000e+03 1.075385189056396484e+01 1.827639007568359375e+01 -8.940927800722420216e-04 4.700992256402969360e-02 1.383474841713905334e-02 -5.406653508543968201e-03
4.884000000000000000e+03 3.055131721496582031e+01 2.811375856399536133e+00 -1.070773243904113770e+00 -6.242646574974060059e-01 -5.085113644599914551e-01 -3.039546608924865723e-01
4.885000000000000000e+03 1.064387035369873047e+01 8.091850280761718750e+00 1.135632991790771484e-01 1.291999965906143188e-01 7.282899320125579834e-02 -5.249790847301483154e-02
4.886000000000000000e+03 8.664513587951660156e+00 7.978540897369384766e+00 1.294618248939514160e-01 -8.990515954792499542e-03 3.614139184355735779e-02 -2.323557995259761810e-02
4.887000000000000000e+03 3.205583572387695312e+01 -6.969832181930541992e-01 -9.428857825696468353e-03 -4.825726747512817383e-01 -1.476004570722579956e-01 5.137014389038085938e-02
4.888000000000000000e+03 3.543805313110351562e+01 -3.435698509216308594e+00 3.680673837661743164e-01 -2.513188719749450684e-01 3.502456098794937134e-02 5.666625127196311951e-02
4.889000000000000000e+03 3.176645851135253906e+01 3.375664901733398438e+01 3.214564546942710876e-02 7.166013866662979126e-02 3.114173375070095062e-02 3.784666955471038818e-02
4.890000000000000000e+03 3.036635971069335938e+01 2.353678703308105469e+00 -9.960229992866516113e-01 -6.051682829856872559e-01 -4.803573787212371826e-01 -2.336524426937103271e-01
4.891000000000000000e+03 3.041449737548828125e+01 -3.790003955364227295e-01 -1.235007047653198242e-01 -5.258132219314575195e-01 -1.947941780090332031e-01 1.692358218133449554e-02
4.892000000000000000e+03 3.705723953247070312e+01 -4.509425640106201172e+00 4.049116969108581543e-01 -7.264117896556854248e-02 9.968116134405136108e-02 4.149179533123970032e-02
4.893000000000000000e+03 3.526729202270507812e+01 -2.546832084655761719e+00 2.851046919822692871e-01 -2.782581448554992676e-01 2.053966047242283821e-03 6.143432855606079102e-02
4.894000000000000000e+03 6.945465850830078125e+01 2.908058738708496094e+01 8.135835826396942139e-02 1.082979393005371094e+01 3.273345708847045898e+00 -1.490879297256469727e+00
4.895000000000000000e+03 6.966534423828125000e+01 3.079320907592773438e+01 1.378596782684326172e+00 1.090350532531738281e+01 3.684630632400512695e+00 -1.739765763282775879e+00
4.896000000000000000e+03 6.910273742675781250e+01 2.855257225036621094e+01 -2.759155631065368652e-01 1.086836433410644531e+01 3.177734613418579102e+00 -1.261838197708129883e+00
4.897000000000000000e+03 6.849181365966796875e+01 2.755953216552734375e+01 -7.993142604827880859e-01 1.068872833251953125e+01 2.966824293136596680e+00 -7.337077856063842773e-01
4.898000000000000000e+03 9.429339408874511719e+00 9.980250358581542969e+00 7.494551688432693481e-02 5.803907662630081177e-02 3.989537805318832397e-02 -2.853664755821228027e-02
4.899000000000000000e+03 3.174965667724609375e+01 2.955923461914062500e+01 3.779755532741546631e-02 7.648724317550659180e-02 3.428544104099273682e-02 5.211281776428222656e-02
4.900000000000000000e+03 6.863412475585937500e+01 2.889472961425781250e+01 -2.387796491384506226e-01 1.129061603546142578e+01 3.315550804138183594e+00 -1.165532946586608887e+00
4.901000000000000000e+03 6.683398437500000000e+01 2.905953884124755859e+00 -1.110213696956634521e-01 6.256600379943847656e+00 1.843673706054687500e+00 3.780027925968170166e-01
4.902000000000000000e+03 3.493044281005859375e+01 3.438989639282226562e+01 4.459072649478912354e-02 6.502600014209747314e-02 3.288501873612403870e-02 3.852130845189094543e-02
4.903000000000000000e+03 6.951379394531250000e+01 3.223658752441406250e+01 2.696631669998168945e+00 1.090711593627929688e+01 4.081124305725097656e+00 -1.466742277145385742e+00
4.904000000000000000e+03 7.002529907226562500e+01 2.281629180908203125e+01 -9.733635783195495605e-01 8.841898918151855469e+00 2.360560655593872070e+00 -6.141219139099121094e-01
4.905000000000000000e+03 6.908892822265625000e+01 2.085078620910644531e+01 -9.788111448287963867e-01 8.349750518798828125e+00 2.211281776428222656e+00 -2.269013375043869019e-01
4.906000000000000000e+03 6.991335296630859375e+01 2.384784317016601562e+01 -9.876130819320678711e-01 9.125862121582031250e+00 2.441474676132202148e+00 -7.058479785919189453e-01
4.907000000000000000e+03 6.910665893554687500e+01 2.263616180419921875e+01 -1.064256668090820312e+00 8.797986030578613281e+00 2.320118904113769531e+00 -3.587064445018768311e-01
4.908000000000000000e+03 6.950281524658203125e+01 2.590669631958007812e+01 -9.210826158523559570e-01 9.800979614257812500e+00 2.663969278335571289e+00 -8.496490120887756348e-01
4.909000000000000000e+03 6.874000549316406250e+01 2.425147438049316406e+01 -1.114639401435852051e+00 9.248607635498046875e+00 2.440190553665161133e+00 -3.727296590805053711e-01
4.910000000000000000e+03 1.402822399139404297e+01 1.067309856414794922e+01 4.495669156312942505e-02 2.192806750535964966e-01 7.927121222019195557e-02 6.225194036960601807e-02
4.911000000000000000e+03 9.040661811828613281e+00 1.200072002410888672e+01 4.361760616302490234e-02 4.161261767148971558e-02 2.556906640529632568e-02 -2.173402532935142517e-02
4.912000000000000000e+03 1.006576347351074219e+01 1.304602718353271484e+01 2.690164372324943542e-02 7.199233025312423706e-02 2.966819144785404205e-02 -1.141181122511625290e-02
4.913000000000000000e+03 1.145444965362548828e+01 2.185850524902343750e+01 -7.623297628015279770e-03 3.531342744827270508e-02 8.307038806378841400e-03 -3.040324430912733078e-03
4.914000000000000000e+03 1.197250461578369141e+01 2.282016754150390625e+01 -6.932819262146949768e-03 3.825320675969123840e-02 9.396116249263286591e-03 -1.177834696136415005e-03
4.915000000000000000e+03 1.032694911956787109e+01 -1.487338256835937500e+01 1.157588809728622437e-01 -5.489625930786132812e-01 -1.299611181020736694e-01 -4.678722023963928223e-01
4.916000000000000000e+03 1.274568367004394531e+01 2.223168373107910156e+01 -6.934449542313814163e-03 5.114700645208358765e-02 1.326376665383577347e-02 3.796200733631849289e-03
4.917000000000000000e+03 6.855055999755859375e+01 2.674426651000976562e+01 -9.525683522224426270e-01 1.029890060424804688e+01 2.803899765014648438e+00 -6.089232563972473145e-01
4.918000000000000000e+03 9.875272750854492188e+00 1.232828044891357422e+01 3.548670932650566101e-02 7.035619765520095825e-02 3.175287321209907532e-02 -1.573460176587104797e-02
4.919000000000000000e+03 1.102329063415527344e+01 1.422765827178955078e+01 1.836527138948440552e-02 8.614286035299301147e-02 3.135243803262710571e-02 -2.007167786359786987e-03
4.920000000000000000e+03 6.733979797363281250e+01 -6.985373973846435547e+00 9.322252124547958374e-03 6.186592578887939453e+00 1.858774423599243164e+00 3.558040857315063477e-01
4.921000000000000000e+03 3.826643371582031250e+01 -4.540384292602539062e+00 3.793881237506866455e-01 7.990704476833343506e-02 1.377885490655899048e-01 5.595887452363967896e-02
4.922000000000000000e+03 3.940700531005859375e+01 -5.681698322296142578e+00 3.922557532787322998e-01 2.535954415798187256e-01 1.937553584575653076e-01 4.878731444478034973e-02
4.923000000000000000e+03 9.348108291625976562e+00 -1.132048225402832031e+01 -9.330955334007740021e-03 -4.877939820289611816e-01 -1.491374820470809937e-01 -5.293601751327514648e-01
4.924000000000000000e+03 4.409836196899414062e+01 -1.064727401733398438e+01 2.721849381923675537e-01 1.160463929176330566e+00 4.297946691513061523e-01 4.140898585319519043e-02
4.925000000000000000e+03 4.290161895751953125e+01 -9.701723098754882812e+00 3.097609579563140869e-01 9.040444493293762207e-01 3.641416132450103760e-01 3.132365643978118896e-02
4.926000000000000000e+03 6.895410919189453125e+01 4.864121437072753906e+00 -1.458482444286346436e-01 6.827900886535644531e+00 2.004615783691406250e+00 2.992506027221679688e-01
4.927000000000000000e+03 6.765029144287109375e+01 5.062311172485351562e+00 -1.705971062183380127e-01 6.510392189025878906e+00 1.901938557624816895e+00 3.465172052383422852e-01
4.928000000000000000e+03 1.071869945526123047e+01 1.950587272644042969e+01 -5.021621473133563995e-03 3.802202641963958740e-02 9.900121018290519714e-03 -6.360357627272605896e-03
4.929000000000000000e+03 6.932369995117187500e+01 1.808557319641113281e+01 -7.866189479827880859e-01 7.876065254211425781e+00 2.126833915710449219e+00 -1.072618290781974792e-01
4.930000000000000000e+03 3.558788299560546875e+01 3.581590652465820312e+01 5.338135361671447754e-02 6.148160994052886963e-02 3.445889055728912354e-02 3.447815775871276855e-02
4.931000000000000000e+03 6.913152313232421875e+01 2.173840904235839844e+01 -1.024431824684143066e+00 8.553461074829101562e+00 2.258708715438842773e+00 -2.988153398036956787e-01
4.932000000000000000e+03 6.817665863037109375e+01 2.004065895080566406e+01 -9.716431498527526855e-01 8.032365798950195312e+00 2.118216991424560547e+00 6.925026886165142059e-03
4.933000000000000000e+03 6.885757446289062500e+01 1.140907096862792969e+01 -3.917888700962066650e-01 7.089593410491943359e+00 2.009341239929199219e+00 1.868164539337158203e-01
4.934000000000000000e+03 6.919927215576171875e+01 9.911627769470214844e+00 -3.118818104267120361e-01 7.111397743225097656e+00 2.039854764938354492e+00 2.009092420339584351e-01
4.935000000000000000e+03 6.852426910400390625e+01 5.691497802734375000e+00 -1.741133034229278564e-01 6.757502079010009766e+00 1.975016593933105469e+00 3.049272000789642334e-01
4.936000000000000000e+03 1.132479572296142578e+01 -1.301226902008056641e+01 8.442905545234680176e-02 -5.255324244499206543e-01 -1.323310136795043945e-01 -5.255609154701232910e-01
4.937000000000000000e+03 1.019648647308349609e+01 -1.031518936157226562e+01 -5.021143332123756409e-02 -4.762854278087615967e-01 -1.579490602016448975e-01 -5.753478407859802246e-01
4.938000000000000000e+03 6.979231262207031250e+01 1.334365749359130859e+01 -4.733438789844512939e-01 7.442224979400634766e+00 2.090664386749267578e+00 6.206100061535835266e-02
4.939000000000000000e+03 6.981584167480468750e+01 1.495570945739746094e+01 -5.478908419609069824e-01 7.585239887237548828e+00 2.111204624176025391e+00 -1.146015990525484085e-02
4.940000000000000000e+03 1.478652858734130859e+01 -2.007416152954101562e+01 2.064730226993560791e-01 -3.592191338539123535e-01 -4.582383111119270325e-02 -3.531257808208465576e-01
4.941000000000000000e+03 6.764572143554687500e+01 6.452507972717285156e-01 -6.011148914694786072e-02 6.404899120330810547e+00 1.903436303138732910e+00 3.626368343830108643e-01
4.942000000000000000e+03 6.676463317871093750e+01 -7.153919339179992676e-02 -5.125929042696952820e-02 6.173598766326904297e+00 1.836701869964599609e+00 3.826401531696319580e-01
4.943000000000000000e+03 6.757488250732421875e+01 -8.025048255920410156e+00 9.883675724267959595e-03 6.225352764129638672e+00 1.870570898056030273e+00 3.457368314266204834e-01
4.944000000000000000e+03 1.250482082366943359e+01 2.362953948974609375e+01 -8.498808369040489197e-03 3.971328213810920715e-02 9.364341385662555695e-03 7.888999534770846367e-04
4.945000000000000000e+03 4.181888580322265625e+01 -5.637207508087158203e+00 3.360772132873535156e-01 6.293578147888183594e-01 2.896305024623870850e-01 8.872593939304351807e-02
4.946000000000000000e+03 7.014151000976562500e+01 7.614055633544921875e+00 -2.047948539257049561e-01 7.225426197052001953e+00 2.106189489364624023e+00 2.096200436353683472e-01
4.947000000000000000e+03 4.530795669555664062e+01 -1.763682556152343750e+01 4.600450396537780762e-02 1.511555790901184082e+00 4.672681093215942383e-01 -1.263923197984695435e-02
4.948000000000000000e+03 4.575246047973632812e+01 -1.592151737213134766e+01 9.754689782857894897e-02 1.574022531509399414e+00 5.014708042144775391e-01 3.844818100333213806e-03
4.949000000000000000e+03 4.294581985473632812e+01 -8.584316253662109375e+00 3.169329762458801270e-01 8.814494013786315918e-01 3.595147132873535156e-01 4.525801166892051697e-02
4.950000000000000000e+03 1.923143386840820312e+01 -2.909697914123535156e+01 2.424669414758682251e-01 -4.557458311319351196e-02 5.906770750880241394e-02 -2.832757830619812012e-01
4.951000000000000000e+03 1.243705940246582031e+01 -1.566997337341308594e+01 1.749345660209655762e-01 -5.205169320106506348e-01 -1.036747097969055176e-01 -4.548790156841278076e-01
4.952000000000000000e+03 6.598786163330078125e+01 -1.678222084045410156e+01 1.063788123428821564e-02 5.818423271179199219e+00 1.748718261718750000e+00 3.399979472160339355e-01
4.953000000000000000e+03 6.703369140625000000e+01 -1.828846931457519531e+01 1.192945800721645355e-02 6.024400234222412109e+00 1.810898900032043457e+00 3.248874843120574951e-01
4.954000000000000000e+03 7.037233734130859375e+01 -1.537027549743652344e+01 1.577751524746417999e-02 6.735227584838867188e+00 2.025301694869995117e+00 2.909403741359710693e-01
4.955000000000000000e+03 6.684918212890625000e+01 4.369235992431640625e+00 -1.550218760967254639e-01 6.296118736267089844e+00 1.842329025268554688e+00 3.732208311557769775e-01
4.956000000000000000e+03 6.575687408447265625e+01 -1.928888702392578125e+01 1.457275915890932083e-02 5.782045841217041016e+00 1.738985538482666016e+00 3.332593739032745361e-01
4.957000000000000000e+03 6.935277557373046875e+01 -1.918445777893066406e+01 1.323910430073738098e-02 6.450227737426757812e+00 1.939040064811706543e+00 2.973884642124176025e-01
4.958000000000000000e+03 7.002412414550781250e+01 1.276462364196777344e+01 -4.012849926948547363e-01 7.468034267425537109e+00 2.120024681091308594e+00 5.860703438520431519e-02
4.959000000000000000e+03 6.945353698730468750e+01 1.199243927001953125e+01 -4.226154983043670654e-01 7.286342144012451172e+00 2.059118032455444336e+00 1.425863057374954224e-01
4.960000000000000000e+03 6.723146820068359375e+01 -1.612529182434082031e+01 7.171466946601867676e-03 6.068248271942138672e+00 1.822625994682312012e+00 3.270778656005859375e-01
4.961000000000000000e+03 6.943164062500000000e+01 -1.585063838958740234e+01 9.662390686571598053e-03 6.530480861663818359e+00 1.962042927742004395e+00 3.083715140819549561e-01
4.962000000000000000e+03 1.169997310638427734e+01 -1.859221458435058594e+01 1.663767546415328979e-01 -5.230279564857482910e-01 -1.069953590631484985e-01 -3.944565653800964355e-01
4.963000000000000000e+03 1.278160953521728516e+01 -1.933573341369628906e+01 1.755950450897216797e-01 -4.697185158729553223e-01 -8.823703974485397339e-02 -3.853682577610015869e-01
4.964000000000000000e+03 6.722586059570312500e+01 -2.335155248641967773e+00 -1.918032392859458923e-02 6.243811130523681641e+00 1.867389321327209473e+00 3.709855675697326660e-01
4.965000000000000000e+03 1.609130859375000000e+01 -2.029226875305175781e+01 2.111882418394088745e-01 -2.744342684745788574e-01 -1.897380314767360687e-02 -3.533662855625152588e-01
4.966000000000000000e+03 3.712811279296875000e+01 3.678004455566406250e+01 5.849824845790863037e-02 5.763360857963562012e-02 3.483955562114715576e-02 3.507949411869049072e-02
4.967000000000000000e+03 1.313815402984619141e+01 -2.697389411926269531e+01 1.560274809598922729e-01 -4.663735032081604004e-01 -9.310381114482879639e-02 -2.725625038146972656e-01
4.968000000000000000e+03 4.786012268066406250e+01 -1.711879539489746094e+01 5.011907964944839478e-02 2.071424007415771484e+00 6.364629268646240234e-01 4.670586809515953064e-02
4.969000000000000000e+03 5.156331253051757812e+01 -1.983207893371582031e+01 -1.196463312953710556e-02 2.936016798019409180e+00 8.772156238555908203e-01 1.611984968185424805e-01
4.970000000000000000e+03 6.684422302246093750e+01 -3.762515544891357422e+00 -1.532263960689306259e-02 6.130230426788330078e+00 1.834472298622131348e+00 3.757323324680328369e-01
4.971000000000000000e+03 4.560318756103515625e+01 -1.249725914001464844e+01 2.048335075378417969e-01 1.491124153137207031e+00 5.087872743606567383e-01 4.015121608972549438e-02
4.972000000000000000e+03 5.130307006835937500e+01 -2.997192573547363281e+01 4.750599339604377747e-02 3.219623088836669922e+00 9.801387190818786621e-01 3.206123709678649902e-01
4.973000000000000000e+03 6.648806762695312500e+01 -2.306204605102539062e+01 3.372500464320182800e-02 5.877343177795410156e+00 1.773320555686950684e+00 3.304552137851715088e-01
4.974000000000000000e+03 6.502047729492187500e+01 3.024492835998535156e+01 -5.401386618614196777e-01 1.270647907257080078e+01 3.649902105331420898e+00 2.377586603164672852e+00
4.975000000000000000e+03 6.431430053710937500e+01 3.005439567565917969e+01 -2.285563349723815918e-01 1.082036304473876953e+01 3.177541971206665039e+00 3.306349039077758789e+00
4.976000000000000000e+03 2.662464523315429688e+01 1.328166604042053223e+00 -1.337810158729553223e+00 -4.514883756637573242e-01 -5.367895364761352539e-01 -4.180459380149841309e-01
4.977000000000000000e+03 6.264060974121093750e+01 3.032448005676269531e+01 1.133248209953308105e+00 6.212777137756347656e+00 2.203807592391967773e+00 3.880562543869018555e+00
4.978000000000000000e+03 6.064659118652343750e+01 2.950560951232910156e+01 1.018091082572937012e+00 3.161086082458496094e+00 1.253753185272216797e+00 2.256240129470825195e+00
4.979000000000000000e+03 2.806310272216796875e+01 1.870292067527770996e+00 -1.226717114448547363e+00 -5.942137241363525391e-01 -5.462792515754699707e-01 -3.474351465702056885e-01
4.980000000000000000e+03 6.385041809082031250e+01 2.962576675415039062e+01 -8.154928684234619141e-02 9.456277847290039062e+00 2.812418460845947266e+00 3.387778997421264648e+00
4.981000000000000000e+03 6.309832382202148438e+01 3.045169639587402344e+01 9.550626277923583984e-01 7.452696323394775391e+00 2.522327661514282227e+00 4.194653987884521484e+00
4.982000000000000000e+03 4.834415435791015625e+01 2.342695808410644531e+01 -6.723132729530334473e-01 -2.154888212680816650e-01 -2.663406133651733398e-01 -4.766543507575988770e-01
4.983000000000000000e+03 4.747049713134765625e+01 2.274754142761230469e+01 -7.076898217201232910e-01 -3.017994761466979980e-01 -3.028467893600463867e-01 -5.318124890327453613e-01
4.984000000000000000e+03 4.812011718750000000e+01 2.277182006835937500e+01 -6.434902548789978027e-01 -1.669932901859283447e-01 -2.431450635194778442e-01 -4.415664076805114746e-01
4.985000000000000000e+03 2.702589035034179688e+01 1.785697698593139648e+00 -1.485861182212829590e+00 -5.347118377685546875e-01 -6.061719059944152832e-01 -4.827343821525573730e-01
4.986000000000000000e+03 2.735811805725097656e+01 1.732171058654785156e+00 -1.297094821929931641e+00 -5.336809158325195312e-01 -5.492327213287353516e-01 -3.988242149353027344e-01
4.987000000000000000e+03 2.942801856994628906e+01 3.003686189651489258e+00 -1.341083645820617676e+00 -7.245838046073913574e-01 -6.197002530097961426e-01 -4.354217648506164551e-01
4.988000000000000000e+03 6.589424896240234375e+01 3.033969306945800781e+01 -4.711896181106567383e-01 1.365668201446533203e+01 3.955647706985473633e+00 8.718405961990356445e-01
4.989000000000000000e+03 3.805582427978515625e+01 1.245289230346679688e+01 -8.439176082611083984e-01 -7.458612322807312012e-01 -4.769336581230163574e-01 -7.763904929161071777e-01
4.990000000000000000e+03 4.950114822387695312e+01 2.426840782165527344e+01 -6.065490841865539551e-01 -8.113794773817062378e-02 -2.063061147928237915e-01 -3.822571337223052979e-01
4.991000000000000000e+03 3.773980331420898438e+01 1.228897094726562500e+01 -8.605540394783020020e-01 -7.777575254440307617e-01 -4.914934635162353516e-01 -7.970988750457763672e-01
4.992000000000000000e+03 5.624209594726562500e+01 2.822218704223632812e+01 5.790786445140838623e-02 1.189722418785095215e+00 3.742890954017639160e-01 3.945159912109375000e-01
4.993000000000000000e+03 4.989858627319335938e+01 2.530758857727050781e+01 -6.360495090484619141e-01 -1.454264223575592041e-01 -2.344427704811096191e-01 -4.289832115173339844e-01
4.994000000000000000e+03 4.309440231323242188e+01 1.808826255798339844e+01 -7.204130887985229492e-01 -5.264434814453125000e-01 -3.740569651126861572e-01 -7.219351530075073242e-01
4.995000000000000000e+03 6.678037261962890625e+01 3.049869346618652344e+01 9.772486984729766846e-02 1.361688423156738281e+01 4.114382743835449219e+00 -4.570059180259704590e-01
4.996000000000000000e+03 4.501801681518554688e+01 2.019214439392089844e+01 -7.038792967796325684e-01 -4.631927907466888428e-01 -3.501216471195220947e-01 -6.360072493553161621e-01
4.997000000000000000e+03 3.818777465820312500e+01 1.299344253540039062e+01 -8.600057959556579590e-01 -7.833763360977172852e-01 -4.930146634578704834e-01 -8.090388774871826172e-01
4.998000000000000000e+03 2.742788887023925781e+01 9.816627502441406250e-01 -9.200213551521301270e-01 -4.609440267086029053e-01 -4.142896234989166260e-01 -2.442517131567001343e-01
4.999000000000000000e+03 4.294702148437500000e+01 1.848877334594726562e+01 -7.518982291221618652e-01 -5.966621041297912598e-01 -4.045681059360504150e-01 -7.701343894004821777e-01
5.000000000000000000e+03 4.986032867431640625e+01 2.442769432067871094e+01 -5.792978405952453613e-01 -2.177335508167743683e-02 -1.803213655948638916e-01 -3.423145711421966553e-01
5.001000000000000000e+03 5.010649871826171875e+01 2.562106132507324219e+01 -6.330824494361877441e-01 -1.515502333641052246e-01 -2.353897988796234131e-01 -4.306958019733428955e-01
5.002000000000000000e+03 4.580670547485351562e+01 2.089353179931640625e+01 -7.036089301109313965e-01 -4.003746211528778076e-01 -3.311950564384460449e-01 -5.887339115142822266e-01
5.003000000000000000e+03 2.117975234985351562e+01 1.834006118774414062e+01 4.595097526907920837e-02 1.214191094040870667e-01 5.021102353930473328e-02 7.683303207159042358e-02
5.004000000000000000e+03 4.701997375488281250e+01 2.260672760009765625e+01 -7.367470860481262207e-01 -3.891598582267761230e-01 -3.377720713615417480e-01 -5.791774392127990723e-01
5.005000000000000000e+03 4.874195480346679688e+01 2.300106239318847656e+01 -6.048795580863952637e-01 -5.091107636690139771e-02 -1.967371851205825806e-01 -3.698113560676574707e-01
5.006000000000000000e+03 3.875190353393554688e+01 1.327644729614257812e+01 -8.271697759628295898e-01 -7.211998105049133301e-01 -4.645108878612518311e-01 -7.726686596870422363e-01
5.007000000000000000e+03 1.669464874267578125e+01 1.225103950500488281e+01 6.175900623202323914e-02 1.849964410066604614e-01 7.402663677930831909e-02 9.889002144336700439e-02
5.008000000000000000e+03 3.164282798767089844e+01 3.822116613388061523e+00 -1.114233970642089844e+00 -6.123213171958923340e-01 -5.179665684700012207e-01 -4.227565228939056396e-01
5.009000000000000000e+03 5.154712677001953125e+01 2.688274192810058594e+01 -5.776658058166503906e-01 2.429150789976119995e-02 -1.660122871398925781e-01 -3.265391588211059570e-01
5.010000000000000000e+03 3.771924591064453125e+01 1.184735202789306641e+01 -8.318222165107727051e-01 -7.294555902481079102e-01 -4.683833420276641846e-01 -7.588631510734558105e-01
5.011000000000000000e+03 3.914201354980468750e+01 1.388657760620117188e+01 -8.336308598518371582e-01 -7.171256542205810547e-01 -4.652269482612609863e-01 -7.816125154495239258e-01
5.012000000000000000e+03 4.059792709350585938e+01 1.560234165191650391e+01 -8.135257959365844727e-01 -6.522641181945800781e-01 -4.397369623184204102e-01 -7.800827622413635254e-01
5.013000000000000000e+03 4.090857315063476562e+01 1.569176483154296875e+01 -7.935215234756469727e-01 -6.088157892227172852e-01 -4.207012057304382324e-01 -7.590799927711486816e-01
5.014000000000000000e+03 2.040691375732421875e+01 1.686183929443359375e+01 5.297284573316574097e-02 1.307922899723052979e-01 5.512953922152519226e-02 8.341181278228759766e-02
5.015000000000000000e+03 2.705475044250488281e+01 9.947526454925537109e-01 -1.074473619461059570e+00 -4.399371445178985596e-01 -4.543232619762420654e-01 -3.063727617263793945e-01
5.016000000000000000e+03 5.095207214355468750e+01 2.644738578796386719e+01 -6.077004075050354004e-01 -5.873000249266624451e-02 -1.999291181564331055e-01 -3.735815584659576416e-01
5.017000000000000000e+03 3.940682601928710938e+01 1.417015457153320312e+01 -8.250404596328735352e-01 -6.966007947921752930e-01 -4.564923644065856934e-01 -7.750287055969238281e-01
5.018000000000000000e+03 4.463695144653320312e+01 1.982020378112792969e+01 -7.048436999320983887e-01 -4.827290475368499756e-01 -3.562718331813812256e-01 -6.557303071022033691e-01
5.019000000000000000e+03 4.637584686279296875e+01 2.138294029235839844e+01 -6.989102959632873535e-01 -3.544895946979522705e-01 -3.160199522972106934e-01 -5.560044646263122559e-01
5.020000000000000000e+03 2.483784866333007812e+01 2.067876052856445312e+01 5.017817392945289612e-02 1.048599779605865479e-01 4.651144519448280334e-02 7.495971769094467163e-02
5.021000000000000000e+03 1.858825111389160156e+01 1.406049060821533203e+01 6.427838653326034546e-02 1.546810418367385864e-01 6.568782776594161987e-02 9.813312441110610962e-02
5.022000000000000000e+03 1.928155708312988281e+01 1.406023883819580078e+01 7.251292467117309570e-02 1.512420326471328735e-01 6.712648272514343262e-02 1.033020243048667908e-01
5.023000000000000000e+03 5.250431060791015625e+01 2.712210083007812500e+01 -4.725594520568847656e-01 2.736629247665405273e-01 -5.966895446181297302e-02 -1.858857125043869019e-01
5.024000000000000000e+03 3.963269042968750000e+01 1.471333503723144531e+01 -8.379380702972412109e-01 -7.171401381492614746e-01 -4.665234386920928955e-01 -7.957971096038818359e-01
5.025000000000000000e+03 3.940501785278320312e+01 1.462464427947998047e+01 -8.534383177757263184e-01 -7.454654574394226074e-01 -4.796711206436157227e-01 -8.131279349327087402e-01
5.026000000000000000e+03 2.262394142150878906e+01 1.944416809082031250e+01 4.713923856616020203e-02 1.140375137329101562e-01 4.835302755236625671e-02 7.555186003446578979e-02
5.027000000000000000e+03 4.283190155029296875e+01 1.754726409912109375e+01 -7.165861725807189941e-01 -5.039977431297302246e-01 -3.661751747131347656e-01 -7.110930085182189941e-01
5.028000000000000000e+03 4.371336746215820312e+01 1.875712966918945312e+01 -7.110639214515686035e-01 -5.081965327262878418e-01 -3.657781183719635010e-01 -6.971554160118103027e-01
5.029000000000000000e+03 4.431647872924804688e+01 1.936004447937011719e+01 -6.988027095794677734e-01 -4.762032032012939453e-01 -3.525017797946929932e-01 -6.640011668205261230e-01
5.030000000000000000e+03 5.140053176879882812e+01 2.632189941406250000e+01 -5.431833267211914062e-01 8.168056607246398926e-02 -1.384508311748504639e-01 -2.831794619560241699e-01
5.031000000000000000e+03 4.025851821899414062e+01 1.506944274902343750e+01 -8.130103945732116699e-01 -6.574940085411071777e-01 -4.411513209342956543e-01 -7.696158885955810547e-01
5.032000000000000000e+03 4.125470352172851562e+01 1.576775932312011719e+01 -7.673019766807556152e-01 -5.619077682495117188e-01 -3.987629115581512451e-01 -7.319634556770324707e-01
5.033000000000000000e+03 5.043416595458984375e+01 2.552537918090820312e+01 -5.908766388893127441e-01 -4.013916477560997009e-02 -1.893047541379928589e-01 -3.579081296920776367e-01
5.034000000000000000e+03 5.069263076782226562e+01 2.602112960815429688e+01 -6.068309545516967773e-01 -7.312749326229095459e-02 -2.039875239133834839e-01 -3.769007921218872070e-01
5.035000000000000000e+03 4.687970733642578125e+01 2.270923614501953125e+01 -7.637238502502441406e-01 -4.311313033103942871e-01 -3.584565520286560059e-01 -6.112526655197143555e-01
5.036000000000000000e+03 4.858768844604492188e+01 2.270178604125976562e+01 -5.901592969894409180e-01 -3.940180316567420959e-02 -1.888683289289474487e-01 -3.624618351459503174e-01
5.037000000000000000e+03 1.965174293518066406e+01 1.517987251281738281e+01 6.360565871000289917e-02 1.425021886825561523e-01 6.183235347270965576e-02 9.392435848712921143e-02
5.038000000000000000e+03 4.676675415039062500e+01 2.146603775024414062e+01 -6.709749102592468262e-01 -2.816600501537322998e-01 -2.857905030250549316e-01 -5.100371241569519043e-01
5.039000000000000000e+03 4.640295028686523438e+01 2.198503875732421875e+01 -7.387896180152893066e-01 -4.232938289642333984e-01 -3.486250340938568115e-01 -6.007208228111267090e-01
5.040000000000000000e+03 2.943962860107421875e+01 4.363647103309631348e-01 -4.620248377323150635e-01 -5.107994079589843750e-01 -2.918472886085510254e-01 -4.242567718029022217e-02
5.041000000000000000e+03 1.420834445953369141e+01 9.600808143615722656e+00 5.875729024410247803e-02 2.572062015533447266e-01 9.478904306888580322e-02 7.641787081956863403e-02
5.042000000000000000e+03 1.432035827636718750e+01 1.003847122192382812e+01 5.241714417934417725e-02 2.413572520017623901e-01 8.813232183456420898e-02 7.695955038070678711e-02
5.043000000000000000e+03 2.401349067687988281e+01 1.994104766845703125e+01 5.196013301610946655e-02 1.089597865939140320e-01 4.827597737312316895e-02 7.717296481132507324e-02
5.044000000000000000e+03 4.405144119262695312e+01 1.890307807922363281e+01 -6.998709440231323242e-01 -4.741398692131042480e-01 -3.522032499313354492e-01 -6.673808693885803223e-01
5.045000000000000000e+03 4.150639343261718750e+01 1.626205062866210938e+01 -7.684413194656372070e-01 -5.703062415122985840e-01 -4.016242623329162598e-01 -7.477345466613769531e-01
5.046000000000000000e+03 1.384083557128906250e+01 1.180592346191406250e+01 3.784519061446189880e-02 1.865479797124862671e-01 6.731794774532318115e-02 4.807288944721221924e-02
5.047000000000000000e+03 4.023249053955078125e+01 1.465402698516845703e+01 -7.933034300804138184e-01 -6.217274665832519531e-01 -4.245092868804931641e-01 -7.378453016281127930e-01
5.048000000000000000e+03 1.985176086425781250e+01 1.697424697875976562e+01 4.839770123362541199e-02 1.311990916728973389e-01 5.387904122471809387e-02 7.974164932966232300e-02
5.049000000000000000e+03 2.246192550659179688e+01 1.982243728637695312e+01 4.303867369890213013e-02 1.129916533827781677e-01 4.680909961462020874e-02 7.297031581401824951e-02
5.050000000000000000e+03 1.123596477508544922e+01 6.905868053436279297e+00 1.417899280786514282e-01 1.914368271827697754e-01 9.996802359819412231e-02 -8.050989359617233276e-02
5.051000000000000000e+03 4.681504440307617188e+01 2.213239288330078125e+01 -7.203398346900939941e-01 -3.701719939708709717e-01 -3.271535634994506836e-01 -5.626772046089172363e-01
5.052000000000000000e+03 4.719295883178710938e+01 2.257543563842773438e+01 -7.227901220321655273e-01 -3.512275218963623047e-01 -3.222053050994873047e-01 -5.583601593971252441e-01
5.053000000000000000e+03 5.529454421997070312e+01 2.822538185119628906e+01 -1.248482689261436462e-01 9.066927433013916016e-01 2.345533370971679688e-01 1.604350209236145020e-01
5.054000000000000000e+03 5.549757766723632812e+01 2.783755111694335938e+01 -5.998032167553901672e-02 1.053608655929565430e+00 2.980885207653045654e-01 2.793008685111999512e-01
5.055000000000000000e+03 2.602686309814453125e+01 2.198152923583984375e+01 4.659980535507202148e-02 9.940612316131591797e-02 4.380177706480026245e-02 7.162969559431076050e-02
5.056000000000000000e+03 2.442107009887695312e+01 2.055147552490234375e+01 4.900389164686203003e-02 1.065665781497955322e-01 4.667114093899726868e-02 7.476057112216949463e-02
5.057000000000000000e+03 4.840957641601562500e+01 2.299554634094238281e+01 -6.371057629585266113e-01 -1.386652588844299316e-01 -2.327312976121902466e-01 -4.216282367706298828e-01
5.058000000000000000e+03 4.734906005859375000e+01 2.250240898132324219e+01 -7.002514600753784180e-01 -2.878812253475189209e-01 -2.964397966861724854e-01 -5.228182673454284668e-01
5.059000000000000000e+03 3.577167510986328125e+01 1.064623260498046875e+01 -9.320744872093200684e-01 -8.792135119438171387e-01 -5.433863997459411621e-01 -8.510748147964477539e-01
5.060000000000000000e+03 3.790926742553710938e+01 1.203309726715087891e+01 -8.283253312110900879e-01 -7.176396846771240234e-01 -4.637894928455352783e-01 -7.559912204742431641e-01
5.061000000000000000e+03 1.741583824157714844e+01 1.270915889739990234e+01 6.598815321922302246e-02 1.735488772392272949e-01 7.186111062765121460e-02 1.032955795526504517e-01
5.062000000000000000e+03 3.523157501220703125e+01 9.410677909851074219e+00 -9.104602336883544922e-01 -8.276499509811401367e-01 -5.214330554008483887e-01 -8.019691109657287598e-01
5.063000000000000000e+03 3.694381332397460938e+01 1.166816043853759766e+01 -8.901926875114440918e-01 -8.278054594993591309e-01 -5.153994560241699219e-01 -8.207253813743591309e-01
5.064000000000000000e+03 4.188784408569335938e+01 1.635868835449218750e+01 -7.433651685714721680e-01 -5.205198526382446289e-01 -3.791655004024505615e-01 -7.191984057426452637e-01
5.065000000000000000e+03 2.037880516052246094e+01 1.809586524963378906e+01 4.208889231085777283e-02 1.242604181170463562e-01 4.990479350090026855e-02 7.419499009847640991e-02
5.066000000000000000e+03 4.700225448608398438e+01 2.193225860595703125e+01 -6.918525099754333496e-01 -2.920047044754028320e-01 -2.951571643352508545e-01 -5.199995040893554688e-01
5.067000000000000000e+03 4.789521408081054688e+01 2.245678329467773438e+01 -6.437783241271972656e-01 -1.710729598999023438e-01 -2.444553822278976440e-01 -4.417370259761810303e-01
5.068000000000000000e+03 5.937611770629882812e+01 2.907495307922363281e+01 7.537675499916076660e-01 2.311435222625732422e+00 9.195608496665954590e-01 1.507912635803222656e+00
5.069000000000000000e+03 5.857345199584960938e+01 2.888197326660156250e+01 5.608404278755187988e-01 1.906916379928588867e+00 7.403270602226257324e-01 1.102945804595947266e+00
5.070000000000000000e+03 1.404964351654052734e+01 9.179619789123535156e+00 5.711643770337104797e-02 2.726237177848815918e-01 9.892204403877258301e-02 7.695930451154708862e-02
5.071000000000000000e+03 3.094501495361328125e+01 2.568407297134399414e+00 -9.416446685791015625e-01 -5.853904485702514648e-01 -4.581105411052703857e-01 -2.469787448644638062e-01
5.072000000000000000e+03 1.419882965087890625e+01 1.112559318542480469e+01 4.549111425876617432e-02 2.072623819112777710e-01 7.582604885101318359e-02 6.139980256557464600e-02
5.073000000000000000e+03 1.446808624267578125e+01 1.046880149841308594e+01 5.348626151680946350e-02 2.289207130670547485e-01 8.472209423780441284e-02 7.533230632543563843e-02
5.074000000000000000e+03 5.210930633544921875e+01 2.682936859130859375e+01 -5.030146241188049316e-01 1.947589665651321411e-01 -9.247670322656631470e-02 -2.215603142976760864e-01
5.075000000000000000e+03 6.838749694824218750e+01 2.833948516845703125e+01 -5.884004235267639160e-01 1.111065196990966797e+01 3.156675577163696289e+00 -8.583526611328125000e-01
5.076000000000000000e+03 3.017552566528320312e+01 1.453687548637390137e-01 -3.007893562316894531e-01 -5.131297707557678223e-01 -2.441757321357727051e-01 1.496796845458447933e-03
5.077000000000000000e+03 3.081775474548339844e+01 3.121737003326416016e+00 -1.116397738456726074e+00 -6.321722865104675293e-01 -5.245710015296936035e-01 -3.430516421794891357e-01
5.078000000000000000e+03 3.609910202026367188e+01 1.013879776000976562e+01 -8.812618255615234375e-01 -7.914924621582031250e-01 -5.018262863159179688e-01 -7.803266048431396484e-01
5.079000000000000000e+03 3.244855117797851562e+01 4.298752307891845703e+00 -1.034558176994323730e+00 -5.784713625907897949e-01 -4.839088618755340576e-01 -4.721349775791168213e-01
5.080000000000000000e+03 2.680541229248046875e+01 2.519890022277832031e+01 3.265479207038879395e-02 9.064856171607971191e-02 3.699100762605667114e-02 6.023261323571205139e-02
5.081000000000000000e+03 2.507689285278320312e+01 2.368501091003417969e+01 3.200314939022064209e-02 9.698576480150222778e-02 3.869667649269104004e-02 6.153006479144096375e-02
5.082000000000000000e+03 1.273711395263671875e+01 1.025829410552978516e+01 4.398098215460777283e-02 2.068126797676086426e-01 7.523809373378753662e-02 2.374628186225891113e-02
5.083000000000000000e+03 5.510229110717773438e+01 2.863281250000000000e+01 -1.999092996120452881e-01 7.619320750236511230e-01 1.686068326234817505e-01 3.890098258852958679e-02
5.084000000000000000e+03 2.368981552124023438e+01 1.907415008544921875e+01 5.655623972415924072e-02 1.121435463428497314e-01 5.060993507504463196e-02 8.164693415164947510e-02
5.085000000000000000e+03 2.347677040100097656e+01 1.998607826232910156e+01 4.810222238302230835e-02 1.103420183062553406e-01 4.753327369689941406e-02 7.556314766407012939e-02
5.086000000000000000e+03 3.224948883056640625e+01 3.925574302673339844e+00 -1.017399191856384277e+00 -5.722697377204895020e-01 -4.769006669521331787e-01 -4.092591404914855957e-01
5.087000000000000000e+03 3.203096771240234375e+01 3.560255765914916992e+00 -1.000218152999877930e+00 -5.652551651000976562e-01 -4.696419835090637207e-01 -3.651585280895233154e-01
5.088000000000000000e+03 1.602733039855957031e+01 1.198934745788574219e+01 5.682266131043434143e-02 1.914418041706085205e-01 7.447934150695800781e-02 9.163427352905273438e-02
5.089000000000000000e+03 1.498773384094238281e+01 1.190062904357910156e+01 4.417383298277854919e-02 1.941786110401153564e-01 7.150573283433914185e-02 7.427538931369781494e-02
5.090000000000000000e+03 1.918625831604003906e+01 1.530952739715576172e+01 5.728073418140411377e-02 1.429103612899780273e-01 6.005732715129852295e-02 8.977579325437545776e-02
5.091000000000000000e+03 1.923547744750976562e+01 1.438287067413330078e+01 6.835962831974029541e-02 1.488711386919021606e-01 6.516923010349273682e-02 9.914731979370117188e-02
5.092000000000000000e+03 3.620085906982421875e+01 1.059275150299072266e+01 -8.924737572669982910e-01 -8.192169666290283203e-01 -5.135072469711303711e-01 -8.046011924743652344e-01
5.093000000000000000e+03 3.669009780883789062e+01 1.058727169036865234e+01 -8.513457179069519043e-01 -7.510570287704467773e-01 -4.807208180427551270e-01 -7.577565908432006836e-01
5.094000000000000000e+03 5.737561035156250000e+01 2.860013771057128906e+01 2.983499169349670410e-01 1.482224464416503906e+00 5.341722965240478516e-01 6.734544038772583008e-01
5.095000000000000000e+03 2.982098197937011719e+01 2.698286437988281250e+01 3.902744129300117493e-02 8.209466934204101562e-02 3.633663430809974670e-02 5.811969935894012451e-02
5.096000000000000000e+03 3.145787429809570312e+01 2.879552459716796875e+01 4.034197703003883362e-02 7.764338701963424683e-02 3.539560735225677490e-02 5.355070158839225769e-02
5.097000000000000000e+03 3.421929931640625000e+01 6.772810459136962891e+00 -9.015118479728698730e-01 -6.793293356895446777e-01 -4.742523431777954102e-01 -6.718760132789611816e-01
5.098000000000000000e+03 3.639957427978515625e+01 9.534696578979492188e+00 -8.224437832832336426e-01 -6.923543214797973633e-01 -4.544394314289093018e-01 -7.010241746902465820e-01
5.099000000000000000e+03 2.777303123474121094e+01 1.401564002037048340e+00 -1.062044262886047363e+00 -5.278949737548828125e-01 -4.769817888736724854e-01 -2.837335467338562012e-01
5.100000000000000000e+03 3.546329498291015625e+01 9.828969001770019531e+00 -9.154828786849975586e-01 -8.381472229957580566e-01 -5.260890126228332520e-01 -8.151627779006958008e-01
5.101000000000000000e+03 3.544175720214843750e+01 8.786083221435546875e+00 -8.625031709671020508e-01 -7.423608899116516113e-01 -4.814592301845550537e-01 -7.298668622970581055e-01
5.102000000000000000e+03 4.350164413452148438e+01 1.822648429870605469e+01 -6.973463296890258789e-01 -4.769363403320312500e-01 -3.522848188877105713e-01 -6.827889680862426758e-01
5.103000000000000000e+03 2.903110122680664062e+01 2.667262268066406250e+01 3.700016438961029053e-02 8.408150821924209595e-02 3.632450103759765625e-02 5.850958079099655151e-02
5.104000000000000000e+03 2.947912406921386719e+01 2.897288894653320312e+01 3.212955221533775330e-02 8.007021993398666382e-02 3.365993127226829529e-02 5.021630972623825073e-02
5.105000000000000000e+03 2.956618690490722656e+01 2.792512893676757812e+01 3.642811253666877747e-02 8.110360801219940186e-02 3.525951504707336426e-02 5.486711114645004272e-02
5.106000000000000000e+03 2.764546966552734375e+01 2.539774131774902344e+01 3.487224504351615906e-02 8.913904428482055664e-02 3.720338642597198486e-02 6.121113896369934082e-02
5.107000000000000000e+03 5.426332855224609375e+01 2.814567756652832031e+01 -3.089716732501983643e-01 6.240113973617553711e-01 9.451191127300262451e-02 -3.330897167325019836e-02
5.108000000000000000e+03 2.901112365722656250e+01 2.605519485473632812e+01 3.681623935699462891e-02 8.545384556055068970e-02 3.668102622032165527e-02 6.094677373766899109e-02
5.109000000000000000e+03 1.217663097381591797e+01 7.640314102172851562e+00 8.646836876869201660e-02 2.830938696861267090e-01 1.108686700463294983e-01 -3.132416307926177979e-02
5.110000000000000000e+03 1.278024959564208984e+01 8.655852317810058594e+00 5.780592560768127441e-02 2.700714170932769775e-01 9.836319833993911743e-02 1.840120740234851837e-02
5.111000000000000000e+03 2.804450416564941406e+01 2.581973266601562500e+01 3.594239801168441772e-02 8.729758113622665405e-02 3.697199374437332153e-02 6.035406142473220825e-02
5.112000000000000000e+03 2.565475654602050781e+01 2.391691780090332031e+01 3.369930759072303772e-02 9.528941661119461060e-02 3.869661688804626465e-02 6.221546977758407593e-02
5.113000000000000000e+03 6.851456451416015625e+01 3.110911750793457031e+01 1.643024682998657227e+00 1.205459308624267578e+01 4.109285354614257812e+00 -1.726205110549926758e+00
5.114000000000000000e+03 2.848341178894042969e+01 2.606127929687500000e+01 3.698188066482543945e-02 8.626097440719604492e-02 3.697285428643226624e-02 6.060782074928283691e-02
5.115000000000000000e+03 3.470603942871093750e+01 -1.704874873161315918e+00 1.704729646444320679e-01 -3.181397020816802979e-01 -4.430001601576805115e-02 6.967157125473022461e-02
5.116000000000000000e+03 3.418023300170898438e+01 -1.545819878578186035e+00 1.736804246902465820e-01 -3.564455509185791016e-01 -5.482953414320945740e-02 6.522950530052185059e-02
5.117000000000000000e+03 3.422964859008789062e+01 5.476462364196777344e+00 -8.421640992164611816e-01 -5.463403463363647461e-01 -4.165513217449188232e-01 -5.108486413955688477e-01
5.118000000000000000e+03 3.287060928344726562e+01 4.063942909240722656e+00 -9.274619221687316895e-01 -5.405680537223815918e-01 -4.404090046882629395e-01 -3.991786241531372070e-01
5.119000000000000000e+03 3.516894149780273438e+01 4.308498859405517578e+00 -6.392276883125305176e-01 -3.961460888385772705e-01 -3.106121420860290527e-01 -3.047735393047332764e-01
5.120000000000000000e+03 1.823130989074707031e+01 1.408146667480468750e+01 6.039727106690406799e-02 1.556603163480758667e-01 6.481727212667465210e-02 9.493616223335266113e-02
5.121000000000000000e+03 1.731871032714843750e+01 1.312861442565917969e+01 5.997754260897636414e-02 1.696919649839401245e-01 6.890085339546203613e-02 9.660146385431289673e-02
5.122000000000000000e+03 5.829392242431640625e+01 2.834800338745117188e+01 4.766151309013366699e-01 2.005642175674438477e+00 7.446771860122680664e-01 1.095869421958923340e+00
5.123000000000000000e+03 5.901771163940429688e+01 2.856448936462402344e+01 6.250073909759521484e-01 2.344170808792114258e+00 8.907534480094909668e-01 1.403511285781860352e+00
5.124000000000000000e+03 5.407604980468750000e+01 2.737331008911132812e+01 -2.718013226985931396e-01 7.119150757789611816e-01 1.320341229438781738e-01 6.087677180767059326e-02
5.125000000000000000e+03 6.876642608642578125e+01 3.040245628356933594e+01 8.491023778915405273e-01 1.164571952819824219e+01 3.748446702957153320e+00 -1.613245010375976562e+00
5.126000000000000000e+03 1.115537929534912109e+01 7.415254592895507812e+00 1.260872185230255127e-01 1.840146034955978394e-01 9.303054213523864746e-02 -7.244008779525756836e-02
5.127000000000000000e+03 6.802843475341796875e+01 3.003746604919433594e+01 3.177504241466522217e-01 1.226958370208740234e+01 3.776200294494628906e+00 -1.285763144493103027e+00
5.128000000000000000e+03 4.175556564331054688e+01 1.678517341613769531e+01 -7.703099250793457031e-01 -5.840696692466735840e-01 -4.063138663768768311e-01 -7.655532956123352051e-01
5.129000000000000000e+03 1.959296798706054688e+01 1.441821193695068359e+01 7.170838117599487305e-02 1.469426453113555908e-01 6.559530645608901978e-02 1.011645272374153137e-01
5.130000000000000000e+03 3.519352340698242188e+01 8.351958274841308594e+00 -8.651872873306274414e-01 -7.257308363914489746e-01 -4.772754311561584473e-01 -7.165648341178894043e-01
5.131000000000000000e+03 3.170429039001464844e+01 -2.484943419694900513e-01 -1.264598220586776733e-01 -4.948844909667968750e-01 -1.864032894372940063e-01 4.068734124302864075e-02
5.132000000000000000e+03 3.116236114501953125e+01 6.318292617797851562e-01 -3.943603932857513428e-01 -5.171603560447692871e-01 -2.734562158584594727e-01 -1.544472388923168182e-02
5.133000000000000000e+03 2.952242469787597656e+01 2.584827899932861328e+00 -1.218894720077514648e+00 -6.898586153984069824e-01 -5.726259946823120117e-01 -3.623827695846557617e-01
5.134000000000000000e+03 3.328692245483398438e+01 -1.111497640609741211e+00 8.063282072544097900e-02 -4.155356585979461670e-01 -1.004708483815193176e-01 6.049290299415588379e-02
5.135000000000000000e+03 3.236357879638671875e+01 -1.209782361984252930e+00 9.581629186868667603e-02 -4.657504558563232422e-01 -1.109802499413490295e-01 5.958821997046470642e-02
5.136000000000000000e+03 1.915120506286621094e+01 1.470374298095703125e+01 6.339052319526672363e-02 1.474507600069046021e-01 6.325238943099975586e-02 9.517733752727508545e-02
5.137000000000000000e+03 1.174512195587158203e+01 1.934356117248535156e+01 -2.587977563962340355e-03 5.672836676239967346e-02 1.624211668968200684e-02 6.875748513266444206e-04
5.138000000000000000e+03 3.124211311340332031e+01 3.211051940917968750e+00 -1.058092951774597168e+00 -6.099450588226318359e-01 -5.004113912582397461e-01 -3.327409029006958008e-01
5.139000000000000000e+03 3.660895538330078125e+01 -3.795599699020385742e+00 3.672927916049957275e-01 -1.308469325304031372e-01 7.093375921249389648e-02 6.025044247508049011e-02
5.140000000000000000e+03 3.624951171875000000e+01 -3.063117265701293945e+00 3.197515606880187988e-01 -1.742172688245773315e-01 4.366028681397438049e-02 6.361804902553558350e-02
5.141000000000000000e+03 6.812908935546875000e+01 2.786107635498046875e+01 -7.929353713989257812e-01 1.092361545562744141e+01 3.039204120635986328e+00 -6.212520599365234375e-01
5.142000000000000000e+03 9.899456024169921875e+00 9.404973030090332031e+00 8.461340516805648804e-02 7.816074043512344360e-02 4.883224144577980042e-02 -3.329538926482200623e-02
5.143000000000000000e+03 3.343924331665039062e+01 -1.790358543395996094e+00 2.133113741874694824e-01 -4.144866466522216797e-01 -6.035258620977401733e-02 6.309741735458374023e-02
5.144000000000000000e+03 6.825411987304687500e+01 2.164303016662597656e+01 -1.071836829185485840e+00 8.424191474914550781e+00 2.205706357955932617e+00 -6.691712141036987305e-02
5.145000000000000000e+03 1.031700229644775391e+01 8.963674545288085938e+00 9.244560450315475464e-02 1.092202290892601013e-01 6.049975007772445679e-02 -3.960126265883445740e-02
5.146000000000000000e+03 6.799023437500000000e+01 2.393728446960449219e+01 -1.171686649322509766e+00 9.077872276306152344e+00 2.371855735778808594e+00 -8.421713858842849731e-02
5.147000000000000000e+03 6.929550933837890625e+01 3.007803344726562500e+01 6.885377764701843262e-01 1.115813255310058594e+01 3.554001092910766602e+00 -1.656893491744995117e+00
5.148000000000000000e+03 1.266817760467529297e+01 1.500095558166503906e+01 1.344944071024656296e-02 1.129012852907180786e-01 3.790521621704101562e-02 1.664515957236289978e-02
5.149000000000000000e+03 1.203979206085205078e+01 1.512426471710205078e+01 1.132878102362155914e-02 9.992715716361999512e-02 3.337677940726280212e-02 9.450914338231086731e-03
5.150000000000000000e+03 6.822852325439453125e+01 2.082639694213867188e+01 -1.022700071334838867e+00 8.212444305419921875e+00 2.156923055648803711e+00 -3.151617199182510376e-02
5.151000000000000000e+03 1.228875064849853516e+01 2.134664916992187500e+01 -5.805634427815675735e-03 5.088123679161071777e-02 1.352268084883689880e-02 1.716346247121691704e-03
5.152000000000000000e+03 1.096011924743652344e+01 2.075742721557617188e+01 -5.876400973647832870e-03 3.455469012260437012e-02 8.603486232459545135e-03 -6.137019954621791840e-03
5.153000000000000000e+03 3.601155853271484375e+01 -2.316005468368530273e+00 2.567244470119476318e-01 -1.994807422161102295e-01 1.717311330139636993e-02 7.438490539789199829e-02
5.154000000000000000e+03 1.090896415710449219e+01 1.351924514770507812e+01 2.130604349076747894e-02 9.344144165515899658e-02 3.442424535751342773e-02 -3.182234708219766617e-03
5.155000000000000000e+03 1.216218757629394531e+01 1.408585643768310547e+01 1.762641966342926025e-02 1.151743680238723755e-01 3.984023630619049072e-02 1.227376610040664673e-02
5.156000000000000000e+03 6.605718994140625000e+01 3.651313543319702148e+00 -1.327285021543502808e-01 6.078841209411621094e+00 1.783833861351013184e+00 3.990213274955749512e-01
5.157000000000000000e+03 6.901447296142578125e+01 2.533209800720214844e+01 -1.044737815856933594e+00 9.669835090637207031e+00 2.587529182434082031e+00 -6.103939414024353027e-01
5.158000000000000000e+03 4.003826141357421875e+01 -4.950858116149902344e+00 3.533976674079895020e-01 3.432146012783050537e-01 2.089836895465850830e-01 8.001335710287094116e-02
5.159000000000000000e+03 3.945915222167968750e+01 -4.419989585876464844e+00 3.513875603675842285e-01 2.451761811971664429e-01 1.789691299200057983e-01 7.419818639755249023e-02
5.160000000000000000e+03 1.326565933227539062e+01 2.303310394287109375e+01 -5.500197876244783401e-03 5.265744030475616455e-02 1.414717268198728561e-02 5.938232410699129105e-03
5.161000000000000000e+03 1.043944263458251953e+01 9.523817062377929688e+00 7.288847863674163818e-02 1.109604090452194214e-01 5.515466630458831787e-02 -2.812856994569301605e-02
5.162000000000000000e+03 1.173535346984863281e+01 1.096376895904541016e+01 4.138247668743133545e-02 1.546754837036132812e-01 5.881738662719726562e-02 2.090006601065397263e-03
5.163000000000000000e+03 1.177778911590576172e+01 1.732814979553222656e+01 3.247505752369761467e-03 7.252904772758483887e-02 2.273296564817428589e-02 3.490698989480733871e-03
5.164000000000000000e+03 6.589734649658203125e+01 -7.832306623458862305e-01 -4.479825869202613831e-02 5.941499233245849609e+00 1.769010305404663086e+00 3.973275721073150635e-01
5.165000000000000000e+03 6.853890991210937500e+01 1.831887245178222656e+01 -8.401740193367004395e-01 7.773320674896240234e+00 2.079943895339965820e+00 1.414236146956682205e-03
5.166000000000000000e+03 1.080089855194091797e+01 1.274281311035156250e+01 2.930046059191226959e-02 9.809119999408721924e-02 3.821749985218048096e-02 -7.127203047275543213e-03
5.167000000000000000e+03 4.404137802124023438e+01 -7.345952033996582031e+00 3.041314184665679932e-01 1.058618187904357910e+00 4.088248908519744873e-01 9.318003058433532715e-02
5.168000000000000000e+03 6.851497650146484375e+01 9.028251647949218750e+00 -2.792999148368835449e-01 6.900169372558593750e+00 1.986260771751403809e+00 2.487244158983230591e-01
5.169000000000000000e+03 6.935632324218750000e+01 1.606825828552246094e+01 -6.407865881919860840e-01 7.620296955108642578e+00 2.093852996826171875e+00 -1.830738596618175507e-02
5.170000000000000000e+03 6.895149993896484375e+01 1.722476577758789062e+01 -7.420774698257446289e-01 7.689031600952148438e+00 2.084086179733276367e+00 -1.887421309947967529e-02
5.171000000000000000e+03 6.531354522705078125e+01 4.394272804260253906e+00 -1.580955088138580322e-01 5.904061317443847656e+00 1.723789811134338379e+00 4.201130270957946777e-01
5.172000000000000000e+03 4.060034179687500000e+01 -5.483386993408203125e+00 3.624067604541778564e-01 4.321592748165130615e-01 2.383698225021362305e-01 7.008302211761474609e-02
5.173000000000000000e+03 6.684448242187500000e+01 1.420271158218383789e+00 -7.682552188634872437e-02 6.226932048797607422e+00 1.845031976699829102e+00 3.794192373752593994e-01
5.174000000000000000e+03 6.547453308105468750e+01 -9.896183967590332031e+00 1.898764632642269135e-02 5.752381324768066406e+00 1.731410622596740723e+00 3.655154705047607422e-01
5.175000000000000000e+03 6.721180725097656250e+01 -1.335670280456542969e+01 9.869425557553768158e-03 6.094316959381103516e+00 1.831255912780761719e+00 3.334763944149017334e-01
5.176000000000000000e+03 6.789215087890625000e+01 6.568315982818603516e+00 -2.069086879491806030e-01 6.640651226043701172e+00 1.930122733116149902e+00 3.184662461280822754e-01
5.177000000000000000e+03 4.476628875732421875e+01 -1.386770915985107422e+01 1.748213917016983032e-01 1.348318696022033691e+00 4.569420516490936279e-01 6.794458720833063126e-03
5.178000000000000000e+03 4.578782653808593750e+01 -1.342833042144775391e+01 1.780889183282852173e-01 1.543248414993286133e+00 5.164012312889099121e-01 2.584191411733627319e-02
5.179000000000000000e+03 6.898577880859375000e+01 2.349701309204101562e+01 -1.096583724021911621e+00 9.028215408325195312e+00 2.379489660263061523e+00 -3.840248584747314453e-01
5.180000000000000000e+03 6.792000579833984375e+01 -5.599845886230468750e+00 -2.018173254327848554e-04 6.344930171966552734e+00 1.903418540954589844e+00 3.510789275169372559e-01
5.181000000000000000e+03 6.794367218017578125e+01 -9.022627830505371094e+00 1.565884426236152649e-02 6.303663730621337891e+00 1.895796775817871094e+00 3.415588736534118652e-01
5.182000000000000000e+03 1.460076141357421875e+01 -2.134753608703613281e+01 1.920075416564941406e-01 -3.645547330379486084e-01 -5.176416039466857910e-02 -3.517629206180572510e-01
5.183000000000000000e+03 4.406489944458007812e+01 -9.541818618774414062e+00 2.897699773311614990e-01 1.113102793693542480e+00 4.208618104457855225e-01 5.601000785827636719e-02
5.184000000000000000e+03 6.789157104492187500e+01 -1.224694442749023438e+01 1.066838018596172333e-02 6.266293048858642578e+00 1.883088469505310059e+00 3.354363441467285156e-01
5.185000000000000000e+03 3.259032440185546875e+01 3.538390731811523438e+01 3.839773312211036682e-02 6.891483068466186523e-02 3.219376876950263977e-02 3.083935379981994629e-02
5.186000000000000000e+03 7.058202362060546875e+01 1.477744483947753906e+01 -4.970566630363464355e-01 7.724279880523681641e+00 2.168166875839233398e+00 -6.959415227174758911e-02
5.187000000000000000e+03 1.178200912475585938e+01 -1.730605697631835938e+01 1.625016629695892334e-01 -5.302461981773376465e-01 -1.103233546018600464e-01 -4.262607991695404053e-01
5.188000000000000000e+03 1.419101047515869141e+01 -1.587180995941162109e+01 2.130976915359497070e-01 -4.529317319393157959e-01 -7.195020467042922974e-02 -4.287124574184417725e-01
5.189000000000000000e+03 4.548453903198242188e+01 -1.143877029418945312e+01 2.307454645633697510e-01 1.435893297195434570e+00 4.999916255474090576e-01 5.572666600346565247e-02
5.190000000000000000e+03 4.518432235717773438e+01 -1.042018795013427734e+01 2.519952952861785889e-01 1.353923201560974121e+00 4.817755520343780518e-01 5.919574201107025146e-02
5.191000000000000000e+03 3.653271865844726562e+01 3.862682723999023438e+01 5.586342886090278625e-02 5.693178623914718628e-02 3.383856266736984253e-02 2.010005339980125427e-02
5.192000000000000000e+03 3.407856369018554688e+01 3.731655502319335938e+01 4.363369196653366089e-02 6.264732033014297485e-02 3.188430145382881165e-02 2.561884000897407532e-02
5.193000000000000000e+03 4.655029296875000000e+01 -1.987476921081542969e+01 -2.289133518934249878e-02 1.833159446716308594e+00 5.430803894996643066e-01 5.285924300551414490e-03
5.194000000000000000e+03 4.704333114624023438e+01 -1.794260597229003906e+01 3.028232231736183167e-02 1.907026290893554688e+00 5.811925530433654785e-01 1.998691074550151825e-02
5.195000000000000000e+03 6.671700286865234375e+01 -2.067977523803710938e+01 2.250711433589458466e-02 5.940703868865966797e+00 1.788963317871093750e+00 3.272604346275329590e-01
5.196000000000000000e+03 6.260604476928710938e+01 -2.431535148620605469e+01 4.877968877553939819e-02 5.144745349884033203e+00 1.558057546615600586e+00 3.560463488101959229e-01
5.197000000000000000e+03 1.302363967895507812e+01 2.666503715515136719e+01 -8.534373715519905090e-03 3.126045316457748413e-02 6.817823741585016251e-03 8.792284061200916767e-04
5.198000000000000000e+03 1.299899864196777344e+01 2.424376487731933594e+01 -7.289836648851633072e-03 4.299456626176834106e-02 1.071141846477985382e-02 2.153814537450671196e-03
5.199000000000000000e+03 6.606582641601562500e+01 -6.518451690673828125e+00 1.644547097384929657e-02 5.911234378814697266e+00 1.778303861618041992e+00 3.695173561573028564e-01
5.200000000000000000e+03 6.693965911865234375e+01 -6.053066730499267578e+00 2.939943224191665649e-03 6.120350360870361328e+00 1.836987018585205078e+00 3.692120313644409180e-01
5.201000000000000000e+03 1.851118659973144531e+01 -2.444663810729980469e+01 2.167238146066665649e-01 -6.514148414134979248e-02 4.547470062971115112e-02 -3.160277009010314941e-01
5.202000000000000000e+03 6.942749023437500000e+01 8.333801269531250000e+00 -2.362946122884750366e-01 7.097624778747558594e+00 2.058398962020874023e+00 2.272197604179382324e-01
5.203000000000000000e+03 6.798384094238281250e+01 -1.973756408691406250e+01 1.690194942057132721e-02 6.194643497467041016e+00 1.863463640213012695e+00 3.213998973369598389e-01
5.204000000000000000e+03 1.095783329010009766e+01 -1.953361320495605469e+01 1.489889025688171387e-01 -5.547364950180053711e-01 -1.217242777347564697e-01 -3.769307732582092285e-01
5.205000000000000000e+03 1.167158222198486328e+01 -2.049168968200683594e+01 1.630221903324127197e-01 -5.314558744430541992e-01 -1.105301082134246826e-01 -3.651370406150817871e-01
5.206000000000000000e+03 1.303198623657226562e+01 -1.682429885864257812e+01 1.808572560548782349e-01 -4.758882522583007812e-01 -8.850929886102676392e-02 -4.260539710521697998e-01
5.207000000000000000e+03 1.146728420257568359e+01 -2.859839630126953125e+01 1.281718611717224121e-01 -5.867428183555603027e-01 -1.375712901353836060e-01 -2.305953502655029297e-01
5.208000000000000000e+03 1.446013736724853516e+01 -2.285121536254882812e+01 1.881226003170013428e-01 -3.662168085575103760e-01 -5.342825874686241150e-02 -3.254918456077575684e-01
5.209000000000000000e+03 6.818292999267578125e+01 -1.566001224517822266e+01 9.233254939317703247e-03 6.292612075805664062e+00 1.890553593635559082e+00 3.185874521732330322e-01
5.210000000000000000e+03 6.342840957641601562e+01 -1.668147087097167969e+01 1.049860939383506775e-02 5.311934947967529297e+00 1.596729993820190430e+00 3.482203483581542969e-01
5.211000000000000000e+03 4.875839233398437500e+01 -2.038010025024414062e+01 -4.414752498269081116e-02 2.374085187911987305e+00 6.989812850952148438e-01 7.425643503665924072e-02
5.212000000000000000e+03 4.858132934570312500e+01 -1.766436004638671875e+01 3.825571015477180481e-02 2.256605625152587891e+00 6.884583830833435059e-01 7.032590359449386597e-02
5.213000000000000000e+03 5.289148712158203125e+01 -1.996142578125000000e+01 -1.093593239784240723e-02 3.235846042633056641e+00 9.674730300903320312e-01 1.929350495338439941e-01
5.214000000000000000e+03 5.912565231323242188e+01 -2.828056144714355469e+01 1.064720973372459412e-01 4.535180568695068359e+00 1.392495751380920410e+00 3.548718690872192383e-01
5.215000000000000000e+03 5.399052047729492188e+01 -2.350268363952636719e+01 -3.088261233642697334e-03 3.567735433578491211e+00 1.069394111633300781e+00 2.632751464843750000e-01
5.216000000000000000e+03 6.561959838867187500e+01 3.007402420043945312e+01 -6.306853294372558594e-01 1.310799026489257812e+01 3.743191242218017578e+00 1.391210198402404785e+00
5.217000000000000000e+03 6.397831726074218750e+01 3.045099067687988281e+01 1.939127743244171143e-01 1.034362411499023438e+01 3.161261081695556641e+00 3.922674417495727539e+00
5.218000000000000000e+03 6.183104324340820312e+01 3.013275909423828125e+01 1.263340115547180176e+00 4.447597980499267578e+00 1.713281393051147461e+00 3.212791204452514648e+00
5.219000000000000000e+03 6.352190017700195312e+01 2.978765106201171875e+01 2.287746667861938477e-01 8.689137458801269531e+00 2.675373554229736328e+00 3.672643184661865234e+00
5.220000000000000000e+03 6.472315216064453125e+01 2.977649688720703125e+01 -5.428694486618041992e-01 1.153581428527832031e+01 3.297883510589599609e+00 2.678816318511962891e+00
5.221000000000000000e+03 2.700063514709472656e+01 1.394456267356872559e+00 -1.243308782577514648e+00 -4.729956686496734619e-01 -5.148913264274597168e-01 -3.948771655559539795e-01
5.222000000000000000e+03 2.815267944335937500e+01 1.456030845642089844e+00 -1.072933793067932129e+00 -5.756344795227050781e-01 -4.945704638957977295e-01 -2.968028783798217773e-01
5.223000000000000000e+03 2.769982719421386719e+01 1.789704799652099609e+00 -1.325503826141357422e+00 -5.856987237930297852e-01 -5.733607411384582520e-01 -4.146187603473663330e-01
5.224000000000000000e+03 4.933773803710937500e+01 2.370479774475097656e+01 -5.886278748512268066e-01 -2.685452438890933990e-02 -1.846447139978408813e-01 -3.556372523307800293e-01
5.225000000000000000e+03 2.844470405578613281e+01 1.950997233390808105e+00 -1.210903167724609375e+00 -6.370517611503601074e-01 -5.543864965438842773e-01 -3.598967492580413818e-01
5.226000000000000000e+03 4.750254440307617188e+01 2.234934234619140625e+01 -6.729618310928344727e-01 -2.352004647254943848e-01 -2.724486887454986572e-01 -4.837903976440429688e-01
5.227000000000000000e+03 4.831791687011718750e+01 2.250250816345214844e+01 -5.977486968040466309e-01 -7.019411027431488037e-02 -2.003828436136245728e-01 -3.786559402942657471e-01
5.228000000000000000e+03 3.865424728393554688e+01 1.217539882659912109e+01 -7.856185436248779297e-01 -6.350739598274230957e-01 -4.262077510356903076e-01 -6.991235017776489258e-01
5.229000000000000000e+03 3.837106323242187500e+01 1.242618846893310547e+01 -8.235767483711242676e-01 -7.013047933578491211e-01 -4.574644565582275391e-01 -7.484844326972961426e-01
5.230000000000000000e+03 6.635823822021484375e+01 3.019589614868164062e+01 -3.524227738380432129e-01 1.348745346069335938e+01 3.940509080886840820e+00 1.905962079763412476e-01
5.231000000000000000e+03 5.698884582519531250e+01 2.850141525268554688e+01 2.158605754375457764e-01 1.373637080192565918e+00 4.768492877483367920e-01 5.605472326278686523e-01
5.232000000000000000e+03 5.876815795898437500e+01 2.778773307800292969e+01 4.637483060359954834e-01 2.519728422164916992e+00 8.950430154800415039e-01 1.361131668090820312e+00
5.233000000000000000e+03 4.974102783203125000e+01 2.478922462463378906e+01 -6.169599294662475586e-01 -1.053401976823806763e-01 -2.166900336742401123e-01 -4.036630094051361084e-01
5.234000000000000000e+03 6.506380462646484375e+01 2.979307937622070312e+01 -6.515023112297058105e-01 1.208395767211914062e+01 3.429736614227294922e+00 2.221141099929809570e+00
5.235000000000000000e+03 4.531417846679687500e+01 2.004107856750488281e+01 -6.789646744728088379e-01 -3.871003389358520508e-01 -3.198195099830627441e-01 -5.897119045257568359e-01
5.236000000000000000e+03 5.449309921264648438e+01 2.770159339904785156e+01 -2.248404324054718018e-01 7.796205282211303711e-01 1.664340198040008545e-01 9.069582074880599976e-02
5.237000000000000000e+03 4.601331710815429688e+01 2.053281021118164062e+01 -6.605598926544189453e-01 -3.206613063812255859e-01 -2.943663597106933594e-01 -5.365118980407714844e-01
5.238000000000000000e+03 2.962876892089843750e+01 2.155244112014770508e+00 -1.032215356826782227e+00 -6.244385838508605957e-01 -4.969961643218994141e-01 -2.527650296688079834e-01
5.239000000000000000e+03 4.325712585449218750e+01 1.767349624633789062e+01 -6.899770498275756836e-01 -4.499891102313995361e-01 -3.419898450374603271e-01 -6.723309755325317383e-01
5.240000000000000000e+03 3.856444931030273438e+01 1.281127834320068359e+01 -8.196163177490234375e-01 -7.029318809509277344e-01 -4.567644596099853516e-01 -7.539916038513183594e-01
5.241000000000000000e+03 2.557586860656738281e+01 2.139694404602050781e+01 4.852648079395294189e-02 1.013576686382293701e-01 4.496524482965469360e-02 7.336252182722091675e-02
5.242000000000000000e+03 4.588055038452148438e+01 1.992732620239257812e+01 -6.257859468460083008e-01 -2.599479556083679199e-01 -2.657201588153839111e-01 -5.062226057052612305e-01
5.243000000000000000e+03 3.921090316772460938e+01 1.316334629058837891e+01 -7.898717522621154785e-01 -6.339682936668395996e-01 -4.271520078182220459e-01 -7.234801054000854492e-01
5.244000000000000000e+03 3.877089691162109375e+01 1.373326492309570312e+01 -8.475661277770996094e-01 -7.589245438575744629e-01 -4.819471836090087891e-01 -8.038000464439392090e-01
5.245000000000000000e+03 4.389216995239257812e+01 1.839225387573242188e+01 -6.744621396064758301e-01 -4.306318461894989014e-01 -3.315282166004180908e-01 -6.467237472534179688e-01
5.246000000000000000e+03 4.639667129516601562e+01 2.103692054748535156e+01 -6.686670780181884766e-01 -3.054982125759124756e-01 -2.922495901584625244e-01 -5.241634249687194824e-01
5.247000000000000000e+03 4.609922790527343750e+01 2.116214561462402344e+01 -7.045150399208068848e-01 -3.816826343536376953e-01 -3.258593082427978516e-01 -5.743682980537414551e-01
5.248000000000000000e+03 5.105468750000000000e+01 2.613686752319335938e+01 -5.686281323432922363e-01 1.513328868895769119e-02 -1.660484522581100464e-01 -3.228161036968231201e-01
5.249000000000000000e+03 2.091368293762207031e+01 1.873848152160644531e+01 4.161712154746055603e-02 1.205266788601875305e-01 4.864313825964927673e-02 7.291497290134429932e-02
5.250000000000000000e+03 3.946249389648437500e+01 1.357432270050048828e+01 -7.936816811561584473e-01 -6.397758722305297852e-01 -4.300372600555419922e-01 -7.287997007369995117e-01
5.251000000000000000e+03 4.439319610595703125e+01 1.894355010986328125e+01 -6.734212636947631836e-01 -4.078213274478912354e-01 -3.243727684020996094e-01 -6.263896226882934570e-01
5.252000000000000000e+03 1.305682754516601562e+01 9.584998130798339844e+00 4.863032326102256775e-02 2.392271459102630615e-01 8.635724335908889771e-02 3.350751474499702454e-02
5.253000000000000000e+03 1.322658824920654297e+01 1.001417160034179688e+01 4.906489700078964233e-02 2.282071560621261597e-01 8.318161964416503906e-02 3.761532530188560486e-02
5.254000000000000000e+03 5.174628829956054688e+01 2.655599975585937500e+01 -5.242477059364318848e-01 1.376030296087265015e-01 -1.159934103488922119e-01 -2.523676156997680664e-01
5.255000000000000000e+03 5.361597442626953125e+01 2.709898948669433594e+01 -3.162746131420135498e-01 6.262085437774658203e-01 9.298017621040344238e-02 1.703796163201332092e-02
5.256000000000000000e+03 4.726590728759765625e+01 2.212722969055175781e+01 -6.805666685104370117e-01 -2.584550678730010986e-01 -2.817065119743347168e-01 -5.018672943115234375e-01
5.257000000000000000e+03 4.911096191406250000e+01 2.292584228515625000e+01 -5.666155815124511719e-01 3.465391322970390320e-02 -1.595885008573532104e-01 -3.118057250976562500e-01
5.258000000000000000e+03 1.713659477233886719e+01 1.489602375030517578e+01 4.202303290367126465e-02 1.502413898706436157e-01 5.767932906746864319e-02 7.662440091371536255e-02
5.259000000000000000e+03 4.065357589721679688e+01 1.531653404235839844e+01 -7.920120358467102051e-01 -6.114326715469360352e-01 -4.210334420204162598e-01 -7.484197616577148438e-01
5.260000000000000000e+03 4.097866821289062500e+01 1.532895278930664062e+01 -7.670249342918395996e-01 -5.635371208190917969e-01 -3.991686105728149414e-01 -7.217015027999877930e-01
5.261000000000000000e+03 5.010421752929687500e+01 2.496197891235351562e+01 -5.847619175910949707e-01 -3.859545662999153137e-02 -1.870072036981582642e-01 -3.573052585124969482e-01
5.262000000000000000e+03 1.758643913269042969e+01 1.359136867523193359e+01 5.872838199138641357e-02 1.638719141483306885e-01 6.678009033203125000e-02 9.417258203029632568e-02
5.263000000000000000e+03 1.785422325134277344e+01 1.407404518127441406e+01 5.637257918715476990e-02 1.579046994447708130e-01 6.428318470716476440e-02 9.139752388000488281e-02
5.264000000000000000e+03 1.927022552490234375e+01 1.705412483215332031e+01 4.260321334004402161e-02 1.312927007675170898e-01 5.216877534985542297e-02 7.500842213630676270e-02
5.265000000000000000e+03 1.986066246032714844e+01 1.751836395263671875e+01 4.354193806648254395e-02 1.276468932628631592e-01 5.135665088891983032e-02 7.554944604635238647e-02
5.266000000000000000e+03 3.758124160766601562e+01 1.157546806335449219e+01 -8.352100849151611328e-01 -7.240621447563171387e-01 -4.677816629409790039e-01 -7.526425123214721680e-01
5.267000000000000000e+03 3.799903106689453125e+01 1.174970531463623047e+01 -8.023894429206848145e-01 -6.759827733039855957e-01 -4.435116648674011230e-01 -7.236520051956176758e-01
5.268000000000000000e+03 6.030825042724609375e+01 2.914504241943359375e+01 9.009276032447814941e-01 3.060214996337890625e+00 1.188342809677124023e+00 2.060633182525634766e+00
5.269000000000000000e+03 4.471368026733398438e+01 1.942131042480468750e+01 -6.825392246246337891e-01 -4.224936962127685547e-01 -3.315098881721496582e-01 -6.218973994255065918e-01
5.270000000000000000e+03 4.501252365112304688e+01 1.987223625183105469e+01 -6.868017911911010742e-01 -4.193522632122039795e-01 -3.318462371826171875e-01 -6.165089011192321777e-01
5.271000000000000000e+03 5.192124557495117188e+01 2.617849731445312500e+01 -4.705188572406768799e-01 2.557556629180908203e-01 -6.442896276712417603e-02 -1.749769598245620728e-01
5.272000000000000000e+03 1.265740966796875000e+01 1.825467872619628906e+01 1.647330704145133495e-03 7.866792380809783936e-02 2.409457601606845856e-02 9.660979732871055603e-03
5.273000000000000000e+03 2.470881462097167969e+01 2.113410568237304688e+01 4.570196196436882019e-02 1.044321730732917786e-01 4.504023864865303040e-02 7.252773642539978027e-02
5.274000000000000000e+03 5.049201583862304688e+01 2.510196876525878906e+01 -5.534833073616027832e-01 4.403911158442497253e-02 -1.528332531452178955e-01 -3.048364520072937012e-01
5.275000000000000000e+03 1.985576629638671875e+01 1.558952045440673828e+01 6.036262586712837219e-02 1.390455663204193115e-01 5.982245504856109619e-02 9.075125306844711304e-02
5.276000000000000000e+03 1.912301635742187500e+01 1.619235992431640625e+01 4.901764541864395142e-02 1.374423503875732422e-01 5.593800172209739685e-02 8.148688822984695435e-02
5.277000000000000000e+03 1.856318664550781250e+01 1.577512454986572266e+01 4.760633409023284912e-02 1.407791078090667725e-01 5.651563405990600586e-02 8.066684007644653320e-02
5.278000000000000000e+03 6.248799133300781250e+01 2.999394989013671875e+01 1.017178773880004883e+00 5.991056442260742188e+00 2.102470636367797852e+00 3.676711559295654297e+00
5.279000000000000000e+03 5.154711151123046875e+01 2.595668792724609375e+01 -4.984542727470397949e-01 1.860245615243911743e-01 -9.372890740633010864e-02 -2.170560657978057861e-01
5.280000000000000000e+03 4.451975631713867188e+01 1.826803779602050781e+01 -6.294626593589782715e-01 -3.110343515872955322e-01 -2.821491062641143799e-01 -5.647245049476623535e-01
5.281000000000000000e+03 5.079887390136718750e+01 2.562657737731933594e+01 -5.611652731895446777e-01 3.840952366590499878e-02 -1.568267345428466797e-01 -3.077445924282073975e-01
5.282000000000000000e+03 5.117136383056640625e+01 2.576949501037597656e+01 -5.308049917221069336e-01 1.108474209904670715e-01 -1.259872615337371826e-01 -2.582876086235046387e-01
5.283000000000000000e+03 6.756163024902343750e+01 3.000009918212890625e+01 7.655557245016098022e-02 1.258824062347412109e+01 3.799438953399658203e+00 -9.347441196441650391e-01
5.284000000000000000e+03 4.059290695190429688e+01 1.459541225433349609e+01 -7.647473812103271484e-01 -5.603681206703186035e-01 -3.975346386432647705e-01 -7.016846537590026855e-01
5.285000000000000000e+03 4.563314437866210938e+01 2.029444885253906250e+01 -6.711864471435546875e-01 -3.608820736408233643e-01 -3.096205592155456543e-01 -5.690711140632629395e-01
5.286000000000000000e+03 4.410612869262695312e+01 1.801134300231933594e+01 -6.482270956039428711e-01 -3.491826951503753662e-01 -2.992229461669921875e-01 -5.964621305465698242e-01
5.287000000000000000e+03 4.298442077636718750e+01 1.711481094360351562e+01 -6.889594793319702148e-01 -4.296696782112121582e-01 -3.355887532234191895e-01 -6.617310047149658203e-01
5.288000000000000000e+03 3.143957901000976562e+01 3.496669054031372070e+00 -1.093055725097656250e+00 -6.036840081214904785e-01 -5.090219378471374512e-01 -3.822461366653442383e-01
5.289000000000000000e+03 3.091803169250488281e+01 3.401792287826538086e+00 -1.172681927680969238e+00 -6.452503204345703125e-01 -5.453796982765197754e-01 -3.959254622459411621e-01
5.290000000000000000e+03 4.715515518188476562e+01 2.161019325256347656e+01 -6.461703181266784668e-01 -2.110326886177062988e-01 -2.571609020233154297e-01 -4.672996699810028076e-01
5.291000000000000000e+03 4.745028305053710938e+01 2.187923049926757812e+01 -6.407534480094909668e-01 -1.799076646566390991e-01 -2.461983412504196167e-01 -4.490043222904205322e-01
5.292000000000000000e+03 4.017660140991210938e+01 1.424127674102783203e+01 -7.741861939430236816e-01 -5.901201367378234863e-01 -4.092918932437896729e-01 -7.129619717597961426e-01
5.293000000000000000e+03 4.162231826782226562e+01 1.584369373321533203e+01 -7.426946759223937988e-01 -5.110058188438415527e-01 -3.761101365089416504e-01 -7.041304111480712891e-01
5.294000000000000000e+03 2.435910987854003906e+01 2.099821281433105469e+01 4.472716152667999268e-02 1.059096604585647583e-01 4.519104585051536560e-02 7.230538129806518555e-02
5.295000000000000000e+03 2.397900772094726562e+01 2.049517059326171875e+01 4.636986181139945984e-02 1.078424528241157532e-01 4.626369476318359375e-02 7.382216304540634155e-02
5.296000000000000000e+03 3.662825012207031250e+01 1.108270454406738281e+01 -8.827949762344360352e-01 -8.127301335334777832e-01 -5.086575150489807129e-01 -8.018584251403808594e-01
5.297000000000000000e+03 3.816874694824218750e+01 1.217695236206054688e+01 -8.238561749458312988e-01 -7.020627260208129883e-01 -4.577756524085998535e-01 -7.455052733421325684e-01
5.298000000000000000e+03 2.989085960388183594e+01 2.662564754486083984e+00 -1.151852965354919434e+00 -6.567732095718383789e-01 -5.425878167152404785e-01 -3.166598677635192871e-01
5.299000000000000000e+03 3.105674552917480469e+01 2.976629018783569336e+00 -1.039924979209899902e+00 -6.081907153129577637e-01 -4.944347143173217773e-01 -3.110388219356536865e-01
5.300000000000000000e+03 2.739082717895507812e+01 1.380418062210083008e+00 -1.206929802894592285e+00 -5.203120708465576172e-01 -5.181725621223449707e-01 -3.579995334148406982e-01
5.301000000000000000e+03 1.152961730957031250e+01 1.263227272033691406e+01 2.799584716558456421e-02 1.209847182035446167e-01 4.469417035579681396e-02 2.615597797557711601e-03
5.302000000000000000e+03 2.242921066284179688e+01 2.031813240051269531e+01 3.930591791868209839e-02 1.111086532473564148e-01 4.512437060475349426e-02 6.966455280780792236e-02
5.303000000000000000e+03 3.787741470336914062e+01 1.139625835418701172e+01 -8.051117062568664551e-01 -6.679614782333374023e-01 -4.419219493865966797e-01 -7.107590436935424805e-01
5.304000000000000000e+03 1.022777557373046875e+01 1.125590133666992188e+01 4.734557121992111206e-02 9.259619563817977905e-02 4.198252782225608826e-02 -1.867021061480045319e-02
5.305000000000000000e+03 1.386478614807128906e+01 1.022978401184082031e+01 5.012129247188568115e-02 2.322223782539367676e-01 8.470310270786285400e-02 5.874510481953620911e-02
5.306000000000000000e+03 3.729758453369140625e+01 1.170606994628906250e+01 -8.689963221549987793e-01 -7.862111330032348633e-01 -4.965622425079345703e-01 -7.956605553627014160e-01
5.307000000000000000e+03 1.212483978271484375e+01 8.243327140808105469e+00 7.283748686313629150e-02 2.503695189952850342e-01 9.696210175752639771e-02 -1.741189882159233093e-02
5.308000000000000000e+03 1.290129947662353516e+01 9.135052680969238281e+00 5.596493557095527649e-02 2.528897225856781006e-01 9.265639632940292358e-02 2.454681321978569031e-02
5.309000000000000000e+03 3.092625045776367188e+01 -1.006724536418914795e-01 -1.921709328889846802e-01 -5.100612044334411621e-01 -2.106696367263793945e-01 2.547423727810382843e-02
5.310000000000000000e+03 3.251838684082031250e+01 -2.410843223333358765e-01 -9.914175420999526978e-02 -4.740091562271118164e-01 -1.719452738761901855e-01 4.352536797523498535e-02
5.311000000000000000e+03 5.568686676025390625e+01 2.843766784667968750e+01 -6.434173882007598877e-02 9.663475751876831055e-01 2.706017494201660156e-01 2.084293216466903687e-01
5.312000000000000000e+03 5.338417816162109375e+01 2.763469505310058594e+01 -4.007216393947601318e-01 4.435679018497467041e-01 1.285387482494115829e-02 -1.093784719705581665e-01
5.313000000000000000e+03 5.935360717773437500e+01 2.849407768249511719e+01 6.503249406814575195e-01 2.562013626098632812e+00 9.637015461921691895e-01 1.552788615226745605e+00
5.314000000000000000e+03 5.966962432861328125e+01 2.846542358398437500e+01 6.694695949554443359e-01 2.868447065353393555e+00 1.061375021934509277e+00 1.728745102882385254e+00
5.315000000000000000e+03 1.978962326049804688e+01 1.807768440246582031e+01 3.843736648559570312e-02 1.242222636938095093e-01 4.879789054393768311e-02 7.101628184318542480e-02
5.316000000000000000e+03 3.718001937866210938e+01 1.074623966217041016e+01 -8.251291513442993164e-01 -7.058824896812438965e-01 -4.593034982681274414e-01 -7.252313494682312012e-01
5.317000000000000000e+03 3.618598556518554688e+01 6.777480125427246094e+00 -7.021894454956054688e-01 -4.795534610748291016e-01 -3.545228540897369385e-01 -4.886124134063720703e-01
5.318000000000000000e+03 3.567677688598632812e+01 8.141355514526367188e+00 -8.127243518829345703e-01 -6.546670198440551758e-01 -4.402174353599548340e-01 -6.538683176040649414e-01
5.319000000000000000e+03 5.991242980957031250e+01 2.893572807312011719e+01 7.908521890640258789e-01 2.790747880935668945e+00 1.074480056762695312e+00 1.814865946769714355e+00
5.320000000000000000e+03 3.267934417724609375e+01 3.664931297302246094e+00 -9.076184034347534180e-01 -5.309215784072875977e-01 -4.315620064735412598e-01 -3.512504994869232178e-01
5.321000000000000000e+03 2.605857276916503906e+01 2.259344863891601562e+01 4.197973757982254028e-02 9.810497611761093140e-02 4.202541336417198181e-02 6.898388266563415527e-02
5.322000000000000000e+03 2.630223846435546875e+01 2.386482048034667969e+01 3.571100160479545593e-02 9.448423981666564941e-02 3.905857354402542114e-02 6.419762223958969116e-02
5.323000000000000000e+03 1.561111450195312500e+01 1.222226142883300781e+01 4.784464836120605469e-02 1.883316040039062500e-01 7.085287570953369141e-02 8.251760900020599365e-02
5.324000000000000000e+03 1.372041511535644531e+01 1.132752990722656250e+01 3.753285482525825500e-02 1.973636895418167114e-01 7.046896219253540039e-02 4.910403490066528320e-02
5.325000000000000000e+03 5.787480163574218750e+01 2.827733612060546875e+01 3.964172303676605225e-01 1.831734061241149902e+00 6.684454083442687988e-01 9.336457252502441406e-01
5.326000000000000000e+03 5.818035125732421875e+01 2.878954315185546875e+01 4.868221282958984375e-01 1.751118421554565430e+00 6.713821887969970703e-01 9.575698375701904297e-01
5.327000000000000000e+03 1.394470882415771484e+01 1.231315612792968750e+01 3.290566056966781616e-02 1.777264773845672607e-01 6.318964064121246338e-02 4.866102337837219238e-02
5.328000000000000000e+03 3.616133117675781250e+01 9.053601264953613281e+00 -8.176309466361999512e-01 -6.807409524917602539e-01 -4.495115578174591064e-01 -6.848804950714111328e-01
5.329000000000000000e+03 4.215042114257812500e+01 1.689215850830078125e+01 -7.443499565124511719e-01 -5.349909067153930664e-01 -3.838022649288177490e-01 -7.348836660385131836e-01
5.330000000000000000e+03 4.228499603271484375e+01 1.645695686340332031e+01 -7.153089046478271484e-01 -4.697937369346618652e-01 -3.555307984352111816e-01 -6.859743595123291016e-01
5.331000000000000000e+03 2.901029586791992188e+01 1.198805928230285645e+00 -8.036919236183166504e-01 -5.462117195129394531e-01 -4.049710929393768311e-01 -1.389633715152740479e-01
5.332000000000000000e+03 5.675534057617187500e+01 2.799799156188964844e+01 1.546678096055984497e-01 1.425847530364990234e+00 4.741545915603637695e-01 5.756580233573913574e-01
5.333000000000000000e+03 1.222228813171386719e+01 8.817048072814941406e+00 6.483988463878631592e-02 2.338496297597885132e-01 8.960685133934020996e-02 -5.077190697193145752e-03
5.334000000000000000e+03 3.591593933105468750e+01 9.679069519042968750e+00 -8.670628070831298828e-01 -7.709790468215942383e-01 -4.914125502109527588e-01 -7.586809992790222168e-01
5.335000000000000000e+03 2.328707313537597656e+01 1.947896575927734375e+01 5.123724043369293213e-02 1.120090708136558533e-01 4.897389188408851624e-02 7.763965427875518799e-02
5.336000000000000000e+03 2.351873779296875000e+01 2.052975845336914062e+01 4.502269625663757324e-02 1.082629486918449402e-01 4.598569124937057495e-02 7.254830747842788696e-02
5.337000000000000000e+03 1.576079940795898438e+01 1.273149967193603516e+01 4.731852561235427856e-02 1.790679395198822021e-01 6.791593879461288452e-02 7.863821834325790405e-02
5.338000000000000000e+03 1.447308158874511719e+01 1.210915088653564453e+01 4.016837105154991150e-02 1.868682354688644409e-01 6.811098009347915649e-02 6.029279902577400208e-02
5.339000000000000000e+03 1.618584442138671875e+01 1.260950565338134766e+01 5.238388106226921082e-02 1.826367229223251343e-01 7.050617784261703491e-02 8.767487853765487671e-02
5.340000000000000000e+03 2.517426872253417969e+01 2.229108619689941406e+01 3.979318216443061829e-02 1.005042493343353271e-01 4.208923131227493286e-02 6.838683784008026123e-02
5.341000000000000000e+03 2.923773574829101562e+01 2.086307048797607422e+00 -1.105560183525085449e+00 -6.478726267814636230e-01 -5.260298252105712891e-01 -2.958872914314270020e-01
5.342000000000000000e+03 2.884038352966308594e+01 2.020877599716186523e+00 -1.134499311447143555e+00 -6.208382844924926758e-01 -5.266013145446777344e-01 -3.011247813701629639e-01
5.343000000000000000e+03 2.156830787658691406e+01 1.852417564392089844e+01 4.714216664433479309e-02 1.197348088026046753e-01 5.006309226155281067e-02 7.705336064100265503e-02
5.344000000000000000e+03 2.292984008789062500e+01 1.909546470642089844e+01 5.195461213588714600e-02 1.144630312919616699e-01 4.992529377341270447e-02 7.966326922178268433e-02
5.345000000000000000e+03 2.618966102600097656e+01 2.320830726623535156e+01 3.989824280142784119e-02 9.634106606245040894e-02 4.087179154157638550e-02 6.667351722717285156e-02
5.346000000000000000e+03 4.256010055541992188e+01 1.700038146972656250e+01 -7.157837748527526855e-01 -4.849360287189483643e-01 -3.602159321308135986e-01 -6.992354393005371094e-01
5.347000000000000000e+03 3.592169570922851562e+01 7.475137710571289062e+00 -7.602124214172363281e-01 -5.672348737716674805e-01 -3.982341885566711426e-01 -5.739312171936035156e-01
5.348000000000000000e+03 3.447873687744140625e+01 7.125570297241210938e+00 -8.786309957504272461e-01 -6.947282552719116211e-01 -4.720077514648437500e-01 -6.780773401260375977e-01
5.349000000000000000e+03 2.840100479125976562e+01 2.762694168090820312e+01 3.269071131944656372e-02 8.364999294281005859e-02 3.490221127867698669e-02 5.441590398550033569e-02
5.350000000000000000e+03 3.079426765441894531e+01 2.900592041015625000e+01 3.507423773407936096e-02 7.894220948219299316e-02 3.420493379235267639e-02 5.307643115520477295e-02
5.351000000000000000e+03 1.747106552124023438e+01 1.401057720184326172e+01 5.264158919453620911e-02 1.586405783891677856e-01 6.338465213775634766e-02 8.845492452383041382e-02
5.352000000000000000e+03 5.270932006835937500e+01 2.666641426086425781e+01 -4.130522906780242920e-01 4.187090694904327393e-01 1.697028521448373795e-03 -9.372759610414505005e-02
5.353000000000000000e+03 2.782509994506835938e+01 9.750698804855346680e-01 -9.231473207473754883e-01 -5.103863477706909180e-01 -4.300600886344909668e-01 -2.397671788930892944e-01
5.354000000000000000e+03 5.928653717041015625e+01 2.809459304809570312e+01 5.589388012886047363e-01 2.737424135208129883e+00 9.889088273048400879e-01 1.566337585449218750e+00
5.355000000000000000e+03 3.565849685668945312e+01 5.721745014190673828e+00 -6.908100843429565430e-01 -4.467171728610992432e-01 -3.412581682205200195e-01 -4.249470531940460205e-01
5.356000000000000000e+03 3.001097488403320312e+01 2.240846395492553711e+00 -1.022967815399169922e+00 -6.373156309127807617e-01 -4.980850219726562500e-01 -2.598798871040344238e-01
5.357000000000000000e+03 2.920478057861328125e+01 2.731515121459960938e+01 3.487015143036842346e-02 8.315910398960113525e-02 3.540877625346183777e-02 5.689722299575805664e-02
5.358000000000000000e+03 2.833113098144531250e+01 2.673518562316894531e+01 3.259466588497161865e-02 8.555766940116882324e-02 3.544570133090019226e-02 5.720452219247817993e-02
5.359000000000000000e+03 6.710679626464843750e+01 2.920153427124023438e+01 -6.150619387626647949e-01 1.220159912109375000e+01 3.475961208343505859e+00 -2.313075661659240723e-01
5.360000000000000000e+03 2.995806312561035156e+01 6.718757748603820801e-01 -5.046161413192749023e-01 -5.600364804267883301e-01 -3.193958103656768799e-01 -6.033881008625030518e-02
5.361000000000000000e+03 2.886735725402832031e+01 2.844532203674316406e+01 3.022234700620174408e-02 8.282200247049331665e-02 3.391330316662788391e-02 5.283359810709953308e-02
5.362000000000000000e+03 2.715865898132324219e+01 2.582837486267089844e+01 3.241660445928573608e-02 8.875232189893722534e-02 3.635067865252494812e-02 5.858446657657623291e-02
5.363000000000000000e+03 2.593450927734375000e+01 2.488729667663574219e+01 3.079216741025447845e-02 9.243731945753097534e-02 3.696884587407112122e-02 5.955527350306510925e-02
5.364000000000000000e+03 3.543409347534179688e+01 7.698134422302246094e+00 -8.160958290100097656e-01 -6.361272931098937988e-01 -4.356669187545776367e-01 -6.377140879631042480e-01
5.365000000000000000e+03 3.152975082397460938e+01 2.950596332550048828e+00 -9.475284814834594727e-01 -5.713961124420166016e-01 -4.556773900985717773e-01 -2.881605327129364014e-01
5.366000000000000000e+03 3.181549072265625000e+01 4.782507121562957764e-01 -2.951886653900146484e-01 -4.987945556640625000e-01 -2.381949722766876221e-01 8.087784051895141602e-03
5.367000000000000000e+03 3.214014434814453125e+01 1.332765519618988037e-01 -2.020787745714187622e-01 -4.832780063152313232e-01 -2.056070268154144287e-01 2.790520712733268738e-02
5.368000000000000000e+03 3.315678787231445312e+01 3.409193754196166992e+00 -7.854331731796264648e-01 -4.886193275451660156e-01 -3.822157382965087891e-01 -2.850184142589569092e-01
5.369000000000000000e+03 1.148717021942138672e+01 8.426161766052246094e+00 8.480770140886306763e-02 1.982537508010864258e-01 8.491843193769454956e-02 -3.490029275417327881e-02
5.370000000000000000e+03 1.164657688140869141e+01 7.504527091979980469e+00 1.020418033003807068e-01 2.411289662122726440e-01 1.029512286186218262e-01 -5.271928012371063232e-02
5.371000000000000000e+03 3.518874740600585938e+01 7.264504909515380859e+00 -8.170666694641113281e-01 -6.272779107093811035e-01 -4.333033561706542969e-01 -6.222575306892395020e-01
5.372000000000000000e+03 3.462937545776367188e+01 6.464035987854003906e+00 -8.468330502510070801e-01 -6.145856976509094238e-01 -4.384256303310394287e-01 -5.983868837356567383e-01
5.373000000000000000e+03 6.797251129150390625e+01 3.090678787231445312e+01 1.296543598175048828e+00 1.277447128295898438e+01 4.221304416656494141e+00 -1.609200716018676758e+00
5.374000000000000000e+03 6.893604278564453125e+01 2.947693061828613281e+01 1.878000944852828979e-01 1.130058574676513672e+01 3.446515798568725586e+00 -1.441815614700317383e+00
5.375000000000000000e+03 6.784709930419921875e+01 2.744147872924804688e+01 -9.578175544738769531e-01 1.074866199493408203e+01 2.937253475189208984e+00 -3.706554770469665527e-01
5.376000000000000000e+03 6.783429718017578125e+01 2.672209739685058594e+01 -1.069561839103698730e+00 1.034037208557128906e+01 2.781243085861206055e+00 -2.475507110357284546e-01
5.377000000000000000e+03 1.860935974121093750e+01 1.441532039642333984e+01 6.136799603700637817e-02 1.515644788742065430e-01 6.387974321842193604e-02 9.397097676992416382e-02
5.378000000000000000e+03 1.892590522766113281e+01 1.558763694763183594e+01 5.272795632481575012e-02 1.422168463468551636e-01 5.848344042897224426e-02 8.522564172744750977e-02
5.379000000000000000e+03 3.528175735473632812e+01 -1.736568331718444824e+00 1.902217715978622437e-01 -2.787031531333923340e-01 -2.654441818594932556e-02 7.614570111036300659e-02
5.380000000000000000e+03 3.439068222045898438e+01 -4.323281049728393555e-01 2.303787739947438240e-03 -3.454065322875976562e-01 -1.029308289289474487e-01 5.578697845339775085e-02
5.381000000000000000e+03 3.386951065063476562e+01 -8.606066703796386719e-01 5.575593188405036926e-02 -3.783274292945861816e-01 -9.677144885063171387e-02 5.773310363292694092e-02
5.382000000000000000e+03 3.068060684204101562e+01 3.862716853618621826e-01 -3.530081510543823242e-01 -5.415585041046142578e-01 -2.683700025081634521e-01 -1.071282289922237396e-02
5.383000000000000000e+03 3.776065444946289062e+01 -3.926722049713134766e+00 3.520080447196960449e-01 6.746544968336820602e-03 1.076263785362243652e-01 6.975058466196060181e-02
5.384000000000000000e+03 3.665932846069335938e+01 -2.012036561965942383e+00 2.232127636671066284e-01 -1.379980593919754028e-01 2.556440979242324829e-02 7.482407987117767334e-02
5.385000000000000000e+03 2.503473281860351562e+01 2.181744194030761719e+01 4.283368214964866638e-02 1.021818444132804871e-01 4.350465908646583557e-02 7.011732459068298340e-02
5.386000000000000000e+03 2.139891433715820312e+01 1.891527938842773438e+01 4.416055977344512939e-02 1.178739741444587708e-01 4.861035943031311035e-02 7.442773878574371338e-02
5.387000000000000000e+03 2.032963371276855469e+01 1.868606376647949219e+01 3.799962624907493591e-02 1.205660849809646606e-01 4.756971448659896851e-02 7.010303437709808350e-02
5.388000000000000000e+03 1.180430412292480469e+01 9.595740318298339844e+00 5.914749950170516968e-02 1.888367384672164917e-01 7.439526915550231934e-02 -8.371924981474876404e-03
5.389000000000000000e+03 3.148787498474121094e+01 3.221829223632812500e+01 3.565533831715583801e-02 7.369598746299743652e-02 3.280539810657501221e-02 4.195791855454444885e-02
5.390000000000000000e+03 2.914874839782714844e+01 2.980010795593261719e+01 3.047918714582920074e-02 7.962805777788162231e-02 3.303217515349388123e-02 4.850749298930168152e-02
5.391000000000000000e+03 1.190229415893554688e+01 1.646571922302246094e+01 5.609091371297836304e-03 8.375423401594161987e-02 2.680899761617183685e-02 6.296744104474782944e-03
5.392000000000000000e+03 6.856389617919921875e+01 2.585637474060058594e+01 -1.061447262763977051e+00 9.899347305297851562e+00 2.651370048522949219e+00 -4.915964901447296143e-01
5.393000000000000000e+03 6.817465972900390625e+01 2.631716346740722656e+01 -1.070583105087280273e+00 1.012677669525146484e+01 2.716858148574829102e+00 -3.734428286552429199e-01
5.394000000000000000e+03 6.857112121582031250e+01 1.408537960052490234e+01 -5.369557142257690430e-01 7.250109672546386719e+00 2.013946056365966797e+00 1.363917589187622070e-01
5.395000000000000000e+03 1.178384685516357422e+01 1.459652900695800781e+01 1.560780964791774750e-02 1.022797971963882446e-01 3.536628186702728271e-02 7.442213594913482666e-03
5.396000000000000000e+03 6.833618164062500000e+01 3.068812370300292969e+01 1.087870717048645020e+00 1.214480400085449219e+01 3.969802379608154297e+00 -1.593810558319091797e+00
5.397000000000000000e+03 6.823722076416015625e+01 2.246139144897460938e+01 -1.113834381103515625e+00 8.635709762573242188e+00 2.256562471389770508e+00 -9.379996359348297119e-02
5.398000000000000000e+03 6.736752319335937500e+01 2.075531768798828125e+01 -1.035094738006591797e+00 8.013445854187011719e+00 2.093505382537841797e+00 1.724990308284759521e-01
5.399000000000000000e+03 6.536273956298828125e+01 -1.151075267791748047e+01 1.724535599350929260e-02 5.708858013153076172e+00 1.717830896377563477e+00 3.616282939910888672e-01
5.400000000000000000e+03 1.272339439392089844e+01 1.126747989654541016e+01 3.871404752135276794e-02 1.789998263120651245e-01 6.531415879726409912e-02 2.270985953509807587e-02
5.401000000000000000e+03 6.753397369384765625e+01 2.707336616516113281e+01 -1.066774606704711914e+00 1.053687095642089844e+01 2.841028928756713867e+00 -1.297619044780731201e-01
5.402000000000000000e+03 6.737347412109375000e+01 2.001673889160156250e+01 -9.900681972503662109e-01 7.855558872222900391e+00 2.059647321701049805e+00 1.772085726261138916e-01
5.403000000000000000e+03 1.271295547485351562e+01 1.573961734771728516e+01 9.189458563923835754e-03 1.043635383248329163e-01 3.406589850783348083e-02 1.565279811620712280e-02
5.404000000000000000e+03 1.205649280548095703e+01 1.574418258666992188e+01 9.019934572279453278e-03 9.157005697488784790e-02 3.017699718475341797e-02 8.853855542838573456e-03
5.405000000000000000e+03 6.680575561523437500e+01 1.921360015869140625e+01 -9.267436265945434570e-01 7.508323669433593750e+00 1.974474072456359863e+00 2.956271469593048096e-01
5.406000000000000000e+03 6.600133514404296875e+01 6.871004104614257812e-01 -6.228385120630264282e-02 5.999340534210205078e+00 1.781116962432861328e+00 3.992258906364440918e-01
5.407000000000000000e+03 6.513600921630859375e+01 -7.249744236469268799e-02 -4.679751396179199219e-02 5.782571315765380859e+00 1.720732092857360840e+00 4.149447977542877197e-01
5.408000000000000000e+03 1.266491794586181641e+01 1.735299682617187500e+01 3.714877646416425705e-03 8.711199462413787842e-02 2.724806033074855804e-02 1.241922378540039062e-02
5.409000000000000000e+03 1.193520545959472656e+01 2.038170814514160156e+01 -5.251752678304910660e-03 5.249363929033279419e-02 1.417256612330675125e-02 9.931094245985150337e-04
5.410000000000000000e+03 3.839945220947265625e+01 -3.337904453277587891e+00 3.124999701976776123e-01 8.486543595790863037e-02 1.192096248269081116e-01 7.840501517057418823e-02
5.411000000000000000e+03 6.425677490234375000e+01 -9.358962178230285645e-01 -3.001801855862140656e-02 5.546471595764160156e+00 1.654936075210571289e+00 4.217475056648254395e-01
5.412000000000000000e+03 4.066963577270507812e+01 -4.241064071655273438e+00 3.239403963088989258e-01 4.227815866470336914e-01 2.240165919065475464e-01 9.717039018869400024e-02
5.413000000000000000e+03 6.700379943847656250e+01 5.832452297210693359e+00 -1.934658139944076538e-01 6.383528709411621094e+00 1.857018828392028809e+00 3.603489100933074951e-01
5.414000000000000000e+03 6.425653076171875000e+01 7.116171360015869141e+00 -2.436324208974838257e-01 5.725529193878173828e+00 1.644569039344787598e+00 4.609524905681610107e-01
5.415000000000000000e+03 6.740065002441406250e+01 2.154424667358398438e+01 -1.086789608001708984e+00 8.203363418579101562e+00 2.134972095489501953e+00 1.642700582742691040e-01
5.416000000000000000e+03 6.815213775634765625e+01 2.323647117614746094e+01 -1.144635915756225586e+00 8.862720489501953125e+00 2.315425395965576172e+00 -1.053006350994110107e-01
5.417000000000000000e+03 4.408638381958007812e+01 -8.436986923217773438e+00 2.999937236309051514e-01 1.088415265083312988e+00 4.165227115154266357e-01 7.926890254020690918e-02
5.418000000000000000e+03 6.780322265625000000e+01 8.162585258483886719e+00 -2.582606375217437744e-01 6.677594184875488281e+00 1.925800085067749023e+00 3.039556741714477539e-01
5.419000000000000000e+03 6.510472106933593750e+01 -1.561376690864562988e+00 -2.932045795023441315e-02 5.736849308013916016e+00 1.712258577346801758e+00 4.042298793792724609e-01
5.420000000000000000e+03 6.579508972167968750e+01 -2.131683349609375000e+00 -1.555598713457584381e-02 5.921326637268066406e+00 1.771731257438659668e+00 3.929866552352905273e-01
5.421000000000000000e+03 1.156560993194580078e+01 1.338884639739990234e+01 2.269407920539379120e-02 1.083133742213249207e-01 3.930223360657691956e-02 3.018678864464163780e-03
5.422000000000000000e+03 1.221954822540283203e+01 1.336301517486572266e+01 2.202036790549755096e-02 1.282940804958343506e-01 4.509433358907699585e-02 1.425859052687883377e-02
5.423000000000000000e+03 6.745106506347656250e+01 1.270298480987548828e+01 -4.919149577617645264e-01 6.871478557586669922e+00 1.913869142532348633e+00 2.608964741230010986e-01
5.424000000000000000e+03 6.841204833984375000e+01 1.296093559265136719e+01 -4.909382462501525879e-01 7.119276046752929688e+00 1.988501310348510742e+00 1.805235594511032104e-01
5.425000000000000000e+03 6.739487457275390625e+01 1.936851310729980469e+01 -9.459819793701171875e-01 7.714532375335693359e+00 2.030565023422241211e+00 1.875178962945938110e-01
5.426000000000000000e+03 6.745004272460937500e+01 1.785125160217285156e+01 -8.255352973937988281e-01 7.456158161163330078e+00 1.989186882972717285e+00 1.788796335458755493e-01
5.427000000000000000e+03 3.368227767944335938e+01 3.425540542602539062e+01 4.220734909176826477e-02 6.802159547805786133e-02 3.306868299841880798e-02 3.778488188982009888e-02
5.428000000000000000e+03 6.961782836914062500e+01 1.407152271270751953e+01 -4.996175169944763184e-01 7.472592830657958984e+00 2.091892480850219727e+00 4.347897693514823914e-02
5.429000000000000000e+03 6.534977722167968750e+01 -3.423627138137817383e+00 -1.269973255693912506e-02 5.770401000976562500e+00 1.727310299873352051e+00 3.996091783046722412e-01
5.430000000000000000e+03 6.643166351318359375e+01 -5.170258998870849609e+00 5.354492459446191788e-04 6.010765552520751953e+00 1.803390264511108398e+00 3.743550181388854980e-01
5.431000000000000000e+03 6.622694396972656250e+01 -1.071287727355957031e+01 2.316061966121196747e-02 5.902996540069580078e+00 1.777847051620483398e+00 3.490206003189086914e-01
5.432000000000000000e+03 4.628844070434570312e+01 -1.431857013702392578e+01 1.455411463975906372e-01 1.655374646186828613e+00 5.402747392654418945e-01 3.039371035993099213e-02
5.433000000000000000e+03 1.359408855438232422e+01 2.378731536865234375e+01 -7.126283366233110428e-03 5.215496569871902466e-02 1.350860483944416046e-02 6.511130835860967636e-03
5.434000000000000000e+03 1.354991149902343750e+01 2.453971099853515625e+01 -6.733644288033246994e-03 4.641062021255493164e-02 1.190309226512908936e-02 5.911223590373992920e-03
5.435000000000000000e+03 6.547817230224609375e+01 -2.178110885620117188e+01 2.066647820174694061e-02 5.713303089141845703e+00 1.720190882682800293e+00 3.380269408226013184e-01
5.436000000000000000e+03 4.291026687622070312e+01 -6.460771560668945312e+00 3.253218531608581543e-01 8.299885392189025879e-01 3.465931117534637451e-01 8.885668963193893433e-02
5.437000000000000000e+03 4.194718551635742188e+01 -4.002766132354736328e+00 2.998339831829071045e-01 6.253815293312072754e-01 2.775646448135375977e-01 1.208840161561965942e-01
5.438000000000000000e+03 6.868696594238281250e+01 7.427868843078613281e+00 -2.179155200719833374e-01 6.862099647521972656e+00 1.993255138397216797e+00 2.716583907604217529e-01
5.439000000000000000e+03 4.682372665405273438e+01 -1.527044010162353516e+01 1.078300252556800842e-01 1.798129320144653320e+00 5.717877745628356934e-01 3.458540141582489014e-02
5.440000000000000000e+03 1.486299419403076172e+01 -2.465917205810546875e+01 1.894516199827194214e-01 -3.475965857505798340e-01 -4.744349047541618347e-02 -3.116247355937957764e-01
5.441000000000000000e+03 1.154766368865966797e+01 -2.694336700439453125e+01 1.297592669725418091e-01 -5.723177194595336914e-01 -1.327675282955169678e-01 -2.490122020244598389e-01
5.442000000000000000e+03 4.422967910766601562e+01 -1.830795860290527344e+01 2.734197489917278290e-02 1.292632699012756348e+00 3.959923982620239258e-01 -2.480893023312091827e-02
5.443000000000000000e+03 4.762920761108398438e+01 -1.983096885681152344e+01 -2.767167426645755768e-02 2.098555803298950195e+00 6.212652325630187988e-01 2.981817163527011871e-02
5.444000000000000000e+03 6.690911865234375000e+01 8.869218826293945312e+00 -2.976629436016082764e-01 6.490504264831542969e+00 1.857852339744567871e+00 3.399672508239746094e-01
5.445000000000000000e+03 4.296293640136718750e+01 -7.513681411743164062e+00 3.318275511264801025e-01 8.609789609909057617e-01 3.578419685363769531e-01 7.724338769912719727e-02
5.446000000000000000e+03 1.598033237457275391e+01 -2.893711471557617188e+01 1.970760077238082886e-01 -2.810110449790954590e-01 -2.518051303923130035e-02 -2.623412013053894043e-01
5.447000000000000000e+03 1.006899166107177734e+01 -2.700967407226562500e+01 1.112692207098007202e-01 -6.768144965171813965e-01 -1.696635782718658447e-01 -2.491689175367355347e-01
5.448000000000000000e+03 1.401048851013183594e+01 2.243551635742187500e+01 -5.355132278054952621e-03 6.357641518115997314e-02 1.746638491749763489e-02 1.114276517182588577e-02
5.449000000000000000e+03 1.472065734863281250e+01 2.303495788574218750e+01 -4.124199040234088898e-03 6.640181690454483032e-02 1.868328452110290527e-02 1.321170851588249207e-02
5.450000000000000000e+03 6.501907348632812500e+01 -1.337288856506347656e+01 2.801226079463958740e-02 5.642437934875488281e+00 1.701135039329528809e+00 3.592568039894104004e-01
5.451000000000000000e+03 6.543181610107421875e+01 -1.502979278564453125e+01 2.072694338858127594e-02 5.713128566741943359e+00 1.720156669616699219e+00 3.426823318004608154e-01
5.452000000000000000e+03 5.372216033935546875e+01 -1.702876281738281250e+01 4.132670164108276367e-02 3.344709634780883789e+00 1.015810966491699219e+00 2.259603440761566162e-01
5.453000000000000000e+03 6.491294097900390625e+01 -4.871227741241455078e+00 6.579018663614988327e-03 5.657094478607177734e+00 1.699102044105529785e+00 3.904509246349334717e-01
5.454000000000000000e+03 6.551496887207031250e+01 -5.712364196777343750e+00 7.455983199179172516e-03 5.790807723999023438e+00 1.739479184150695801e+00 3.832989633083343506e-01
5.455000000000000000e+03 6.650836944580078125e+01 -7.292623519897460938e+00 1.973148249089717865e-02 6.015504360198974609e+00 1.810570716857910156e+00 3.611220121383666992e-01
5.456000000000000000e+03 4.601145172119140625e+01 -1.874256324768066406e+01 6.231189705431461334e-03 1.699719190597534180e+00 5.117851495742797852e-01 -1.180726569145917892e-03
5.457000000000000000e+03 5.173120117187500000e+01 -1.849293899536132812e+01 8.573703467845916748e-03 2.945298671722412109e+00 8.861617445945739746e-01 1.607903093099594116e-01
5.458000000000000000e+03 4.983843612670898438e+01 -1.661191177368164062e+01 5.985946953296661377e-02 2.498582124710083008e+00 7.675325274467468262e-01 1.054088398814201355e-01
5.459000000000000000e+03 5.277264404296875000e+01 -1.742761802673339844e+01 3.510402888059616089e-02 3.148757457733154297e+00 9.551584124565124512e-01 1.921789944171905518e-01
5.460000000000000000e+03 6.613182067871093750e+01 -1.257472991943359375e+01 2.176235616207122803e-02 5.867909908294677734e+00 1.766901612281799316e+00 3.497982621192932129e-01
5.461000000000000000e+03 3.294795227050781250e+01 3.327245712280273438e+01 3.940280154347419739e-02 7.137412577867507935e-02 3.323308005928993225e-02 3.922579810023307800e-02
5.462000000000000000e+03 6.416088867187500000e+01 2.938679885864257812e+01 -3.351090252399444580e-01 9.978749275207519531e+00 2.893092155456542969e+00 3.043796062469482422e+00
5.463000000000000000e+03 4.915208435058593750e+01 2.338442993164062500e+01 -5.841170549392700195e-01 -2.396265044808387756e-02 -1.824239045381546021e-01 -3.499993979930877686e-01
5.464000000000000000e+03 2.853718757629394531e+01 1.528272032737731934e+00 -9.971835613250732422e-01 -5.676582455635070801e-01 -4.694525301456451416e-01 -2.274152636528015137e-01
5.465000000000000000e+03 4.768718338012695312e+01 2.216031455993652344e+01 -6.435993313789367676e-01 -1.721886545419692993e-01 -2.447363883256912231e-01 -4.428354203701019287e-01
5.466000000000000000e+03 4.909379959106445312e+01 2.245246887207031250e+01 -5.302807688713073730e-01 1.127307415008544922e-01 -1.252650022506713867e-01 -2.671920061111450195e-01
5.467000000000000000e+03 4.967329406738281250e+01 2.390021133422851562e+01 -5.762554407119750977e-01 1.104972884058952332e-02 -1.695617139339447021e-01 -3.218392729759216309e-01
5.468000000000000000e+03 4.778895187377929688e+01 2.110347557067871094e+01 -5.601554512977600098e-01 -1.374357030726969242e-03 -1.684589385986328125e-01 -3.395090699195861816e-01
5.469000000000000000e+03 4.622625350952148438e+01 2.017703628540039062e+01 -6.176039576530456543e-01 -2.135127484798431396e-01 -2.493350207805633545e-01 -4.771563708782196045e-01
5.470000000000000000e+03 6.591934967041015625e+01 2.981048774719238281e+01 -6.734278798103332520e-01 1.282221508026123047e+01 3.644636154174804688e+00 9.397803544998168945e-01
5.471000000000000000e+03 3.083407402038574219e+01 2.858664751052856445e+00 -1.051322698593139648e+00 -6.255859136581420898e-01 -5.030725598335266113e-01 -2.935702800750732422e-01
5.472000000000000000e+03 4.425008392333984375e+01 1.860810279846191406e+01 -6.618978381156921387e-01 -3.980417847633361816e-01 -3.179818987846374512e-01 -6.194229125976562500e-01
5.473000000000000000e+03 4.551423263549804688e+01 1.969646453857421875e+01 -6.362336874008178711e-01 -3.022846579551696777e-01 -2.815555036067962646e-01 -5.352064371109008789e-01
5.474000000000000000e+03 6.219417190551757812e+01 3.007285690307617188e+01 1.143517017364501953e+00 5.206405639648437500e+00 1.904976844787597656e+00 3.447021722793579102e+00
5.475000000000000000e+03 4.652622222900390625e+01 2.040604400634765625e+01 -6.149016618728637695e-01 -1.861416697502136230e-01 -2.403129935264587402e-01 -4.535520672798156738e-01
5.476000000000000000e+03 4.637652587890625000e+01 2.069043540954589844e+01 -6.422816514968872070e-01 -2.619102597236633301e-01 -2.712575495243072510e-01 -4.998371005058288574e-01
5.477000000000000000e+03 3.983339691162109375e+01 1.292747592926025391e+01 -7.287653088569641113e-01 -5.221535563468933105e-01 -3.752756416797637939e-01 -6.484907269477844238e-01
5.478000000000000000e+03 6.683060455322265625e+01 2.933954429626464844e+01 -6.417782306671142578e-01 1.230916786193847656e+01 3.500216722488403320e+00 -1.969255041331052780e-03
5.479000000000000000e+03 5.022555541992187500e+01 2.455273437500000000e+01 -5.418557524681091309e-01 7.692114263772964478e-02 -1.394803822040557861e-01 -2.884030640125274658e-01
5.480000000000000000e+03 5.570242309570312500e+01 2.746302223205566406e+01 -1.033583469688892365e-02 1.215859889984130859e+00 3.616572320461273193e-01 4.001595377922058105e-01
5.481000000000000000e+03 5.587188339233398438e+01 2.804146003723144531e+01 -2.804749878123402596e-03 1.125370621681213379e+00 3.367697596549987793e-01 3.325021564960479736e-01
5.482000000000000000e+03 3.969952392578125000e+01 1.396411132812500000e+01 -7.939961552619934082e-01 -6.384385228157043457e-01 -4.297304153442382812e-01 -7.345938086509704590e-01
5.483000000000000000e+03 4.342369461059570312e+01 1.724179077148437500e+01 -6.607302427291870117e-01 -3.731577694416046143e-01 -3.101663887500762939e-01 -6.204077005386352539e-01
5.484000000000000000e+03 5.230429458618164062e+01 2.642116546630859375e+01 -4.422428607940673828e-01 3.323948979377746582e-01 -3.295439109206199646e-02 -1.329732835292816162e-01
5.485000000000000000e+03 5.414690017700195312e+01 2.604352188110351562e+01 -2.058803439140319824e-01 9.885135889053344727e-01 2.347899675369262695e-01 2.520055472850799561e-01
5.486000000000000000e+03 4.368437194824218750e+01 1.782314872741699219e+01 -6.668946146965026855e-01 -3.969751894474029541e-01 -3.191609382629394531e-01 -6.323525905609130859e-01
5.487000000000000000e+03 3.911154556274414062e+01 1.110090351104736328e+01 -6.935081481933593750e-01 -4.666686356067657471e-01 -3.480530381202697754e-01 -5.783470869064331055e-01
5.488000000000000000e+03 2.452539443969726562e+01 2.190645599365234375e+01 3.935739398002624512e-02 1.029330119490623474e-01 4.268712177872657776e-02 6.855585426092147827e-02
5.489000000000000000e+03 1.878861999511718750e+01 1.753322792053222656e+01 3.577109053730964661e-02 1.279416233301162720e-01 4.911381378769874573e-02 6.831178069114685059e-02
5.490000000000000000e+03 1.919273757934570312e+01 1.661345863342285156e+01 4.572787508368492126e-02 1.343975812196731567e-01 5.403763800859451294e-02 7.796025276184082031e-02
5.491000000000000000e+03 1.747081947326660156e+01 1.685692787170410156e+01 2.988015674054622650e-02 1.316908001899719238e-01 4.847128689289093018e-02 6.243985891342163086e-02
5.492000000000000000e+03 4.312987136840820312e+01 1.667162132263183594e+01 -6.602850556373596191e-01 -3.575338721275329590e-01 -3.053456842899322510e-01 -6.122968196868896484e-01
5.493000000000000000e+03 4.387623596191406250e+01 1.739151191711425781e+01 -6.337476968765258789e-01 -3.120566606521606445e-01 -2.837413251399993896e-01 -5.802423954010009766e-01
5.494000000000000000e+03 5.247048568725585938e+01 2.599489402770996094e+01 -3.926974833011627197e-01 4.605998098850250244e-01 2.037070319056510925e-02 -5.314975604414939880e-02
5.495000000000000000e+03 4.480081939697265625e+01 1.898104476928710938e+01 -6.450992226600646973e-01 -3.518910109996795654e-01 -2.990970611572265625e-01 -5.792730450630187988e-01
5.496000000000000000e+03 5.060651016235351562e+01 2.463952827453613281e+01 -5.091465711593627930e-01 1.587071418762207031e-01 -1.051318198442459106e-01 -2.328798174858093262e-01
5.497000000000000000e+03 4.062356948852539062e+01 1.498293018341064453e+01 -7.767789959907531738e-01 -5.875582098960876465e-01 -4.093011617660522461e-01 -7.263261675834655762e-01
5.498000000000000000e+03 4.952775955200195312e+01 2.334830665588378906e+01 -5.349537730216979980e-01 9.393052756786346436e-02 -1.323069781064987183e-01 -2.778934836387634277e-01
5.499000000000000000e+03 4.789802551269531250e+01 2.196635818481445312e+01 -6.095455884933471680e-01 -1.003276333212852478e-01 -2.129619717597961426e-01 -3.969672024250030518e-01
5.500000000000000000e+03 4.813904953002929688e+01 2.180106735229492188e+01 -5.758536458015441895e-01 -2.459889091551303864e-02 -1.801357716321945190e-01 -3.485485017299652100e-01
5.501000000000000000e+03 5.329708862304687500e+01 2.640213775634765625e+01 -3.179430663585662842e-01 6.456344127655029297e-01 9.830741584300994873e-02 4.453670233488082886e-02
5.502000000000000000e+03 4.512157440185546875e+01 1.952484703063964844e+01 -6.572389602661132812e-01 -3.581288158893585205e-01 -3.046103119850158691e-01 -5.791561007499694824e-01
5.503000000000000000e+03 5.089624023437500000e+01 2.520911026000976562e+01 -5.131000280380249023e-01 1.334656774997711182e-01 -1.138903126120567322e-01 -2.433358132839202881e-01
5.504000000000000000e+03 5.129174423217773438e+01 2.536142158508300781e+01 -4.840892255306243896e-01 2.147423923015594482e-01 -8.080404996871948242e-02 -1.944270581007003784e-01
5.505000000000000000e+03 5.747133255004882812e+01 2.815373229980468750e+01 3.112382888793945312e-01 1.677610039710998535e+00 5.966544747352600098e-01 8.019767403602600098e-01
5.506000000000000000e+03 5.642409515380859375e+01 2.782327651977539062e+01 1.095452234148979187e-01 1.364617943763732910e+00 4.422489404678344727e-01 5.226443409919738770e-01
5.507000000000000000e+03 1.929251670837402344e+01 1.752287483215332031e+01 3.941351547837257385e-02 1.285063028335571289e-01 5.037594586610794067e-02 7.196979224681854248e-02
5.508000000000000000e+03 4.099304199218750000e+01 1.495179176330566406e+01 -7.481191158294677734e-01 -5.291171669960021973e-01 -3.831708729267120361e-01 -6.919873356819152832e-01
5.509000000000000000e+03 4.200653839111328125e+01 1.592478561401367188e+01 -7.150191068649291992e-01 -4.592614769935607910e-01 -3.522841632366180420e-01 -6.723420023918151855e-01
5.510000000000000000e+03 1.340137577056884766e+01 1.043707942962646484e+01 4.306292906403541565e-02 2.174643725156784058e-01 7.815819233655929565e-02 4.393368214368820190e-02
5.511000000000000000e+03 3.757959747314453125e+01 1.105057716369628906e+01 -8.052369952201843262e-01 -6.750789880752563477e-01 -4.440947771072387695e-01 -7.115322947502136230e-01
5.512000000000000000e+03 3.820392990112304688e+01 1.117891025543212891e+01 -7.686095237731933594e-01 -6.072477698326110840e-01 -4.127571880817413330e-01 -6.704908013343811035e-01
5.513000000000000000e+03 6.104396057128906250e+01 2.927137565612792969e+01 9.490392804145812988e-01 3.814927816390991211e+00 1.429190158843994141e+00 2.529056787490844727e+00
5.514000000000000000e+03 2.399512100219726562e+01 2.147655487060546875e+01 3.952674940228462219e-02 1.051132157444953918e-01 4.339199140667915344e-02 6.884800642728805542e-02
5.515000000000000000e+03 2.397033882141113281e+01 2.099351882934570312e+01 4.409747570753097534e-02 1.062296926975250244e-01 4.509814828634262085e-02 7.153186947107315063e-02
5.516000000000000000e+03 4.133677673339843750e+01 1.536407566070556641e+01 -7.434138655662536621e-01 -5.095158815383911133e-01 -3.758789300918579102e-01 -6.925538182258605957e-01
5.517000000000000000e+03 4.171596527099609375e+01 1.541318798065185547e+01 -7.150067090988159180e-01 -4.546526968479156494e-01 -3.508978188037872314e-01 -6.600047349929809570e-01
5.518000000000000000e+03 5.833658599853515625e+01 2.789482307434082031e+01 4.315715134143829346e-01 2.216730594635009766e+00 7.944906353950500488e-01 1.178882122039794922e+00
5.519000000000000000e+03 4.768546295166015625e+01 2.165270042419433594e+01 -6.048829555511474609e-01 -1.065749973058700562e-01 -2.134373933076858521e-01 -4.006272256374359131e-01
5.520000000000000000e+03 3.787604141235351562e+01 1.077430057525634766e+01 -7.754002809524536133e-01 -6.184824109077453613e-01 -4.181648194789886475e-01 -6.674956083297729492e-01
5.521000000000000000e+03 1.922237777709960938e+01 1.802062988281250000e+01 3.478848189115524292e-02 1.245810315012931824e-01 4.781085252761840820e-02 6.750348210334777832e-02
5.522000000000000000e+03 1.357144546508789062e+01 1.087253665924072266e+01 4.341790080070495605e-02 2.071284353733062744e-01 7.516390085220336914e-02 4.585373401641845703e-02
5.523000000000000000e+03 2.184364509582519531e+01 1.907769012451171875e+01 4.534646123647689819e-02 1.164896115660667419e-01 4.855082184076309204e-02 7.487227022647857666e-02
5.524000000000000000e+03 1.306308364868164062e+01 1.380430030822753906e+01 1.966561377048492432e-02 1.370792686939239502e-01 4.702346399426460266e-02 2.601278387010097504e-02
5.525000000000000000e+03 3.661802291870117188e+01 1.005493450164794922e+01 -8.318545818328857422e-01 -7.153823971748352051e-01 -4.641710817813873291e-01 -7.230498194694519043e-01
5.526000000000000000e+03 3.749076080322265625e+01 1.036970138549804688e+01 -7.819459438323974609e-01 -6.339415311813354492e-01 -4.247662425041198730e-01 -6.727434992790222168e-01
5.527000000000000000e+03 3.855196380615234375e+01 1.154941082000732422e+01 -7.620288729667663574e-01 -5.916198492050170898e-01 -4.060946106910705566e-01 -6.634108424186706543e-01
5.528000000000000000e+03 3.591893386840820312e+01 8.592222213745117188e+00 -8.157674670219421387e-01 -6.649580597877502441e-01 -4.442176520824432373e-01 -6.690031290054321289e-01
5.529000000000000000e+03 3.688876342773437500e+01 9.368061065673828125e+00 -7.769854068756103516e-01 -6.210975646972656250e-01 -4.194248914718627930e-01 -6.462160348892211914e-01
5.530000000000000000e+03 2.295932769775390625e+01 2.017059898376464844e+01 4.416407644748687744e-02 1.107841953635215759e-01 4.648448154330253601e-02 7.277443259954452515e-02
5.531000000000000000e+03 3.509673690795898438e+01 6.105043888092041016e+00 -7.822835445404052734e-01 -5.245807766914367676e-01 -3.920592963695526123e-01 -5.142745375633239746e-01
5.532000000000000000e+03 3.664186096191406250e+01 8.877834320068359375e+00 -7.717826366424560547e-01 -6.050238013267517090e-01 -4.130419194698333740e-01 -6.283492445945739746e-01
5.533000000000000000e+03 5.475967407226562500e+01 2.731358146667480469e+01 -1.655282676219940186e-01 9.343688488006591797e-01 2.306521683931350708e-01 2.025294601917266846e-01
5.534000000000000000e+03 3.640133285522460938e+01 8.404517173767089844e+00 -7.656484842300415039e-01 -5.943483114242553711e-01 -4.079990386962890625e-01 -6.109602451324462891e-01
5.535000000000000000e+03 5.314410400390625000e+01 2.689437484741210938e+01 -3.734684586524963379e-01 5.113853812217712402e-01 4.137507826089859009e-02 -4.534375667572021484e-02
5.536000000000000000e+03 1.254030323028564453e+01 9.823017120361328125e+00 5.134898796677589417e-02 2.143569439649581909e-01 7.971177995204925537e-02 1.436637062579393387e-02
5.537000000000000000e+03 4.269932937622070312e+01 1.656031036376953125e+01 -6.887669563293457031e-01 -4.144110977649688721e-01 -3.309534192085266113e-01 -6.510417461395263672e-01
5.538000000000000000e+03 4.240815353393554688e+01 1.601367759704589844e+01 -6.887603998184204102e-01 -4.037468433380126953e-01 -3.277521729469299316e-01 -6.395618319511413574e-01
5.539000000000000000e+03 1.511366653442382812e+01 1.243628597259521484e+01 4.335167631506919861e-02 1.833028644323348999e-01 6.799636036157608032e-02 7.036418467760086060e-02
5.540000000000000000e+03 1.629272270202636719e+01 1.221422958374023438e+01 5.658046901226043701e-02 1.865193247795104980e-01 7.292994111776351929e-02 9.413190186023712158e-02
5.541000000000000000e+03 1.650345420837402344e+01 1.310700607299804688e+01 5.007702112197875977e-02 1.735848188400268555e-01 6.709855794906616211e-02 8.583095669746398926e-02
5.542000000000000000e+03 1.333273124694824219e+01 1.197554969787597656e+01 3.187074884772300720e-02 1.758328229188919067e-01 6.231107190251350403e-02 3.706961125135421753e-02
5.543000000000000000e+03 6.003472518920898438e+01 2.856216621398925781e+01 7.167128324508666992e-01 3.092095613479614258e+00 1.142642498016357422e+00 1.903698563575744629e+00
5.544000000000000000e+03 2.893039131164550781e+01 1.601567029953002930e+00 -9.685850143432617188e-01 -6.093602180480957031e-01 -4.733835756778717041e-01 -2.399549335241317749e-01
5.545000000000000000e+03 2.982242584228515625e+01 1.205267786979675293e+00 -6.814131140708923340e-01 -5.555903911590576172e-01 -3.711010515689849854e-01 -9.944523125886917114e-02
5.546000000000000000e+03 1.340131568908691406e+01 1.566269302368164062e+01 1.273681037127971649e-02 1.160652264952659607e-01 3.864061087369918823e-02 2.438724972307682037e-02
5.547000000000000000e+03 1.689085769653320312e+01 1.427539157867431641e+01 4.452919587492942810e-02 1.568941175937652588e-01 6.042699515819549561e-02 7.916317135095596313e-02
5.548000000000000000e+03 2.303659629821777344e+01 2.065201568603515625e+01 4.083488509058952332e-02 1.093586236238479614e-01 4.505805298686027527e-02 7.043471932411193848e-02
5.549000000000000000e+03 6.810437774658203125e+01 2.958225631713867188e+01 -2.443812042474746704e-02 1.188104248046875000e+01 3.556981325149536133e+00 -1.108576536178588867e+00
5.550000000000000000e+03 1.605557632446289062e+01 1.304105854034423828e+01 4.592447355389595032e-02 1.736130118370056152e-01 6.586124747991561890e-02 8.071783185005187988e-02
5.551000000000000000e+03 1.588604354858398438e+01 1.416006278991699219e+01 3.613072261214256287e-02 1.576280742883682251e-01 5.812763795256614685e-02 6.757668405771255493e-02
5.552000000000000000e+03 2.938158607482910156e+01 1.200436830520629883e+00 -7.536041736602783203e-01 -5.762788057327270508e-01 -3.989648818969726562e-01 -1.394987851381301880e-01
5.553000000000000000e+03 3.714634704589843750e+01 9.889738082885742188e+00 -7.849921584129333496e-01 -6.347452402114868164e-01 -4.259212017059326172e-01 -6.653550863265991211e-01
5.554000000000000000e+03 4.742742919921875000e+01 2.131466102600097656e+01 -6.048363447189331055e-01 -1.171424016356468201e-01 -2.165936231613159180e-01 -4.085774719715118408e-01
5.555000000000000000e+03 2.540661621093750000e+01 2.280651664733886719e+01 3.909933939576148987e-02 9.874604642391204834e-02 4.135361686348915100e-02 6.668272614479064941e-02
5.556000000000000000e+03 6.751243591308593750e+01 3.045523262023925781e+01 4.801447093486785889e-01 1.301043796539306641e+01 4.047174930572509766e+00 -1.130476951599121094e+00
5.557000000000000000e+03 6.712459564208984375e+01 3.040300369262695312e+01 2.102337926626205444e-01 1.323690032958984375e+01 4.034140110015869141e+00 -7.766889333724975586e-01
5.558000000000000000e+03 2.473410797119140625e+01 2.314797019958496094e+01 3.287999331951141357e-02 9.859851002693176270e-02 3.944355249404907227e-02 6.310437619686126709e-02
5.559000000000000000e+03 1.087155055999755859e+01 8.692026138305664062e+00 8.677275478839874268e-02 1.418192535638809204e-01 6.857760250568389893e-02 -3.725342079997062683e-02
5.560000000000000000e+03 1.163902473449707031e+01 9.029107093811035156e+00 6.617569923400878906e-02 1.930608451366424561e-01 7.777096331119537354e-02 -1.732663437724113464e-02
5.561000000000000000e+03 3.616282272338867188e+01 7.938621997833251953e+00 -7.639551758766174316e-01 -5.776222348213195801e-01 -4.024732112884521484e-01 -5.926473140716552734e-01
5.562000000000000000e+03 3.567620849609375000e+01 7.011396884918212891e+00 -7.630888819694519043e-01 -5.472072958946228027e-01 -3.930888473987579346e-01 -5.535246133804321289e-01
5.563000000000000000e+03 5.709126663208007812e+01 2.807938003540039062e+01 2.391505241394042969e-01 1.576437234878540039e+00 5.446763634681701660e-01 6.901489496231079102e-01
5.564000000000000000e+03 3.213098907470703125e+01 2.886598348617553711e+00 -8.472430706024169922e-01 -5.295491218566894531e-01 -4.130376577377319336e-01 -2.481078058481216431e-01
5.565000000000000000e+03 2.657235908508300781e+01 2.626150131225585938e+01 2.813488058745861053e-02 8.896649628877639771e-02 3.513041138648986816e-02 5.597006529569625854e-02
5.566000000000000000e+03 3.471881103515625000e+01 4.773127555847167969e+00 -7.362428903579711914e-01 -4.574932754039764404e-01 -3.581208586692810059e-01 -3.840699195861816406e-01
5.567000000000000000e+03 3.593886947631835938e+01 6.267903327941894531e+00 -6.979717612266540527e-01 -4.592435061931610107e-01 -3.471645712852478027e-01 -4.600738883018493652e-01
5.568000000000000000e+03 3.140046501159667969e+01 1.879173219203948975e-01 -2.490828782320022583e-01 -5.172726511955261230e-01 -2.299066632986068726e-01 1.644967310130596161e-02
5.569000000000000000e+03 3.540867614746093750e+01 6.549515724182128906e+00 -7.649387717247009277e-01 -5.366877913475036621e-01 -3.904879689216613770e-01 -5.318933725357055664e-01
5.570000000000000000e+03 2.765887641906738281e+01 2.643034934997558594e+01 3.174851089715957642e-02 8.751544356346130371e-02 3.577918559312820435e-02 5.765989795327186584e-02
5.571000000000000000e+03 3.479721832275390625e+01 -1.060242176055908203e+00 1.088569611310958862e-01 -3.154831230640411377e-01 -6.198784708976745605e-02 6.786851584911346436e-02
5.572000000000000000e+03 3.251939010620117188e+01 2.532651901245117188e+00 -7.205994725227355957e-01 -4.986422061920166016e-01 -3.657724857330322266e-01 -1.795997023582458496e-01
5.573000000000000000e+03 2.121542930603027344e+01 1.931899833679199219e+01 3.874870017170906067e-02 1.172875910997390747e-01 4.681088775396347046e-02 7.057201862335205078e-02
5.574000000000000000e+03 1.969172668457031250e+01 1.866330528259277344e+01 3.400726616382598877e-02 1.208133548498153687e-01 4.644618555903434753e-02 6.636004894971847534e-02
5.575000000000000000e+03 1.085031986236572266e+01 1.085148525238037109e+01 4.771804064512252808e-02 1.180165186524391174e-01 4.972036927938461304e-02 -1.261604577302932739e-02
5.576000000000000000e+03 3.011373519897460938e+01 2.913956260681152344e+01 3.564326837658882141e-02 7.902684807777404785e-02 3.440103307366371155e-02 5.143472924828529358e-02
5.577000000000000000e+03 2.825786209106445312e+01 2.931320381164550781e+01 2.759922295808792114e-02 8.067349344491958618e-02 3.248181566596031189e-02 4.728478193283081055e-02
5.578000000000000000e+03 1.907346153259277344e+01 1.502893447875976562e+01 5.956390500068664551e-02 1.444628983736038208e-01 6.120804324746131897e-02 9.126265347003936768e-02
5.579000000000000000e+03 2.553901100158691406e+01 2.586369705200195312e+01 2.527297474443912506e-02 9.061592072248458862e-02 3.476667031645774841e-02 5.467732623219490051e-02
5.580000000000000000e+03 2.622071075439453125e+01 2.554718589782714844e+01 2.996360510587692261e-02 9.094910323619842529e-02 3.627381473779678345e-02 5.784493684768676758e-02
5.581000000000000000e+03 3.015679740905761719e+01 1.806611776351928711e+00 -8.410429954528808594e-01 -5.807797908782958984e-01 -4.265468418598175049e-01 -1.646237522363662720e-01
5.582000000000000000e+03 3.047507858276367188e+01 8.676224946975708008e-01 -5.151070952415466309e-01 -5.351348519325256348e-01 -3.150725960731506348e-01 -4.744875431060791016e-02
5.583000000000000000e+03 6.814530944824218750e+01 2.907275009155273438e+01 -3.068633973598480225e-01 1.163579463958740234e+01 3.398679256439208984e+00 -9.731432795524597168e-01
5.584000000000000000e+03 6.799467468261718750e+01 2.855081367492675781e+01 -5.928786396980285645e-01 1.134638786315917969e+01 3.226052761077880859e+00 -7.121033072471618652e-01
5.585000000000000000e+03 5.735321044921875000e+01 2.743712043762207031e+01 2.610819339752197266e-01 1.865722179412841797e+00 6.380412578582763672e-01 8.718395233154296875e-01
5.586000000000000000e+03 2.202944564819335938e+01 1.974289512634277344e+01 4.112100601196289062e-02 1.135467886924743652e-01 4.640033841133117676e-02 7.132580876350402832e-02
5.587000000000000000e+03 2.161039924621582031e+01 1.954885673522949219e+01 3.975288197398185730e-02 1.147143244743347168e-01 4.634016379714012146e-02 7.121788710355758667e-02
5.588000000000000000e+03 2.706501960754394531e+01 2.700995826721191406e+01 2.944572083652019501e-02 8.628549426794052124e-02 3.471936285495758057e-02 5.428416281938552856e-02
5.589000000000000000e+03 1.865710830688476562e+01 1.668286514282226562e+01 4.053185880184173584e-02 1.338721513748168945e-01 5.232120305299758911e-02 7.358311116695404053e-02
5.590000000000000000e+03 1.826794242858886719e+01 1.493093681335449219e+01 5.322374030947685242e-02 1.491921991109848022e-01 6.072477996349334717e-02 8.700414001941680908e-02
5.591000000000000000e+03 1.538881397247314453e+01 1.590544128417968750e+01 2.200648933649063110e-02 1.346113830804824829e-01 4.698536172509193420e-02 4.844724386930465698e-02
5.592000000000000000e+03 3.486916732788085938e+01 -4.787336587905883789e-01 -3.993016202002763748e-03 -3.141599297523498535e-01 -9.544587880373001099e-02 5.231112614274024963e-02
5.593000000000000000e+03 6.753827667236328125e+01 2.771766662597656250e+01 -9.570285081863403320e-01 1.094833374023437500e+01 2.997391462326049805e+00 -2.404675781726837158e-01
5.594000000000000000e+03 3.296722793579101562e+01 -5.164270997047424316e-01 -2.469862252473831177e-02 -4.366087913513183594e-01 -1.383922249078750610e-01 5.343406274914741516e-02
5.595000000000000000e+03 3.281570434570312500e+01 1.012079000473022461e+00 -3.588299751281738281e-01 -4.537447392940521240e-01 -2.437724173069000244e-01 -2.624173462390899658e-02
5.596000000000000000e+03 6.840892028808593750e+01 2.489372634887695312e+01 -1.126112222671508789e+00 9.482302665710449219e+00 2.506857156753540039e+00 -3.233797848224639893e-01
5.597000000000000000e+03 6.523451232910156250e+01 1.439518094062805176e+00 -7.707758247852325439e-02 5.832132339477539062e+00 1.726516485214233398e+00 4.169439375400543213e-01
5.598000000000000000e+03 6.326078414916992188e+01 -1.755209565162658691e+00 -1.261831447482109070e-02 5.303669929504394531e+00 1.587315440177917480e+00 4.267401397228240967e-01
5.599000000000000000e+03 6.707061004638671875e+01 7.337889194488525391e+00 -2.378383725881576538e-01 6.466682434082031250e+00 1.868653297424316406e+00 3.461529016494750977e-01
5.600000000000000000e+03 1.269492912292480469e+01 1.651458549499511719e+01 7.763224188238382339e-03 9.473527222871780396e-02 3.074955008924007416e-02 1.375106349587440491e-02
5.601000000000000000e+03 1.308464527130126953e+01 2.094256591796875000e+01 -4.496568813920021057e-03 6.381153315305709839e-02 1.779448986053466797e-02 8.003284223377704620e-03
5.602000000000000000e+03 1.170270061492919922e+01 1.190336322784423828e+01 3.366319462656974792e-02 1.339520364999771118e-01 5.028456822037696838e-02 3.937441390007734299e-03
5.603000000000000000e+03 1.120669460296630859e+01 1.148353481292724609e+01 3.924889862537384033e-02 1.274342685937881470e-01 5.000495165586471558e-02 -6.463705096393823624e-03
5.604000000000000000e+03 6.741779327392578125e+01 2.232319831848144531e+01 -1.130113840103149414e+00 8.436719894409179688e+00 2.191981792449951172e+00 1.556386798620223999e-01
5.605000000000000000e+03 1.688913536071777344e+01 1.355662536621093750e+01 5.014616623520851135e-02 1.656863689422607422e-01 6.474976241588592529e-02 8.625420182943344116e-02
5.606000000000000000e+03 1.785530090332031250e+01 1.503955078125000000e+01 4.745537415146827698e-02 1.483479142189025879e-01 5.874098837375640869e-02 8.184827119112014771e-02
5.607000000000000000e+03 3.647548294067382812e+01 -1.350686907768249512e+00 1.487739533185958862e-01 -1.591279953718185425e-01 -3.106212010607123375e-03 7.788184285163879395e-02
5.608000000000000000e+03 3.694474792480468750e+01 -2.662081241607666016e+00 2.784313857555389404e-01 -9.981033951044082642e-02 5.358631908893585205e-02 7.612671703100204468e-02
5.609000000000000000e+03 6.658186340332031250e+01 2.147884178161621094e+01 -1.078150868415832520e+00 7.964096546173095703e+00 2.065783739089965820e+00 3.911218345165252686e-01
5.610000000000000000e+03 6.593790435791015625e+01 1.417391109466552734e+01 -5.880784392356872559e-01 6.598412036895751953e+00 1.803100109100341797e+00 3.852415978908538818e-01
5.611000000000000000e+03 1.055959224700927734e+01 1.018273162841796875e+01 6.321006268262863159e-02 1.146062016487121582e-01 5.334487929940223694e-02 -2.453967183828353882e-02
5.612000000000000000e+03 1.104762554168701172e+01 9.287967681884765625e+00 7.336912304162979126e-02 1.523595452308654785e-01 6.771860271692276001e-02 -2.828471362590789795e-02
5.613000000000000000e+03 1.284073257446289062e+01 2.009311485290527344e+01 -2.556490246206521988e-03 6.682421267032623291e-02 1.928031817078590393e-02 7.535475306212902069e-03
5.614000000000000000e+03 6.526958465576171875e+01 2.924998998641967773e+00 -1.110051944851875305e-01 5.867802143096923828e+00 1.727039098739624023e+00 4.167788922786712646e-01
5.615000000000000000e+03 6.701527404785156250e+01 2.764067649841308594e+01 -1.060116529464721680e+00 1.087360000610351562e+01 2.944045066833496094e+00 1.544291526079177856e-01
5.616000000000000000e+03 6.694894409179687500e+01 2.709398269653320312e+01 -1.128163576126098633e+00 1.048406982421875000e+01 2.806771993637084961e+00 2.470070719718933105e-01
5.617000000000000000e+03 1.330703353881835938e+01 1.493736839294433594e+01 1.520678680390119553e-02 1.255562156438827515e-01 4.222889989614486694e-02 2.679031901061534882e-02
5.618000000000000000e+03 1.270299625396728516e+01 1.428177070617675781e+01 1.780686527490615845e-02 1.246947795152664185e-01 4.275049269199371338e-02 1.862657256424427032e-02
5.619000000000000000e+03 4.005607223510742188e+01 -3.721354007720947266e+00 3.034059107303619385e-01 3.246279656887054443e-01 1.884101629257202148e-01 1.004544943571090698e-01
5.620000000000000000e+03 3.890743637084960938e+01 -3.884162425994873047e+00 3.288750350475311279e-01 1.608974933624267578e-01 1.469317525625228882e-01 8.372092247009277344e-02
5.621000000000000000e+03 6.678787231445312500e+01 1.348850059509277344e+01 -5.442174673080444336e-01 6.769113063812255859e+00 1.867468595504760742e+00 3.083565533161163330e-01
5.622000000000000000e+03 6.804863739013671875e+01 1.544996356964111328e+01 -6.407456398010253906e-01 7.286964416503906250e+00 1.993865609169006348e+00 1.429357230663299561e-01
5.623000000000000000e+03 6.772688293457031250e+01 1.671420669555664062e+01 -7.393960356712341309e-01 7.362676620483398438e+00 1.986984133720397949e+00 1.557161659002304077e-01
5.624000000000000000e+03 3.538968658447265625e+01 -5.838089585304260254e-01 4.278851673007011414e-02 -2.707950770854949951e-01 -6.840196996927261353e-02 6.201637163758277893e-02
5.625000000000000000e+03 2.816777610778808594e+01 3.407556152343750000e+01 2.077767997980117798e-02 7.281919568777084351e-02 2.807906270027160645e-02 3.059080243110656738e-02
5.626000000000000000e+03 3.007681274414062500e+01 2.998968124389648438e+01 3.127840906381607056e-02 7.840127497911453247e-02 3.290390595793724060e-02 4.822157695889472961e-02
5.627000000000000000e+03 6.630092620849609375e+01 6.566763877868652344e+00 -2.172277569770812988e-01 6.245467662811279297e+00 1.808472037315368652e+00 3.827162981033325195e-01
5.628000000000000000e+03 6.615843963623046875e+01 5.110178947448730469e+00 -1.790030300617218018e-01 6.149475097656250000e+00 1.791141629219055176e+00 3.934771418571472168e-01
5.629000000000000000e+03 6.782658386230468750e+01 1.855600166320800781e+01 -8.726861476898193359e-01 7.652846813201904297e+00 2.034048080444335938e+00 1.183184310793876648e-01
5.630000000000000000e+03 6.721613311767578125e+01 1.881023025512695312e+01 -8.970627784729003906e-01 7.553543567657470703e+00 1.996944189071655273e+00 2.143964171409606934e-01
5.631000000000000000e+03 2.751731300354003906e+01 2.788438415527343750e+01 2.697922475636005402e-02 8.463469892740249634e-02 3.348417580127716064e-02 5.148042365908622742e-02
5.632000000000000000e+03 6.752537536621093750e+01 1.444527912139892578e+01 -5.837664604187011719e-01 7.035323619842529297e+00 1.935467123985290527e+00 2.242985367774963379e-01
5.633000000000000000e+03 6.600129699707031250e+01 9.561340332031250000e+00 -3.404108881950378418e-01 6.283941268920898438e+00 1.783059000968933105e+00 3.821596205234527588e-01
5.634000000000000000e+03 6.671569824218750000e+01 1.040279483795166016e+01 -3.772863447666168213e-01 6.522198200225830078e+00 1.843473553657531738e+00 3.372126221656799316e-01
5.635000000000000000e+03 6.759863281250000000e+01 9.713530540466308594e+00 -3.326978385448455811e-01 6.709562778472900391e+00 1.913059473037719727e+00 2.909618914127349854e-01
5.636000000000000000e+03 6.385283279418945312e+01 -2.846558094024658203e+00 -6.311121396720409393e-03 5.431679248809814453e+00 1.627610445022583008e+00 4.090266525745391846e-01
5.637000000000000000e+03 6.491697692871093750e+01 -2.478260040283203125e+00 -1.542626786977052689e-02 5.684841632843017578e+00 1.700824618339538574e+00 4.110922813415527344e-01
5.638000000000000000e+03 4.826077651977539062e+01 -1.287342453002929688e+01 1.584296226501464844e-01 2.059821605682373047e+00 6.654753684997558594e-01 9.460291266441345215e-02
5.639000000000000000e+03 4.531270980834960938e+01 -8.292541503906250000e+00 2.744693458080291748e-01 1.328648567199707031e+00 4.809353649616241455e-01 1.063667759299278259e-01
5.640000000000000000e+03 1.499245548248291016e+01 2.669027328491210938e+01 -6.831854581832885742e-03 5.130240321159362793e-02 1.334116514772176743e-02 1.003722380846738815e-02
5.641000000000000000e+03 4.737516021728515625e+01 -1.192735576629638672e+01 1.885360032320022583e-01 1.842124819755554199e+00 6.091982126235961914e-01 8.965544402599334717e-02
5.642000000000000000e+03 3.125361251831054688e+01 3.091605377197265625e+01 3.370827063918113708e-02 7.562816143035888672e-02 3.280092775821685791e-02 4.692938923835754395e-02
5.643000000000000000e+03 1.427919006347656250e+01 2.760476493835449219e+01 -7.307113613933324814e-03 4.007692262530326843e-02 9.830942377448081970e-03 5.723409820348024368e-03
5.644000000000000000e+03 4.734484863281250000e+01 -1.623410606384277344e+01 7.055048644542694092e-02 1.935542106628417969e+00 6.018277406692504883e-01 3.163912147283554077e-02
5.645000000000000000e+03 6.589806365966796875e+01 -7.746385097503662109e+00 1.624723523855209351e-02 5.845653057098388672e+00 1.758570075035095215e+00 3.619087934494018555e-01
5.646000000000000000e+03 6.663122558593750000e+01 -8.145580291748046875e+00 8.776108734309673309e-03 6.029699802398681641e+00 1.811542868614196777e+00 3.573329448699951172e-01
5.647000000000000000e+03 4.280042648315429688e+01 -4.317544460296630859e+00 2.864935100078582764e-01 7.737668752670288086e-01 3.180781006813049316e-01 1.292851269245147705e-01
5.648000000000000000e+03 4.133116912841796875e+01 -4.828766345977783203e+00 3.253821134567260742e-01 5.462242364883422852e-01 2.614819109439849854e-01 1.047847419977188110e-01
5.649000000000000000e+03 5.412956237792968750e+01 -1.823293876647949219e+01 7.492413278669118881e-03 3.441773414611816406e+00 1.034779787063598633e+00 2.188637703657150269e-01
5.650000000000000000e+03 5.190212249755859375e+01 -1.737918281555175781e+01 3.882123529911041260e-02 2.952002763748168945e+00 8.972471952438354492e-01 1.691940426826477051e-01
5.651000000000000000e+03 4.520429992675781250e+01 -9.431717872619628906e+00 2.738453745841979980e-01 1.344062089920043945e+00 4.853722453117370605e-01 8.973312377929687500e-02
5.652000000000000000e+03 3.004295539855957031e+01 3.244001007080078125e+01 2.742042765021324158e-02 7.511299103498458862e-02 3.076002560555934906e-02 3.960654884576797485e-02
5.653000000000000000e+03 3.005182456970214844e+01 3.107789802551269531e+01 3.212184086441993713e-02 7.644475251436233521e-02 3.256997838616371155e-02 4.460709914565086365e-02
5.654000000000000000e+03 6.434187316894531250e+01 -3.941959381103515625e+00 8.538398891687393188e-03 5.545146465301513672e+00 1.666105508804321289e+00 3.991013169288635254e-01
5.655000000000000000e+03 6.588129425048828125e+01 -4.302476882934570312e+00 8.183347526937723160e-04 5.894196510314941406e+00 1.768504381179809570e+00 3.860701918601989746e-01
5.656000000000000000e+03 4.392464065551757812e+01 -6.285787105560302734e+00 3.065340220928192139e-01 1.015914440155029297e+00 3.967345356941223145e-01 1.225721910595893860e-01
5.657000000000000000e+03 4.873435211181640625e+01 -1.668173599243164062e+01 5.471481010317802429e-02 2.256319046020507812e+00 6.933101415634155273e-01 7.928162813186645508e-02
5.658000000000000000e+03 1.363985252380371094e+01 -2.058813476562500000e+01 1.979601532220840454e-01 -4.371391832828521729e-01 -7.175371050834655762e-02 -3.587150275707244873e-01
5.659000000000000000e+03 6.709009552001953125e+01 -9.823584556579589844e+00 9.249654598534107208e-03 6.120650291442871094e+00 1.838969945907592773e+00 3.509595990180969238e-01
5.660000000000000000e+03 6.439469146728515625e+01 -1.208931922912597656e+01 2.164065279066562653e-02 5.502791881561279297e+00 1.657329678535461426e+00 3.637636601924896240e-01
5.661000000000000000e+03 4.378592300415039062e+01 -5.268112182617187500e+00 2.942044734954833984e-01 9.713296890258789062e-01 3.796602487564086914e-01 1.329417079687118530e-01
5.662000000000000000e+03 6.394698333740234375e+01 -1.520640182495117188e+01 3.031046502292156219e-02 5.419729232788085938e+00 1.635011792182922363e+00 3.475419282913208008e-01
5.663000000000000000e+03 6.805567169189453125e+01 -1.476456928253173828e+01 2.309169247746467590e-02 6.289764881134033203e+00 1.893857002258300781e+00 3.182067871093750000e-01
5.664000000000000000e+03 6.688164520263671875e+01 -1.472098159790039062e+01 2.666326239705085754e-02 6.022869586944580078e+00 1.814859867095947266e+00 3.385555744171142578e-01
5.665000000000000000e+03 3.049768257141113281e+01 3.614144134521484375e+01 2.708043716847896576e-02 6.992942839860916138e-02 2.910295873880386353e-02 2.686986885964870453e-02
5.666000000000000000e+03 1.154997825622558594e+01 -3.032344818115234375e+01 1.116232424974441528e-01 -5.928474664688110352e-01 -1.443672627210617065e-01 -2.046955823898315430e-01
5.667000000000000000e+03 5.063532638549804688e+01 -1.823119163513183594e+01 1.549361459910869598e-02 2.692154645919799805e+00 8.122944831848144531e-01 1.231754571199417114e-01
5.668000000000000000e+03 5.179763412475585938e+01 -2.812755203247070312e+01 -7.991231977939605713e-03 3.247887849807739258e+00 9.719689488410949707e-01 3.017395138740539551e-01
5.669000000000000000e+03 6.393924713134765625e+01 -5.574497222900390625e+00 1.483131479471921921e-02 5.417975902557373047e+00 1.629842162132263184e+00 3.942241370677947998e-01
5.670000000000000000e+03 5.558678054809570312e+01 -1.966460037231445312e+01 -1.093314774334430695e-02 3.753717899322509766e+00 1.122835397720336914e+00 2.533030509948730469e-01
5.671000000000000000e+03 6.324777984619140625e+01 -2.797158622741699219e+01 9.355323016643524170e-02 5.204017162322998047e+00 1.589271187782287598e+00 3.585763275623321533e-01
5.672000000000000000e+03 6.184426116943359375e+01 -2.240278625488281250e+01 1.598250679671764374e-02 4.994048595428466797e+00 1.503009319305419922e+00 3.405663669109344482e-01
5.673000000000000000e+03 6.620766448974609375e+01 -9.064036369323730469e+00 1.686182804405689240e-02 5.927488327026367188e+00 1.783305048942565918e+00 3.600366711616516113e-01
5.674000000000000000e+03 6.474164581298828125e+01 -1.059689712524414062e+01 3.001458756625652313e-02 5.597025871276855469e+00 1.688112258911132812e+00 3.691968321800231934e-01
5.675000000000000000e+03 4.729395294189453125e+01 -1.364065742492675781e+01 1.567565202713012695e-01 1.880901098251342773e+00 6.112972497940063477e-01 6.916689127683639526e-02
5.676000000000000000e+03 6.629872894287109375e+01 2.549324035644531250e+01 -1.194608688354492188e+00 9.327477455139160156e+00 2.439860582351684570e+00 6.331602334976196289e-01
5.677000000000000000e+03 6.542209625244140625e+01 2.970505905151367188e+01 -7.358459830284118652e-01 1.237527179718017578e+01 3.491827726364135742e+00 1.701094031333923340e+00
5.678000000000000000e+03 6.228465270996093750e+01 2.973109054565429688e+01 9.185838699340820312e-01 5.600804328918457031e+00 1.955816507339477539e+00 3.409292936325073242e+00
5.679000000000000000e+03 6.046061706542968750e+01 2.869287490844726562e+01 7.649035453796386719e-01 3.477896928787231445e+00 1.272840142250061035e+00 2.163218021392822266e+00
5.680000000000000000e+03 5.287400054931640625e+01 2.621218109130859375e+01 -3.564646840095520020e-01 5.484398007392883301e-01 5.759253725409507751e-02 -7.884021848440170288e-03
5.681000000000000000e+03 5.340923309326171875e+01 2.592661476135253906e+01 -2.677013874053955078e-01 7.780231833457946777e-01 1.530965268611907959e-01 1.311797797679901123e-01
5.682000000000000000e+03 4.953446197509765625e+01 2.290128517150878906e+01 -5.190930962562561035e-01 1.573396176099777222e-01 -1.085260361433029175e-01 -2.359938621520996094e-01
5.683000000000000000e+03 6.633992004394531250e+01 2.989807510375976562e+01 -5.308275222778320312e-01 1.301717281341552734e+01 3.745903491973876953e+00 3.291325271129608154e-01
5.684000000000000000e+03 4.645832061767578125e+01 1.923161125183105469e+01 -5.455880165100097656e-01 -4.833052307367324829e-02 -1.781755536794662476e-01 -3.820975422859191895e-01
5.685000000000000000e+03 5.664240646362304688e+01 2.742090797424316406e+01 1.558502912521362305e-01 1.586927533149719238e+00 5.228333473205566406e-01 6.652298569679260254e-01
5.686000000000000000e+03 5.794793319702148438e+01 2.790288162231445312e+01 3.718245029449462891e-01 1.984230995178222656e+00 7.068166732788085938e-01 1.010820865631103516e+00
5.687000000000000000e+03 3.030783843994140625e+01 1.346055269241333008e+00 -6.841902732849121094e-01 -5.803404450416564941e-01 -3.793592154979705811e-01 -1.097970381379127502e-01
5.688000000000000000e+03 2.933027076721191406e+01 1.652710795402526855e+00 -9.047557115554809570e-01 -5.843777656555175781e-01 -4.467400312423706055e-01 -1.945109665393829346e-01
5.689000000000000000e+03 4.613024139404296875e+01 1.955901527404785156e+01 -5.868144631385803223e-01 -1.517586112022399902e-01 -2.215719223022460938e-01 -4.457267522811889648e-01
5.690000000000000000e+03 4.846868515014648438e+01 2.226234245300292969e+01 -5.832398533821105957e-01 -8.682433515787124634e-03 -1.775766909122467041e-01 -3.444952964782714844e-01
5.691000000000000000e+03 5.029001617431640625e+01 2.416281509399414062e+01 -5.222501754760742188e-01 1.499798595905303955e-01 -1.116810962557792664e-01 -2.390669137239456177e-01
5.692000000000000000e+03 3.919469451904296875e+01 1.279160308837890625e+01 -7.842917442321777344e-01 -6.182538270950317383e-01 -4.207636713981628418e-01 -7.045798301696777344e-01
5.693000000000000000e+03 3.991567993164062500e+01 1.339267063140869141e+01 -7.520279884338378906e-01 -5.521230101585388184e-01 -3.912453055381774902e-01 -6.738267540931701660e-01
5.694000000000000000e+03 4.006992721557617188e+01 1.382325267791748047e+01 -7.642988562583923340e-01 -5.712741613388061523e-01 -4.006718993186950684e-01 -6.935032606124877930e-01
5.695000000000000000e+03 5.207840347290039062e+01 2.576982116699218750e+01 -4.235410392284393311e-01 3.802611827850341797e-01 -1.298395823687314987e-02 -9.741497039794921875e-02
5.696000000000000000e+03 5.535685348510742188e+01 2.724755287170410156e+01 -6.618821620941162109e-02 1.150910019874572754e+00 3.254165351390838623e-01 3.491438031196594238e-01
5.697000000000000000e+03 4.570143890380859375e+01 1.930979728698730469e+01 -6.026824116706848145e-01 -2.111626863479614258e-01 -2.441535294055938721e-01 -4.836124181747436523e-01
5.698000000000000000e+03 4.137965774536132812e+01 1.495034599304199219e+01 -7.168750762939453125e-01 -4.635713398456573486e-01 -3.541339337825775146e-01 -6.569311022758483887e-01
5.699000000000000000e+03 4.055340194702148438e+01 1.417487144470214844e+01 -7.439184188842773438e-01 -5.287157297134399414e-01 -3.817902505397796631e-01 -6.742538213729858398e-01
5.700000000000000000e+03 5.773458862304687500e+01 2.724499893188476562e+01 2.936615049839019775e-01 2.152810573577880859e+00 7.339416742324829102e-01 1.040714025497436523e+00
5.701000000000000000e+03 5.624785995483398438e+01 2.725778198242187500e+01 8.009721338748931885e-02 1.468376994132995605e+00 4.645422399044036865e-01 5.761359930038452148e-01
5.702000000000000000e+03 5.067183303833007812e+01 2.413570022583007812e+01 -4.768713116645812988e-01 2.653386294841766357e-01 -6.345980614423751831e-02 -1.704788506031036377e-01
5.703000000000000000e+03 4.876812362670898438e+01 2.200862121582031250e+01 -5.306404232978820801e-01 1.018347218632698059e-01 -1.286417096853256226e-01 -2.713637650012969971e-01
5.704000000000000000e+03 4.433364868164062500e+01 1.757957649230957031e+01 -6.110423803329467773e-01 -2.607236802577972412e-01 -2.615298032760620117e-01 -5.388707518577575684e-01
5.705000000000000000e+03 4.210915374755859375e+01 1.547842979431152344e+01 -6.888785362243652344e-01 -3.980590999126434326e-01 -3.260813057422637939e-01 -6.281135082244873047e-01
5.706000000000000000e+03 4.495037841796875000e+01 1.852579879760742188e+01 -6.140608191490173340e-01 -2.677151262760162354e-01 -2.645327746868133545e-01 -5.323767066001892090e-01
5.707000000000000000e+03 4.405548095703125000e+01 1.693063735961914062e+01 -6.043388247489929199e-01 -2.299851030111312866e-01 -2.502971887588500977e-01 -5.268169045448303223e-01
5.708000000000000000e+03 5.168743133544921875e+01 2.555337524414062500e+01 -4.567611515522003174e-01 3.000652492046356201e-01 -4.700876772403717041e-02 -1.444368213415145874e-01
5.709000000000000000e+03 1.236516952514648438e+01 9.343111991882324219e+00 5.381012707948684692e-02 2.224622666835784912e-01 8.288171887397766113e-02 7.409645710140466690e-03
5.710000000000000000e+03 1.200402927398681641e+01 1.011343574523925781e+01 4.874158278107643127e-02 1.844256669282913208e-01 6.995017826557159424e-02 3.040032228454947472e-03
5.711000000000000000e+03 4.580357360839843750e+01 1.891796684265136719e+01 -5.688512325286865234e-01 -1.435170769691467285e-01 -2.137105017900466919e-01 -4.455413520336151123e-01
5.712000000000000000e+03 3.833745956420898438e+01 1.187853240966796875e+01 -7.899224162101745605e-01 -6.507827043533325195e-01 -4.322115480899810791e-01 -7.075364589691162109e-01
5.713000000000000000e+03 3.925745010375976562e+01 1.220027732849121094e+01 -7.358090281486511230e-01 -5.424136519432067871e-01 -3.834668099880218506e-01 -6.443022489547729492e-01
5.714000000000000000e+03 5.262257385253906250e+01 2.556582069396972656e+01 -3.487897217273712158e-01 5.872592926025390625e-01 7.154086977243423462e-02 2.515854686498641968e-02
5.715000000000000000e+03 1.408749198913574219e+01 2.124130058288574219e+01 -2.998775336891412735e-03 7.199478894472122192e-02 2.069880254566669464e-02 1.431163121014833450e-02
5.716000000000000000e+03 4.477529525756835938e+01 1.782351875305175781e+01 -5.927453637123107910e-01 -2.088909596204757690e-01 -2.404908984899520874e-01 -5.027871727943420410e-01
5.717000000000000000e+03 5.100761795043945312e+01 2.474826049804687500e+01 -4.805507957935333252e-01 2.375691384077072144e-01 -7.289449870586395264e-02 -1.812157928943634033e-01
5.718000000000000000e+03 2.400121688842773438e+01 2.198891830444335938e+01 3.716754540801048279e-02 1.030306965112686157e-01 4.205947369337081909e-02 6.641043722629547119e-02
5.719000000000000000e+03 5.223064422607421875e+01 2.534749603271484375e+01 -3.831936419010162354e-01 5.035975575447082520e-01 3.612116724252700806e-02 -2.186588384211063385e-02
5.720000000000000000e+03 4.097751998901367188e+01 1.455898761749267578e+01 -7.342728376388549805e-01 -4.957142174243927002e-01 -3.689961135387420654e-01 -6.637552976608276367e-01
5.721000000000000000e+03 4.457068252563476562e+01 1.709226417541503906e+01 -5.735582113265991211e-01 -1.527704447507858276e-01 -2.178985923528671265e-01 -4.750057458877563477e-01
5.722000000000000000e+03 4.649095535278320312e+01 1.986884307861328125e+01 -5.787212848663330078e-01 -1.180084869265556335e-01 -2.090189307928085327e-01 -4.203017354011535645e-01
5.723000000000000000e+03 5.142120361328125000e+01 2.491779327392578125e+01 -4.466077089309692383e-01 3.357920646667480469e-01 -3.324469551444053650e-02 -1.254933178424835205e-01
5.724000000000000000e+03 5.183174133300781250e+01 2.512594413757324219e+01 -4.125940203666687012e-01 4.226870536804199219e-01 3.027908271178603172e-03 -7.020501792430877686e-02
5.725000000000000000e+03 4.679666900634765625e+01 2.104221343994140625e+01 -6.341590285301208496e-01 -2.093940079212188721e-01 -2.530659139156341553e-01 -4.659389853477478027e-01
5.726000000000000000e+03 4.797661590576171875e+01 2.146945953369140625e+01 -5.710965394973754883e-01 -1.305594667792320251e-02 -1.752457469701766968e-01 -3.443344235420227051e-01
5.727000000000000000e+03 4.670692062377929688e+01 2.067282867431640625e+01 -6.124249696731567383e-01 -1.821835637092590332e-01 -2.383825629949569702e-01 -4.498656988143920898e-01
5.728000000000000000e+03 5.965440750122070312e+01 2.760908317565917969e+01 4.908588528633117676e-01 3.240591287612915039e+00 1.119434952735900879e+00 1.764811873435974121e+00
5.729000000000000000e+03 5.891267776489257812e+01 2.819941139221191406e+01 5.360822081565856934e-01 2.452769279479980469e+00 8.966554403305053711e-01 1.384243965148925781e+00
5.730000000000000000e+03 5.638971328735351562e+01 2.685543632507324219e+01 9.200014919042587280e-02 1.619997501373291016e+00 5.135992765426635742e-01 6.667945981025695801e-01
5.731000000000000000e+03 3.853395080566406250e+01 1.092041873931884766e+01 -7.304688692092895508e-01 -5.401974916458129883e-01 -3.811998963356018066e-01 -6.212492585182189941e-01
5.732000000000000000e+03 5.606361770629882812e+01 2.764925956726074219e+01 5.373777449131011963e-02 1.292008757591247559e+00 4.037239551544189453e-01 4.562421143054962158e-01
5.733000000000000000e+03 5.419933319091796875e+01 2.650156593322753906e+01 -2.055362313985824585e-01 9.179194569587707520e-01 2.137149721384048462e-01 2.037964761257171631e-01
5.734000000000000000e+03 1.325715732574462891e+01 1.149985790252685547e+01 3.743317350745201111e-02 1.840747594833374023e-01 6.645237654447555542e-02 3.541523590683937073e-02
5.735000000000000000e+03 6.764242553710937500e+01 2.955026817321777344e+01 -2.269431650638580322e-01 1.220989799499511719e+01 3.594886541366577148e+00 -8.104056119918823242e-01
5.736000000000000000e+03 1.371352672576904297e+01 1.989800643920898438e+01 -9.227211703546345234e-04 7.843793183565139771e-02 2.325456216931343079e-02 1.478521712124347687e-02
5.737000000000000000e+03 3.124857711791992188e+01 2.699882984161376953e+00 -9.389629364013671875e-01 -5.931575894355773926e-01 -4.596361517906188965e-01 -2.441781759262084961e-01
5.738000000000000000e+03 1.339659976959228516e+01 1.249447441101074219e+01 3.120040148496627808e-02 1.653779894113540649e-01 5.897351726889610291e-02 3.543083742260932922e-02
5.739000000000000000e+03 1.281577968597412109e+01 1.262888050079345703e+01 2.674459666013717651e-02 1.534549742937088013e-01 5.405987054109573364e-02 2.478589862585067749e-02
5.740000000000000000e+03 4.679608917236328125e+01 2.017706871032714844e+01 -5.799281597137451172e-01 -1.015264987945556641e-01 -2.044364064931869507e-01 -4.020007252693176270e-01
5.741000000000000000e+03 3.737656021118164062e+01 9.173391342163085938e+00 -7.299398183822631836e-01 -5.418404340744018555e-01 -3.815340697765350342e-01 -5.874099731445312500e-01
5.742000000000000000e+03 4.282763290405273438e+01 1.611138153076171875e+01 -6.601483225822448730e-01 -3.465107977390289307e-01 -3.019977211952209473e-01 -6.031401753425598145e-01
5.743000000000000000e+03 4.251913070678710938e+01 1.556019592285156250e+01 -6.604922413825988770e-01 -3.403154313564300537e-01 -3.002423048019409180e-01 -5.934150815010070801e-01
5.744000000000000000e+03 3.641942214965820312e+01 7.267341613769531250e+00 -7.089319229125976562e-01 -4.912704825401306152e-01 -3.600607216358184814e-01 -5.133805871009826660e-01
5.745000000000000000e+03 1.818366813659667969e+01 1.725882720947265625e+01 3.288175538182258606e-02 1.292073875665664673e-01 4.862674325704574585e-02 6.593333184719085693e-02
5.746000000000000000e+03 1.891948699951171875e+01 1.902359962463378906e+01 2.735227160155773163e-02 1.184892207384109497e-01 4.375245049595832825e-02 5.990443006157875061e-02
5.747000000000000000e+03 3.793436431884765625e+01 1.009846019744873047e+01 -7.344619631767272949e-01 -5.469433069229125977e-01 -3.844215869903564453e-01 -6.100340485572814941e-01
5.748000000000000000e+03 3.764074707031250000e+01 9.647515296936035156e+00 -7.295212149620056152e-01 -5.465986728668212891e-01 -3.828359544277191162e-01 -6.013217568397521973e-01
5.749000000000000000e+03 1.806915664672851562e+01 1.576426696777343750e+01 4.347108677029609680e-02 1.410790830850601196e-01 5.536504834890365601e-02 7.671600580215454102e-02
5.750000000000000000e+03 1.859282493591308594e+01 1.539343738555908203e+01 5.095026269555091858e-02 1.438414156436920166e-01 5.843750387430191040e-02 8.496485650539398193e-02
5.751000000000000000e+03 4.357991027832031250e+01 1.679346847534179688e+01 -6.336268782615661621e-01 -2.956414818763732910e-01 -2.787805199623107910e-01 -5.714669823646545410e-01
5.752000000000000000e+03 1.779259872436523438e+01 1.454914188385009766e+01 5.103897303342819214e-02 1.522773504257202148e-01 6.099489703774452209e-02 8.544433116912841797e-02
5.753000000000000000e+03 2.355420303344726562e+01 2.102893638610839844e+01 4.059300944209098816e-02 1.069368198513984680e-01 4.425894841551780701e-02 6.999933719635009766e-02
5.754000000000000000e+03 2.251814270019531250e+01 2.083956909179687500e+01 3.728948161005973816e-02 1.090924665331840515e-01 4.391458630561828613e-02 6.756544858217239380e-02
5.755000000000000000e+03 3.665299606323242188e+01 7.746192455291748047e+00 -7.115322351455688477e-01 -5.080836415290832520e-01 -3.658847808837890625e-01 -5.351150631904602051e-01
5.756000000000000000e+03 4.326295852661132812e+01 1.621730232238769531e+01 -6.334592700004577637e-01 -2.853694260120391846e-01 -2.756485939025878906e-01 -5.651046037673950195e-01
5.757000000000000000e+03 4.294595336914062500e+01 1.565339088439941406e+01 -6.340888142585754395e-01 -2.774556875228881836e-01 -2.734633386135101318e-01 -5.572848320007324219e-01
5.758000000000000000e+03 1.459248733520507812e+01 1.264048767089843750e+01 3.531795367598533630e-02 1.771978884935379028e-01 6.375475227832794189e-02 5.972123146057128906e-02
5.759000000000000000e+03 1.361683464050292969e+01 1.358021831512451172e+01 2.511722408235073090e-02 1.495628058910369873e-01 5.240400880575180054e-02 3.521588072180747986e-02
5.760000000000000000e+03 5.699252319335937500e+01 2.768505287170410156e+01 2.100095301866531372e-01 1.646149277687072754e+00 5.568476319313049316e-01 7.303766012191772461e-01
5.761000000000000000e+03 5.512479400634765625e+01 2.760005760192871094e+01 -1.150278598070144653e-01 9.940602779388427734e-01 2.637097239494323730e-01 2.377506792545318604e-01
5.762000000000000000e+03 6.007158660888671875e+01 2.813229370117187500e+01 6.199834942817687988e-01 3.383180379867553711e+00 1.200949192047119141e+00 1.955468297004699707e+00
5.763000000000000000e+03 5.966920471191406250e+01 2.807713890075683594e+01 5.944001078605651855e-01 3.022835969924926758e+00 1.085170745849609375e+00 1.750620841979980469e+00
5.764000000000000000e+03 3.249694442749023438e+01 5.627452731132507324e-01 -2.831261754035949707e-01 -4.790036082267761230e-01 -2.286389321088790894e-01 3.553567687049508095e-03
5.765000000000000000e+03 2.918898010253906250e+01 8.509927392005920410e-01 -6.233887672424316406e-01 -5.674508810043334961e-01 -3.572519123554229736e-01 -1.180116459727287292e-01
5.766000000000000000e+03 1.660155487060546875e+01 1.266340065002441406e+01 5.669230967760086060e-02 1.787529438734054565e-01 7.063357532024383545e-02 9.350408613681793213e-02
5.767000000000000000e+03 1.724407577514648438e+01 1.352409744262695312e+01 5.573583021759986877e-02 1.654794514179229736e-01 6.636458635330200195e-02 9.172447770833969116e-02
5.768000000000000000e+03 1.644662857055664062e+01 1.361347293853759766e+01 4.624686762690544128e-02 1.654684394598007202e-01 6.351459026336669922e-02 8.033192157745361328e-02
5.769000000000000000e+03 1.591855525970458984e+01 1.356368160247802734e+01 4.064768552780151367e-02 1.670196205377578735e-01 6.230019032955169678e-02 7.298266142606735229e-02
5.770000000000000000e+03 2.063991165161132812e+01 1.951107025146484375e+01 3.391397371888160706e-02 1.160155832767486572e-01 4.497886821627616882e-02 6.582613289356231689e-02
5.771000000000000000e+03 1.908046340942382812e+01 1.852864074707031250e+01 3.056756220757961273e-02 1.205562949180603027e-01 4.533715918660163879e-02 6.314600259065628052e-02
5.772000000000000000e+03 2.312657737731933594e+01 2.113038253784179688e+01 3.834550455212593079e-02 1.072458401322364807e-01 4.367740452289581299e-02 6.801337748765945435e-02
5.773000000000000000e+03 4.870801925659179688e+01 2.166076660156250000e+01 -5.264804363250732422e-01 1.378521472215652466e-01 -1.165884733200073242e-01 -2.546654939651489258e-01
5.774000000000000000e+03 1.526697158813476562e+01 1.298963928222656250e+01 3.820648416876792908e-02 1.746303141117095947e-01 6.385103613138198853e-02 6.892016530036926270e-02
5.775000000000000000e+03 1.293985080718994141e+01 1.066339969635009766e+01 4.365228489041328430e-02 2.007491886615753174e-01 7.332044094800949097e-02 2.815846726298332214e-02
5.776000000000000000e+03 1.249117279052734375e+01 1.094333553314208984e+01 3.888813406229019165e-02 1.804578155279159546e-01 6.580378860235214233e-02 1.844246126711368561e-02
5.777000000000000000e+03 3.163306808471679688e+01 8.622756600379943848e-01 -4.213561415672302246e-01 -5.257606506347656250e-01 -2.841350436210632324e-01 -2.965656295418739319e-02
5.778000000000000000e+03 3.424769592285156250e+01 5.070401191711425781e+00 -8.210699558258056641e-01 -5.169603228569030762e-01 -4.014090895652770996e-01 -4.608730971813201904e-01
5.779000000000000000e+03 3.634101867675781250e+01 5.487751007080078125e+00 -6.179518699645996094e-01 -3.632739782333374023e-01 -2.943677604198455811e-01 -3.571825921535491943e-01
5.780000000000000000e+03 3.289113616943359375e+01 2.506905198097229004e-01 -1.969344913959503174e-01 -4.420157372951507568e-01 -1.916850656270980835e-01 2.440284192562103271e-02
5.781000000000000000e+03 3.327005767822265625e+01 -4.262609407305717468e-02 -1.248701140284538269e-01 -4.320694208145141602e-01 -1.670818626880645752e-01 3.928121551871299744e-02
5.782000000000000000e+03 2.099513816833496094e+01 1.967893791198730469e+01 3.511498495936393738e-02 1.153992936015129089e-01 4.515428468585014343e-02 6.743542104959487915e-02
5.783000000000000000e+03 2.080614662170410156e+01 1.916424751281738281e+01 3.766414523124694824e-02 1.187757551670074463e-01 4.693197086453437805e-02 7.009471207857131958e-02
5.784000000000000000e+03 2.301123237609863281e+01 2.418482398986816406e+01 2.211628109216690063e-02 9.594191610813140869e-02 3.541745990514755249e-02 5.344206094741821289e-02
5.785000000000000000e+03 2.474511718750000000e+01 2.433347129821777344e+01 2.882805839180946350e-02 9.566783905029296875e-02 3.734876960515975952e-02 5.868710950016975403e-02
5.786000000000000000e+03 6.745037078857421875e+01 2.831067466735839844e+01 -8.291910886764526367e-01 1.137218284606933594e+01 3.162897586822509766e+00 -2.997758686542510986e-01
5.787000000000000000e+03 6.778378295898437500e+01 2.810608100891113281e+01 -8.074939250946044922e-01 1.115833091735839844e+01 3.105251073837280273e+00 -4.770844876766204834e-01
5.788000000000000000e+03 1.741318130493164062e+01 1.529604625701904297e+01 4.186772927641868591e-02 1.465223133563995361e-01 5.651701241731643677e-02 7.533325999975204468e-02
5.789000000000000000e+03 3.334761047363281250e+01 3.885144948959350586e+00 -8.262850642204284668e-01 -4.981535971164703369e-01 -3.973315954208374023e-01 -3.455646932125091553e-01
5.790000000000000000e+03 3.284683227539062500e+01 2.963957786560058594e+00 -7.578147053718566895e-01 -4.917284548282623291e-01 -3.748629391193389893e-01 -2.359864562749862671e-01
5.791000000000000000e+03 3.438190078735351562e+01 4.016861438751220703e+00 -7.035598158836364746e-01 -4.414170086383819580e-01 -3.434930443763732910e-01 -3.183913826942443848e-01
5.792000000000000000e+03 3.521825027465820312e+01 5.223046779632568359e+00 -7.100021839141845703e-01 -4.434097409248352051e-01 -3.460235893726348877e-01 -4.029562175273895264e-01
5.793000000000000000e+03 5.824896240234375000e+01 2.746921348571777344e+01 3.653472661972045898e-01 2.354361057281494141e+00 8.159124851226806641e-01 1.202664017677307129e+00
5.794000000000000000e+03 6.770571136474609375e+01 2.911191368103027344e+01 -4.413517415523529053e-01 1.183990097045898438e+01 3.419564723968505859e+00 -7.013214230537414551e-01
5.795000000000000000e+03 4.908836364746093750e+01 2.200656318664550781e+01 -5.087246298789978027e-01 1.863484233617782593e-01 -9.671287238597869873e-02 -2.281012684106826782e-01
5.796000000000000000e+03 2.164752578735351562e+01 2.080405235290527344e+01 3.281238675117492676e-02 1.094318926334381104e-01 4.267328605055809021e-02 6.386904418468475342e-02
5.797000000000000000e+03 3.361604690551757812e+01 -2.947315275669097900e-01 -5.524145811796188354e-02 -4.005653560161590576e-01 -1.367420554161071777e-01 4.892814904451370239e-02
5.798000000000000000e+03 3.089126586914062500e+01 2.237568378448486328e+00 -8.834088444709777832e-01 -5.831776857376098633e-01 -4.399759471416473389e-01 -1.939380615949630737e-01
5.799000000000000000e+03 3.078381729125976562e+01 1.537059426307678223e+00 -6.803093552589416504e-01 -5.485835075378417969e-01 -3.686678707599639893e-01 -1.072674021124839783e-01
5.800000000000000000e+03 2.771370697021484375e+01 3.048474311828613281e+01 2.368160150945186615e-02 7.985132932662963867e-02 3.105987980961799622e-02 4.371755197644233704e-02
5.801000000000000000e+03 2.740302467346191406e+01 2.884508895874023438e+01 2.573653496801853180e-02 8.315884321928024292e-02 3.266861289739608765e-02 4.895963147282600403e-02
5.802000000000000000e+03 2.473643684387207031e+01 2.609055137634277344e+01 2.246555499732494354e-02 9.011881798505783081e-02 3.377531096339225769e-02 5.173707753419876099e-02
5.803000000000000000e+03 2.465329933166503906e+01 2.517529487609863281e+01 2.408283203840255737e-02 9.279686957597732544e-02 3.506391122937202454e-02 5.459303781390190125e-02
5.804000000000000000e+03 2.459620094299316406e+01 2.249984359741210938e+01 3.684643283486366272e-02 1.005210131406784058e-01 4.121023416519165039e-02 6.537709385156631470e-02
5.805000000000000000e+03 2.560207748413085938e+01 2.335780715942382812e+01 3.602860495448112488e-02 9.736787527799606323e-02 4.001894220709800720e-02 6.505358964204788208e-02
5.806000000000000000e+03 3.892572021484375000e+01 1.253578376770019531e+01 -7.851585745811462402e-01 -6.249805092811584473e-01 -4.230417311191558838e-01 -7.063646316528320312e-01
5.807000000000000000e+03 2.625822830200195312e+01 2.751321029663085938e+01 2.327748760581016541e-02 8.620428293943405151e-02 3.284453228116035461e-02 4.994240030646324158e-02
5.808000000000000000e+03 2.583912849426269531e+01 2.667827224731445312e+01 2.513721026480197906e-02 8.829244971275329590e-02 3.402889892458915710e-02 5.260676145553588867e-02
5.809000000000000000e+03 3.364327239990234375e+01 3.484900593757629395e-01 -1.830243915319442749e-01 -4.003994464874267578e-01 -1.750271469354629517e-01 2.083696238696575165e-02
5.810000000000000000e+03 3.432323455810546875e+01 -9.780108332633972168e-01 6.740193814039230347e-02 -3.527210354804992676e-01 -8.559572696685791016e-02 6.150719150900840759e-02
5.811000000000000000e+03 3.386849594116210938e+01 3.879229784011840820e+00 -7.565668225288391113e-01 -4.619422852993011475e-01 -3.655527234077453613e-01 -3.166952431201934814e-01
5.812000000000000000e+03 3.403788375854492188e+01 3.411899805068969727e+00 -6.762923002243041992e-01 -4.370232820510864258e-01 -3.339946568012237549e-01 -2.542497813701629639e-01
5.813000000000000000e+03 3.096661567687988281e+01 1.077032685279846191e+00 -5.302425026893615723e-01 -5.509178042411804199e-01 -3.243480920791625977e-01 -5.681687220931053162e-02
5.814000000000000000e+03 3.208304214477539062e+01 8.445336222648620605e-01 -3.834550678730010986e-01 -4.855361282825469971e-01 -2.606973648071289062e-01 -1.777200773358345032e-02
5.815000000000000000e+03 3.527770614624023438e+01 -1.102089047431945801e+00 9.926389157772064209e-02 -2.790922522544860840e-01 -5.394851043820381165e-02 6.523935496807098389e-02
5.816000000000000000e+03 3.588059997558593750e+01 -1.594293832778930664e+00 1.743210107088088989e-01 -2.264630049467086792e-01 -1.564259827136993408e-02 6.933531910181045532e-02
5.817000000000000000e+03 3.221613311767578125e+01 2.071377277374267578e+00 -6.580157279968261719e-01 -5.078023672103881836e-01 -3.497454524040222168e-01 -1.406716406345367432e-01
5.818000000000000000e+03 1.223893260955810547e+01 1.056467342376708984e+01 4.544717445969581604e-02 1.829792410135269165e-01 6.852792203426361084e-02 9.288002736866474152e-03
5.819000000000000000e+03 1.807194900512695312e+01 1.627464103698730469e+01 3.834747523069381714e-02 1.368913799524307251e-01 5.257165804505348206e-02 7.194370031356811523e-02
5.820000000000000000e+03 1.752463150024414062e+01 1.629234504699707031e+01 3.419446945190429688e-02 1.361533552408218384e-01 5.110434442758560181e-02 6.736572831869125366e-02
5.821000000000000000e+03 6.846975708007812500e+01 2.985703659057617188e+01 3.146151304244995117e-01 1.180472183227539062e+01 3.635801315307617188e+00 -1.411579370498657227e+00
5.822000000000000000e+03 1.144345378875732422e+01 1.046228885650634766e+01 5.078301206231117249e-02 1.534152626991271973e-01 6.125948205590248108e-02 -8.409333415329456329e-03
5.823000000000000000e+03 6.776805877685546875e+01 2.456952095031738281e+01 -1.186398267745971680e+00 9.293114662170410156e+00 2.432014942169189453e+00 -2.959103323519229889e-02
5.824000000000000000e+03 6.745140838623046875e+01 2.638030052185058594e+01 -1.144792079925537109e+00 1.012573719024658203e+01 2.694283485412597656e+00 -3.938331268727779388e-03
5.825000000000000000e+03 1.323177433013916016e+01 1.430828285217285156e+01 2.023051120340824127e-02 1.310137361288070679e-01 4.537327215075492859e-02 2.728071063756942749e-02
5.826000000000000000e+03 1.227456855773925781e+01 1.206367778778076172e+01 3.031226061284542084e-02 1.515170484781265259e-01 5.454879254102706909e-02 1.434620749205350876e-02
5.827000000000000000e+03 6.806638336181640625e+01 2.545724868774414062e+01 -1.144542932510375977e+00 9.719112396240234375e+00 2.572371006011962891e+00 -2.294735908508300781e-01
5.828000000000000000e+03 6.738216400146484375e+01 2.305309677124023438e+01 -1.167554140090942383e+00 8.655885696411132812e+00 2.246499538421630859e+00 1.605051904916763306e-01
5.829000000000000000e+03 3.794373321533203125e+01 -2.780395269393920898e+00 2.764838337898254395e-01 1.815062388777732849e-02 8.839034289121627808e-02 8.600355684757232666e-02
5.830000000000000000e+03 3.721794509887695312e+01 -1.699424624443054199e+00 1.939779371023178101e-01 -7.672181725502014160e-02 3.517683595418930054e-02 8.118768036365509033e-02
5.831000000000000000e+03 1.347781467437744141e+01 1.645681953430175781e+01 8.847044780850410461e-03 1.077905744314193726e-01 3.499128669500350952e-02 2.291581407189369202e-02
5.832000000000000000e+03 1.270549011230468750e+01 1.918642234802246094e+01 -1.443578861653804779e-03 7.180199027061462402e-02 2.110752463340759277e-02 8.406319655478000641e-03
5.833000000000000000e+03 6.751728057861328125e+01 2.514363479614257812e+01 -1.188820362091064453e+00 9.503497123718261719e+00 2.494403123855590820e+00 4.193326458334922791e-02
5.834000000000000000e+03 2.625706863403320312e+01 3.346591186523437500e+01 1.618741452693939209e-02 7.346262037754058838e-02 2.689501084387302399e-02 3.055829368531703949e-02
5.835000000000000000e+03 2.673567008972167969e+01 2.830901527404785156e+01 2.422774769365787506e-02 8.421775698661804199e-02 3.253365308046340942e-02 4.891069605946540833e-02
5.836000000000000000e+03 1.282480907440185547e+01 1.162180614471435547e+01 3.247808665037155151e-02 1.737304627895355225e-01 6.186256185173988342e-02 2.639292553067207336e-02
5.837000000000000000e+03 6.219286346435546875e+01 -2.405149459838867188e+00 2.051749499514698982e-03 5.026196002960205078e+00 1.508474349975585938e+00 4.286222159862518311e-01
5.838000000000000000e+03 1.393130207061767578e+01 1.477198219299316406e+01 2.019345946609973907e-02 1.343978047370910645e-01 4.637737944722175598e-02 3.490372374653816223e-02
5.839000000000000000e+03 6.448126983642578125e+01 2.196367263793945312e+00 -9.449105709791183472e-02 5.655621051788330078e+00 1.668339014053344727e+00 4.289212822914123535e-01
5.840000000000000000e+03 4.475633239746093750e+01 -5.046537876129150391e+00 2.774374186992645264e-01 1.158854246139526367e+00 4.308874905109405518e-01 1.612005978822708130e-01
5.841000000000000000e+03 1.535082626342773438e+01 1.476507472991943359e+01 2.800215221941471100e-02 1.461362093687057495e-01 5.224150791764259338e-02 5.546534061431884766e-02
5.842000000000000000e+03 3.481795883178710938e+01 3.919097423553466797e+00 -6.425045728683471680e-01 -4.088924229145050049e-01 -3.154191076755523682e-01 -2.820796370506286621e-01
5.843000000000000000e+03 6.647882843017578125e+01 2.064216613769531250e+01 -1.018588542938232422e+00 7.710008144378662109e+00 2.007425785064697266e+00 3.905962705612182617e-01
5.844000000000000000e+03 6.569502258300781250e+01 1.815368461608886719e+01 -8.394136428833007812e-01 7.012623310089111328e+00 1.851962804794311523e+00 4.693582952022552490e-01
5.845000000000000000e+03 3.896232986450195312e+01 -2.743115663528442383e+00 2.633504271507263184e-01 1.551424562931060791e-01 1.255478709936141968e-01 9.735935926437377930e-02
5.846000000000000000e+03 1.844064140319824219e+01 1.839773368835449219e+01 2.705171145498752594e-02 1.214226558804512024e-01 4.454230889678001404e-02 5.925571545958518982e-02
5.847000000000000000e+03 6.535061645507812500e+01 -8.440889358520507812e+00 8.932039141654968262e-03 5.724472522735595703e+00 1.720021367073059082e+00 3.722376823425292969e-01
5.848000000000000000e+03 6.448960876464843750e+01 3.676064491271972656e+00 -1.292981356382369995e-01 5.686869144439697266e+00 1.667271375656127930e+00 4.325000345706939697e-01
5.849000000000000000e+03 6.438159942626953125e+01 6.856043338775634766e-01 -5.810780823230743408e-02 5.602790355682373047e+00 1.663404822349548340e+00 4.246604740619659424e-01
5.850000000000000000e+03 6.664978027343750000e+01 1.192589187622070312e+01 -4.560725092887878418e-01 6.601552486419677734e+00 1.843644022941589355e+00 3.357540071010589600e-01
5.851000000000000000e+03 6.549400329589843750e+01 5.832489490509033203e+00 -1.976888626813888550e-01 6.004002571105957031e+00 1.741894006729125977e+00 4.155746996402740479e-01
5.852000000000000000e+03 4.760682678222656250e+01 -1.019810676574707031e+01 2.125719785690307617e-01 1.858376264572143555e+00 6.212844848632812500e-01 1.235015168786048889e-01
5.853000000000000000e+03 4.606092453002929688e+01 -9.887117385864257812e+00 2.443867027759552002e-01 1.514452934265136719e+00 5.276519060134887695e-01 9.892351180315017700e-02
5.854000000000000000e+03 6.430877685546875000e+01 9.349498748779296875e+00 -3.242546916007995605e-01 5.806786060333251953e+00 1.644759416580200195e+00 4.657303988933563232e-01
5.855000000000000000e+03 1.353284168243408203e+01 1.729902648925781250e+01 6.994635798037052155e-03 9.917621314525604248e-02 3.185125440359115601e-02 2.037335559725761414e-02
5.856000000000000000e+03 6.698440551757812500e+01 1.712996482849121094e+01 -7.741616368293762207e-01 7.227874755859375000e+00 1.936113834381103516e+00 2.535495460033416748e-01
5.857000000000000000e+03 3.999771881103515625e+01 -2.556559085845947266e+00 2.449985444545745850e-01 2.984374165534973145e-01 1.630307883024215698e-01 1.091810613870620728e-01
5.858000000000000000e+03 3.012330245971679688e+01 3.413437652587890625e+01 2.937698923051357269e-02 7.193750888109207153e-02 3.039435110986232758e-02 3.421982377767562866e-02
5.859000000000000000e+03 6.275707244873046875e+01 -3.460123777389526367e+00 7.315231487154960632e-03 5.155661106109619141e+00 1.548892855644226074e+00 4.209314584732055664e-01
5.860000000000000000e+03 2.851838302612304688e+01 3.233094406127929688e+01 2.485010027885437012e-02 7.582853734493255615e-02 3.020359203219413757e-02 3.853704780340194702e-02
5.861000000000000000e+03 4.518884277343750000e+01 -7.109109401702880859e+00 2.838504016399383545e-01 1.277775526046752930e+00 4.684877991676330566e-01 1.326634138822555542e-01
5.862000000000000000e+03 4.793440246582031250e+01 -1.460623168945312500e+01 1.139459237456321716e-01 2.036031007766723633e+00 6.449930667877197266e-01 6.469887495040893555e-02
5.863000000000000000e+03 5.106347656250000000e+01 -1.477738475799560547e+01 8.527791500091552734e-02 2.689635276794433594e+00 8.324739933013916016e-01 1.601042300462722778e-01
5.864000000000000000e+03 4.844551086425781250e+01 -1.564168167114257812e+01 8.325578272342681885e-02 2.161903142929077148e+00 6.735476255416870117e-01 7.393886893987655640e-02
5.865000000000000000e+03 4.910536956787109375e+01 -1.389128684997558594e+01 1.287116855382919312e-01 2.282385349273681641e+00 7.233291268348693848e-01 1.144244298338890076e-01
5.866000000000000000e+03 6.622487640380859375e+01 8.044633865356445312e+00 -2.692271769046783447e-01 6.281386375427246094e+00 1.803647637367248535e+00 3.774873018264770508e-01
5.867000000000000000e+03 6.588798522949218750e+01 1.110672187805175781e+01 -4.118987023830413818e-01 6.344413757324218750e+00 1.779754519462585449e+00 3.848932981491088867e-01
5.868000000000000000e+03 6.511249542236328125e+01 1.025874710083007812e+01 -3.750036358833312988e-01 6.086590766906738281e+00 1.713476181030273438e+00 4.315414130687713623e-01
5.869000000000000000e+03 1.493351650238037109e+01 2.436180496215820312e+01 -4.189074970781803131e-03 6.177201867103576660e-02 1.727488264441490173e-02 1.324808225035667419e-02
5.870000000000000000e+03 6.365534210205078125e+01 1.468965768814086914e+00 -7.101763784885406494e-02 5.431109905242919922e+00 1.608027696609497070e+00 4.443591833114624023e-01
5.871000000000000000e+03 1.522541999816894531e+01 2.220996093750000000e+01 -1.585508813150227070e-03 7.688738405704498291e-02 2.259056083858013153e-02 1.986696198582649231e-02
5.872000000000000000e+03 1.593923187255859375e+01 2.261085510253906250e+01 7.899322372395545244e-05 7.949433475732803345e-02 2.387199737131595612e-02 2.275268547236919403e-02
5.873000000000000000e+03 1.318650531768798828e+01 2.818159294128417969e+01 -1.001217029988765717e-02 2.670075930655002594e-02 5.006576422601938248e-03 -4.802682815352454782e-05
5.874000000000000000e+03 6.378506469726562500e+01 -1.371662807464599609e+01 3.410423174500465393e-02 5.388776302337646484e+00 1.626864194869995117e+00 3.501827120780944824e-01
5.875000000000000000e+03 2.884083175659179688e+01 3.092834663391113281e+01 2.591341920197010040e-02 7.803209871053695679e-02 3.118365444242954254e-02 4.257782548666000366e-02
5.876000000000000000e+03 6.400508880615234375e+01 -9.979386329650878906e+00 2.270851098001003265e-02 5.417279720306396484e+00 1.631996512413024902e+00 3.679468035697937012e-01
5.877000000000000000e+03 4.170489501953125000e+01 -2.671688795089721680e+00 2.496267855167388916e-01 5.645686388015747070e-01 2.442586272954940796e-01 1.265940368175506592e-01
5.878000000000000000e+03 6.327112960815429688e+01 -4.601786136627197266e+00 1.672434993088245392e-02 5.281326770782470703e+00 1.589415311813354492e+00 4.099428653717041016e-01
5.879000000000000000e+03 2.758861923217773438e+01 3.866670989990234375e+01 1.789731718599796295e-02 6.631667912006378174e-02 2.526419982314109802e-02 1.194741018116474152e-02
5.880000000000000000e+03 4.973036956787109375e+01 -1.516791915893554688e+01 7.954037189483642578e-02 2.443472385406494141e+00 7.569038271903991699e-01 1.090584695339202881e-01
5.881000000000000000e+03 5.921957397460937500e+01 -2.066180038452148438e+01 2.228461764752864838e-02 4.526582241058349609e+00 1.364660024642944336e+00 3.278072774410247803e-01
5.882000000000000000e+03 1.693044090270996094e+01 -2.784104347229003906e+01 2.192282974720001221e-01 -1.950848102569580078e-01 7.243043743073940277e-03 -2.886345088481903076e-01
5.883000000000000000e+03 1.578764247894287109e+01 -2.635084152221679688e+01 1.926807165145874023e-01 -2.761975228786468506e-01 -2.505504526197910309e-02 -2.962940037250518799e-01
5.884000000000000000e+03 4.697394180297851562e+01 -9.168600082397460938e+00 2.414519637823104858e-01 1.678323149681091309e+00 5.759325623512268066e-01 1.210698559880256653e-01
5.885000000000000000e+03 5.600923919677734375e+01 -2.151793861389160156e+01 -8.933964185416698456e-03 3.881115674972534180e+00 1.161654472351074219e+00 2.843636274337768555e-01
5.886000000000000000e+03 6.452062225341796875e+01 -2.040878105163574219e+01 1.901489123702049255e-02 5.527730464935302734e+00 1.664023637771606445e+00 3.396984040737152100e-01
5.887000000000000000e+03 6.030541992187500000e+01 -2.111336135864257812e+01 9.796529076993465424e-03 4.671191692352294922e+00 1.404296517372131348e+00 3.467643260955810547e-01
5.888000000000000000e+03 6.056787490844726562e+01 -2.514479446411132812e+01 4.179860651493072510e-02 4.773390293121337891e+00 1.444556713104248047e+00 3.513144850730895996e-01
5.889000000000000000e+03 6.203623580932617188e+01 2.940506744384765625e+01 8.418835997581481934e-01 5.323034763336181641e+00 1.849475502967834473e+00 3.166474103927612305e+00
5.890000000000000000e+03 6.335060882568359375e+01 2.944970130920410156e+01 1.882480084896087646e-01 8.202322006225585938e+00 2.517170906066894531e+00 3.478368520736694336e+00
5.891000000000000000e+03 6.499134826660156250e+01 2.934678077697753906e+01 -7.328066825866699219e-01 1.130233573913574219e+01 3.170858621597290039e+00 2.166553974151611328e+00
5.892000000000000000e+03 6.575573730468750000e+01 2.950090026855468750e+01 -7.976601123809814453e-01 1.241616630554199219e+01 3.485551834106445312e+00 1.181867718696594238e+00
5.893000000000000000e+03 4.712428283691406250e+01 1.933177375793457031e+01 -5.163106918334960938e-01 8.127959817647933960e-02 -1.305093318223953247e-01 -3.086138665676116943e-01
5.894000000000000000e+03 4.830826950073242188e+01 2.134084892272949219e+01 -5.319830775260925293e-01 8.719550073146820068e-02 -1.334362775087356567e-01 -2.812947034835815430e-01
5.895000000000000000e+03 5.018595504760742188e+01 2.382604217529296875e+01 -5.126463770866394043e-01 1.769229769706726074e-01 -1.007170155644416809e-01 -2.238475382328033447e-01
5.896000000000000000e+03 5.053587722778320312e+01 2.363552093505859375e+01 -4.637232720851898193e-01 3.053447604179382324e-01 -4.751355201005935669e-02 -1.428144276142120361e-01
5.897000000000000000e+03 4.519299697875976562e+01 1.809529495239257812e+01 -5.747274756431579590e-01 -1.589959412813186646e-01 -2.201170325279235840e-01 -4.681175053119659424e-01
5.898000000000000000e+03 4.017544174194335938e+01 1.191408538818359375e+01 -6.602040529251098633e-01 -3.732229769229888916e-01 -3.100281059741973877e-01 -5.458144545555114746e-01
5.899000000000000000e+03 4.181946945190429688e+01 1.449069309234619141e+01 -6.640461087226867676e-01 -3.428625464439392090e-01 -3.020725846290588379e-01 -5.793370604515075684e-01
5.900000000000000000e+03 6.220207214355468750e+01 2.878083992004394531e+01 4.853162169456481934e-01 5.894764900207519531e+00 1.914024233818054199e+00 3.026728153228759766e+00
5.901000000000000000e+03 4.944262695312500000e+01 2.197247123718261719e+01 -4.806490242481231689e-01 2.872670590877532959e-01 -5.801459401845932007e-02 -1.706678569316864014e-01
5.902000000000000000e+03 4.849593353271484375e+01 2.200201034545898438e+01 -5.567826628684997559e-01 2.773696742951869965e-02 -1.587136983871459961e-01 -3.156241476535797119e-01
5.903000000000000000e+03 4.219615554809570312e+01 1.501496887207031250e+01 -6.623750925064086914e-01 -3.400275111198425293e-01 -3.007207810878753662e-01 -5.845248103141784668e-01
5.904000000000000000e+03 4.138367462158203125e+01 1.453645229339599609e+01 -7.046419978141784668e-01 -4.294965267181396484e-01 -3.402415513992309570e-01 -6.267117261886596680e-01
5.905000000000000000e+03 5.301463699340820312e+01 2.576557731628417969e+01 -3.127835094928741455e-01 6.752404570579528809e-01 1.087370738387107849e-01 7.420029491186141968e-02
5.906000000000000000e+03 5.557179641723632812e+01 2.691381645202636719e+01 -2.172160707414150238e-02 1.307709574699401855e+00 3.857963979244232178e-01 4.584336578845977783e-01
5.907000000000000000e+03 5.789554214477539062e+01 2.758065986633300781e+01 3.391711413860321045e-01 2.096424341201782227e+00 7.306786775588989258e-01 1.050643324851989746e+00
5.908000000000000000e+03 5.589238357543945312e+01 2.709432983398437500e+01 2.241800352931022644e-02 1.373940706253051758e+00 4.189076125621795654e-01 5.050035119056701660e-01
5.909000000000000000e+03 4.262088394165039062e+01 1.509889125823974609e+01 -6.355257034301757812e-01 -2.744330167770385742e-01 -2.729876339435577393e-01 -5.489898920059204102e-01
5.910000000000000000e+03 6.321623229980468750e+01 2.995798301696777344e+01 5.492926836013793945e-01 7.880321502685546875e+00 2.528884410858154297e+00 3.844051599502563477e+00
5.911000000000000000e+03 6.276020812988281250e+01 2.981695747375488281e+01 7.594919204711914062e-01 6.699046611785888672e+00 2.237561464309692383e+00 3.671111106872558594e+00
5.912000000000000000e+03 5.112316513061523438e+01 2.422482299804687500e+01 -4.378316998481750488e-01 3.703453838825225830e-01 -2.024589665234088898e-02 -1.042115315794944763e-01
5.913000000000000000e+03 4.506027221679687500e+01 1.735902214050292969e+01 -5.537483096122741699e-01 -9.567610919475555420e-02 -1.948273181915283203e-01 -4.365783035755157471e-01
5.914000000000000000e+03 5.374878692626953125e+01 2.654181861877441406e+01 -2.668291926383972168e-01 7.673839330673217773e-01 1.501664221286773682e-01 1.157452091574668884e-01
5.915000000000000000e+03 5.477844238281250000e+01 2.570670509338378906e+01 -1.218562647700309753e-01 1.275977849960327148e+00 3.462364673614501953e-01 4.247466325759887695e-01
5.916000000000000000e+03 6.593814086914062500e+01 2.223719596862792969e+01 -1.095958590507507324e+00 7.949066638946533203e+00 2.055932521820068359e+00 5.918275713920593262e-01
5.917000000000000000e+03 4.095408248901367188e+01 1.414997386932373047e+01 -7.171151638031005859e-01 -4.611446857452392578e-01 -3.534779548645019531e-01 -6.378454566001892090e-01
5.918000000000000000e+03 4.470572662353515625e+01 1.655205917358398438e+01 -5.445132255554199219e-01 -6.821590662002563477e-02 -1.838187277317047119e-01 -4.252439737319946289e-01
5.919000000000000000e+03 4.538488769531250000e+01 1.873671531677246094e+01 -5.917854309082031250e-01 -2.101271897554397583e-01 -2.405737787485122681e-01 -4.880610704421997070e-01
5.920000000000000000e+03 4.759302520751953125e+01 2.071234512329101562e+01 -5.490193367004394531e-01 9.286744520068168640e-03 -1.619197726249694824e-01 -3.361337780952453613e-01
5.921000000000000000e+03 4.682482910156250000e+01 1.901485443115234375e+01 -5.161849260330200195e-01 5.764006823301315308e-02 -1.375634670257568359e-01 -3.266724944114685059e-01
5.922000000000000000e+03 5.762287139892578125e+01 2.777863502502441406e+01 3.069743812084197998e-01 1.866693139076232910e+00 6.521002650260925293e-01 9.057034850120544434e-01
5.923000000000000000e+03 5.277542877197265625e+01 2.514307022094726562e+01 -3.158579170703887939e-01 7.140510678291320801e-01 1.194579526782035828e-01 9.989583492279052734e-02
5.924000000000000000e+03 4.617998123168945312e+01 1.886406517028808594e+01 -5.497793555259704590e-01 -5.083926394581794739e-02 -1.801855862140655518e-01 -3.925579488277435303e-01
5.925000000000000000e+03 4.419187927246093750e+01 1.644466781616210938e+01 -5.767588019371032715e-01 -1.544521152973175049e-01 -2.193632870912551880e-01 -4.788331091403961182e-01
5.926000000000000000e+03 5.157323074340820312e+01 2.445119857788085938e+01 -4.030934870243072510e-01 4.685701727867126465e-01 1.964300312101840973e-02 -4.689251258969306946e-02
5.927000000000000000e+03 5.199347305297851562e+01 2.468892669677734375e+01 -3.741145133972167969e-01 5.493422746658325195e-01 5.256832763552665710e-02 3.356863511726260185e-03
5.928000000000000000e+03 5.239210510253906250e+01 2.492301559448242188e+01 -3.444483280181884766e-01 6.321931481361389160e-01 8.632344007492065430e-02 5.177414789795875549e-02
5.929000000000000000e+03 1.835980796813964844e+01 1.768351364135742188e+01 3.143678233027458191e-02 1.272405833005905151e-01 4.760321229696273804e-02 6.395421177148818970e-02
5.930000000000000000e+03 3.880735397338867188e+01 1.126848697662353516e+01 -7.298737764358520508e-01 -5.355025529861450195e-01 -3.796128928661346436e-01 -6.234128475189208984e-01
5.931000000000000000e+03 3.968462753295898438e+01 1.199652957916259766e+01 -6.982883214950561523e-01 -4.619077444076538086e-01 -3.480588197708129883e-01 -5.945056676864624023e-01
5.932000000000000000e+03 4.178357315063476562e+01 1.496588516235351562e+01 -6.904245615005493164e-01 -3.990093171596527100e-01 -3.268301784992218018e-01 -6.198717951774597168e-01
5.933000000000000000e+03 4.050394439697265625e+01 1.372535896301269531e+01 -7.268261313438415527e-01 -4.892621934413909912e-01 -3.648265004158020020e-01 -6.429277658462524414e-01
5.934000000000000000e+03 3.712754821777343750e+01 8.695131301879882812e+00 -7.223420739173889160e-01 -5.321519970893859863e-01 -3.763482272624969482e-01 -5.720620155334472656e-01
5.935000000000000000e+03 5.352029037475585938e+01 2.548804092407226562e+01 -2.468366622924804688e-01 9.059109687805175781e-01 1.977222859859466553e-01 2.045309543609619141e-01
5.936000000000000000e+03 5.712490081787109375e+01 2.650068092346191406e+01 1.676141470670700073e-01 2.084014654159545898e+00 6.754886507987976074e-01 9.309454560279846191e-01
5.937000000000000000e+03 4.522273254394531250e+01 1.652373313903808594e+01 -5.129690170288085938e-01 2.793419919908046722e-02 -1.455104351043701172e-01 -3.677543401718139648e-01
5.938000000000000000e+03 1.281304359436035156e+01 1.207970905303955078e+01 3.254475817084312439e-02 1.625065803527832031e-01 5.851540341973304749e-02 2.465276047587394714e-02
5.939000000000000000e+03 3.761770629882812500e+01 8.507698059082031250e+00 -6.767404675483703613e-01 -4.530838429927825928e-01 -3.389472961425781250e-01 -5.148074030876159668e-01
5.940000000000000000e+03 2.321859359741210938e+01 2.162510871887207031e+01 3.454754129052162170e-02 1.052615195512771606e-01 4.194271564483642578e-02 6.557222455739974976e-02
5.941000000000000000e+03 6.257165908813476562e+01 2.949989700317382812e+01 6.577107310295104980e-01 6.343568801879882812e+00 2.100383758544921875e+00 3.429290056228637695e+00
5.942000000000000000e+03 2.191286277770996094e+01 2.030048942565917969e+01 3.662016615271568298e-02 1.116442680358886719e-01 4.447932913899421692e-02 6.807809323072433472e-02
5.943000000000000000e+03 5.021288681030273438e+01 2.320992088317871094e+01 -4.709447026252746582e-01 2.912147343158721924e-01 -5.391899123787879944e-02 -1.585612893104553223e-01
5.944000000000000000e+03 3.824379730224609375e+01 1.052180671691894531e+01 -7.347388267517089844e-01 -5.462622642517089844e-01 -3.843003213405609131e-01 -6.169161200523376465e-01
5.945000000000000000e+03 6.728804016113281250e+01 2.943882179260253906e+01 -4.135631322860717773e-01 1.233361434936523438e+01 3.576015472412109375e+00 -5.113443136215209961e-01
5.946000000000000000e+03 1.551196956634521484e+01 1.981385231018066406e+01 5.658478476107120514e-03 9.651831537485122681e-02 3.065303899347782135e-02 2.944219857454299927e-02
5.947000000000000000e+03 3.867001724243164062e+01 1.029976177215576172e+01 -6.901998519897460938e-01 -4.624975621700286865e-01 -3.458092212677001953e-01 -5.605484247207641602e-01
5.948000000000000000e+03 1.404952049255371094e+01 1.284161949157714844e+01 3.221272677183151245e-02 1.678210943937301636e-01 6.001014634966850281e-02 4.655325412750244141e-02
5.949000000000000000e+03 5.477171707153320312e+01 2.666570663452148438e+01 -1.254932135343551636e-01 1.093482494354248047e+00 2.903967797756195068e-01 3.089084029197692871e-01
5.950000000000000000e+03 5.441072845458984375e+01 2.695819091796875000e+01 -1.992004811763763428e-01 8.984600305557250977e-01 2.097778618335723877e-01 1.860455125570297241e-01
5.951000000000000000e+03 4.338477325439453125e+01 1.575194644927978516e+01 -6.045929789543151855e-01 -2.143066376447677612e-01 -2.456698864698410034e-01 -5.167367458343505859e-01
5.952000000000000000e+03 4.371612548828125000e+01 1.632952690124511719e+01 -6.047505736351013184e-01 -2.211798280477523804e-01 -2.477791309356689453e-01 -5.232096910476684570e-01
5.953000000000000000e+03 1.995422172546386719e+01 1.960366249084472656e+01 3.017984330654144287e-02 1.154251545667648315e-01 4.368149861693382263e-02 6.227062642574310303e-02
5.954000000000000000e+03 1.790522384643554688e+01 1.805929756164550781e+01 2.581716701388359070e-02 1.221500858664512634e-01 4.439017549157142639e-02 5.796302855014801025e-02
5.955000000000000000e+03 4.902402877807617188e+01 2.162058448791503906e+01 -4.950345754623413086e-01 2.221089005470275879e-01 -8.187770098447799683e-02 -2.045023888349533081e-01
5.956000000000000000e+03 3.688832473754882812e+01 8.220613479614257812e+00 -7.189062833786010742e-01 -5.178952813148498535e-01 -3.710404634475708008e-01 -5.538753271102905273e-01
5.957000000000000000e+03 3.787042236328125000e+01 7.863923549652099609e+00 -6.238402128219604492e-01 -3.679037988185882568e-01 -2.975232005119323730e-01 -4.450145363807678223e-01
5.958000000000000000e+03 3.812942123413085938e+01 9.425934791564941406e+00 -6.843454241752624512e-01 -4.618909657001495361e-01 -3.438709378242492676e-01 -5.425215959548950195e-01
5.959000000000000000e+03 3.840042114257812500e+01 9.869267463684082031e+00 -6.844579577445983887e-01 -4.648392796516418457e-01 -3.447891771793365479e-01 -5.521995425224304199e-01
5.960000000000000000e+03 2.359354209899902344e+01 2.149461174011230469e+01 3.872887790203094482e-02 1.053694114089012146e-01 4.322948679327964783e-02 6.791865080595016479e-02
5.961000000000000000e+03 2.270601272583007812e+01 2.128304862976074219e+01 3.430452942848205566e-02 1.077318564057350159e-01 4.261091351509094238e-02 6.590402126312255859e-02
5.962000000000000000e+03 3.181241989135742188e+01 2.265799522399902344e+00 -7.438697218894958496e-01 -5.288390517234802246e-01 -3.818126320838928223e-01 -1.550214141607284546e-01
5.963000000000000000e+03 4.305748367309570312e+01 1.519167232513427734e+01 -6.042366623878479004e-01 -2.105509936809539795e-01 -2.444362938404083252e-01 -5.093620419502258301e-01
5.964000000000000000e+03 6.090885543823242188e+01 2.872090339660644531e+01 7.555640339851379395e-01 3.964120626449584961e+00 1.415905356407165527e+00 2.406312942504882812e+00
5.965000000000000000e+03 6.047887802124023438e+01 2.818862915039062500e+01 6.118395328521728516e-01 3.800535678863525391e+00 1.323712587356567383e+00 2.165935754776000977e+00
5.966000000000000000e+03 5.379420852661132812e+01 2.602617835998535156e+01 -2.294193953275680542e-01 8.973758816719055176e-01 2.003869563341140747e-01 1.935233175754547119e-01
5.967000000000000000e+03 1.121441555023193359e+01 9.888543128967285156e+00 5.872061476111412048e-02 1.517223715782165527e-01 6.313289701938629150e-02 -1.557101123034954071e-02
5.968000000000000000e+03 3.979868698120117188e+01 1.245895767211914062e+01 -7.170456051826477051e-01 -4.803379476070404053e-01 -3.592150807380676270e-01 -6.175354123115539551e-01
5.969000000000000000e+03 2.128188133239746094e+01 1.992993736267089844e+01 3.498426824808120728e-02 1.134386584162712097e-01 4.452687874436378479e-02 6.681431829929351807e-02
5.970000000000000000e+03 1.677113533020019531e+01 1.472548770904541016e+01 3.951353579759597778e-02 1.532207429409027100e-01 5.782028287649154663e-02 7.320263236761093140e-02
5.971000000000000000e+03 1.533540725708007812e+01 1.533809757232666016e+01 2.403515391051769257e-02 1.403682529926300049e-01 4.932102188467979431e-02 5.149976536631584167e-02
5.972000000000000000e+03 1.428167533874511719e+01 1.393047809600830078e+01 2.620132640004158020e-02 1.505769491195678711e-01 5.303348228335380554e-02 4.434806481003761292e-02
5.973000000000000000e+03 6.695599365234375000e+01 2.809228324890136719e+01 -9.836226701736450195e-01 1.124467658996582031e+01 3.078315973281860352e+00 1.169197931885719299e-01
5.974000000000000000e+03 2.350453376770019531e+01 2.193940734863281250e+01 3.400455415248870850e-02 1.042896807193756104e-01 4.148827120661735535e-02 6.458771973848342896e-02
5.975000000000000000e+03 6.726229095458984375e+01 2.737843894958496094e+01 -1.066259741783142090e+00 1.073050117492675781e+01 2.899272203445434570e+00 1.223704777657985687e-02
5.976000000000000000e+03 6.663555908203125000e+01 2.358424377441406250e+01 -1.185719132423400879e+00 8.634934425354003906e+00 2.234764575958251953e+00 4.269093573093414307e-01
5.977000000000000000e+03 6.655953979492187500e+01 2.769893836975097656e+01 -1.094990372657775879e+00 1.083958530426025391e+01 2.923378467559814453e+00 4.913753867149353027e-01
5.978000000000000000e+03 1.312595462799072266e+01 1.106731891632080078e+01 3.732012957334518433e-02 1.934127658605575562e-01 6.921987235546112061e-02 3.436445817351341248e-02
5.979000000000000000e+03 3.233389282226562500e+01 1.303091287612915039e+00 -4.721134006977081299e-01 -4.906769692897796631e-01 -2.888371050357818604e-01 -5.753202736377716064e-02
5.980000000000000000e+03 5.904679107666015625e+01 2.712697410583496094e+01 3.880001008510589600e-01 2.986313104629516602e+00 1.012293934822082520e+00 1.535206079483032227e+00
5.981000000000000000e+03 5.920957565307617188e+01 2.762702941894531250e+01 4.786173105239868164e-01 2.915443658828735352e+00 1.018218278884887695e+00 1.576225757598876953e+00
5.982000000000000000e+03 3.569474792480468750e+01 4.682031631469726562e+00 -6.152421832084655762e-01 -3.765609860420227051e-01 -2.975409328937530518e-01 -3.164884746074676514e-01
5.983000000000000000e+03 3.894375228881835938e+01 1.185359096527099609e+01 -7.435060739517211914e-01 -5.574356317520141602e-01 -3.902825117111206055e-01 -6.474058032035827637e-01
5.984000000000000000e+03 3.891630172729492188e+01 1.071331882476806641e+01 -6.920112967491149902e-01 -4.637788832187652588e-01 -3.467370569705963135e-01 -5.695633888244628906e-01
5.985000000000000000e+03 3.365913391113281250e+01 2.335041284561157227e+00 -5.453863739967346191e-01 -4.262323379516601562e-01 -2.914856076240539551e-01 -1.353975534439086914e-01
5.986000000000000000e+03 1.375989151000976562e+01 1.413984680175781250e+01 2.020513825118541718e-02 1.424726545810699463e-01 4.880333691835403442e-02 3.563504666090011597e-02
5.987000000000000000e+03 6.514876556396484375e+01 2.860504913330078125e+01 -8.860827684402465820e-01 1.072685909271240234e+01 2.952232837677001953e+00 1.789864420890808105e+00
5.988000000000000000e+03 6.728937530517578125e+01 2.372032737731933594e+01 -1.188954472541809082e+00 8.870769500732421875e+00 2.304544448852539062e+00 1.800498962402343750e-01
5.989000000000000000e+03 5.863759994506835938e+01 2.732255744934082031e+01 3.886241018772125244e-01 2.624223232269287109e+00 9.038541913032531738e-01 1.358596563339233398e+00
5.990000000000000000e+03 2.036567497253417969e+01 1.920830535888671875e+01 3.406775742769241333e-02 1.179469972848892212e-01 4.560442641377449036e-02 6.682544201612472534e-02
5.991000000000000000e+03 4.720524597167968750e+01 2.092302894592285156e+01 -5.951588749885559082e-01 -1.173146590590476990e-01 -2.137420624494552612e-01 -4.081241488456726074e-01
5.992000000000000000e+03 4.712093353271484375e+01 1.993657875061035156e+01 -5.426253676414489746e-01 -4.007400479167699814e-03 -1.639898270368576050e-01 -3.460678756237030029e-01
5.993000000000000000e+03 3.397046279907226562e+01 -4.167689383029937744e-01 -2.137309126555919647e-02 -3.877169191837310791e-01 -1.227270066738128662e-01 4.752782359719276428e-02
5.994000000000000000e+03 3.123716545104980469e+01 1.693565249443054199e+00 -6.915899515151977539e-01 -5.623349547386169434e-01 -3.761774599552154541e-01 -1.150759682059288025e-01
5.995000000000000000e+03 3.158181953430175781e+01 1.905386805534362793e+00 -6.876935958862304688e-01 -5.329988002777099609e-01 -3.662077188491821289e-01 -1.399961709976196289e-01
5.996000000000000000e+03 3.124718093872070312e+01 2.083428621292114258e+00 -7.847064137458801270e-01 -5.602681040763854980e-01 -4.034923613071441650e-01 -1.605974286794662476e-01
5.997000000000000000e+03 1.757117080688476562e+01 1.579795265197753906e+01 3.912409767508506775e-02 1.423049718141555786e-01 5.442871898412704468e-02 7.262893021106719971e-02
5.998000000000000000e+03 4.989537811279296875e+01 2.353185653686523438e+01 -5.168021917343139648e-01 1.492780894041061401e-01 -1.102572306990623474e-01 -2.394317537546157837e-01
5.999000000000000000e+03 4.946333694458007812e+01 2.243405151367187500e+01 -4.978995919227600098e-01 2.136899381875991821e-01 -8.526290208101272583e-02 -2.045600712299346924e-01
6.000000000000000000e+03 3.654607009887695312e+01 4.309873580932617188e+00 -5.006346106529235840e-01 -2.728201448917388916e-01 -2.320364117622375488e-01 -2.310785353183746338e-01
6.001000000000000000e+03 2.142297935485839844e+01 2.037101173400878906e+01 3.313313424587249756e-02 1.114443019032478333e-01 4.337323084473609924e-02 6.535997241735458374e-02
6.002000000000000000e+03 3.057314682006835938e+01 1.968100309371948242e+00 -8.428293466567993164e-01 -5.948092341423034668e-01 -4.312915503978729248e-01 -1.804363131523132324e-01
6.003000000000000000e+03 1.760677146911621094e+01 1.747909355163574219e+01 2.706106007099151611e-02 1.262442916631698608e-01 4.599160701036453247e-02 5.870656296610832214e-02
6.004000000000000000e+03 1.861996841430664062e+01 1.621535682678222656e+01 4.439816623926162720e-02 1.374279856681823730e-01 5.454784631729125977e-02 7.742676138877868652e-02
6.005000000000000000e+03 3.692845916748046875e+01 7.081969738006591797e+00 -6.539068818092346191e-01 -4.222833216190338135e-01 -3.228570520877838135e-01 -4.574166536331176758e-01
6.006000000000000000e+03 3.714885711669921875e+01 7.566098690032958984e+00 -6.642626523971557617e-01 -4.322301447391510010e-01 -3.289478421211242676e-01 -4.794018566608428955e-01
6.007000000000000000e+03 3.428301620483398438e+01 4.431977748870849609e+00 -7.573820948600769043e-01 -4.545058608055114746e-01 -3.635663986206054688e-01 -3.597241938114166260e-01
6.008000000000000000e+03 3.360462570190429688e+01 3.081452131271362305e+00 -6.812382936477661133e-01 -4.466058015823364258e-01 -3.383532464504241943e-01 -2.288216054439544678e-01
6.009000000000000000e+03 6.718581390380859375e+01 2.675692367553710938e+01 -1.140461444854736328e+00 1.031503009796142578e+01 2.752370595932006836e+00 1.270005255937576294e-01
6.010000000000000000e+03 3.326210021972656250e+01 2.649861574172973633e+00 -6.521080136299133301e-01 -4.561193287372589111e-01 -3.324682116508483887e-01 -1.792406141757965088e-01
6.011000000000000000e+03 3.340068817138671875e+01 1.904919028282165527e+00 -4.964093565940856934e-01 -4.306629300117492676e-01 -2.781216800212860107e-01 -9.425795823335647583e-02
6.012000000000000000e+03 3.190250205993652344e+01 1.611660122871398926e+00 -5.819246768951416016e-01 -5.116680264472961426e-01 -3.280777931213378906e-01 -8.276513218879699707e-02
6.013000000000000000e+03 2.317904090881347656e+01 2.329651260375976562e+01 2.560962177813053131e-02 9.929530322551727295e-02 3.747147694230079651e-02 5.736560001969337463e-02
6.014000000000000000e+03 2.536122894287109375e+01 2.807811546325683594e+01 1.958943717181682587e-02 8.503817021846771240e-02 3.138828277587890625e-02 4.627285897731781006e-02
6.015000000000000000e+03 3.326052474975585938e+01 6.965187788009643555e-01 -2.628882825374603271e-01 -4.323500990867614746e-01 -2.085715085268020630e-01 1.086961012333631516e-03
6.016000000000000000e+03 1.524295425415039062e+01 1.716182899475097656e+01 1.483571156859397888e-02 1.181339249014854431e-01 3.989089280366897583e-02 3.913000598549842834e-02
6.017000000000000000e+03 2.497248649597167969e+01 2.706598854064941406e+01 1.959932222962379456e-02 8.732334524393081665e-02 3.207679837942123413e-02 4.841897636651992798e-02
6.018000000000000000e+03 3.630097579956054688e+01 -6.800854802131652832e-01 6.785452365875244141e-02 -1.905434280633926392e-01 -3.680667281150817871e-02 6.045480817556381226e-02
6.019000000000000000e+03 3.635334777832031250e+01 4.881110668182373047e+00 -5.673293471336364746e-01 -3.235839605331420898e-01 -2.672739923000335693e-01 -2.985379695892333984e-01
6.020000000000000000e+03 3.574581146240234375e+01 -9.500376582145690918e-01 8.267166465520858765e-02 -2.348089218139648438e-01 -4.564118012785911560e-02 7.069540768861770630e-02
6.021000000000000000e+03 1.459947776794433594e+01 1.985038948059082031e+01 2.472033957019448280e-03 8.812768757343292236e-02 2.717991545796394348e-02 2.204839140176773071e-02
6.022000000000000000e+03 1.380786895751953125e+01 2.065201377868652344e+01 -1.481455750763416290e-03 7.413712888956069946e-02 2.179670333862304688e-02 1.341889984905719757e-02
6.023000000000000000e+03 6.666460418701171875e+01 2.294529151916503906e+01 -1.157167792320251465e+00 8.424288749694824219e+00 2.180136203765869141e+00 3.973296582698822021e-01
6.024000000000000000e+03 1.220016574859619141e+01 1.267178821563720703e+01 2.818456292152404785e-02 1.383578479290008545e-01 4.996272549033164978e-02 1.326327770948410034e-02
6.025000000000000000e+03 6.598855590820312500e+01 2.291165924072265625e+01 -1.126210570335388184e+00 8.169207572937011719e+00 2.112899065017700195e+00 6.142383813858032227e-01
6.026000000000000000e+03 2.380925369262695312e+01 2.519870567321777344e+01 2.192173898220062256e-02 9.290450066328048706e-02 3.444787114858627319e-02 5.206922069191932678e-02
6.027000000000000000e+03 6.461985778808593750e+01 5.137874603271484375e+00 -1.767871081829071045e-01 5.757088661193847656e+00 1.674090385437011719e+00 4.432156085968017578e-01
6.028000000000000000e+03 1.409024143218994141e+01 1.550796127319335938e+01 1.532232016324996948e-02 1.280093789100646973e-01 4.299950972199440002e-02 3.479462489485740662e-02
6.029000000000000000e+03 1.870586204528808594e+01 1.792879295349121094e+01 3.181329369544982910e-02 1.251335293054580688e-01 4.708404466509819031e-02 6.472193449735641479e-02
6.030000000000000000e+03 1.834633445739746094e+01 1.895172119140625000e+01 2.356526069343090057e-02 1.175593212246894836e-01 4.233737662434577942e-02 5.557549744844436646e-02
6.031000000000000000e+03 1.537812042236328125e+01 1.419270038604736328e+01 3.087496757507324219e-02 1.559758186340332031e-01 5.605523660778999329e-02 5.976005643606185913e-02
6.032000000000000000e+03 6.564137268066406250e+01 2.069966697692871094e+01 -9.887914657592773438e-01 7.448915004730224609e+00 1.938037157058715820e+00 5.721569657325744629e-01
6.033000000000000000e+03 6.514462280273437500e+01 1.871610832214355469e+01 -8.549071550369262695e-01 6.892947196960449219e+00 1.811411976814270020e+00 5.815180540084838867e-01
6.034000000000000000e+03 6.555738830566406250e+01 7.253385066986083984e+00 -2.435515671968460083e-01 6.081676483154296875e+00 1.751437425613403320e+00 4.061926305294036865e-01
6.035000000000000000e+03 1.244032669067382812e+01 1.157716846466064453e+01 3.456768020987510681e-02 1.621537059545516968e-01 5.901641398668289185e-02 1.756795868277549744e-02
6.036000000000000000e+03 3.537738800048828125e+01 8.933587074279785156e-01 -1.960873901844024658e-01 -2.747416496276855469e-01 -1.412487030029296875e-01 -1.772754709236323833e-03
6.037000000000000000e+03 3.504048156738281250e+01 6.087144613265991211e-01 -1.557857841253280640e-01 -3.035735785961151123e-01 -1.378078013658523560e-01 1.975298859179019928e-02
6.038000000000000000e+03 1.459684848785400391e+01 2.174030685424804688e+01 -2.120743272826075554e-03 7.406277954578399658e-02 2.158261090517044067e-02 1.598264649510383606e-02
6.039000000000000000e+03 1.631213951110839844e+01 2.166176986694335938e+01 3.133285092189908028e-03 8.834732323884963989e-02 2.744418196380138397e-02 2.882105484604835510e-02
6.040000000000000000e+03 6.373764038085937500e+01 2.947171449661254883e+00 -1.085106953978538513e-01 5.488548278808593750e+00 1.614011287689208984e+00 4.540512263774871826e-01
6.041000000000000000e+03 6.348770904541015625e+01 -8.018400520086288452e-02 -4.108881577849388123e-02 5.363713264465332031e+00 1.596787333488464355e+00 4.363566637039184570e-01
6.042000000000000000e+03 6.592013549804687500e+01 1.264959907531738281e+01 -4.958570897579193115e-01 6.455765247344970703e+00 1.787972450256347656e+00 3.815918266773223877e-01
6.043000000000000000e+03 3.944817733764648438e+01 -2.139274358749389648e+00 2.301511168479919434e-01 2.172961980104446411e-01 1.342341899871826172e-01 9.925513714551925659e-02
6.044000000000000000e+03 6.663263702392578125e+01 1.501462268829345703e+01 -6.361457705497741699e-01 6.861700534820556641e+00 1.867666482925415039e+00 3.156853616237640381e-01
6.045000000000000000e+03 6.511511993408203125e+01 1.182887077331542969e+01 -4.502916038036346436e-01 6.182234287261962891e+00 1.719582796096801758e+00 4.367609322071075439e-01
6.046000000000000000e+03 6.644802856445312500e+01 1.637682533264160156e+01 -7.253105640411376953e-01 6.978900432586669922e+00 1.876076936721801758e+00 3.319184184074401855e-01
6.047000000000000000e+03 2.672994422912597656e+01 2.984978675842285156e+01 2.176180668175220490e-02 8.034585416316986084e-02 3.063229843974113464e-02 4.256797209382057190e-02
6.048000000000000000e+03 2.399797821044921875e+01 2.740050125122070312e+01 1.599958911538124084e-02 8.592113852500915527e-02 3.057621978223323822e-02 4.472521692514419556e-02
6.049000000000000000e+03 5.126062011718750000e+01 -1.355626296997070312e+01 1.028394848108291626e-01 2.704441070556640625e+00 8.421841859817504883e-01 1.668146699666976929e-01
6.050000000000000000e+03 6.583220672607421875e+01 2.150431632995605469e+01 -1.047794818878173828e+00 7.716475963592529297e+00 2.000604391098022461e+00 5.730303525924682617e-01
6.051000000000000000e+03 2.391244697570800781e+01 2.422589111328125000e+01 2.477196045219898224e-02 9.605776518583297729e-02 3.624891862273216248e-02 5.633135139942169189e-02
6.052000000000000000e+03 2.707103347778320312e+01 3.183111572265625000e+01 1.959830708801746368e-02 7.651035487651824951e-02 2.883259952068328857e-02 3.611645475029945374e-02
6.053000000000000000e+03 2.305131912231445312e+01 2.916919326782226562e+01 9.614174254238605499e-03 7.893899083137512207e-02 2.656595036387443542e-02 3.552952036261558533e-02
6.054000000000000000e+03 6.393310546875000000e+01 -8.465135574340820312e+00 1.502660755068063736e-02 5.410389900207519531e+00 1.627624988555908203e+00 3.872379064559936523e-01
6.055000000000000000e+03 6.270534896850585938e+01 -1.495560932159423828e+01 2.349423803389072418e-02 5.157221794128417969e+00 1.554214715957641602e+00 3.496975600719451904e-01
6.056000000000000000e+03 6.531491851806640625e+01 -7.081780433654785156e+00 2.727790176868438721e-02 5.733844280242919922e+00 1.728336691856384277e+00 3.736584484577178955e-01
6.057000000000000000e+03 6.468741607666015625e+01 -9.183422088623046875e+00 2.264550328254699707e-02 5.567183017730712891e+00 1.676948547363281250e+00 3.739908337593078613e-01
6.058000000000000000e+03 6.721752166748046875e+01 1.587548255920410156e+01 -6.818339824676513672e-01 7.119877815246582031e+00 1.931413054466247559e+00 2.326258420944213867e-01
6.059000000000000000e+03 6.515636444091796875e+01 1.336589145660400391e+01 -5.298796296119689941e-01 6.305177211761474609e+00 1.732589244842529297e+00 4.453364014625549316e-01
6.060000000000000000e+03 6.630517578125000000e+01 1.761209678649902344e+01 -8.114430904388427734e-01 7.115942001342773438e+00 1.891349673271179199e+00 3.568918108940124512e-01
6.061000000000000000e+03 6.172580337524414062e+01 -3.993030786514282227e+00 2.166158147156238556e-02 4.918547630310058594e+00 1.482062816619873047e+00 4.121051728725433350e-01
6.062000000000000000e+03 1.363106632232666016e+01 1.905692863464355469e+01 1.845730235800147057e-03 8.431971073150634766e-02 2.584963291883468628e-02 1.617878861725330353e-02
6.063000000000000000e+03 1.445941543579101562e+01 1.809098243713378906e+01 7.630663923919200897e-03 1.019438728690147400e-01 3.287236019968986511e-02 2.701479382812976837e-02
6.064000000000000000e+03 1.716124725341796875e+01 3.167148590087890625e+01 -7.165063638240098953e-03 4.551110416650772095e-02 1.150381192564964294e-02 1.021778210997581482e-02
6.065000000000000000e+03 2.174460411071777344e+01 2.642410659790039062e+01 9.912658482789993286e-03 8.561540395021438599e-02 2.865841798484325409e-02 4.023420065641403198e-02
6.066000000000000000e+03 1.520235824584960938e+01 2.543250656127929688e+01 -6.348304916173219681e-03 5.786947906017303467e-02 1.545635145157575607e-02 1.254756469279527664e-02
6.067000000000000000e+03 4.498571395874023438e+01 -6.035483837127685547e+00 2.807186543941497803e-01 1.216900944709777832e+00 4.492858946323394775e-01 1.404036730527877808e-01
6.068000000000000000e+03 4.059033584594726562e+01 -3.004297971725463867e+00 2.728414833545684814e-01 3.905071020126342773e-01 1.990045756101608276e-01 1.104878187179565430e-01
6.069000000000000000e+03 4.122988128662109375e+01 -3.485400438308715820e+00 2.803992033004760742e-01 4.964537918567657471e-01 2.330559045076370239e-01 1.196282058954238892e-01
6.070000000000000000e+03 1.581495857238769531e+01 2.735511589050292969e+01 -5.099581554532051086e-03 5.448973178863525391e-02 1.481704507023096085e-02 1.233273651450872421e-02
6.071000000000000000e+03 4.656866836547851562e+01 -7.997322082519531250e+00 2.549647986888885498e-01 1.576577663421630859e+00 5.494627356529235840e-01 1.412975937128067017e-01
6.072000000000000000e+03 4.639430618286132812e+01 -6.744247913360595703e+00 2.576940059661865234e-01 1.504031777381896973e+00 5.285177230834960938e-01 1.565713137388229370e-01
6.073000000000000000e+03 6.464426422119140625e+01 -7.757930755615234375e+00 1.704160310328006744e-02 5.572681903839111328e+00 1.676917076110839844e+00 3.799097836017608643e-01
6.074000000000000000e+03 5.239428329467773438e+01 -1.662889862060546875e+01 5.001663044095039368e-02 3.034364938735961914e+00 9.253144264221191406e-01 1.826755255460739136e-01
6.075000000000000000e+03 6.531556701660156250e+01 8.710187911987304688e+00 -2.979657948017120361e-01 6.070827007293701172e+00 1.731858372688293457e+00 4.133054316043853760e-01
6.076000000000000000e+03 5.096238708496093750e+01 -1.691119384765625000e+01 4.089673981070518494e-02 2.731808423995971680e+00 8.318115472793579102e-01 1.320227682590484619e-01
6.077000000000000000e+03 6.352304077148437500e+01 -1.906271362304687500e+01 1.379369851201772690e-02 5.314393520355224609e+00 1.598456144332885742e+00 3.390866816043853760e-01
6.078000000000000000e+03 6.486381530761718750e+01 6.518583297729492188e+00 -2.211006730794906616e-01 5.871676445007324219e+00 1.695172667503356934e+00 4.414641857147216797e-01
6.079000000000000000e+03 5.169410705566406250e+01 -1.586052131652832031e+01 4.678777605295181274e-02 2.839528799057006836e+00 8.658949136734008789e-01 1.528018712997436523e-01
6.080000000000000000e+03 5.677254867553710938e+01 -1.927429962158203125e+01 1.684496761299669743e-03 3.983855485916137695e+00 1.195662021636962891e+00 2.757476866245269775e-01
6.081000000000000000e+03 6.297047042846679688e+01 2.238659143447875977e+00 -8.348445594310760498e-02 5.253771305084228516e+00 1.551086068153381348e+00 4.587072134017944336e-01
6.082000000000000000e+03 6.254167938232421875e+01 -7.981598377227783203e-01 -2.107152529060840607e-02 5.125117301940917969e+00 1.531213760375976562e+00 4.411961436271667480e-01
6.083000000000000000e+03 6.137654495239257812e+01 -2.090995407104492188e+01 6.217352114617824554e-03 4.899459838867187500e+00 1.471703171730041504e+00 3.424234390258789062e-01
6.084000000000000000e+03 5.015847015380859375e+01 -1.291745853424072266e+01 1.369295269250869751e-01 2.455582857131958008e+00 7.777537107467651367e-01 1.523736119270324707e-01
6.085000000000000000e+03 1.279294776916503906e+01 -2.859570312500000000e+01 1.436627060174942017e-01 -5.085579752922058105e-01 -1.094685792922973633e-01 -2.360288500785827637e-01
6.086000000000000000e+03 1.829047393798828125e+01 -2.700074768066406250e+01 2.098431140184402466e-01 -9.106665104627609253e-02 3.563293814659118652e-02 -2.927498519420623779e-01
6.087000000000000000e+03 6.388873291015625000e+01 -1.095967578887939453e+01 2.672271989285945892e-02 5.396467208862304688e+00 1.626956939697265625e+00 3.726937770843505859e-01
6.088000000000000000e+03 5.219742202758789062e+01 -1.419744682312011719e+01 8.997405320405960083e-02 2.949509859085083008e+00 9.118452072143554688e-01 1.902345418930053711e-01
6.089000000000000000e+03 4.833200073242187500e+01 -1.113766670227050781e+01 1.880265772342681885e-01 2.021000862121582031e+00 6.627082228660583496e-01 1.260924637317657471e-01
6.090000000000000000e+03 6.589736175537109375e+01 2.899408531188964844e+01 -9.031368494033813477e-01 1.186506938934326172e+01 3.288579702377319336e+00 1.017372727394104004e+00
6.091000000000000000e+03 6.445237731933593750e+01 2.909037971496582031e+01 -5.809285640716552734e-01 1.030818462371826172e+01 2.918176889419555664e+00 2.591024637222290039e+00
6.092000000000000000e+03 5.941008377075195312e+01 2.683037185668945312e+01 3.356264233589172363e-01 3.356077194213867188e+00 1.107511162757873535e+00 1.664124608039855957e+00
6.093000000000000000e+03 6.146365737915039062e+01 2.911883544921875000e+01 8.306635618209838867e-01 4.539393424987792969e+00 1.611017107963562012e+00 2.773252010345458984e+00
6.094000000000000000e+03 6.087395095825195312e+01 2.819190597534179688e+01 5.691919922828674316e-01 4.203703403472900391e+00 1.431868672370910645e+00 2.327150344848632812e+00
6.095000000000000000e+03 4.075617218017578125e+01 1.309820747375488281e+01 -6.779314279556274414e-01 -3.978602886199951172e-01 -3.227375149726867676e-01 -5.789866447448730469e-01
6.096000000000000000e+03 4.969464492797851562e+01 2.027637672424316406e+01 -3.878450989723205566e-01 5.941814184188842773e-01 6.190090253949165344e-02 -2.016055770218372345e-02
6.097000000000000000e+03 5.057707977294921875e+01 2.291957473754882812e+01 -4.299643039703369141e-01 4.343292117118835449e-01 1.309476792812347412e-03 -7.745248079299926758e-02
6.098000000000000000e+03 6.652333831787109375e+01 2.946387863159179688e+01 -6.611305475234985352e-01 1.249405002593994141e+01 3.549875974655151367e+00 2.550492882728576660e-01
6.099000000000000000e+03 4.558336257934570312e+01 1.835365867614746094e+01 -5.626586079597473145e-01 -1.168958023190498352e-01 -2.038663327693939209e-01 -4.347997605800628662e-01
6.100000000000000000e+03 6.165974044799804688e+01 2.962214660644531250e+01 1.024382352828979492e+00 4.523516178131103516e+00 1.664369583129882812e+00 2.989670991897583008e+00
6.101000000000000000e+03 4.285098648071289062e+01 1.421315479278564453e+01 -5.841846466064453125e-01 -1.518974900245666504e-01 -2.208246290683746338e-01 -4.618290364742279053e-01
6.102000000000000000e+03 6.693731689453125000e+01 2.863809204101562500e+01 -8.356506228446960449e-01 1.171753311157226562e+01 3.264564990997314453e+00 3.331631794571876526e-02
6.103000000000000000e+03 4.891839599609375000e+01 2.129974555969238281e+01 -4.791262149810791016e-01 2.451864629983901978e-01 -7.018192112445831299e-02 -1.904764026403427124e-01
6.104000000000000000e+03 5.132527923583984375e+01 2.371283149719238281e+01 -3.992432951927185059e-01 5.137963891029357910e-01 3.436592966318130493e-02 -2.470366470515727997e-02
6.105000000000000000e+03 4.580823898315429688e+01 1.733523559570312500e+01 -5.085254311561584473e-01 4.189012944698333740e-02 -1.399905830621719360e-01 -3.512549996376037598e-01
6.106000000000000000e+03 4.642969894409179688e+01 1.855836486816406250e+01 -5.167181491851806641e-01 2.393125742673873901e-02 -1.478360593318939209e-01 -3.422765731811523438e-01
6.107000000000000000e+03 4.919208145141601562e+01 2.116556739807128906e+01 -4.643598496913909912e-01 3.242119848728179932e-01 -4.204435274004936218e-02 -1.512616723775863647e-01
6.108000000000000000e+03 4.863536453247070312e+01 2.132265090942382812e+01 -5.067715048789978027e-01 1.687130481004714966e-01 -1.014175340533256531e-01 -2.392790317535400391e-01
6.109000000000000000e+03 4.703016662597656250e+01 2.052081489562988281e+01 -5.834025144577026367e-01 -9.864743053913116455e-02 -2.046149820089340210e-01 -3.991863429546356201e-01
6.110000000000000000e+03 5.314960098266601562e+01 2.533684539794921875e+01 -2.802431285381317139e-01 8.030607700347900391e-01 1.568453013896942139e-01 1.502051204442977905e-01
6.111000000000000000e+03 5.363800430297851562e+01 2.509485816955566406e+01 -2.307558506727218628e-01 1.017185688018798828e+00 2.359289526939392090e-01 2.622753977775573730e-01
6.112000000000000000e+03 4.272426605224609375e+01 1.464197444915771484e+01 -6.028458476066589355e-01 -2.116341441869735718e-01 -2.443439960479736328e-01 -5.026198029518127441e-01
6.113000000000000000e+03 4.616816711425781250e+01 1.830216217041015625e+01 -5.213589668273925781e-01 4.141645971685647964e-03 -1.551651954650878906e-01 -3.675508201122283936e-01
6.114000000000000000e+03 5.371193695068359375e+01 2.423359870910644531e+01 -2.079589664936065674e-01 1.205950021743774414e+00 2.993973195552825928e-01 3.527338206768035889e-01
6.115000000000000000e+03 5.176865005493164062e+01 2.399441909790039062e+01 -3.674361109733581543e-01 6.018843650817871094e-01 7.033447176218032837e-02 2.884928509593009949e-02
6.116000000000000000e+03 4.885765075683593750e+01 2.064412498474121094e+01 -4.563936591148376465e-01 3.268220722675323486e-01 -3.887147456407546997e-02 -1.603610664606094360e-01
6.117000000000000000e+03 4.649211502075195312e+01 1.737362670898437500e+01 -4.664167463779449463e-01 1.967485100030899048e-01 -8.090046793222427368e-02 -2.651271224021911621e-01
6.118000000000000000e+03 5.160985565185546875e+01 2.326591300964355469e+01 -3.586574196815490723e-01 6.841313242912292480e-01 9.764216840267181396e-02 6.642416864633560181e-02
6.119000000000000000e+03 4.936587524414062500e+01 2.153296089172363281e+01 -4.606460630893707275e-01 3.271813988685607910e-01 -4.003939777612686157e-02 -1.515492647886276245e-01
6.120000000000000000e+03 4.592164993286132812e+01 1.858540153503417969e+01 -5.539107918739318848e-01 -6.504619121551513672e-02 -1.856870949268341064e-01 -4.131194055080413818e-01
6.121000000000000000e+03 3.810930252075195312e+01 8.321287155151367188e+00 -6.277807950973510742e-01 -3.738275468349456787e-01 -3.004824817180633545e-01 -4.617871344089508057e-01
6.122000000000000000e+03 4.544759750366210938e+01 1.697493362426757812e+01 -5.149704813957214355e-01 1.863013021647930145e-02 -1.489021033048629761e-01 -3.691957890987396240e-01
6.123000000000000000e+03 3.913456344604492188e+01 1.011073398590087891e+01 -6.439810395240783691e-01 -3.798127174377441406e-01 -3.071381151676177979e-01 -5.073319673538208008e-01
6.124000000000000000e+03 3.960416030883789062e+01 1.150420284271240234e+01 -6.852073669433593750e-01 -4.334746897220611572e-01 -3.356046378612518311e-01 -5.682354569435119629e-01
6.125000000000000000e+03 5.294403076171875000e+01 2.473214149475097656e+01 -2.853611111640930176e-01 8.458983302116394043e-01 1.681611686944961548e-01 1.703049093484878540e-01
6.126000000000000000e+03 6.316700744628906250e+01 2.911540222167968750e+01 1.562788933515548706e-01 7.719394207000732422e+00 2.362701892852783203e+00 3.285574436187744141e+00
6.127000000000000000e+03 4.096067428588867188e+01 1.372460651397705078e+01 -6.910336017608642578e-01 -4.202985763549804688e-01 -3.333996534347534180e-01 -6.018413901329040527e-01
6.128000000000000000e+03 4.038552856445312500e+01 1.327847003936767578e+01 -7.064240574836730957e-01 -4.659060239791870117e-01 -3.516990244388580322e-01 -6.207002401351928711e-01
6.129000000000000000e+03 5.218327331542968750e+01 2.425649070739746094e+01 -3.380942344665527344e-01 6.862627863883972168e-01 1.044505611062049866e-01 7.723934948444366455e-02
6.130000000000000000e+03 4.899102783203125000e+01 2.089831542968750000e+01 -4.650367200374603271e-01 3.176691532135009766e-01 -4.421027749776840210e-02 -1.564095616340637207e-01
6.131000000000000000e+03 3.435756683349609375e+01 1.272430568933486938e-01 -1.133960857987403870e-01 -3.562945127487182617e-01 -1.409071832895278931e-01 3.116330318152904510e-02
6.132000000000000000e+03 3.490928649902343750e+01 1.056934073567390442e-01 -7.714772224426269531e-02 -3.127520084381103516e-01 -1.169699206948280334e-01 3.990739211440086365e-02
6.133000000000000000e+03 5.721434020996093750e+01 2.694765472412109375e+01 2.042351663112640381e-01 1.971327424049377441e+00 6.526687741279602051e-01 9.026542305946350098e-01
6.134000000000000000e+03 5.678478622436523438e+01 2.697731590270996094e+01 1.511195152997970581e-01 1.767283201217651367e+00 5.755208134651184082e-01 7.652845978736877441e-01
6.135000000000000000e+03 4.108081436157226562e+01 1.332406234741210938e+01 -6.681237816810607910e-01 -3.689873218536376953e-01 -3.111333250999450684e-01 -5.676952004432678223e-01
6.136000000000000000e+03 3.652069854736328125e+01 6.057364463806152344e+00 -6.342505812644958496e-01 -3.902543783187866211e-01 -3.073514699935913086e-01 -3.992910683155059814e-01
6.137000000000000000e+03 3.737870407104492188e+01 8.039813041687011719e+00 -6.684955954551696777e-01 -4.454168975353240967e-01 -3.341737389564514160e-01 -4.992079734802246094e-01
6.138000000000000000e+03 4.349856948852539062e+01 1.528040790557861328e+01 -5.772483944892883301e-01 -1.447549462318420410e-01 -2.166009992361068726e-01 -4.719020724296569824e-01
6.139000000000000000e+03 4.316471862792968750e+01 1.473755550384521484e+01 -5.786809325218200684e-01 -1.472192257642745972e-01 -2.177700549364089966e-01 -4.681179821491241455e-01
6.140000000000000000e+03 5.503815078735351562e+01 2.698495674133300781e+01 -1.085269972681999207e-01 1.108761191368103027e+00 3.000702857971191406e-01 3.205102086067199707e-01
6.141000000000000000e+03 6.133056640625000000e+01 2.862167739868164062e+01 6.641697883605957031e-01 4.585182189941406250e+00 1.574805617332458496e+00 2.619527101516723633e+00
6.142000000000000000e+03 5.388516235351562500e+01 2.558836174011230469e+01 -2.064923644065856934e-01 1.014069676399230957e+00 2.422731816768646240e-01 2.597270309925079346e-01
6.143000000000000000e+03 5.347160339355468750e+01 2.456359672546386719e+01 -2.341807484626770020e-01 1.052486538887023926e+00 2.454917430877685547e-01 2.797687649726867676e-01
6.144000000000000000e+03 4.013249206542968750e+01 1.142371654510498047e+01 -6.415209770202636719e-01 -3.429918587207794189e-01 -2.953538596630096436e-01 -5.165587663650512695e-01
6.145000000000000000e+03 4.383424377441406250e+01 1.585038757324218750e+01 -5.767180919647216797e-01 -1.486456096172332764e-01 -2.176091074943542480e-01 -4.765254259109497070e-01
6.146000000000000000e+03 3.265629577636718750e+01 1.767781615257263184e+00 -5.471339821815490723e-01 -4.732444584369659424e-01 -3.061135411262512207e-01 -9.210870414972305298e-02
6.147000000000000000e+03 5.793610382080078125e+01 2.674092864990234375e+01 2.805947661399841309e-01 2.439894199371337891e+00 8.161466717720031738e-01 1.171765565872192383e+00
6.148000000000000000e+03 5.845547866821289062e+01 2.689891242980957031e+01 3.320229351520538330e-01 2.686129093170166016e+00 9.054456353187561035e-01 1.331930518150329590e+00
6.149000000000000000e+03 1.416282653808593750e+01 1.337958526611328125e+01 2.753111161291599274e-02 1.594558507204055786e-01 5.609608814120292664e-02 4.660519212484359741e-02
6.150000000000000000e+03 6.717870330810546875e+01 2.850803565979003906e+01 -8.257976174354553223e-01 1.157670307159423828e+01 3.225271701812744141e+00 -1.375141143798828125e-01
6.151000000000000000e+03 6.669292449951171875e+01 2.808981513977050781e+01 -1.023649692535400391e+00 1.121729564666748047e+01 3.058093786239624023e+00 3.566387593746185303e-01
6.152000000000000000e+03 3.836007308959960938e+01 8.772995948791503906e+00 -6.341978907585144043e-01 -3.761477470397949219e-01 -3.031036853790283203e-01 -4.746634662151336670e-01
6.153000000000000000e+03 3.861886596679687500e+01 9.220554351806640625e+00 -6.360292434692382812e-01 -3.784259259700775146e-01 -3.043365478515625000e-01 -4.862026870250701904e-01
6.154000000000000000e+03 3.888132858276367188e+01 9.666151046752929688e+00 -6.416985988616943359e-01 -3.770513534545898438e-01 -3.056249916553497314e-01 -4.960764348506927490e-01
6.155000000000000000e+03 5.681166839599609375e+01 2.655215263366699219e+01 1.436810046434402466e-01 1.903746128082275391e+00 6.142281293869018555e-01 8.322532773017883301e-01
6.156000000000000000e+03 3.936016845703125000e+01 1.055813217163085938e+01 -6.543754339218139648e-01 -3.829715549945831299e-01 -3.112041056156158447e-01 -5.217500925064086914e-01
6.157000000000000000e+03 3.914575195312500000e+01 1.148569869995117188e+01 -7.150688767433166504e-01 -4.989722073078155518e-01 -3.642123341560363770e-01 -6.054635643959045410e-01
6.158000000000000000e+03 1.348448944091796875e+01 1.304055690765380859e+01 2.651763148605823517e-02 1.575501114130020142e-01 5.522032082080841064e-02 3.615970537066459656e-02
6.159000000000000000e+03 4.994847106933593750e+01 2.279287719726562500e+01 -4.775864481925964355e-01 2.824248075485229492e-01 -5.854849144816398621e-02 -1.670216023921966553e-01
6.160000000000000000e+03 1.633766746520996094e+01 1.470451450347900391e+01 3.638808056712150574e-02 1.514845192432403564e-01 5.636177957057952881e-02 6.840386986732482910e-02
6.161000000000000000e+03 5.809931564331054688e+01 2.708776473999023438e+01 3.206303417682647705e-01 2.407314062118530273e+00 8.183833360671997070e-01 1.189257860183715820e+00
6.162000000000000000e+03 6.008102416992187500e+01 2.769655227661132812e+01 4.989154934883117676e-01 3.615769147872924805e+00 1.234405398368835449e+00 1.961742281913757324e+00
6.163000000000000000e+03 6.237283325195312500e+01 2.916427230834960938e+01 5.923734903335571289e-01 6.102868556976318359e+00 2.008572578430175781e+00 3.221009016036987305e+00
6.164000000000000000e+03 1.678758239746093750e+01 1.512453556060791016e+01 3.715698048472404480e-02 1.469558626413345337e-01 5.523385107517242432e-02 6.927404552698135376e-02
6.165000000000000000e+03 1.471131420135498047e+01 1.318263530731201172e+01 3.417323529720306396e-02 1.672359555959701538e-01 6.042275950312614441e-02 5.681548267602920532e-02
6.166000000000000000e+03 1.536547374725341797e+01 1.358726119995117188e+01 3.675322607159614563e-02 1.650528907775878906e-01 6.054183468222618103e-02 6.515824794769287109e-02
6.167000000000000000e+03 6.762866210937500000e+01 2.869291877746582031e+01 -6.256202459335327148e-01 1.161097335815429688e+01 3.295605897903442383e+00 -5.433964133262634277e-01
6.168000000000000000e+03 6.660707855224609375e+01 2.686254692077636719e+01 -1.160562157630920410e+00 1.023727226257324219e+01 2.723013162612915039e+00 4.827014207839965820e-01
6.169000000000000000e+03 5.975614547729492188e+01 2.714787101745605469e+01 3.876959681510925293e-01 3.520121097564697266e+00 1.172345161437988281e+00 1.795970678329467773e+00
6.170000000000000000e+03 3.556356048583984375e+01 3.841579437255859375e+00 -5.460159778594970703e-01 -3.434498012065887451e-01 -2.668397426605224609e-01 -2.362568825483322144e-01
6.171000000000000000e+03 3.712278747558593750e+01 5.922992229461669922e+00 -5.772220492362976074e-01 -3.075018823146820068e-01 -2.654171884059906006e-01 -3.412232697010040283e-01
6.172000000000000000e+03 3.295478820800781250e+01 2.214693307876586914e+00 -6.013147830963134766e-01 -4.686994254589080811e-01 -3.210042715072631836e-01 -1.381779164075851440e-01
6.173000000000000000e+03 1.444538307189941406e+01 1.448267364501953125e+01 2.268220297992229462e-02 1.438208818435668945e-01 4.995092749595642090e-02 4.463233053684234619e-02
6.174000000000000000e+03 1.481169795989990234e+01 1.373411560058593750e+01 2.956781722605228424e-02 1.596211642026901245e-01 5.675669759511947632e-02 5.534971877932548523e-02
6.175000000000000000e+03 1.945977783203125000e+01 1.926429939270019531e+01 2.858488261699676514e-02 1.169275119900703430e-01 4.365371912717819214e-02 6.154583021998405457e-02
6.176000000000000000e+03 3.671994400024414062e+01 6.581734657287597656e+00 -6.472204327583312988e-01 -4.042762815952301025e-01 -3.154490292072296143e-01 -4.299372136592864990e-01
6.177000000000000000e+03 2.397241783142089844e+01 2.259633064270019531e+01 3.268183767795562744e-02 1.015190482139587402e-01 4.026026651263237000e-02 6.334149092435836792e-02
6.178000000000000000e+03 3.146530723571777344e+01 1.290787100791931152e+00 -5.401551723480224609e-01 -5.204212069511413574e-01 -3.181729018688201904e-01 -6.251290440559387207e-02
6.179000000000000000e+03 6.528314208984375000e+01 2.228548049926757812e+01 -1.046982884407043457e+00 7.671078205108642578e+00 1.987228512763977051e+00 7.674827575683593750e-01
6.180000000000000000e+03 6.714417266845703125e+01 2.433484649658203125e+01 -1.202908396720886230e+00 9.064339637756347656e+00 2.358429431915283203e+00 2.269422858953475952e-01
6.181000000000000000e+03 6.703423309326171875e+01 2.609527397155761719e+01 -1.190631270408630371e+00 9.899061203002929688e+00 2.612528800964355469e+00 2.547523677349090576e-01
6.182000000000000000e+03 4.979900741577148438e+01 2.238590812683105469e+01 -4.792379438877105713e-01 3.025518655776977539e-01 -5.300582200288772583e-02 -1.576717495918273926e-01
6.183000000000000000e+03 2.107321357727050781e+01 2.123023033142089844e+01 2.603845112025737762e-02 1.075076013803482056e-01 4.006381332874298096e-02 5.882737413048744202e-02
6.184000000000000000e+03 2.019271087646484375e+01 2.055113220214843750e+01 2.553025074303150177e-02 1.100102663040161133e-01 4.066215455532073975e-02 5.787232890725135803e-02
6.185000000000000000e+03 4.063261032104492188e+01 1.276123332977294922e+01 -6.711152195930480957e-01 -3.885576426982879639e-01 -3.179018795490264893e-01 -5.666805505752563477e-01
6.186000000000000000e+03 4.227464294433593750e+01 1.452207756042480469e+01 -6.347830891609191895e-01 -2.765268683433532715e-01 -2.733929753303527832e-01 -5.387926101684570312e-01
6.187000000000000000e+03 1.818494796752929688e+01 2.083920288085937500e+01 1.427367050200700760e-02 1.041454151272773743e-01 3.552572801709175110e-02 4.455552622675895691e-02
6.188000000000000000e+03 1.564258193969726562e+01 2.067365264892578125e+01 3.753791097551584244e-03 9.088587015867233276e-02 2.839189954102039337e-02 2.732553146779537201e-02
6.189000000000000000e+03 3.364327621459960938e+01 1.135362982749938965e+00 -3.229957818984985352e-01 -4.080295264720916748e-01 -2.193075865507125854e-01 -3.020799718797206879e-02
6.190000000000000000e+03 1.532505798339843750e+01 1.645956039428710938e+01 1.706534996628761292e-02 1.268894821405410767e-01 4.318644851446151733e-02 4.283129796385765076e-02
6.191000000000000000e+03 1.693934822082519531e+01 1.555834484100341797e+01 3.396722674369812012e-02 1.426276117563247681e-01 5.297845229506492615e-02 6.727489829063415527e-02
6.192000000000000000e+03 3.396825408935546875e+01 2.706413507461547852e+00 -5.732432603836059570e-01 -4.130613207817077637e-01 -2.958913743495941162e-01 -1.696906536817550659e-01
6.193000000000000000e+03 3.708558273315429688e+01 -1.130438566207885742e+00 1.291124820709228516e-01 -1.004706174135208130e-01 8.592560887336730957e-03 7.166834175586700439e-02
6.194000000000000000e+03 3.766580963134765625e+01 -1.531542688608169556e-01 4.312062263488769531e-02 -4.268041998147964478e-02 1.320608425885438919e-04 6.387321650981903076e-02
6.195000000000000000e+03 3.762026977539062500e+01 -1.267939686775207520e+00 1.474357545375823975e-01 -3.560255840420722961e-02 3.354996070265769958e-02 8.239867538213729858e-02
6.196000000000000000e+03 3.698391342163085938e+01 -4.645254611968994141e-01 5.775260925292968750e-02 -1.106358766555786133e-01 -1.586497947573661804e-02 6.745743751525878906e-02
6.197000000000000000e+03 6.473744201660156250e+01 7.868048667907714844e+00 -2.679544985294342041e-01 5.893518924713134766e+00 1.687669277191162109e+00 4.409008622169494629e-01
6.198000000000000000e+03 6.405373382568359375e+01 5.892596721649169922e+00 -1.921063065528869629e-01 5.629765510559082031e+00 1.631297707557678223e+00 4.561707675457000732e-01
6.199000000000000000e+03 6.727448272705078125e+01 2.565367317199707031e+01 -1.193946003913879395e+00 9.695041656494140625e+00 2.550328731536865234e+00 1.371026635169982910e-01
6.200000000000000000e+03 2.285952949523925781e+01 2.520681381225585938e+01 1.726309582591056824e-02 9.197215735912322998e-02 3.277057781815528870e-02 4.873422905802726746e-02
6.201000000000000000e+03 2.383401679992675781e+01 2.625008773803710938e+01 1.777965389192104340e-02 8.931213617324829102e-02 3.212753683328628540e-02 4.808123409748077393e-02
6.202000000000000000e+03 2.284378242492675781e+01 2.635091781616210938e+01 1.519979164004325867e-02 8.872054517269134521e-02 3.117609955370426178e-02 4.500598460435867310e-02
6.203000000000000000e+03 1.357282924652099609e+01 1.817598342895507812e+01 3.735342295840382576e-03 9.176567941904067993e-02 2.865030802786350250e-02 1.869321800768375397e-02
6.204000000000000000e+03 1.425229740142822266e+01 1.632560729980468750e+01 1.348355598747730255e-02 1.185075417160987854e-01 3.959732875227928162e-02 3.217050433158874512e-02
6.205000000000000000e+03 1.481896018981933594e+01 1.477022552490234375e+01 2.312716282904148102e-02 1.439104080200195312e-01 5.011127516627311707e-02 4.708058014512062073e-02
6.206000000000000000e+03 6.400593566894531250e+01 1.866552162170410156e+01 -7.895874977111816406e-01 6.456964015960693359e+00 1.700212955474853516e+00 7.330254912376403809e-01
6.207000000000000000e+03 1.809119415283203125e+01 1.677292823791503906e+01 3.601656481623649597e-02 1.326212882995605469e-01 5.059135332703590393e-02 6.844294071197509766e-02
6.208000000000000000e+03 3.551404571533203125e+01 -3.632326424121856689e-02 -4.060779511928558350e-02 -2.621102929115295410e-01 -9.081542491912841797e-02 4.147067293524742126e-02
6.209000000000000000e+03 6.293921279907226562e+01 3.655787944793701172e+00 -1.280809044837951660e-01 5.278292655944824219e+00 1.545063495635986328e+00 4.694240689277648926e-01
6.210000000000000000e+03 3.805365753173828125e+01 -7.550684809684753418e-01 1.027454882860183716e-01 1.129233092069625854e-02 3.421134501695632935e-02 7.768926024436950684e-02
6.211000000000000000e+03 3.804933166503906250e+01 -1.748364925384521484e+00 1.923157423734664917e-01 2.265251427888870239e-02 6.449047476053237915e-02 8.870184421539306641e-02
6.212000000000000000e+03 4.605583953857421875e+01 -5.649692058563232422e+00 2.590550184249877930e-01 1.429129362106323242e+00 5.064553022384643555e-01 1.772751510143280029e-01
6.213000000000000000e+03 4.564860153198242188e+01 -4.711841583251953125e+00 2.505868673324584961e-01 1.313564896583557129e+00 4.692455232143402100e-01 1.830382347106933594e-01
6.214000000000000000e+03 2.332406234741210938e+01 2.252342033386230469e+01 3.136432543396949768e-02 1.018603667616844177e-01 3.996741026639938354e-02 6.189211830496788025e-02
6.215000000000000000e+03 6.533110046386718750e+01 2.294496345520019531e+01 -1.074292063713073730e+00 7.883466243743896484e+00 2.042752265930175781e+00 8.177838325500488281e-01
6.216000000000000000e+03 6.578402709960937500e+01 1.937249183654785156e+01 -9.209097027778625488e-01 7.244554042816162109e+00 1.897093296051025391e+00 4.909200370311737061e-01
6.217000000000000000e+03 6.583883666992187500e+01 1.561085414886474609e+01 -6.724008917808532715e-01 6.712164402008056641e+00 1.811929106712341309e+00 4.049225747585296631e-01
6.218000000000000000e+03 2.490044021606445312e+01 2.992067909240722656e+01 1.560576166957616806e-02 7.979109883308410645e-02 2.861905656754970551e-02 3.857099264860153198e-02
6.219000000000000000e+03 4.305859756469726562e+01 -3.374855995178222656e+00 2.641418278217315674e-01 8.019112944602966309e-01 3.198159337043762207e-01 1.521361321210861206e-01
6.220000000000000000e+03 1.560035896301269531e+01 2.143239021301269531e+01 1.561067765578627586e-03 8.536879718303680420e-02 2.607895992696285248e-02 2.446263469755649567e-02
6.221000000000000000e+03 1.505630493164062500e+01 2.104551887512207031e+01 5.012635374441742897e-04 8.365070819854736328e-02 2.524559013545513153e-02 2.178474701941013336e-02
6.222000000000000000e+03 4.800014114379882812e+01 -8.648077011108398438e+00 2.259054034948348999e-01 1.890774369239807129e+00 6.350039243698120117e-01 1.671054959297180176e-01
6.223000000000000000e+03 4.848600387573242188e+01 -9.563590049743652344e+00 2.067234218120574951e-01 2.010863780975341797e+00 6.652761697769165039e-01 1.567607223987579346e-01
6.224000000000000000e+03 4.371417999267578125e+01 -4.325900554656982422e+00 2.803930342197418213e-01 9.421443939208984375e-01 3.667612373828887939e-01 1.472649276256561279e-01
6.225000000000000000e+03 4.457169342041015625e+01 -4.139962673187255859e+00 2.572593986988067627e-01 1.093731045722961426e+00 4.052971303462982178e-01 1.701178103685379028e-01
6.226000000000000000e+03 4.236774063110351562e+01 -3.073968648910522461e+00 2.536902725696563721e-01 6.889520883560180664e-01 2.827927172183990479e-01 1.433694660663604736e-01
6.227000000000000000e+03 6.330090332031250000e+01 -7.619177818298339844e+00 1.892519369721412659e-02 5.258561611175537109e+00 1.583245992660522461e+00 3.932211697101593018e-01
6.228000000000000000e+03 6.314146804809570312e+01 -9.288795471191406250e+00 3.750437125563621521e-02 5.236423969268798828e+00 1.582178473472595215e+00 3.753586709499359131e-01
6.229000000000000000e+03 6.364675521850585938e+01 4.446734905242919922e+00 -1.450289040803909302e-01 5.466713428497314453e+00 1.596505284309387207e+00 4.592965245246887207e-01
6.230000000000000000e+03 6.306188201904296875e+01 5.371108531951904297e+00 -1.710238903760910034e-01 5.346900463104248047e+00 1.552762985229492188e+00 4.771237969398498535e-01
6.231000000000000000e+03 5.968066787719726562e+01 -2.664546012878417969e+00 3.464421629905700684e-02 4.436653137207031250e+00 1.341389179229736328e+00 4.358201324939727783e-01
6.232000000000000000e+03 6.213899612426757812e+01 -5.120884895324707031e+00 3.344971686601638794e-02 5.028143882751464844e+00 1.518478035926818848e+00 4.044505655765533447e-01
6.233000000000000000e+03 2.783530998229980469e+01 3.621030426025390625e+01 2.061463333666324615e-02 6.883265078067779541e-02 2.683418430387973785e-02 2.400255762040615082e-02
6.234000000000000000e+03 2.519757843017578125e+01 3.547008514404296875e+01 1.197929680347442627e-02 6.756889820098876953e-02 2.386445924639701843e-02 2.043936401605606079e-02
6.235000000000000000e+03 6.375892257690429688e+01 8.344873428344726562e+00 -2.833508253097534180e-01 5.619132518768310547e+00 1.600734472274780273e+00 4.831632673740386963e-01
6.236000000000000000e+03 6.493538665771484375e+01 2.094922447204589844e+01 -9.588303565979003906e-01 7.212720870971679688e+00 1.876167178153991699e+00 7.426435947418212891e-01
6.237000000000000000e+03 1.532258892059326172e+01 1.801786613464355469e+01 1.086411345750093460e-02 1.104150339961051941e-01 3.638374432921409607e-02 3.535128012299537659e-02
6.238000000000000000e+03 1.453726100921630859e+01 1.897053909301757812e+01 4.652311559766530991e-03 9.507048130035400391e-02 2.991683781147003174e-02 2.478976920247077942e-02
6.239000000000000000e+03 4.044119644165039062e+01 -1.846425175666809082e+00 2.098793536424636841e-01 3.522825539112091064e-01 1.686485707759857178e-01 1.144422739744186401e-01
6.240000000000000000e+03 6.284944915771484375e+01 -1.128352451324462891e+01 3.107216022908687592e-02 5.189974784851074219e+00 1.566314101219177246e+00 3.563554584980010986e-01
6.241000000000000000e+03 6.223990631103515625e+01 -1.590002632141113281e+01 2.777040190994739532e-02 5.049359321594238281e+00 1.523138880729675293e+00 3.524367809295654297e-01
6.242000000000000000e+03 5.099339294433593750e+01 -1.180507755279541016e+01 1.411473453044891357e-01 2.609121084213256836e+00 8.250805735588073730e-01 1.864932179450988770e-01
6.243000000000000000e+03 6.323750305175781250e+01 -6.566203117370605469e+00 3.314199298620223999e-02 5.256878376007080078e+00 1.587006092071533203e+00 3.909508585929870605e-01
6.244000000000000000e+03 4.919101333618164062e+01 -1.202362823486328125e+01 1.556537598371505737e-01 2.222588300704956055e+00 7.134726643562316895e-01 1.327873468399047852e-01
6.245000000000000000e+03 1.626516723632812500e+01 2.524849891662597656e+01 -3.021968295797705650e-03 6.710992008447647095e-02 1.922638528048992157e-02 1.810769923031330109e-02
6.246000000000000000e+03 1.550765037536621094e+01 2.360232162475585938e+01 -3.628245322033762932e-03 7.001366466283798218e-02 1.991562545299530029e-02 1.818757504224777222e-02
6.247000000000000000e+03 2.185226440429687500e+01 3.211177444458007812e+01 3.920810762792825699e-03 6.768256425857543945e-02 2.148101292550563812e-02 2.418535202741622925e-02
6.248000000000000000e+03 2.584018898010253906e+01 3.100611114501953125e+01 1.608505658805370331e-02 7.880303263664245605e-02 2.846642769873142242e-02 3.771091625094413757e-02
6.249000000000000000e+03 6.047998809814453125e+01 -9.943025588989257812e+00 5.089328810572624207e-02 4.673007011413574219e+00 1.417170047760009766e+00 3.674478530883789062e-01
6.250000000000000000e+03 1.634514999389648438e+01 2.398934364318847656e+01 -2.163247903808951378e-03 7.402865588665008545e-02 2.155962213873863220e-02 2.104436419904232025e-02
6.251000000000000000e+03 1.657613754272460938e+01 2.809766960144042969e+01 -5.688448902219533920e-03 5.673950910568237305e-02 1.531531848013401031e-02 1.433201786130666733e-02
6.252000000000000000e+03 5.000727081298828125e+01 -1.111131381988525391e+01 1.612526923418045044e-01 2.369983196258544922e+00 7.593708038330078125e-01 1.650500446557998657e-01
6.253000000000000000e+03 6.435935211181640625e+01 1.257328033447265625e+01 -4.791978001594543457e-01 6.012045860290527344e+00 1.659854412078857422e+00 4.925825595855712891e-01
6.254000000000000000e+03 6.220843124389648438e+01 -1.013615131378173828e+01 3.727432340383529663e-02 5.040025711059570312e+00 1.523189902305603027e+00 3.658049702644348145e-01
6.255000000000000000e+03 6.430279541015625000e+01 1.099883651733398438e+01 -4.000061452388763428e-01 5.908865451812744141e+00 1.652657866477966309e+00 4.761043190956115723e-01
6.256000000000000000e+03 6.341852188110351562e+01 1.013486576080322266e+01 -3.519853651523590088e-01 5.601612567901611328e+00 1.574888229370117188e+00 5.123786330223083496e-01
6.257000000000000000e+03 6.155670547485351562e+01 -1.438394904136657715e+00 -1.113435602746903896e-03 4.887880802154541016e+00 1.466030240058898926e+00 4.407065808773040771e-01
6.258000000000000000e+03 4.106286239624023438e+01 -2.247964143753051758e+00 2.227337807416915894e-01 4.555581510066986084e-01 2.034875750541687012e-01 1.251305937767028809e-01
6.259000000000000000e+03 6.045519256591796875e+01 -1.522635173797607422e+01 2.798030897974967957e-02 4.675181865692138672e+00 1.410948634147644043e+00 3.345160782337188721e-01
6.260000000000000000e+03 6.242369842529296875e+01 -2.011321640014648438e+01 1.840819045901298523e-02 5.102423191070556641e+00 1.536249399185180664e+00 3.284855484962463379e-01
6.261000000000000000e+03 6.239045333862304688e+01 -1.787089157104492188e+01 2.972820587456226349e-02 5.091155052185058594e+00 1.536265015602111816e+00 3.410202860832214355e-01
6.262000000000000000e+03 6.235043716430664062e+01 2.947876930236816406e+00 -9.535842388868331909e-02 5.122275829315185547e+00 1.508075237274169922e+00 4.618034362792968750e-01
6.263000000000000000e+03 6.277760314941406250e+01 7.616363763809204102e-01 -4.823999479413032532e-02 5.193412303924560547e+00 1.543551683425903320e+00 4.508172869682312012e-01
6.264000000000000000e+03 1.732202529907226562e+01 2.973733329772949219e+01 -3.975298255681991577e-03 5.369595438241958618e-02 1.491619646549224854e-02 1.447801478207111359e-02
6.265000000000000000e+03 5.281648635864257812e+01 -1.516425800323486328e+01 6.018926203250885010e-02 3.056541681289672852e+00 9.350192546844482422e-01 2.025437206029891968e-01
6.266000000000000000e+03 1.520214653015136719e+01 3.129183387756347656e+01 -8.399295620620250702e-03 3.462817147374153137e-02 7.868663407862186432e-03 5.214010830968618393e-03
6.267000000000000000e+03 1.241352844238281250e+01 3.054320907592773438e+01 -8.342285640537738800e-03 1.467429194599390030e-02 1.899602008052170277e-03 -1.231706119142472744e-03
6.268000000000000000e+03 5.974541854858398438e+01 -9.027343750000000000e+00 6.301151216030120850e-02 4.465934753417968750e+00 1.358683943748474121e+00 3.691867291927337646e-01
6.269000000000000000e+03 5.776572418212890625e+01 -1.848217391967773438e+01 1.910675130784511566e-02 4.195660114288330078e+00 1.264430165290832520e+00 2.899768054485321045e-01
6.270000000000000000e+03 5.646477508544921875e+01 -2.675821304321289062e+01 4.110329970717430115e-02 4.038852691650390625e+00 1.223986744880676270e+00 3.392271399497985840e-01
6.271000000000000000e+03 5.848005676269531250e+01 -2.211179733276367188e+01 1.109376456588506699e-02 4.392169475555419922e+00 1.320978999137878418e+00 3.266755640506744385e-01
6.272000000000000000e+03 6.015557479858398438e+01 -2.279951477050781250e+01 2.028926648199558258e-02 4.669118881225585938e+00 1.406822443008422852e+00 3.425780236721038818e-01
6.273000000000000000e+03 1.467577362060546875e+01 -2.769335174560546875e+01 1.835033297538757324e-01 -3.831289410591125488e-01 -5.988768115639686584e-02 -2.673540413379669189e-01
6.274000000000000000e+03 1.943481445312500000e+01 -2.583923530578613281e+01 2.325828224420547485e-01 -9.885773062705993652e-03 6.680911779403686523e-02 -3.133580982685089111e-01
6.275000000000000000e+03 1.291779422760009766e+01 -3.002268218994140625e+01 1.336783170700073242e-01 -5.062403678894042969e-01 -1.117686256766319275e-01 -2.184467017650604248e-01
6.276000000000000000e+03 1.362851810455322266e+01 -3.169830513000488281e+01 1.460644304752349854e-01 -4.631433486938476562e-01 -9.512367844581604004e-02 -1.990897953510284424e-01
6.277000000000000000e+03 1.419973182678222656e+01 3.401394271850585938e+01 -7.328008301556110382e-03 1.892065070569515228e-02 3.477792488411068916e-03 1.233362709172070026e-03
6.278000000000000000e+03 5.584793090820312500e+01 -3.192989540100097656e+01 2.392060905694961548e-01 3.955356597900390625e+00 1.258368849754333496e+00 4.125269651412963867e-01
6.279000000000000000e+03 5.318478012084960938e+01 -2.821720314025878906e+01 1.282194163650274277e-02 3.487281322479248047e+00 1.050031065940856934e+00 3.110637664794921875e-01
6.280000000000000000e+03 6.184624481201171875e+01 2.895539665222167969e+01 6.824054718017578125e-01 5.190790176391601562e+00 1.761958599090576172e+00 2.931913614273071289e+00
6.281000000000000000e+03 6.345017242431640625e+01 2.892524909973144531e+01 -8.162983506917953491e-02 8.272612571716308594e+00 2.457294702529907227e+00 3.135856389999389648e+00
6.282000000000000000e+03 6.665237426757812500e+01 2.868760108947753906e+01 -8.764956593513488770e-01 1.173557186126708984e+01 3.257722854614257812e+00 2.844516634941101074e-01
6.283000000000000000e+03 4.676393508911132812e+01 1.866652870178222656e+01 -5.046002864837646484e-01 8.063537627458572388e-02 -1.271894723176956177e-01 -3.131876587867736816e-01
6.284000000000000000e+03 6.490065765380859375e+01 2.843523788452148438e+01 -8.456643223762512207e-01 1.032666397094726562e+01 2.844300031661987305e+00 1.959685325622558594e+00
6.285000000000000000e+03 6.125637817382812500e+01 2.813540458679199219e+01 5.001054406166076660e-01 4.679921150207519531e+00 1.554007887840270996e+00 2.485675811767578125e+00
6.286000000000000000e+03 6.047169113159179688e+01 2.773201370239257812e+01 4.835299551486968994e-01 3.979972839355468750e+00 1.339050889015197754e+00 2.116002798080444336e+00
6.287000000000000000e+03 6.287072753906250000e+01 2.930326080322265625e+01 4.133524894714355469e-01 7.081520080566406250e+00 2.248461723327636719e+00 3.404313802719116211e+00
6.288000000000000000e+03 3.312702560424804688e+01 1.459468245506286621e+00 -4.413345456123352051e-01 -4.468377828598022461e-01 -2.664516866207122803e-01 -6.040522456169128418e-02
6.289000000000000000e+03 4.244295883178710938e+01 1.405514049530029297e+01 -6.033250689506530762e-01 -2.080651223659515381e-01 -2.434170544147491455e-01 -4.934815168380737305e-01
6.290000000000000000e+03 4.021405029296875000e+01 1.238546657562255859e+01 -6.844542622566223145e-01 -4.157580733299255371e-01 -3.300637006759643555e-01 -5.772895216941833496e-01
6.291000000000000000e+03 5.091432189941406250e+01 2.333949089050292969e+01 -4.216898679733276367e-01 4.586218297481536865e-01 1.107958611100912094e-02 -6.017213687300682068e-02
6.292000000000000000e+03 4.703547286987304688e+01 1.786500358581542969e+01 -4.536750912666320801e-01 2.484846711158752441e-01 -6.155712902545928955e-02 -2.285877019166946411e-01
6.293000000000000000e+03 4.947886657714843750e+01 2.094604301452636719e+01 -4.383862614631652832e-01 4.424957334995269775e-01 1.232838723808526993e-03 -9.578443318605422974e-02
6.294000000000000000e+03 5.029601669311523438e+01 2.254782867431640625e+01 -4.364104270935058594e-01 4.239009916782379150e-01 -3.752828808501362801e-03 -8.705063909292221069e-02
6.295000000000000000e+03 5.257450103759765625e+01 2.450328063964843750e+01 -3.125794529914855957e-01 7.664340734481811523e-01 1.361563801765441895e-01 1.248218938708305359e-01
6.296000000000000000e+03 4.852413558959960938e+01 2.077652359008789062e+01 -4.839240908622741699e-01 2.166659981012344360e-01 -8.017742633819580078e-02 -2.120407670736312866e-01
6.297000000000000000e+03 4.738562774658203125e+01 2.031114387512207031e+01 -5.468958020210266113e-01 5.110818892717361450e-03 -1.625354886054992676e-01 -3.368709087371826172e-01
6.298000000000000000e+03 4.326629257202148438e+01 1.430142402648925781e+01 -5.524993538856506348e-01 -9.002501517534255981e-02 -1.927573084831237793e-01 -4.278872609138488770e-01
6.299000000000000000e+03 3.885214996337890625e+01 8.579689979553222656e+00 -5.871609449386596680e-01 -2.940137684345245361e-01 -2.643524408340454102e-01 -4.218598902225494385e-01
6.300000000000000000e+03 4.064179229736328125e+01 1.235728645324707031e+01 -6.519576907157897949e-01 -3.463338613510131836e-01 -2.994874715805053711e-01 -5.340719819068908691e-01
6.301000000000000000e+03 5.329486846923828125e+01 2.493498039245605469e+01 -2.618789374828338623e-01 9.271839261054992676e-01 1.995915025472640991e-01 2.155072838068008423e-01
6.302000000000000000e+03 5.368455505371093750e+01 2.357684707641601562e+01 -2.046121209859848022e-01 1.324188351631164551e+00 3.358728885650634766e-01 4.062517583370208740e-01
6.303000000000000000e+03 6.012355804443359375e+01 2.730516815185546875e+01 4.067913591861724854e-01 3.770407676696777344e+00 1.253159761428833008e+00 1.952509164810180664e+00
6.304000000000000000e+03 5.200553512573242188e+01 2.355996513366699219e+01 -3.352659642696380615e-01 7.520983219146728516e-01 1.250497102737426758e-01 1.078753992915153503e-01
6.305000000000000000e+03 4.475031661987304688e+01 1.601094818115234375e+01 -5.218909382820129395e-01 6.973690818995237350e-03 -1.544751673936843872e-01 -3.847593367099761963e-01
6.306000000000000000e+03 4.360370635986328125e+01 1.480962085723876953e+01 -5.510956645011901855e-01 -7.702648639678955078e-02 -1.884366571903228760e-01 -4.274046719074249268e-01
6.307000000000000000e+03 4.656824111938476562e+01 1.777680015563964844e+01 -4.774233698844909668e-01 1.602807790040969849e-01 -9.514277428388595581e-02 -2.815202474594116211e-01
6.308000000000000000e+03 4.618729400634765625e+01 1.702181816101074219e+01 -4.720039665699005127e-01 1.709443330764770508e-01 -9.031789004802703857e-02 -2.820630669593811035e-01
6.309000000000000000e+03 4.587084579467773438e+01 1.799574089050292969e+01 -5.294689536094665527e-01 -1.262385025620460510e-02 -1.626278460025787354e-01 -3.792099952697753906e-01
6.310000000000000000e+03 4.429169464111328125e+01 1.594196414947509766e+01 -5.468743443489074707e-01 -7.611134648323059082e-02 -1.868956983089447021e-01 -4.297563433647155762e-01
6.311000000000000000e+03 4.127660751342773438e+01 1.295642375946044922e+01 -6.321251988410949707e-01 -2.922725379467010498e-01 -2.773193418979644775e-01 -5.188367962837219238e-01
6.312000000000000000e+03 4.334320449829101562e+01 1.389174270629882812e+01 -5.445253849029541016e-01 -5.334089323878288269e-02 -1.793598830699920654e-01 -3.962787985801696777e-01
6.313000000000000000e+03 5.240307235717773438e+01 2.383248138427734375e+01 -3.071316182613372803e-01 8.323456048965454102e-01 1.575641930103302002e-01 1.540913432836532593e-01
6.314000000000000000e+03 6.694879913330078125e+01 2.837340736389160156e+01 -9.080941081047058105e-01 1.145602703094482422e+01 3.164379835128784180e+00 7.345255464315414429e-02
6.315000000000000000e+03 6.737172698974609375e+01 2.912790107727050781e+01 -5.374155044555664062e-01 1.202468967437744141e+01 3.446182250976562500e+00 -4.966861009597778320e-01
6.316000000000000000e+03 5.278656768798828125e+01 2.408927154541015625e+01 -2.799472212791442871e-01 9.113649725914001465e-01 1.894253343343734741e-01 1.995341777801513672e-01
6.317000000000000000e+03 5.314525604248046875e+01 2.433438110351562500e+01 -2.577691674232482910e-01 9.862400889396667480e-01 2.185412645339965820e-01 2.421854734420776367e-01
6.318000000000000000e+03 4.519475173950195312e+01 1.603102302551269531e+01 -4.984825849533081055e-01 8.116131275892257690e-02 -1.251963824033737183e-01 -3.392960131168365479e-01
6.319000000000000000e+03 5.529132461547851562e+01 2.669525718688964844e+01 -5.376706644892692566e-02 1.263614296913146973e+00 3.629541695117950439e-01 4.234487414360046387e-01
6.320000000000000000e+03 5.399236679077148438e+01 2.519123268127441406e+01 -1.964841485023498535e-01 1.122892975807189941e+00 2.779226601123809814e-01 3.232600092887878418e-01
6.321000000000000000e+03 4.095195388793945312e+01 1.279991149902343750e+01 -6.467721462249755859e-01 -3.319117724895477295e-01 -2.936051785945892334e-01 -5.357610583305358887e-01
6.322000000000000000e+03 4.117970657348632812e+01 1.198842620849609375e+01 -6.004588007926940918e-01 -2.279563248157501221e-01 -2.485245317220687866e-01 -4.645939469337463379e-01
6.323000000000000000e+03 5.574603652954101562e+01 2.657993507385253906e+01 6.588905584067106247e-03 1.447165489196777344e+00 4.361263215541839600e-01 5.429786443710327148e-01
6.324000000000000000e+03 5.549272918701171875e+01 2.643826484680175781e+01 -2.135684713721275330e-02 1.396198987960815430e+00 4.124526381492614746e-01 5.044972896575927734e-01
6.325000000000000000e+03 4.394281005859375000e+01 1.536240673065185547e+01 -5.492608547210693359e-01 -7.527747750282287598e-02 -1.873615086078643799e-01 -4.289165437221527100e-01
6.326000000000000000e+03 4.778699874877929688e+01 2.007398605346679688e+01 -5.061087012290954590e-01 1.398727893829345703e-01 -1.098707690834999084e-01 -2.642557322978973389e-01
6.327000000000000000e+03 6.694029998779296875e+01 2.491490745544433594e+01 -1.205882549285888672e+00 9.271238327026367188e+00 2.419606685638427734e+00 3.147480487823486328e-01
6.328000000000000000e+03 6.673724365234375000e+01 2.740264701843261719e+01 -1.110347032546997070e+00 1.065289115905761719e+01 2.862763166427612305e+00 3.693191409111022949e-01
6.329000000000000000e+03 5.375926208496093750e+01 2.475520324707031250e+01 -2.175350189208984375e-01 1.116714715957641602e+00 2.697539329528808594e-01 3.129100799560546875e-01
6.330000000000000000e+03 4.148895263671875000e+01 1.346064472198486328e+01 -6.471930742263793945e-01 -3.096559941768646240e-01 -2.870547175407409668e-01 -5.388007164001464844e-01
6.331000000000000000e+03 4.134931564331054688e+01 1.415205860137939453e+01 -6.887404322624206543e-01 -4.009747505187988281e-01 -3.269145488739013672e-01 -6.014936566352844238e-01
6.332000000000000000e+03 6.419393157958984375e+01 2.877113151550292969e+01 -5.246700048446655273e-01 9.576292037963867188e+00 2.715486526489257812e+00 2.672332286834716797e+00
6.333000000000000000e+03 6.171533966064453125e+01 2.849994850158691406e+01 5.289885997772216797e-01 5.193723678588867188e+00 1.716813683509826660e+00 2.750569820404052734e+00
6.334000000000000000e+03 3.434993362426757812e+01 2.997861146926879883e+00 -5.778433680534362793e-01 -3.928159177303314209e-01 -2.911977767944335938e-01 -1.868836283683776855e-01
6.335000000000000000e+03 6.284407043457031250e+01 2.845050430297851562e+01 8.486848324537277222e-02 7.028801918029785156e+00 2.134101152420043945e+00 2.954128265380859375e+00
6.336000000000000000e+03 5.760945129394531250e+01 2.685420227050781250e+01 2.519471347332000732e-01 2.204952955245971680e+00 7.370700240135192871e-01 1.042002558708190918e+00
6.337000000000000000e+03 3.937222290039062500e+01 9.475922584533691406e+00 -5.962111353874206543e-01 -2.917371690273284912e-01 -2.663844823837280273e-01 -4.433452785015106201e-01
6.338000000000000000e+03 4.062448501586914062e+01 1.080801963806152344e+01 -5.786733627319335938e-01 -2.108935266733169556e-01 -2.368700653314590454e-01 -4.315728247165679932e-01
6.339000000000000000e+03 5.824143600463867188e+01 2.651411437988281250e+01 2.535324096679687500e-01 2.675293207168579102e+00 8.786476850509643555e-01 1.271815657615661621e+00
6.340000000000000000e+03 5.880453109741210938e+01 2.667065620422363281e+01 2.964736521244049072e-01 2.984712362289428711e+00 9.843558073043823242e-01 1.447670698165893555e+00
6.341000000000000000e+03 3.987146377563476562e+01 9.285438537597656250e+00 -5.550305843353271484e-01 -2.027711570262908936e-01 -2.273405194282531738e-01 -3.909289538860321045e-01
6.342000000000000000e+03 3.911140441894531250e+01 9.024862289428710938e+00 -5.935403108596801758e-01 -2.917876839637756348e-01 -2.655983865261077881e-01 -4.322280883789062500e-01
6.343000000000000000e+03 3.764794540405273438e+01 7.399322509765625000e+00 -6.135345697402954102e-01 -3.605040013790130615e-01 -2.922115623950958252e-01 -4.272940754890441895e-01
6.344000000000000000e+03 5.089599227905273438e+01 2.257572174072265625e+01 -3.890727758407592773e-01 5.782634615898132324e-01 5.675720423460006714e-02 2.382860518991947174e-03
6.345000000000000000e+03 1.586010456085205078e+01 1.472679996490478516e+01 3.115603514015674591e-02 1.509489417076110840e-01 5.463149026036262512e-02 6.191039457917213440e-02
6.346000000000000000e+03 1.635390281677246094e+01 1.521801471710205078e+01 3.199396654963493347e-02 1.458642482757568359e-01 5.335746333003044128e-02 6.359501183032989502e-02
6.347000000000000000e+03 3.411236190795898438e+01 6.925196051597595215e-01 -2.177553474903106689e-01 -3.726517856121063232e-01 -1.771221458911895752e-01 7.787112146615982056e-03
6.348000000000000000e+03 3.506431961059570312e+01 2.826969861984252930e+00 -4.817854464054107666e-01 -3.382081389427185059e-01 -2.459980696439743042e-01 -1.470587998628616333e-01
6.349000000000000000e+03 2.039591979980468750e+01 1.993025207519531250e+01 3.058172389864921570e-02 1.136059761047363281e-01 4.325630888342857361e-02 6.302274018526077271e-02
6.350000000000000000e+03 3.780734252929687500e+01 6.308201789855957031e+00 -5.407357215881347656e-01 -2.550797462463378906e-01 -2.387446314096450806e-01 -3.272702991962432861e-01
6.351000000000000000e+03 5.914111709594726562e+01 2.639722633361816406e+01 2.470759004354476929e-01 3.291520595550537109e+00 1.061578869819641113e+00 1.557768702507019043e+00
6.352000000000000000e+03 3.953010559082031250e+01 1.101677799224853516e+01 -6.656349897384643555e-01 -3.979969322681427002e-01 -3.190895617008209229e-01 -5.397204160690307617e-01
6.353000000000000000e+03 3.962492370605468750e+01 9.937441825866699219e+00 -6.036008596420288086e-01 -2.905824482440948486e-01 -2.682549953460693359e-01 -4.540832340717315674e-01
6.354000000000000000e+03 5.741833877563476562e+01 2.621757507324218750e+01 1.672345101833343506e-01 2.301311016082763672e+00 7.405636906623840332e-01 1.039277434349060059e+00
6.355000000000000000e+03 5.423304748535156250e+01 2.566487693786621094e+01 -1.626895219087600708e-01 1.118838906288146973e+00 2.868448197841644287e-01 3.213502764701843262e-01
6.356000000000000000e+03 4.708315277099609375e+01 1.878832054138183594e+01 -4.862549901008605957e-01 1.463360190391540527e-01 -1.019756942987442017e-01 -2.785427868366241455e-01
6.357000000000000000e+03 4.003635787963867188e+01 1.091883945465087891e+01 -6.282516121864318848e-01 -3.191260695457458496e-01 -2.842133045196533203e-01 -4.903406798839569092e-01
6.358000000000000000e+03 3.814372634887695312e+01 7.244912624359130859e+00 -5.699342489242553711e-01 -2.852619886398315430e-01 -2.565588653087615967e-01 -3.770247101783752441e-01
6.359000000000000000e+03 3.744496917724609375e+01 6.921733379364013672e+00 -6.060356497764587402e-01 -3.457551598548889160e-01 -2.855372428894042969e-01 -4.042504727840423584e-01
6.360000000000000000e+03 2.085210037231445312e+01 2.005852699279785156e+01 3.114575147628784180e-02 1.130490154027938843e-01 4.325843229889869690e-02 6.358584016561508179e-02
6.361000000000000000e+03 1.909278678894042969e+01 1.981720733642578125e+01 2.307475730776786804e-02 1.126317828893661499e-01 4.071196168661117554e-02 5.491705983877182007e-02
6.362000000000000000e+03 2.397642707824707031e+01 2.334472846984863281e+01 2.991729788482189178e-02 9.881773591041564941e-02 3.862051293253898621e-02 6.023345142602920532e-02
6.363000000000000000e+03 1.693726730346679688e+01 1.772975730895996094e+01 2.081557363271713257e-02 1.226320788264274597e-01 4.303429648280143738e-02 5.197164788842201233e-02
6.364000000000000000e+03 1.662411308288574219e+01 1.632521057128906250e+01 2.656540647149085999e-02 1.349523812532424927e-01 4.845533892512321472e-02 5.849168822169303894e-02
6.365000000000000000e+03 5.458783340454101562e+01 2.629130744934082031e+01 -1.383131742477416992e-01 1.105387210845947266e+00 2.901222109794616699e-01 3.240384459495544434e-01
6.366000000000000000e+03 3.549393844604492188e+01 3.082517385482788086e+00 -4.768117666244506836e-01 -3.182296752929687500e-01 -2.385124266147613525e-01 -1.612441688776016235e-01
6.367000000000000000e+03 3.631466293334960938e+01 3.621775865554809570e+00 -4.533851146697998047e-01 -2.623171210289001465e-01 -2.147106677293777466e-01 -1.827744245529174805e-01
6.368000000000000000e+03 4.999651336669921875e+01 2.111719131469726562e+01 -4.068032503128051758e-01 5.487966537475585938e-01 4.259802401065826416e-02 -2.681647986173629761e-02
6.369000000000000000e+03 3.652224349975585938e+01 7.989827394485473633e-01 -1.111009716987609863e-01 -1.693094670772552490e-01 -8.412312716245651245e-02 2.320577017962932587e-02
6.370000000000000000e+03 1.960735893249511719e+01 2.020000457763671875e+01 2.361560612916946411e-02 1.110684201121330261e-01 4.040520638227462769e-02 5.618416145443916321e-02
6.371000000000000000e+03 1.921674919128417969e+01 2.079674911499023438e+01 1.919857971370220184e-02 1.071280911564826965e-01 3.789800032973289490e-02 5.089731514453887939e-02
6.372000000000000000e+03 4.026263046264648438e+01 1.284012794494628906e+01 -6.994240880012512207e-01 -4.464222788810729980e-01 -3.437539041042327881e-01 -6.029927134513854980e-01
6.373000000000000000e+03 1.862594795227050781e+01 1.943478202819824219e+01 2.130362391471862793e-02 1.143496483564376831e-01 4.069598019123077393e-02 5.414434149861335754e-02
6.374000000000000000e+03 1.634974288940429688e+01 1.878994941711425781e+01 1.263474859297275543e-02 1.105634793639183044e-01 3.695946931838989258e-02 4.082577303051948547e-02
6.375000000000000000e+03 4.374164962768554688e+01 -3.526103019714355469e+00 2.455416172742843628e-01 9.310228228569030762e-01 3.529693186283111572e-01 1.588034629821777344e-01
6.376000000000000000e+03 4.378890228271484375e+01 -1.919325709342956543e+00 2.089401930570602417e-01 9.050344824790954590e-01 3.341923952102661133e-01 1.769926249980926514e-01
6.377000000000000000e+03 3.551147079467773438e+01 4.922451078891754150e-01 -9.881654381752014160e-02 -2.607132494449615479e-01 -1.078589409589767456e-01 2.979873493313789368e-02
6.378000000000000000e+03 3.613826751708984375e+01 -8.774317800998687744e-03 -1.414354145526885986e-02 -2.016078382730484009e-01 -6.472541391849517822e-02 5.098658427596092224e-02
6.379000000000000000e+03 3.533670425415039062e+01 2.346854448318481445e+00 -3.915944993495941162e-01 -3.052305281162261963e-01 -2.090475112199783325e-01 -9.845028072595596313e-02
6.380000000000000000e+03 6.299288177490234375e+01 2.878241729736328125e+01 1.233603656291961670e-01 7.347537040710449219e+00 2.241269111633300781e+00 3.111309289932250977e+00
6.381000000000000000e+03 1.723314094543457031e+01 1.851069450378417969e+01 1.942557841539382935e-02 1.172719597816467285e-01 4.100926220417022705e-02 4.941944032907485962e-02
6.382000000000000000e+03 1.439160442352294922e+01 1.719665527343750000e+01 9.780848398804664612e-03 1.108588799834251404e-01 3.619191795587539673e-02 3.032039664685726166e-02
6.383000000000000000e+03 3.403723526000976562e+01 2.082037448883056641e+00 -4.645134806632995605e-01 -3.918986618518829346e-01 -2.569236457347869873e-01 -1.047867089509963989e-01
6.384000000000000000e+03 1.488018226623535156e+01 1.607907676696777344e+01 1.667659357190132141e-02 1.266674697399139404e-01 4.300322011113166809e-02 4.117698222398757935e-02
6.385000000000000000e+03 1.586898899078369141e+01 1.528427314758300781e+01 2.875290997326374054e-02 1.434338241815567017e-01 5.165601894259452820e-02 5.784822627902030945e-02
6.386000000000000000e+03 3.463711929321289062e+01 1.019202470779418945e+00 -2.369932234287261963e-01 -3.435949981212615967e-01 -1.741764694452285767e-01 -1.464640442281961441e-02
6.387000000000000000e+03 2.201013755798339844e+01 2.120168876647949219e+01 3.139298781752586365e-02 1.079869568347930908e-01 4.181398451328277588e-02 6.344553828239440918e-02
6.388000000000000000e+03 2.279210662841796875e+01 2.175049972534179688e+01 3.295115381479263306e-02 1.050249412655830383e-01 4.139282926917076111e-02 6.358613073825836182e-02
6.389000000000000000e+03 2.243150711059570312e+01 2.312851905822753906e+01 2.414574660360813141e-02 9.988778829574584961e-02 3.721006214618682861e-02 5.586230754852294922e-02
6.390000000000000000e+03 1.598457336425781250e+01 1.646302604675292969e+01 2.202771976590156555e-02 1.295927762985229492e-01 4.548614844679832458e-02 5.081848427653312683e-02
6.391000000000000000e+03 6.512744140625000000e+01 1.622952461242675781e+01 -7.007021903991699219e-01 6.565675735473632812e+00 1.759492039680480957e+00 4.956465959548950195e-01
6.392000000000000000e+03 2.296122932434082031e+01 2.762851715087890625e+01 1.084219664335250854e-02 8.439394086599349976e-02 2.857084013521671295e-02 4.044029861688613892e-02
6.393000000000000000e+03 2.195600128173828125e+01 2.771673774719238281e+01 9.428580291569232941e-03 8.196342736482620239e-02 2.741760201752185822e-02 3.773640841245651245e-02
6.394000000000000000e+03 6.356094741821289062e+01 1.178669071197509766e+01 -4.283232092857360840e-01 5.725637912750244141e+00 1.589194297790527344e+00 5.234555006027221680e-01
6.395000000000000000e+03 6.515837860107421875e+01 2.161829185485839844e+01 -1.004164576530456543e+00 7.454568862915039062e+00 1.935121297836303711e+00 7.358528375625610352e-01
6.396000000000000000e+03 4.773889923095703125e+01 -7.607439041137695312e+00 2.314565330743789673e-01 1.806464195251464844e+00 6.113762259483337402e-01 1.684982925653457642e-01
6.397000000000000000e+03 4.438571929931640625e+01 -3.378864049911499023e+00 2.425374090671539307e-01 1.039354085922241211e+00 3.845674693584442139e-01 1.735030412673950195e-01
6.398000000000000000e+03 6.601718902587890625e+01 2.352803802490234375e+01 -1.151280164718627930e+00 8.376599311828613281e+00 2.167595624923706055e+00 6.433632969856262207e-01
6.399000000000000000e+03 6.470392608642578125e+01 2.293426132202148438e+01 -1.011240839958190918e+00 7.569104194641113281e+00 1.967359066009521484e+00 9.899874925613403320e-01
6.400000000000000000e+03 6.574726867675781250e+01 1.692787742614746094e+01 -7.569605112075805664e-01 6.848535060882568359e+00 1.827472329139709473e+00 4.323978722095489502e-01
6.401000000000000000e+03 1.643799400329589844e+01 2.069916534423828125e+01 6.294003222137689590e-03 9.616439789533615112e-02 3.073751926422119141e-02 3.283457458019256592e-02
6.402000000000000000e+03 1.744364166259765625e+01 2.323596572875976562e+01 2.321247011423110962e-03 8.566866815090179443e-02 2.639697492122650146e-02 2.969399094581604004e-02
6.403000000000000000e+03 3.849630355834960938e+01 -1.267033338546752930e+00 1.612888872623443604e-01 7.370553910732269287e-02 7.049832493066787720e-02 8.742636442184448242e-02
6.404000000000000000e+03 6.609721374511718750e+01 2.706000137329101562e+01 -1.152438044548034668e+00 1.020868968963623047e+01 2.716875553131103516e+00 8.229901790618896484e-01
6.405000000000000000e+03 4.340019607543945312e+01 -2.592142343521118164e+00 2.255062758922576904e-01 8.654429912567138672e-01 3.272847831249237061e-01 1.701700240373611450e-01
6.406000000000000000e+03 6.364706420898437500e+01 6.635756015777587891e+00 -2.128895521163940430e-01 5.525599956512451172e+00 1.593813180923461914e+00 4.663721024990081787e-01
6.407000000000000000e+03 4.916926574707031250e+01 -1.037041378021240234e+01 1.837129443883895874e-01 2.176489353179931641e+00 7.080606818199157715e-01 1.585503369569778442e-01
6.408000000000000000e+03 6.438600158691406250e+01 1.409367847442626953e+01 -5.637576580047607422e-01 6.124182701110839844e+00 1.668127536773681641e+00 5.179665088653564453e-01
6.409000000000000000e+03 6.514881134033203125e+01 1.484915065765380859e+01 -6.198204159736633301e-01 6.430153369903564453e+00 1.743099927902221680e+00 4.659087061882019043e-01
6.410000000000000000e+03 4.277727508544921875e+01 -2.245913505554199219e+00 2.223441451787948608e-01 7.288693785667419434e-01 2.853640615940093994e-01 1.553212255239486694e-01
6.411000000000000000e+03 6.272780609130859375e+01 1.102970600128173828e+01 -3.832895755767822266e-01 5.430663585662841797e+00 1.514212131500244141e+00 5.608083009719848633e-01
6.412000000000000000e+03 6.460455322265625000e+01 1.924631500244140625e+01 -8.518494367599487305e-01 6.772531509399414062e+00 1.776204705238342285e+00 6.833336353302001953e-01
6.413000000000000000e+03 6.120581436157226562e+01 -2.974333524703979492e+00 1.881051249802112579e-02 4.793854236602783203e+00 1.443799495697021484e+00 4.285062551498413086e-01
6.414000000000000000e+03 5.408455657958984375e+01 -1.458683490753173828e+01 7.007013261318206787e-02 3.337868928909301758e+00 1.022381663322448730e+00 2.292720526456832886e-01
6.415000000000000000e+03 5.330632400512695312e+01 -1.329090785980224609e+01 8.581399172544479370e-02 3.153864383697509766e+00 9.719035625457763672e-01 2.273181229829788208e-01
6.416000000000000000e+03 6.354812622070312500e+01 7.406549930572509766e+00 -2.423873990774154663e-01 5.514493942260742188e+00 1.581632018089294434e+00 4.822176098823547363e-01
6.417000000000000000e+03 6.167578125000000000e+01 -7.360274791717529297e+00 4.879125580191612244e-02 4.928401470184326172e+00 1.493157863616943359e+00 3.931275904178619385e-01
6.418000000000000000e+03 6.401621246337890625e+01 -7.057758331298828125e+00 3.023583069443702698e-02 5.465661048889160156e+00 1.648769021034240723e+00 3.880770802497863770e-01
6.419000000000000000e+03 6.090677642822265625e+01 -5.243665575981140137e-01 -1.058705430477857590e-02 4.732667446136474609e+00 1.416624069213867188e+00 4.552197754383087158e-01
6.420000000000000000e+03 1.772291183471679688e+01 2.028434181213378906e+01 1.435865275561809540e-02 1.063159853219985962e-01 3.620238974690437317e-02 4.495743662118911743e-02
6.421000000000000000e+03 6.211621856689453125e+01 1.582437276840209961e+00 -6.380404531955718994e-02 5.047603607177734375e+00 1.495139837265014648e+00 4.584825932979583740e-01
6.422000000000000000e+03 6.151563262939453125e+01 2.392409086227416992e+00 -7.899980992078781128e-02 4.917278289794921875e+00 1.451483607292175293e+00 4.792736470699310303e-01
6.423000000000000000e+03 6.262842941284179688e+01 8.402143478393554688e+00 -2.744548320770263672e-01 5.325715065002441406e+00 1.515377998352050781e+00 5.214902162551879883e-01
6.424000000000000000e+03 2.048267745971679688e+01 2.180840110778808594e+01 2.094111777842044830e-02 1.039514392614364624e-01 3.746776655316352844e-02 5.303713679313659668e-02
6.425000000000000000e+03 1.720615959167480469e+01 2.733310508728027344e+01 -2.422459190711379051e-03 6.321687996387481689e-02 1.823832653462886810e-02 1.791843585669994354e-02
6.426000000000000000e+03 2.180883407592773438e+01 2.514041328430175781e+01 1.425586361438035965e-02 9.071110934019088745e-02 3.149009123444557190e-02 4.498733580112457275e-02
6.427000000000000000e+03 6.239281845092773438e+01 -8.254164695739746094e+00 2.808243036270141602e-02 5.056639671325683594e+00 1.525416612625122070e+00 3.754148483276367188e-01
6.428000000000000000e+03 5.709754180908203125e+01 -2.352460098266601562e+01 1.255621295422315598e-02 4.128400325775146484e+00 1.242286920547485352e+00 3.076913952827453613e-01
6.429000000000000000e+03 6.268675231933593750e+01 -1.386856079101562500e+01 4.198855906724929810e-02 5.184280872344970703e+00 1.567880749702453613e+00 3.461265265941619873e-01
6.430000000000000000e+03 6.167243957519531250e+01 -1.493891525268554688e+01 2.405622415244579315e-02 4.936406612396240234e+00 1.488138794898986816e+00 3.569626808166503906e-01
6.431000000000000000e+03 1.761829376220703125e+01 2.590523719787597656e+01 -4.978614742867648602e-04 7.292778789997100830e-02 2.172897942364215851e-02 2.307606302201747894e-02
6.432000000000000000e+03 1.807893943786621094e+01 2.688026428222656250e+01 -2.797355875372886658e-03 7.041230052709579468e-02 2.028448320925235748e-02 2.226147055625915527e-02
6.433000000000000000e+03 6.116643905639648438e+01 -1.671368598937988281e+01 2.154604718089103699e-02 4.832252502441406250e+00 1.456139564514160156e+00 3.454152345657348633e-01
6.434000000000000000e+03 5.854229736328125000e+01 -1.704008102416992188e+01 1.656970009207725525e-02 4.338726043701171875e+00 1.306588768959045410e+00 3.055267632007598877e-01
6.435000000000000000e+03 5.541452789306640625e+01 -1.795520401000976562e+01 3.171207383275032043e-02 3.682035684585571289e+00 1.114124298095703125e+00 2.557922899723052979e-01
6.436000000000000000e+03 4.763354492187500000e+01 -6.448424339294433594e+00 2.375406771898269653e-01 1.754195094108581543e+00 5.975207090377807617e-01 1.919371336698532104e-01
6.437000000000000000e+03 5.847264862060546875e+01 -1.963869857788085938e+01 1.081732288002967834e-02 4.373009204864501953e+00 1.315147995948791504e+00 3.112310767173767090e-01
6.438000000000000000e+03 2.354059410095214844e+01 3.086882972717285156e+01 8.223637007176876068e-03 7.566766440868377686e-02 2.516739070415496826e-02 3.166430070996284485e-02
6.439000000000000000e+03 6.064464187622070312e+01 -8.090467453002929688e+00 4.912772774696350098e-02 4.660370826721191406e+00 1.412849664688110352e+00 3.841691017150878906e-01
6.440000000000000000e+03 6.602025604248046875e+01 2.868726348876953125e+01 -9.677594900131225586e-01 1.156040382385253906e+01 3.177793264389038086e+00 9.227120280265808105e-01
6.441000000000000000e+03 6.607272338867187500e+01 2.927490997314453125e+01 -8.266731500625610352e-01 1.221945190429687500e+01 3.417833566665649414e+00 8.158101439476013184e-01
6.442000000000000000e+03 6.352676010131835938e+01 2.842712020874023438e+01 -2.680048644542694092e-01 8.261307716369628906e+00 2.397990942001342773e+00 2.858050346374511719e+00
6.443000000000000000e+03 6.633627319335937500e+01 2.872265434265136719e+01 -9.194463491439819336e-01 1.168301677703857422e+01 3.229071140289306641e+00 6.027871966361999512e-01
6.444000000000000000e+03 6.500437927246093750e+01 2.894334793090820312e+01 -7.980461120605468750e-01 1.091757297515869141e+01 3.035857915878295898e+00 2.051860809326171875e+00
6.445000000000000000e+03 6.470326232910156250e+01 2.876959419250488281e+01 -7.309281826019287109e-01 1.038132476806640625e+01 2.895118951797485352e+00 2.248653173446655273e+00
6.446000000000000000e+03 6.639608764648437500e+01 2.910890197753906250e+01 -8.150855302810668945e-01 1.208964633941650391e+01 3.382368326187133789e+00 4.765616059303283691e-01
6.447000000000000000e+03 6.586988830566406250e+01 2.780345726013183594e+01 -1.076419115066528320e+00 1.061240386962890625e+01 2.860795497894287109e+00 1.033490538597106934e+00
6.448000000000000000e+03 6.537275695800781250e+01 2.873114967346191406e+01 -9.311116337776184082e-01 1.110242176055908203e+01 3.051393270492553711e+00 1.644203543663024902e+00
6.449000000000000000e+03 6.557390594482421875e+01 2.849063682556152344e+01 -9.784773588180541992e-01 1.104614162445068359e+01 3.020299196243286133e+00 1.389682054519653320e+00
6.450000000000000000e+03 5.405010986328125000e+01 2.482535743713378906e+01 -1.887510269880294800e-01 1.210675358772277832e+00 3.065772652626037598e-01 3.684744536876678467e-01
6.451000000000000000e+03 5.616312026977539062e+01 2.632179260253906250e+01 6.035626679658889771e-02 1.673539996147155762e+00 5.201689004898071289e-01 6.800802350044250488e-01
6.452000000000000000e+03 4.797967529296875000e+01 2.052129936218261719e+01 -5.110471248626708984e-01 1.275747120380401611e-01 -1.150417253375053406e-01 -2.690422534942626953e-01
6.453000000000000000e+03 4.969704437255859375e+01 2.134460830688476562e+01 -4.334750175476074219e-01 4.421797394752502441e-01 2.611415926367044449e-03 -9.010251611471176147e-02
6.454000000000000000e+03 4.919344711303710938e+01 2.067725944519042969e+01 -4.420561492443084717e-01 4.076634943485260010e-01 -1.031780336052179337e-02 -1.148124635219573975e-01
6.455000000000000000e+03 4.739916610717773438e+01 1.903026199340820312e+01 -4.814358949661254883e-01 1.787355393171310425e-01 -9.081011265516281128e-02 -2.539222836494445801e-01
6.456000000000000000e+03 4.838093566894531250e+01 2.037665176391601562e+01 -4.868124723434448242e-01 2.372129410505294800e-01 -7.487986236810684204e-02 -2.055289596319198608e-01
6.457000000000000000e+03 6.084112548828125000e+01 2.771529960632324219e+01 4.389812350273132324e-01 4.364190578460693359e+00 1.440951466560363770e+00 2.254240989685058594e+00
6.458000000000000000e+03 5.123601913452148438e+01 2.293281555175781250e+01 -3.725351989269256592e-01 6.289609670639038086e-01 7.692772895097732544e-02 3.240448608994483948e-02
6.459000000000000000e+03 5.225758743286132812e+01 2.314007759094238281e+01 -3.044833242893218994e-01 9.074361324310302734e-01 1.808858513832092285e-01 1.869954615831375122e-01
6.460000000000000000e+03 5.970722579956054688e+01 2.648967361450195312e+01 2.395179569721221924e-01 3.735916614532470703e+00 1.192630410194396973e+00 1.747081875801086426e+00
6.461000000000000000e+03 4.826171112060546875e+01 1.992617607116699219e+01 -4.679205417633056641e-01 2.706294059753417969e-01 -5.918734520673751831e-02 -1.973253786563873291e-01
6.462000000000000000e+03 4.689475631713867188e+01 1.828548049926757812e+01 -4.829564690589904785e-01 1.630191802978515625e-01 -9.598118066787719727e-02 -2.730367779731750488e-01
6.463000000000000000e+03 6.269149780273437500e+01 2.896708488464355469e+01 3.586587905883789062e-01 6.735374927520751953e+00 2.128210067749023438e+00 3.197584152221679688e+00
6.464000000000000000e+03 6.665480804443359375e+01 2.837284278869628906e+01 -9.704191684722900391e-01 1.142100143432617188e+01 3.135174751281738281e+00 3.593345582485198975e-01
6.465000000000000000e+03 6.671416473388671875e+01 2.901441955566406250e+01 -7.725802063941955566e-01 1.202193546295166016e+01 3.374806404113769531e+00 1.683257073163986206e-01
6.466000000000000000e+03 6.418673706054687500e+01 2.818172645568847656e+01 -6.292635798454284668e-01 9.208015441894531250e+00 2.573625564575195312e+00 2.419027328491210938e+00
6.467000000000000000e+03 4.371763229370117188e+01 1.385491752624511719e+01 -5.114532113075256348e-01 4.600363224744796753e-02 -1.396348774433135986e-01 -3.582866787910461426e-01
6.468000000000000000e+03 4.369094467163085938e+01 1.433858394622802734e+01 -5.283376574516296387e-01 -1.148850657045841217e-02 -1.619478464126586914e-01 -3.905931115150451660e-01
6.469000000000000000e+03 4.299174118041992188e+01 1.382893371582031250e+01 -5.572368502616882324e-01 -8.364113420248031616e-02 -1.922633945941925049e-01 -4.208948314189910889e-01
6.470000000000000000e+03 4.067761993408203125e+01 1.189672374725341797e+01 -6.248723268508911133e-01 -2.996354997158050537e-01 -2.773523628711700439e-01 -4.986495673656463623e-01
6.471000000000000000e+03 4.588837432861328125e+01 1.668630218505859375e+01 -4.778781533241271973e-01 1.463957428932189941e-01 -9.944471716880798340e-02 -2.978537380695343018e-01
6.472000000000000000e+03 4.658666992187500000e+01 1.671018791198730469e+01 -4.403937757015228271e-01 2.969143986701965332e-01 -4.304381087422370911e-02 -2.192677408456802368e-01
6.473000000000000000e+03 5.548940277099609375e+01 2.531167221069335938e+01 -4.668362811207771301e-02 1.651774644851684570e+00 4.815273284912109375e-01 6.244766712188720703e-01
6.474000000000000000e+03 4.482913208007812500e+01 1.550511741638183594e+01 -5.007863640785217285e-01 7.286617904901504517e-02 -1.283760666847229004e-01 -3.467294573783874512e-01
6.475000000000000000e+03 4.404529571533203125e+01 1.487034034729003906e+01 -5.257883071899414062e-01 -3.406709525734186172e-03 -1.587585061788558960e-01 -3.869253993034362793e-01
6.476000000000000000e+03 4.565858459472656250e+01 1.636199569702148438e+01 -4.750952124595642090e-01 1.381750553846359253e-01 -1.010760441422462463e-01 -3.033277392387390137e-01
6.477000000000000000e+03 4.628148269653320312e+01 1.635806465148925781e+01 -4.428723752498626709e-01 2.693954706192016602e-01 -5.204306915402412415e-02 -2.340330928564071655e-01
6.478000000000000000e+03 5.264231109619140625e+01 2.341659355163574219e+01 -2.790921032428741455e-01 9.873299598693847656e-01 2.124713510274887085e-01 2.316560745239257812e-01
6.479000000000000000e+03 5.441180419921875000e+01 2.478171920776367188e+01 -1.558761447668075562e-01 1.343292713165283203e+00 3.562249541282653809e-01 4.421012103557586670e-01
6.480000000000000000e+03 5.302856826782226562e+01 2.368023872375488281e+01 -2.514148652553558350e-01 1.068164229393005371e+00 2.450248152017593384e-01 2.798524796962738037e-01
6.481000000000000000e+03 4.979122924804687500e+01 2.201207160949707031e+01 -4.524017572402954102e-01 3.648790419101715088e-01 -2.625681459903717041e-02 -1.222183704376220703e-01
6.482000000000000000e+03 5.029024505615234375e+01 2.193717765808105469e+01 -4.121507406234741211e-01 5.071343779563903809e-01 2.849509194493293762e-02 -3.980785235762596130e-02
6.483000000000000000e+03 4.438828659057617188e+01 1.543776416778564453e+01 -5.250482559204101562e-01 3.887591301463544369e-04 -1.573978513479232788e-01 -3.872282803058624268e-01
6.484000000000000000e+03 4.449217224121093750e+01 1.493544006347656250e+01 -5.006692409515380859e-01 6.964524835348129272e-02 -1.293072104454040527e-01 -3.464984893798828125e-01
6.485000000000000000e+03 4.690488433837890625e+01 1.709655952453613281e+01 -4.381802976131439209e-01 3.123262524604797363e-01 -3.775621205568313599e-02 -2.037410587072372437e-01
6.486000000000000000e+03 5.648745727539062500e+01 2.644742012023925781e+01 1.046606674790382385e-01 1.786822795867919922e+00 5.674450397491455078e-01 7.576676011085510254e-01
6.487000000000000000e+03 4.525873184204101562e+01 1.556535243988037109e+01 -4.785546958446502686e-01 1.476491689682006836e-01 -9.927165508270263672e-02 -3.060952425003051758e-01
6.488000000000000000e+03 4.559732818603515625e+01 1.601865768432617188e+01 -4.766570627689361572e-01 1.612251549959182739e-01 -9.462957084178924561e-02 -2.915549278259277344e-01
6.489000000000000000e+03 5.523306274414062500e+01 2.589362525939941406e+01 -5.933478847146034241e-02 1.438851952552795410e+00 4.138551354408264160e-01 5.123147368431091309e-01
6.490000000000000000e+03 4.748874664306640625e+01 1.966350173950195312e+01 -5.054115653038024902e-01 1.231283247470855713e-01 -1.146849691867828369e-01 -2.779221236705780029e-01
6.491000000000000000e+03 5.660261917114257812e+01 2.604548072814941406e+01 8.746641874313354492e-02 1.962350010871887207e+00 6.149449348449707031e-01 8.321139216423034668e-01
6.492000000000000000e+03 5.691051483154296875e+01 2.622345924377441406e+01 1.234131231904029846e-01 2.067862749099731445e+00 6.573827266693115234e-01 8.987089991569519043e-01
6.493000000000000000e+03 6.029521560668945312e+01 2.619294738769531250e+01 1.219351664185523987e-01 4.278467655181884766e+00 1.320120930671691895e+00 1.871407628059387207e+00
6.494000000000000000e+03 6.120514297485351562e+01 2.766806793212890625e+01 3.510692119598388672e-01 4.788083553314208984e+00 1.541745901107788086e+00 2.362164020538330078e+00
6.495000000000000000e+03 6.495611572265625000e+01 2.375050735473632812e+01 -1.051166296005249023e+00 7.927071571350097656e+00 2.062771558761596680e+00 1.007921099662780762e+00
6.496000000000000000e+03 5.437838745117187500e+01 2.525132369995117188e+01 -1.525159627199172974e-01 1.252006173133850098e+00 3.298470675945281982e-01 3.934760391712188721e-01
6.497000000000000000e+03 4.011342620849609375e+01 8.624379158020019531e+00 -5.049815177917480469e-01 -1.173189058899879456e-01 -1.866901367902755737e-01 -3.279964923858642578e-01
6.498000000000000000e+03 3.934613800048828125e+01 8.385107994079589844e+00 -5.448257327079772949e-01 -2.089498043060302734e-01 -2.261326611042022705e-01 -3.694082796573638916e-01
6.499000000000000000e+03 3.960823440551757812e+01 8.829038619995117188e+00 -5.474721193313598633e-01 -2.069685757160186768e-01 -2.263322025537490845e-01 -3.808794021606445312e-01
6.500000000000000000e+03 6.347052001953125000e+01 2.712033653259277344e+01 -5.239762663841247559e-01 7.758252620697021484e+00 2.170282840728759766e+00 2.295744895935058594e+00
6.501000000000000000e+03 5.997726821899414062e+01 2.678875732421875000e+01 2.802677452564239502e-01 3.867831468582153320e+00 1.244429826736450195e+00 1.849140048027038574e+00
6.502000000000000000e+03 6.642882537841796875e+01 2.721486854553222656e+01 -1.141565442085266113e+00 1.043126201629638672e+01 2.786908864974975586e+00 6.055924296379089355e-01
6.503000000000000000e+03 4.013119125366210938e+01 9.759507179260253906e+00 -5.599219799041748047e-01 -2.028269618749618530e-01 -2.288246750831604004e-01 -4.030280113220214844e-01
6.504000000000000000e+03 3.985556411743164062e+01 1.041801738739013672e+01 -6.083322763442993164e-01 -2.997702658176422119e-01 -2.724307775497436523e-01 -4.696247279644012451e-01
6.505000000000000000e+03 4.071986389160156250e+01 1.137400436401367188e+01 -5.983290076255798340e-01 -2.423849105834960938e-01 -2.522141933441162109e-01 -4.599489867687225342e-01
6.506000000000000000e+03 5.058688735961914062e+01 2.223758697509765625e+01 -3.985622525215148926e-01 5.416069626808166504e-01 4.291340708732604980e-02 -2.059115655720233917e-02
6.507000000000000000e+03 3.390226745605468750e+01 1.624297380447387695e+00 -4.008606970310211182e-01 -4.025286734104156494e-01 -2.410168051719665527e-01 -6.272166222333908081e-02
6.508000000000000000e+03 4.106090545654296875e+01 1.242176723480224609e+01 -6.236600279808044434e-01 -2.834568619728088379e-01 -2.721350789070129395e-01 -5.007199645042419434e-01
6.509000000000000000e+03 5.188467025756835938e+01 2.284523010253906250e+01 -3.228007555007934570e-01 8.395813703536987305e-01 1.550341695547103882e-01 1.445057690143585205e-01
6.510000000000000000e+03 2.108296966552734375e+01 2.238203811645507812e+01 2.093257941305637360e-02 1.020086631178855896e-01 3.688237443566322327e-02 5.347259342670440674e-02
6.511000000000000000e+03 2.236511039733886719e+01 2.159011840820312500e+01 3.138537704944610596e-02 1.056923717260360718e-01 4.112332314252853394e-02 6.227996200323104858e-02
6.512000000000000000e+03 3.885017776489257812e+01 7.522738933563232422e+00 -5.337854027748107910e-01 -2.124054431915283203e-01 -2.238572686910629272e-01 -3.462447226047515869e-01
6.513000000000000000e+03 5.798962402343750000e+01 2.617084503173828125e+01 1.879333108663558960e-01 2.637412786483764648e+00 8.476037979125976562e-01 1.211304545402526855e+00
6.514000000000000000e+03 5.770339584350585938e+01 2.648406982421875000e+01 2.135628908872604370e-01 2.365127325057983398e+00 7.736070752143859863e-01 1.108313798904418945e+00
6.515000000000000000e+03 5.507304000854492188e+01 2.641617012023925781e+01 -7.796636223793029785e-02 1.254228353500366211e+00 3.528786003589630127e-01 4.090892076492309570e-01
6.516000000000000000e+03 3.703000640869140625e+01 5.413644790649414062e+00 -5.382288694381713867e-01 -2.816734015941619873e-01 -2.459706813097000122e-01 -2.987253665924072266e-01
6.517000000000000000e+03 3.795579528808593750e+01 6.784989833831787109e+00 -5.547071099281311035e-01 -2.756217122077941895e-01 -2.490986436605453491e-01 -3.553866744041442871e-01
6.518000000000000000e+03 1.645216369628906250e+01 1.574809837341308594e+01 2.984957024455070496e-02 1.399617046117782593e-01 5.094338208436965942e-02 6.089453771710395813e-02
6.519000000000000000e+03 3.763892745971679688e+01 5.348040103912353516e+00 -4.914007484912872314e-01 -2.201623767614364624e-01 -2.134689390659332275e-01 -2.613259553909301758e-01
6.520000000000000000e+03 6.678248596191406250e+01 2.543813514709472656e+01 -1.204290390014648438e+00 9.449176788330078125e+00 2.473465681076049805e+00 3.839620351791381836e-01
6.521000000000000000e+03 5.856264114379882812e+01 2.625468254089355469e+01 2.205145061016082764e-01 2.959100246429443359e+00 9.538844227790832520e-01 1.380313992500305176e+00
6.522000000000000000e+03 3.726815414428710938e+01 6.428086757659912109e+00 -5.890510082244873047e-01 -3.328817784786224365e-01 -2.765798270702362061e-01 -3.766308426856994629e-01
6.523000000000000000e+03 4.997121429443359375e+01 2.167263984680175781e+01 -4.289780855178833008e-01 4.570299685001373291e-01 8.415560238063335419e-03 -7.354291528463363647e-02
6.524000000000000000e+03 5.084969711303710938e+01 2.187561798095703125e+01 -3.725937902927398682e-01 6.757913231849670410e-01 9.095925837755203247e-02 4.290160164237022400e-02
6.525000000000000000e+03 5.889346313476562500e+01 2.597252082824707031e+01 1.813371479511260986e-01 3.253906250000000000e+00 1.030573010444641113e+00 1.473317265510559082e+00
6.526000000000000000e+03 4.745883941650390625e+01 1.808577156066894531e+01 -4.367796480655670166e-01 3.250133097171783447e-01 -3.352990001440048218e-02 -1.850756257772445679e-01
6.527000000000000000e+03 4.825248718261718750e+01 1.946123504638671875e+01 -4.516106843948364258e-01 3.207190036773681641e-01 -3.926751017570495605e-02 -1.689053773880004883e-01
6.528000000000000000e+03 5.446033859252929688e+01 2.589716339111328125e+01 -1.569953709840774536e-01 1.137932300567626953e+00 2.942810654640197754e-01 3.466921448707580566e-01
6.529000000000000000e+03 1.488876914978027344e+01 1.426071453094482422e+01 2.857561223208904266e-02 1.526522636413574219e-01 5.436836183071136475e-02 5.291976034641265869e-02
6.530000000000000000e+03 1.767858695983886719e+01 1.923203468322753906e+01 1.787704601883888245e-02 1.128041967749595642e-01 3.920437395572662354e-02 4.919936507940292358e-02
6.531000000000000000e+03 6.611241912841796875e+01 2.504109191894531250e+01 -1.193802595138549805e+00 9.063587188720703125e+00 2.360935449600219727e+00 6.910119652748107910e-01
6.532000000000000000e+03 6.643785858154296875e+01 2.470345306396484375e+01 -1.206330180168151855e+00 9.036022186279296875e+00 2.348907709121704102e+00 5.369615554809570312e-01
6.533000000000000000e+03 1.867109680175781250e+01 2.032714462280273438e+01 1.840508170425891876e-02 1.081978082656860352e-01 3.798086941242218018e-02 5.001401528716087341e-02
6.534000000000000000e+03 1.604446601867675781e+01 1.713978385925292969e+01 1.843237504363059998e-02 1.244613006711006165e-01 4.286810010671615601e-02 4.727423563599586487e-02
6.535000000000000000e+03 1.678217887878417969e+01 1.698995208740234375e+01 2.486302703619003296e-02 1.286738514900207520e-01 4.606106132268905640e-02 5.511829629540443420e-02
6.536000000000000000e+03 3.449428176879882812e+01 3.627036571502685547e+00 -6.417376995086669922e-01 -4.082615375518798828e-01 -3.149997591972351074e-01 -2.572388350963592529e-01
6.537000000000000000e+03 3.426911544799804688e+01 2.382909774780273438e+00 -4.955008029937744141e-01 -3.839865624904632568e-01 -2.638462185859680176e-01 -1.239178329706192017e-01
6.538000000000000000e+03 4.172014236450195312e+01 1.404633712768554688e+01 -6.535127162933349609e-01 -3.214918971061706543e-01 -2.925013899803161621e-01 -5.560647845268249512e-01
6.539000000000000000e+03 6.468470764160156250e+01 2.234691238403320312e+01 -9.869859218597412109e-01 7.401543140411376953e+00 1.924367189407348633e+00 9.154868125915527344e-01
6.540000000000000000e+03 6.456819152832031250e+01 2.030630302429199219e+01 -9.095471501350402832e-01 6.955207347869873047e+00 1.813698053359985352e+00 7.679909467697143555e-01
6.541000000000000000e+03 4.728473281860351562e+01 1.744278144836425781e+01 -4.267531037330627441e-01 3.547457158565521240e-01 -2.160221338272094727e-02 -1.760319769382476807e-01
6.542000000000000000e+03 3.624133300781250000e+01 1.317738771438598633e+00 -1.901897192001342773e-01 -2.116521745920181274e-01 -1.205525696277618408e-01 -1.293289847671985626e-02
6.543000000000000000e+03 3.601459503173828125e+01 4.122963428497314453e+00 -5.284259319305419922e-01 -3.079178035259246826e-01 -2.509031295776367188e-01 -2.366014271974563599e-01
6.544000000000000000e+03 1.984981536865234375e+01 2.126074028015136719e+01 1.986886188387870789e-02 1.056861802935600281e-01 3.766651079058647156e-02 5.261750891804695129e-02
6.545000000000000000e+03 2.154354476928710938e+01 2.173956871032714844e+01 2.614986337721347809e-02 1.051089093089103699e-01 3.937762975692749023e-02 5.807320401072502136e-02
6.546000000000000000e+03 3.513489913940429688e+01 1.286284685134887695e+00 -2.406020611524581909e-01 -3.008557856082916260e-01 -1.624373495578765869e-01 -2.266555279493331909e-02
6.547000000000000000e+03 1.543274211883544922e+01 1.889635658264160156e+01 8.580862544476985931e-03 1.033605635166168213e-01 3.358242660760879517e-02 3.244233503937721252e-02
6.548000000000000000e+03 1.616184997558593750e+01 1.791950988769531250e+01 1.653718389570713043e-02 1.177510023117065430e-01 4.028645530343055725e-02 4.415810853242874146e-02
6.549000000000000000e+03 3.703031158447265625e+01 4.893673419952392578e+00 -5.060006380081176758e-01 -2.551395595073699951e-01 -2.283420562744140625e-01 -2.603328526020050049e-01
6.550000000000000000e+03 6.552434539794921875e+01 2.411410140991210938e+01 -1.122756481170654297e+00 8.360249519348144531e+00 2.171247959136962891e+00 8.746569156646728516e-01
6.551000000000000000e+03 4.883780288696289062e+01 -7.384770870208740234e+00 2.159680277109146118e-01 2.030328035354614258e+00 6.738888025283813477e-01 2.054603844881057739e-01
6.552000000000000000e+03 6.454087066650390625e+01 1.809132957458496094e+01 -7.870581150054931641e-01 6.588580131530761719e+00 1.740456581115722656e+00 6.304286122322082520e-01
6.553000000000000000e+03 6.521191406250000000e+01 1.991201591491699219e+01 -9.315770864486694336e-01 7.143058776855468750e+00 1.863444447517395020e+00 6.150357723236083984e-01
6.554000000000000000e+03 3.836203002929687500e+01 7.693705558776855469e+00 -5.757750272750854492e-01 -2.919054925441741943e-01 -2.603041529655456543e-01 -3.956204652786254883e-01
6.555000000000000000e+03 4.081672286987304688e+01 -1.105356812477111816e+00 1.566926240921020508e-01 4.017071127891540527e-01 1.675199270248413086e-01 1.195325702428817749e-01
6.556000000000000000e+03 3.894430923461914062e+01 -1.725497722625732422e+00 1.938005983829498291e-01 1.418839246034622192e-01 1.007053554058074951e-01 9.779065847396850586e-02
6.557000000000000000e+03 6.511395263671875000e+01 1.750775146484375000e+01 -7.781061530113220215e-01 6.715468883514404297e+00 1.781208872795104980e+00 5.349789857864379883e-01
6.558000000000000000e+03 1.719719314575195312e+01 1.985328102111816406e+01 1.280975714325904846e-02 1.072663292288780212e-01 3.602282702922821045e-02 4.195097461342811584e-02
6.559000000000000000e+03 2.180720901489257812e+01 2.904640769958496094e+01 5.755036603659391403e-03 7.578745484352111816e-02 2.446274645626544952e-02 3.187712281942367554e-02
6.560000000000000000e+03 6.656591796875000000e+01 2.417107963562011719e+01 -1.203751683235168457e+00 8.856444358825683594e+00 2.295807838439941406e+00 4.616969823837280273e-01
6.561000000000000000e+03 3.956246185302734375e+01 9.969019889831542969e-01 -1.300942152738571167e-02 1.836067140102386475e-01 5.117918923497200012e-02 6.471957266330718994e-02
6.562000000000000000e+03 3.675831985473632812e+01 2.017170488834381104e-01 -2.502937614917755127e-02 -1.463685631752014160e-01 -5.141938105225563049e-02 4.271569103002548218e-02
6.563000000000000000e+03 6.266709518432617188e+01 7.352247238159179688e+00 -2.308999001979827881e-01 5.310349941253662109e+00 1.523834943771362305e+00 5.043160319328308105e-01
6.564000000000000000e+03 6.359262466430664062e+01 1.334130668640136719e+01 -5.014977455139160156e-01 5.823407649993896484e+00 1.596572875976562500e+00 5.542203187942504883e-01
6.565000000000000000e+03 6.058412933349609375e+01 -2.041082620620727539e+00 1.259537320584058762e-02 4.640500068664550781e+00 1.395928621292114258e+00 4.415480792522430420e-01
6.566000000000000000e+03 6.206856536865234375e+01 1.183155632019042969e+01 -4.004621505737304688e-01 5.262886047363281250e+00 1.458727121353149414e+00 6.075671911239624023e-01
6.567000000000000000e+03 6.188412475585937500e+01 6.199037075042724609e+00 -1.835485845804214478e-01 5.081550598144531250e+00 1.469400525093078613e+00 5.062667131423950195e-01
6.568000000000000000e+03 4.399996185302734375e+01 -2.893216848373413086e+00 2.404938489198684692e-01 9.626942276954650879e-01 3.609564304351806641e-01 1.670886129140853882e-01
6.569000000000000000e+03 6.018239974975585938e+01 4.832943439483642578e+00 -1.255864202976226807e-01 4.586794853210449219e+00 1.338362455368041992e+00 5.195896625518798828e-01
6.570000000000000000e+03 6.101834106445312500e+01 3.199181556701660156e+00 -9.243857115507125854e-02 4.773442268371582031e+00 1.404301047325134277e+00 4.979289472103118896e-01
6.571000000000000000e+03 6.123948287963867188e+01 9.024916648864746094e+00 -2.735692560672760010e-01 4.922146797180175781e+00 1.394573211669921875e+00 5.662654042243957520e-01
6.572000000000000000e+03 6.282386779785156250e+01 1.257716274261474609e+01 -4.485351741313934326e-01 5.542695522308349609e+00 1.528248190879821777e+00 5.867905020713806152e-01
6.573000000000000000e+03 6.281262588500976562e+01 6.380656719207763672e+00 -2.026750743389129639e-01 5.308185100555419922e+00 1.531653046607971191e+00 4.942843616008758545e-01
6.574000000000000000e+03 2.214104843139648438e+01 2.402759552001953125e+01 1.853853277862071991e-02 9.619213640689849854e-02 3.441920131444931030e-02 5.047315359115600586e-02
6.575000000000000000e+03 2.173178100585937500e+01 2.282828330993652344e+01 2.207750268280506134e-02 1.006219312548637390e-01 3.680983185768127441e-02 5.380651354789733887e-02
6.576000000000000000e+03 1.642423057556152344e+01 1.973107147216796875e+01 1.052014902234077454e-02 1.040383130311965942e-01 3.436753898859024048e-02 3.760498389601707458e-02
6.577000000000000000e+03 6.031795120239257812e+01 -3.497322797775268555e+00 3.408312052488327026e-02 4.577373981475830078e+00 1.383437156677246094e+00 4.224678874015808105e-01
6.578000000000000000e+03 5.893109130859375000e+01 -3.397312164306640625e+00 4.844943061470985413e-02 4.271957397460937500e+00 1.296122074127197266e+00 4.285971820354461670e-01
6.579000000000000000e+03 6.103490447998046875e+01 -5.446082115173339844e+00 3.562975674867630005e-02 4.741072177886962891e+00 1.433010578155517578e+00 4.018326997756958008e-01
6.580000000000000000e+03 6.121912002563476562e+01 9.665179252624511719e-01 -4.368899390101432800e-02 4.821974754333496094e+00 1.433485746383666992e+00 4.687878191471099854e-01
6.581000000000000000e+03 6.186057662963867188e+01 9.826435893774032593e-02 -3.230031579732894897e-02 4.971697807312011719e+00 1.481819152832031250e+00 4.532195925712585449e-01
6.582000000000000000e+03 6.405970001220703125e+01 1.974521636962890625e+01 -8.425648212432861328e-01 6.628913402557373047e+00 1.735904574394226074e+00 8.017440438270568848e-01
6.583000000000000000e+03 6.449139404296875000e+01 1.686078643798828125e+01 -7.169883847236633301e-01 6.425426483154296875e+00 1.712531447410583496e+00 5.846043229103088379e-01
6.584000000000000000e+03 6.011497497558593750e+01 -6.931609153747558594e+00 5.778906494379043579e-02 4.540374755859375000e+00 1.379449248313903809e+00 3.910781741142272949e-01
6.585000000000000000e+03 6.121697616577148438e+01 -6.495392799377441406e+00 3.844126686453819275e-02 4.800727844238281250e+00 1.451750755310058594e+00 3.988565802574157715e-01
6.586000000000000000e+03 5.067993545532226562e+01 -1.019518852233886719e+01 1.594209372997283936e-01 2.491890668869018555e+00 7.953934669494628906e-01 2.019037306308746338e-01
6.587000000000000000e+03 4.922914505004882812e+01 -9.003657341003417969e+00 1.976128518581390381e-01 2.160684585571289062e+00 7.074891924858093262e-01 1.831367909908294678e-01
6.588000000000000000e+03 6.380959320068359375e+01 1.622650909423828125e+01 -6.590222716331481934e-01 6.123887538909912109e+00 1.639459490776062012e+00 6.332384347915649414e-01
6.589000000000000000e+03 6.443639373779296875e+01 1.553239440917968750e+01 -6.407034993171691895e-01 6.269160270690917969e+00 1.688537001609802246e+00 5.485905408859252930e-01
6.590000000000000000e+03 4.013664245605468750e+01 -7.735928893089294434e-01 1.342800706624984741e-01 2.931537330150604248e-01 1.282301396131515503e-01 1.038720533251762390e-01
6.591000000000000000e+03 4.148914718627929688e+01 -1.464052915573120117e+00 1.891440898180007935e-01 5.119047164916992188e-01 2.103146314620971680e-01 1.287402659654617310e-01
6.592000000000000000e+03 5.286301040649414062e+01 -1.124682712554931641e+01 1.171956881880760193e-01 2.990765571594238281e+00 9.323883652687072754e-01 2.391641885042190552e-01
6.593000000000000000e+03 5.750577163696289062e+01 -1.312576293945312500e+01 6.626822054386138916e-02 4.050099849700927734e+00 1.234910488128662109e+00 3.042670488357543945e-01
6.594000000000000000e+03 1.770558547973632812e+01 2.251562881469726562e+01 5.812271963804960251e-03 9.151651710271835327e-02 2.919863536953926086e-02 3.474243357777595520e-02
6.595000000000000000e+03 1.820564842224121094e+01 2.194626617431640625e+01 9.402630850672721863e-03 9.644941985607147217e-02 3.175561502575874329e-02 3.874864056706428528e-02
6.596000000000000000e+03 6.176536178588867188e+01 -1.188096809387207031e+01 4.480839520692825317e-02 4.949493885040283203e+00 1.498290657997131348e+00 3.517276346683502197e-01
6.597000000000000000e+03 6.116654586791992188e+01 -1.090095043182373047e+01 4.308888688683509827e-02 4.790212154388427734e+00 1.449990272521972656e+00 3.563303053379058838e-01
6.598000000000000000e+03 6.060812377929687500e+01 -1.202201652526855469e+01 5.025950446724891663e-02 4.688358783721923828e+00 1.421585440635681152e+00 3.504188060760498047e-01
6.599000000000000000e+03 2.468977546691894531e+01 3.236591339111328125e+01 1.209637802094221115e-02 7.313746958971023560e-02 2.557015605270862579e-02 2.935251966118812561e-02
6.600000000000000000e+03 1.665808868408203125e+01 2.644209480285644531e+01 -5.246919579803943634e-03 6.405769288539886475e-02 1.764323189854621887e-02 1.679183915257453918e-02
6.601000000000000000e+03 1.725037574768066406e+01 2.409442901611328125e+01 8.760892669670283794e-04 7.935956865549087524e-02 2.407069690525531769e-02 2.653310634195804596e-02
6.602000000000000000e+03 1.871463584899902344e+01 2.949028778076171875e+01 -3.274152288213372231e-03 6.202362850308418274e-02 1.762484386563301086e-02 2.019963972270488739e-02
6.603000000000000000e+03 6.228014755249023438e+01 -1.290413570404052734e+01 3.583507612347602844e-02 5.060504436492919922e+00 1.528901815414428711e+00 3.407362997531890869e-01
6.604000000000000000e+03 6.008888626098632812e+01 -1.791446113586425781e+01 3.177725523710250854e-02 4.641846179962158203e+00 1.402087092399597168e+00 3.356626331806182861e-01
6.605000000000000000e+03 4.889197540283203125e+01 -8.302642822265625000e+00 2.149171382188796997e-01 2.065890550613403320e+00 6.842423081398010254e-01 1.881397515535354614e-01
6.606000000000000000e+03 4.993468475341796875e+01 -7.386180400848388672e+00 1.961154788732528687e-01 2.281414270401000977e+00 7.432589530944824219e-01 2.278591990470886230e-01
6.607000000000000000e+03 2.102895927429199219e+01 2.809907722473144531e+01 4.567300435155630112e-03 7.573740184307098389e-02 2.409141138195991516e-02 3.188143298029899597e-02
6.608000000000000000e+03 5.926976776123046875e+01 -1.176322746276855469e+01 5.684267356991767883e-02 4.396298408508300781e+00 1.335942268371582031e+00 3.412934243679046631e-01
6.609000000000000000e+03 4.775926971435546875e+01 -5.263012886047363281e+00 2.269687205553054810e-01 1.740998148918151855e+00 5.903900861740112305e-01 2.113468945026397705e-01
6.610000000000000000e+03 5.698183441162109375e+01 -1.648083305358886719e+01 2.970118075609207153e-02 3.961566686630249023e+00 1.197380304336547852e+00 2.872475683689117432e-01
6.611000000000000000e+03 5.940766143798828125e+01 -1.027954483032226562e+01 6.148973852396011353e-02 4.408051967620849609e+00 1.340862512588500977e+00 3.508736193180084229e-01
6.612000000000000000e+03 6.067577362060546875e+01 -1.995742416381835938e+01 2.491615153849124908e-02 4.763196945190429688e+00 1.436434030532836914e+00 3.528466522693634033e-01
6.613000000000000000e+03 5.211706542968750000e+01 -1.245177841186523438e+01 1.231344789266586304e-01 2.861865997314453125e+00 8.955001831054687500e-01 2.080056667327880859e-01
6.614000000000000000e+03 6.199587631225585938e+01 2.794479179382324219e+01 2.352982759475708008e-01 5.766771793365478516e+00 1.800620913505554199e+00 2.664988279342651367e+00
6.615000000000000000e+03 6.395806121826171875e+01 2.845990753173828125e+01 -4.724412560462951660e-01 8.979014396667480469e+00 2.551972150802612305e+00 2.649481534957885742e+00
6.616000000000000000e+03 6.636239624023437500e+01 2.834717559814453125e+01 -1.010582327842712402e+00 1.134353542327880859e+01 3.099885940551757812e+00 6.121923923492431641e-01
6.617000000000000000e+03 6.548596191406250000e+01 2.803385543823242188e+01 -1.011310577392578125e+00 1.053809261322021484e+01 2.858034610748291016e+00 1.413779139518737793e+00
6.618000000000000000e+03 6.079513168334960938e+01 2.725803184509277344e+01 3.055357635021209717e-01 4.454423904418945312e+00 1.427987933158874512e+00 2.155765295028686523e+00
6.619000000000000000e+03 6.327338409423828125e+01 2.860116004943847656e+01 -9.349920600652694702e-02 7.865454673767089844e+00 2.331586599349975586e+00 2.975270509719848633e+00
6.620000000000000000e+03 6.253416824340820312e+01 2.861447334289550781e+01 2.790945470333099365e-01 6.511028766632080078e+00 2.037036895751953125e+00 3.022394657135009766e+00
6.621000000000000000e+03 5.087416076660156250e+01 1.995596694946289062e+01 -3.200405836105346680e-01 9.670197963714599609e-01 1.940937638282775879e-01 1.620434969663619995e-01
6.622000000000000000e+03 5.072123336791992188e+01 2.117851448059082031e+01 -3.614382743835449219e-01 7.483043074607849121e-01 1.160598099231719971e-01 7.175152003765106201e-02
6.623000000000000000e+03 5.626214599609375000e+01 2.589712715148925781e+01 4.872858524322509766e-02 1.844146132469177246e+00 5.678623914718627930e-01 7.579350471496582031e-01
6.624000000000000000e+03 4.413389587402343750e+01 1.436505889892578125e+01 -5.041484236717224121e-01 6.165431812405586243e-02 -1.327482312917709351e-01 -3.474537432193756104e-01
6.625000000000000000e+03 5.250772476196289062e+01 2.273838615417480469e+01 -2.794314920902252197e-01 1.056436419486999512e+00 2.331014722585678101e-01 2.557106912136077881e-01
6.626000000000000000e+03 4.763079452514648438e+01 1.707386398315429688e+01 -4.027623832225799561e-01 4.875255227088928223e-01 2.542893588542938232e-02 -1.116842031478881836e-01
6.627000000000000000e+03 4.208686065673828125e+01 1.375654792785644531e+01 -6.155298352241516113e-01 -2.399845570325851440e-01 -2.566543221473693848e-01 -5.059014558792114258e-01
6.628000000000000000e+03 4.418202590942382812e+01 1.381657409667968750e+01 -4.803563356399536133e-01 1.272465884685516357e-01 -1.059329286217689514e-01 -3.073981702327728271e-01
6.629000000000000000e+03 5.118323516845703125e+01 2.219673538208007812e+01 -3.564967215061187744e-01 7.321220636367797852e-01 1.126876026391983032e-01 7.794132828712463379e-02
6.630000000000000000e+03 4.880473709106445312e+01 2.030031013488769531e+01 -4.589303731918334961e-01 3.498193323612213135e-01 -3.273331746459007263e-02 -1.437769681215286255e-01
6.631000000000000000e+03 5.947103500366210938e+01 2.610226249694824219e+01 1.835811287164688110e-01 3.632232666015625000e+00 1.144744157791137695e+00 1.654286742210388184e+00
6.632000000000000000e+03 5.339267349243164062e+01 2.395093536376953125e+01 -2.248818427324295044e-01 1.139468312263488770e+00 2.743759453296661377e-01 3.191627860069274902e-01
6.633000000000000000e+03 4.595788574218750000e+01 1.610007667541503906e+01 -4.548734128475189209e-01 2.359679788351058960e-01 -6.567163020372390747e-02 -2.532926797866821289e-01
6.634000000000000000e+03 4.698937225341796875e+01 1.638058853149414062e+01 -4.047920703887939453e-01 4.116665124893188477e-01 2.062330022454261780e-03 -1.553534418344497681e-01
6.635000000000000000e+03 3.441904449462890625e+01 2.032886266708374023e+00 -4.329440891742706299e-01 -3.731836080551147461e-01 -2.418383061885833740e-01 -9.779542684555053711e-02
6.636000000000000000e+03 5.345949554443359375e+01 2.286380004882812500e+01 -2.171242237091064453e-01 1.362907171249389648e+00 3.437348902225494385e-01 4.106554687023162842e-01
6.637000000000000000e+03 4.459973144531250000e+01 1.442484092712402344e+01 -4.788751900196075439e-01 1.440551131963729858e-01 -1.004460230469703674e-01 -3.045958578586578369e-01
6.638000000000000000e+03 4.493912887573242188e+01 1.501245117187500000e+01 -4.777356684207916260e-01 1.474075913429260254e-01 -9.909842163324356079e-02 -3.055172264575958252e-01
6.639000000000000000e+03 5.395981597900390625e+01 2.451399040222167969e+01 -1.911012381315231323e-01 1.240950942039489746e+00 3.149549067020416260e-01 3.802783489227294922e-01
6.640000000000000000e+03 5.024077606201171875e+01 2.061690521240234375e+01 -3.669305741786956787e-01 6.925625801086425781e-01 9.768959879875183105e-02 4.434392601251602173e-02
6.641000000000000000e+03 5.287915420532226562e+01 2.301486015319824219e+01 -2.601416707038879395e-01 1.133429050445556641e+00 2.619861960411071777e-01 2.997244000434875488e-01
6.642000000000000000e+03 5.328699493408203125e+01 2.327119827270507812e+01 -2.332725226879119873e-01 1.235876441001892090e+00 3.007811903953552246e-01 3.551706075668334961e-01
6.643000000000000000e+03 6.207704544067382812e+01 2.836838912963867188e+01 3.657192587852478027e-01 5.785079479217529297e+00 1.845239520072937012e+00 2.824813127517700195e+00
6.644000000000000000e+03 4.567078399658203125e+01 1.563419532775878906e+01 -4.581446647644042969e-01 2.121346592903137207e-01 -7.380300015211105347e-02 -2.649652659893035889e-01
6.645000000000000000e+03 4.607049179077148438e+01 1.573346996307373047e+01 -4.353302717208862305e-01 2.900593578815460205e-01 -4.358127713203430176e-02 -2.219485342502593994e-01
6.646000000000000000e+03 4.924807357788085938e+01 2.031026077270507812e+01 -4.202626049518585205e-01 4.671134948730468750e-01 1.405526418238878250e-02 -8.413666486740112305e-02
6.647000000000000000e+03 5.488267135620117188e+01 2.471455192565917969e+01 -1.184879019856452942e-01 1.549506664276123047e+00 4.293056428432464600e-01 5.492581725120544434e-01
6.648000000000000000e+03 5.510189056396484375e+01 2.549390983581542969e+01 -7.505532354116439819e-02 1.472958207130432129e+00 4.193708896636962891e-01 5.282341837882995605e-01
6.649000000000000000e+03 4.729700469970703125e+01 1.674503707885742188e+01 -4.021423459053039551e-01 4.502125680446624756e-01 1.442106906324625015e-02 -1.376305818557739258e-01
6.650000000000000000e+03 4.183923721313476562e+01 1.280709743499755859e+01 -5.901021361351013184e-01 -1.925753951072692871e-01 -2.348032593727111816e-01 -4.611380398273468018e-01
6.651000000000000000e+03 5.152668380737304688e+01 2.252800750732421875e+01 -3.418233692646026611e-01 7.822893261909484863e-01 1.321398019790649414e-01 1.079099625349044800e-01
6.652000000000000000e+03 6.303633117675781250e+01 2.256957626342773438e+01 -7.733758687973022461e-01 6.510669231414794922e+00 1.721187949180603027e+00 1.285165429115295410e+00
6.653000000000000000e+03 4.270215606689453125e+01 1.368194389343261719e+01 -5.687167644500732422e-01 -1.254967898130416870e-01 -2.082640677690505981e-01 -4.441595077514648438e-01
6.654000000000000000e+03 4.160846710205078125e+01 1.313059043884277344e+01 -6.221172809600830078e-01 -2.581723630428314209e-01 -2.640869021415710449e-01 -5.059389472007751465e-01
6.655000000000000000e+03 4.132567977905273438e+01 1.150067520141601562e+01 -5.659993886947631836e-01 -1.594655662775039673e-01 -2.176394909620285034e-01 -4.175052344799041748e-01
6.656000000000000000e+03 3.984719467163085938e+01 8.180983543395996094e+00 -4.980837702751159668e-01 -1.236539706587791443e-01 -1.865213215351104736e-01 -3.189500272274017334e-01
6.657000000000000000e+03 4.169443130493164062e+01 1.029069995880126953e+01 -4.843376278877258301e-01 1.214883988723158836e-03 -1.449368298053741455e-01 -3.116750717163085938e-01
6.658000000000000000e+03 5.712263870239257812e+01 2.589620971679687500e+01 1.086046546697616577e-01 2.251239538192749023e+00 7.079532742500305176e-01 9.733984470367431641e-01
6.659000000000000000e+03 5.830004882812500000e+01 2.586647415161132812e+01 1.659164279699325562e-01 2.905241727828979492e+00 9.213474392890930176e-01 1.309712529182434082e+00
6.660000000000000000e+03 4.090906143188476562e+01 1.006281566619873047e+01 -5.263778567314147949e-01 -1.111821532249450684e-01 -1.912679970264434814e-01 -3.622557222843170166e-01
6.661000000000000000e+03 4.064329147338867188e+01 9.563624382019042969e+00 -5.185731053352355957e-01 -1.105896085500717163e-01 -1.887488216161727905e-01 -3.504267632961273193e-01
6.662000000000000000e+03 2.207194328308105469e+01 2.213058853149414062e+01 2.674284577369689941e-02 1.041309982538223267e-01 3.926215320825576782e-02 5.902174487709999084e-02
6.663000000000000000e+03 5.533102798461914062e+01 2.622295379638671875e+01 -4.715863242745399475e-02 1.388788580894470215e+00 4.024889767169952393e-01 4.937944114208221436e-01
6.664000000000000000e+03 5.491769027709960938e+01 2.607743072509765625e+01 -1.013469919562339783e-01 1.262680888175964355e+00 3.484001755714416504e-01 4.094808101654052734e-01
6.665000000000000000e+03 4.038404846191406250e+01 1.026185321807861328e+01 -5.685702562332153320e-01 -2.026266604661941528e-01 -2.313590794801712036e-01 -4.142138361930847168e-01
6.666000000000000000e+03 5.677340698242187500e+01 2.563401412963867188e+01 6.555496156215667725e-02 2.157131195068359375e+00 6.668058633804321289e-01 9.034557342529296875e-01
6.667000000000000000e+03 4.037925338745117188e+01 9.084900856018066406e+00 -5.089994072914123535e-01 -1.145897880196571350e-01 -1.870767623186111450e-01 -3.397410213947296143e-01
6.668000000000000000e+03 5.215024948120117188e+01 2.244427490234375000e+01 -2.976666390895843506e-01 9.910348057746887207e-01 2.080104500055313110e-01 2.159574478864669800e-01
6.669000000000000000e+03 6.659255981445312500e+01 2.585577201843261719e+01 -1.201066613197326660e+00 9.634090423583984375e+00 2.529906988143920898e+00 5.052178502082824707e-01
6.670000000000000000e+03 6.638281250000000000e+01 2.625998115539550781e+01 -1.192853212356567383e+00 9.777253150939941406e+00 2.575319766998291016e+00 6.191929578781127930e-01
6.671000000000000000e+03 3.811749267578125000e+01 4.826292514801025391e+00 -4.173684418201446533e-01 -1.353153288364410400e-01 -1.658051311969757080e-01 -1.945617049932479858e-01
6.672000000000000000e+03 4.817902374267578125e+01 1.854780769348144531e+01 -4.156343638896942139e-01 4.404021203517913818e-01 7.430324330925941467e-03 -1.198227852582931519e-01
6.673000000000000000e+03 5.109819030761718750e+01 2.148182106018066406e+01 -3.467116355895996094e-01 8.222109079360961914e-01 1.426497995853424072e-01 1.136618182063102722e-01
6.674000000000000000e+03 6.231658172607421875e+01 2.743058967590332031e+01 -3.076483309268951416e-02 6.264487266540527344e+00 1.870116710662841797e+00 2.531722068786621094e+00
6.675000000000000000e+03 5.145228958129882812e+01 2.180784034729003906e+01 -3.296925127506256104e-01 8.745346665382385254e-01 1.634526550769805908e-01 1.455949693918228149e-01
6.676000000000000000e+03 2.001832962036132812e+01 2.397160339355468750e+01 1.027476694434881210e-02 9.160539507865905762e-02 3.056404739618301392e-02 4.099886119365692139e-02
6.677000000000000000e+03 6.454264068603515625e+01 2.176891517639160156e+01 -9.586767554283142090e-01 7.199701786041259766e+00 1.872307538986206055e+00 8.905343413352966309e-01
6.678000000000000000e+03 5.770270156860351562e+01 2.584802818298339844e+01 1.468743681907653809e-01 2.573294639587402344e+00 8.160507082939147949e-01 1.148903608322143555e+00
6.679000000000000000e+03 3.589573669433593750e+01 1.747383236885070801e+00 -2.719359397888183594e-01 -2.455100864171981812e-01 -1.552338004112243652e-01 -4.237648099660873413e-02
6.680000000000000000e+03 3.484290313720703125e+01 2.173643350601196289e+00 -4.068902432918548584e-01 -3.336089551448822021e-01 -2.221497595310211182e-01 -8.844529092311859131e-02
6.681000000000000000e+03 3.864505004882812500e+01 -3.297602832317352295e-01 7.428005337715148926e-02 7.914636284112930298e-02 4.602792486548423767e-02 7.881724089384078979e-02
6.682000000000000000e+03 3.909174346923828125e+01 7.951220989227294922e+00 -5.375822186470031738e-01 -2.121653705835342407e-01 -2.249242812395095825e-01 -3.593602478504180908e-01
6.683000000000000000e+03 3.557088088989257812e+01 1.479747533798217773e+00 -2.512051165103912354e-01 -2.672807276248931885e-01 -1.555457562208175659e-01 -3.404291719198226929e-02
6.684000000000000000e+03 4.035937500000000000e+01 7.957193851470947266e+00 -4.547862112522125244e-01 -3.267315775156021118e-02 -1.462378203868865967e-01 -2.659323811531066895e-01
6.685000000000000000e+03 2.084151268005371094e+01 2.061108207702636719e+01 2.881252579391002655e-02 1.099863722920417786e-01 4.163967072963714600e-02 6.088595837354660034e-02
6.686000000000000000e+03 1.817364692687988281e+01 1.982147407531738281e+01 1.862899400293827057e-02 1.094219312071800232e-01 3.841527551412582397e-02 4.878045991063117981e-02
6.687000000000000000e+03 4.146226882934570312e+01 1.258147239685058594e+01 -6.052067875862121582e-01 -2.294819951057434082e-01 -2.504066526889801025e-01 -4.809821546077728271e-01
6.688000000000000000e+03 6.416947937011718750e+01 2.284748840332031250e+01 -9.341817498207092285e-01 7.231110095977783203e+00 1.889078497886657715e+00 1.111675977706909180e+00
6.689000000000000000e+03 6.542130279541015625e+01 2.355883026123046875e+01 -1.096586942672729492e+00 8.097473144531250000e+00 2.100265741348266602e+00 8.552436828613281250e-01
6.690000000000000000e+03 1.873597145080566406e+01 2.137997436523437500e+01 1.374256052076816559e-02 1.021447032690048218e-01 3.476617857813835144e-02 4.555355012416839600e-02
6.691000000000000000e+03 1.933049774169921875e+01 2.193590164184570312e+01 1.455164048820734024e-02 1.005433723330497742e-01 3.452850505709648132e-02 4.577093198895454407e-02
6.692000000000000000e+03 6.372928237915039062e+01 2.143139076232910156e+01 -8.685402274131774902e-01 6.725801467895507812e+00 1.757178306579589844e+00 1.021473765373229980e+00
6.693000000000000000e+03 6.417170715332031250e+01 2.241702842712402344e+01 -9.318102002143859863e-01 7.151007175445556641e+00 1.865759015083312988e+00 1.051607370376586914e+00
6.694000000000000000e+03 3.516819000244140625e+01 3.533776283264160156e+00 -5.594004988670349121e-01 -3.589991629123687744e-01 -2.755199074745178223e-01 -2.204389274120330811e-01
6.695000000000000000e+03 3.463663482666015625e+01 2.599641323089599609e+00 -4.936396777629852295e-01 -3.697125613689422607e-01 -2.590056657791137695e-01 -1.459765881299972534e-01
6.696000000000000000e+03 6.600679016113281250e+01 2.460568237304687500e+01 -1.180067062377929688e+00 8.787230491638183594e+00 2.282149076461791992e+00 7.368090748786926270e-01
6.697000000000000000e+03 3.985157775878906250e+01 -1.494621396064758301e+00 1.788224130868911743e-01 2.618163824081420898e-01 1.321916431188583374e-01 1.072191670536994934e-01
6.698000000000000000e+03 3.932729721069335938e+01 -1.210872292518615723e+00 1.703938245773315430e-01 1.890661716461181641e-01 1.078379973769187927e-01 9.878768026828765869e-02
6.699000000000000000e+03 3.895092773437500000e+01 -8.465266227722167969e-01 1.214344203472137451e-01 1.222621276974678040e-01 7.310896366834640503e-02 8.955989032983779907e-02
6.700000000000000000e+03 3.889646530151367188e+01 6.540167331695556641e+00 -4.697385132312774658e-01 -1.373174637556076050e-01 -1.821167916059494019e-01 -2.733117043972015381e-01
6.701000000000000000e+03 6.559876251220703125e+01 2.518865013122558594e+01 -1.150306582450866699e+00 8.881587982177734375e+00 2.319384574890136719e+00 9.556334018707275391e-01
6.702000000000000000e+03 6.534964752197265625e+01 2.599032020568847656e+01 -1.106931209564208984e+00 9.080208778381347656e+00 2.391983270645141602e+00 1.171841502189636230e+00
6.703000000000000000e+03 3.874633789062500000e+01 6.161421775817871094e+00 -4.639432728290557861e-01 -1.343454122543334961e-01 -1.794866025447845459e-01 -2.597279548645019531e-01
6.704000000000000000e+03 3.862925720214843750e+01 7.095706939697265625e+00 -5.225568413734436035e-01 -2.125927209854125977e-01 -2.205448746681213379e-01 -3.321280479431152344e-01
6.705000000000000000e+03 2.133128356933593750e+01 2.367822837829589844e+01 1.714469119906425476e-02 9.666826575994491577e-02 3.414388746023178101e-02 4.914416000247001648e-02
6.706000000000000000e+03 6.204396057128906250e+01 5.221854686737060547e+00 -1.549623161554336548e-01 5.089265823364257812e+00 1.480291128158569336e+00 4.889903664588928223e-01
6.707000000000000000e+03 1.592527770996093750e+01 1.585810089111328125e+01 2.495774812996387482e-02 1.372530758380889893e-01 4.866324737668037415e-02 5.423381179571151733e-02
6.708000000000000000e+03 6.235649108886718750e+01 9.456138610839843750e+00 -3.093376159667968750e-01 5.278106212615966797e+00 1.490630626678466797e+00 5.433786511421203613e-01
6.709000000000000000e+03 4.215012359619140625e+01 -1.850400924682617188e+00 1.972896158695220947e-01 6.270875930786132812e-01 2.473131716251373291e-01 1.450640410184860229e-01
6.710000000000000000e+03 4.226223373413085938e+01 7.681842803955078125e+00 -3.321367204189300537e-01 2.854577004909515381e-01 -1.400370616465806961e-02 -1.209136247634887695e-01
6.711000000000000000e+03 3.948651504516601562e+01 -6.354494094848632812e-01 1.071439385414123535e-01 1.997767984867095947e-01 9.207621961832046509e-02 9.491168707609176636e-02
6.712000000000000000e+03 6.028667068481445312e+01 3.719444274902343750e-01 -2.073369920253753662e-02 4.586545467376708984e+00 1.369743466377258301e+00 4.698616564273834229e-01
6.713000000000000000e+03 5.958617019653320312e+01 -4.012975692749023438e+00 4.891805723309516907e-02 4.414954662322998047e+00 1.339161872863769531e+00 4.212645590305328369e-01
6.714000000000000000e+03 6.008426284790039062e+01 2.689694881439208984e+00 -7.005704194307327271e-02 4.543384552001953125e+00 1.341998219490051270e+00 4.893363416194915771e-01
6.715000000000000000e+03 3.830720901489257812e+01 2.444127500057220459e-01 1.968835666775703430e-02 3.613147512078285217e-02 1.674594916403293610e-02 6.153026223182678223e-02
6.716000000000000000e+03 6.200037765502929688e+01 3.723997354507446289e+00 -1.161728650331497192e-01 5.057895183563232422e+00 1.482516765594482422e+00 4.809968471527099609e-01
6.717000000000000000e+03 6.398268508911132812e+01 2.195041084289550781e+01 -9.020053744316101074e-01 6.964346408843994141e+00 1.818702340126037598e+00 1.028591990470886230e+00
6.718000000000000000e+03 6.431403350830078125e+01 2.119964981079101562e+01 -9.234393835067749023e-01 6.990297317504882812e+00 1.820057272911071777e+00 8.809844851493835449e-01
6.719000000000000000e+03 6.181683349609375000e+01 1.038248920440673828e+01 -3.361466526985168457e-01 5.143155097961425781e+00 1.442102551460266113e+00 5.807905793190002441e-01
6.720000000000000000e+03 6.339610290527343750e+01 1.812048149108886719e+01 -7.254732251167297363e-01 6.152279376983642578e+00 1.628041863441467285e+00 7.662144303321838379e-01
6.721000000000000000e+03 5.560145187377929688e+01 -1.447261333465576172e+01 6.146734580397605896e-02 3.637670516967773438e+00 1.109741330146789551e+00 2.709063887596130371e-01
6.722000000000000000e+03 5.403691482543945312e+01 -9.458144187927246094e+00 1.231604442000389099e-01 3.207758426666259766e+00 9.992756247520446777e-01 2.758435308933258057e-01
6.723000000000000000e+03 5.915637969970703125e+01 -4.705978870391845703e+00 4.966567829251289368e-02 4.309804439544677734e+00 1.307841062545776367e+00 4.210397601127624512e-01
6.724000000000000000e+03 5.164756011962890625e+01 -1.077528190612792969e+01 1.375449150800704956e-01 2.702284336090087891e+00 8.519487977027893066e-01 2.195763885974884033e-01
6.725000000000000000e+03 4.391881942749023438e+01 -1.219787955284118652e+00 1.631737053394317627e-01 9.001858234405517578e-01 3.190078437328338623e-01 1.807617545127868652e-01
6.726000000000000000e+03 6.223661041259765625e+01 -6.351319789886474609e+00 3.042770735919475555e-02 5.046541213989257812e+00 1.523090720176696777e+00 4.002986550331115723e-01
6.727000000000000000e+03 4.709992980957031250e+01 -4.168225288391113281e+00 2.201799005270004272e-01 1.613116621971130371e+00 5.499889254570007324e-01 2.102287858724594116e-01
6.728000000000000000e+03 1.849991989135742188e+01 2.536504364013671875e+01 2.201188355684280396e-03 7.981194555759429932e-02 2.460394054651260376e-02 2.919110655784606934e-02
6.729000000000000000e+03 2.059643936157226562e+01 2.314599037170410156e+01 1.601924374699592590e-02 9.734535217285156250e-02 3.400937840342521667e-02 4.741562530398368835e-02
6.730000000000000000e+03 4.507787322998046875e+01 -2.905996084213256836e+00 2.235036790370941162e-01 1.158589601516723633e+00 4.146279692649841309e-01 1.925489753484725952e-01
6.731000000000000000e+03 4.640459060668945312e+01 -4.329372882843017578e+00 2.361409962177276611e-01 1.450617551803588867e+00 5.060275793075561523e-01 1.961499005556106567e-01
6.732000000000000000e+03 6.169933700561523438e+01 7.154188632965087891e+00 -2.143012285232543945e-01 5.038694858551025391e+00 1.447318077087402344e+00 5.293511152267456055e-01
6.733000000000000000e+03 6.325851440429687500e+01 1.692297554016113281e+01 -6.664154529571533203e-01 5.985073566436767578e+00 1.595597505569458008e+00 7.108805179595947266e-01
6.734000000000000000e+03 5.093671798706054688e+01 -7.790856361389160156e+00 1.818434000015258789e-01 2.503830909729003906e+00 8.057022690773010254e-01 2.492439895868301392e-01
6.735000000000000000e+03 6.203524780273437500e+01 1.333502006530761719e+01 -4.626578390598297119e-01 5.316453456878662109e+00 1.456138730049133301e+00 6.478633880615234375e-01
6.736000000000000000e+03 6.126926803588867188e+01 1.118046569824218750e+01 -3.558969795703887939e-01 4.989339351654052734e+00 1.390032768249511719e+00 6.111015081405639648e-01
6.737000000000000000e+03 2.079453277587890625e+01 3.032983207702636719e+01 1.244309009052813053e-03 6.848859786987304688e-02 2.091987244784832001e-02 2.582616545259952545e-02
6.738000000000000000e+03 1.999485206604003906e+01 2.885224342346191406e+01 9.002267615869641304e-04 7.088255137205123901e-02 2.153483405709266663e-02 2.576593868434429169e-02
6.739000000000000000e+03 6.046349716186523438e+01 -1.355266761779785156e+01 3.445575013756752014e-02 4.655117511749267578e+00 1.406872034072875977e+00 3.440297245979309082e-01
6.740000000000000000e+03 6.166968154907226562e+01 -1.375715351104736328e+01 3.133485838770866394e-02 4.919946670532226562e+00 1.485384464263916016e+00 3.511331677436828613e-01
6.741000000000000000e+03 1.796217346191406250e+01 2.451855278015136719e+01 2.541820751503109932e-03 8.210092782974243164e-02 2.539282478392124176e-02 2.869099378585815430e-02
6.742000000000000000e+03 2.317478370666503906e+01 3.401372909545898438e+01 6.053051911294460297e-03 6.791783869266510010e-02 2.219126746058464050e-02 2.210131287574768066e-02
6.743000000000000000e+03 4.538273239135742188e+01 -3.800560235977172852e+00 2.438021749258041382e-01 1.247461795806884766e+00 4.473791718482971191e-01 1.947906613349914551e-01
6.744000000000000000e+03 1.930616950988769531e+01 2.473226356506347656e+01 6.523462012410163879e-03 8.614250272512435913e-02 2.779978886246681213e-02 3.474273160099983215e-02
6.745000000000000000e+03 1.950938224792480469e+01 2.750770378112792969e+01 4.678156401496380568e-04 7.321973145008087158e-02 2.210626378655433655e-02 2.720146067440509796e-02
6.746000000000000000e+03 5.891006851196289062e+01 -1.520608997344970703e+01 3.573516756296157837e-02 4.385709285736083984e+00 1.326433420181274414e+00 3.180833458900451660e-01
6.747000000000000000e+03 5.044112777709960938e+01 -8.741327285766601562e+00 1.811197400093078613e-01 2.405727863311767578e+00 7.760542631149291992e-01 2.161556482315063477e-01
6.748000000000000000e+03 4.967894363403320312e+01 -8.330515861511230469e+00 1.993614286184310913e-01 2.249024152755737305e+00 7.345156669616699219e-01 2.081664204597473145e-01
6.749000000000000000e+03 2.101004219055175781e+01 3.601025390625000000e+01 1.321941032074391842e-03 5.602584406733512878e-02 1.720433682203292847e-02 1.278043352067470551e-02
6.750000000000000000e+03 6.313187408447265625e+01 2.827395629882812500e+01 -1.240449994802474976e-01 7.540169239044189453e+00 2.224837303161621094e+00 2.820277929306030273e+00
6.751000000000000000e+03 6.241648864746093750e+01 2.824198341369628906e+01 1.822592616081237793e-01 6.379411220550537109e+00 1.968501091003417969e+00 2.855965614318847656e+00
6.752000000000000000e+03 6.575541687011718750e+01 2.817613220214843750e+01 -1.030789971351623535e+00 1.090204715728759766e+01 2.961377143859863281e+00 1.189599394798278809e+00
6.753000000000000000e+03 6.558630371093750000e+01 2.770469856262207031e+01 -1.058631896972656250e+00 1.036408233642578125e+01 2.791635036468505859e+00 1.281387090682983398e+00
6.754000000000000000e+03 6.605755615234375000e+01 2.829203414916992188e+01 -1.027484893798828125e+00 1.117352867126464844e+01 3.043813228607177734e+00 9.011877775192260742e-01
6.755000000000000000e+03 6.443135833740234375e+01 2.790890693664550781e+01 -7.650066614151000977e-01 9.344328880310058594e+00 2.573796749114990234e+00 2.166973114013671875e+00
6.756000000000000000e+03 5.095581436157226562e+01 2.074228286743164062e+01 -3.329463005065917969e-01 8.863356709480285645e-01 1.660168021917343140e-01 1.341592818498611450e-01
6.757000000000000000e+03 4.161254882812500000e+01 1.104912662506103516e+01 -5.293225049972534180e-01 -7.816125452518463135e-02 -1.822451353073120117e-01 -3.695097565650939941e-01
6.758000000000000000e+03 4.303931045532226562e+01 1.345757865905761719e+01 -5.297780036926269531e-01 -3.460001200437545776e-02 -1.693134009838104248e-01 -3.895899653434753418e-01
6.759000000000000000e+03 6.421002960205078125e+01 2.758955764770507812e+01 -7.314965128898620605e-01 8.889965057373046875e+00 2.447540521621704102e+00 2.159753561019897461e+00
6.760000000000000000e+03 5.428543472290039062e+01 2.433777046203613281e+01 -1.637971103191375732e-01 1.383399486541748047e+00 3.658806979656219482e-01 4.551804065704345703e-01
6.761000000000000000e+03 5.590975570678710938e+01 2.580089950561523438e+01 1.231088861823081970e-02 1.705474734306335449e+00 5.153356790542602539e-01 6.744546294212341309e-01
6.762000000000000000e+03 6.163022994995117188e+01 2.804600143432617188e+01 3.773767054080963135e-01 5.219865322113037109e+00 1.679172635078430176e+00 2.593524456024169922e+00
6.763000000000000000e+03 6.627750396728515625e+01 2.755867004394531250e+01 -1.116110205650329590e+00 1.063545417785644531e+01 2.855803012847900391e+00 7.072141766548156738e-01
6.764000000000000000e+03 6.574776458740234375e+01 2.873808097839355469e+01 -9.737198352813720703e-01 1.143337440490722656e+01 3.137896299362182617e+00 1.242736935615539551e+00
6.765000000000000000e+03 4.347713088989257812e+01 1.350170135498046875e+01 -5.100699663162231445e-01 2.637404203414916992e-02 -1.451087743043899536e-01 -3.525986373424530029e-01
6.766000000000000000e+03 6.554982757568359375e+01 2.464944839477539062e+01 -1.141919970512390137e+00 8.577257156372070312e+00 2.230601072311401367e+00 9.173933267593383789e-01
6.767000000000000000e+03 6.157003784179687500e+01 2.759547615051269531e+01 2.474378645420074463e-01 5.262752532958984375e+00 1.653057098388671875e+00 2.458245754241943359e+00
6.768000000000000000e+03 4.248796081542968750e+01 1.274460220336914062e+01 -5.428111553192138672e-01 -7.106731832027435303e-02 -1.841635406017303467e-01 -3.926839232444763184e-01
6.769000000000000000e+03 4.284701538085937500e+01 1.308440685272216797e+01 -5.321483016014099121e-01 -3.962229192256927490e-02 -1.715311855077743530e-01 -3.854995071887969971e-01
6.770000000000000000e+03 4.470981979370117188e+01 1.390105438232421875e+01 -4.516879916191101074e-01 2.209148555994033813e-01 -6.923194974660873413e-02 -2.613937258720397949e-01
6.771000000000000000e+03 5.275602722167968750e+01 2.235476112365722656e+01 -2.591916024684906006e-01 1.204556465148925781e+00 2.836094498634338379e-01 3.210557401180267334e-01
6.772000000000000000e+03 4.768560028076171875e+01 1.642699241638183594e+01 -3.717401921749114990e-01 5.768643617630004883e-01 6.153724715113639832e-02 -7.408431917428970337e-02
6.773000000000000000e+03 4.920392608642578125e+01 1.989625930786132812e+01 -4.101726412773132324e-01 5.034356117248535156e-01 2.797889523208141327e-02 -6.004572659730911255e-02
6.774000000000000000e+03 4.507142257690429688e+01 1.451748085021972656e+01 -4.528140425682067871e-01 2.253230065107345581e-01 -6.824731081724166870e-02 -2.615674138069152832e-01
6.775000000000000000e+03 4.537907409667968750e+01 1.510576629638671875e+01 -4.536396265029907227e-01 2.197857201099395752e-01 -7.015617191791534424e-02 -2.644064426422119141e-01
6.776000000000000000e+03 4.553773117065429688e+01 1.463913726806640625e+01 -4.297332167625427246e-01 3.038556277751922607e-01 -3.776327893137931824e-02 -2.182299941778182983e-01
6.777000000000000000e+03 4.580096435546875000e+01 1.522554588317871094e+01 -4.315194487571716309e-01 2.942970097064971924e-01 -4.116673022508621216e-02 -2.222511023283004761e-01
6.778000000000000000e+03 5.363156509399414062e+01 2.252672767639160156e+01 -2.186737209558486938e-01 1.489758491516113281e+00 3.813254237174987793e-01 4.523636102676391602e-01
6.779000000000000000e+03 5.401963424682617188e+01 2.394470405578613281e+01 -1.694640815258026123e-01 1.378846287727355957e+00 3.628146648406982422e-01 4.420146942138671875e-01
6.780000000000000000e+03 5.544513702392578125e+01 2.469814491271972656e+01 -7.112374156713485718e-02 1.766900062561035156e+00 5.087329149246215820e-01 6.621697545051574707e-01
6.781000000000000000e+03 5.309959793090820312e+01 2.262955093383789062e+01 -2.401831895112991333e-01 1.267784357070922852e+00 3.082803487777709961e-01 3.626065850257873535e-01
6.782000000000000000e+03 5.923866653442382812e+01 2.567849540710449219e+01 1.225840523838996887e-01 3.576799631118774414e+00 1.109815120697021484e+00 1.561211824417114258e+00
6.783000000000000000e+03 5.595078277587890625e+01 2.531496429443359375e+01 -9.439715184271335602e-03 1.858953714370727539e+00 5.548542141914367676e-01 7.346744537353515625e-01
6.784000000000000000e+03 5.638263320922851562e+01 2.543234634399414062e+01 2.936828508973121643e-02 2.015946865081787109e+00 6.135945320129394531e-01 8.244217038154602051e-01
6.785000000000000000e+03 4.778212356567382812e+01 1.930241394042968750e+01 -4.727728962898254395e-01 2.384339720010757446e-01 -7.030168175697326660e-02 -2.181138545274734497e-01
6.786000000000000000e+03 6.624703979492187500e+01 2.668114852905273438e+01 -1.173499822616577148e+00 1.000409126281738281e+01 2.649177312850952148e+00 7.288171648979187012e-01
6.787000000000000000e+03 5.470161437988281250e+01 2.413196182250976562e+01 -1.234873160719871521e-01 1.598280668258666992e+00 4.424380064010620117e-01 5.602605342864990234e-01
6.788000000000000000e+03 5.382138442993164062e+01 2.285170364379882812e+01 -2.048116177320480347e-01 1.490545511245727539e+00 3.857201635837554932e-01 4.699779450893402100e-01
6.789000000000000000e+03 4.829196929931640625e+01 1.702890014648437500e+01 -3.748630285263061523e-01 6.383683085441589355e-01 7.905158400535583496e-02 -3.746236860752105713e-02
6.790000000000000000e+03 5.056460952758789062e+01 2.035801506042480469e+01 -3.477997779846191406e-01 8.200398087501525879e-01 1.416720151901245117e-01 9.751644730567932129e-02
6.791000000000000000e+03 4.740382003784179688e+01 1.606173896789550781e+01 -3.826032280921936035e-01 5.575878024101257324e-01 5.249537155032157898e-02 -9.206528216600418091e-02
6.792000000000000000e+03 4.668994522094726562e+01 1.600944137573242188e+01 -4.123526811599731445e-01 3.946751058101654053e-01 -5.303266923874616623e-03 -1.703029125928878784e-01
6.793000000000000000e+03 4.761931991577148438e+01 1.867935752868652344e+01 -4.492139220237731934e-01 2.842469811439514160e-01 -4.949007555842399597e-02 -1.991155594587326050e-01
6.794000000000000000e+03 4.618264007568359375e+01 1.538041782379150391e+01 -4.209032952785491943e-01 3.592629730701446533e-01 -1.849210076034069061e-02 -1.920506507158279419e-01
6.795000000000000000e+03 4.119588088989257812e+01 1.058911132812500000e+01 -5.335339903831481934e-01 -1.082503870129585266e-01 -1.925353109836578369e-01 -3.725669384002685547e-01
6.796000000000000000e+03 4.799064636230468750e+01 1.736129760742187500e+01 -3.867517709732055664e-01 5.359535813331604004e-01 4.476053640246391296e-02 -8.433345705270767212e-02
6.797000000000000000e+03 4.726356124877929688e+01 1.845539474487304688e+01 -4.668204486370086670e-01 2.245659530162811279e-01 -7.267635315656661987e-02 -2.367346137762069702e-01
6.798000000000000000e+03 4.770044708251953125e+01 1.771512603759765625e+01 -4.124275147914886475e-01 4.236102700233459473e-01 3.354830667376518250e-03 -1.380224674940109253e-01
6.799000000000000000e+03 4.185115051269531250e+01 1.338950252532958984e+01 -6.224533319473266602e-01 -2.482019960880279541e-01 -2.611965835094451904e-01 -5.027590990066528320e-01
6.800000000000000000e+03 4.209161376953125000e+01 1.244620037078857422e+01 -5.569263696670532227e-01 -1.130377426743507385e-01 -2.009892314672470093e-01 -4.111502170562744141e-01
6.801000000000000000e+03 4.876038360595703125e+01 1.989044952392578125e+01 -4.344165325164794922e-01 4.073252975940704346e-01 -8.127372711896896362e-03 -1.197530850768089294e-01
6.802000000000000000e+03 5.863226318359375000e+01 2.555716705322265625e+01 1.216851994395256042e-01 3.194791078567504883e+00 9.949429035186767578e-01 1.398034214973449707e+00
6.803000000000000000e+03 6.082294464111328125e+01 2.406338500976562500e+01 -3.060736060142517090e-01 5.051057338714599609e+00 1.423495173454284668e+00 1.631826639175415039e+00
6.804000000000000000e+03 6.047180175781250000e+01 2.670423889160156250e+01 2.137940973043441772e-01 4.304533481597900391e+00 1.355498194694519043e+00 1.981197834014892578e+00
6.805000000000000000e+03 6.453858184814453125e+01 2.347017478942871094e+01 -9.993802309036254883e-01 7.650588035583496094e+00 1.995362401008605957e+00 1.092755079269409180e+00
6.806000000000000000e+03 5.180011367797851562e+01 2.213254737854003906e+01 -3.130614757537841797e-01 9.319176673889160156e-01 1.856568604707717896e-01 1.801690161228179932e-01
6.807000000000000000e+03 4.116521453857421875e+01 9.348273277282714844e+00 -4.719304442405700684e-01 -1.492142770439386368e-02 -1.460555642843246460e-01 -2.971027493476867676e-01
6.808000000000000000e+03 4.142722702026367188e+01 9.829251289367675781e+00 -4.835005104541778564e-01 -1.059227995574474335e-02 -1.482278257608413696e-01 -3.052457273006439209e-01
6.809000000000000000e+03 4.089977645874023438e+01 8.869291305541992188e+00 -4.661140739917755127e-01 -1.805179752409458160e-02 -1.452497541904449463e-01 -2.856043577194213867e-01
6.810000000000000000e+03 4.798990631103515625e+01 1.674390792846679688e+01 -3.698698580265045166e-01 6.042328476905822754e-01 7.030888646841049194e-02 -5.831804499030113220e-02
6.811000000000000000e+03 4.797277450561523438e+01 1.890202140808105469e+01 -4.364666044712066650e-01 3.397133946418762207e-01 -2.902596257627010345e-02 -1.661117970943450928e-01
6.812000000000000000e+03 5.241327285766601562e+01 2.206062126159667969e+01 -2.748717367649078369e-01 1.138689279556274414e+00 2.591452300548553467e-01 2.827115654945373535e-01
6.813000000000000000e+03 3.761392974853515625e+01 4.868493080139160156e+00 -4.504141211509704590e-01 -1.915805339813232422e-01 -1.925983875989913940e-01 -2.221266180276870728e-01
6.814000000000000000e+03 3.663893508911132812e+01 3.181932210922241211e+00 -3.730100393295288086e-01 -2.104118615388870239e-01 -1.750265657901763916e-01 -1.270117908716201782e-01
6.815000000000000000e+03 5.556143569946289062e+01 2.578921318054199219e+01 -1.450032275170087814e-02 1.576236248016357422e+00 4.685207903385162354e-01 6.054399013519287109e-01
6.816000000000000000e+03 5.480051422119140625e+01 2.528140068054199219e+01 -9.842943400144577026e-02 1.396118044853210449e+00 3.893066048622131348e-01 4.853293895721435547e-01
6.817000000000000000e+03 3.958547973632812500e+01 7.753437042236328125e+00 -4.954691827297210693e-01 -1.280452609062194824e-01 -1.870543360710144043e-01 -3.080811500549316406e-01
6.818000000000000000e+03 4.008776473999023438e+01 7.532320976257324219e+00 -4.482334852218627930e-01 -4.236732795834541321e-02 -1.471802443265914917e-01 -2.587985992431640625e-01
6.819000000000000000e+03 5.737800598144531250e+01 2.551913642883300781e+01 1.002897396683692932e-01 2.478395700454711914e+00 7.736056447029113770e-01 1.074637770652770996e+00
6.820000000000000000e+03 5.800626754760742188e+01 2.549659538269042969e+01 1.136049032211303711e-01 2.832174777984619141e+00 8.837339282035827637e-01 1.236285090446472168e+00
6.821000000000000000e+03 5.135285949707031250e+01 2.108981323242187500e+01 -3.192174136638641357e-01 9.523964524269104004e-01 1.899537146091461182e-01 1.758926957845687866e-01
6.822000000000000000e+03 4.043654251098632812e+01 -7.880657166242599487e-02 8.632598817348480225e-02 3.226823806762695312e-01 1.227025091648101807e-01 1.041850298643112183e-01
6.823000000000000000e+03 5.700030899047851562e+01 2.520254707336425781e+01 5.347443372011184692e-02 2.377702236175537109e+00 7.293530106544494629e-01 9.888032078742980957e-01
6.824000000000000000e+03 6.028027343750000000e+01 2.701165962219238281e+01 3.077914714813232422e-01 4.045073986053466797e+00 1.305859565734863281e+00 1.980589032173156738e+00
6.825000000000000000e+03 5.981568527221679688e+01 2.583307075500488281e+01 9.594829380512237549e-02 4.000434875488281250e+00 1.228914856910705566e+00 1.726314306259155273e+00
6.826000000000000000e+03 3.955626678466796875e+01 6.738363742828369141e+00 -4.360691010951995850e-01 -5.927418917417526245e-02 -1.486029922962188721e-01 -2.420167475938796997e-01
6.827000000000000000e+03 3.496946716308593750e+01 1.725615382194519043e+00 -3.240745663642883301e-01 -3.253780305385589600e-01 -1.948357820510864258e-01 -6.007923930883407593e-02
6.828000000000000000e+03 3.590327453613281250e+01 3.359375476837158203e+00 -4.623817503452301025e-01 -2.838233113288879395e-01 -2.238615155220031738e-01 -1.701986193656921387e-01
6.829000000000000000e+03 3.827519607543945312e+01 5.740542888641357422e+00 -4.634765684604644775e-01 -1.648115217685699463e-01 -1.884864270687103271e-01 -2.520269751548767090e-01
6.830000000000000000e+03 3.545828247070312500e+01 1.877223491668701172e+00 -3.021140694618225098e-01 -2.851175963878631592e-01 -1.761694997549057007e-01 -5.626245960593223572e-02
6.831000000000000000e+03 3.910046005249023438e+01 6.934408187866210938e+00 -4.830384552478790283e-01 -1.351816654205322266e-01 -1.854660362005233765e-01 -2.869631946086883545e-01
6.832000000000000000e+03 3.844408798217773438e+01 6.665077209472656250e+00 -5.145829916000366211e-01 -2.056541740894317627e-01 -2.160711437463760376e-01 -3.120709955692291260e-01
6.833000000000000000e+03 6.503578948974609375e+01 2.521272850036621094e+01 -1.068660497665405273e+00 8.521224975585937500e+00 2.235769271850585938e+00 1.201359272003173828e+00
6.834000000000000000e+03 6.070606231689453125e+01 2.595944595336914062e+01 4.562979665934108198e-05 4.734341144561767578e+00 1.420316100120544434e+00 1.915427446365356445e+00
6.835000000000000000e+03 6.304956436157226562e+01 1.561486434936523438e+01 -5.960198640823364258e-01 5.806601047515869141e+00 1.563174366950988770e+00 6.657180786132812500e-01
6.836000000000000000e+03 4.165479660034179688e+01 1.218698406219482422e+01 -5.755398869514465332e-01 -1.620737165212631226e-01 -2.212840765714645386e-01 -4.364950656890869141e-01
6.837000000000000000e+03 4.201137542724609375e+01 1.070012092590332031e+01 -4.850878417491912842e-01 1.989099942147731781e-02 -1.395590603351593018e-01 -3.133946955204010010e-01
6.838000000000000000e+03 1.759837722778320312e+01 2.134999656677246094e+01 8.069436997175216675e-03 9.843388944864273071e-02 3.195099905133247375e-02 3.815414011478424072e-02
6.839000000000000000e+03 6.357204818725585938e+01 2.026814651489257812e+01 -8.202357292175292969e-01 6.480418682098388672e+00 1.698054909706115723e+00 9.279857873916625977e-01
6.840000000000000000e+03 3.624768829345703125e+01 2.888916969299316406e+00 -3.813098371028900146e-01 -2.425026446580886841e-01 -1.871437430381774902e-01 -1.171358972787857056e-01
6.841000000000000000e+03 2.002164268493652344e+01 2.566694068908691406e+01 6.194052752107381821e-03 8.374011516571044922e-02 2.698024921119213104e-02 3.554350882768630981e-02
6.842000000000000000e+03 6.158938598632812500e+01 4.466872215270996094e+00 -1.346828788518905640e-01 4.968146324157714844e+00 1.450039029121398926e+00 5.007340312004089355e-01
6.843000000000000000e+03 6.058031845092773438e+01 3.997796535491943359e+00 -1.050213947892189026e-01 4.675018310546875000e+00 1.370999097824096680e+00 5.016590952873229980e-01
6.844000000000000000e+03 3.930137252807617188e+01 3.409773111343383789e-03 6.279928982257843018e-02 1.661456078290939331e-01 6.868346780538558960e-02 8.204884827136993408e-02
6.845000000000000000e+03 3.736552047729492188e+01 4.978994429111480713e-01 -3.969161212444305420e-02 -8.168321847915649414e-02 -3.641244769096374512e-02 4.359994456171989441e-02
6.846000000000000000e+03 1.877473831176757812e+01 2.256278038024902344e+01 9.542015381157398224e-03 9.496486932039260864e-02 3.135206550359725952e-02 4.043317586183547974e-02
6.847000000000000000e+03 6.378517532348632812e+01 2.262471580505371094e+01 -8.817963600158691406e-01 6.973353385925292969e+00 1.827467083930969238e+00 1.157300233840942383e+00
6.848000000000000000e+03 4.263471984863281250e+01 -1.027601599693298340e+00 1.628353744745254517e-01 6.912096738815307617e-01 2.562135159969329834e-01 1.527485400438308716e-01
6.849000000000000000e+03 4.450296783447265625e+01 -2.250950574874877930e+00 2.043669521808624268e-01 1.045038819313049316e+00 3.748217225074768066e-01 1.888148188591003418e-01
6.850000000000000000e+03 6.229781341552734375e+01 1.825978660583496094e+01 -6.516792178153991699e-01 5.697848320007324219e+00 1.513850808143615723e+00 8.832807540893554688e-01
6.851000000000000000e+03 6.391996765136718750e+01 1.749333572387695312e+01 -7.273228168487548828e-01 6.287884235382080078e+00 1.668168425559997559e+00 6.781170964241027832e-01
6.852000000000000000e+03 6.366413116455078125e+01 1.483943462371826172e+01 -5.833029747009277344e-01 5.957652091979980469e+00 1.612304806709289551e+00 5.970535874366760254e-01
6.853000000000000000e+03 6.140445709228515625e+01 1.251043033599853516e+01 -4.054209887981414795e-01 5.066166400909423828e+00 1.398223638534545898e+00 6.436765789985656738e-01
6.854000000000000000e+03 6.254220199584960938e+01 1.639569854736328125e+01 -6.067265272140502930e-01 5.662574291229248047e+00 1.516754269599914551e+00 7.429456710815429688e-01
6.855000000000000000e+03 5.991682815551757812e+01 9.491883277893066406e+00 -2.605162262916564941e-01 4.541081428527832031e+00 1.284169554710388184e+00 5.992242097854614258e-01
6.856000000000000000e+03 6.022855377197265625e+01 8.664720535278320312e+00 -2.439328730106353760e-01 4.623290538787841797e+00 1.313807368278503418e+00 5.741378664970397949e-01
6.857000000000000000e+03 6.090864944458007812e+01 5.998610019683837891e+00 -1.613170653581619263e-01 4.784371852874755859e+00 1.386916518211364746e+00 5.271041989326477051e-01
6.858000000000000000e+03 5.695771408081054688e+01 -2.269988298416137695e+00 6.290523707866668701e-02 3.792609930038452148e+00 1.156654596328735352e+00 4.298715293407440186e-01
6.859000000000000000e+03 4.324216842651367188e+01 -1.512313365936279297e+00 1.796889901161193848e-01 8.023066520690917969e-01 2.945986986160278320e-01 1.705105155706405640e-01
6.860000000000000000e+03 1.717947196960449219e+01 2.063853836059570312e+01 9.602826088666915894e-03 1.008782088756561279e-01 3.314431011676788330e-02 3.786291554570198059e-02
6.861000000000000000e+03 1.935028266906738281e+01 2.324353790283203125e+01 1.023648213595151901e-02 9.393331408500671387e-02 3.125093877315521240e-02 4.034349694848060608e-02
6.862000000000000000e+03 1.993981933593750000e+01 2.253454589843750000e+01 1.475031953305006027e-02 9.873002767562866211e-02 3.404410555958747864e-02 4.660009592771530151e-02
6.863000000000000000e+03 5.893143463134765625e+01 -5.729080677032470703e+00 5.611463636159896851e-02 4.261110782623291016e+00 1.295167684555053711e+00 4.020893573760986328e-01
6.864000000000000000e+03 5.991380310058593750e+01 -4.737600326538085938e+00 4.448388144373893738e-02 4.480472564697265625e+00 1.357486963272094727e+00 4.132739305496215820e-01
6.865000000000000000e+03 5.931270599365234375e+01 -2.160396277904510498e-01 -2.350714385102037340e-05 4.354269027709960938e+00 1.306273579597473145e+00 4.613379538059234619e-01
6.866000000000000000e+03 6.042211532592773438e+01 1.066803455352783203e+01 -3.123790323734283447e-01 4.717811107635498047e+00 1.321629643440246582e+00 6.165287494659423828e-01
6.867000000000000000e+03 4.595587921142578125e+01 -2.501756906509399414e+00 2.046322077512741089e-01 1.321228265762329102e+00 4.577581584453582764e-01 2.153521627187728882e-01
6.868000000000000000e+03 6.048376464843750000e+01 7.793590545654296875e+00 -2.185260504484176636e-01 4.690443992614746094e+00 1.341575264930725098e+00 5.565348863601684570e-01
6.869000000000000000e+03 6.151170730590820312e+01 8.107821464538574219e+00 -2.470417171716690063e-01 4.984962940216064453e+00 1.421376347541809082e+00 5.474720001220703125e-01
6.870000000000000000e+03 6.069890594482421875e+01 6.892283916473388672e+00 -1.895093470811843872e-01 4.739297389984130859e+00 1.364936351776123047e+00 5.400272011756896973e-01
6.871000000000000000e+03 4.998701858520507812e+01 -5.102026462554931641e+00 1.824158281087875366e-01 2.236673116683959961e+00 7.257266640663146973e-01 2.682757377624511719e-01
6.872000000000000000e+03 4.884140014648437500e+01 -6.325378417968750000e+00 2.114662230014801025e-01 2.014613628387451172e+00 6.678239107131958008e-01 2.186797261238098145e-01
6.873000000000000000e+03 5.885658264160156250e+01 -7.076449394226074219e+00 7.375871390104293823e-02 4.261445522308349609e+00 1.300561308860778809e+00 3.865856230258941650e-01
6.874000000000000000e+03 5.771195602416992188e+01 -7.055742740631103516e+00 7.637586444616317749e-02 4.002070426940917969e+00 1.223533987998962402e+00 3.713929653167724609e-01
6.875000000000000000e+03 6.276267242431640625e+01 1.760412025451660156e+01 -6.659240126609802246e-01 5.846214771270751953e+00 1.554087281227111816e+00 7.979236245155334473e-01
6.876000000000000000e+03 4.392745590209960938e+01 -3.615328371524810791e-01 1.425380110740661621e-01 8.934808373451232910e-01 3.108056485652923584e-01 1.774404495954513550e-01
6.877000000000000000e+03 1.843650627136230469e+01 2.803875923156738281e+01 -1.143859932199120522e-03 6.650517880916595459e-02 1.960839517414569855e-02 2.127154543995857239e-02
6.878000000000000000e+03 1.903385353088378906e+01 2.635086822509765625e+01 2.536890562623739243e-03 7.683309167623519897e-02 2.381099388003349304e-02 2.835693210363388062e-02
6.879000000000000000e+03 1.816518783569335938e+01 2.310689735412597656e+01 5.873473826795816422e-03 8.957378566265106201e-02 2.863417752087116241e-02 3.432497009634971619e-02
6.880000000000000000e+03 5.901984786987304688e+01 9.178277015686035156e+00 -2.348951995372772217e-01 4.278767585754394531e+00 1.213161826133728027e+00 5.970603823661804199e-01
6.881000000000000000e+03 2.060261154174804688e+01 2.682842826843261719e+01 6.452674511820077896e-03 8.085675537586212158e-02 2.619282901287078857e-02 3.443149477243423462e-02
6.882000000000000000e+03 1.910918235778808594e+01 3.127745437622070312e+01 -1.792844501323997974e-03 5.785746499896049500e-02 1.681938581168651581e-02 1.757777482271194458e-02
6.883000000000000000e+03 5.826292037963867188e+01 -8.069379925727844238e-01 2.619567513465881348e-02 4.089458942413330078e+00 1.234696388244628906e+00 4.532887935638427734e-01
6.884000000000000000e+03 5.889968872070312500e+01 -1.815553665161132812e+00 3.021579608321189880e-02 4.239908695220947266e+00 1.281037330627441406e+00 4.426415860652923584e-01
6.885000000000000000e+03 5.643487167358398438e+01 -1.108951663970947266e+01 8.614695817232131958e-02 3.770601749420166016e+00 1.157024621963500977e+00 3.068103790283203125e-01
6.886000000000000000e+03 4.894670104980468750e+01 -4.012494564056396484e+00 1.890434622764587402e-01 1.978859901428222656e+00 6.503710150718688965e-01 2.624945342540740967e-01
6.887000000000000000e+03 5.123264312744140625e+01 -9.291162490844726562e+00 1.683010905981063843e-01 2.593564987182617188e+00 8.285598158836364746e-01 2.331130355596542358e-01
6.888000000000000000e+03 4.889125823974609375e+01 -5.189771652221679688e+00 2.095742672681808472e-01 2.009316682815551758e+00 6.656672954559326172e-01 2.415060847997665405e-01
6.889000000000000000e+03 1.864788818359375000e+01 2.388820075988769531e+01 5.512682255357503891e-03 8.761044591665267944e-02 2.793693728744983673e-02 3.453871607780456543e-02
6.890000000000000000e+03 5.428218460083007812e+01 -1.195660305023193359e+01 1.003064066171646118e-01 3.316522121429443359e+00 1.025048494338989258e+00 2.596611976623535156e-01
6.891000000000000000e+03 5.725523757934570312e+01 -1.481360435485839844e+01 3.842336311936378479e-02 4.006542205810546875e+00 1.213489651679992676e+00 2.883996069431304932e-01
6.892000000000000000e+03 5.820267486572265625e+01 -1.001581954956054688e+01 8.086381852626800537e-02 4.144706726074218750e+00 1.267671227455139160e+00 3.366335928440093994e-01
6.893000000000000000e+03 6.141802215576171875e+01 -1.894113159179687500e+01 2.400280535221099854e-02 4.919764995574951172e+00 1.483130335807800293e+00 3.441092967987060547e-01
6.894000000000000000e+03 5.178591918945312500e+01 -8.452896118164062500e+00 1.625009924173355103e-01 2.717770814895629883e+00 8.640815615653991699e-01 2.513450980186462402e-01
6.895000000000000000e+03 5.303911972045898438e+01 -1.002244949340820312e+01 1.351280063390731812e-01 3.018544912338256836e+00 9.461018443107604980e-01 2.554042935371398926e-01
6.896000000000000000e+03 6.525584411621093750e+01 2.791679763793945312e+01 -9.854555726051330566e-01 1.025659275054931641e+01 2.781341075897216797e+00 1.561580777168273926e+00
6.897000000000000000e+03 6.193970489501953125e+01 2.751067543029785156e+01 1.136965155601501465e-01 5.766190528869628906e+00 1.763966083526611328e+00 2.507886409759521484e+00
6.898000000000000000e+03 6.615676879882812500e+01 2.791275596618652344e+01 -1.078109025955200195e+00 1.085487079620361328e+01 2.933028697967529297e+00 8.089225888252258301e-01
6.899000000000000000e+03 6.235349273681640625e+01 2.785071754455566406e+01 8.055324107408523560e-02 6.297646522521972656e+00 1.913460016250610352e+00 2.672621250152587891e+00
6.900000000000000000e+03 6.151150131225585938e+01 2.714283943176269531e+01 1.327383071184158325e-01 5.286119461059570312e+00 1.625657320022583008e+00 2.329960584640502930e+00
6.901000000000000000e+03 6.391887664794921875e+01 2.787030601501464844e+01 -5.631647109985351562e-01 8.612864494323730469e+00 2.414910078048706055e+00 2.427392482757568359e+00
6.902000000000000000e+03 6.597153472900390625e+01 2.743075180053710938e+01 -1.117004275321960449e+00 1.038329505920410156e+01 2.779887199401855469e+00 9.245167374610900879e-01
6.903000000000000000e+03 5.403662872314453125e+01 2.325618553161621094e+01 -1.855529248714447021e-01 1.505681276321411133e+00 3.960385024547576904e-01 4.823075830936431885e-01
6.904000000000000000e+03 4.484527206420898438e+01 1.337336826324462891e+01 -4.261505901813507080e-01 2.962267100811004639e-01 -3.897716477513313293e-02 -2.180756926536560059e-01
6.905000000000000000e+03 4.399087524414062500e+01 1.252184677124023438e+01 -4.428310394287109375e-01 2.160891294479370117e-01 -6.802257150411605835e-02 -2.521670460700988770e-01
6.906000000000000000e+03 6.342411422729492188e+01 2.811692237854003906e+01 -2.978323400020599365e-01 7.996378898620605469e+00 2.309564113616943359e+00 2.707697391510009766e+00
6.907000000000000000e+03 4.521923065185546875e+01 1.401489639282226562e+01 -4.270788431167602539e-01 3.051170408725738525e-01 -3.658854588866233826e-02 -2.162177860736846924e-01
6.908000000000000000e+03 4.571974563598632812e+01 1.415907955169677734e+01 -4.063557386398315430e-01 3.890288472175598145e-01 -5.198070313781499863e-03 -1.767327338457107544e-01
6.909000000000000000e+03 4.871700286865234375e+01 1.905362701416015625e+01 -4.097586572170257568e-01 5.024579167366027832e-01 2.780977077782154083e-02 -7.953199744224548340e-02
6.910000000000000000e+03 5.014923095703125000e+01 2.018155860900878906e+01 -3.594039976596832275e-01 7.388795614242553711e-01 1.138426661491394043e-01 5.523683875799179077e-02
6.911000000000000000e+03 5.333858871459960938e+01 2.226454925537109375e+01 -2.296389192342758179e-01 1.428232312202453613e+00 3.595780134201049805e-01 4.248992502689361572e-01
6.912000000000000000e+03 4.783467864990234375e+01 1.578383445739746094e+01 -3.489671051502227783e-01 6.782273054122924805e-01 9.877805411815643311e-02 -2.974851615726947784e-02
6.913000000000000000e+03 5.391842651367187500e+01 2.223857116699218750e+01 -2.065699994564056396e-01 1.619581818580627441e+00 4.239035546779632568e-01 5.113810896873474121e-01
6.914000000000000000e+03 5.436606597900390625e+01 2.367022132873535156e+01 -1.627828925848007202e-01 1.560557961463928223e+00 4.193325340747833252e-01 5.229202508926391602e-01
6.915000000000000000e+03 5.899179077148437500e+01 2.524309158325195312e+01 6.272134929895401001e-02 3.510967254638671875e+00 1.072106599807739258e+00 1.476178288459777832e+00
6.916000000000000000e+03 4.991146850585937500e+01 1.918601226806640625e+01 -3.507988750934600830e-01 7.845641970634460449e-01 1.301296055316925049e-01 7.078089565038681030e-02
6.917000000000000000e+03 4.783550643920898438e+01 1.831999206542968750e+01 -4.271186590194702148e-01 3.844631016254425049e-01 -1.279667112976312637e-02 -1.507564485073089600e-01
6.918000000000000000e+03 5.537228775024414062e+01 2.326959609985351562e+01 -1.212499141693115234e-01 2.043389797210693359e+00 5.766419768333435059e-01 7.296406626701354980e-01
6.919000000000000000e+03 5.470697784423828125e+01 2.335446357727050781e+01 -1.519853472709655762e-01 1.730442762374877930e+00 4.735372364521026611e-01 5.976783633232116699e-01
6.920000000000000000e+03 6.013488769531250000e+01 2.557541465759277344e+01 3.012930601835250854e-02 4.275838851928710938e+00 1.291790366172790527e+00 1.779123187065124512e+00
6.921000000000000000e+03 6.018598175048828125e+01 2.650541114807128906e+01 2.140688300132751465e-01 4.096234798431396484e+00 1.293091058731079102e+00 1.884155273437500000e+00
6.922000000000000000e+03 6.270742797851562500e+01 2.779669189453125000e+01 -7.845489680767059326e-02 6.848954677581787109e+00 2.031150102615356445e+00 2.680438995361328125e+00
6.923000000000000000e+03 6.188252258300781250e+01 2.706020736694335938e+01 8.289701305329799652e-03 5.742718696594238281e+00 1.725302577018737793e+00 2.357965469360351562e+00
6.924000000000000000e+03 4.806668853759765625e+01 1.615709877014160156e+01 -3.570918142795562744e-01 6.856793165206909180e-01 9.857624024152755737e-02 -2.213017269968986511e-02
6.925000000000000000e+03 5.206827545166015625e+01 2.175084686279296875e+01 -2.913295328617095947e-01 1.077726364135742188e+00 2.359190434217453003e-01 2.456004470586776733e-01
6.926000000000000000e+03 4.643084716796875000e+01 1.501475906372070312e+01 -3.949071168899536133e-01 4.462072849273681641e-01 1.539004780352115631e-02 -1.482317745685577393e-01
6.927000000000000000e+03 4.681320953369140625e+01 1.531068515777587891e+01 -3.843607902526855469e-01 4.950262308120727539e-01 3.319962695240974426e-02 -1.190010011196136475e-01
6.928000000000000000e+03 4.245051574707031250e+01 1.340315437316894531e+01 -5.737927556037902832e-01 -1.423936188220977783e-01 -2.148559093475341797e-01 -4.443690776824951172e-01
6.929000000000000000e+03 5.603214263916015625e+01 2.474681663513183594e+01 -2.467996068298816681e-02 2.032905101776123047e+00 6.024675369262695312e-01 7.976468205451965332e-01
6.930000000000000000e+03 5.656063461303710938e+01 2.491354560852050781e+01 9.816241450607776642e-03 2.225612401962280273e+00 6.706286072731018066e-01 8.984087705612182617e-01
6.931000000000000000e+03 4.428769683837890625e+01 1.324931716918945312e+01 -4.554331600666046143e-01 1.983909308910369873e-01 -7.711265981197357178e-02 -2.659793794155120850e-01
6.932000000000000000e+03 4.808144378662109375e+01 1.796778297424316406e+01 -4.018234908580780029e-01 4.875582158565521240e-01 2.572041191160678864e-02 -1.042453050613403320e-01
6.933000000000000000e+03 4.372377395629882812e+01 1.303714370727539062e+01 -4.806289374828338623e-01 1.136653199791908264e-01 -1.100890859961509705e-01 -3.097345530986785889e-01
6.934000000000000000e+03 4.063079452514648438e+01 8.403684616088867188e+00 -4.579497575759887695e-01 -2.581702172756195068e-02 -1.451300382614135742e-01 -2.765715420246124268e-01
6.935000000000000000e+03 4.196195602416992188e+01 9.601161956787109375e+00 -4.345166087150573730e-01 9.733009338378906250e-02 -1.011559516191482544e-01 -2.498733103275299072e-01
6.936000000000000000e+03 6.529171752929687500e+01 2.732883644104003906e+01 -1.038457155227661133e+00 9.838627815246582031e+00 2.640051126480102539e+00 1.425457119941711426e+00
6.937000000000000000e+03 4.116248321533203125e+01 8.165275573730468750e+00 -4.147165417671203613e-01 7.425068318843841553e-02 -1.021397560834884644e-01 -2.234878540039062500e-01
6.938000000000000000e+03 4.170083236694335938e+01 9.124817848205566406e+00 -4.297301471233367920e-01 9.136114269495010376e-02 -1.015106961131095886e-01 -2.388763576745986938e-01
6.939000000000000000e+03 4.216878128051757812e+01 1.308946895599365234e+01 -5.795520544052124023e-01 -1.631381511688232422e-01 -2.228070646524429321e-01 -4.476622939109802246e-01
6.940000000000000000e+03 5.171755218505859375e+01 2.142679786682128906e+01 -3.061945438385009766e-01 1.017461180686950684e+00 2.133799791336059570e-01 2.106241583824157715e-01
6.941000000000000000e+03 5.295650482177734375e+01 2.132847023010253906e+01 -2.471349686384201050e-01 1.439000844955444336e+00 3.575597405433654785e-01 4.040753841400146484e-01
6.942000000000000000e+03 4.836122512817382812e+01 1.761516380310058594e+01 -3.753566145896911621e-01 5.979178547859191895e-01 6.676836311817169189e-02 -5.508279427886009216e-02
6.943000000000000000e+03 5.125993728637695312e+01 2.035515403747558594e+01 -3.102781176567077637e-01 1.031054735183715820e+00 2.162329852581024170e-01 1.978338658809661865e-01
6.944000000000000000e+03 5.162926864624023438e+01 2.071943664550781250e+01 -2.996498048305511475e-01 1.091430544853210449e+00 2.375342100858688354e-01 2.329232841730117798e-01
6.945000000000000000e+03 4.170693206787109375e+01 7.917846679687500000e+00 -3.705801069736480713e-01 1.808019727468490601e-01 -5.693344026803970337e-02 -1.726085543632507324e-01
6.946000000000000000e+03 3.822026824951171875e+01 5.259926795959472656e+00 -4.332866966724395752e-01 -1.458512097597122192e-01 -1.737413704395294189e-01 -2.184180468320846558e-01
6.947000000000000000e+03 3.720861816406250000e+01 3.844441652297973633e+00 -4.021294713020324707e-01 -1.822928488254547119e-01 -1.753266900777816772e-01 -1.566303670406341553e-01
6.948000000000000000e+03 5.834016799926757812e+01 2.515038490295410156e+01 7.179429382085800171e-02 3.115653514862060547e+00 9.562343358993530273e-01 1.319920778274536133e+00
6.949000000000000000e+03 5.960298919677734375e+01 2.539744377136230469e+01 4.505697637796401978e-02 3.921166658401489258e+00 1.189867138862609863e+00 1.619773268699645996e+00
6.950000000000000000e+03 4.842908096313476562e+01 1.821739959716796875e+01 -3.966060578823089600e-01 5.404228568077087402e-01 4.314503818750381470e-02 -7.484870404005050659e-02
6.951000000000000000e+03 4.849266433715820312e+01 1.876508331298828125e+01 -4.056582748889923096e-01 4.911410808563232422e-01 2.564484067261219025e-02 -9.269127249717712402e-02
6.952000000000000000e+03 3.981822204589843750e+01 7.127215862274169922e+00 -4.450235664844512939e-01 -5.064675584435462952e-02 -1.487011015415191650e-01 -2.494070231914520264e-01
6.953000000000000000e+03 6.040404891967773438e+01 2.584435272216796875e+01 3.274881467223167419e-02 4.428956985473632812e+00 1.338511705398559570e+00 1.835729956626892090e+00
6.954000000000000000e+03 6.078721618652343750e+01 2.683284568786621094e+01 1.966563314199447632e-01 4.555447578430175781e+00 1.425631165504455566e+00 2.094154834747314453e+00
6.955000000000000000e+03 6.289772033691406250e+01 1.874495887756347656e+01 -7.156582474708557129e-01 6.010469913482666016e+00 1.588443398475646973e+00 8.671716451644897461e-01
6.956000000000000000e+03 5.767324829101562500e+01 2.513199043273925781e+01 7.052294909954071045e-02 2.738526105880737305e+00 8.427147269248962402e-01 1.158658504486083984e+00
6.957000000000000000e+03 5.729544448852539062e+01 2.476953697204589844e+01 2.749281376600265503e-02 2.619151353836059570e+00 7.939932942390441895e-01 1.076767563819885254e+00
6.958000000000000000e+03 6.397003555297851562e+01 2.330636024475097656e+01 -9.098924398422241211e-01 7.224072456359863281e+00 1.894253969192504883e+00 1.226987004280090332e+00
6.959000000000000000e+03 6.510027313232421875e+01 2.417082786560058594e+01 -1.079256296157836914e+00 8.167545318603515625e+00 2.126486778259277344e+00 1.000169396400451660e+00
6.960000000000000000e+03 4.219671630859375000e+01 1.004837417602539062e+01 -4.475855231285095215e-01 9.852942079305648804e-02 -1.047168299555778503e-01 -2.599702477455139160e-01
6.961000000000000000e+03 4.303713226318359375e+01 9.196793556213378906e+00 -3.575744628906250000e-01 3.113595545291900635e-01 -1.386447623372077942e-02 -1.482153981924057007e-01
6.962000000000000000e+03 3.703699874877929688e+01 3.455704450607299805e+00 -3.757068216800689697e-01 -1.807725876569747925e-01 -1.669438183307647705e-01 -1.386271715164184570e-01
6.963000000000000000e+03 3.582748794555664062e+01 2.585291385650634766e+00 -3.810810744762420654e-01 -2.652663886547088623e-01 -1.939042359590530396e-01 -1.011210307478904724e-01
6.964000000000000000e+03 6.473588562011718750e+01 2.411520195007324219e+01 -1.024994254112243652e+00 7.900498390197753906e+00 2.062651157379150391e+00 1.139168858528137207e+00
6.965000000000000000e+03 3.893806076049804688e+01 6.128374338150024414e-01 1.671410282142460346e-03 1.066429838538169861e-01 3.249431774020195007e-02 5.887123942375183105e-02
6.966000000000000000e+03 3.907702255249023438e+01 6.023762226104736328e+00 -4.198416471481323242e-01 -7.218696177005767822e-02 -1.476085782051086426e-01 -2.204941660165786743e-01
6.967000000000000000e+03 3.995201110839843750e+01 4.076733589172363281e-01 3.980657085776329041e-02 2.418438941240310669e-01 8.449514210224151611e-02 8.091791719198226929e-02
6.968000000000000000e+03 3.931031417846679688e+01 6.365872383117675781e+00 -4.312478601932525635e-01 -6.644450128078460693e-02 -1.493077129125595093e-01 -2.322449684143066406e-01
6.969000000000000000e+03 3.796945953369140625e+01 8.546717166900634766e-01 -5.249250680208206177e-02 -1.623427867889404297e-02 -2.061803452670574188e-02 3.435689210891723633e-02
6.970000000000000000e+03 3.705184936523437500e+01 1.100356936454772949e+00 -1.214320510625839233e-01 -1.273940354585647583e-01 -7.464782148599624634e-02 1.011262834072113037e-02
6.971000000000000000e+03 6.348545455932617188e+01 2.221127128601074219e+01 -8.425858020782470703e-01 6.732451915740966797e+00 1.766959905624389648e+00 1.168627500534057617e+00
6.972000000000000000e+03 6.317397308349609375e+01 2.170202827453613281e+01 -8.008645772933959961e-01 6.487761020660400391e+00 1.706068873405456543e+00 1.148578166961669922e+00
6.973000000000000000e+03 2.081853675842285156e+01 2.471285438537597656e+01 1.161937788128852844e-02 9.035712480545043945e-02 3.059295006096363068e-02 4.205749183893203735e-02
6.974000000000000000e+03 5.863940429687500000e+01 3.094280481338500977e+00 -6.059731915593147278e-02 4.165905475616455078e+00 1.231592416763305664e+00 4.991388022899627686e-01
6.975000000000000000e+03 6.280258560180664062e+01 1.414199447631835938e+01 -5.178187489509582520e-01 5.602231025695800781e+00 1.525323629379272461e+00 6.324140429496765137e-01
6.976000000000000000e+03 3.668015670776367188e+01 1.631472945213317871e+00 -1.991632729768753052e-01 -1.649929583072662354e-01 -1.092468649148941040e-01 -1.965172961354255676e-02
6.977000000000000000e+03 3.831397247314453125e+01 6.218601226806640625e+00 -4.892415404319763184e-01 -1.933070123195648193e-01 -2.047645598649978638e-01 -2.848559916019439697e-01
6.978000000000000000e+03 3.876052093505859375e+01 5.783162593841552734e+00 -4.299814999103546143e-01 -1.029986068606376648e-01 -1.598940342664718628e-01 -2.250824570655822754e-01
6.979000000000000000e+03 4.786895370483398438e+01 -3.248820781707763672e+00 1.939874440431594849e-01 1.733610749244689941e+00 5.782794952392578125e-01 2.459104210138320923e-01
6.980000000000000000e+03 4.578520965576171875e+01 -1.476252198219299316e+00 1.716773658990859985e-01 1.267214059829711914e+00 4.316674172878265381e-01 2.145581841468811035e-01
6.981000000000000000e+03 6.073382568359375000e+01 1.185212707519531250e+01 -3.646228313446044922e-01 4.846363544464111328e+00 1.344522237777709961e+00 6.413602232933044434e-01
6.982000000000000000e+03 4.301868057250976562e+01 -1.420331448316574097e-01 1.143366992473602295e-01 7.348767518997192383e-01 2.547640204429626465e-01 1.582892388105392456e-01
6.983000000000000000e+03 4.241656875610351562e+01 6.313704967498779297e+00 -2.526802420616149902e-01 3.902572691440582275e-01 4.127310588955879211e-02 -4.754088819026947021e-02
6.984000000000000000e+03 6.345162200927734375e+01 2.301923751831054688e+01 -8.264050483703613281e-01 6.841114521026611328e+00 1.804412722587585449e+00 1.286314129829406738e+00
6.985000000000000000e+03 5.916627883911132812e+01 4.460964202880859375e+00 -1.005927398800849915e-01 4.298194885253906250e+00 1.259280562400817871e+00 5.183277726173400879e-01
6.986000000000000000e+03 5.960212707519531250e+01 3.557884693145751953e+00 -8.459395170211791992e-02 4.418950080871582031e+00 1.300306916236877441e+00 5.081192851066589355e-01
6.987000000000000000e+03 5.928659820556640625e+01 8.369161605834960938e+00 -2.117838710546493530e-01 4.345177650451660156e+00 1.240018129348754883e+00 5.823881626129150391e-01
6.988000000000000000e+03 6.209591674804687500e+01 1.713423538208007812e+01 -6.047202348709106445e-01 5.534738540649414062e+00 1.479005575180053711e+00 8.201120495796203613e-01
6.989000000000000000e+03 6.218349456787109375e+01 1.504492664337158203e+01 -5.345008969306945801e-01 5.446324348449707031e+00 1.473546981811523438e+00 7.039933204650878906e-01
6.990000000000000000e+03 5.876741790771484375e+01 7.401865124702453613e-01 -1.332911383360624313e-02 4.206157207489013672e+00 1.257848501205444336e+00 4.710117876529693604e-01
6.991000000000000000e+03 5.915560913085937500e+01 2.183767557144165039e+00 -4.764039441943168640e-02 4.300526142120361328e+00 1.275865793228149414e+00 4.914299547672271729e-01
6.992000000000000000e+03 6.139390182495117188e+01 1.673804473876953125e+01 -5.528088212013244629e-01 5.238808631896972656e+00 1.405799984931945801e+00 8.378168940544128418e-01
6.993000000000000000e+03 5.001840591430664062e+01 -6.265403747558593750e+00 1.951881349086761475e-01 2.273700475692749023e+00 7.406666278839111328e-01 2.460163682699203491e-01
6.994000000000000000e+03 5.161961746215820312e+01 -6.967041969299316406e+00 1.691499203443527222e-01 2.632110357284545898e+00 8.403781056404113770e-01 2.773106396198272705e-01
6.995000000000000000e+03 5.807500076293945312e+01 -2.717862367630004883e+00 4.920493811368942261e-02 4.061938285827636719e+00 1.233343005180358887e+00 4.313367307186126709e-01
6.996000000000000000e+03 5.784094619750976562e+01 -1.151886081695556641e+01 5.708040297031402588e-02 4.079907894134521484e+00 1.241096377372741699e+00 3.252645432949066162e-01
6.997000000000000000e+03 5.323739242553710938e+01 -8.472241401672363281e+00 1.397939771413803101e-01 2.999617099761962891e+00 9.418233036994934082e-01 2.865647971630096436e-01
6.998000000000000000e+03 5.733965682983398438e+01 -6.122546672821044922e+00 8.869568258523941040e-02 3.919177770614624023e+00 1.202362060546875000e+00 3.761302530765533447e-01
6.999000000000000000e+03 5.998777389526367188e+01 -5.719664573669433594e+00 4.209097474813461304e-02 4.506978511810302734e+00 1.364720821380615234e+00 4.080198407173156738e-01
7.000000000000000000e+03 5.816673660278320312e+01 8.910759925842285156e+00 -2.094915658235549927e-01 4.032261371612548828e+00 1.146830916404724121e+00 5.925931930541992188e-01
7.001000000000000000e+03 5.968092346191406250e+01 6.614054679870605469e+00 -1.663822829723358154e-01 4.455581665039062500e+00 1.286759853363037109e+00 5.472154617309570312e-01
7.002000000000000000e+03 5.950416564941406250e+01 7.510829925537109375e+00 -1.938038468360900879e-01 4.398832798004150391e+00 1.261508703231811523e+00 5.593115687370300293e-01
7.003000000000000000e+03 5.903150558471679688e+01 -1.341187477111816406e+01 4.340986162424087524e-02 4.370428562164306641e+00 1.324151515960693359e+00 3.293909430503845215e-01
7.004000000000000000e+03 5.863800048828125000e+01 -8.562170028686523438e+00 6.858027726411819458e-02 4.243358135223388672e+00 1.293581485748291016e+00 3.634503185749053955e-01
7.005000000000000000e+03 4.480760955810546875e+01 -1.404989957809448242e+00 1.780328303575515747e-01 1.084686398506164551e+00 3.788157701492309570e-01 2.015493363142013550e-01
7.006000000000000000e+03 4.324133300781250000e+01 7.786966562271118164e-01 7.733036577701568604e-02 7.575955986976623535e-01 2.504777908325195312e-01 1.521393209695816040e-01
7.007000000000000000e+03 5.583890914916992188e+01 -9.104036331176757812e+00 1.080504506826400757e-01 3.611566305160522461e+00 1.115885019302368164e+00 3.241987526416778564e-01
7.008000000000000000e+03 5.711067962646484375e+01 -1.107568502426147461e+00 3.739238157868385315e-02 3.829937458038330078e+00 1.160198926925659180e+00 4.461155831813812256e-01
7.009000000000000000e+03 5.242460632324218750e+01 -7.703784465789794922e+00 1.510911881923675537e-01 2.831025123596191406e+00 8.946349024772644043e-01 2.775072455406188965e-01
7.010000000000000000e+03 1.978079986572265625e+01 3.346083831787109375e+01 -3.381557296961545944e-03 5.495566129684448242e-02 1.547223143279552460e-02 1.535688247531652451e-02
7.011000000000000000e+03 6.560549163818359375e+01 2.635670280456542969e+01 -1.125235915184020996e+00 9.438613891601562500e+00 2.494013309478759766e+00 1.065173268318176270e+00
7.012000000000000000e+03 6.509116363525390625e+01 2.815667152404785156e+01 -9.210321903228759766e-01 1.028512287139892578e+01 2.809227228164672852e+00 1.727740049362182617e+00
7.013000000000000000e+03 6.366310119628906250e+01 2.751081466674804688e+01 -5.235661864280700684e-01 8.130271911621093750e+00 2.282011747360229492e+00 2.381157398223876953e+00
7.014000000000000000e+03 6.219902038574218750e+01 2.648025703430175781e+01 -2.298476547002792358e-01 6.185184478759765625e+00 1.786600947380065918e+00 2.210726737976074219e+00
7.015000000000000000e+03 6.329050064086914062e+01 2.773031997680664062e+01 -3.332625031471252441e-01 7.676732063293457031e+00 2.203040838241577148e+00 2.582051753997802734e+00
7.016000000000000000e+03 6.272292327880859375e+01 2.813081741333007812e+01 2.515157684683799744e-02 6.837650299072265625e+00 2.058840513229370117e+00 2.834592103958129883e+00
7.017000000000000000e+03 6.532318115234375000e+01 2.766131973266601562e+01 -1.016840815544128418e+00 1.012166690826416016e+01 2.731447696685791016e+00 1.453013539314270020e+00
7.018000000000000000e+03 6.297850418090820312e+01 2.794703865051269531e+01 -1.469893902540206909e-01 7.225036621093750000e+00 2.123414039611816406e+00 2.718307971954345703e+00
7.019000000000000000e+03 4.500503158569335938e+01 1.284364795684814453e+01 -4.021801054477691650e-01 3.714286088943481445e-01 -9.225449524819850922e-03 -1.738831549882888794e-01
7.020000000000000000e+03 4.538131713867187500e+01 1.350144004821777344e+01 -4.022299051284790039e-01 3.844572603702545166e-01 -5.331795196980237961e-03 -1.754781305789947510e-01
7.021000000000000000e+03 5.439375305175781250e+01 2.297373580932617188e+01 -1.706198453903198242e-01 1.705171346664428711e+00 4.603654742240905762e-01 5.632300376892089844e-01
7.022000000000000000e+03 4.671211624145507812e+01 1.458643436431884766e+01 -3.702369928359985352e-01 5.545535683631896973e-01 5.529496818780899048e-02 -9.678888320922851562e-02
7.023000000000000000e+03 4.599429321289062500e+01 1.479767322540283203e+01 -4.116066992282867432e-01 3.814855515956878662e-01 -9.036343544721603394e-03 -1.813814491033554077e-01
7.024000000000000000e+03 5.999550628662109375e+01 2.622822570800781250e+01 1.618998348712921143e-01 4.032065868377685547e+00 1.258189678192138672e+00 1.805646657943725586e+00
7.025000000000000000e+03 5.415513992309570312e+01 2.259668922424316406e+01 -1.910778731107711792e-01 1.660945773124694824e+00 4.409603774547576904e-01 5.369108319282531738e-01
7.026000000000000000e+03 5.449364471435546875e+01 2.232849502563476562e+01 -1.803846210241317749e-01 1.842811107635498047e+00 4.987279176712036133e-01 6.052511334419250488e-01
7.027000000000000000e+03 5.301689147949218750e+01 2.198375320434570312e+01 -2.425659745931625366e-01 1.354424834251403809e+00 3.335576355457305908e-01 3.840342462062835693e-01
7.028000000000000000e+03 5.362126159667968750e+01 2.191864585876464844e+01 -2.187431752681732178e-01 1.581505537033081055e+00 4.088287055492401123e-01 4.778917431831359863e-01
7.029000000000000000e+03 4.864662170410156250e+01 1.722889518737792969e+01 -3.510950207710266113e-01 7.261080145835876465e-01 1.125039085745811462e-01 -1.340088550932705402e-03
7.030000000000000000e+03 5.268186187744140625e+01 2.168992042541503906e+01 -2.585170269012451172e-01 1.289945483207702637e+00 3.094285428524017334e-01 3.456235527992248535e-01
7.031000000000000000e+03 5.555830001831054688e+01 2.406174087524414062e+01 -8.585265278816223145e-02 1.938953876495361328e+00 5.559303760528564453e-01 7.247427701950073242e-01
7.032000000000000000e+03 6.464028930664062500e+01 2.456595993041992188e+01 -1.016315579414367676e+00 8.020720481872558594e+00 2.101321697235107422e+00 1.233502507209777832e+00
7.033000000000000000e+03 4.712489318847656250e+01 1.567504882812500000e+01 -3.807499408721923828e-01 5.249742269515991211e-01 4.326729103922843933e-02 -1.084748283028602600e-01
7.034000000000000000e+03 6.226685714721679688e+01 2.697062110900878906e+01 -1.342957317829132080e-01 6.265338420867919922e+00 1.839312791824340820e+00 2.377248525619506836e+00
7.035000000000000000e+03 5.870929718017578125e+01 2.480418586730957031e+01 1.352344639599323273e-02 3.422303676605224609e+00 1.030748128890991211e+00 1.390856742858886719e+00
7.036000000000000000e+03 6.218427276611328125e+01 2.248208045959472656e+01 -6.460394859313964844e-01 5.959286212921142578e+00 1.593973994255065918e+00 1.355160474777221680e+00
7.037000000000000000e+03 4.871948242187500000e+01 1.787705230712890625e+01 -3.702929913997650146e-01 6.455703973770141602e-01 8.258322626352310181e-02 -2.594827860593795776e-02
7.038000000000000000e+03 4.958822631835937500e+01 1.981242752075195312e+01 -3.888301849365234375e-01 6.341838240623474121e-01 7.360608875751495361e-02 -6.280380766838788986e-03
7.039000000000000000e+03 4.757659530639648438e+01 1.533254146575927734e+01 -3.472843170166015625e-01 6.781440973281860352e-01 9.925793111324310303e-02 -3.735280409455299377e-02
7.040000000000000000e+03 4.354412460327148438e+01 1.223902702331542969e+01 -4.619400203227996826e-01 1.481803357601165771e-01 -9.412790089845657349e-02 -2.757468223571777344e-01
7.041000000000000000e+03 4.720401763916015625e+01 1.490341949462890625e+01 -3.574851453304290771e-01 6.340985894203186035e-01 8.298403024673461914e-02 -5.853081867098808289e-02
7.042000000000000000e+03 5.233864593505859375e+01 2.138299369812011719e+01 -2.734561264514923096e-01 1.222967982292175293e+00 2.848535776138305664e-01 3.075498640537261963e-01
7.043000000000000000e+03 5.158811950683593750e+01 2.000704383850097656e+01 -2.925916910171508789e-01 1.177259683609008789e+00 2.654004096984863281e-01 2.573530673980712891e-01
7.044000000000000000e+03 5.198845291137695312e+01 2.106068992614746094e+01 -2.869485914707183838e-01 1.157981514930725098e+00 2.613098621368408203e-01 2.695730328559875488e-01
7.045000000000000000e+03 4.250666809082031250e+01 9.399529457092285156e+00 -3.954481780529022217e-01 2.101063579320907593e-01 -5.560254678130149841e-02 -1.939720958471298218e-01
7.046000000000000000e+03 4.223593902587890625e+01 8.908081054687500000e+00 -3.875393271446228027e-01 1.975223869085311890e-01 -5.700508132576942444e-02 -1.889570653438568115e-01
7.047000000000000000e+03 4.959118652343750000e+01 1.869707870483398438e+01 -3.495377898216247559e-01 7.937904596328735352e-01 1.332757920026779175e-01 5.248484760522842407e-02
7.048000000000000000e+03 4.926771926879882812e+01 1.950975036621093750e+01 -3.912775218486785889e-01 5.859914422035217285e-01 5.841416493058204651e-02 -2.884100191295146942e-02
7.049000000000000000e+03 4.060237503051757812e+01 7.276197910308837891e+00 -4.035253822803497314e-01 4.900154471397399902e-02 -1.063571497797966003e-01 -2.061027735471725464e-01
7.050000000000000000e+03 4.196926116943359375e+01 8.412188529968261719e+00 -3.809697329998016357e-01 1.885709911584854126e-01 -5.771962553262710571e-02 -1.782663017511367798e-01
7.051000000000000000e+03 4.212514877319335938e+01 1.138963699340820312e+01 -5.122399330139160156e-01 -2.056428603827953339e-02 -1.598412692546844482e-01 -3.431952297687530518e-01
7.052000000000000000e+03 5.687485885620117188e+01 2.440597724914550781e+01 -1.263519097119569778e-02 2.484342098236083984e+00 7.415120601654052734e-01 9.811244606971740723e-01
7.053000000000000000e+03 6.589868164062500000e+01 2.655406379699707031e+01 -1.158131361007690430e+00 9.777615547180175781e+00 2.585845232009887695e+00 9.043211340904235840e-01
7.054000000000000000e+03 4.030176544189453125e+01 6.874261379241943359e+00 -3.981755971908569336e-01 3.307178989052772522e-02 -1.095311418175697327e-01 -2.025799006223678589e-01
7.055000000000000000e+03 5.261271667480468750e+01 2.102857589721679688e+01 -2.594478130340576172e-01 1.368732452392578125e+00 3.327853977680206299e-01 3.635782599449157715e-01
7.056000000000000000e+03 4.279896926879882812e+01 1.236924171447753906e+01 -5.124328732490539551e-01 1.155854947865009308e-02 -1.502623111009597778e-01 -3.473673462867736816e-01
7.057000000000000000e+03 4.186866760253906250e+01 1.178105258941650391e+01 -5.403283834457397461e-01 -8.902239799499511719e-02 -1.888052374124526978e-01 -3.885667324066162109e-01
7.058000000000000000e+03 6.060050964355468750e+01 2.633600616455078125e+01 1.042531356215476990e-01 4.581772804260253906e+00 1.405807733535766602e+00 1.958815932273864746e+00
7.059000000000000000e+03 5.192443466186523438e+01 2.037243461608886719e+01 -2.820470333099365234e-01 1.236975073814392090e+00 2.864784002304077148e-01 2.894999086856842041e-01
7.060000000000000000e+03 5.226713180541992188e+01 2.071191596984863281e+01 -2.721852958202362061e-01 1.299273133277893066e+00 3.081263601779937744e-01 3.263226747512817383e-01
7.061000000000000000e+03 4.143568038940429688e+01 7.432666778564453125e+00 -3.620611429214477539e-01 1.670113354921340942e-01 -5.851494148373603821e-02 -1.638466417789459229e-01
7.062000000000000000e+03 3.767342758178710938e+01 4.362866401672363281e+00 -4.118796586990356445e-01 -1.564671248197555542e-01 -1.705040335655212402e-01 -1.820402294397354126e-01
7.063000000000000000e+03 5.004801559448242188e+01 1.967712783813476562e+01 -3.556024134159088135e-01 7.639263868331909180e-01 1.224971860647201538e-01 6.294512748718261719e-02
7.064000000000000000e+03 6.433860015869140625e+01 2.394811630249023438e+01 -9.759153127670288086e-01 7.657936096191406250e+00 2.004606246948242188e+00 1.225518345832824707e+00
7.065000000000000000e+03 6.380390167236328125e+01 2.688219261169433594e+01 -6.750101447105407715e-01 8.096175193786621094e+00 2.226349353790283203e+00 2.108610153198242188e+00
7.066000000000000000e+03 3.742890930175781250e+01 2.512989044189453125e+00 -2.551292777061462402e-01 -1.126048713922500610e-01 -1.103202402591705322e-01 -5.722162872552871704e-02
7.067000000000000000e+03 3.858525085449218750e+01 1.208014369010925293e+00 -6.748519837856292725e-02 5.101378634572029114e-02 -4.941424354910850525e-03 3.528318926692008972e-02
7.068000000000000000e+03 6.433545684814453125e+01 2.697985649108886719e+01 -8.404292464256286621e-01 8.767349243164062500e+00 2.378076076507568359e+00 1.896638154983520508e+00
7.069000000000000000e+03 4.217937469482421875e+01 1.631288230419158936e-01 9.537088125944137573e-02 5.866408944129943848e-01 2.046035230159759521e-01 1.348658502101898193e-01
7.070000000000000000e+03 5.938922500610351562e+01 2.493487358093261719e+01 -9.252107702195644379e-03 3.843310117721557617e+00 1.150217413902282715e+00 1.541569232940673828e+00
7.071000000000000000e+03 3.824359893798828125e+01 1.833226919174194336e+00 -1.438989937305450439e-01 -6.860742345452308655e-03 -4.522791877388954163e-02 -8.266829536296427250e-04
7.072000000000000000e+03 3.904969024658203125e+01 5.427445411682128906e+00 -3.893361687660217285e-01 -5.133041366934776306e-02 -1.321999728679656982e-01 -1.872018873691558838e-01
7.073000000000000000e+03 6.563893127441406250e+01 2.732238960266113281e+01 -1.088400959968566895e+00 1.007734489440917969e+01 2.696683168411254883e+00 1.164243936538696289e+00
7.074000000000000000e+03 6.226647949218750000e+01 2.153990554809570312e+01 -6.797522306442260742e-01 5.926002979278564453e+00 1.573875188827514648e+00 1.219438910484313965e+00
7.075000000000000000e+03 6.265980148315429688e+01 2.206734466552734375e+01 -7.291122674942016602e-01 6.228457927703857422e+00 1.649803638458251953e+00 1.248807668685913086e+00
7.076000000000000000e+03 5.764885330200195312e+01 2.435278320312500000e+01 -1.360424328595399857e-02 2.899864196777343750e+00 8.658779263496398926e-01 1.153750061988830566e+00
7.077000000000000000e+03 5.801092147827148438e+01 2.475006484985351562e+01 2.662771381437778473e-02 3.016170978546142578e+00 9.128395915031433105e-01 1.236155867576599121e+00
7.078000000000000000e+03 6.298162078857421875e+01 1.987485694885253906e+01 -7.527748942375183105e-01 6.165303707122802734e+00 1.623758554458618164e+00 9.532804489135742188e-01
7.079000000000000000e+03 4.323114776611328125e+01 1.270734786987304688e+01 -4.973397552967071533e-01 5.343765392899513245e-02 -1.331706345081329346e-01 -3.285564780235290527e-01
7.080000000000000000e+03 6.384867477416992188e+01 2.382192039489746094e+01 -8.839927911758422852e-01 7.278974533081054688e+00 1.918494582176208496e+00 1.337713718414306641e+00
7.081000000000000000e+03 6.234726715087890625e+01 2.522959327697753906e+01 -4.637407064437866211e-01 6.282993793487548828e+00 1.745775938034057617e+00 1.885776400566101074e+00
7.082000000000000000e+03 4.263804244995117188e+01 6.922115325927734375e+00 -2.759856283664703369e-01 3.896028399467468262e-01 3.408516943454742432e-02 -6.236596778035163879e-02
7.083000000000000000e+03 6.508516693115234375e+01 2.465697669982910156e+01 -1.078731894493103027e+00 8.314626693725585938e+00 2.170768260955810547e+00 1.076405763626098633e+00
7.084000000000000000e+03 6.495545959472656250e+01 2.575922966003417969e+01 -1.049882888793945312e+00 8.716295242309570312e+00 2.299923658370971680e+00 1.323369383811950684e+00
7.085000000000000000e+03 4.698228073120117188e+01 -2.307815551757812500e+00 1.844399273395538330e-01 1.541656970977783203e+00 5.178290605545043945e-01 2.372545450925827026e-01
7.086000000000000000e+03 5.988467025756835938e+01 5.716491222381591797e+00 -1.516781598329544067e-01 4.506103992462158203e+00 1.306327700614929199e+00 5.393078923225402832e-01
7.087000000000000000e+03 5.767997360229492188e+01 4.979962348937988281e+00 -9.622773528099060059e-02 3.910414695739746094e+00 1.144256114959716797e+00 5.260877013206481934e-01
7.088000000000000000e+03 4.571035385131835938e+01 -5.042424798011779785e-01 1.434300392866134644e-01 1.242876768112182617e+00 4.158920347690582275e-01 2.241502404212951660e-01
7.089000000000000000e+03 6.177144622802734375e+01 1.595339488983154297e+01 -5.509917140007019043e-01 5.336835861206054688e+00 1.435753226280212402e+00 7.730910181999206543e-01
7.090000000000000000e+03 6.348750686645507812e+01 1.924413490295410156e+01 -7.752094268798828125e-01 6.318192958831787109e+00 1.662894964218139648e+00 8.346461057662963867e-01
7.091000000000000000e+03 6.183853149414062500e+01 1.888265037536621094e+01 -6.304087042808532715e-01 5.539423465728759766e+00 1.472704410552978516e+00 9.621846675872802734e-01
7.092000000000000000e+03 6.120523452758789062e+01 1.475759124755859375e+01 -4.827560186386108398e-01 5.094397544860839844e+00 1.383492469787597656e+00 7.304754257202148438e-01
7.093000000000000000e+03 5.863074874877929688e+01 6.387799263000488281e+00 -1.498065739870071411e-01 4.150043487548828125e+00 1.200070977210998535e+00 5.498753190040588379e-01
7.094000000000000000e+03 6.070381927490234375e+01 1.300319194793701172e+01 -4.021224975585937500e-01 4.867637157440185547e+00 1.339654445648193359e+00 6.755326390266418457e-01
7.095000000000000000e+03 6.023370742797851562e+01 1.237399673461914062e+01 -3.659969866275787354e-01 4.705543041229248047e+00 1.301863789558410645e+00 6.673674583435058594e-01
7.096000000000000000e+03 3.891777420043945312e+01 2.103464126586914062e+00 -1.337051242589950562e-01 7.142148166894912720e-02 -1.868509314954280853e-02 7.440857123583555222e-03
7.097000000000000000e+03 4.484212112426757812e+01 -4.715693593025207520e-01 1.422027647495269775e-01 1.074003696441650391e+00 3.648619353771209717e-01 2.012442648410797119e-01
7.098000000000000000e+03 6.285023498535156250e+01 2.109228324890136719e+01 -7.615541219711303711e-01 6.231170177459716797e+00 1.640884757041931152e+00 1.103740930557250977e+00
7.099000000000000000e+03 5.878413772583007812e+01 5.413774967193603516e+00 -1.192393377423286438e-01 4.200820446014404297e+00 1.224474310874938965e+00 5.314308404922485352e-01
7.100000000000000000e+03 6.112300109863281250e+01 1.381776428222656250e+01 -4.474935531616210938e-01 5.036749839782714844e+00 1.376776933670043945e+00 6.998478770256042480e-01
7.101000000000000000e+03 5.793825531005859375e+01 -5.297115325927734375e+00 7.174392789602279663e-02 4.034597873687744141e+00 1.231902480125427246e+00 3.990041315555572510e-01
7.102000000000000000e+03 5.970421981811523438e+01 1.275450706481933594e+00 -3.484301269054412842e-02 4.446362018585205078e+00 1.323455691337585449e+00 4.764750897884368896e-01
7.103000000000000000e+03 6.168349456787109375e+01 1.781549835205078125e+01 -5.982038378715515137e-01 5.411425113677978516e+00 1.443966388702392578e+00 8.922699093818664551e-01
7.104000000000000000e+03 5.782690048217773438e+01 2.597220242023468018e-01 6.184455938637256622e-03 3.967789888381958008e+00 1.192192316055297852e+00 4.655407667160034180e-01
7.105000000000000000e+03 5.840950393676757812e+01 8.134819030761718750e+00 -1.934201568365097046e-01 4.104864120483398438e+00 1.173433184623718262e+00 5.806587934494018555e-01
7.106000000000000000e+03 5.858676147460937500e+01 7.306724548339843750e+00 -1.683403998613357544e-01 4.142285823822021484e+00 1.192183732986450195e+00 5.704715847969055176e-01
7.107000000000000000e+03 5.999003601074218750e+01 1.137545394897460938e+01 -3.287870883941650391e-01 4.587622165679931641e+00 1.277650475502014160e+00 6.436653733253479004e-01
7.108000000000000000e+03 5.110962677001953125e+01 -6.054694652557373047e+00 1.785338968038558960e-01 2.484565973281860352e+00 7.989299893379211426e-01 2.823604345321655273e-01
7.109000000000000000e+03 5.097262573242187500e+01 -5.052549362182617188e+00 1.670812815427780151e-01 2.422060012817382812e+00 7.767423987388610840e-01 2.853645384311676025e-01
7.110000000000000000e+03 5.706066513061523438e+01 -4.670495510101318359e+00 7.747414708137512207e-02 3.810176610946655273e+00 1.166295170783996582e+00 3.949126005172729492e-01
7.111000000000000000e+03 5.008539581298828125e+01 -3.933529376983642578e+00 1.773653924465179443e-01 2.223939180374145508e+00 7.203913927078247070e-01 2.908688187599182129e-01
7.112000000000000000e+03 5.362823104858398438e+01 -6.051836013793945312e+00 1.397204250097274780e-01 3.038655757904052734e+00 9.535128474235534668e-01 3.204253613948822021e-01
7.113000000000000000e+03 5.292471313476562500e+01 -4.592019081115722656e+00 1.414857655763626099e-01 2.884631633758544922e+00 9.078351855278015137e-01 3.316227793693542480e-01
7.114000000000000000e+03 5.508261108398437500e+01 -1.042561054229736328e+01 1.071819141507148743e-01 3.463693618774414062e+00 1.071262717247009277e+00 2.953110933303833008e-01
7.115000000000000000e+03 5.391536331176757812e+01 -7.633436203002929688e+00 1.318594217300415039e-01 3.133428335189819336e+00 9.795863628387451172e-01 2.990938425064086914e-01
7.116000000000000000e+03 6.509371185302734375e+01 2.774212265014648438e+01 -9.588291049003601074e-01 9.948089599609375000e+00 2.696778059005737305e+00 1.642218828201293945e+00
7.117000000000000000e+03 6.574027252197265625e+01 2.692018699645996094e+01 -1.124316453933715820e+00 9.891304969787597656e+00 2.630096673965454102e+00 1.040049076080322266e+00
7.118000000000000000e+03 6.276158142089843750e+01 2.473860931396484375e+01 -6.130239367485046387e-01 6.612785816192626953e+00 1.799928545951843262e+00 1.722494721412658691e+00
7.119000000000000000e+03 6.271133422851562500e+01 2.738018035888671875e+01 -1.899338811635971069e-01 6.834898948669433594e+00 1.993489623069763184e+00 2.518480062484741211e+00
7.120000000000000000e+03 6.506208801269531250e+01 2.663207054138183594e+01 -1.029415607452392578e+00 9.180907249450683594e+00 2.445447444915771484e+00 1.444506406784057617e+00
7.121000000000000000e+03 6.540377807617187500e+01 2.671533966064453125e+01 -1.082574605941772461e+00 9.500014305114746094e+00 2.525231838226318359e+00 1.235765337944030762e+00
7.122000000000000000e+03 6.451304626464843750e+01 2.734302520751953125e+01 -8.579605221748352051e-01 9.119433403015136719e+00 2.478441953659057617e+00 1.929558157920837402e+00
7.123000000000000000e+03 6.310622406005859375e+01 2.729311752319335938e+01 -3.467371463775634766e-01 7.324871540069580078e+00 2.093440294265747070e+00 2.446346998214721680e+00
7.124000000000000000e+03 4.591367721557617188e+01 1.365783786773681641e+01 -3.811243474483489990e-01 4.757089018821716309e-01 2.837537229061126709e-02 -1.331583559513092041e-01
7.125000000000000000e+03 4.621733093261718750e+01 1.434385013580322266e+01 -3.877250850200653076e-01 4.711205363273620605e-01 2.501863799989223480e-02 -1.367844343185424805e-01
7.126000000000000000e+03 4.836294937133789062e+01 1.643417549133300781e+01 -3.364350497722625732e-01 7.462102770805358887e-01 1.229325681924819946e-01 2.657716162502765656e-03
7.127000000000000000e+03 4.997516632080078125e+01 1.877750205993652344e+01 -3.402647078037261963e-01 8.616055846214294434e-01 1.564022749662399292e-01 9.256266057491302490e-02
7.128000000000000000e+03 6.426451873779296875e+01 2.546591949462890625e+01 -9.195179343223571777e-01 8.050352096557617188e+00 2.139250040054321289e+00 1.535897731781005859e+00
7.129000000000000000e+03 6.451034545898437500e+01 2.505680274963378906e+01 -9.778775572776794434e-01 8.077488899230957031e+00 2.129883289337158203e+00 1.384487032890319824e+00
7.130000000000000000e+03 6.454291534423828125e+01 2.633875083923339844e+01 -9.409904479980468750e-01 8.663264274597167969e+00 2.316682100296020508e+00 1.633233547210693359e+00
7.131000000000000000e+03 6.400012207031250000e+01 2.723902702331542969e+01 -6.972979307174682617e-01 8.469680786132812500e+00 2.331714868545532227e+00 2.130494117736816406e+00
7.132000000000000000e+03 5.392745971679687500e+01 2.157065200805664062e+01 -2.100748568773269653e-01 1.745202064514160156e+00 4.605381488800048828e-01 5.394123792648315430e-01
7.133000000000000000e+03 5.126350784301757812e+01 1.961250877380371094e+01 -2.989356219768524170e-01 1.137121677398681641e+00 2.514558434486389160e-01 2.288461625576019287e-01
7.134000000000000000e+03 5.110614395141601562e+01 1.845190238952636719e+01 -2.895261049270629883e-01 1.235674738883972168e+00 2.838445901870727539e-01 2.479585260152816772e-01
7.135000000000000000e+03 5.619427871704101562e+01 2.370351982116699219e+01 -8.917914330959320068e-02 2.309296846389770508e+00 6.660352945327758789e-01 8.647533655166625977e-01
7.136000000000000000e+03 5.468950653076171875e+01 2.267765808105468750e+01 -1.616814881563186646e-01 1.840756416320800781e+00 5.037224888801574707e-01 6.253935694694519043e-01
7.137000000000000000e+03 6.422566986083984375e+01 2.441121482849121094e+01 -9.393379092216491699e-01 7.662582874298095703e+00 2.016973495483398438e+00 1.357824683189392090e+00
7.138000000000000000e+03 5.599753189086914062e+01 2.302140235900878906e+01 -1.262444406747817993e-01 2.354852437973022461e+00 6.685823798179626465e-01 8.401697874069213867e-01
7.139000000000000000e+03 4.867152404785156250e+01 1.678011703491210938e+01 -3.419447243213653564e-01 7.714586257934570312e-01 1.288541853427886963e-01 2.451614476740360260e-02
7.140000000000000000e+03 4.829441070556640625e+01 1.558436298370361328e+01 -3.260356783866882324e-01 8.111064434051513672e-01 1.455212235450744629e-01 2.812029793858528137e-02
7.141000000000000000e+03 5.608075332641601562e+01 2.418217086791992188e+01 -5.360874906182289124e-02 2.160137176513671875e+00 6.319585442543029785e-01 8.325247168540954590e-01
7.142000000000000000e+03 5.500278472900390625e+01 2.297010231018066406e+01 -1.434142887592315674e-01 1.923033952713012695e+00 5.338858962059020996e-01 6.683439016342163086e-01
7.143000000000000000e+03 4.235153579711914062e+01 1.206786060333251953e+01 -5.240027308464050293e-01 -3.780149295926094055e-02 -1.685412675142288208e-01 -3.647757470607757568e-01
7.144000000000000000e+03 4.309487915039062500e+01 1.194981193542480469e+01 -4.740015864372253418e-01 9.475290030241012573e-02 -1.137746050953865051e-01 -2.952481210231781006e-01
7.145000000000000000e+03 5.838792800903320312e+01 2.437188529968261719e+01 -2.566147781908512115e-02 3.317679643630981445e+00 9.876054525375366211e-01 1.308424115180969238e+00
7.146000000000000000e+03 6.174397277832031250e+01 2.288820457458496094e+01 -5.563879013061523438e-01 5.752981185913085938e+00 1.558977961540222168e+00 1.446234345436096191e+00
7.147000000000000000e+03 6.498014068603515625e+01 2.622099494934082031e+01 -1.044591426849365234e+00 8.959627151489257812e+00 2.374510765075683594e+00 1.422624111175537109e+00
7.148000000000000000e+03 4.239530944824218750e+01 1.043279552459716797e+01 -4.453741312026977539e-01 1.039902195334434509e-01 -1.024151742458343506e-01 -2.666370570659637451e-01
7.149000000000000000e+03 4.250123596191406250e+01 8.195670127868652344e+00 -3.427627086639404297e-01 2.919112443923950195e-01 -1.525543816387653351e-02 -1.334710419178009033e-01
7.150000000000000000e+03 5.323134613037109375e+01 2.097067832946777344e+01 -2.370649725198745728e-01 1.587205767631530762e+00 4.050422310829162598e-01 4.570573270320892334e-01
7.151000000000000000e+03 5.223127746582031250e+01 2.005241775512695312e+01 -2.687500715255737305e-01 1.379978895187377930e+00 3.333686590194702148e-01 3.449701368808746338e-01
7.152000000000000000e+03 5.508734893798828125e+01 2.376342391967773438e+01 -1.170256808400154114e-01 1.815626740455627441e+00 5.095803141593933105e-01 6.469050049781799316e-01
7.153000000000000000e+03 5.578007888793945312e+01 2.351543426513671875e+01 -1.022250875830650330e-01 2.186336994171142578e+00 6.252335906028747559e-01 7.989531755447387695e-01
7.154000000000000000e+03 4.088726425170898438e+01 7.707315921783447266e+00 -4.068177044391632080e-01 6.099790334701538086e-02 -1.037459447979927063e-01 -2.154822647571563721e-01
7.155000000000000000e+03 4.303091430664062500e+01 8.004617691040039062e+00 -3.122267723083496094e-01 3.929641544818878174e-01 2.422121539711952209e-02 -8.822765946388244629e-02
7.156000000000000000e+03 4.940273666381835938e+01 1.790057563781738281e+01 -3.369424343109130859e-01 8.351445794105529785e-01 1.494606435298919678e-01 6.750518828630447388e-02
7.157000000000000000e+03 5.029753875732421875e+01 1.902541160583496094e+01 -3.357136845588684082e-01 9.210135936737060547e-01 1.755899637937545776e-01 1.246953010559082031e-01
7.158000000000000000e+03 6.264564895629882812e+01 2.689909934997558594e+01 -2.729199230670928955e-01 6.712580204010009766e+00 1.931897997856140137e+00 2.344708919525146484e+00
7.159000000000000000e+03 6.143141174316406250e+01 2.668004035949707031e+01 2.788354083895683289e-02 5.285120487213134766e+00 1.593901276588439941e+00 2.199993371963500977e+00
7.160000000000000000e+03 5.288613510131835938e+01 2.068518066406250000e+01 -2.501299083232879639e-01 1.511455535888671875e+00 3.783977031707763672e-01 4.173044860363006592e-01
7.161000000000000000e+03 3.623665618896484375e+01 2.100648641586303711e+00 -2.866828739643096924e-01 -2.263128459453582764e-01 -1.538987159729003906e-01 -6.472312659025192261e-02
7.162000000000000000e+03 3.664609146118164062e+01 2.442749261856079102e+00 -3.112041950225830078e-01 -1.917603909969329834e-01 -1.508893668651580811e-01 -7.460951060056686401e-02
7.163000000000000000e+03 4.905002212524414062e+01 1.748824310302734375e+01 -3.410719633102416992e-01 7.875904440879821777e-01 1.339555382728576660e-01 4.002062231302261353e-02
7.164000000000000000e+03 6.483166503906250000e+01 2.714142799377441406e+01 -9.533251523971557617e-01 9.347231864929199219e+00 2.518172025680541992e+00 1.683989763259887695e+00
7.165000000000000000e+03 5.054415893554687500e+01 1.949015426635742188e+01 -3.260164260864257812e-01 9.358475804328918457e-01 1.829493492841720581e-01 1.388498991727828979e-01
7.166000000000000000e+03 5.044010162353515625e+01 1.830450057983398438e+01 -3.103689551353454590e-01 1.053214073181152344e+00 2.228535264730453491e-01 1.729954779148101807e-01
7.167000000000000000e+03 3.999535369873046875e+01 6.496373653411865234e+00 -3.942139148712158203e-01 1.561083830893039703e-02 -1.135809272527694702e-01 -1.975069791078567505e-01
7.168000000000000000e+03 5.329480361938476562e+01 2.162127876281738281e+01 -2.319863289594650269e-01 1.513663411140441895e+00 3.845031261444091797e-01 4.450317919254302979e-01
7.169000000000000000e+03 3.843427276611328125e+01 3.905579090118408203e+00 -3.182452619075775146e-01 -5.193185806274414062e-02 -1.110531389713287354e-01 -1.153680235147476196e-01
7.170000000000000000e+03 3.778359603881835938e+01 3.802186727523803711e+00 -3.509934246540069580e-01 -1.238688454031944275e-01 -1.424586772918701172e-01 -1.319100111722946167e-01
7.171000000000000000e+03 4.930091857910156250e+01 1.850539016723632812e+01 -3.591572940349578857e-01 7.339212894439697266e-01 1.124291941523551941e-01 2.778828330338001251e-02
7.172000000000000000e+03 3.969524002075195312e+01 6.134127616882324219e+00 -3.853257298469543457e-01 -1.723616151139140129e-03 -1.161148101091384888e-01 -1.925949454307556152e-01
7.173000000000000000e+03 4.155834960937500000e+01 1.211287021636962891e+00 2.273807302117347717e-02 4.639022052288055420e-01 1.459920853376388550e-01 9.903287887573242188e-02
7.174000000000000000e+03 4.461827087402343750e+01 1.179817867279052734e+01 -3.868589103221893311e-01 3.926189243793487549e-01 1.728003728203475475e-03 -1.583490520715713501e-01
7.175000000000000000e+03 6.241871643066406250e+01 2.048423004150390625e+01 -7.073881030082702637e-01 5.947642326354980469e+00 1.572076320648193359e+00 1.074689745903015137e+00
7.176000000000000000e+03 6.336418151855468750e+01 2.390348434448242188e+01 -7.939304113388061523e-01 6.962292671203613281e+00 1.850508689880371094e+00 1.456864118576049805e+00
7.177000000000000000e+03 5.999455642700195312e+01 2.517096710205078125e+01 -3.116866573691368103e-02 4.275331497192382812e+00 1.273248791694641113e+00 1.685761094093322754e+00
7.178000000000000000e+03 5.803683853149414062e+01 2.394872474670410156e+01 -5.770890787243843079e-02 3.202473402023315430e+00 9.434293508529663086e-01 1.226527333259582520e+00
7.179000000000000000e+03 5.652616500854492188e+01 2.400602531433105469e+01 -5.284751579165458679e-02 2.388777017593383789e+00 7.007788419723510742e-01 9.239621758460998535e-01
7.180000000000000000e+03 5.766993331909179688e+01 2.352952766418457031e+01 -8.878155797719955444e-02 3.076176404953002930e+00 8.962184786796569824e-01 1.147761106491088867e+00
7.181000000000000000e+03 3.974840164184570312e+01 5.526429653167724609e+00 -3.527257740497589111e-01 3.921517729759216309e-02 -9.405317157506942749e-02 -1.542232781648635864e-01
7.182000000000000000e+03 5.523297882080078125e+01 2.255086898803710938e+01 -1.549702286720275879e-01 2.110249757766723633e+00 5.865838527679443359e-01 7.146834135055541992e-01
7.183000000000000000e+03 3.698331069946289062e+01 2.787907361984252930e+00 -3.186917603015899658e-01 -1.727417409420013428e-01 -1.474300473928451538e-01 -9.064564108848571777e-02
7.184000000000000000e+03 4.283164978027343750e+01 1.034304714202880859e+01 -4.157415032386779785e-01 1.919450610876083374e-01 -6.713893264532089233e-02 -2.212747633457183838e-01
7.185000000000000000e+03 3.760916519165039062e+01 1.486875057220458984e+00 -1.381223797798156738e-01 -6.774328649044036865e-02 -6.175969913601875305e-02 4.318525549024343491e-03
7.186000000000000000e+03 4.424721145629882812e+01 1.207531166076660156e+01 -4.134384393692016602e-01 2.992334365844726562e-01 -3.426149860024452209e-02 -2.052839249372482300e-01
7.187000000000000000e+03 3.875433731079101562e+01 5.033563613891601562e+00 -3.847196996212005615e-01 -6.549639254808425903e-02 -1.350648254156112671e-01 -1.788612604141235352e-01
7.188000000000000000e+03 4.256150054931640625e+01 1.836671352386474609e+00 3.446652553975582123e-03 6.048451662063598633e-01 1.824875473976135254e-01 1.151891648769378662e-01
7.189000000000000000e+03 4.644600677490234375e+01 1.385736274719238281e+01 -3.623002469539642334e-01 5.667892098426818848e-01 6.134668737649917603e-02 -9.205571562051773071e-02
7.190000000000000000e+03 6.063814926147460938e+01 2.558418464660644531e+01 -6.422841548919677734e-02 4.731235504150390625e+00 1.400102138519287109e+00 1.843345284461975098e+00
7.191000000000000000e+03 5.616820526123046875e+01 5.350100994110107422e+00 -8.310461044311523438e-02 3.501487016677856445e+00 1.025514721870422363e+00 5.116655230522155762e-01
7.192000000000000000e+03 4.753672790527343750e+01 1.440261650085449219e+01 -3.323228061199188232e-01 7.561151981353759766e-01 1.271377205848693848e-01 -5.765705369412899017e-03
7.193000000000000000e+03 6.021979904174804688e+01 1.399061012268066406e+01 -4.213769733905792236e-01 4.700715541839599609e+00 1.283801674842834473e+00 7.340833544731140137e-01
7.194000000000000000e+03 4.867998123168945312e+01 -3.003235578536987305e+00 1.802243590354919434e-01 1.917411088943481445e+00 6.292906403541564941e-01 2.772364616394042969e-01
7.195000000000000000e+03 5.735235977172851562e+01 8.656394958496093750e+00 -1.867911070585250854e-01 3.793819427490234375e+00 1.082108497619628906e+00 5.788064002990722656e-01
7.196000000000000000e+03 4.138694763183593750e+01 4.154326021671295166e-01 5.898265913128852844e-02 4.534023702144622803e-01 1.537155061960220337e-01 1.177844330668449402e-01
7.197000000000000000e+03 4.239532470703125000e+01 1.004408121109008789e+00 4.701234027743339539e-02 6.019056439399719238e-01 1.946754008531570435e-01 1.280683130025863647e-01
7.198000000000000000e+03 6.036091232299804688e+01 1.712692451477050781e+01 -4.953729510307312012e-01 4.826288223266601562e+00 1.299274682998657227e+00 8.938512802124023438e-01
7.199000000000000000e+03 6.065613555908203125e+01 1.643197822570800781e+01 -5.023460984230041504e-01 4.931820392608642578e+00 1.328842282295227051e+00 8.418784737586975098e-01
7.200000000000000000e+03 4.407801818847656250e+01 5.594267845153808594e-01 8.442182093858718872e-02 8.983071446418762207e-01 2.948186993598937988e-01 1.758674532175064087e-01
7.201000000000000000e+03 4.564692306518554688e+01 3.619061708450317383e-01 1.086797416210174561e-01 1.209929227828979492e+00 3.955827057361602783e-01 2.248605340719223022e-01
7.202000000000000000e+03 5.932445907592773438e+01 1.346656131744384766e+01 -3.721599578857421875e-01 4.395131587982177734e+00 1.206891536712646484e+00 7.157518863677978516e-01
7.203000000000000000e+03 5.871372985839843750e+01 9.955084800720214844e+00 -2.496682107448577881e-01 4.192797660827636719e+00 1.182938814163208008e+00 6.155708432197570801e-01
7.204000000000000000e+03 5.769339752197265625e+01 2.603262424468994141e+00 -3.874640911817550659e-02 3.925980091094970703e+00 1.166170120239257812e+00 4.976575076580047607e-01
7.205000000000000000e+03 6.095289611816406250e+01 1.565469074249267578e+01 -4.959176182746887207e-01 5.035048961639404297e+00 1.361739277839660645e+00 7.893463969230651855e-01
7.206000000000000000e+03 5.733118820190429688e+01 1.198827147483825684e+00 -6.426519714295864105e-03 3.846691131591796875e+00 1.152079463005065918e+00 4.779641032218933105e-01
7.207000000000000000e+03 5.815052795410156250e+01 4.023195743560791016e+00 -7.614894956350326538e-02 4.045134067535400391e+00 1.190695524215698242e+00 5.142605900764465332e-01
7.208000000000000000e+03 5.919383621215820312e+01 1.102642345428466797e+01 -2.906483113765716553e-01 4.344922542572021484e+00 1.216282248497009277e+00 6.370232701301574707e-01
7.209000000000000000e+03 5.664525222778320312e+01 -3.328265428543090820e+00 7.348145544528961182e-02 3.716770887374877930e+00 1.137075662612915039e+00 4.104036688804626465e-01
7.210000000000000000e+03 5.838755798339843750e+01 -4.283444404602050781e+00 5.611387267708778381e-02 4.141222000122070312e+00 1.259200811386108398e+00 4.211544692516326904e-01
7.211000000000000000e+03 5.759968948364257812e+01 7.927624702453613281e+00 -1.712868660688400269e-01 3.876997947692871094e+00 1.111713290214538574e+00 5.668814182281494141e-01
7.212000000000000000e+03 5.838373184204101562e+01 1.071345996856689453e+01 -2.626646459102630615e-01 4.089887619018554688e+00 1.148166894912719727e+00 6.323028206825256348e-01
7.213000000000000000e+03 5.709977722167968750e+01 5.834398269653320312e+00 -1.089466884732246399e-01 3.761381387710571289e+00 1.095730423927307129e+00 5.343756079673767090e-01
7.214000000000000000e+03 5.823193359375000000e+01 1.682935595512390137e+00 -2.270204946398735046e-02 4.063875675201416016e+00 1.212352037429809570e+00 4.809682965278625488e-01
7.215000000000000000e+03 5.600826263427734375e+01 -1.041080594062805176e+00 5.322474613785743713e-02 3.537046670913696289e+00 1.077081441879272461e+00 4.272219538688659668e-01
7.216000000000000000e+03 4.283700180053710938e+01 7.482197761535644531e+00 -2.917010486125946045e-01 3.911790251731872559e-01 2.984339557588100433e-02 -7.895449548959732056e-02
7.217000000000000000e+03 4.682118225097656250e+01 -1.302963733673095703e+00 1.616670340299606323e-01 1.491420030593872070e+00 4.959261119365692139e-01 2.456002831459045410e-01
7.218000000000000000e+03 5.162202453613281250e+01 -3.138906240463256836e+00 1.461346894502639771e-01 2.550261497497558594e+00 8.089188933372497559e-01 3.282079398632049561e-01
7.219000000000000000e+03 5.649645996093750000e+01 -5.498743057250976562e+00 9.732159227132797241e-02 3.714689731597900391e+00 1.143603324890136719e+00 3.703746199607849121e-01
7.220000000000000000e+03 5.041011428833007812e+01 -2.789081096649169922e+00 1.544449478387832642e-01 2.254290103912353516e+00 7.226204872131347656e-01 3.094370961189270020e-01
7.221000000000000000e+03 4.847383499145507812e+01 -1.580482602119445801e+00 1.513748764991760254e-01 1.807966113090515137e+00 5.878022909164428711e-01 2.829916477203369141e-01
7.222000000000000000e+03 5.482280731201171875e+01 -8.402737617492675781e+00 1.149175763130187988e-01 3.382469415664672852e+00 1.049216151237487793e+00 3.102441728115081787e-01
7.223000000000000000e+03 5.698839569091796875e+01 -9.637964248657226562e+00 8.835828304290771484e-02 3.874252080917358398e+00 1.188783049583435059e+00 3.378691673278808594e-01
7.224000000000000000e+03 5.639562225341796875e+01 -7.912396907806396484e+00 9.604755789041519165e-02 3.716510295867919922e+00 1.143767356872558594e+00 3.440605700016021729e-01
7.225000000000000000e+03 5.745866012573242188e+01 -8.301984786987304688e+00 9.628906100988388062e-02 3.961782932281494141e+00 1.217421650886535645e+00 3.574499189853668213e-01
7.226000000000000000e+03 5.680190658569335938e+01 -6.881600379943847656e+00 8.813263475894927979e-02 3.785229921340942383e+00 1.162008762359619141e+00 3.558008074760437012e-01
7.227000000000000000e+03 5.121281051635742188e+01 -4.143634796142578125e+00 1.591817289590835571e-01 2.483484268188476562e+00 7.927998304367065430e-01 3.079348206520080566e-01
7.228000000000000000e+03 5.237105941772460938e+01 -6.353471279144287109e+00 1.497483551502227783e-01 2.795414924621582031e+00 8.835489749908447266e-01 3.024632334709167480e-01
7.229000000000000000e+03 5.586657714843750000e+01 -1.270767498016357422e+01 7.320236414670944214e-02 3.670258045196533203e+00 1.123038172721862793e+00 2.818410098552703857e-01
7.230000000000000000e+03 6.300620651245117188e+01 2.684124183654785156e+01 -4.094382822513580322e-01 7.126049041748046875e+00 2.014983415603637695e+00 2.282286405563354492e+00
7.231000000000000000e+03 4.907444000244140625e+01 1.598993587493896484e+01 -3.154647648334503174e-01 9.580001831054687500e-01 1.927606165409088135e-01 8.540180325508117676e-02
7.232000000000000000e+03 4.850497436523437500e+01 1.602729034423828125e+01 -3.309831321239471436e-01 8.146104216575622559e-01 1.450881958007812500e-01 3.463117405772209167e-02
7.233000000000000000e+03 5.486602401733398438e+01 2.230647277832031250e+01 -1.684042215347290039e-01 1.981328487396240234e+00 5.438773036003112793e-01 6.696196198463439941e-01
7.234000000000000000e+03 6.104373550415039062e+01 2.608740615844726562e+01 -1.824638620018959045e-02 5.004163265228271484e+00 1.495774984359741211e+00 2.015602588653564453e+00
7.235000000000000000e+03 5.506592559814453125e+01 2.184043312072753906e+01 -1.813002973794937134e-01 2.139317274093627930e+00 5.874051451683044434e-01 7.102028727531433105e-01
7.236000000000000000e+03 6.306609725952148438e+01 2.591231346130371094e+01 -5.645309090614318848e-01 7.037888526916503906e+00 1.942007303237915039e+00 1.981713652610778809e+00
7.237000000000000000e+03 5.616376495361328125e+01 2.253772163391113281e+01 -1.315645277500152588e-01 2.479549407958984375e+00 7.043954730033874512e-01 8.792145252227783203e-01
7.238000000000000000e+03 5.545708465576171875e+01 2.213702201843261719e+01 -1.605001389980316162e-01 2.280777454376220703e+00 6.360831856727600098e-01 7.620775103569030762e-01
7.239000000000000000e+03 5.912039184570312500e+01 2.445730209350585938e+01 -5.328581482172012329e-02 3.762928724288940430e+00 1.112892866134643555e+00 1.457680344581604004e+00
7.240000000000000000e+03 4.919670486450195312e+01 1.659228515625000000e+01 -3.199659883975982666e-01 9.248697161674499512e-01 1.814711242914199829e-01 8.134381473064422607e-02
7.241000000000000000e+03 4.809073257446289062e+01 1.514804172515869141e+01 -3.265671432018280029e-01 8.066546916961669922e-01 1.440262645483016968e-01 2.060969173908233643e-02
7.242000000000000000e+03 5.559883499145507812e+01 2.280519104003906250e+01 -1.437890976667404175e-01 2.239108800888061523e+00 6.285958886146545410e-01 7.802495956420898438e-01
7.243000000000000000e+03 6.468878936767578125e+01 2.677051162719726562e+01 -9.548211097717285156e-01 8.990699768066406250e+00 2.410763502120971680e+00 1.685818076133728027e+00
7.244000000000000000e+03 3.939131164550781250e+01 5.776031970977783203e+00 -3.862241804599761963e-01 -2.485140971839427948e-02 -1.233226731419563293e-01 -1.885638236999511719e-01
7.245000000000000000e+03 6.012738800048828125e+01 1.548088836669921875e+01 -4.443984329700469971e-01 4.704640865325927734e+00 1.278072714805603027e+00 7.929047346115112305e-01
7.246000000000000000e+03 5.282305145263671875e+01 2.007783317565917969e+01 -2.500888705253601074e-01 1.578138351440429688e+00 3.984148502349853516e-01 4.263622760772705078e-01
7.247000000000000000e+03 4.611217498779296875e+01 1.312744140625000000e+01 -3.560563623905181885e-01 5.649834871292114258e-01 6.267814338207244873e-02 -9.136370569467544556e-02
7.248000000000000000e+03 4.275524139404296875e+01 8.699676513671875000e+00 -3.526031374931335449e-01 3.019985258579254150e-01 -1.518138125538825989e-02 -1.384597569704055786e-01
7.249000000000000000e+03 5.002874374389648438e+01 1.834722900390625000e+01 -3.261335492134094238e-01 9.350930452346801758e-01 1.826878488063812256e-01 1.174089014530181885e-01
7.250000000000000000e+03 5.254933547973632812e+01 2.038388252258300781e+01 -2.592765986919403076e-01 1.441449642181396484e+00 3.546519279479980469e-01 3.772875964641571045e-01
7.251000000000000000e+03 5.461552810668945312e+01 2.153340339660644531e+01 -1.955831199884414673e-01 2.007838249206542969e+00 5.436765551567077637e-01 6.441558003425598145e-01
7.252000000000000000e+03 4.961285018920898438e+01 1.831578063964843750e+01 -3.431579470634460449e-01 8.377193212509155273e-01 1.483684033155441284e-01 6.943842768669128418e-02
7.253000000000000000e+03 6.129299545288085938e+01 2.157082366943359375e+01 -5.565025210380554199e-01 5.382549762725830078e+00 1.447814226150512695e+00 1.273597717285156250e+00
7.254000000000000000e+03 6.332966613769531250e+01 2.642607116699218750e+01 -5.762664675712585449e-01 7.422350406646728516e+00 2.053825139999389648e+00 2.088752269744873047e+00
7.255000000000000000e+03 6.259983444213867188e+01 2.638422775268554688e+01 -3.625508546829223633e-01 6.616532325744628906e+00 1.876194357872009277e+00 2.173453807830810547e+00
7.256000000000000000e+03 4.275610351562500000e+01 9.893525123596191406e+00 -4.008969068527221680e-01 2.125087976455688477e-01 -5.651643499732017517e-02 -2.019121646881103516e-01
7.257000000000000000e+03 6.090533828735351562e+01 2.648554039001464844e+01 8.628068119287490845e-02 4.798873424530029297e+00 1.465546250343322754e+00 2.061469554901123047e+00
7.258000000000000000e+03 6.166306304931640625e+01 2.446132087707519531e+01 -4.181751310825347900e-01 5.683036327362060547e+00 1.579458355903625488e+00 1.710318326950073242e+00
7.259000000000000000e+03 4.201226425170898438e+01 7.153625488281250000e+00 -3.141502737998962402e-01 2.809402346611022949e-01 -9.963013231754302979e-03 -1.126521453261375427e-01
7.260000000000000000e+03 4.698143005371093750e+01 1.410607719421386719e+01 -3.484097421169281006e-01 6.568475961685180664e-01 9.253134578466415405e-02 -5.250369384884834290e-02
7.261000000000000000e+03 4.667707824707031250e+01 1.333457469940185547e+01 -3.395334482192993164e-01 6.686204075813293457e-01 9.872608631849288940e-02 -4.831642284989356995e-02
7.262000000000000000e+03 5.165590286254882812e+01 1.929706192016601562e+01 -2.813464701175689697e-01 1.295251965522766113e+00 3.041716516017913818e-01 2.916915416717529297e-01
7.263000000000000000e+03 5.314946746826171875e+01 2.034400367736816406e+01 -2.413433939218521118e-01 1.647503256797790527e+00 4.218479692935943604e-01 4.641166925430297852e-01
7.264000000000000000e+03 4.286865234375000000e+01 1.127973556518554688e+01 -4.651980698108673096e-01 1.096682697534561157e-01 -1.066589355468750000e-01 -2.759473621845245361e-01
7.265000000000000000e+03 4.555078125000000000e+01 1.296621227264404297e+01 -3.762909173965454102e-01 4.661965072154998779e-01 2.697167545557022095e-02 -1.335812658071517944e-01
7.266000000000000000e+03 5.711495208740234375e+01 2.025795936584472656e+01 -2.652986943721771240e-01 3.238130569458007812e+00 8.918495178222656250e-01 9.497890472412109375e-01
7.267000000000000000e+03 5.688900375366210938e+01 2.354240417480468750e+01 -8.201303333044052124e-02 2.677327394485473633e+00 7.785942554473876953e-01 1.005587458610534668e+00
7.268000000000000000e+03 4.353213500976562500e+01 8.959169387817382812e+00 -3.233391046524047852e-01 4.186789989471435547e-01 2.860196866095066071e-02 -9.797903895378112793e-02
7.269000000000000000e+03 4.980200576782226562e+01 1.760482788085937500e+01 -3.157909214496612549e-01 9.694312214851379395e-01 1.960920989513397217e-01 1.197734028100967407e-01
7.270000000000000000e+03 4.078744125366210938e+01 6.560486793518066406e+00 -3.522707521915435791e-01 1.202089712023735046e-01 -6.961853802204132080e-02 -1.531527191400527954e-01
7.271000000000000000e+03 4.040915298461914062e+01 6.202308177947998047e+00 -3.470461070537567139e-01 9.150484204292297363e-02 -7.666238397359848022e-02 -1.556017249822616577e-01
7.272000000000000000e+03 6.104311752319335938e+01 1.743353462219238281e+01 -5.452393889427185059e-01 5.121683597564697266e+00 1.372933268547058105e+00 8.936102390289306641e-01
7.273000000000000000e+03 6.085707473754882812e+01 1.900395965576171875e+01 -5.484258532524108887e-01 5.088613033294677734e+00 1.362056136131286621e+00 1.017246961593627930e+00
7.274000000000000000e+03 4.946225738525390625e+01 1.713947868347167969e+01 -3.252793550491333008e-01 9.269241094589233398e-01 1.804934293031692505e-01 9.704299271106719971e-02
7.275000000000000000e+03 6.446502685546875000e+01 2.584881401062011719e+01 -9.371730089187622070e-01 8.342020034790039062e+00 2.221454143524169922e+00 1.548577189445495605e+00
7.276000000000000000e+03 4.447901535034179688e+01 1.272046184539794922e+01 -4.259185492992401123e-01 2.899990379810333252e-01 -4.077584296464920044e-02 -2.172542363405227661e-01
7.277000000000000000e+03 6.133472824096679688e+01 2.052135848999023438e+01 -5.864065885543823242e-01 5.371870040893554688e+00 1.435639023780822754e+00 1.147377848625183105e+00
7.278000000000000000e+03 6.240296936035156250e+01 1.936544227600097656e+01 -6.870118975639343262e-01 5.827991962432861328e+00 1.542294025421142578e+00 9.676289558410644531e-01
7.279000000000000000e+03 3.792558670043945312e+01 3.179661273956298828e+00 -3.040296733379364014e-01 -9.320962429046630859e-02 -1.191717907786369324e-01 -8.779234439134597778e-02
7.280000000000000000e+03 3.736390304565429688e+01 3.048936367034912109e+00 -3.124241828918457031e-01 -1.321203559637069702e-01 -1.333633661270141602e-01 -9.885144978761672974e-02
7.281000000000000000e+03 6.384319305419921875e+01 2.429116439819335938e+01 -8.756520748138427734e-01 7.394163131713867188e+00 1.955553293228149414e+00 1.433805823326110840e+00
7.282000000000000000e+03 6.407806396484375000e+01 2.483781242370605469e+01 -8.999949097633361816e-01 7.667796134948730469e+00 2.030340433120727539e+00 1.479207396507263184e+00
7.283000000000000000e+03 6.175806427001953125e+01 2.202103614807128906e+01 -6.055127978324890137e-01 5.659810066223144531e+00 1.516289234161376953e+00 1.316790938377380371e+00
7.284000000000000000e+03 6.258452606201171875e+01 2.298407936096191406e+01 -6.826705336570739746e-01 6.278807640075683594e+00 1.678841114044189453e+00 1.391176819801330566e+00
7.285000000000000000e+03 3.804005432128906250e+01 2.506106853485107422e+00 -2.146483212709426880e-01 -4.927237704396247864e-02 -7.917620986700057983e-02 -3.856109455227851868e-02
7.286000000000000000e+03 3.714162445068359375e+01 2.016646862030029297e+00 -2.167872488498687744e-01 -1.332547813653945923e-01 -1.050126105546951294e-01 -3.630959242582321167e-02
7.287000000000000000e+03 5.729379272460937500e+01 2.309884452819824219e+01 -1.148323640227317810e-01 2.958714723587036133e+00 8.531646728515625000e-01 1.070692420005798340e+00
7.288000000000000000e+03 5.727211380004882812e+01 2.395341682434082031e+01 -4.768438637256622314e-02 2.800978422164916992e+00 8.259881734848022461e-01 1.077260971069335938e+00
7.289000000000000000e+03 4.240921020507812500e+01 1.102726173400878906e+01 -4.853852987289428711e-01 5.694434046745300293e-02 -1.285322904586791992e-01 -3.007788956165313721e-01
7.290000000000000000e+03 6.350527191162109375e+01 2.435119247436523438e+01 -8.144802451133728027e-01 7.189989566802978516e+00 1.912652850151062012e+00 1.511658787727355957e+00
7.291000000000000000e+03 5.808706283569335938e+01 2.312019538879394531e+01 -1.399292647838592529e-01 3.377370357513427734e+00 9.712323546409606934e-01 1.200784802436828613e+00
7.292000000000000000e+03 3.990795135498046875e+01 1.581223607063293457e+00 -5.386753007769584656e-02 2.132809460163116455e-01 4.782402515411376953e-02 4.781768098473548889e-02
7.293000000000000000e+03 4.070947647094726562e+01 1.377055644989013672e+00 -1.656732894480228424e-02 3.298751413822174072e-01 9.399234503507614136e-02 7.945289462804794312e-02
7.294000000000000000e+03 3.868875503540039062e+01 2.644256591796875000e+00 -1.982471793889999390e-01 2.090044692158699036e-02 -5.320402234792709351e-02 -2.717288769781589508e-02
7.295000000000000000e+03 3.921926498413085938e+01 1.546022653579711914e+00 -8.208629488945007324e-02 1.127260178327560425e-01 9.191916324198246002e-03 3.397181630134582520e-02
7.296000000000000000e+03 4.778546142578125000e+01 1.385178565979003906e+01 -3.067810535430908203e-01 8.715373277664184570e-01 1.694268882274627686e-01 3.766353800892829895e-02
7.297000000000000000e+03 4.723402404785156250e+01 1.358250141143798828e+01 -3.197124898433685303e-01 7.658733129501342773e-01 1.338482350111007690e-01 -1.214484451338648796e-03
7.298000000000000000e+03 6.182510375976562500e+01 2.102414894104003906e+01 -6.352462768554687500e-01 5.654514312744140625e+00 1.505780339241027832e+00 1.185364246368408203e+00
7.299000000000000000e+03 5.771548843383789062e+01 6.482350349426269531e+00 -1.325510442256927490e-01 3.918130397796630859e+00 1.135673761367797852e+00 5.444234609603881836e-01
7.300000000000000000e+03 5.539027404785156250e+01 2.414990901947021484e+00 -4.956349264830350876e-03 3.331847667694091797e+00 9.980674386024475098e-01 4.655975401401519775e-01
7.301000000000000000e+03 6.135854339599609375e+01 1.946681594848632812e+01 -5.940203666687011719e-01 5.342212677001953125e+00 1.424457669258117676e+00 1.040898442268371582e+00
7.302000000000000000e+03 6.128056716918945312e+01 1.843873596191406250e+01 -5.800318717956542969e-01 5.263501167297363281e+00 1.405040740966796875e+00 9.575816988945007324e-01
7.303000000000000000e+03 4.319620513916015625e+01 6.161638259887695312e+00 -2.155177146196365356e-01 5.355241894721984863e-01 9.600193798542022705e-02 6.628904957324266434e-03
7.304000000000000000e+03 6.026379776000976562e+01 1.473364543914794922e+01 -4.364939630031585693e-01 4.723194599151611328e+00 1.286010265350341797e+00 7.612930536270141602e-01
7.305000000000000000e+03 4.795594787597656250e+01 -2.410201787948608398e+00 1.793433427810668945e-01 1.742691278457641602e+00 5.766103863716125488e-01 2.618650794029235840e-01
7.306000000000000000e+03 4.113749694824218750e+01 6.972829818725585938e+00 -3.555367588996887207e-01 1.443843543529510498e-01 -6.334572285413742065e-02 -1.577390283346176147e-01
7.307000000000000000e+03 4.344855880737304688e+01 1.673276066780090332e+00 2.494324743747711182e-02 7.681773304939270020e-01 2.379361838102340698e-01 1.466027647256851196e-01
7.308000000000000000e+03 5.657342147827148438e+01 8.383403778076171875e+00 -1.638790369033813477e-01 3.564621925354003906e+00 1.020222902297973633e+00 5.655615925788879395e-01
7.309000000000000000e+03 5.964962005615234375e+01 1.264269638061523438e+01 -3.519866764545440674e-01 4.497612476348876953e+00 1.243687748908996582e+00 6.877014040946960449e-01
7.310000000000000000e+03 5.962617111206054688e+01 1.201971721649169922e+01 -3.356464207172393799e-01 4.486514091491699219e+00 1.245260357856750488e+00 6.676636934280395508e-01
7.311000000000000000e+03 5.904996871948242188e+01 1.286691188812255859e+01 -3.362631201744079590e-01 4.320629596710205078e+00 1.195309877395629883e+00 6.956834793090820312e-01
7.312000000000000000e+03 5.779609680175781250e+01 7.209288120269775391e+00 -1.562250703573226929e-01 3.950722932815551758e+00 1.138349413871765137e+00 5.576432347297668457e-01
7.313000000000000000e+03 4.499370193481445312e+01 1.156740665435791016e+00 6.664064526557922363e-02 1.050316214561462402e+00 3.350870609283447266e-01 1.981056779623031616e-01
7.314000000000000000e+03 5.084805679321289062e+01 -1.725012898445129395e+00 1.364257484674453735e-01 2.336280107498168945e+00 7.418117523193359375e-01 3.325912356376647949e-01
7.315000000000000000e+03 5.947343444824218750e+01 1.407248878479003906e+01 -3.910661339759826660e-01 4.437901496887207031e+00 1.214050650596618652e+00 7.443714737892150879e-01
7.316000000000000000e+03 4.047868347167968750e+01 4.831116199493408203e+00 -2.703409492969512939e-01 1.681937277317047119e-01 -3.064416721463203430e-02 -7.719279080629348755e-02
7.317000000000000000e+03 4.062555313110351562e+01 5.998667478561401367e-01 3.930608555674552917e-02 3.324408233165740967e-01 1.115240752696990967e-01 9.209584444761276245e-02
7.318000000000000000e+03 5.692075347900390625e+01 -8.127780258655548096e-02 2.945440076291561127e-02 3.785408258438110352e+00 1.144458770751953125e+00 4.549143910408020020e-01
7.319000000000000000e+03 5.594741439819335938e+01 -6.359039306640625000e+00 1.023590639233589172e-01 3.608451366424560547e+00 1.113243103027343750e+00 3.554728925228118896e-01
7.320000000000000000e+03 5.398780822753906250e+01 -1.034796983003616333e-02 6.032558903098106384e-02 3.019387722015380859e+00 9.239140152931213379e-01 4.151320159435272217e-01
7.321000000000000000e+03 5.295467376708984375e+01 -3.353259325027465820e+00 1.258402168750762939e-01 2.863571643829345703e+00 8.968235254287719727e-01 3.540430963039398193e-01
7.322000000000000000e+03 5.708193969726562500e+01 9.388185501098632812e+00 -1.991459578275680542e-01 3.704596757888793945e+00 1.051635265350341797e+00 5.916337370872497559e-01
7.323000000000000000e+03 5.788682937622070312e+01 9.666603088378906250e+00 -2.242786437273025513e-01 3.943864583969116211e+00 1.115875720977783203e+00 6.052492260932922363e-01
7.324000000000000000e+03 5.647291564941406250e+01 7.020043134689331055e-01 1.255492959171533585e-02 3.633371591567993164e+00 1.093777894973754883e+00 4.555005431175231934e-01
7.325000000000000000e+03 5.528363037109375000e+01 -2.704382181167602539e+00 8.964439481496810913e-02 3.407094240188598633e+00 1.049021601676940918e+00 4.038113355636596680e-01
7.326000000000000000e+03 5.505335617065429688e+01 -5.730147838592529297e+00 1.159078255295753479e-01 3.392854928970336914e+00 1.052628874778747559e+00 3.530145883560180664e-01
7.327000000000000000e+03 5.685279083251953125e+01 7.667601585388183594e+00 -1.481579095125198364e-01 3.649929761886596680e+00 1.050531506538391113e+00 5.548849701881408691e-01
7.328000000000000000e+03 5.716764068603515625e+01 6.990562438964843750e+00 -1.369848996400833130e-01 3.736729383468627930e+00 1.079923272132873535e+00 5.437038540840148926e-01
7.329000000000000000e+03 5.589865875244140625e+01 1.513646364212036133e+00 1.013624668121337891e-02 3.497212409973144531e+00 1.052204608917236328e+00 4.670490920543670654e-01
7.330000000000000000e+03 5.199946212768554688e+01 -5.672996044158935547e+00 1.622054129838943481e-01 2.720244884490966797e+00 8.647350668907165527e-01 3.163424432277679443e-01
7.331000000000000000e+03 5.451137542724609375e+01 -6.684251785278320312e+00 1.201344057917594910e-01 3.274810314178466797e+00 1.018483400344848633e+00 3.355782628059387207e-01
7.332000000000000000e+03 4.728090286254882812e+01 -9.618466347455978394e-02 1.209192126989364624e-01 1.535864949226379395e+00 4.970352649688720703e-01 2.640030980110168457e-01
7.333000000000000000e+03 4.654064559936523438e+01 -3.857180476188659668e-01 1.314559727907180786e-01 1.396853208541870117e+00 4.584927260875701904e-01 2.404552847146987915e-01
7.334000000000000000e+03 5.479632186889648438e+01 -4.124286651611328125e+00 1.120845302939414978e-01 3.285678625106811523e+00 1.019328951835632324e+00 3.744829893112182617e-01
7.335000000000000000e+03 4.635712051391601562e+01 4.489890635013580322e-01 1.102543845772743225e-01 1.344206929206848145e+00 4.363383650779724121e-01 2.405964583158493042e-01
7.336000000000000000e+03 6.298701477050781250e+01 2.638674926757812500e+01 -4.765415787696838379e-01 7.049565315246582031e+00 1.971907138824462891e+00 2.131476402282714844e+00
7.337000000000000000e+03 6.140433120727539062e+01 2.621814727783203125e+01 -5.684533342719078064e-02 5.330694675445556641e+00 1.582154750823974609e+00 2.101875066757202148e+00
7.338000000000000000e+03 6.414221191406250000e+01 2.658215522766113281e+01 -8.162047863006591797e-01 8.362504005432128906e+00 2.263889551162719727e+00 1.862899422645568848e+00
7.339000000000000000e+03 6.036100006103515625e+01 2.524291801452636719e+01 -7.832573354244232178e-02 4.561059474945068359e+00 1.344820141792297363e+00 1.753051638603210449e+00
7.340000000000000000e+03 6.372289276123046875e+01 2.464091873168945312e+01 -8.490090966224670410e-01 7.389513969421386719e+00 1.962151527404785156e+00 1.523679137229919434e+00
7.341000000000000000e+03 5.985093688964843750e+01 2.465605735778808594e+01 -9.665769338607788086e-02 4.248605728149414062e+00 1.245584368705749512e+00 1.603726029396057129e+00
7.342000000000000000e+03 6.174274063110351562e+01 2.622559356689453125e+01 -1.352372616529464722e-01 5.688860893249511719e+00 1.666087031364440918e+00 2.137033939361572266e+00
7.343000000000000000e+03 4.877336502075195312e+01 1.477951431274414062e+01 -2.921634614467620850e-01 1.025693535804748535e+00 2.200590074062347412e-01 1.113235801458358765e-01
7.344000000000000000e+03 4.975769424438476562e+01 1.642300415039062500e+01 -3.015516400337219238e-01 1.104573607444763184e+00 2.409065961837768555e-01 1.600185930728912354e-01
7.345000000000000000e+03 6.092477035522460938e+01 2.534743499755859375e+01 -1.418633162975311279e-01 5.015412807464599609e+00 1.462064862251281738e+00 1.869359850883483887e+00
7.346000000000000000e+03 5.658881759643554688e+01 2.271765518188476562e+01 -1.285682171583175659e-01 2.676827669143676758e+00 7.644777894020080566e-01 9.517007470130920410e-01
7.347000000000000000e+03 6.346505737304687500e+01 2.604689788818359375e+01 -6.682853102684020996e-01 7.469688415527343750e+00 2.040421009063720703e+00 1.932947754859924316e+00
7.348000000000000000e+03 5.583078765869140625e+01 2.192263412475585938e+01 -1.625875383615493774e-01 2.470615148544311523e+00 6.924083232879638672e-01 8.284580707550048828e-01
7.349000000000000000e+03 5.880314254760742188e+01 2.399105453491210938e+01 -9.065593779087066650e-02 3.647657632827758789e+00 1.067100524902343750e+00 1.368591308593750000e+00
7.350000000000000000e+03 5.230216598510742188e+01 1.940834617614746094e+01 -2.642607092857360840e-01 1.487331151962280273e+00 3.669211268424987793e-01 3.744278252124786377e-01
7.351000000000000000e+03 4.960562896728515625e+01 1.539341735839843750e+01 -2.811213135719299316e-01 1.189144492149353027e+00 2.724069356918334961e-01 1.758900433778762817e-01
7.352000000000000000e+03 4.834075546264648438e+01 1.409804439544677734e+01 -2.965635955333709717e-01 9.735314846038818359e-01 2.030903548002243042e-01 8.398602157831192017e-02
7.353000000000000000e+03 4.426802825927734375e+01 9.907761573791503906e+00 -3.343395590782165527e-01 4.712061583995819092e-01 4.105998203158378601e-02 -9.375925362110137939e-02
7.354000000000000000e+03 4.324769210815429688e+01 8.497019767761230469e+00 -3.206940591335296631e-01 3.958901464939117432e-01 2.255882695317268372e-02 -9.818533062934875488e-02
7.355000000000000000e+03 5.644940185546875000e+01 2.322729492187500000e+01 -1.026009842753410339e-01 2.508356809616088867e+00 7.217267751693725586e-01 9.217252731323242188e-01
7.356000000000000000e+03 4.261756515502929688e+01 1.167779445648193359e+01 -4.905604422092437744e-01 4.025957360863685608e-02 -1.350902616977691650e-01 -3.207538723945617676e-01
7.357000000000000000e+03 4.333760070800781250e+01 9.708897590637207031e+00 -3.701020479202270508e-01 3.286893069744110107e-01 -1.242382172495126724e-02 -1.520864665508270264e-01
7.358000000000000000e+03 4.859606170654296875e+01 1.526815509796142578e+01 -3.112118244171142578e-01 9.314461946487426758e-01 1.860703080892562866e-01 7.323805242776870728e-02
7.359000000000000000e+03 5.254175949096679688e+01 1.976894760131835938e+01 -2.575338184833526611e-01 1.522006869316101074e+00 3.793419003486633301e-01 3.946300148963928223e-01
7.360000000000000000e+03 5.206869888305664062e+01 1.900941467285156250e+01 -2.718575298786163330e-01 1.467723846435546875e+00 3.587599098682403564e-01 3.525353670120239258e-01
7.361000000000000000e+03 6.265026092529296875e+01 2.583622550964355469e+01 -4.555730223655700684e-01 6.622645378112792969e+00 1.850121736526489258e+00 2.017735004425048828e+00
7.362000000000000000e+03 4.305385208129882812e+01 1.089132022857666016e+01 -4.430229067802429199e-01 1.574460715055465698e-01 -8.567304909229278564e-02 -2.439643293619155884e-01
7.363000000000000000e+03 6.384943771362304688e+01 2.625284385681152344e+01 -7.679402828216552734e-01 7.955772399902343750e+00 2.156349658966064453e+00 1.890202760696411133e+00
7.364000000000000000e+03 4.715922927856445312e+01 1.219648075103759766e+01 -2.877334654331207275e-01 8.865125775337219238e-01 1.796337366104125977e-01 4.538446292281150818e-02
7.365000000000000000e+03 4.858222198486328125e+01 1.360637855529785156e+01 -2.765198051929473877e-01 1.093043208122253418e+00 2.449570149183273315e-01 1.235265806317329407e-01
7.366000000000000000e+03 5.096487426757812500e+01 1.918484497070312500e+01 -3.044433295726776123e-01 1.100519180297851562e+00 2.388227581977844238e-01 2.075456827878952026e-01
7.367000000000000000e+03 4.514022064208984375e+01 1.229106140136718750e+01 -3.766898214817047119e-01 4.480474889278411865e-01 2.140729315578937531e-02 -1.345839798450469971e-01
7.368000000000000000e+03 4.570900344848632812e+01 1.239396381378173828e+01 -3.557888269424438477e-01 5.419796705245971680e-01 5.585725978016853333e-02 -9.315362572669982910e-02
7.369000000000000000e+03 5.055350494384765625e+01 1.703946113586425781e+01 -2.802653610706329346e-01 1.253045439720153809e+00 2.918339967727661133e-01 2.216822355985641479e-01
7.370000000000000000e+03 4.171672821044921875e+01 6.605682849884033203e+00 -3.035106360912322998e-01 2.627872228622436523e-01 -1.221702340990304947e-02 -1.012156605720520020e-01
7.371000000000000000e+03 4.127067184448242188e+01 6.147974014282226562e+00 -3.014232218265533447e-01 2.218826264142990112e-01 -2.386218123137950897e-02 -1.032706722617149353e-01
7.372000000000000000e+03 4.805266952514648438e+01 1.332209110260009766e+01 -2.847832739353179932e-01 9.851531386375427246e-01 2.101109623908996582e-01 8.122821152210235596e-02
7.373000000000000000e+03 3.924334716796875000e+01 4.705053329467773438e+00 -3.215000033378601074e-01 1.862029172480106354e-02 -9.086391329765319824e-02 -1.281190067529678345e-01
7.374000000000000000e+03 3.862987899780273438e+01 3.279354095458984375e+00 -2.547670900821685791e-01 -8.056449703872203827e-03 -7.884706556797027588e-02 -6.806528568267822266e-02
7.375000000000000000e+03 5.386131668090820312e+01 2.088095855712890625e+01 -2.197519242763519287e-01 1.820734024047851562e+00 4.802946150302886963e-01 5.470423698425292969e-01
7.376000000000000000e+03 5.397933959960937500e+01 1.977942466735839844e+01 -2.307469695806503296e-01 2.026052951812744141e+00 5.385917425155639648e-01 5.795646905899047852e-01
7.377000000000000000e+03 6.229954910278320312e+01 2.382908630371093750e+01 -6.053893566131591797e-01 6.169448375701904297e+00 1.669217705726623535e+00 1.554591059684753418e+00
7.378000000000000000e+03 5.451512145996093750e+01 2.076498031616210938e+01 -2.072548866271972656e-01 2.082886695861816406e+00 5.626895427703857422e-01 6.472321152687072754e-01
7.379000000000000000e+03 6.132176208496093750e+01 2.255182838439941406e+01 -5.158168077468872070e-01 5.394636631011962891e+00 1.463645935058593750e+00 1.419191360473632812e+00
7.380000000000000000e+03 5.067627334594726562e+01 1.873935890197753906e+01 -3.096796572208404541e-01 1.064286112785339355e+00 2.263819426298141479e-01 1.888233125209808350e-01
7.381000000000000000e+03 5.019073104858398438e+01 1.730758094787597656e+01 -3.001293540000915527e-01 1.111480355262756348e+00 2.434052973985671997e-01 1.696880459785461426e-01
7.382000000000000000e+03 3.939893722534179688e+01 3.238334417343139648e+00 -2.082261294126510620e-01 9.600809216499328613e-02 -3.366541117429733276e-02 -3.900007903575897217e-02
7.383000000000000000e+03 4.387162780761718750e+01 1.174472618103027344e+01 -4.248548150062561035e-01 2.571948468685150146e-01 -5.029798671603202820e-02 -2.176033556461334229e-01
7.384000000000000000e+03 4.388682556152343750e+01 9.411845207214355469e+00 -3.248532712459564209e-01 4.427435696125030518e-01 3.536709025502204895e-02 -9.761280566453933716e-02
7.385000000000000000e+03 4.035780334472656250e+01 5.600118160247802734e+00 -3.233413398265838623e-01 1.167826801538467407e-01 -6.196760013699531555e-02 -1.262202262878417969e-01
7.386000000000000000e+03 5.772384643554687500e+01 2.270633697509765625e+01 -1.544477492570877075e-01 3.252435684204101562e+00 9.293963909149169922e-01 1.130860090255737305e+00
7.387000000000000000e+03 6.083621215820312500e+01 2.001625442504882812e+01 -5.409371256828308105e-01 5.101663589477539062e+00 1.368217945098876953e+00 1.109244346618652344e+00
7.388000000000000000e+03 6.188299560546875000e+01 1.995868682861328125e+01 -6.441622376441955566e-01 5.625939846038818359e+00 1.494533181190490723e+00 1.056438207626342773e+00
7.389000000000000000e+03 4.697160720825195312e+01 5.794265866279602051e-01 1.034255772829055786e-01 1.441623210906982422e+00 4.635146260261535645e-01 2.565745413303375244e-01
7.390000000000000000e+03 4.429663848876953125e+01 1.435617804527282715e+00 5.650492757558822632e-02 9.195145368576049805e-01 2.928058207035064697e-01 1.719159930944442749e-01
7.391000000000000000e+03 5.737361907958984375e+01 2.229165840148925781e+01 -1.668921262025833130e-01 3.133635044097900391e+00 8.900228142738342285e-01 1.070060729980468750e+00
7.392000000000000000e+03 5.518493652343750000e+01 2.065836906433105469e+01 -2.097449749708175659e-01 2.385974168777465820e+00 6.528688073158264160e-01 7.408772706985473633e-01
7.393000000000000000e+03 6.071311569213867188e+01 1.805154991149902344e+01 -5.312859416007995605e-01 5.000591754913330078e+00 1.340791702270507812e+00 9.490620493888854980e-01
7.394000000000000000e+03 5.375371551513671875e+01 2.020896911621093750e+01 -2.296309322118759155e-01 1.876811981201171875e+00 4.941543042659759521e-01 5.462222695350646973e-01
7.395000000000000000e+03 4.938118362426757812e+01 -2.253690958023071289e+00 1.625265330076217651e-01 2.034634113311767578e+00 6.591481566429138184e-01 2.933079898357391357e-01
7.396000000000000000e+03 4.832329559326171875e+01 9.914824962615966797e-01 9.109207987785339355e-02 1.726114988327026367e+00 5.451621413230895996e-01 2.898362576961517334e-01
7.397000000000000000e+03 3.948785400390625000e+01 5.137377738952636719e+00 -3.433471322059631348e-01 2.552602067589759827e-02 -9.534633159637451172e-02 -1.417130827903747559e-01
7.398000000000000000e+03 4.298379516601562500e+01 3.979346513748168945e+00 -1.131721958518028259e-01 5.827825665473937988e-01 1.408831030130386353e-01 7.485301047563552856e-02
7.399000000000000000e+03 6.124675750732421875e+01 2.527494430541992188e+01 -2.145768404006958008e-01 5.263661384582519531e+00 1.514725446701049805e+00 1.862973332405090332e+00
7.400000000000000000e+03 6.300020599365234375e+01 2.415398025512695312e+01 -7.086254358291625977e-01 6.685700893402099609e+00 1.793122649192810059e+00 1.544168949127197266e+00
7.401000000000000000e+03 5.664925003051757812e+01 4.457399368286132812e+00 -6.937740743160247803e-02 3.640192508697509766e+00 1.071244478225708008e+00 5.098498463630676270e-01
7.402000000000000000e+03 4.369738388061523438e+01 1.023159885406494141e+01 -3.709497153759002686e-01 3.461261987686157227e-01 -7.447054609656333923e-03 -1.517624408006668091e-01
7.403000000000000000e+03 5.715631484985351562e+01 3.529584646224975586e+00 -5.245553702116012573e-02 3.779948711395263672e+00 1.118247985839843750e+00 5.063090324401855469e-01
7.404000000000000000e+03 5.946497726440429688e+01 1.469835948944091797e+01 -4.036127924919128418e-01 4.442421913146972656e+00 1.211642742156982422e+00 7.712985873222351074e-01
7.405000000000000000e+03 5.804248428344726562e+01 1.146541500091552734e+01 -2.719415426254272461e-01 3.977410554885864258e+00 1.111640691757202148e+00 6.512801647186279297e-01
7.406000000000000000e+03 5.846666336059570312e+01 1.309593391418457031e+01 -3.311668634414672852e-01 4.083340644836425781e+00 1.125652074813842773e+00 7.036349177360534668e-01
7.407000000000000000e+03 5.612863540649414062e+01 7.343064308166503906e+00 -1.311405599117279053e-01 3.452934503555297852e+00 9.965381622314453125e-01 5.450811982154846191e-01
7.408000000000000000e+03 4.535546875000000000e+01 1.737298369407653809e+00 4.693597555160522461e-02 1.099835276603698730e+00 3.440313935279846191e-01 2.002492398023605347e-01
7.409000000000000000e+03 4.357232284545898438e+01 7.861960887908935547e+00 -2.800341248512268066e-01 4.848885834217071533e-01 6.145634129643440247e-02 -4.968010634183883667e-02
7.410000000000000000e+03 4.560650634765625000e+01 1.125427365303039551e+00 8.000949025154113770e-02 1.172295331954956055e+00 3.756914436817169189e-01 2.200117558240890503e-01
7.411000000000000000e+03 4.628637695312500000e+01 1.279777407646179199e+00 7.636511325836181641e-02 1.300865054130554199e+00 4.131690263748168945e-01 2.354347705841064453e-01
7.412000000000000000e+03 5.885023880004882812e+01 1.177757740020751953e+01 -3.075670301914215088e-01 4.234710693359375000e+00 1.178143143653869629e+00 6.616709828376770020e-01
7.413000000000000000e+03 5.758129501342773438e+01 1.041178417205810547e+01 -2.351606488227844238e-01 3.844374179840087891e+00 1.082764029502868652e+00 6.200513839721679688e-01
7.414000000000000000e+03 5.885625839233398438e+01 1.407974243164062500e+01 -3.642294704914093018e-01 4.223515510559082031e+00 1.157785773277282715e+00 7.432600259780883789e-01
7.415000000000000000e+03 4.185932922363281250e+01 2.830602169036865234e+00 -7.613752782344818115e-02 4.595285058021545410e-01 1.150172874331474304e-01 6.502694636583328247e-02
7.416000000000000000e+03 4.912427902221679688e+01 -7.468195557594299316e-01 1.311470568180084229e-01 1.938249111175537109e+00 6.208188533782958984e-01 2.998714745044708252e-01
7.417000000000000000e+03 5.187833404541015625e+01 -2.026939153671264648e+00 1.225998997688293457e-01 2.593608856201171875e+00 8.148626685142517090e-01 3.491321206092834473e-01
7.418000000000000000e+03 6.010355758666992188e+01 1.774646949768066406e+01 -4.840013086795806885e-01 4.730762481689453125e+00 1.274028301239013672e+00 9.376144409179687500e-01
7.419000000000000000e+03 5.603377532958984375e+01 -5.305952206254005432e-02 3.781889751553535461e-02 3.537637472152709961e+00 1.072636961936950684e+00 4.405347704887390137e-01
7.420000000000000000e+03 5.629804992675781250e+01 9.107691764831542969e+00 -1.776087731122970581e-01 3.471879005432128906e+00 9.882810711860656738e-01 5.730730891227722168e-01
7.421000000000000000e+03 5.553744506835937500e+01 8.824693679809570312e+00 -1.586385667324066162e-01 3.252514362335205078e+00 9.281626939773559570e-01 5.552781820297241211e-01
7.422000000000000000e+03 5.184695816040039062e+01 -4.778082370758056641e+00 1.545569151639938354e-01 2.633934736251831055e+00 8.365474939346313477e-01 3.203283548355102539e-01
7.423000000000000000e+03 5.564355468750000000e+01 -4.873476028442382812e+00 9.967885911464691162e-02 3.520303010940551758e+00 1.085994601249694824e+00 3.709938824176788330e-01
7.424000000000000000e+03 5.626683425903320312e+01 -4.139298439025878906e+00 8.432848006486892700e-02 3.639772653579711914e+00 1.117230415344238281e+00 3.869825601577758789e-01
7.425000000000000000e+03 5.503762435913085938e+01 5.969398468732833862e-02 5.196819081902503967e-02 3.291299104690551758e+00 1.002980232238769531e+00 4.288735389709472656e-01
7.426000000000000000e+03 5.302573776245117188e+01 -1.076964735984802246e+00 8.915971964597702026e-02 2.832698345184326172e+00 8.765574097633361816e-01 3.836252689361572266e-01
7.427000000000000000e+03 5.542480850219726562e+01 -7.343576431274414062e+00 1.033098399639129639e-01 3.493316173553466797e+00 1.078987836837768555e+00 3.353015780448913574e-01
7.428000000000000000e+03 5.408967971801757812e+01 -5.024112701416015625e+00 1.257880628108978271e-01 3.148547649383544922e+00 9.823007583618164062e-01 3.532046079635620117e-01
7.429000000000000000e+03 5.678333663940429688e+01 2.087308645248413086e+00 -1.203621551394462585e-02 3.707921028137207031e+00 1.108765363693237305e+00 4.790251553058624268e-01
7.430000000000000000e+03 6.193634414672851562e+01 2.481482505798339844e+01 -4.324202239513397217e-01 5.918224334716796875e+00 1.645741224288940430e+00 1.794818520545959473e+00
7.431000000000000000e+03 6.404484558105468750e+01 2.584305763244628906e+01 -8.461989164352416992e-01 8.014299392700195312e+00 2.150430202484130859e+00 1.736344099044799805e+00
7.432000000000000000e+03 6.190917968750000000e+01 2.556006622314453125e+01 -3.178897798061370850e-01 5.855073928833007812e+00 1.661155223846435547e+00 1.951082706451416016e+00
7.433000000000000000e+03 5.577941513061523438e+01 2.237658309936523438e+01 -1.435461789369583130e-01 2.386477470397949219e+00 6.728793978691101074e-01 8.240922689437866211e-01
7.434000000000000000e+03 5.529701232910156250e+01 2.136798286437988281e+01 -1.866959333419799805e-01 2.315586805343627930e+00 6.386672258377075195e-01 7.551945447921752930e-01
7.435000000000000000e+03 5.016275787353515625e+01 1.795953559875488281e+01 -3.127135932445526123e-01 1.019333839416503906e+00 2.119860649108886719e-01 1.473627686500549316e-01
7.436000000000000000e+03 6.225791549682617188e+01 2.571801567077636719e+01 -3.785594999790191650e-01 6.236413478851318359e+00 1.757356166839599609e+00 2.006123781204223633e+00
7.437000000000000000e+03 6.116543197631835938e+01 2.566632080078125000e+01 -1.318574547767639160e-01 5.172808647155761719e+00 1.512285351753234863e+00 1.949355125427246094e+00
7.438000000000000000e+03 5.957707977294921875e+01 2.411110115051269531e+01 -1.428669840097427368e-01 4.135838508605957031e+00 1.197891473770141602e+00 1.499377489089965820e+00
7.439000000000000000e+03 5.138184356689453125e+01 1.887963676452636719e+01 -2.900494337081909180e-01 1.267448067665100098e+00 2.932195961475372314e-01 2.698523700237274170e-01
7.440000000000000000e+03 4.992522048950195312e+01 1.690062713623046875e+01 -3.020304143428802490e-01 1.084113955497741699e+00 2.346250563859939575e-01 1.613090336322784424e-01
7.441000000000000000e+03 5.082365036010742188e+01 1.803674697875976562e+01 -2.936399281024932861e-01 1.190695524215698242e+00 2.691166698932647705e-01 2.313221693038940430e-01
7.442000000000000000e+03 5.489692687988281250e+01 2.108134460449218750e+01 -1.961958408355712891e-01 2.183788299560546875e+00 5.962777733802795410e-01 6.969794631004333496e-01
7.443000000000000000e+03 5.422945022583007812e+01 2.118803024291992188e+01 -2.113451808691024780e-01 1.905874133110046387e+00 5.083587169647216797e-01 5.914390683174133301e-01
7.444000000000000000e+03 4.908641052246093750e+01 1.545085239410400391e+01 -2.950638234615325928e-01 1.009450912475585938e+00 2.143161296844482422e-01 1.072404310107231140e-01
7.445000000000000000e+03 5.025503158569335938e+01 1.633606529235839844e+01 -2.868547141551971436e-01 1.219763040542602539e+00 2.798724770545959473e-01 2.124580293893814087e-01
7.446000000000000000e+03 6.007709884643554688e+01 2.375561141967773438e+01 -2.420691102743148804e-01 4.497660160064697266e+00 1.276677250862121582e+00 1.518319368362426758e+00
7.447000000000000000e+03 5.350007629394531250e+01 2.060369682312011719e+01 -2.327885627746582031e-01 1.731486558914184570e+00 4.496093988418579102e-01 5.042046308517456055e-01
7.448000000000000000e+03 4.349601364135742188e+01 1.096984481811523438e+01 -4.137211740016937256e-01 2.582251429557800293e-01 -4.664880782365798950e-02 -2.069160342216491699e-01
7.449000000000000000e+03 4.890417098999023438e+01 1.429322624206542969e+01 -2.835499346256256104e-01 1.100007891654968262e+00 2.449373751878738403e-01 1.355971843004226685e-01
7.450000000000000000e+03 5.845326614379882812e+01 2.354601478576660156e+01 -1.202216669917106628e-01 3.513487339019775391e+00 1.017979621887207031e+00 1.281040906906127930e+00
7.451000000000000000e+03 4.630861663818359375e+01 1.256902885437011719e+01 -3.323432207107543945e-01 6.637385487556457520e-01 9.941859543323516846e-02 -4.975057393312454224e-02
7.452000000000000000e+03 4.584736633300781250e+01 1.177286720275878906e+01 -3.317950665950775146e-01 6.311880350112915039e-01 8.981788903474807739e-02 -5.239900946617126465e-02
7.453000000000000000e+03 4.369852447509765625e+01 8.319458961486816406e+00 -2.936152219772338867e-01 4.846673905849456787e-01 5.731564387679100037e-02 -6.230027973651885986e-02
7.454000000000000000e+03 4.414622497558593750e+01 8.300072669982910156e+00 -2.723772823810577393e-01 5.612441301345825195e-01 8.666005730628967285e-02 -3.192523866891860962e-02
7.455000000000000000e+03 6.364182662963867188e+01 2.562767791748046875e+01 -7.557581663131713867e-01 7.574099540710449219e+00 2.045502424240112305e+00 1.790862560272216797e+00
7.456000000000000000e+03 6.359803771972656250e+01 2.658274459838867188e+01 -6.489099860191345215e-01 7.794931888580322266e+00 2.143806457519531250e+00 2.075052261352539062e+00
7.457000000000000000e+03 5.306384277343750000e+01 1.979272842407226562e+01 -2.450109571218490601e-01 1.693172097206115723e+00 4.344483315944671631e-01 4.675621688365936279e-01
7.458000000000000000e+03 5.413514709472656250e+01 2.046946334838867188e+01 -2.218959629535675049e-01 1.979705810546875000e+00 5.273429751396179199e-01 5.936069488525390625e-01
7.459000000000000000e+03 5.850883102416992188e+01 2.269607543945312500e+01 -1.957791596651077271e-01 3.677416801452636719e+00 1.044491291046142578e+00 1.239128828048706055e+00
7.460000000000000000e+03 4.691641235351562500e+01 1.277938175201416016e+01 -3.099977076053619385e-01 7.755256295204162598e-01 1.396583765745162964e-01 2.493478124961256981e-03
7.461000000000000000e+03 4.888635253906250000e+01 1.314686584472656250e+01 -2.562901973724365234e-01 1.204360127449035645e+00 2.844209969043731689e-01 1.580919325351715088e-01
7.462000000000000000e+03 4.518772506713867188e+01 1.168444442749023438e+01 -3.537745177745819092e-01 5.131989717483520508e-01 4.782732948660850525e-02 -1.030162200331687927e-01
7.463000000000000000e+03 5.270437622070312500e+01 1.918267059326171875e+01 -2.556900680065155029e-01 1.644797682762145996e+00 4.167322814464569092e-01 4.291152060031890869e-01
7.464000000000000000e+03 3.978056716918945312e+01 4.449551105499267578e+00 -2.790498435497283936e-01 9.234566241502761841e-02 -5.601125210523605347e-02 -9.166557341814041138e-02
7.465000000000000000e+03 4.003992080688476562e+01 2.340547800064086914e+00 -1.093957200646400452e-01 2.071667462587356567e-01 2.933130972087383270e-02 2.517257817089557648e-02
7.466000000000000000e+03 4.330410003662109375e+01 6.773412227630615234e+00 -2.332461625337600708e-01 5.165330171585083008e-01 8.498606085777282715e-02 -1.500712707638740540e-02
7.467000000000000000e+03 3.955043792724609375e+01 3.890839576721191406e+00 -2.473782300949096680e-01 8.599857240915298462e-02 -4.841389879584312439e-02 -6.733316928148269653e-02
7.468000000000000000e+03 5.123048782348632812e+01 1.771356201171875000e+01 -2.818682193756103516e-01 1.361958026885986328e+00 3.240269422531127930e-01 2.818298041820526123e-01
7.469000000000000000e+03 6.385844421386718750e+01 2.522607994079589844e+01 -8.448831439018249512e-01 7.654198169708251953e+00 2.042794466018676758e+00 1.625077843666076660e+00
7.470000000000000000e+03 4.075981140136718750e+01 5.839726924896240234e+00 -3.130405545234680176e-01 1.596047133207321167e-01 -4.603075608611106873e-02 -1.145588085055351257e-01
7.471000000000000000e+03 4.485628509521484375e+01 3.487883567810058594e+00 -3.240536525845527649e-02 9.530766010284423828e-01 2.762013673782348633e-01 1.580228507518768311e-01
7.472000000000000000e+03 4.474131011962890625e+01 2.150359392166137695e+00 2.070637606084346771e-02 9.784893989562988281e-01 2.997587323188781738e-01 1.848459392786026001e-01
7.473000000000000000e+03 5.700397109985351562e+01 2.264082336425781250e+01 -1.407596468925476074e-01 2.881349325180053711e+00 8.221769332885742188e-01 1.015166401863098145e+00
7.474000000000000000e+03 6.272274780273437500e+01 2.385475540161132812e+01 -6.737744212150573730e-01 6.429446697235107422e+00 1.726701736450195312e+00 1.539134144783020020e+00
7.475000000000000000e+03 6.316787719726562500e+01 2.459020805358886719e+01 -7.156873941421508789e-01 6.912977695465087891e+00 1.859187006950378418e+00 1.614016890525817871e+00
7.476000000000000000e+03 6.194681549072265625e+01 2.409170532226562500e+01 -4.930103123188018799e-01 5.896161079406738281e+00 1.620945215225219727e+00 1.643889069557189941e+00
7.477000000000000000e+03 6.208212280273437500e+01 2.335766792297363281e+01 -5.957514643669128418e-01 5.984978675842285156e+00 1.616768121719360352e+00 1.496614217758178711e+00
7.478000000000000000e+03 5.671724319458007812e+01 2.227324867248535156e+01 -1.631360650062561035e-01 2.820271968841552734e+00 7.971407771110534668e-01 9.620207548141479492e-01
7.479000000000000000e+03 4.156368255615234375e+01 5.598480701446533203e+00 -2.583517730236053467e-01 2.919338643550872803e-01 1.007462386041879654e-02 -6.079541891813278198e-02
7.480000000000000000e+03 4.097510528564453125e+01 5.389154911041259766e+00 -2.776855826377868652e-01 2.080550789833068848e-01 -2.088915742933750153e-02 -8.375230431556701660e-02
7.481000000000000000e+03 4.211043167114257812e+01 3.583037614822387695e+00 -1.145535260438919067e-01 4.734314680099487305e-01 1.076633855700492859e-01 4.974922165274620056e-02
7.482000000000000000e+03 6.037583923339843750e+01 1.858718109130859375e+01 -5.126015543937683105e-01 4.853197097778320312e+00 1.302178740501403809e+00 9.939541816711425781e-01
7.483000000000000000e+03 6.038131332397460938e+01 1.950686836242675781e+01 -5.055723190307617188e-01 4.868402004241943359e+00 1.308848857879638672e+00 1.075605273246765137e+00
7.484000000000000000e+03 4.928601837158203125e+01 1.501948833465576172e+01 -2.850527167320251465e-01 1.138272285461425781e+00 2.559658586978912354e-01 1.459887474775314331e-01
7.485000000000000000e+03 4.836030960083007812e+01 1.281964683532714844e+01 -2.605000138282775879e-01 1.106926798820495605e+00 2.539280354976654053e-01 1.265121996402740479e-01
7.486000000000000000e+03 4.922114562988281250e+01 1.271131134033203125e+01 -2.324766665697097778e-01 1.321835398674011230e+00 3.268076181411743164e-01 1.994936466217041016e-01
7.487000000000000000e+03 4.338623046875000000e+01 1.147523593902587891e+01 -4.396986663341522217e-01 1.941629946231842041e-01 -7.366070151329040527e-02 -2.437969744205474854e-01
7.488000000000000000e+03 5.989894104003906250e+01 1.620408248901367188e+01 -4.491176605224609375e-01 4.627327919006347656e+00 1.253463149070739746e+00 8.377654552459716797e-01
7.489000000000000000e+03 4.970950317382812500e+01 1.589191818237304688e+01 -2.816846072673797607e-01 1.156139969825744629e+00 2.623366117477416992e-01 1.718293130397796631e-01
7.490000000000000000e+03 4.499542236328125000e+01 2.792728662490844727e+00 7.964069023728370667e-03 1.009246110916137695e+00 3.051630556583404541e-01 1.813235580921173096e-01
7.491000000000000000e+03 5.492638397216796875e+01 1.110634326934814453e+00 3.050414659082889557e-02 3.245066642761230469e+00 9.826712012290954590e-01 4.394184350967407227e-01
7.492000000000000000e+03 5.617907333374023438e+01 3.010882616043090820e+00 -2.530043013393878937e-02 3.529583215713500977e+00 1.051284790039062500e+00 4.839910566806793213e-01
7.493000000000000000e+03 6.079562377929687500e+01 2.107798385620117188e+01 -5.135349035263061523e-01 5.089084148406982422e+00 1.372664690017700195e+00 1.230697393417358398e+00
7.494000000000000000e+03 6.026398849487304688e+01 2.054306030273437500e+01 -4.685543179512023926e-01 4.785211086273193359e+00 1.294996976852416992e+00 1.167314529418945312e+00
7.495000000000000000e+03 5.679327774047851562e+01 1.011470890045166016e+01 -2.110211402177810669e-01 3.605041027069091797e+00 1.018206000328063965e+00 6.020413041114807129e-01
7.496000000000000000e+03 5.572214889526367188e+01 6.201972007751464844e+00 -9.478269517421722412e-02 3.371913909912109375e+00 9.831393957138061523e-01 5.199680924415588379e-01
7.497000000000000000e+03 4.394878387451171875e+01 8.679595947265625000e+00 -3.003324866294860840e-01 5.061157941818237305e-01 6.173498928546905518e-02 -6.085246801376342773e-02
7.498000000000000000e+03 4.435324478149414062e+01 1.133538818359375000e+01 -3.830039501190185547e-01 3.752593398094177246e-01 -2.323387656360864639e-03 -1.586644202470779419e-01
7.499000000000000000e+03 5.648490524291992188e+01 1.083131980895996094e+01 -2.196704447269439697e-01 3.495085716247558594e+00 9.826245903968811035e-01 6.113731265068054199e-01
7.500000000000000000e+03 5.308012008666992188e+01 -6.939282894134521484e+00 1.440621763467788696e-01 2.940197229385375977e+00 9.252778291702270508e-01 3.045938909053802490e-01
7.501000000000000000e+03 5.725387191772460938e+01 1.115060234069824219e+01 -2.442959994077682495e-01 3.729970932006835938e+00 1.045702457427978516e+00 6.328952312469482422e-01
7.502000000000000000e+03 5.536481475830078125e+01 7.023228645324707031e+00 -1.175509020686149597e-01 3.255167484283447266e+00 9.412849545478820801e-01 5.284016132354736328e-01
7.503000000000000000e+03 5.652207946777343750e+01 6.585197448730468750e+00 -1.246734559535980225e-01 3.571959495544433594e+00 1.034185767173767090e+00 5.409254431724548340e-01
7.504000000000000000e+03 4.993304061889648438e+01 -1.282459378242492676e+00 1.322317123413085938e-01 2.129606962203979492e+00 6.785516142845153809e-01 3.173200786113739014e-01
7.505000000000000000e+03 5.460213851928710938e+01 3.727377653121948242e+00 -2.114991843700408936e-02 3.119763851165771484e+00 9.295842051506042480e-01 4.730288088321685791e-01
7.506000000000000000e+03 5.726596450805664062e+01 1.298140907287597656e+01 -2.861672043800354004e-01 3.705145120620727539e+00 1.025693416595458984e+00 6.834040284156799316e-01
7.507000000000000000e+03 5.508639144897460938e+01 7.803369522094726562e+00 -1.285324543714523315e-01 3.164302587509155273e+00 9.107310175895690918e-01 5.300609469413757324e-01
7.508000000000000000e+03 5.875426483154296875e+01 1.459751701354980469e+01 -3.683553338050842285e-01 4.183366298675537109e+00 1.144503235816955566e+00 7.674981355667114258e-01
7.509000000000000000e+03 5.835988235473632812e+01 1.388685131072998047e+01 -3.383224606513977051e-01 4.045085430145263672e+00 1.112028956413269043e+00 7.394821047782897949e-01
7.510000000000000000e+03 5.208159637451171875e+01 -1.004503726959228516e+00 1.021397560834884644e-01 2.617787122726440430e+00 8.159780502319335938e-01 3.761138617992401123e-01
7.511000000000000000e+03 4.087545394897460938e+01 2.183453321456909180e+00 -6.291831284761428833e-02 3.373238146305084229e-01 8.232165127992630005e-02 5.596246570348739624e-02
7.512000000000000000e+03 4.018603134155273438e+01 3.067568063735961914e+00 -1.560082733631134033e-01 2.069094032049179077e-01 1.527033932507038116e-02 1.620300812646746635e-03
7.513000000000000000e+03 5.998113250732421875e+01 1.902181816101074219e+01 -4.686916768550872803e-01 4.656416893005371094e+00 1.256317615509033203e+00 1.035769581794738770e+00
7.514000000000000000e+03 5.297361755371093750e+01 -2.153553485870361328e+00 1.124631315469741821e-01 2.844299554824829102e+00 8.870288133621215820e-01 3.770492970943450928e-01
7.515000000000000000e+03 5.582337188720703125e+01 8.089456558227539062e+00 -1.434150934219360352e-01 3.350587129592895508e+00 9.621515870094299316e-01 5.487563610076904297e-01
7.516000000000000000e+03 5.303355789184570312e+01 -6.591748446226119995e-02 7.354126870632171631e-02 2.810342311859130859e+00 8.651650547981262207e-01 3.973257839679718018e-01
7.517000000000000000e+03 5.500590896606445312e+01 -9.848081469535827637e-01 6.364001333713531494e-02 3.284587144851684570e+00 1.004468202590942383e+00 4.118897318840026855e-01
7.518000000000000000e+03 5.422761535644531250e+01 -3.157505273818969727e+00 1.089999973773956299e-01 3.157015085220336914e+00 9.798045158386230469e-01 3.720616996288299561e-01
7.519000000000000000e+03 4.787783432006835938e+01 3.798804581165313721e-01 1.088354736566543579e-01 1.652513146400451660e+00 5.284045934677124023e-01 2.745567262172698975e-01
7.520000000000000000e+03 5.521247100830078125e+01 4.977166175842285156e+00 -6.329894810914993286e-02 3.244271516799926758e+00 9.542917609214782715e-01 4.992474019527435303e-01
7.521000000000000000e+03 5.563684082031250000e+01 4.000215053558349609e+00 -4.411417618393898010e-02 3.374501705169677734e+00 9.991163015365600586e-01 4.877269864082336426e-01
7.522000000000000000e+03 5.254816818237304688e+01 -9.120229721069335938e+00 1.514205038547515869e-01 2.900481939315795898e+00 9.155707359313964844e-01 2.570610642433166504e-01
7.523000000000000000e+03 5.500859832763671875e+01 -1.915616750717163086e+00 7.182455062866210938e-02 3.305833101272583008e+00 1.013297319412231445e+00 4.047800302505493164e-01
7.524000000000000000e+03 6.321447372436523438e+01 2.540859603881835938e+01 -6.642190814018249512e-01 7.097001552581787109e+00 1.929834723472595215e+00 1.812309741973876953e+00
7.525000000000000000e+03 6.267886734008789062e+01 2.427624702453613281e+01 -6.304621696472167969e-01 6.438509941101074219e+00 1.742414355278015137e+00 1.639817833900451660e+00
7.526000000000000000e+03 6.033980178833007812e+01 2.435305404663085938e+01 -1.993019133806228638e-01 4.652783393859863281e+00 1.336044430732727051e+00 1.616508841514587402e+00
7.527000000000000000e+03 5.575086593627929688e+01 2.141591262817382812e+01 -1.916411221027374268e-01 2.501667022705078125e+00 6.930077672004699707e-01 8.152853846549987793e-01
7.528000000000000000e+03 5.789453125000000000e+01 1.344138526916503906e+01 -3.144134879112243652e-01 3.899325370788574219e+00 1.075473546981811523e+00 7.139341831207275391e-01
7.529000000000000000e+03 5.983309936523437500e+01 1.993514060974121094e+01 -4.479622840881347656e-01 4.578060150146484375e+00 1.239029288291931152e+00 1.105208396911621094e+00
7.530000000000000000e+03 5.914959335327148438e+01 2.077171325683593750e+01 -3.654976487159729004e-01 4.217169284820556641e+00 1.155501484870910645e+00 1.148719310760498047e+00
7.531000000000000000e+03 5.480690002441406250e+01 2.031826400756835938e+01 -2.191282510757446289e-01 2.258021593093872070e+00 6.116679906845092773e-01 6.880249381065368652e-01
7.532000000000000000e+03 5.317246627807617188e+01 1.905109596252441406e+01 -2.430974245071411133e-01 1.829685688018798828e+00 4.759764671325683594e-01 4.943820238113403320e-01
7.533000000000000000e+03 5.416582107543945312e+01 1.932935523986816406e+01 -2.339759916067123413e-01 2.156570434570312500e+00 5.767783522605895996e-01 6.109674572944641113e-01
7.534000000000000000e+03 6.345545959472656250e+01 2.496859359741210938e+01 -7.607418894767761230e-01 7.225835800170898438e+00 1.939528107643127441e+00 1.663495421409606934e+00
7.535000000000000000e+03 5.925594329833984375e+01 2.360015869140625000e+01 -1.740790009498596191e-01 3.992561578750610352e+00 1.145544767379760742e+00 1.405994057655334473e+00
7.536000000000000000e+03 4.500090789794921875e+01 1.105988121032714844e+01 -3.403271734714508057e-01 5.343036055564880371e-01 5.819293856620788574e-02 -8.789236843585968018e-02
7.537000000000000000e+03 4.463928222656250000e+01 1.224146938323974609e+01 -3.948981761932373047e-01 3.623272478580474854e-01 -9.771275334060192108e-03 -1.788310855627059937e-01
7.538000000000000000e+03 5.077911758422851562e+01 1.668137550354003906e+01 -2.689719796180725098e-01 1.365132212638854980e+00 3.288480639457702637e-01 2.595818042755126953e-01
7.539000000000000000e+03 4.907109451293945312e+01 1.386552143096923828e+01 -2.769576013088226318e-01 1.186057209968566895e+00 2.727298736572265625e-01 1.568271070718765259e-01
7.540000000000000000e+03 4.971079635620117188e+01 1.467086601257324219e+01 -2.624490261077880859e-01 1.255905747413635254e+00 2.980370223522186279e-01 1.921706646680831909e-01
7.541000000000000000e+03 5.284909820556640625e+01 1.954355049133300781e+01 -2.484462857246398926e-01 1.656554579734802246e+00 4.224324822425842285e-01 4.397989213466644287e-01
7.542000000000000000e+03 5.303091812133789062e+01 1.855847358703613281e+01 -2.500817179679870605e-01 1.834958553314208984e+00 4.754630625247955322e-01 4.845188260078430176e-01
7.543000000000000000e+03 5.964392852783203125e+01 1.689580726623535156e+01 -4.463003277778625488e-01 4.518625736236572266e+00 1.221697568893432617e+00 8.793330192565917969e-01
7.544000000000000000e+03 5.962288665771484375e+01 1.860092735290527344e+01 -4.460545778274536133e-01 4.480923652648925781e+00 1.210460782051086426e+00 9.952353835105895996e-01
7.545000000000000000e+03 6.029884719848632812e+01 2.164775657653808594e+01 -4.348438680171966553e-01 4.797214031219482422e+00 1.308710932731628418e+00 1.283316135406494141e+00
7.546000000000000000e+03 5.849327850341796875e+01 2.185255622863769531e+01 -2.632221877574920654e-01 3.775310516357421875e+00 1.053626537322998047e+00 1.175867915153503418e+00
7.547000000000000000e+03 4.723915481567382812e+01 1.162590122222900391e+01 -2.698493003845214844e-01 9.498026371002197266e-01 2.039860039949417114e-01 6.671442091464996338e-02
7.548000000000000000e+03 6.080815124511718750e+01 2.217807960510253906e+01 -4.667931199073791504e-01 5.091319561004638672e+00 1.387357950210571289e+00 1.357432126998901367e+00
7.549000000000000000e+03 6.125171279907226562e+01 2.315808105468750000e+01 -4.555510282516479492e-01 5.367525100708007812e+00 1.473592162132263184e+00 1.494706869125366211e+00
7.550000000000000000e+03 5.166066741943359375e+01 1.734798431396484375e+01 -2.647037506103515625e-01 1.545652627944946289e+00 3.842846751213073730e-01 3.490485548973083496e-01
7.551000000000000000e+03 4.397016906738281250e+01 6.723190307617187500e+00 -2.080909013748168945e-01 6.403954625129699707e-01 1.296913772821426392e-01 2.913825400173664093e-02
7.552000000000000000e+03 4.402330017089843750e+01 7.257550716400146484e+00 -2.266428470611572266e-01 6.080082654953002930e-01 1.144096255302429199e-01 9.793194010853767395e-03
7.553000000000000000e+03 6.127451705932617188e+01 2.412187957763671875e+01 -3.772552013397216797e-01 5.376443862915039062e+00 1.499756693840026855e+00 1.652920484542846680e+00
7.554000000000000000e+03 5.088656997680664062e+01 1.733716964721679688e+01 -2.844950556755065918e-01 1.293978810310363770e+00 3.028451204299926758e-01 2.563589811325073242e-01
7.555000000000000000e+03 4.398696517944335938e+01 6.101716518402099609e+00 -1.806666553020477295e-01 6.692358851432800293e-01 1.465707570314407349e-01 4.903534054756164551e-02
7.556000000000000000e+03 5.006157302856445312e+01 1.507902526855468750e+01 -2.654361128807067871e-01 1.311467647552490234e+00 3.138094842433929443e-01 2.269036918878555298e-01
7.557000000000000000e+03 5.030026245117187500e+01 1.590534114837646484e+01 -2.650684416294097900e-01 1.298650622367858887e+00 3.100746572017669678e-01 2.347924709320068359e-01
7.558000000000000000e+03 5.252097702026367188e+01 1.876020622253417969e+01 -2.576149404048919678e-01 1.639091372489929199e+00 4.144429266452789307e-01 4.194739460945129395e-01
7.559000000000000000e+03 5.181800842285156250e+01 1.858135986328125000e+01 -2.705228030681610107e-01 1.437525033950805664e+00 3.501006662845611572e-01 3.330999314785003662e-01
7.560000000000000000e+03 4.106661987304687500e+01 4.841830730438232422e+00 -2.327617853879928589e-01 2.532131671905517578e-01 6.135408766567707062e-03 -4.499820992350578308e-02
7.561000000000000000e+03 4.268478775024414062e+01 2.632923364639282227e+00 -4.189423471689224243e-02 6.033077836036682129e-01 1.684240698814392090e-01 1.001866236329078674e-01
7.562000000000000000e+03 4.779954910278320312e+01 1.245694065093994141e+01 -2.718275487422943115e-01 1.000872492790222168e+00 2.187134623527526855e-01 9.029058367013931274e-02
7.563000000000000000e+03 5.036573028564453125e+01 1.399583435058593750e+01 -2.402894943952560425e-01 1.498719573020935059e+00 3.775290250778198242e-01 2.716510891914367676e-01
7.564000000000000000e+03 4.010846328735351562e+01 5.318661689758300781e+00 -3.188509643077850342e-01 9.335583448410034180e-02 -6.764853745698928833e-02 -1.198468580842018127e-01
7.565000000000000000e+03 4.027881240844726562e+01 3.720881223678588867e+00 -1.913287192583084106e-01 1.992809027433395386e-01 2.385657746344804764e-03 -2.557611651718616486e-02
7.566000000000000000e+03 4.429201507568359375e+01 2.662270069122314453e+00 -8.473564870655536652e-03 8.702834844589233398e-01 2.585429847240447998e-01 1.518029421567916870e-01
7.567000000000000000e+03 4.944099426269531250e+01 1.421371555328369141e+01 -2.755589783191680908e-01 1.238151788711547852e+00 2.887778580188751221e-01 1.821951568126678467e-01
7.568000000000000000e+03 5.941358566284179688e+01 1.757425308227539062e+01 -4.347465336322784424e-01 4.412152290344238281e+00 1.193221688270568848e+00 9.206777215003967285e-01
7.569000000000000000e+03 5.810534667968750000e+01 1.437473964691162109e+01 -3.405953943729400635e-01 3.956979036331176758e+00 1.084915041923522949e+00 7.460241317749023438e-01
7.570000000000000000e+03 5.859341430664062500e+01 1.518342685699462891e+01 -3.733313977718353271e-01 4.123514652252197266e+00 1.125054955482482910e+00 7.866551280021667480e-01
7.571000000000000000e+03 5.573546218872070312e+01 1.051714515686035156e+01 -1.996343284845352173e-01 3.272741556167602539e+00 9.219321608543395996e-01 5.865308642387390137e-01
7.572000000000000000e+03 5.914608764648437500e+01 1.601244354248046875e+01 -4.067339003086090088e-01 4.327516078948974609e+00 1.176234602928161621e+00 8.269926309585571289e-01
7.573000000000000000e+03 5.467812728881835938e+01 1.952498435974121094e+01 -2.298669666051864624e-01 2.323322057723999023e+00 6.280365586280822754e-01 6.760461330413818359e-01
7.574000000000000000e+03 4.464003753662109375e+01 1.046435546875000000e+01 -3.328458666801452637e-01 5.110562443733215332e-01 5.346310511231422424e-02 -9.060294926166534424e-02
7.575000000000000000e+03 5.466633987426757812e+01 2.012203931808471680e+00 1.243518572300672531e-02 3.177379369735717773e+00 9.569444060325622559e-01 4.438267350196838379e-01
7.576000000000000000e+03 4.843558883666992188e+01 -1.800870150327682495e-01 1.211590692400932312e-01 1.785798668861389160e+00 5.720872879028320312e-01 2.912827432155609131e-01
7.577000000000000000e+03 5.152899169921875000e+01 9.030098468065261841e-02 8.905243873596191406e-02 2.442386865615844727e+00 7.594317793846130371e-01 3.765591084957122803e-01
7.578000000000000000e+03 5.389856719970703125e+01 9.787963628768920898e-01 4.871707782149314880e-02 2.996783733367919922e+00 9.136502146720886230e-01 4.215848147869110107e-01
7.579000000000000000e+03 5.649676132202148438e+01 1.261314010620117188e+01 -2.568851411342620850e-01 3.442649841308593750e+00 9.557293653488159180e-01 6.507433056831359863e-01
7.580000000000000000e+03 5.689785003662109375e+01 1.188521289825439453e+01 -2.514011263847351074e-01 3.595733880996704102e+00 1.003299832344055176e+00 6.461751461029052734e-01
7.581000000000000000e+03 5.892994689941406250e+01 2.223769187927246094e+01 -2.667993903160095215e-01 3.974437952041625977e+00 1.112291574478149414e+00 1.255002856254577637e+00
7.582000000000000000e+03 5.630287933349609375e+01 2.202606010437011719e+01 -1.664541661739349365e-01 2.674591541290283203e+00 7.524412274360656738e-01 9.018812179565429688e-01
7.583000000000000000e+03 4.171238708496093750e+01 2.018288135528564453e+00 -3.251358866691589355e-02 4.621835052967071533e-01 1.289009749889373779e-01 8.613583445549011230e-02
7.584000000000000000e+03 4.699112319946289062e+01 2.461498498916625977e+00 3.428990766406059265e-02 1.396950960159301758e+00 4.293722510337829590e-01 2.484542280435562134e-01
7.585000000000000000e+03 5.720095443725585938e+01 2.105887603759765625e+01 -2.294768542051315308e-01 3.190384626388549805e+00 8.882722854614257812e-01 9.914349913597106934e-01
7.586000000000000000e+03 5.990159606933593750e+01 1.825767898559570312e+01 -4.767208695411682129e-01 4.634009838104248047e+00 1.247186660766601562e+00 9.670592546463012695e-01
7.587000000000000000e+03 4.742224502563476562e+01 8.783007264137268066e-01 9.263122826814651489e-02 1.553780913352966309e+00 4.939236342906951904e-01 2.665054500102996826e-01
7.588000000000000000e+03 4.965601730346679688e+01 1.072863042354583740e-01 1.025959476828575134e-01 2.041926383972167969e+00 6.433566808700561523e-01 3.241726756095886230e-01
7.589000000000000000e+03 5.120458221435546875e+01 -7.561966776847839355e-01 1.088872849941253662e-01 2.402200698852539062e+00 7.533264160156250000e-01 3.524998724460601807e-01
7.590000000000000000e+03 5.452738189697265625e+01 6.759708881378173828e+00 -9.645504504442214966e-02 3.046452999114990234e+00 8.849993348121643066e-01 5.041020512580871582e-01
7.591000000000000000e+03 5.404222106933593750e+01 -2.080589532852172852e+00 9.054888039827346802e-02 3.079798221588134766e+00 9.511041045188903809e-01 3.824284970760345459e-01
7.592000000000000000e+03 5.400680541992187500e+01 -1.037879705429077148e+00 8.108762651681900024e-02 3.052837371826171875e+00 9.401775002479553223e-01 4.080137014389038086e-01
7.593000000000000000e+03 5.481966781616210938e+01 5.883972167968750000e+00 -7.790632545948028564e-02 3.134150505065917969e+00 9.168732762336730957e-01 5.039849281311035156e-01
7.594000000000000000e+03 5.425292587280273438e+01 4.674565792083740234e+00 -4.614549875259399414e-02 3.013772010803222656e+00 8.902879953384399414e-01 4.757128655910491943e-01
7.595000000000000000e+03 5.769272994995117188e+01 1.223234653472900391e+01 -2.807950973510742188e-01 3.853750705718994141e+00 1.071886658668518066e+00 6.674021482467651367e-01
7.596000000000000000e+03 4.350173187255859375e+01 3.282055377960205078e+00 -5.909324437379837036e-02 7.163469195365905762e-01 1.971760988235473633e-01 1.194498091936111450e-01
7.597000000000000000e+03 4.792375946044921875e+01 1.889587998390197754e+00 4.916160553693771362e-02 1.608150124549865723e+00 4.971935451030731201e-01 2.781449258327484131e-01
7.598000000000000000e+03 4.578562545776367188e+01 2.916002273559570312e+00 6.275671999901533127e-03 1.143020868301391602e+00 3.447889685630798340e-01 2.057954072952270508e-01
7.599000000000000000e+03 5.378835296630859375e+01 1.901060700416564941e+00 2.633517794311046600e-02 2.969680786132812500e+00 8.988047838211059570e-01 4.375655651092529297e-01
7.600000000000000000e+03 5.620046997070312500e+01 2.115128135681152344e+01 -2.027846574783325195e-01 2.730596542358398438e+00 7.583435773849487305e-01 8.753544092178344727e-01
7.601000000000000000e+03 5.553593826293945312e+01 2.099494361877441406e+01 -2.052766084671020508e-01 2.489403247833251953e+00 6.852380037307739258e-01 7.848635315895080566e-01
7.602000000000000000e+03 6.276704025268554688e+01 2.527651977539062500e+01 -5.694896578788757324e-01 6.664313793182373047e+00 1.828447222709655762e+00 1.833977580070495605e+00
7.603000000000000000e+03 6.199701309204101562e+01 2.518765258789062500e+01 -3.886930942535400391e-01 5.975538730621337891e+00 1.676053643226623535e+00 1.887594699859619141e+00
7.604000000000000000e+03 6.170289993286132812e+01 2.506701660156250000e+01 -3.316215574741363525e-01 5.669285774230957031e+00 1.601299166679382324e+00 1.836741924285888672e+00
7.605000000000000000e+03 5.356090545654296875e+01 1.958386993408203125e+01 -2.376482486724853516e-01 1.887070655822753906e+00 4.948267340660095215e-01 5.309370160102844238e-01
7.606000000000000000e+03 5.818033218383789062e+01 1.646479225158691406e+01 -3.649239540100097656e-01 3.940127611160278320e+00 1.072561144828796387e+00 8.380659222602844238e-01
7.607000000000000000e+03 5.934539794921875000e+01 2.172487831115722656e+01 -3.355379998683929443e-01 4.242479324340820312e+00 1.172082424163818359e+00 1.246490716934204102e+00
7.608000000000000000e+03 6.029010391235351562e+01 2.274118041992187500e+01 -3.640732467174530029e-01 4.766127109527587891e+00 1.320616126060485840e+00 1.412233114242553711e+00
7.609000000000000000e+03 5.589453887939453125e+01 2.067666435241699219e+01 -2.193526476621627808e-01 2.657126188278198242e+00 7.313320636749267578e-01 8.276015520095825195e-01
7.610000000000000000e+03 6.102221298217773438e+01 2.454339599609375000e+01 -2.773803472518920898e-01 5.146854400634765625e+00 1.460842251777648926e+00 1.731982350349426270e+00
7.611000000000000000e+03 5.974802017211914062e+01 2.318890953063964844e+01 -2.573805451393127441e-01 4.359714984893798828e+00 1.230700373649597168e+00 1.426463842391967773e+00
7.612000000000000000e+03 4.540980148315429688e+01 8.463038444519042969e+00 -2.245608419179916382e-01 7.971493005752563477e-01 1.717765331268310547e-01 4.561736062169075012e-02
7.613000000000000000e+03 6.230246734619140625e+01 2.427570724487304688e+01 -5.636687874794006348e-01 6.219991207122802734e+00 1.696896672248840332e+00 1.683413743972778320e+00
7.614000000000000000e+03 5.165071105957031250e+01 1.646146011352539062e+01 -2.461506724357604980e-01 1.637943744659423828e+00 4.175379276275634766e-01 3.644214272499084473e-01
7.615000000000000000e+03 5.654349517822265625e+01 2.153908157348632812e+01 -1.881454139947891235e-01 2.851435661315917969e+00 7.989870905876159668e-01 9.265890717506408691e-01
7.616000000000000000e+03 5.326442718505859375e+01 1.783191490173339844e+01 -2.496154010295867920e-01 1.983589649200439453e+00 5.201922655105590820e-01 5.141562819480895996e-01
7.617000000000000000e+03 5.317950439453125000e+01 1.947407722473144531e+01 -2.433239519596099854e-01 1.777961492538452148e+00 4.603912830352783203e-01 4.884035587310791016e-01
7.618000000000000000e+03 5.070528030395507812e+01 1.622348022460937500e+01 -2.670050263404846191e-01 1.384451031684875488e+00 3.352338075637817383e-01 2.645762860774993896e-01
7.619000000000000000e+03 5.276920318603515625e+01 1.805791473388671875e+01 -2.480005919933319092e-01 1.812142968177795410e+00 4.692427217960357666e-01 4.624156951904296875e-01
7.620000000000000000e+03 5.833335876464843750e+01 2.105589103698730469e+01 -2.892752885818481445e-01 3.771959066390991211e+00 1.044805169105529785e+00 1.101547241210937500e+00
7.621000000000000000e+03 6.158653259277343750e+01 2.369392967224121094e+01 -4.744260311126708984e-01 5.575695991516113281e+00 1.530380964279174805e+00 1.588661551475524902e+00
7.622000000000000000e+03 6.137739181518554688e+01 2.484859085083007812e+01 -2.980007231235504150e-01 5.386101245880126953e+00 1.526430130004882812e+00 1.793835639953613281e+00
7.623000000000000000e+03 5.889387512207031250e+01 2.312895393371582031e+01 -1.874314248561859131e-01 3.840044498443603516e+00 1.095783948898315430e+00 1.319147944450378418e+00
7.624000000000000000e+03 5.811790084838867188e+01 2.229761123657226562e+01 -2.027425318956375122e-01 3.514956474304199219e+00 9.936642050743103027e-01 1.163461565971374512e+00
7.625000000000000000e+03 5.027341461181640625e+01 1.459204673767089844e+01 -2.524732649326324463e-01 1.420932888984680176e+00 3.505378663539886475e-01 2.552945613861083984e-01
7.626000000000000000e+03 4.099802398681640625e+01 3.664655447006225586e+00 -1.532949209213256836e-01 3.073461055755615234e-01 4.621535539627075195e-02 7.439098786562681198e-03
7.627000000000000000e+03 4.101291275024414062e+01 2.970846176147460938e+00 -1.197418794035911560e-01 3.295868337154388428e-01 6.295348703861236572e-02 3.155621513724327087e-02
7.628000000000000000e+03 4.911481094360351562e+01 1.199490928649902344e+01 -2.296539247035980225e-01 1.340869545936584473e+00 3.333646655082702637e-01 2.041546851396560669e-01
7.629000000000000000e+03 4.490478515625000000e+01 7.413880825042724609e+00 -1.992222964763641357e-01 7.808838486671447754e-01 1.744984686374664307e-01 5.310706421732902527e-02
7.630000000000000000e+03 4.414591979980468750e+01 7.795319080352783203e+00 -2.467054724693298340e-01 5.962259173393249512e-01 1.048561334609985352e-01 -8.184773847460746765e-03
7.631000000000000000e+03 4.938560485839843750e+01 1.346270942687988281e+01 -2.539644539356231689e-01 1.283060669898986816e+00 3.087288737297058105e-01 1.926740258932113647e-01
7.632000000000000000e+03 5.062634277343750000e+01 1.541131782531738281e+01 -2.587139606475830078e-01 1.440440535545349121e+00 3.545179665088653564e-01 2.718685865402221680e-01
7.633000000000000000e+03 5.154115295410156250e+01 1.814057922363281250e+01 -2.761485278606414795e-01 1.409245610237121582e+00 3.399291038513183594e-01 3.118076026439666748e-01
7.634000000000000000e+03 4.228351593017578125e+01 5.659974098205566406e+00 -2.328656613826751709e-01 4.049496054649353027e-01 5.162518098950386047e-02 -2.700143121182918549e-02
7.635000000000000000e+03 4.165071868896484375e+01 4.989711284637451172e+00 -2.166958898305892944e-01 3.444480299949645996e-01 3.832564130425453186e-02 -3.065399825572967529e-02
7.636000000000000000e+03 5.440435791015625000e+01 2.002129745483398438e+01 -2.254785448312759399e-01 2.150037765502929688e+00 5.773677825927734375e-01 6.408338546752929688e-01
7.637000000000000000e+03 4.440550613403320312e+01 9.013974189758300781e+00 -2.889273762702941895e-01 5.717493295669555664e-01 8.484658598899841309e-02 -4.111354798078536987e-02
7.638000000000000000e+03 5.699591445922851562e+01 2.186523628234863281e+01 -1.812994331121444702e-01 2.981965303421020508e+00 8.401997089385986328e-01 9.978609085083007812e-01
7.639000000000000000e+03 5.975804519653320312e+01 2.112739562988281250e+01 -4.048141539096832275e-01 4.508806228637695312e+00 1.231197595596313477e+00 1.208802580833435059e+00
7.640000000000000000e+03 5.952611923217773438e+01 1.933919715881347656e+01 -4.401567280292510986e-01 4.438977718353271484e+00 1.199646353721618652e+00 1.044766783714294434e+00
7.641000000000000000e+03 6.065112686157226562e+01 2.487998580932617188e+01 -1.754656881093978882e-01 4.839167594909667969e+00 1.399110555648803711e+00 1.749820232391357422e+00
7.642000000000000000e+03 6.231599426269531250e+01 2.473851776123046875e+01 -5.202523469924926758e-01 6.211121559143066406e+00 1.707260727882385254e+00 1.768348813056945801e+00
7.643000000000000000e+03 5.367270278930664062e+01 1.912617492675781250e+01 -2.403646558523178101e-01 1.987452864646911621e+00 5.241264700889587402e-01 5.473431944847106934e-01
7.644000000000000000e+03 5.558652496337890625e+01 1.948978614807128906e+01 -2.360507696866989136e-01 2.656373500823974609e+00 7.260968089103698730e-01 7.671325206756591797e-01
7.645000000000000000e+03 5.228238296508789062e+01 1.830296325683593750e+01 -2.590194642543792725e-01 1.628956675529479980e+00 4.109811782836914062e-01 3.966512084007263184e-01
7.646000000000000000e+03 5.200079727172851562e+01 1.782267379760742188e+01 -2.618560194969177246e-01 1.588450431823730469e+00 3.979783356189727783e-01 3.739517927169799805e-01
7.647000000000000000e+03 4.823274612426757812e+01 1.194361019134521484e+01 -2.499500066041946411e-01 1.135218739509582520e+00 2.655806243419647217e-01 1.374653726816177368e-01
7.648000000000000000e+03 5.601885986328125000e+01 9.821814537048339844e+00 -1.876527518033981323e-01 3.375207901000976562e+00 9.562665820121765137e-01 5.818056464195251465e-01
7.649000000000000000e+03 4.558402252197265625e+01 5.380272865295410156e+00 -1.079180836677551270e-01 9.987233281135559082e-01 2.672415673732757568e-01 1.479720026254653931e-01
7.650000000000000000e+03 5.550712585449218750e+01 2.027622032165527344e+01 -2.276635617017745972e-01 2.566846132278442383e+00 7.017547488212585449e-01 7.674872279167175293e-01
7.651000000000000000e+03 5.719137191772460938e+01 1.466570949554443359e+01 -3.095629215240478516e-01 3.614894628524780273e+00 9.915995597839355469e-01 7.352879643440246582e-01
7.652000000000000000e+03 4.659657669067382812e+01 1.074999904632568359e+01 -2.649057209491729736e-01 8.705556988716125488e-01 1.816949844360351562e-01 4.802104830741882324e-02
7.653000000000000000e+03 5.891798400878906250e+01 1.668992233276367188e+01 -4.020759463310241699e-01 4.236858844757080078e+00 1.150434851646423340e+00 8.588023781776428223e-01
7.654000000000000000e+03 5.854991912841796875e+01 2.056587600708007812e+01 -3.338525593280792236e-01 3.917109489440917969e+00 1.074977040290832520e+00 1.090180993080139160e+00
7.655000000000000000e+03 5.498785018920898438e+01 1.021861934661865234e+01 -1.780171841382980347e-01 3.059037208557128906e+00 8.643060326576232910e-01 5.614665150642395020e-01
7.656000000000000000e+03 5.464346694946289062e+01 2.820365190505981445e+00 -1.499977777712047100e-03 3.166123628616333008e+00 9.493871331214904785e-01 4.572811722755432129e-01
7.657000000000000000e+03 4.934599304199218750e+01 1.359506726264953613e+00 7.251650840044021606e-02 1.942538261413574219e+00 6.045164465904235840e-01 3.245835304260253906e-01
7.658000000000000000e+03 5.787873458862304688e+01 1.495469665527343750e+01 -3.398904204368591309e-01 3.855870485305786133e+00 1.054794073104858398e+00 7.637647986412048340e-01
7.659000000000000000e+03 4.193507766723632812e+01 4.529320240020751953e+00 -1.704379320144653320e-01 4.146386086940765381e-01 7.326021045446395874e-02 9.075053967535495758e-03
7.660000000000000000e+03 5.334445571899414062e+01 4.323058128356933594e+00 -2.525093592703342438e-02 2.789710283279418945e+00 8.293377757072448730e-01 4.505182802677154541e-01
7.661000000000000000e+03 4.352667617797851562e+01 2.528364419937133789e+00 -1.064080093055963516e-02 7.525599598884582520e-01 2.225757390260696411e-01 1.339074522256851196e-01
7.662000000000000000e+03 4.332656097412109375e+01 4.459253787994384766e+00 -1.252760589122772217e-01 6.322981119155883789e-01 1.521066278219223022e-01 6.798777729272842407e-02
7.663000000000000000e+03 5.481704711914062500e+01 8.543416023254394531e+00 -1.415575146675109863e-01 3.057730913162231445e+00 8.748520016670227051e-01 5.251208543777465820e-01
7.664000000000000000e+03 4.895978164672851562e+01 3.231897115707397461e+00 2.108202129602432251e-02 1.801546573638916016e+00 5.467885732650756836e-01 3.093215227127075195e-01
7.665000000000000000e+03 5.748779678344726562e+01 1.404078674316406250e+01 -3.142729401588439941e-01 3.733570098876953125e+00 1.025789141654968262e+00 7.209941744804382324e-01
7.666000000000000000e+03 5.010949325561523438e+01 9.768023490905761719e-01 8.337632566690444946e-02 2.126894950866699219e+00 6.630814075469970703e-01 3.404469192028045654e-01
7.667000000000000000e+03 5.433972167968750000e+01 7.576225757598876953e+00 -1.216712296009063721e-01 2.958914995193481445e+00 8.511731028556823730e-01 5.054126381874084473e-01
7.668000000000000000e+03 5.289575576782226562e+01 9.297227859497070312e-01 5.695862695574760437e-02 2.758046388626098633e+00 8.445014953613281250e-01 4.084540903568267822e-01
7.669000000000000000e+03 5.221086883544921875e+01 -1.030323505401611328e-01 8.168520778417587280e-02 2.642077922821044922e+00 8.171289563179016113e-01 3.884482681751251221e-01
7.670000000000000000e+03 5.574237442016601562e+01 1.224800491333007812e+01 -2.315722554922103882e-01 3.219897270202636719e+00 8.964974880218505859e-01 6.171463131904602051e-01
7.671000000000000000e+03 4.552603530883789062e+01 3.680807828903198242e+00 -2.565892226994037628e-02 1.072145938873291016e+00 3.139460980892181396e-01 1.935189366340637207e-01
7.672000000000000000e+03 5.382998275756835938e+01 5.611208915710449219e+00 -5.976458638906478882e-02 2.879388093948364258e+00 8.458870053291320801e-01 4.749915897846221924e-01
7.673000000000000000e+03 5.051718521118164062e+01 1.875268578529357910e+00 5.102632939815521240e-02 2.192702770233154297e+00 6.731187701225280762e-01 3.588380217552185059e-01
7.674000000000000000e+03 5.286182022094726562e+01 1.862337470054626465e+00 4.592402279376983643e-02 2.721890211105346680e+00 8.303443193435668945e-01 4.139666855335235596e-01
7.675000000000000000e+03 5.387164306640625000e+01 1.870131874084472656e+01 -2.394654601812362671e-01 2.092599391937255859e+00 5.559402108192443848e-01 5.696805119514465332e-01
7.676000000000000000e+03 4.649485397338867188e+01 1.201303672790527344e+01 -3.078899979591369629e-01 7.491195201873779297e-01 1.323688477277755737e-01 -7.336658891290426254e-03
7.677000000000000000e+03 4.485970687866210938e+01 9.507797241210937500e+00 -2.863099575042724609e-01 6.220343708992004395e-01 1.007173210382461548e-01 -3.148899599909782410e-02
7.678000000000000000e+03 5.513627243041992188e+01 1.985010147094726562e+01 -2.296804934740066528e-01 2.451146364212036133e+00 6.664397120475769043e-01 7.266224026679992676e-01
7.679000000000000000e+03 5.882163238525390625e+01 1.896696472167968750e+01 -3.950803875923156738e-01 4.128017902374267578e+00 1.119881272315979004e+00 9.801637530326843262e-01
7.680000000000000000e+03 5.123963546752929688e+01 1.691234207153320312e+01 -2.670462429523468018e-01 1.469963788986206055e+00 3.608752489089965820e-01 3.070159852504730225e-01
7.681000000000000000e+03 5.935449600219726562e+01 2.268365097045898438e+01 -2.624099850654602051e-01 4.172927379608154297e+00 1.173155307769775391e+00 1.337950348854064941e+00
7.682000000000000000e+03 5.982669830322265625e+01 2.219520187377929688e+01 -3.536982238292694092e-01 4.494284152984619141e+00 1.242175817489624023e+00 1.315948367118835449e+00
7.683000000000000000e+03 4.476495361328125000e+01 5.349350452423095703e+00 -1.213619336485862732e-01 8.498893976211547852e-01 2.185582369565963745e-01 1.139504089951515198e-01
7.684000000000000000e+03 4.282879257202148438e+01 4.836884021759033203e+00 -1.626033335924148560e-01 5.383976697921752930e-01 1.127382963895797729e-01 3.767075389623641968e-02
7.685000000000000000e+03 5.301739120483398438e+01 1.734442329406738281e+01 -2.417602986097335815e-01 1.970426797866821289e+00 5.185999274253845215e-01 4.917011260986328125e-01
7.686000000000000000e+03 5.938284301757812500e+01 1.816120338439941406e+01 -4.393333792686462402e-01 4.381569862365722656e+00 1.182670950889587402e+00 9.536435604095458984e-01
7.687000000000000000e+03 4.983228683471679688e+01 1.381810855865478516e+01 -2.510380446910858154e-01 1.350654125213623047e+00 3.298848271369934082e-01 2.349318414926528931e-01
7.688000000000000000e+03 5.249835968017578125e+01 1.751770019531250000e+01 -2.499537914991378784e-01 1.788232445716857910e+00 4.614835679531097412e-01 4.367793500423431396e-01
7.689000000000000000e+03 5.503640365600585938e+01 1.605367469787597656e+01 -2.596692144870758057e-01 2.780817747116088867e+00 7.563445568084716797e-01 6.624748706817626953e-01
7.690000000000000000e+03 5.772709274291992188e+01 2.192024230957031250e+01 -2.142146378755569458e-01 3.353820800781250000e+00 9.418818354606628418e-01 1.092524886131286621e+00
7.691000000000000000e+03 5.118082046508789062e+01 1.589184665679931641e+01 -2.519082427024841309e-01 1.557593226432800293e+00 3.917054831981658936e-01 3.205181956291198730e-01
7.692000000000000000e+03 6.065397262573242188e+01 2.340320014953613281e+01 -3.587315380573272705e-01 4.961392879486083984e+00 1.380798459053039551e+00 1.527656435966491699e+00
7.693000000000000000e+03 4.308094406127929688e+01 5.493794918060302734e+00 -1.810834854841232300e-01 5.484274625778198242e-01 1.102031916379928589e-01 2.600285783410072327e-02
7.694000000000000000e+03 4.477917480468750000e+01 6.052158355712890625e+00 -1.582037210464477539e-01 8.135100603103637695e-01 1.965918987989425659e-01 8.977653086185455322e-02
7.695000000000000000e+03 4.100902557373046875e+01 4.255384922027587891e+00 -2.025530487298965454e-01 2.762327194213867188e-01 2.210390008985996246e-02 -1.853725686669349670e-02
7.696000000000000000e+03 4.281083679199218750e+01 3.357287168502807617e+00 -7.351520657539367676e-02 5.971857309341430664e-01 1.571011543273925781e-01 8.274073153734207153e-02
7.697000000000000000e+03 4.221056747436523438e+01 5.041331768035888672e+00 -1.922489106655120850e-01 4.304630458354949951e-01 7.146424055099487305e-02 -1.357855391688644886e-03
7.698000000000000000e+03 4.827471923828125000e+01 9.698109626770019531e+00 -1.871068030595779419e-01 1.324972391128540039e+00 3.413596749305725098e-01 2.012695223093032837e-01
7.699000000000000000e+03 4.879087829589843750e+01 1.155074691772460938e+01 -2.291586101055145264e-01 1.302215218544006348e+00 3.219169974327087402e-01 1.912148594856262207e-01
7.700000000000000000e+03 5.102220535278320312e+01 1.176529788970947266e+01 -1.976471096277236938e-01 1.845417141914367676e+00 4.943310022354125977e-01 3.501307368278503418e-01
7.701000000000000000e+03 5.103423309326171875e+01 1.409673881530761719e+01 -2.293422669172286987e-01 1.682628035545349121e+00 4.359857141971588135e-01 3.309113383293151855e-01
7.702000000000000000e+03 4.153848648071289062e+01 3.984507083892822266e+00 -1.596289873123168945e-01 3.722630143165588379e-01 6.379020959138870239e-02 1.179775316268205643e-02
7.703000000000000000e+03 5.022563934326171875e+01 1.343712234497070312e+01 -2.332100421190261841e-01 1.512086510658264160e+00 3.836629390716552734e-01 2.775135338306427002e-01
7.704000000000000000e+03 5.922531509399414062e+01 2.012382888793945312e+01 -3.951887488365173340e-01 4.286296844482421875e+00 1.167332410812377930e+00 1.107996582984924316e+00
7.705000000000000000e+03 5.834102630615234375e+01 1.913124656677246094e+01 -3.553941845893859863e-01 3.915182113647460938e+00 1.067936420440673828e+00 9.962534308433532715e-01
7.706000000000000000e+03 4.417835617065429688e+01 3.358946084976196289e+00 -4.098151996731758118e-02 8.308698534965515137e-01 2.369665056467056274e-01 1.328527033329010010e-01
7.707000000000000000e+03 4.750630569458007812e+01 1.085266971588134766e+01 -2.429657876491546631e-01 1.067364573478698730e+00 2.473196387290954590e-01 1.065651103854179382e-01
7.708000000000000000e+03 4.472399139404296875e+01 7.866007328033447266e+00 -2.207677811384201050e-01 7.078925371170043945e-01 1.461374312639236450e-01 2.583722583949565887e-02
7.709000000000000000e+03 5.868345642089843750e+01 1.738949775695800781e+01 -3.942323029041290283e-01 4.126906871795654297e+00 1.119802474975585938e+00 8.937228322029113770e-01
7.710000000000000000e+03 5.608636856079101562e+01 1.332842159271240234e+01 -2.579749226570129395e-01 3.291615247726440430e+00 9.100920557975769043e-01 6.588861346244812012e-01
7.711000000000000000e+03 5.682928085327148438e+01 1.367864322662353516e+01 -2.861284017562866211e-01 3.522854328155517578e+00 9.710177779197692871e-01 6.933078765869140625e-01
7.712000000000000000e+03 5.614260101318359375e+01 1.154062175750732422e+01 -2.261280566453933716e-01 3.367876768112182617e+00 9.425246119499206543e-01 6.137508749961853027e-01
7.713000000000000000e+03 5.734647750854492188e+01 2.153486442565917969e+01 -2.219896465539932251e-01 3.198042869567871094e+00 8.928159475326538086e-01 1.017336606979370117e+00
7.714000000000000000e+03 5.474296951293945312e+01 1.088027191162109375e+01 -1.937175989151000977e-01 2.955427408218383789e+00 8.285129070281982422e-01 5.604264736175537109e-01
7.715000000000000000e+03 5.524948501586914062e+01 9.535099983215332031e+00 -1.701249927282333374e-01 3.151573657989501953e+00 8.944346308708190918e-01 5.567103028297424316e-01
7.716000000000000000e+03 5.371959686279296875e+01 2.766266345977783203e+00 7.133470382541418076e-03 2.924936771392822266e+00 8.796210885047912598e-01 4.453593194484710693e-01
7.717000000000000000e+03 5.040387725830078125e+01 -3.543269634246826172e-01 1.098828837275505066e-01 2.208876132965087891e+00 6.956276893615722656e-01 3.337520956993103027e-01
7.718000000000000000e+03 4.523046875000000000e+01 1.011983871459960938e+01 -2.966868579387664795e-01 6.470040082931518555e-01 1.050951406359672546e-01 -2.977954782545566559e-02
7.719000000000000000e+03 4.551515197753906250e+01 9.174795150756835938e+00 -2.563377320766448975e-01 7.668138146400451660e-01 1.531428247690200806e-01 2.464632876217365265e-02
7.720000000000000000e+03 4.562509918212890625e+01 1.071727752685546875e+01 -3.003095090389251709e-01 6.726076602935791016e-01 1.116894483566284180e-01 -2.591775357723236084e-02
7.721000000000000000e+03 4.673948287963867188e+01 8.988990783691406250e+00 -2.084960788488388062e-01 1.038265228271484375e+00 2.489307522773742676e-01 1.163575574755668640e-01
7.722000000000000000e+03 5.359900283813476562e+01 6.594922065734863281e+00 -8.585704118013381958e-02 2.784170866012573242e+00 8.094941377639770508e-01 4.754892885684967041e-01
7.723000000000000000e+03 5.481613159179687500e+01 1.895453834533691406e+01 -2.392887622117996216e-01 2.429000616073608398e+00 6.569135785102844238e-01 6.890462636947631836e-01
7.724000000000000000e+03 5.108087158203125000e+01 4.197154045104980469e+00 -1.425953209400177002e-02 2.220961093902587891e+00 6.620104908943176270e-01 3.809261918067932129e-01
7.725000000000000000e+03 4.878735733032226562e+01 2.436038017272949219e+00 3.966754674911499023e-02 1.786702752113342285e+00 5.479111075401306152e-01 3.067256808280944824e-01
7.726000000000000000e+03 4.662119674682617188e+01 3.276600837707519531e+00 2.864687703549861908e-03 1.303312659263610840e+00 3.918532133102416992e-01 2.303588539361953735e-01
7.727000000000000000e+03 5.085738754272460938e+01 5.364181399345397949e-01 8.217365294694900513e-02 2.292282342910766602e+00 7.123367786407470703e-01 3.529209196567535400e-01
7.728000000000000000e+03 5.839676666259765625e+01 1.581218814849853516e+01 -3.717208504676818848e-01 4.037302494049072266e+00 1.099674463272094727e+00 8.125025033950805664e-01
7.729000000000000000e+03 5.365497589111328125e+01 3.585823059082031250e+00 -2.463702578097581863e-03 2.897685527801513672e+00 8.685665130615234375e-01 4.445938169956207275e-01
7.730000000000000000e+03 5.418251800537109375e+01 8.285310745239257812e+00 -1.264728307723999023e-01 2.902349710464477539e+00 8.327630758285522461e-01 5.155901908874511719e-01
7.731000000000000000e+03 4.861363983154296875e+01 1.684385895729064941e+00 6.242328137159347534e-02 1.762783288955688477e+00 5.475619435310363770e-01 3.024244308471679688e-01
7.732000000000000000e+03 5.280626296997070312e+01 3.618222236633300781e+00 3.970686346292495728e-03 2.677268981933593750e+00 8.043718934059143066e-01 4.371042847633361816e-01
7.733000000000000000e+03 5.506399154663085938e+01 1.185865306854248047e+01 -2.115783244371414185e-01 3.025349617004394531e+00 8.441314101219177246e-01 5.871163606643676758e-01
7.734000000000000000e+03 5.542993927001953125e+01 1.119773769378662109e+01 -2.093476057052612305e-01 3.162526369094848633e+00 8.859536647796630859e-01 5.898485779762268066e-01
7.735000000000000000e+03 5.425748062133789062e+01 1.845746040344238281e+01 -2.368868589401245117e-01 2.279792308807373047e+00 6.128716468811035156e-01 6.194618940353393555e-01
7.736000000000000000e+03 5.377269744873046875e+01 1.756390953063964844e+01 -2.403026819229125977e-01 2.198058366775512695e+00 5.873267054557800293e-01 5.772500634193420410e-01
7.737000000000000000e+03 5.583871459960937500e+01 1.996006774902343750e+01 -2.307205647230148315e-01 2.705846786499023438e+00 7.425378561019897461e-01 8.027712702751159668e-01
7.738000000000000000e+03 5.354021835327148438e+01 1.830763435363769531e+01 -2.408908009529113770e-01 2.027872800827026367e+00 5.360946059226989746e-01 5.425845980644226074e-01
7.739000000000000000e+03 5.261712265014648438e+01 1.651613426208496094e+01 -2.430644184350967407e-01 1.926759123802185059e+00 5.051084160804748535e-01 4.554883837699890137e-01
7.740000000000000000e+03 5.213660812377929688e+01 1.696706008911132812e+01 -2.495602667331695557e-01 1.727649688720703125e+00 4.434268176555633545e-01 4.072566628456115723e-01
7.741000000000000000e+03 5.092461013793945312e+01 1.479460239410400391e+01 -2.495236694812774658e-01 1.581764698028564453e+00 3.996723294258117676e-01 3.067175745964050293e-01
7.742000000000000000e+03 5.166177368164062500e+01 1.490715503692626953e+01 -2.391104847192764282e-01 1.774596452713012695e+00 4.606457948684692383e-01 3.766994774341583252e-01
7.743000000000000000e+03 5.884264755249023438e+01 2.135215950012207031e+01 -3.158247768878936768e-01 4.019388198852539062e+00 1.111068964004516602e+00 1.178606390953063965e+00
7.744000000000000000e+03 5.175340652465820312e+01 1.555968666076660156e+01 -2.457445114850997925e-01 1.740306019783020020e+00 4.483684599399566650e-01 3.731493949890136719e-01
7.745000000000000000e+03 4.246197128295898438e+01 4.228549480438232422e+00 -1.398335099220275879e-01 5.086434483528137207e-01 1.106429770588874817e-01 3.875287994742393494e-02
7.746000000000000000e+03 4.521394348144531250e+01 4.353070735931396484e+00 -7.226023823022842407e-02 9.803227186203002930e-01 2.724187374114990234e-01 1.574364751577377319e-01
7.747000000000000000e+03 4.391258621215820312e+01 5.391845703125000000e+00 -1.554495096206665039e-01 6.906967163085937500e-01 1.605741530656814575e-01 6.545204669237136841e-02
7.748000000000000000e+03 4.974491882324218750e+01 1.302861118316650391e+01 -2.274426072835922241e-01 1.423189640045166016e+00 3.587241172790527344e-01 2.466478049755096436e-01
7.749000000000000000e+03 5.123388290405273438e+01 1.348435592651367188e+01 -2.219756543636322021e-01 1.780563354492187500e+00 4.675763249397277832e-01 3.509153723716735840e-01
7.750000000000000000e+03 4.491965866088867188e+01 6.650287628173828125e+00 -1.719016283750534058e-01 8.105607032775878906e-01 1.915977299213409424e-01 7.761832326650619507e-02
7.751000000000000000e+03 4.668181991577148438e+01 1.151711940765380859e+01 -2.873049378395080566e-01 8.144234418869018555e-01 1.581355482339859009e-01 2.518482878804206848e-02
7.752000000000000000e+03 5.280697250366210938e+01 7.611914157867431641e+00 -1.051668748259544373e-01 2.551416635513305664e+00 7.338749170303344727e-01 4.557560086250305176e-01
7.753000000000000000e+03 4.906787490844726562e+01 1.066273117065429688e+01 -1.970241665840148926e-01 1.437685132026672363e+00 3.721983134746551514e-01 2.374049723148345947e-01
7.754000000000000000e+03 5.406829071044921875e+01 1.063748168945312500e+01 -1.750552058219909668e-01 2.752233743667602539e+00 7.731535434722900391e-01 5.299227833747863770e-01
7.755000000000000000e+03 4.349892425537109375e+01 3.919214963912963867e+00 -8.210217207670211792e-02 6.952025890350341797e-01 1.839301288127899170e-01 1.023232042789459229e-01
7.756000000000000000e+03 4.790568923950195312e+01 2.620831966400146484e+00 3.653715923428535461e-02 1.582233905792236328e+00 4.856313467025756836e-01 2.753984332084655762e-01
7.757000000000000000e+03 4.962015533447265625e+01 2.165510654449462891e+00 4.835043847560882568e-02 1.974013447761535645e+00 6.067091822624206543e-01 3.320732712745666504e-01
7.758000000000000000e+03 5.540345382690429688e+01 1.891109275817871094e+01 -2.441864609718322754e-01 2.645225286483764648e+00 7.203116416931152344e-01 7.461321353912353516e-01
7.759000000000000000e+03 5.581998443603515625e+01 1.822687530517578125e+01 -2.694776058197021484e-01 2.884915590286254883e+00 7.846313714981079102e-01 7.628406882286071777e-01
7.760000000000000000e+03 5.643812561035156250e+01 1.662299728393554688e+01 -2.964803874492645264e-01 3.243532896041870117e+00 8.841157555580139160e-01 7.684240341186523438e-01
7.761000000000000000e+03 5.601582717895507812e+01 1.874830818176269531e+01 -2.597014605998992920e-01 2.928173303604125977e+00 8.005415797233581543e-01 7.971426844596862793e-01
7.762000000000000000e+03 5.904457855224609375e+01 1.951958656311035156e+01 -3.999066352844238281e-01 4.226111412048339844e+00 1.147861480712890625e+00 1.043591499328613281e+00
7.763000000000000000e+03 5.668237686157226562e+01 2.099962615966796875e+01 -2.220655977725982666e-01 2.973260164260864258e+00 8.253583312034606934e-01 9.276681542396545410e-01
7.764000000000000000e+03 5.616952133178710938e+01 2.027864265441894531e+01 -2.304160296916961670e-01 2.811992168426513672e+00 7.744728922843933105e-01 8.673421144485473633e-01
7.765000000000000000e+03 5.802482986450195312e+01 2.032650566101074219e+01 -3.113909363746643066e-01 3.657494783401489258e+00 1.003831148147583008e+00 1.032050967216491699e+00
7.766000000000000000e+03 4.548161315917968750e+01 6.615777969360351562e+00 -1.554093509912490845e-01 9.121902585029602051e-01 2.270342707633972168e-01 1.076376512646675110e-01
7.767000000000000000e+03 4.608891296386718750e+01 6.810917377471923828e+00 -1.387106180191040039e-01 1.036903858184814453e+00 2.694579958915710449e-01 1.400263905525207520e-01
7.768000000000000000e+03 5.743030929565429688e+01 1.622525787353515625e+01 -3.320820331573486328e-01 3.643831729888916016e+00 9.935249090194702148e-01 8.016092181205749512e-01
7.769000000000000000e+03 4.407911682128906250e+01 4.027281284332275391e+00 -7.697542011737823486e-02 7.945924997329711914e-01 2.152851223945617676e-01 1.138666719198226929e-01
7.770000000000000000e+03 5.012281417846679688e+01 1.251017475128173828e+01 -2.203031778335571289e-01 1.566843867301940918e+00 4.039622247219085693e-01 2.807854115962982178e-01
7.771000000000000000e+03 5.784506607055664062e+01 2.080008506774902344e+01 -2.752319276332855225e-01 3.523345470428466797e+00 9.744340181350708008e-01 1.050307512283325195e+00
7.772000000000000000e+03 5.649740219116210938e+01 1.435008907318115234e+01 -2.854759395122528076e-01 3.384394407272338867e+00 9.296755194664001465e-01 7.035263180732727051e-01
7.773000000000000000e+03 5.526731109619140625e+01 1.296382331848144531e+01 -2.325323522090911865e-01 3.024041175842285156e+00 8.374526500701904297e-01 6.114051938056945801e-01
7.774000000000000000e+03 5.765649795532226562e+01 1.557808589935302734e+01 -3.356234431266784668e-01 3.757542133331298828e+00 1.026575565338134766e+00 7.837077975273132324e-01
7.775000000000000000e+03 5.796048355102539062e+01 1.711698722839355469e+01 -3.544966280460357666e-01 3.832280397415161133e+00 1.043335080146789551e+00 8.630132675170898438e-01
7.776000000000000000e+03 5.420434951782226562e+01 9.950753211975097656e+00 -1.634282320737838745e-01 2.832530975341796875e+00 8.007308244705200195e-01 5.269563794136047363e-01
7.777000000000000000e+03 5.446864700317382812e+01 9.242713928222656250e+00 -1.495203524827957153e-01 2.926496982574462891e+00 8.330929875373840332e-01 5.291472077369689941e-01
7.778000000000000000e+03 4.806744384765625000e+01 3.472438097000122070e+00 7.131691556423902512e-03 1.585388064384460449e+00 4.777559340000152588e-01 2.786259651184082031e-01
7.779000000000000000e+03 4.616689682006835938e+01 3.982399463653564453e+00 -3.041345439851284027e-02 1.179296970367431641e+00 3.446650505065917969e-01 2.034249752759933472e-01
7.780000000000000000e+03 4.684482955932617188e+01 9.486060142517089844e+00 -2.170905917882919312e-01 1.021118402481079102e+00 2.412083446979522705e-01 1.131840571761131287e-01
7.781000000000000000e+03 4.616956329345703125e+01 1.031352901458740234e+01 -2.607687413692474365e-01 8.210659623146057129e-01 1.680891662836074829e-01 3.514865040779113770e-02
7.782000000000000000e+03 4.613011169433593750e+01 1.119767475128173828e+01 -2.964928746223449707e-01 7.309520840644836426e-01 1.303377598524093628e-01 -6.325608119368553162e-03
7.783000000000000000e+03 5.141343307495117188e+01 1.405661225318908691e+00 5.834173411130905151e-02 2.404109477996826172e+00 7.387353777885437012e-01 3.805471062660217285e-01
7.784000000000000000e+03 5.282169342041015625e+01 2.712214469909667969e+00 1.352267339825630188e-02 2.686876535415649414e+00 8.101198077201843262e-01 4.291615188121795654e-01
7.785000000000000000e+03 5.204081726074218750e+01 6.978079080581665039e-01 7.061283290386199951e-02 2.573557615280151367e+00 7.932510972023010254e-01 3.960087001323699951e-01
7.786000000000000000e+03 4.710944366455078125e+01 1.034103107452392578e+01 -2.357246726751327515e-01 1.015985488891601562e+00 2.340782433748245239e-01 9.731788933277130127e-02
7.787000000000000000e+03 4.784093093872070312e+01 1.141236400604248047e+01 -2.527046203613281250e-01 1.090830087661743164e+00 2.514376640319824219e-01 1.234337538480758667e-01
7.788000000000000000e+03 5.292337799072265625e+01 8.419012069702148438e+00 -1.220793351531028748e-01 2.558235883712768555e+00 7.308469414710998535e-01 4.660672545433044434e-01
7.789000000000000000e+03 5.924826431274414062e+01 1.884566116333007812e+01 -4.198177158832550049e-01 4.376451015472412109e+00 1.186990022659301758e+00 1.009759426116943359e+00
7.790000000000000000e+03 5.210536575317382812e+01 1.227263927459716797e+01 -1.957063823938369751e-01 2.130993366241455078e+00 5.805861353874206543e-01 4.247933328151702881e-01
7.791000000000000000e+03 5.357569503784179688e+01 7.497516632080078125e+00 -1.066569760441780090e-01 2.745965480804443359e+00 7.917925119400024414e-01 4.855425953865051270e-01
7.792000000000000000e+03 5.359414672851562500e+01 8.241814613342285156e+00 -1.229781582951545715e-01 2.721865177154541016e+00 7.796660661697387695e-01 4.909837841987609863e-01
7.793000000000000000e+03 5.445866394042968750e+01 1.149038314819335938e+01 -1.972629278898239136e-01 2.836178064346313477e+00 7.916744947433471680e-01 5.612233281135559082e-01
7.794000000000000000e+03 5.286299514770507812e+01 5.165116786956787109e+00 -4.306365922093391418e-02 2.648948431015014648e+00 7.817654013633728027e-01 4.450678229331970215e-01
7.795000000000000000e+03 5.664918136596679688e+01 2.038169670104980469e+01 -2.400547415018081665e-01 3.015747547149658203e+00 8.327078223228454590e-01 9.031960368156433105e-01
7.796000000000000000e+03 5.571234893798828125e+01 1.632665252685546875e+01 -2.748601734638214111e-01 2.983781814575195312e+00 8.126764893531799316e-01 7.084401845932006836e-01
7.797000000000000000e+03 5.741160583496093750e+01 1.830205345153808594e+01 -3.141972422599792480e-01 3.542967319488525391e+00 9.686310291290283203e-01 8.874384164810180664e-01
7.798000000000000000e+03 5.709166336059570312e+01 1.750082015991210938e+01 -3.189022243022918701e-01 3.458149433135986328e+00 9.417741298675537109e-01 8.378243446350097656e-01
7.799000000000000000e+03 5.575235748291015625e+01 1.403174972534179688e+01 -2.630249261856079102e-01 3.153680086135864258e+00 8.671965599060058594e-01 6.585305929183959961e-01
7.800000000000000000e+03 5.805467987060546875e+01 2.151547813415527344e+01 -2.526696324348449707e-01 3.575672149658203125e+00 9.969007372856140137e-01 1.110741376876831055e+00
7.801000000000000000e+03 5.763857650756835938e+01 2.122039413452148438e+01 -2.383756637573242188e-01 3.419314146041870117e+00 9.542815685272216797e-01 1.054817318916320801e+00
7.802000000000000000e+03 5.310907745361328125e+01 1.616186714172363281e+01 -2.434982210397720337e-01 2.114641189575195312e+00 5.613428950309753418e-01 4.986597895622253418e-01
7.803000000000000000e+03 5.213891220092773438e+01 1.605406570434570312e+01 -2.477218508720397949e-01 1.819315910339355469e+00 4.714781939983367920e-01 4.111457467079162598e-01
7.804000000000000000e+03 5.167581939697265625e+01 1.313134956359863281e+01 -2.166460752487182617e-01 1.937428236007690430e+00 5.162346363067626953e-01 3.902615308761596680e-01
7.805000000000000000e+03 5.071933746337890625e+01 1.297538375854492188e+01 -2.195361703634262085e-01 1.678575754165649414e+00 4.377118647098541260e-01 3.178072869777679443e-01
7.806000000000000000e+03 5.670925140380859375e+01 1.935943222045898438e+01 -2.716816663742065430e-01 3.164348840713500977e+00 8.678001761436462402e-01 8.803216814994812012e-01
7.807000000000000000e+03 4.579005050659179688e+01 4.673724174499511719e+00 -6.844796240329742432e-02 1.067259788513183594e+00 2.996435463428497314e-01 1.770106703042984009e-01
7.808000000000000000e+03 4.617547988891601562e+01 9.025397300720214844e+00 -2.227142006158828735e-01 9.087499380111694336e-01 2.058107256889343262e-01 7.981047779321670532e-02
7.809000000000000000e+03 4.639988327026367188e+01 7.738604545593261719e+00 -1.723438352346420288e-01 1.036127328872680664e+00 2.591350674629211426e-01 1.306494027376174927e-01
7.810000000000000000e+03 4.940118408203125000e+01 1.125938796997070312e+01 -2.007622867822647095e-01 1.473438739776611328e+00 3.818029463291168213e-01 2.459336519241333008e-01
7.811000000000000000e+03 4.959645462036132812e+01 1.181259727478027344e+01 -2.187280356884002686e-01 1.481725096702575684e+00 3.788990974426269531e-01 2.476989626884460449e-01
7.812000000000000000e+03 4.806541824340820312e+01 1.052018642425537109e+01 -2.143236100673675537e-01 1.213163852691650391e+00 2.996520698070526123e-01 1.673298925161361694e-01
7.813000000000000000e+03 5.530671310424804688e+01 1.828768539428710938e+01 -2.517218887805938721e-01 2.674479484558105469e+00 7.268272638320922852e-01 7.292081117630004883e-01
7.814000000000000000e+03 5.615616989135742188e+01 1.930808448791503906e+01 -2.563274204730987549e-01 2.944550275802612305e+00 8.064668774604797363e-01 8.242215514183044434e-01
7.815000000000000000e+03 5.307353591918945312e+01 1.688470077514648438e+01 -2.429134994745254517e-01 2.031966924667358398e+00 5.367159843444824219e-01 5.066511034965515137e-01
7.816000000000000000e+03 5.172404479980468750e+01 1.424474239349365234e+01 -2.264633923768997192e-01 1.868103504180908203e+00 4.924920499324798584e-01 3.918912708759307861e-01
7.817000000000000000e+03 5.304957199096679688e+01 1.559854125976562500e+01 -2.387454062700271606e-01 2.145036458969116211e+00 5.718873739242553711e-01 4.982264339923858643e-01
7.818000000000000000e+03 4.394965744018554688e+01 4.693928241729736328e+00 -1.159203797578811646e-01 7.267569303512573242e-01 1.832509636878967285e-01 9.015711396932601929e-02
7.819000000000000000e+03 5.232410430908203125e+01 9.415219306945800781e+00 -1.395091265439987183e-01 2.336934089660644531e+00 6.592274904251098633e-01 4.426450729370117188e-01
7.820000000000000000e+03 4.700840759277343750e+01 1.115528869628906250e+01 -2.655955255031585693e-01 9.351565241813659668e-01 2.008683085441589355e-01 6.698268651962280273e-02
7.821000000000000000e+03 5.836771011352539062e+01 1.807783889770507812e+01 -3.767109513282775879e-01 3.976305723190307617e+00 1.079878449440002441e+00 9.271701574325561523e-01
7.822000000000000000e+03 5.794214630126953125e+01 1.865310668945312500e+01 -3.456347882747650146e-01 3.746486902236938477e+00 1.020255565643310547e+00 9.456715583801269531e-01
7.823000000000000000e+03 5.692357635498046875e+01 1.800236892700195312e+01 -2.988214790821075439e-01 3.375089883804321289e+00 9.228805303573608398e-01 8.628865480422973633e-01
7.824000000000000000e+03 5.772415161132812500e+01 1.773678588867187500e+01 -3.428608179092407227e-01 3.702211618423461914e+00 1.007805228233337402e+00 8.724089860916137695e-01
7.825000000000000000e+03 5.299892044067382812e+01 1.155243873596191406e+01 -1.859098225831985474e-01 2.423208475112915039e+00 6.711896061897277832e-01 4.821900725364685059e-01
7.826000000000000000e+03 5.693630981445312500e+01 1.530659103393554688e+01 -3.073962330818176270e-01 3.498127460479736328e+00 9.572193622589111328e-01 7.479540705680847168e-01
7.827000000000000000e+03 5.720652770996093750e+01 1.688489532470703125e+01 -3.209004700183868408e-01 3.528916597366333008e+00 9.624048471450805664e-01 8.173737525939941406e-01
7.828000000000000000e+03 5.384576034545898438e+01 8.834965705871582031e+00 -1.372518986463546753e-01 2.777273654937744141e+00 7.920065522193908691e-01 5.038570761680603027e-01
7.829000000000000000e+03 5.457720565795898438e+01 1.248204708099365234e+01 -2.149787396192550659e-01 2.837310314178466797e+00 7.866994738578796387e-01 5.784567594528198242e-01
7.830000000000000000e+03 5.343770599365234375e+01 1.053007602691650391e+01 -1.688412725925445557e-01 2.598402023315429688e+00 7.288682460784912109e-01 4.952622652053833008e-01
7.831000000000000000e+03 5.386714553833007812e+01 1.122439575195312500e+01 -1.883778125047683716e-01 2.663083553314208984e+00 7.424116730690002441e-01 5.232220292091369629e-01
7.832000000000000000e+03 4.632777786254882812e+01 9.551815032958984375e+00 -2.473425120115280151e-01 8.993852138519287109e-01 1.956128031015396118e-01 6.692635267972946167e-02
7.833000000000000000e+03 4.616109848022460938e+01 8.404927253723144531e+00 -1.977929919958114624e-01 9.533014893531799316e-01 2.266525477170944214e-01 9.787685424089431763e-02
7.834000000000000000e+03 4.765596008300781250e+01 4.600389957427978516e+00 -3.468612954020500183e-02 1.457293987274169922e+00 4.267823398113250732e-01 2.523056864738464355e-01
7.835000000000000000e+03 4.643690490722656250e+01 4.884742259979248047e+00 -6.338008493185043335e-02 1.187038064002990723e+00 3.370974063873291016e-01 2.003208696842193604e-01
7.836000000000000000e+03 5.225168991088867188e+01 5.957124233245849609e+00 -6.423336267471313477e-02 2.476638555526733398e+00 7.237215638160705566e-01 4.297963380813598633e-01
7.837000000000000000e+03 4.918758773803710938e+01 4.061960697174072266e+00 -1.175744738429784775e-02 1.817089200019836426e+00 5.415995121002197266e-01 3.117181062698364258e-01
7.838000000000000000e+03 4.844299316406250000e+01 1.104260158538818359e+01 -2.225907593965530396e-01 1.258607268333435059e+00 3.108049631118774414e-01 1.806262135505676270e-01
7.839000000000000000e+03 4.838323593139648438e+01 4.314768314361572266e+00 -1.679109223186969757e-02 1.631086111068725586e+00 4.842884838581085205e-01 2.905574142932891846e-01
7.840000000000000000e+03 4.727667617797851562e+01 3.856445789337158203e+00 -9.037856012582778931e-03 1.409443140029907227e+00 4.201215803623199463e-01 2.445265352725982666e-01
7.841000000000000000e+03 5.144161987304687500e+01 3.011894226074218750e+00 2.079120464622974396e-02 2.372309923171997070e+00 7.179303169250488281e-01 3.848782181739807129e-01
7.842000000000000000e+03 5.178656387329101562e+01 1.366147232055664062e+01 -2.201356887817382812e-01 1.927404403686523438e+00 5.121806263923645020e-01 3.985080122947692871e-01
7.843000000000000000e+03 5.193355178833007812e+01 3.882930517196655273e+00 -8.103495463728904724e-03 2.474593162536621094e+00 7.399469017982482910e-01 4.028577506542205811e-01
7.844000000000000000e+03 5.166757583618164062e+01 5.423819065093994141e+00 -3.971128910779953003e-02 2.362996101379394531e+00 6.969854831695556641e-01 3.977259695529937744e-01
7.845000000000000000e+03 5.205543518066406250e+01 2.268816709518432617e+00 4.090291261672973633e-02 2.530713081359863281e+00 7.714847922325134277e-01 4.018802940845489502e-01
7.846000000000000000e+03 5.187141799926757812e+01 7.087543964385986328e+00 -9.152369946241378784e-02 2.320170640945434570e+00 6.685941219329833984e-01 4.122601449489593506e-01
7.847000000000000000e+03 5.266587448120117188e+01 6.735751152038574219e+00 -7.945743203163146973e-02 2.546606540679931641e+00 7.401447296142578125e-01 4.432489275932312012e-01
7.848000000000000000e+03 5.067026519775390625e+01 2.741082668304443359e+00 3.887302055954933167e-02 2.207109212875366211e+00 6.737946867942810059e-01 3.651435971260070801e-01
7.849000000000000000e+03 5.346737289428710938e+01 1.716482162475585938e+01 -2.311602830886840820e-01 2.145905733108520508e+00 5.744236111640930176e-01 5.490682125091552734e-01
7.850000000000000000e+03 5.792144775390625000e+01 1.948126983642578125e+01 -3.200035095214843750e-01 3.682987928390502930e+00 1.008895277976989746e+00 9.880454540252685547e-01
7.851000000000000000e+03 5.662390136718750000e+01 1.983719825744628906e+01 -2.709314823150634766e-01 3.038380861282348633e+00 8.302348256111145020e-01 8.745208978652954102e-01
7.852000000000000000e+03 4.678999710083007812e+01 8.528118133544921875e+00 -1.808918714523315430e-01 1.083082199096679688e+00 2.706570923328399658e-01 1.352093517780303955e-01
7.853000000000000000e+03 4.769099807739257812e+01 9.973636627197265625e+00 -2.046000212430953979e-01 1.173380732536315918e+00 2.906342148780822754e-01 1.474312394857406616e-01
7.854000000000000000e+03 5.429782867431640625e+01 1.888645744323730469e+01 -2.398547828197479248e-01 2.243067026138305664e+00 6.009637117385864258e-01 6.251220703125000000e-01
7.855000000000000000e+03 5.404735565185546875e+01 1.801132774353027344e+01 -2.413959503173828125e-01 2.249445676803588867e+00 6.024149060249328613e-01 5.979771018028259277e-01
7.856000000000000000e+03 5.416728591918945312e+01 1.636273193359375000e+01 -2.533919513225555420e-01 2.445067644119262695e+00 6.575027108192443848e-01 5.986860394477844238e-01
7.857000000000000000e+03 5.240327453613281250e+01 1.491428565979003906e+01 -2.262720912694931030e-01 2.021055936813354492e+00 5.384351611137390137e-01 4.493064880371093750e-01
7.858000000000000000e+03 5.317027664184570312e+01 9.171980857849121094e+00 -1.401593089103698730e-01 2.601180553436279297e+00 7.383063435554504395e-01 4.826417863368988037e-01
7.859000000000000000e+03 5.669028091430664062e+01 1.596012401580810547e+01 -3.025957345962524414e-01 3.381673336029052734e+00 9.237232804298400879e-01 7.589854001998901367e-01
7.860000000000000000e+03 5.462433242797851562e+01 1.774579429626464844e+01 -2.454697787761688232e-01 2.496860742568969727e+00 6.754173040390014648e-01 6.547130346298217773e-01
7.861000000000000000e+03 5.238528442382812500e+01 1.554128837585449219e+01 -2.405233085155487061e-01 1.957789897918701172e+00 5.151799917221069336e-01 4.418352246284484863e-01
7.862000000000000000e+03 5.527223205566406250e+01 1.540279579162597656e+01 -2.613323926925659180e-01 2.895508050918579102e+00 7.902526855468750000e-01 6.612225770950317383e-01
7.863000000000000000e+03 4.635837173461914062e+01 5.515190124511718750e+00 -8.601757138967514038e-02 1.144176483154296875e+00 3.174476623535156250e-01 1.816515177488327026e-01
7.864000000000000000e+03 5.373174667358398438e+01 1.563455104827880859e+01 -2.367726862430572510e-01 2.367918491363525391e+00 6.393436789512634277e-01 5.577462911605834961e-01
7.865000000000000000e+03 5.242991256713867188e+01 1.428095054626464844e+01 -2.247180789709091187e-01 2.058093547821044922e+00 5.500125885009765625e-01 4.523529708385467529e-01
7.866000000000000000e+03 5.621557617187500000e+01 1.800934219360351562e+01 -2.799878120422363281e-01 3.060703277587890625e+00 8.342146277427673340e-01 7.876279950141906738e-01
7.867000000000000000e+03 5.754387664794921875e+01 2.016711616516113281e+01 -2.885253429412841797e-01 3.457560062408447266e+00 9.507104158401489258e-01 9.870892763137817383e-01
7.868000000000000000e+03 5.824039077758789062e+01 1.988707351684570312e+01 -3.267611861228942871e-01 3.798331975936889648e+00 1.041471242904663086e+00 1.021682143211364746e+00
7.869000000000000000e+03 5.583180999755859375e+01 1.774263000488281250e+01 -2.735819816589355469e-01 2.928737163543701172e+00 7.965465784072875977e-01 7.544856667518615723e-01
7.870000000000000000e+03 5.702111816406250000e+01 1.884809112548828125e+01 -2.930693328380584717e-01 3.334484338760375977e+00 9.124245047569274902e-01 8.892539739608764648e-01
7.871000000000000000e+03 4.943762588500976562e+01 4.934471607208251953e+00 -3.034573420882225037e-02 1.833667874336242676e+00 5.409966707229614258e-01 3.183521330356597900e-01
7.872000000000000000e+03 4.577408599853515625e+01 7.413856506347656250e+00 -1.806131005287170410e-01 9.283775687217712402e-01 2.243293374776840210e-01 9.667185693979263306e-02
7.873000000000000000e+03 5.060282135009765625e+01 5.257479190826416016e+00 -2.978129498660564423e-02 2.093487501144409180e+00 6.191118359565734863e-01 3.658776879310607910e-01
7.874000000000000000e+03 5.133416748046875000e+01 1.251975250244140625e+01 -2.037684470415115356e-01 1.885103702545166016e+00 5.044005513191223145e-01 3.672421574592590332e-01
7.875000000000000000e+03 5.747626876831054688e+01 1.964296150207519531e+01 -2.955044209957122803e-01 3.464540719985961914e+00 9.507108926773071289e-01 9.666023254394531250e-01
7.876000000000000000e+03 4.553175735473632812e+01 6.044896602630615234e+00 -1.267485022544860840e-01 9.589166641235351562e-01 2.496504485607147217e-01 1.318776905536651611e-01
7.877000000000000000e+03 4.468616104125976562e+01 4.700702667236328125e+00 -1.002082899212837219e-01 8.699301481246948242e-01 2.309165596961975098e-01 1.240426376461982727e-01
7.878000000000000000e+03 5.525959777832031250e+01 1.764491653442382812e+01 -2.606012225151062012e-01 2.731193304061889648e+00 7.411776185035705566e-01 7.063370943069458008e-01
7.879000000000000000e+03 5.654324722290039062e+01 1.844166564941406250e+01 -2.855551838874816895e-01 3.183220386505126953e+00 8.692995309829711914e-01 8.305047154426574707e-01
7.880000000000000000e+03 5.010540008544921875e+01 1.105751895904541016e+01 -1.882639676332473755e-01 1.678003549575805664e+00 4.469218850135803223e-01 3.032527863979339600e-01
7.881000000000000000e+03 5.430965805053710938e+01 1.720987319946289062e+01 -2.452957630157470703e-01 2.436515331268310547e+00 6.573658585548400879e-01 6.231573224067687988e-01
7.882000000000000000e+03 5.622560501098632812e+01 1.501421165466308594e+01 -2.845522463321685791e-01 3.261557817459106445e+00 8.931016325950622559e-01 7.079962491989135742e-01
7.883000000000000000e+03 5.338784408569335938e+01 9.895090103149414062e+00 -1.552132815122604370e-01 2.617243051528930664e+00 7.386088967323303223e-01 4.918874204158782959e-01
7.884000000000000000e+03 4.840544128417968750e+01 5.901849269866943359e+00 -6.603942066431045532e-02 1.573327183723449707e+00 4.521863460540771484e-01 2.698273658752441406e-01
7.885000000000000000e+03 4.702837371826171875e+01 4.870965957641601562e+00 -5.188782513141632080e-02 1.324102759361267090e+00 3.816644847393035889e-01 2.145428061485290527e-01
7.886000000000000000e+03 5.491537094116210938e+01 1.372366237640380859e+01 -2.392092049121856689e-01 2.879224538803100586e+00 7.920045852661132812e-01 6.111301779747009277e-01
7.887000000000000000e+03 5.361210632324218750e+01 1.222995567321777344e+01 -1.991975456476211548e-01 2.576420307159423828e+00 7.131668329238891602e-01 5.247443318367004395e-01
7.888000000000000000e+03 5.384024047851562500e+01 1.501913070678710938e+01 -2.384468317031860352e-01 2.445711135864257812e+00 6.621792912483215332e-01 5.624068379402160645e-01
7.889000000000000000e+03 5.330523681640625000e+01 1.103106975555419922e+01 -1.784010529518127441e-01 2.536476135253906250e+00 7.074225544929504395e-01 4.941109120845794678e-01
7.890000000000000000e+03 5.179045104980468750e+01 1.152073955535888672e+01 -1.832537353038787842e-01 2.106032371520996094e+00 5.768336057662963867e-01 4.131317436695098877e-01
7.891000000000000000e+03 5.078762054443359375e+01 3.485677957534790039e+00 5.612291395664215088e-03 2.200952291488647461e+00 6.619694232940673828e-01 3.779518902301788330e-01
7.892000000000000000e+03 4.980590820312500000e+01 2.971779346466064453e+00 3.080442547798156738e-02 1.991603255271911621e+00 6.067222952842712402e-01 3.339468240737915039e-01
7.893000000000000000e+03 5.203210449218750000e+01 4.787614822387695312e+00 -2.477651461958885193e-02 2.470164775848388672e+00 7.336164712905883789e-01 4.088389873504638672e-01
7.894000000000000000e+03 5.289770507812500000e+01 1.221172523498535156e+01 -1.921008080244064331e-01 2.359877586364746094e+00 6.503330469131469727e-01 4.836311638355255127e-01
7.895000000000000000e+03 4.977758026123046875e+01 1.033089828491210938e+01 -1.773778796195983887e-01 1.639218211174011230e+00 4.385520815849304199e-01 2.881978154182434082e-01
7.896000000000000000e+03 5.206541061401367188e+01 7.811285018920898438e+00 -1.036565229296684265e-01 2.354992628097534180e+00 6.754008531570434570e-01 4.179569184780120850e-01
7.897000000000000000e+03 5.000387954711914062e+01 3.774559497833251953e+00 1.004912192001938820e-03 2.015212059020996094e+00 6.048650741577148438e-01 3.434391915798187256e-01
7.898000000000000000e+03 5.384999847412109375e+01 1.681637573242187500e+01 -2.494553029537200928e-01 2.298813104629516602e+00 6.148073077201843262e-01 5.731428265571594238e-01
7.899000000000000000e+03 5.363292312622070312e+01 1.614523124694824219e+01 -2.478667348623275757e-01 2.292673110961914062e+00 6.134419441223144531e-01 5.523159503936767578e-01
7.900000000000000000e+03 5.755263519287109375e+01 1.913156700134277344e+01 -3.090451359748840332e-01 3.523494243621826172e+00 9.643347263336181641e-01 9.480434060096740723e-01
7.901000000000000000e+03 5.438732147216796875e+01 1.580329036712646484e+01 -2.468023598194122314e-01 2.565087795257568359e+00 6.954855918884277344e-01 6.134325861930847168e-01
7.902000000000000000e+03 5.231149673461914062e+01 1.299125576019287109e+01 -2.137123644351959229e-01 2.128058195114135742e+00 5.743037462234497070e-01 4.398058354854583740e-01
7.903000000000000000e+03 5.242280960083007812e+01 1.364455604553222656e+01 -2.208267003297805786e-01 2.105164051055908203e+00 5.653011798858642578e-01 4.494588375091552734e-01
7.904000000000000000e+03 5.311563110351562500e+01 1.494961929321289062e+01 -2.296155691146850586e-01 2.222733736038208008e+00 5.979354381561279297e-01 5.004882812500000000e-01
7.905000000000000000e+03 5.456547164916992188e+01 1.517197608947753906e+01 -2.454221546649932861e-01 2.676859855651855469e+00 7.294312715530395508e-01 6.168439984321594238e-01
7.906000000000000000e+03 5.474922180175781250e+01 1.669212722778320312e+01 -2.589753866195678711e-01 2.625273942947387695e+00 7.098895311355590820e-01 6.495745182037353516e-01
7.907000000000000000e+03 5.316319274902343750e+01 1.429245185852050781e+01 -2.240219712257385254e-01 2.290084600448608398e+00 6.198188066482543945e-01 4.996499717235565186e-01
7.908000000000000000e+03 5.027046585083007812e+01 4.550704479217529297e+00 -2.574026025831699371e-02 2.050788640975952148e+00 6.075145006179809570e-01 3.622845113277435303e-01
7.909000000000000000e+03 5.263483047485351562e+01 1.011466884613037109e+01 -1.625183224678039551e-01 2.390107870101928711e+00 6.682768464088439941e-01 4.602203071117401123e-01
7.910000000000000000e+03 5.100354003906250000e+01 1.036336421966552734e+01 -1.703297197818756104e-01 1.933240413665771484e+00 5.288732051849365234e-01 3.612258136272430420e-01
7.911000000000000000e+03 4.743579483032226562e+01 9.375857353210449219e+00 -2.040452957153320312e-01 1.151733875274658203e+00 2.843065559864044189e-01 1.449183374643325806e-01
7.912000000000000000e+03 4.709069442749023438e+01 8.014403343200683594e+00 -1.626164466142654419e-01 1.173421621322631836e+00 3.032415509223937988e-01 1.613869369029998779e-01
7.913000000000000000e+03 4.720893478393554688e+01 8.838975906372070312e+00 -1.852865815162658691e-01 1.143245577812194824e+00 2.873876988887786865e-01 1.497658342123031616e-01
7.914000000000000000e+03 5.611365127563476562e+01 1.722877120971679688e+01 -2.821771502494812012e-01 3.085830450057983398e+00 8.410959839820861816e-01 7.693689465522766113e-01
7.915000000000000000e+03 5.386299133300781250e+01 1.284698772430419922e+01 -2.144034355878829956e-01 2.607880592346191406e+00 7.180431485176086426e-01 5.436761379241943359e-01
7.916000000000000000e+03 5.304551696777343750e+01 1.292737579345703125e+01 -2.137950509786605835e-01 2.335884332656860352e+00 6.366268396377563477e-01 4.923400580883026123e-01
7.917000000000000000e+03 5.549895858764648438e+01 1.472663784027099609e+01 -2.627035379409790039e-01 3.019728899002075195e+00 8.271076083183288574e-01 6.611177325248718262e-01
7.918000000000000000e+03 5.597348403930664062e+01 1.567544269561767578e+01 -2.788024544715881348e-01 3.128676176071166992e+00 8.549621105194091797e-01 7.129285931587219238e-01
7.919000000000000000e+03 5.131020355224609375e+01 4.889047622680664062e+00 -2.463662996888160706e-02 2.278187990188598633e+00 6.760653853416442871e-01 3.817745745182037354e-01
7.920000000000000000e+03 5.036828994750976562e+01 6.344244956970214844e+00 -6.640717387199401855e-02 1.991318583488464355e+00 5.774734616279602051e-01 3.532467484474182129e-01
7.921000000000000000e+03 5.394143295288085938e+01 1.433735656738281250e+01 -2.301261574029922485e-01 2.532594203948974609e+00 6.907404065132141113e-01 5.629143118858337402e-01
7.922000000000000000e+03 5.082682800292968750e+01 1.099537086486816406e+01 -1.790615767240524292e-01 1.854343175888061523e+00 5.025845170021057129e-01 3.462219536304473877e-01
7.923000000000000000e+03 4.627194976806640625e+01 6.170731067657470703e+00 -1.180035844445228577e-01 1.098783850669860840e+00 2.942340672016143799e-01 1.588968783617019653e-01
7.924000000000000000e+03 5.241808319091796875e+01 1.111791896820068359e+01 -1.718137115240097046e-01 2.290674686431884766e+00 6.356582641601562500e-01 4.486894011497497559e-01
7.925000000000000000e+03 4.715222167968750000e+01 5.569253444671630859e+00 -7.609973847866058350e-02 1.321382164955139160e+00 3.735847473144531250e-01 2.157261669635772705e-01
7.926000000000000000e+03 5.086149978637695312e+01 6.886021137237548828e+00 -8.254971355199813843e-02 2.098810672760009766e+00 6.048783063888549805e-01 3.757493197917938232e-01
7.927000000000000000e+03 4.861849212646484375e+01 1.016792297363281250e+01 -1.913829743862152100e-01 1.376914024353027344e+00 3.556593060493469238e-01 2.152388542890548706e-01
7.928000000000000000e+03 5.213190460205078125e+01 8.617194175720214844e+00 -1.216521561145782471e-01 2.334958314895629883e+00 6.639918684959411621e-01 4.300426244735717773e-01
7.929000000000000000e+03 4.748338699340820312e+01 7.386920452117919922e+00 -1.394492685794830322e-01 1.280133605003356934e+00 3.422053158283233643e-01 1.988799721002578735e-01
7.930000000000000000e+03 5.150102996826171875e+01 6.454072475433349609e+00 -7.442131638526916504e-02 2.266558885574340820e+00 6.576412320137023926e-01 3.997237086296081543e-01
7.931000000000000000e+03 4.770667648315429688e+01 8.443548202514648438e+00 -1.604150235652923584e-01 1.278705477714538574e+00 3.354871273040771484e-01 1.939466893672943115e-01
7.932000000000000000e+03 4.808699417114257812e+01 9.065979003906250000e+00 -1.656523048877716064e-01 1.324384093284606934e+00 3.476195335388183594e-01 2.035543918609619141e-01
7.933000000000000000e+03 5.473535919189453125e+01 1.448157691955566406e+01 -2.474758028984069824e-01 2.770933151245117188e+00 7.570372223854064941e-01 6.129897832870483398e-01
7.934000000000000000e+03 5.315553283691406250e+01 1.361765575408935547e+01 -2.217304408550262451e-01 2.320359706878662109e+00 6.295887827873229980e-01 4.995344281196594238e-01
7.935000000000000000e+03 5.099120712280273438e+01 9.288839340209960938e+00 -1.375612765550613403e-01 2.022605180740356445e+00 5.655131936073303223e-01 3.695416748523712158e-01
7.936000000000000000e+03 5.541766357421875000e+01 1.697889328002929688e+01 -2.650018632411956787e-01 2.834856510162353516e+00 7.709563970565795898e-01 7.008059024810791016e-01
7.937000000000000000e+03 5.061518478393554688e+01 8.308553695678710938e+00 -1.208306103944778442e-01 1.953050971031188965e+00 5.496661067008972168e-01 3.568394780158996582e-01
7.938000000000000000e+03 5.363394546508789062e+01 1.172877597808837891e+01 -1.940325796604156494e-01 2.594862222671508789e+00 7.202488780021667480e-01 5.210641026496887207e-01
7.939000000000000000e+03 4.707329559326171875e+01 6.337862968444824219e+00 -9.903942048549652100e-02 1.268229842185974121e+00 3.507571220397949219e-01 1.993584185838699341e-01
7.940000000000000000e+03 4.789708709716796875e+01 5.358179092407226562e+00 -6.012183427810668945e-02 1.468406438827514648e+00 4.224853813648223877e-01 2.550337016582489014e-01
7.941000000000000000e+03 5.400696563720703125e+01 1.358953666687011719e+01 -2.269580364227294922e-01 2.604891300201416016e+00 7.133799791336059570e-01 5.554219484329223633e-01
7.942000000000000000e+03 5.290486145019531250e+01 1.068907928466796875e+01 -1.666538417339324951e-01 2.455183982849121094e+00 6.865590810775756836e-01 4.691455960273742676e-01
7.943000000000000000e+03 4.914568710327148438e+01 6.356208801269531250e+00 -7.575094699859619141e-02 1.706692218780517578e+00 4.892823696136474609e-01 2.994553148746490479e-01
7.944000000000000000e+03 4.676713180541992188e+01 7.064157962799072266e+00 -1.412761509418487549e-01 1.162044882774353027e+00 3.062306046485900879e-01 1.637418419122695923e-01
7.945000000000000000e+03 5.032041549682617188e+01 8.881711959838867188e+00 -1.344926953315734863e-01 1.863774061203002930e+00 5.187844038009643555e-01 3.382813930511474609e-01
7.946000000000000000e+03 5.103257751464843750e+01 5.875484943389892578e+00 -5.235099792480468750e-02 2.187727928161621094e+00 6.406130790710449219e-01 3.791838586330413818e-01
7.947000000000000000e+03 5.125725173950195312e+01 7.382415294647216797e+00 -9.713646024465560913e-02 2.172967195510864258e+00 6.227492094039916992e-01 3.954896032810211182e-01
7.948000000000000000e+03 5.144260787963867188e+01 1.084746837615966797e+01 -1.717268228530883789e-01 2.042947769165039062e+00 5.613662600517272949e-01 3.900934755802154541e-01
7.949000000000000000e+03 4.945324325561523438e+01 9.100833892822265625e+00 -1.487295627593994141e-01 1.643482685089111328e+00 4.484259188175201416e-01 2.807411849498748779e-01
7.950000000000000000e+03 5.141081237792968750e+01 7.920690059661865234e+00 -1.034222170710563660e-01 2.187914371490478516e+00 6.253476738929748535e-01 4.009996354579925537e-01
7.951000000000000000e+03 4.863110733032226562e+01 7.098720550537109375e+00 -1.054529547691345215e-01 1.563268065452575684e+00 4.373445510864257812e-01 2.663882970809936523e-01
7.952000000000000000e+03 4.983330917358398438e+01 5.721129417419433594e+00 -5.078221857547760010e-02 1.891468882560729980e+00 5.522059798240661621e-01 3.367935419082641602e-01
7.953000000000000000e+03 5.158127593994140625e+01 9.822690010070800781e+00 -1.522588729858398438e-01 2.127794265747070312e+00 5.926606059074401855e-01 4.008885622024536133e-01
7.954000000000000000e+03 4.894063186645507812e+01 8.230197906494140625e+00 -1.362498700618743896e-01 1.564229726791381836e+00 4.283939301967620850e-01 2.642211914062500000e-01
7.955000000000000000e+03 4.819757080078125000e+01 7.833283424377441406e+00 -1.371834576129913330e-01 1.421751499176025391e+00 3.853704333305358887e-01 2.296016812324523926e-01
7.956000000000000000e+03 4.996506881713867188e+01 9.394778251647949219e+00 -1.494123339653015137e-01 1.749360680580139160e+00 4.799844920635223389e-01 3.151515722274780273e-01
7.957000000000000000e+03 4.879052352905273438e+01 8.964219093322753906e+00 -1.562013328075408936e-01 1.496543526649475098e+00 4.021026492118835449e-01 2.493378669023513794e-01
7.958000000000000000e+03 4.789177322387695312e+01 6.644837379455566406e+00 -9.975410252809524536e-02 1.418282508850097656e+00 3.955585360527038574e-01 2.367735207080841064e-01
7.959000000000000000e+03 4.931548309326171875e+01 7.538954734802246094e+00 -1.116665899753570557e-01 1.685584187507629395e+00 4.721752703189849854e-01 2.914266884326934814e-01
7.960000000000000000e+03 4.861649322509765625e+01 5.143038272857666016e+00 -4.011840373277664185e-02 1.659250497817993164e+00 4.857396185398101807e-01 2.916369438171386719e-01
7.961000000000000000e+03 5.086857223510742188e+01 7.767082214355468750e+00 -1.035050749778747559e-01 2.051124095916748047e+00 5.842857360839843750e-01 3.757655918598175049e-01
7.962000000000000000e+03 4.978210830688476562e+01 6.902539730072021484e+00 -8.293344080448150635e-02 1.836072564125061035e+00 5.259417295455932617e-01 3.259847164154052734e-01
7.963000000000000000e+03 4.884503555297851562e+01 9.660273551940917969e+00 -1.675977110862731934e-01 1.456738948822021484e+00 3.867423832416534424e-01 2.458316087722778320e-01
7.964000000000000000e+03 5.035335922241210938e+01 7.378334045410156250e+00 -9.558941423892974854e-02 1.936272144317626953e+00 5.522047877311706543e-01 3.522758483886718750e-01
7.965000000000000000e+03 5.044705200195312500e+01 9.900459289550781250e+00 -1.600646972656250000e-01 1.845882892608642578e+00 5.057454705238342285e-01 3.354644775390625000e-01
7.966000000000000000e+03 4.966592788696289062e+01 8.528999328613281250e+00 -1.343285888433456421e-01 1.717104911804199219e+00 4.748329222202301025e-01 3.021054267883300781e-01
7.967000000000000000e+03 4.997027587890625000e+01 7.941727161407470703e+00 -1.182141453027725220e-01 1.821608066558837891e+00 5.110181570053100586e-01 3.257935643196105957e-01
7.968000000000000000e+03 6.119449615478515625e+01 -2.786181068420410156e+01 9.047179669141769409e-02 4.909593105316162109e+00 1.500019550323486328e+00 3.648101985454559326e-01
7.969000000000000000e+03 2.590981483459472656e+01 -3.518680953979492188e+01 4.353523552417755127e-01 3.482186198234558105e-01 2.350713014602661133e-01 -2.607041895389556885e-01
7.970000000000000000e+03 1.714767265319824219e+01 3.420837020874023438e+01 -5.230165086686611176e-03 3.990925475955009460e-02 1.040372624993324280e-02 8.397736586630344391e-03
7.971000000000000000e+03 5.349941253662109375e+01 -3.235010147094726562e+01 2.738157510757446289e-01 3.597635746002197266e+00 1.161435484886169434e+00 3.792824149131774902e-01
7.972000000000000000e+03 2.749795913696289062e+01 4.122803497314453125e+01 1.828405074775218964e-02 6.695710122585296631e-02 2.557234466075897217e-02 4.729275126010179520e-03
7.973000000000000000e+03 2.373972320556640625e+01 3.794438171386718750e+01 5.970804952085018158e-03 6.133760511875152588e-02 2.019252255558967590e-02 1.239904947578907013e-02
7.974000000000000000e+03 6.847676086425781250e+01 -3.260298156738281250e+01 1.088372319936752319e-01 6.102119445800781250e+00 1.863287091255187988e+00 2.443761378526687622e-01
7.975000000000000000e+03 9.944593429565429688e+00 3.738999938964843750e+01 -6.563913077116012573e-03 -2.097748778760433197e-02 -8.262420073151588440e-03 -3.519481746479868889e-03
7.976000000000000000e+03 6.785334777832031250e+01 4.148027801513671875e+01 -1.976120233535766602e+00 1.247587680816650391e+01 3.149926900863647461e+00 9.425128251314163208e-02
7.977000000000000000e+03 5.718679809570312500e+01 -2.891727447509765625e+01 1.290637105703353882e-01 4.190299034118652344e+00 1.295808911323547363e+00 3.618464767932891846e-01
7.978000000000000000e+03 5.528739547729492188e+01 -2.961961174011230469e+01 1.408691853284835815e-01 3.832980871200561523e+00 1.192155003547668457e+00 3.738516867160797119e-01
7.979000000000000000e+03 1.506742286682128906e+01 -3.047857856750488281e+01 1.656133681535720825e-01 -3.785025775432586670e-01 -6.386675685644149780e-02 -2.236510813236236572e-01
7.980000000000000000e+03 1.666281127929687500e+01 -3.200838470458984375e+01 1.950490921735763550e-01 -2.421798855066299438e-01 -1.413923595100641251e-02 -2.162314057350158691e-01
7.981000000000000000e+03 3.133747863769531250e+01 -3.840819931030273438e+01 7.490714192390441895e-01 4.946127533912658691e-01 3.731052577495574951e-01 -3.521953225135803223e-01
7.982000000000000000e+03 1.172223567962646484e+01 3.294725418090820312e+01 -8.751467801630496979e-03 1.600158517248928547e-03 -2.145392820239067078e-03 -3.264483995735645294e-03
7.983000000000000000e+03 6.188439178466796875e+01 -3.380303192138671875e+01 2.474066466093063354e-01 4.953122615814208984e+00 1.560158729553222656e+00 2.944416105747222900e-01
7.984000000000000000e+03 6.501361846923828125e+01 -2.902030754089355469e+01 9.930577874183654785e-02 5.561677932739257812e+00 1.698295116424560547e+00 2.918388545513153076e-01
7.985000000000000000e+03 5.837984085083007812e+01 -2.579675483703613281e+01 3.730273991823196411e-02 4.397717952728271484e+00 1.330506205558776855e+00 3.449091017246246338e-01
7.986000000000000000e+03 1.213516044616699219e+01 -3.457616424560546875e+01 1.290245950222015381e-01 -5.884931087493896484e-01 -1.378405541181564331e-01 -1.356836110353469849e-01
7.987000000000000000e+03 5.322480010986328125e+01 -3.794821929931640625e+01 7.160220742225646973e-01 3.410951375961303711e+00 1.238092064857482910e+00 2.576623558998107910e-01
7.988000000000000000e+03 1.847201919555664062e+01 -3.600265502929687500e+01 2.375984340906143188e-01 -1.624175161123275757e-01 2.255427464842796326e-02 -1.535637229681015015e-01
7.989000000000000000e+03 1.563432884216308594e+01 -3.686923980712890625e+01 1.855531930923461914e-01 -3.424386978149414062e-01 -4.706565663218498230e-02 -1.241472363471984863e-01
7.990000000000000000e+03 2.798573875427246094e+01 -3.846975708007812500e+01 5.662572979927062988e-01 3.650008141994476318e-01 2.793774306774139404e-01 -1.908402293920516968e-01
7.991000000000000000e+03 2.765753364562988281e+01 -4.115224456787109375e+01 5.750808119773864746e-01 3.328216075897216797e-01 2.723707258701324463e-01 -6.015133112668991089e-02
7.992000000000000000e+03 5.753038024902343750e+01 -4.096586608886718750e+01 5.707649588584899902e-01 4.149709224700927734e+00 1.416142344474792480e+00 7.965992391109466553e-02
7.993000000000000000e+03 6.712380981445312500e+01 -4.098805999755859375e+01 2.037178874015808105e-01 5.792694568634033203e+00 1.798923730850219727e+00 5.111360922455787659e-02
7.994000000000000000e+03 6.659275817871093750e+01 -3.780044555664062500e+01 2.053392380475997925e-01 5.740620613098144531e+00 1.783787965774536133e+00 1.424025148153305054e-01
7.995000000000000000e+03 1.758338737487792969e+01 3.733539581298828125e+01 -5.728345829993486404e-03 3.824881091713905334e-02 9.756139479577541351e-03 4.838336724787950516e-03
7.996000000000000000e+03 1.288145637512207031e+01 4.086151504516601562e+01 -7.130302488803863525e-03 2.022959990426898003e-03 -1.532202702946960926e-03 -2.563574234955012798e-04
7.997000000000000000e+03 8.406641006469726562e+00 4.073525619506835938e+01 -5.187105387449264526e-03 -3.721527010202407837e-02 -1.272071246057748795e-02 -8.906483417376875877e-04
7.998000000000000000e+03 7.869513034820556641e+00 3.658530044555664062e+01 -5.629164166748523712e-03 -4.040778428316116333e-02 -1.381108444184064865e-02 -4.215730819851160049e-03
7.999000000000000000e+03 7.521813964843750000e+01 4.052244949340820312e+01 -2.933915555477142334e-01 7.142754554748535156e+00 2.054808855056762695e+00 -4.230677708983421326e-02
8.000000000000000000e+03 6.354323196411132812e+01 -3.022039604187011719e+01 1.395025700330734253e-01 5.200817584991455078e+00 1.602096080780029297e+00 3.279325962066650391e-01
8.001000000000000000e+03 1.603360557556152344e+01 2.943684577941894531e+01 -6.068321410566568375e-03 4.744071140885353088e-02 1.241171732544898987e-02 9.362801909446716309e-03
8.002000000000000000e+03 2.042967414855957031e+01 -3.469790267944335938e+01 2.928226590156555176e-01 1.126072648912668228e-02 9.122501313686370850e-02 -2.051218003034591675e-01
8.003000000000000000e+03 5.909756851196289062e+01 -3.303317642211914062e+01 2.812935113906860352e-01 4.495951175689697266e+00 1.433173418045043945e+00 2.996745109558105469e-01
8.004000000000000000e+03 5.473727416992187500e+01 -2.762288093566894531e+01 4.244319722056388855e-02 3.751445770263671875e+00 1.138166666030883789e+00 3.444282412528991699e-01
8.005000000000000000e+03 6.484120941162109375e+01 4.062142562866210938e+01 -1.593925714492797852e+00 1.098902797698974609e+01 2.818530559539794922e+00 -5.908455848693847656e-01
8.006000000000000000e+03 6.211431884765625000e+01 -3.743750381469726562e+01 3.294861912727355957e-01 4.950177192687988281e+00 1.583899021148681641e+00 1.798839569091796875e-01
8.007000000000000000e+03 6.714947509765625000e+01 -3.485646438598632812e+01 1.545685827732086182e-01 5.834262371063232422e+00 1.796649217605590820e+00 2.071009278297424316e-01
8.008000000000000000e+03 1.465576362609863281e+01 -3.387355422973632812e+01 1.789138466119766235e-01 -4.112926423549652100e-01 -6.971363723278045654e-02 -1.734731346368789673e-01
8.009000000000000000e+03 5.954898071289062500e+01 -3.068840217590332031e+01 1.841468065977096558e-01 4.682095527648925781e+00 1.459872722625732422e+00 3.264868259429931641e-01
8.010000000000000000e+03 6.155221939086914062e+01 -3.064782142639160156e+01 1.595140993595123291e-01 4.947847366333007812e+00 1.532208442687988281e+00 3.620582222938537598e-01
8.011000000000000000e+03 5.057255172729492188e+01 3.791508865356445312e+01 2.705090045928955078e-01 6.535516679286956787e-02 1.007592454552650452e-01 1.067984476685523987e-01
8.012000000000000000e+03 4.714872741699218750e+01 3.647608947753906250e+01 1.262226849794387817e-01 5.607226118445396423e-02 5.468848347663879395e-02 8.572278171777725220e-02
8.013000000000000000e+03 4.687442398071289062e+01 3.622451400756835938e+01 1.122604832053184509e-01 6.073133647441864014e-02 5.189754441380500793e-02 7.315666973590850830e-02
8.014000000000000000e+03 3.914371871948242188e+01 3.037212562561035156e+01 6.003864482045173645e-02 5.903144925832748413e-02 3.572103008627891541e-02 5.794650688767433167e-02
8.015000000000000000e+03 3.894953918457031250e+01 2.944025230407714844e+01 5.856501683592796326e-02 5.912943556904792786e-02 3.530833497643470764e-02 5.863381177186965942e-02
8.016000000000000000e+03 3.869485855102539062e+01 2.920337104797363281e+01 5.949583649635314941e-02 5.890971794724464417e-02 3.552166745066642761e-02 5.975122377276420593e-02
8.017000000000000000e+03 1.636455917358398438e+01 -2.953061103820800781e+00 -1.303850293159484863e+00 -9.063755273818969727e-01 -6.630677580833435059e-01 -9.286536574363708496e-01
8.018000000000000000e+03 1.717685317993164062e+01 -2.160549640655517578e+00 -1.742731332778930664e+00 -1.139321327209472656e+00 -8.646157979965209961e-01 -1.072695970535278320e+00
8.019000000000000000e+03 1.745109939575195312e+01 -2.230975389480590820e+00 -1.751240968704223633e+00 -1.147864818572998047e+00 -8.697317242622375488e-01 -1.165177106857299805e+00
8.020000000000000000e+03 1.776998901367187500e+01 -1.592406988143920898e+00 -2.039565324783325195e+00 -1.191077351570129395e+00 -9.691928029060363770e-01 -1.222181320190429688e+00
8.021000000000000000e+03 1.901872062683105469e+01 -6.422315835952758789e-01 -2.465281963348388672e+00 -1.813079357147216797e+00 -1.283508419990539551e+00 -1.519378304481506348e+00
8.022000000000000000e+03 1.916411590576171875e+01 -5.587220191955566406e-01 -2.746723890304565430e+00 -2.711693763732910156e+00 -1.637525320053100586e+00 -1.730467557907104492e+00
8.023000000000000000e+03 2.033741760253906250e+01 7.020743936300277710e-02 -1.635108351707458496e+00 -2.215304374694824219e+00 -1.155123829841613770e+00 -3.329104900360107422e+00
8.024000000000000000e+03 2.066666793823242188e+01 1.606822460889816284e-01 -1.895846247673034668e+00 -1.723018765449523926e+00 -1.085659503936767578e+00 -2.922643423080444336e+00
8.025000000000000000e+03 2.058152770996093750e+01 3.061587512493133545e-01 -1.704596519470214844e+00 -1.903660535812377930e+00 -1.082477092742919922e+00 -3.035289764404296875e+00
8.026000000000000000e+03 2.169867324829101562e+01 7.013095021247863770e-01 -2.258764028549194336e+00 -5.244236588478088379e-01 -8.349563479423522949e-01 -2.290705442428588867e+00
8.027000000000000000e+03 2.147385597229003906e+01 8.209314346313476562e-01 -2.361893892288208008e+00 -7.674423456192016602e-01 -9.388008117675781250e-01 -2.406659603118896484e+00
8.028000000000000000e+03 2.175638771057128906e+01 8.898609876632690430e-01 -2.360719919204711914e+00 -5.866746306419372559e-01 -8.842183351516723633e-01 -2.223616600036621094e+00
8.029000000000000000e+03 2.247549629211425781e+01 1.378758311271667480e+00 -2.718806505203247070e+00 -5.405364036560058594e-01 -9.778028726577758789e-01 -1.725226640701293945e+00
8.030000000000000000e+03 2.302024459838867188e+01 1.715099573135375977e+00 -2.776110887527465820e+00 -5.393067002296447754e-01 -9.946252703666687012e-01 -1.558044433593750000e+00
8.031000000000000000e+03 2.335086250305175781e+01 1.981903910636901855e+00 -2.895342588424682617e+00 -5.860947966575622559e-01 -1.044431209564208984e+00 -1.496430516242980957e+00
8.032000000000000000e+03 2.356354141235351562e+01 1.926657199859619141e+00 -2.758032321929931641e+00 -4.799736142158508301e-01 -9.714018106460571289e-01 -1.377861857414245605e+00
8.033000000000000000e+03 2.430297279357910156e+01 2.217259645462036133e+00 -2.670325994491577148e+00 -4.929078817367553711e-01 -9.489701986312866211e-01 -1.208945631980895996e+00
8.034000000000000000e+03 2.417101669311523438e+01 2.479659557342529297e+00 -2.954249858856201172e+00 -6.470376253128051758e-01 -1.080386161804199219e+00 -1.383386492729187012e+00
8.035000000000000000e+03 2.467622947692871094e+01 2.817468643188476562e+00 -2.888414859771728516e+00 -6.519767642021179199e-01 -1.062117457389831543e+00 -1.349630594253540039e+00
8.036000000000000000e+03 2.484519958496093750e+01 2.923858642578125000e+00 -2.922350168228149414e+00 -6.864790320396423340e-01 -1.082648754119873047e+00 -1.350869774818420410e+00
8.037000000000000000e+03 2.538282585144042969e+01 3.207964420318603516e+00 -2.775056838989257812e+00 -7.227046489715576172e-01 -1.049328446388244629e+00 -1.324903249740600586e+00
8.038000000000000000e+03 2.556924247741699219e+01 3.306934356689453125e+00 -2.752053737640380859e+00 -7.518364787101745605e-01 -1.051167011260986328e+00 -1.310973763465881348e+00
8.039000000000000000e+03 2.605589294433593750e+01 3.694386482238769531e+00 -2.675119876861572266e+00 -8.504635691642761230e-01 -1.057675123214721680e+00 -1.354557633399963379e+00
8.040000000000000000e+03 2.619711494445800781e+01 3.790665388107299805e+00 -2.695918798446655273e+00 -8.587856888771057129e-01 -1.066411375999450684e+00 -1.351171731948852539e+00
8.041000000000000000e+03 2.643412017822265625e+01 3.626072883605957031e+00 -2.537790536880493164e+00 -8.269113302230834961e-01 -1.009410500526428223e+00 -1.233368039131164551e+00
8.042000000000000000e+03 2.667353057861328125e+01 3.658710002899169922e+00 -2.414299964904785156e+00 -8.403077125549316406e-01 -9.763823151588439941e-01 -1.188540577888488770e+00
8.043000000000000000e+03 2.690216255187988281e+01 3.769176483154296875e+00 -2.370182752609252930e+00 -8.918886780738830566e-01 -9.786214232444763184e-01 -1.185840487480163574e+00
8.044000000000000000e+03 2.709652137756347656e+01 4.284189224243164062e+00 -2.457016468048095703e+00 -1.024845719337463379e+00 -1.044558644294738770e+00 -1.349798083305358887e+00
8.045000000000000000e+03 2.709759521484375000e+01 3.922000408172607422e+00 -2.335300922393798828e+00 -9.392623901367187500e-01 -9.823690056800842285e-01 -1.199877619743347168e+00
8.046000000000000000e+03 2.758578491210937500e+01 4.635195255279541016e+00 -2.375849246978759766e+00 -1.171834707260131836e+00 -1.064305186271667480e+00 -1.378551363945007324e+00
8.047000000000000000e+03 2.760246658325195312e+01 4.333456516265869141e+00 -2.275896549224853516e+00 -1.091642856597900391e+00 -1.010261893272399902e+00 -1.253931760787963867e+00
8.048000000000000000e+03 2.798314857482910156e+01 4.681876659393310547e+00 -2.215818166732788086e+00 -1.209822177886962891e+00 -1.027692198753356934e+00 -1.270798444747924805e+00
8.049000000000000000e+03 2.790810585021972656e+01 4.846668243408203125e+00 -2.305191278457641602e+00 -1.263645529747009277e+00 -1.070651054382324219e+00 -1.355459451675415039e+00
8.050000000000000000e+03 2.816568183898925781e+01 4.707998275756835938e+00 -2.183197498321533203e+00 -1.234513044357299805e+00 -1.025313138961791992e+00 -1.227073907852172852e+00
8.051000000000000000e+03 2.915777397155761719e+01 5.559050559997558594e+00 -2.003684043884277344e+00 -1.307243585586547852e+00 -9.932782649993896484e-01 -1.114845752716064453e+00
8.052000000000000000e+03 2.922013854980468750e+01 5.207188129425048828e+00 -1.985943794250488281e+00 -1.170274496078491211e+00 -9.468654990196228027e-01 -1.023263573646545410e+00
8.053000000000000000e+03 2.742436790466308594e+01 8.270503997802734375e+00 -4.180227279663085938e+00 -2.078930854797363281e+00 -1.877747416496276855e+00 -3.149516820907592773e+00
8.054000000000000000e+03 2.710642814636230469e+01 8.175982475280761719e+00 -4.858057975769042969e+00 -3.259153366088867188e+00 -2.435163259506225586e+00 -4.038995742797851562e+00
8.055000000000000000e+03 6.244678115844726562e+01 3.593603897094726562e+01 1.452044129371643066e+00 2.379715681076049805e+00 1.149528026580810547e+00 -2.553191184997558594e+00
8.056000000000000000e+03 6.278294372558593750e+01 3.608037185668945312e+01 1.682295083999633789e+00 4.035020828247070312e+00 1.715194821357727051e+00 -3.482076168060302734e+00
8.057000000000000000e+03 6.378385925292968750e+01 3.579732894897460938e+01 1.850510001182556152e+00 9.664889335632324219e+00 3.454619884490966797e+00 -5.610100746154785156e+00
8.058000000000000000e+03 6.373516845703125000e+01 3.602539062500000000e+01 1.484069108963012695e+00 9.152218818664550781e+00 3.190886259078979492e+00 -5.363942146301269531e+00
8.059000000000000000e+03 6.416044616699218750e+01 3.573971557617187500e+01 1.146928310394287109e+00 1.399199295043945312e+01 4.541676521301269531e+00 -5.948658466339111328e+00
8.060000000000000000e+03 6.472659301757812500e+01 3.568704223632812500e+01 -8.587150275707244873e-02 1.928544425964355469e+01 5.759871482849121094e+00 -3.474418163299560547e+00
8.061000000000000000e+03 6.596012115478515625e+01 3.572973632812500000e+01 2.348892450332641602e+00 1.846793365478515625e+01 6.245048046112060547e+00 2.141155004501342773e+00
8.062000000000000000e+03 6.608393096923828125e+01 3.345267486572265625e+01 8.376141548156738281e+00 1.767630767822265625e+01 7.815734386444091797e+00 -1.960838437080383301e+00
8.063000000000000000e+03 6.586331939697265625e+01 3.229284667968750000e+01 2.214566230773925781e+00 1.793593406677246094e+01 6.045149803161621094e+00 -8.776383996009826660e-01
8.064000000000000000e+03 6.618078613281250000e+01 3.238851547241210938e+01 3.022853374481201172e+00 1.719265747070312500e+01 6.064653396606445312e+00 -1.507485032081604004e+00
8.065000000000000000e+03 6.515321350097656250e+01 3.248628234863281250e+01 1.434188008308410645e+00 2.013999748229980469e+01 6.472255706787109375e+00 1.512348651885986328e+00
8.066000000000000000e+03 6.443939208984375000e+01 3.212034606933593750e+01 9.016811251640319824e-01 1.568884754180908203e+01 4.977158546447753906e+00 5.214040279388427734e+00
8.067000000000000000e+03 6.427507781982421875e+01 3.245298767089843750e+01 1.650863766670227051e+00 1.520124721527099609e+01 5.055633544921875000e+00 6.402141094207763672e+00
8.068000000000000000e+03 6.407141876220703125e+01 3.247110366821289062e+01 2.279386758804321289e+00 1.325953865051269531e+01 4.661677837371826172e+00 7.027034759521484375e+00
8.069000000000000000e+03 6.377542877197265625e+01 3.193173599243164062e+01 1.873264074325561523e+00 1.032761764526367188e+01 3.660264492034912109e+00 5.966803550720214844e+00
8.070000000000000000e+03 6.366115188598632812e+01 3.251116561889648438e+01 3.207309007644653320e+00 8.544148445129394531e+00 3.525437355041503906e+00 6.697847366333007812e+00
8.071000000000000000e+03 6.339966201782226562e+01 3.222764968872070312e+01 2.904201030731201172e+00 7.229342937469482422e+00 3.040063381195068359e+00 5.898801326751708984e+00
8.072000000000000000e+03 6.279525375366210938e+01 3.232837295532226562e+01 2.934001922607421875e+00 3.766703367233276367e+00 2.010211706161499023e+00 4.354955673217773438e+00
8.073000000000000000e+03 6.260241317749023438e+01 3.237310028076171875e+01 2.700428485870361328e+00 2.961853742599487305e+00 1.698684692382812500e+00 3.767796277999877930e+00
8.074000000000000000e+03 6.226237869262695312e+01 3.265747070312500000e+01 2.050218582153320312e+00 1.548885583877563477e+00 1.079731225967407227e+00 2.579497098922729492e+00
8.075000000000000000e+03 6.206207656860351562e+01 3.239394760131835938e+01 1.959109663963317871e+00 1.710255384445190430e+00 1.100809574127197266e+00 2.567545890808105469e+00
8.076000000000000000e+03 6.223734283447265625e+01 3.242719650268554688e+01 2.259500980377197266e+00 1.913791418075561523e+00 1.251987695693969727e+00 2.868367433547973633e+00
8.077000000000000000e+03 2.595827484130859375e+01 7.296055793762207031e+00 -7.020268917083740234e+00 -3.547154426574707031e+00 -3.170227050781250000e+00 -4.263890266418457031e+00
8.078000000000000000e+03 5.764172744750976562e+01 3.690274047851562500e+01 -4.197091460227966309e-01 -5.217543803155422211e-03 -1.274780035018920898e-01 5.168790817260742188e-01
8.079000000000000000e+03 5.165808105468750000e+01 3.844821166992187500e+01 3.262276947498321533e-01 6.165665015578269958e-02 1.163653060793876648e-01 2.114112079143524170e-01
8.080000000000000000e+03 5.373239135742187500e+01 3.876268005371093750e+01 -3.556430637836456299e-01 -1.220512866973876953e+00 -4.728467762470245361e-01 5.486958026885986328e-01
8.081000000000000000e+03 5.416055679321289062e+01 3.790508651733398438e+01 -6.575230956077575684e-01 -1.092487692832946777e+00 -5.250031948089599609e-01 7.640424966812133789e-01
8.082000000000000000e+03 1.501774978637695312e+01 9.276464581489562988e-01 1.000789737701416016e+01 1.578714489936828613e+00 3.475983619689941406e+00 -3.786495447158813477e+00
8.083000000000000000e+03 4.469666671752929688e+01 -4.067240524291992188e+01 1.449043035507202148e+00 2.136890649795532227e+00 1.075780153274536133e+00 1.780803948640823364e-01
8.084000000000000000e+03 2.481917953491210938e+01 -3.782348251342773438e+01 4.248905181884765625e-01 2.381181567907333374e-01 1.989026069641113281e-01 -1.786741167306900024e-01
8.085000000000000000e+03 2.037326431274414062e+01 -5.453561544418334961e-01 -4.107925891876220703e+00 -3.301556110382080078e+00 -2.222844600677490234e+00 -3.190441370010375977e+00
8.086000000000000000e+03 2.618178367614746094e+01 3.428965568542480469e+00 -2.596649646759033203e+00 -7.684691548347473145e-01 -1.009535670280456543e+00 -1.229974746704101562e+00
8.087000000000000000e+03 2.585451316833496094e+01 2.568267822265625000e+00 -2.300613403320312500e+00 -5.741053819656372070e-01 -8.624156117439270020e-01 -9.448206424713134766e-01
8.088000000000000000e+03 2.520185279846191406e+01 2.612692356109619141e+00 -2.567126274108886719e+00 -5.572915077209472656e-01 -9.373252987861633301e-01 -1.115036606788635254e+00
8.089000000000000000e+03 2.464253044128417969e+01 2.499778985977172852e+00 -2.724590301513671875e+00 -5.678631067276000977e-01 -9.877360463142395020e-01 -1.213362336158752441e+00
8.090000000000000000e+03 2.479040908813476562e+01 2.344429016113281250e+00 -2.613649368286132812e+00 -5.680018663406372070e-01 -9.544954299926757812e-01 -1.177825450897216797e+00
8.091000000000000000e+03 2.393094635009765625e+01 2.107261180877685547e+00 -2.801237821578979492e+00 -4.720421135425567627e-01 -9.819839596748352051e-01 -1.314190030097961426e+00
8.092000000000000000e+03 2.408903884887695312e+01 1.953435063362121582e+00 -2.578866958618164062e+00 -4.246806800365447998e-01 -9.010643362998962402e-01 -1.162692785263061523e+00
8.093000000000000000e+03 2.391670036315917969e+01 1.790646195411682129e+00 -2.526505470275878906e+00 -3.750898540019989014e-01 -8.704785704612731934e-01 -1.150777578353881836e+00
8.094000000000000000e+03 2.953497695922851562e+01 5.257247924804687500e+00 -1.884446144104003906e+00 -1.066906452178955078e+00 -8.854057788848876953e-01 -9.536496400833129883e-01
8.095000000000000000e+03 3.004827308654785156e+01 5.744412422180175781e+00 -1.685357093811035156e+00 -9.885995984077453613e-01 -8.021870255470275879e-01 -1.057211518287658691e+00
8.096000000000000000e+03 2.993197631835937500e+01 5.334707260131835938e+00 -1.730872035026550293e+00 -9.614595174789428711e-01 -8.076995015144348145e-01 -9.072108268737792969e-01
8.097000000000000000e+03 2.784746742248535156e+01 4.607357025146484375e+00 -2.259357452392578125e+00 -1.181213974952697754e+00 -1.032171487808227539e+00 -1.285812139511108398e+00
8.098000000000000000e+03 2.772676086425781250e+01 3.744486808776855469e+00 -2.042964935302734375e+00 -9.342326521873474121e-01 -8.931592702865600586e-01 -9.854212999343872070e-01
8.099000000000000000e+03 2.710391235351562500e+01 3.540098905563354492e+00 -2.222936630249023438e+00 -8.476280570030212402e-01 -9.211694002151489258e-01 -1.055488228797912598e+00
8.100000000000000000e+03 1.830804061889648438e+01 -1.564455509185791016e+00 -2.044558048248291016e+00 -1.923289537429809570e+00 -1.190354347229003906e+00 -1.400838017463684082e+00
8.101000000000000000e+03 2.189593887329101562e+01 -5.377510190010070801e-01 -2.707300186157226562e-01 1.399524569511413574e+00 3.386383652687072754e-01 -1.450097680091857910e+00
8.102000000000000000e+03 4.608881759643554688e+01 3.652009963989257812e+01 1.261369585990905762e-01 3.411157801747322083e-02 4.807455837726593018e-02 6.415340304374694824e-02
8.103000000000000000e+03 4.446216201782226562e+01 3.473468780517578125e+01 8.231216669082641602e-02 4.105400294065475464e-02 3.700985014438629150e-02 5.698521062731742859e-02
8.104000000000000000e+03 4.448606872558593750e+01 3.523710250854492188e+01 8.494649827480316162e-02 4.088944569230079651e-02 3.775078430771827698e-02 5.431856960058212280e-02
8.105000000000000000e+03 4.362282180786132812e+01 3.466067123413085938e+01 8.284386992454528809e-02 4.309533536434173584e-02 3.778176009654998779e-02 5.367192998528480530e-02
8.106000000000000000e+03 4.074248504638671875e+01 3.286827087402343750e+01 6.368206441402435303e-02 5.096095800399780273e-02 3.439290449023246765e-02 5.457191541790962219e-02
8.107000000000000000e+03 1.586645507812500000e+01 6.160051345825195312e+00 1.957990825176239014e-01 3.115348517894744873e-01 1.522001773118972778e-01 2.245539277791976929e-01
8.108000000000000000e+03 2.459296226501464844e+01 1.536578369140625000e+01 9.931670874357223511e-02 1.116589158773422241e-01 6.329268962144851685e-02 1.096081882715225220e-01
8.109000000000000000e+03 1.929694938659667969e+01 -7.545307278633117676e-01 -3.065070867538452148e+00 -2.692475080490112305e+00 -1.727263808250427246e+00 -1.833494901657104492e+00
8.110000000000000000e+03 5.096231079101562500e+01 4.144718933105468750e+01 2.727546989917755127e-01 -2.383073866367340088e-01 1.033419277518987656e-02 2.752696722745895386e-02
8.111000000000000000e+03 6.341571807861328125e+01 3.671391677856445312e+01 9.292875528335571289e-01 7.658535003662109375e+00 2.576346874237060547e+00 -4.381271839141845703e+00
8.112000000000000000e+03 5.153151702880859375e+01 3.872777557373046875e+01 1.407434493303298950e-01 3.115566796623170376e-04 4.231650009751319885e-02 9.852727502584457397e-02
8.113000000000000000e+03 2.194571495056152344e+01 6.680096983909606934e-01 -2.114207506179809570e+00 -2.591308653354644775e-01 -7.120015025138854980e-01 -2.038501739501953125e+00
8.114000000000000000e+03 2.193384361267089844e+01 3.968290090560913086e-01 -2.050398588180541992e+00 -8.779945224523544312e-02 -6.414594054222106934e-01 -2.043101549148559570e+00
8.115000000000000000e+03 2.343356132507324219e+01 1.131923317909240723e+00 -2.168945074081420898e+00 -1.837158054113388062e-01 -7.057982683181762695e-01 -1.098602771759033203e+00
8.116000000000000000e+03 2.403327560424804688e+01 1.495227217674255371e+00 -2.269884824752807617e+00 -3.416739404201507568e-01 -7.834675908088684082e-01 -1.057945132255554199e+00
8.117000000000000000e+03 5.415357971191406250e+01 3.897972869873046875e+01 -5.626761913299560547e-02 -1.028815984725952148e+00 -3.255250751972198486e-01 2.336829900741577148e-01
8.118000000000000000e+03 4.907043933868408203e+00 -3.866939306259155273e+00 -1.141982823610305786e-01 -7.635879516601562500e-02 -5.716712400317192078e-02 -1.255672127008438110e-01
8.119000000000000000e+03 6.357200241088867188e+01 3.622869110107421875e+01 1.427267074584960938e+00 8.231110572814941406e+00 2.897513151168823242e+00 -5.019253253936767578e+00
8.120000000000000000e+03 6.400559997558593750e+01 3.620625305175781250e+01 6.293096542358398438e-01 1.175160312652587891e+01 3.714273929595947266e+00 -4.677224159240722656e+00
8.121000000000000000e+03 2.115663909912109375e+01 -5.630022883415222168e-01 -1.801602721214294434e+00 -1.000059485435485840e+00 -8.404986858367919922e-01 -2.519444942474365234e+00
8.122000000000000000e+03 2.731432151794433594e+01 3.161405563354492188e+00 -2.019349575042724609e+00 -7.936703562736511230e-01 -8.439059853553771973e-01 -8.843750953674316406e-01
8.123000000000000000e+03 2.736593627929687500e+01 3.462436199188232422e+00 -2.064058780670166016e+00 -8.558807969093322754e-01 -8.759818673133850098e-01 -9.636818766593933105e-01
8.124000000000000000e+03 1.497217082977294922e+01 -4.396214008331298828e+00 -8.165532350540161133e-01 -6.461207866668701172e-01 -4.388022124767303467e-01 -8.685152530670166016e-01
8.125000000000000000e+03 6.474199676513671875e+01 3.639989089965820312e+01 -5.478027462959289551e-01 1.594799709320068359e+01 4.620058536529541016e+00 -3.088418006896972656e+00
8.126000000000000000e+03 6.296116638183593750e+01 3.657479476928710938e+01 1.335429072380065918e+00 5.799466133117675781e+00 2.140468597412109375e+00 -3.997304201126098633e+00
8.127000000000000000e+03 6.438981628417968750e+01 3.599647140502929688e+01 1.047511249780654907e-01 1.531562995910644531e+01 4.626114368438720703e+00 -4.584581375122070312e+00
8.128000000000000000e+03 6.379736328125000000e+01 3.651795959472656250e+01 6.588046550750732422e-01 9.602893829345703125e+00 3.078509569168090820e+00 -4.427217483520507812e+00
8.129000000000000000e+03 7.808745574951171875e+01 3.436195755004882812e+01 1.642220616340637207e-01 4.899556159973144531e+00 1.519133448600769043e+00 -1.611857712268829346e-01
8.130000000000000000e+03 1.330874538421630859e+01 2.564910888671875000e+00 7.090828418731689453e-01 1.804253339767456055e+00 7.540008425712585449e-01 -6.205377578735351562e-01
8.131000000000000000e+03 6.356784439086914062e+01 3.192174148559570312e+01 2.129643917083740234e+00 8.878035545349121094e+00 3.302303791046142578e+00 5.807868957519531250e+00
8.132000000000000000e+03 6.382168960571289062e+01 3.219435882568359375e+01 2.194217920303344727e+00 1.052238655090332031e+01 3.814981222152709961e+00 6.428576946258544922e+00
8.133000000000000000e+03 6.395755767822265625e+01 3.187402534484863281e+01 1.463720917701721191e+00 1.163543987274169922e+01 3.929748296737670898e+00 5.795321464538574219e+00
8.134000000000000000e+03 6.334377288818359375e+01 3.191287612915039062e+01 2.378254175186157227e+00 7.436825275421142578e+00 2.944523811340332031e+00 5.569861412048339844e+00
8.135000000000000000e+03 6.431456756591796875e+01 3.189801597595214844e+01 8.746969103813171387e-01 1.401190567016601562e+01 4.465981006622314453e+00 5.228917598724365234e+00
8.136000000000000000e+03 6.312135314941406250e+01 3.193243598937988281e+01 2.557166814804077148e+00 6.248877048492431641e+00 2.641813278198242188e+00 5.231122493743896484e+00
8.137000000000000000e+03 2.140290451049804688e+01 -2.976902425289154053e-01 -1.221489787101745605e+00 2.826258838176727295e-01 -2.816591560840606689e-01 -2.587792634963989258e+00
8.138000000000000000e+03 6.187828063964843750e+01 3.731196594238281250e+01 9.088579416275024414e-01 3.463258266448974609e+00 1.311634898185729980e+00 -2.508532762527465820e+00
8.139000000000000000e+03 6.531296539306640625e+01 3.205146026611328125e+01 7.033118009567260742e-01 1.800085258483886719e+01 5.611248970031738281e+00 1.312524557113647461e+00
8.140000000000000000e+03 6.562989807128906250e+01 3.143702125549316406e+01 2.355690747499465942e-01 1.606515502929687500e+01 4.890216827392578125e+00 8.653555512428283691e-01
8.141000000000000000e+03 6.582187652587890625e+01 3.175790977478027344e+01 8.460455536842346191e-01 1.675182723999023438e+01 5.279361724853515625e+00 5.703003332018852234e-02
8.142000000000000000e+03 6.613767242431640625e+01 3.266608810424804688e+01 4.139133453369140625e+00 1.755965614318847656e+01 6.509636402130126953e+00 -1.862298846244812012e+00
8.143000000000000000e+03 2.337345314025878906e+01 6.849653720855712891e-01 -1.773625493049621582e+00 7.119603455066680908e-02 -5.107288360595703125e-01 -1.002820730209350586e+00
8.144000000000000000e+03 2.373277091979980469e+01 5.243566632270812988e-02 -7.205240726470947266e-01 2.417564392089843750e-01 -1.436302810907363892e-01 -6.892606616020202637e-01
8.145000000000000000e+03 4.431875610351562500e+01 3.560574722290039062e+01 1.001888960599899292e-01 4.196124151349067688e-02 4.264504089951515198e-02 6.059080734848976135e-02
8.146000000000000000e+03 4.392951583862304688e+01 3.482262420654296875e+01 8.527839183807373047e-02 3.829966112971305847e-02 3.707341477274894714e-02 5.861617252230644226e-02
8.147000000000000000e+03 2.612546730041503906e+01 2.394748449325561523e+00 -2.071410655975341797e+00 -5.519763827323913574e-01 -7.870160937309265137e-01 -8.089084625244140625e-01
8.148000000000000000e+03 2.627046966552734375e+01 2.661609172821044922e+00 -2.170896530151367188e+00 -6.045592427253723145e-01 -8.326367139816284180e-01 -8.919475674629211426e-01
8.149000000000000000e+03 3.082095527648925781e+01 1.071335506439208984e+01 -1.418192744255065918e+00 -1.302764534950256348e+00 -8.162871599197387695e-01 -1.322607636451721191e+00
8.150000000000000000e+03 4.676920318603515625e+01 -3.592310714721679688e+01 7.357619404792785645e-01 2.885701656341552734e+00 1.086439013481140137e+00 5.436457991600036621e-01
8.151000000000000000e+03 2.240430641174316406e+01 6.047872304916381836e-01 -1.974757432937622070e+00 -5.144404713064432144e-03 -5.939705371856689453e-01 -1.525828242301940918e+00
8.152000000000000000e+03 2.221597099304199219e+01 4.620615243911743164e-01 -1.798488497734069824e+00 2.641887962818145752e-01 -4.602899253368377686e-01 -1.691088318824768066e+00
8.153000000000000000e+03 2.976005935668945312e+01 5.143624305725097656e+00 -1.762081265449523926e+00 -9.958466887474060059e-01 -8.273783922195434570e-01 -8.920527100563049316e-01
8.154000000000000000e+03 1.905991363525390625e+01 -1.444393873214721680e+00 -1.997899532318115234e+00 -2.535237073898315430e+00 -1.359940886497497559e+00 -1.820021867752075195e+00
8.155000000000000000e+03 2.359898757934570312e+01 8.552057147026062012e-01 -1.773592352867126465e+00 -1.387698352336883545e-01 -5.737086534500122070e-01 -9.868718981742858887e-01
8.156000000000000000e+03 1.280731296539306641e+01 2.104846954345703125e+00 1.223867774009704590e+00 1.649094223976135254e-01 4.166331887245178223e-01 -3.852806389331817627e-01
8.157000000000000000e+03 6.624108123779296875e+01 3.629085922241210938e+01 1.112671852111816406e+00 1.679760551452636719e+01 5.373083114624023438e+00 1.569856286048889160e+00
8.158000000000000000e+03 2.218723106384277344e+01 6.874867677688598633e-01 -2.310627937316894531e+00 -1.742481887340545654e-01 -7.454628348350524902e-01 -1.961855411529541016e+00
8.159000000000000000e+03 6.293051910400390625e+01 3.746684265136718750e+01 6.526912450790405273e-01 6.428591728210449219e+00 2.124384880065917969e+00 -3.238469362258911133e+00
8.160000000000000000e+03 2.765038299560546875e+01 3.147380828857421875e+00 -1.833702802658081055e+00 -7.770705819129943848e-01 -7.832320332527160645e-01 -7.719624638557434082e-01
8.161000000000000000e+03 2.816602516174316406e+01 4.493220806121826172e+00 -2.067307472229003906e+00 -1.186507344245910645e+00 -9.761444926261901855e-01 -1.148168087005615234e+00
8.162000000000000000e+03 2.791638565063476562e+01 4.353804588317871094e+00 -2.125805377960205078e+00 -1.113150835037231445e+00 -9.716868400573730469e-01 -1.162748456001281738e+00
8.163000000000000000e+03 6.904844760894775391e+00 -3.164591979980468750e+01 6.109770014882087708e-02 -9.791499972343444824e-01 -2.754156887531280518e-01 -1.414138674736022949e-01
8.164000000000000000e+03 6.567607116699218750e+01 3.628220367431640625e+01 1.183912605047225952e-01 1.771375274658203125e+01 5.349643230438232422e+00 1.248397156596183777e-01
8.165000000000000000e+03 6.303155517578125000e+01 3.157289886474609375e+01 2.063094615936279297e+00 6.411077976226806641e+00 2.542251825332641602e+00 4.895302295684814453e+00
8.166000000000000000e+03 6.412692260742187500e+01 3.168296432495117188e+01 9.584531188011169434e-01 1.243746471405029297e+01 4.018775463104248047e+00 5.231601715087890625e+00
8.167000000000000000e+03 6.432767486572265625e+01 3.146047401428222656e+01 5.059286355972290039e-01 1.305727195739746094e+01 4.068960189819335938e+00 4.551011562347412109e+00
8.168000000000000000e+03 6.454660034179687500e+01 3.125395965576171875e+01 1.549039781093597412e-01 1.345212268829345703e+01 4.082108020782470703e+00 3.864331245422363281e+00
8.169000000000000000e+03 6.589862060546875000e+01 3.603847122192382812e+01 1.167757034301757812e+00 1.794193840026855469e+01 5.732908248901367188e+00 1.356387853622436523e+00
8.170000000000000000e+03 6.134751892089843750e+01 3.802597808837890625e+01 8.350350856781005859e-01 3.401147842407226562e+00 1.270854830741882324e+00 -1.863018631935119629e+00
8.171000000000000000e+03 2.207022285461425781e+01 6.461855769157409668e-02 -1.380444049835205078e+00 4.666605293750762939e-01 -2.741350531578063965e-01 -1.805943012237548828e+00
8.172000000000000000e+03 2.432714462280273438e+01 8.427033424377441406e-01 -1.531073927879333496e+00 -5.457855015993118286e-02 -4.756957292556762695e-01 -7.111132740974426270e-01
8.173000000000000000e+03 2.442284011840820312e+01 1.157580256462097168e+00 -1.832354187965393066e+00 -1.732848435640335083e-01 -6.016917228698730469e-01 -7.450462579727172852e-01
8.174000000000000000e+03 6.725582885742187500e+01 3.569716644287109375e+01 3.557828664779663086e+00 1.451395225524902344e+01 5.421534061431884766e+00 2.318640947341918945e+00
8.175000000000000000e+03 2.364037322998046875e+01 1.262231469154357910e+00 -2.195108652114868164e+00 -2.642340660095214844e-01 -7.378028035163879395e-01 -1.089144706726074219e+00
8.176000000000000000e+03 2.504445838928222656e+01 2.365908861160278320e+00 -2.455199956893920898e+00 -5.181639194488525391e-01 -8.920091986656188965e-01 -1.058393955230712891e+00
8.177000000000000000e+03 2.490899848937988281e+01 2.472216606140136719e+00 -2.636791229248046875e+00 -5.111383199691772461e-01 -9.443788528442382812e-01 -1.148491501808166504e+00
8.178000000000000000e+03 2.504745674133300781e+01 2.546540021896362305e+00 -2.642279386520385742e+00 -5.667797923088073730e-01 -9.627177119255065918e-01 -1.128126859664916992e+00
8.179000000000000000e+03 3.555244064331054688e+01 2.751130294799804688e+01 5.573686584830284119e-02 7.297898083925247192e-02 3.861475363373756409e-02 6.229784339666366577e-02
8.180000000000000000e+03 3.554287719726562500e+01 2.716782188415527344e+01 5.341495573520660400e-02 7.328747957944869995e-02 3.801073133945465088e-02 6.287946552038192749e-02
8.181000000000000000e+03 5.363634109497070312e+01 -3.499247360229492188e+01 4.757100343704223633e-01 3.576606035232543945e+00 1.215694785118103027e+00 3.800419569015502930e-01
8.182000000000000000e+03 2.455316734313964844e+01 1.688822746276855469e+01 8.400961011648178101e-02 1.117813587188720703e-01 5.873728916049003601e-02 9.863324463367462158e-02
8.183000000000000000e+03 3.857019042968750000e+01 3.281208801269531250e+01 5.947961285710334778e-02 5.780875682830810547e-02 3.518651053309440613e-02 5.028071999549865723e-02
8.184000000000000000e+03 4.322035598754882812e+01 3.529486465454101562e+01 8.624351024627685547e-02 4.325227066874504089e-02 3.884873539209365845e-02 5.028526112437248230e-02
8.185000000000000000e+03 3.695414733886718750e+01 3.087055206298828125e+01 5.395696684718132019e-02 6.700887531042098999e-02 3.628975152969360352e-02 5.436599999666213989e-02
8.186000000000000000e+03 3.107115364074707031e+01 4.595238208770751953e+00 -1.360013842582702637e+00 -7.181128263473510742e-01 -6.234380006790161133e-01 -6.334577202796936035e-01
8.187000000000000000e+03 2.765806198120117188e+01 2.850260972976684570e+00 -1.792565464973449707e+00 -7.460365295410156250e-01 -7.615805864334106445e-01 -7.120628952980041504e-01
8.188000000000000000e+03 2.553205871582031250e+01 2.406736373901367188e+00 -2.352933883666992188e+00 -5.194378495216369629e-01 -8.617115020751953125e-01 -9.338484406471252441e-01
8.189000000000000000e+03 2.638476753234863281e+01 2.183947563171386719e+00 -1.901184082031250000e+00 -5.270823240280151367e-01 -7.284799218177795410e-01 -7.088832855224609375e-01
8.190000000000000000e+03 6.509535217285156250e+01 3.169643211364746094e+01 2.042540311813354492e-01 1.638117027282714844e+01 4.975627422332763672e+00 2.402638912200927734e+00
8.191000000000000000e+03 6.512322998046875000e+01 3.639311218261718750e+01 -6.928538084030151367e-01 1.721166229248046875e+01 4.955642700195312500e+00 -1.536988377571105957e+00
8.192000000000000000e+03 6.514637756347656250e+01 3.676496887207031250e+01 -1.201625704765319824e+00 1.635233306884765625e+01 4.545212268829345703e+00 -1.664551615715026855e+00
8.193000000000000000e+03 1.053728485107421875e+01 -5.070891857147216797e+00 -4.406400918960571289e-01 -1.654499173164367676e-01 -1.818270087242126465e-01 -4.824996590614318848e-01
8.194000000000000000e+03 1.353071308135986328e+01 -5.259151458740234375e+00 -5.605550408363342285e-01 -4.325713813304901123e-01 -2.979379296302795410e-01 -7.396088838577270508e-01
8.195000000000000000e+03 1.573707675933837891e+01 -5.632825851440429688e+00 -4.014615714550018311e-01 -8.426136374473571777e-01 -3.732225596904754639e-01 -8.379945755004882812e-01
8.196000000000000000e+03 1.646331977844238281e+01 -6.186728000640869141e+00 -2.476662546396255493e-01 -1.024176597595214844e+00 -3.815528750419616699e-01 -7.598792314529418945e-01
8.197000000000000000e+03 2.492085647583007812e+01 2.196502208709716797e+00 -2.445443391799926758e+00 -3.974202871322631836e-01 -8.528591394424438477e-01 -9.799089431762695312e-01
8.198000000000000000e+03 2.812002944946289062e+01 4.039727687835693359e+00 -1.991718888282775879e+00 -1.010276198387145996e+00 -9.005985260009765625e-01 -9.920174479484558105e-01
8.199000000000000000e+03 3.593991470336914062e+01 2.806665611267089844e+01 5.631800368428230286e-02 7.212992012500762939e-02 3.853437677025794983e-02 5.960535258054733276e-02
8.200000000000000000e+03 2.501703453063964844e+01 1.785409569740295410e+00 -2.146938562393188477e+00 -3.816956579685211182e-01 -7.585902810096740723e-01 -8.379303216934204102e-01
8.201000000000000000e+03 6.398144531250000000e+01 3.121003150939941406e+01 7.383807301521301270e-01 1.102697467803955078e+01 3.529606580734252930e+00 4.783991813659667969e+00
8.202000000000000000e+03 6.450972747802734375e+01 3.084161186218261719e+01 -7.369969785213470459e-02 1.251503658294677734e+01 3.732401132583618164e+00 3.579827070236206055e+00
8.203000000000000000e+03 6.472842407226562500e+01 3.098723220825195312e+01 -1.444251239299774170e-01 1.343390369415283203e+01 3.986843585968017578e+00 3.287898778915405273e+00
8.204000000000000000e+03 6.260938644409179688e+01 3.138322830200195312e+01 2.019854068756103516e+00 5.040544033050537109e+00 2.118119478225708008e+00 4.241893768310546875e+00
8.205000000000000000e+03 6.252913284301757812e+01 3.214152908325195312e+01 2.599063873291015625e+00 3.321072101593017578e+00 1.776040792465209961e+00 3.870882987976074219e+00
8.206000000000000000e+03 6.239010620117187500e+01 3.196330261230468750e+01 2.389705896377563477e+00 3.212001562118530273e+00 1.680512309074401855e+00 3.686371088027954102e+00
8.207000000000000000e+03 6.197325515747070312e+01 3.199804687500000000e+01 2.075472354888916016e+00 2.256829500198364258e+00 1.299690604209899902e+00 2.924280405044555664e+00
8.208000000000000000e+03 2.945576477050781250e+01 2.210757637023925781e+01 5.805098637938499451e-02 8.677237480878829956e-02 4.344700649380683899e-02 7.390978187322616577e-02
8.209000000000000000e+03 7.578215026855468750e+01 3.315388107299804688e+01 5.729333162307739258e-01 6.599581718444824219e+00 2.151754617691040039e+00 -6.394175291061401367e-01
8.210000000000000000e+03 2.565600585937500000e+01 2.107991456985473633e+00 -2.142871141433715820e+00 -4.440051913261413574e-01 -7.760629057884216309e-01 -7.949788570404052734e-01
8.211000000000000000e+03 2.643553352355957031e+01 1.670202612876892090e+00 -1.542241096496582031e+00 -4.548707902431488037e-01 -5.991335511207580566e-01 -5.215851664543151855e-01
8.212000000000000000e+03 3.675521373748779297e+00 3.598421096801757812e+01 9.686744306236505508e-04 -8.139326423406600952e-02 -2.412737719714641571e-02 -5.211172625422477722e-03
8.213000000000000000e+03 4.146108150482177734e+00 3.316909790039062500e+01 -1.415858394466340542e-03 -7.881996780633926392e-02 -2.407074719667434692e-02 -6.760143209248781204e-03
8.214000000000000000e+03 3.373918056488037109e+00 4.814671516418457031e+00 5.648914724588394165e-03 -9.625987708568572998e-02 -2.718328870832920074e-02 9.216438233852386475e-02
8.215000000000000000e+03 6.193604278564453125e+01 3.149350357055664062e+01 1.955375075340270996e+00 3.071122884750366211e+00 1.507949352264404297e+00 3.197706460952758789e+00
8.216000000000000000e+03 6.566738128662109375e+01 3.070813941955566406e+01 -3.312804400920867920e-01 1.432981872558593750e+01 4.199561595916748047e+00 1.154132962226867676e+00
8.217000000000000000e+03 5.332803344726562500e+01 -3.005365562438964844e+01 1.225306987762451172e-01 3.565541267395019531e+00 1.106421589851379395e+00 3.917934596538543701e-01
8.218000000000000000e+03 6.654413604736328125e+01 3.178510093688964844e+01 1.814296960830688477e+00 1.558247756958007812e+01 5.219032287597656250e+00 -1.274956822395324707e+00
8.219000000000000000e+03 5.502027130126953125e+01 3.013931083679199219e+01 -4.413563013076782227e-01 4.811530113220214844e-01 1.193901151418685913e-02 -2.866907119750976562e-01
8.220000000000000000e+03 6.379590606689453125e+01 3.171164321899414062e+01 1.489891290664672852e+00 1.048919773101806641e+01 3.593726634979248047e+00 5.579080104827880859e+00
8.221000000000000000e+03 2.822639656066894531e+01 2.001790618896484375e+01 7.228215783834457397e-02 9.206945449113845825e-02 4.930548369884490967e-02 8.279963582754135132e-02
8.222000000000000000e+03 6.419813537597656250e+01 3.119879341125488281e+01 4.329341351985931396e-01 1.208061313629150391e+01 3.754064083099365234e+00 4.491047859191894531e+00
8.223000000000000000e+03 3.349592208862304688e+01 7.121104240417480469e+00 -9.785317182540893555e-01 -7.864880561828613281e-01 -5.295059084892272949e-01 -7.871472835540771484e-01
8.224000000000000000e+03 3.309956359863281250e+01 7.594134330749511719e+00 -1.022668957710266113e+00 -8.836330771446228027e-01 -5.718905925750732422e-01 -8.773789405822753906e-01
8.225000000000000000e+03 3.060274696350097656e+01 4.373725891113281250e+00 -1.425208926200866699e+00 -7.437229752540588379e-01 -6.506795883178710938e-01 -6.183629035949707031e-01
8.226000000000000000e+03 5.813761711120605469e+00 -2.668793678283691406e+01 4.425107687711715698e-02 -9.739035367965698242e-01 -2.788957357406616211e-01 -1.787949949502944946e-01
8.227000000000000000e+03 7.354487419128417969e+00 -2.532948493957519531e+01 7.107923179864883423e-02 -8.261880278587341309e-01 -2.265326380729675293e-01 -2.290844172239303589e-01
8.228000000000000000e+03 3.765591049194335938e+01 3.279042816162109375e+01 5.725665017962455750e-02 6.146338582038879395e-02 3.561601042747497559e-02 4.967438057065010071e-02
8.229000000000000000e+03 3.538889312744140625e+01 2.804956817626953125e+01 5.389086902141571045e-02 7.218357175588607788e-02 3.782233223319053650e-02 5.922501534223556519e-02
8.230000000000000000e+03 6.218323516845703125e+01 3.131528282165527344e+01 2.000989198684692383e+00 3.815274000167846680e+00 1.744879007339477539e+00 3.640258312225341797e+00
8.231000000000000000e+03 6.351836013793945312e+01 3.093898391723632812e+01 9.801941514015197754e-01 8.892296791076660156e+00 2.961747407913208008e+00 4.620553970336914062e+00
8.232000000000000000e+03 2.473387145996093750e+01 1.167685270309448242e+00 -1.667299032211303711e+00 -1.628286987543106079e-01 -5.490382909774780273e-01 -6.856905221939086914e-01
8.233000000000000000e+03 2.502029609680175781e+01 1.251082897186279297e+00 -1.719802975654602051e+00 -2.358641326427459717e-01 -5.867001414299011230e-01 -6.237013936042785645e-01
8.234000000000000000e+03 6.760956573486328125e+01 3.219797134399414062e+01 3.293187379837036133e+00 1.346557521820068359e+01 5.027628898620605469e+00 -1.808753967285156250e+00
8.235000000000000000e+03 6.747662353515625000e+01 3.443330001831054688e+01 5.845211982727050781e+00 1.325961399078369141e+01 5.731447696685791016e+00 9.172092080116271973e-01
8.236000000000000000e+03 6.738011932373046875e+01 3.417385101318359375e+01 6.363999843597412109e+00 1.341516780853271484e+01 5.933750152587890625e+00 3.752229809761047363e-01
8.237000000000000000e+03 3.201967620849609375e+01 2.490485382080078125e+01 5.126838386058807373e-02 7.815624773502349854e-02 3.882738947868347168e-02 6.556692719459533691e-02
8.238000000000000000e+03 6.428649139404296875e+01 3.081682968139648438e+01 1.349099129438400269e-01 1.163915061950683594e+01 3.532217979431152344e+00 3.988494396209716797e+00
8.239000000000000000e+03 6.458428192138671875e+01 3.052684020996093750e+01 -2.441853135824203491e-01 1.221119213104248047e+01 3.590102195739746094e+00 3.257845640182495117e+00
8.240000000000000000e+03 6.470740509033203125e+01 3.694411468505859375e+01 -1.038122177124023438e+00 1.436811161041259766e+01 3.998996734619140625e+00 -2.528485059738159180e+00
8.241000000000000000e+03 1.682983970642089844e+01 8.425178527832031250e+00 1.350725293159484863e-01 2.306152731180191040e-01 1.097063422203063965e-01 1.719045341014862061e-01
8.242000000000000000e+03 1.639245986938476562e+01 8.081565856933593750e+00 1.324956417083740234e-01 2.516885697841644287e-01 1.152552589774131775e-01 1.770600676536560059e-01
8.243000000000000000e+03 1.883097648620605469e+01 1.040223789215087891e+01 1.195081695914268494e-01 1.759812682867050171e-01 8.864682912826538086e-02 1.459520757198333740e-01
8.244000000000000000e+03 3.461488342285156250e+01 2.922858619689941406e+01 4.918368533253669739e-02 7.276839762926101685e-02 3.658562526106834412e-02 5.600370094180107117e-02
8.245000000000000000e+03 7.359690189361572266e+00 -7.540644645690917969e+00 -1.576493978500366211e-01 -2.718035876750946045e-01 -1.288358867168426514e-01 -3.987060785293579102e-01
8.246000000000000000e+03 8.590672492980957031e+00 -2.702812957763671875e+01 7.807278633117675781e-02 -7.751224637031555176e-01 -2.091149091720581055e-01 -2.228223234415054321e-01
8.247000000000000000e+03 2.922981452941894531e+01 2.182252120971679688e+01 6.019321084022521973e-02 8.756470680236816406e-02 4.432737454771995544e-02 7.466428726911544800e-02
8.248000000000000000e+03 2.909624862670898438e+01 2.233488082885742188e+01 5.570949241518974304e-02 8.831763267517089844e-02 4.320813715457916260e-02 7.312658429145812988e-02
8.249000000000000000e+03 2.615501785278320312e+01 1.913874053955078125e+01 7.127005606889724731e-02 1.034726798534393311e-01 5.242282152175903320e-02 8.527089655399322510e-02
8.250000000000000000e+03 1.190003299713134766e+01 -6.576832294464111328e+00 -3.435157537460327148e-01 -3.576586842536926270e-01 -2.103523313999176025e-01 -6.456345915794372559e-01
8.251000000000000000e+03 3.318275070190429688e+01 2.510828208923339844e+01 5.321062356233596802e-02 7.670156657695770264e-02 3.897365927696228027e-02 6.501187384128570557e-02
8.252000000000000000e+03 3.297482299804687500e+01 2.488117408752441406e+01 5.333784595131874084e-02 7.694661617279052734e-02 3.908533602952957153e-02 6.505054980516433716e-02
8.253000000000000000e+03 1.919479370117187500e+01 1.076927661895751953e+01 1.184461936354637146e-01 1.655920147895812988e-01 8.521146327257156372e-02 1.445020437240600586e-01
8.254000000000000000e+03 6.662930297851562500e+01 3.124160766601562500e+01 9.081339240074157715e-01 1.468532466888427734e+01 4.678037643432617188e+00 -9.209343791007995605e-01
8.255000000000000000e+03 6.692182159423828125e+01 3.150139617919921875e+01 1.487426638603210449e+00 1.450406742095947266e+01 4.797448158264160156e+00 -1.354100108146667480e+00
8.256000000000000000e+03 7.567469787597656250e+01 2.987794494628906250e+01 3.062359094619750977e-01 7.170907020568847656e+00 2.243142843246459961e+00 -1.247567057609558105e+00
8.257000000000000000e+03 5.260146331787109375e+01 -2.690094375610351562e+01 -1.818380691111087799e-02 3.382960557937622070e+00 1.009433031082153320e+00 2.878804802894592285e-01
8.258000000000000000e+03 2.761408805847167969e+01 1.978922080993652344e+01 7.201528549194335938e-02 9.580965340137481689e-02 5.034748092293739319e-02 8.409094810485839844e-02
8.259000000000000000e+03 2.905015182495117188e+01 2.155055809020996094e+01 6.152638792991638184e-02 8.833913505077362061e-02 4.495965689420700073e-02 7.591433823108673096e-02
8.260000000000000000e+03 2.515950775146484375e+01 9.705770015716552734e-01 -1.416672229766845703e+00 -2.422873079776763916e-01 -4.976878762245178223e-01 -5.613262653350830078e-01
8.261000000000000000e+03 2.561990928649902344e+01 1.901966691017150879e+00 -1.926689624786376953e+00 -4.244472980499267578e-01 -7.053411006927490234e-01 -7.336274981498718262e-01
8.262000000000000000e+03 2.725007820129394531e+01 2.030725955963134766e+00 -1.568697810173034668e+00 -5.751666426658630371e-01 -6.431593298912048340e-01 -5.390315055847167969e-01
8.263000000000000000e+03 2.823271942138671875e+01 3.163993835449218750e+00 -1.697555661201477051e+00 -7.995995283126831055e-01 -7.491465806961059570e-01 -6.765094399452209473e-01
8.264000000000000000e+03 3.178977775573730469e+01 3.228402137756347656e+00 -9.725433588027954102e-01 -5.753962993621826172e-01 -4.643818736076354980e-01 -3.124355077743530273e-01
8.265000000000000000e+03 6.292761611938476562e+01 3.014059448242187500e+01 8.776344656944274902e-01 7.035140037536621094e+00 2.373832464218139648e+00 3.925381183624267578e+00
8.266000000000000000e+03 6.610782623291015625e+01 3.006107330322265625e+01 -5.392009019851684570e-01 1.330618000030517578e+01 3.830093622207641602e+00 6.371445655822753906e-01
8.267000000000000000e+03 6.812168884277343750e+01 3.415702438354492188e+01 5.174729824066162109e+00 1.220717334747314453e+01 5.214570999145507812e+00 2.194453030824661255e-01
8.268000000000000000e+03 3.333112716674804688e+01 2.555735969543457031e+01 5.300711840391159058e-02 7.667558640241622925e-02 3.890481218695640564e-02 6.410426646471023560e-02
8.269000000000000000e+03 6.366383361816406250e+01 3.069533729553222656e+01 6.511170864105224609e-01 9.398516654968261719e+00 3.014890193939208984e+00 4.354369163513183594e+00
8.270000000000000000e+03 6.772810363769531250e+01 3.403691101074218750e+01 5.653717994689941406e+00 1.279339599609375000e+01 5.534133911132812500e+00 7.359462231397628784e-02
8.271000000000000000e+03 2.565822219848632812e+01 1.629173874855041504e+00 -1.801588535308837891e+00 -3.996675312519073486e-01 -6.603768467903137207e-01 -6.547781229019165039e-01
8.272000000000000000e+03 6.572805786132812500e+01 3.691487884521484375e+01 -7.708233594894409180e-01 1.579295730590820312e+01 4.506640434265136719e+00 -4.122336804866790771e-01
8.273000000000000000e+03 6.565415191650390625e+01 3.742078018188476562e+01 -1.289942622184753418e+00 1.503974056243896484e+01 4.124939441680908203e+00 -8.322678804397583008e-01
8.274000000000000000e+03 6.687965393066406250e+01 3.096877670288085938e+01 6.738144755363464355e-01 1.404093456268310547e+01 4.414424896240234375e+00 -8.860389590263366699e-01
8.275000000000000000e+03 3.250567245483398438e+01 9.667796134948730469e+00 -1.142944216728210449e+00 -1.137112379074096680e+00 -6.840169429779052734e-01 -1.063378334045410156e+00
8.276000000000000000e+03 1.600555992126464844e+01 8.542725563049316406e+00 1.103031411767005920e-01 2.600773572921752930e-01 1.111141443252563477e-01 1.571525931358337402e-01
8.277000000000000000e+03 2.682858085632324219e+01 6.689019501209259033e-02 -4.994445443153381348e-01 -3.201068341732025146e-01 -2.458654046058654785e-01 -1.276683658361434937e-01
8.278000000000000000e+03 3.342934036254882812e+01 2.523023033142089844e+01 5.295981839299201965e-02 7.652889192104339600e-02 3.884661197662353516e-02 6.407242268323898315e-02
8.279000000000000000e+03 3.381768798828125000e+01 2.550887489318847656e+01 5.348753184080123901e-02 7.658616453409194946e-02 3.902210667729377747e-02 6.372918933629989624e-02
8.280000000000000000e+03 6.466300964355468750e+01 3.015080451965332031e+01 -4.299620389938354492e-01 1.183136367797851562e+01 3.420420408248901367e+00 2.928848981857299805e+00
8.281000000000000000e+03 6.397127151489257812e+01 3.003673362731933594e+01 -3.099976573139429092e-03 9.992689132690429688e+00 2.996876716613769531e+00 3.584833860397338867e+00
8.282000000000000000e+03 1.058484268188476562e+01 -2.407872581481933594e+01 1.268245428800582886e-01 -6.092261075973510742e-01 -1.447204649448394775e-01 -3.022986054420471191e-01
8.283000000000000000e+03 6.532099914550781250e+01 2.931063079833984375e+01 -8.130591511726379395e-01 1.168105220794677734e+01 3.260397911071777344e+00 1.788482189178466797e+00
8.284000000000000000e+03 6.664263153076171875e+01 2.980053329467773438e+01 -4.625807106494903564e-01 1.289658069610595703e+01 3.730200052261352539e+00 4.504558071494102478e-02
8.285000000000000000e+03 6.670237731933593750e+01 3.015689659118652344e+01 -2.244927436113357544e-01 1.333758354187011719e+01 3.933927297592163086e+00 -1.973986774682998657e-01
8.286000000000000000e+03 5.389780807495117188e+01 -2.596386528015136719e+01 -2.892456389963626862e-02 3.554161310195922852e+00 1.057571053504943848e+00 2.792094051837921143e-01
8.287000000000000000e+03 7.459980010986328125e+01 2.942452812194824219e+01 3.198798298835754395e-01 7.781825542449951172e+00 2.430511713027954102e+00 -1.464766144752502441e+00
8.288000000000000000e+03 3.023596763610839844e+01 2.741501092910766602e+00 -1.127282142639160156e+00 -6.648279428482055664e-01 -5.376330018043518066e-01 -3.216562867164611816e-01
8.289000000000000000e+03 3.907108306884765625e+01 1.789475822448730469e+01 -1.034230947494506836e+00 -1.093399286270141602e+00 -6.382890939712524414e-01 -1.088984251022338867e+00
8.290000000000000000e+03 6.371474838256835938e+01 3.043713188171386719e+01 4.160444438457489014e-01 9.471857070922851562e+00 2.966370344161987305e+00 4.089226245880126953e+00
8.291000000000000000e+03 4.468677520751953125e+01 -1.655308341979980469e+01 7.918673753738403320e-02 1.367236852645874023e+00 4.339270889759063721e-01 -1.556486822664737701e-02
8.292000000000000000e+03 2.545242881774902344e+01 1.108920335769653320e+00 -1.530740022659301758e+00 -2.905717194080352783e-01 -5.463935136795043945e-01 -5.464512705802917480e-01
8.293000000000000000e+03 3.270079803466796875e+01 9.955090522766113281e+00 -1.147953987121582031e+00 -1.151969194412231445e+00 -6.899769306182861328e-01 -1.069712877273559570e+00
8.294000000000000000e+03 3.340089797973632812e+01 4.344054222106933594e+00 -8.652614355087280273e-01 -5.218888521194458008e-01 -4.161450862884521484e-01 -4.093360304832458496e-01
8.295000000000000000e+03 6.442379760742187500e+01 2.966887664794921875e+01 -4.000165462493896484e-01 1.067322635650634766e+01 3.081962823867797852e+00 2.985991001129150391e+00
8.296000000000000000e+03 6.562165069580078125e+01 2.918790245056152344e+01 -8.757349252700805664e-01 1.190482902526855469e+01 3.308728218078613281e+00 1.384426355361938477e+00
8.297000000000000000e+03 6.621580505371093750e+01 2.960749816894531250e+01 -6.784266233444213867e-01 1.268844509124755859e+01 3.603005409240722656e+00 5.682785511016845703e-01
8.298000000000000000e+03 6.184595108032226562e+00 3.150839233398437500e+01 -5.001295823603868484e-03 -5.462079495191574097e-02 -1.788662746548652649e-02 -9.807170368731021881e-03
8.299000000000000000e+03 3.258402633666992188e+01 2.560821723937988281e+01 5.079654976725578308e-02 7.696467638015747070e-02 3.832836821675300598e-02 6.383346766233444214e-02
8.300000000000000000e+03 2.872780227661132812e+01 2.166052055358886719e+01 6.002725288271903992e-02 8.954231441020965576e-02 4.487087205052375793e-02 7.535527646541595459e-02
8.301000000000000000e+03 2.862677192687988281e+01 2.129181861877441406e+01 6.242555379867553711e-02 8.986417204141616821e-02 4.568691924214363098e-02 7.715059071779251099e-02
8.302000000000000000e+03 5.274365615844726562e+01 -2.156158828735351562e+01 -3.931004181504249573e-02 3.222683906555175781e+00 9.550121426582336426e-01 2.038485109806060791e-01
8.303000000000000000e+03 3.300863647460937500e+01 -3.117614269256591797e+00 3.896336257457733154e-01 -4.137603938579559326e-01 -7.238033227622509003e-03 3.869368508458137512e-02
8.304000000000000000e+03 6.466694641113281250e+01 2.942399597167968750e+01 -6.102043390274047852e-01 1.093616008758544922e+01 3.097786664962768555e+00 2.550261020660400391e+00
8.305000000000000000e+03 6.364949417114257812e+01 3.012585258483886719e+01 3.054457902908325195e-01 9.129415512084960938e+00 2.830458402633666992e+00 3.867184877395629883e+00
8.306000000000000000e+03 2.852539634704589844e+01 2.216287422180175781e+01 5.499413609504699707e-02 9.056083112955093384e-02 4.366648942232131958e-02 7.351002097129821777e-02
8.307000000000000000e+03 4.974420070648193359e+00 5.016738414764404297e+00 3.024045936763286591e-02 -1.134255304932594299e-01 -2.495552226901054382e-02 1.183030381798744202e-01
8.308000000000000000e+03 3.178985595703125000e+01 2.635597229003906250e+00 -8.467374444007873535e-01 -5.474626421928405762e-01 -4.182600080966949463e-01 -2.204801142215728760e-01
8.309000000000000000e+03 3.148145866394042969e+01 2.423010587692260742e+00 -8.597940206527709961e-01 -5.571199655532836914e-01 -4.250741899013519287e-01 -2.022552043199539185e-01
8.310000000000000000e+03 2.137447547912597656e+01 1.452589893341064453e+01 8.860832452774047852e-02 1.375882774591445923e-01 6.785897910594940186e-02 1.074420586228370667e-01
8.311000000000000000e+03 5.115629673004150391e+00 3.134957122802734375e+01 -3.580477321520447731e-03 -7.019480317831039429e-02 -2.213258482515811920e-02 -9.018616750836372375e-03
8.312000000000000000e+03 2.058637428283691406e+01 -2.164773559570312500e+01 2.221711426973342896e-01 1.093804091215133667e-01 9.946546703577041626e-02 -3.268335759639739990e-01
8.313000000000000000e+03 2.568925476074218750e+01 1.973478126525878906e+01 6.177331507205963135e-02 1.046108230948448181e-01 4.991524294018745422e-02 8.122283220291137695e-02
8.314000000000000000e+03 6.699936676025390625e+01 2.966742897033691406e+01 -4.009925127029418945e-01 1.264125823974609375e+01 3.672079801559448242e+00 -3.242475688457489014e-01
8.315000000000000000e+03 1.765847396850585938e+01 1.143020057678222656e+01 8.584240823984146118e-02 1.866134405136108398e-01 8.173675835132598877e-02 1.233550459146499634e-01
8.316000000000000000e+03 3.383107757568359375e+01 4.344458103179931641e+00 -8.212918639183044434e-01 -4.962343573570251465e-01 -3.952578604221343994e-01 -3.878461420536041260e-01
8.317000000000000000e+03 6.305087661743164062e+01 2.963289070129394531e+01 4.726963639259338379e-01 7.460961341857910156e+00 2.380097150802612305e+00 3.614210128784179688e+00
8.318000000000000000e+03 1.162362480163574219e+01 -7.254410743713378906e+00 -2.881866991519927979e-01 -3.959991037845611572e-01 -2.052557468414306641e-01 -6.476368308067321777e-01
8.319000000000000000e+03 1.112674522399902344e+01 -7.823887825012207031e+00 -2.062337547540664673e-01 -4.038800001144409180e-01 -1.830341368913650513e-01 -6.142314076423645020e-01
8.320000000000000000e+03 3.066106224060058594e+01 2.490626573562622070e+00 -9.842785596847534180e-01 -6.187719106674194336e-01 -4.809151291847229004e-01 -2.399768382310867310e-01
8.321000000000000000e+03 6.364633560180664062e+01 2.926013374328613281e+01 -6.855928897857666016e-02 8.776808738708496094e+00 2.612474918365478516e+00 3.244083881378173828e+00
8.322000000000000000e+03 6.392945480346679688e+01 2.903548431396484375e+01 -3.058948516845703125e-01 9.235268592834472656e+00 2.678812026977539062e+00 2.981967687606811523e+00
8.323000000000000000e+03 2.798926734924316406e+01 2.329251670837402344e+01 4.641275852918624878e-02 9.133126586675643921e-02 4.132320731878280640e-02 6.946226954460144043e-02
8.324000000000000000e+03 6.528486633300781250e+01 2.898781585693359375e+01 -8.648366928100585938e-01 1.131944370269775391e+01 3.136382102966308594e+00 1.766882419586181641e+00
8.325000000000000000e+03 6.551731109619140625e+01 2.891617202758789062e+01 -9.082560539245605469e-01 1.142133903503417969e+01 3.153924942016601562e+00 1.504591226577758789e+00
8.326000000000000000e+03 1.143892860412597656e+01 -2.270460510253906250e+01 1.488783955574035645e-01 -5.633224844932556152e-01 -1.243332326412200928e-01 -3.218697309494018555e-01
8.327000000000000000e+03 3.221806716918945312e+01 2.780839920043945312e+01 4.422541335225105286e-02 7.703359425067901611e-02 3.637770190834999084e-02 5.762663483619689941e-02
8.328000000000000000e+03 7.164640045166015625e+01 -2.606580162048339844e+01 2.845737524330615997e-02 6.773877620697021484e+00 2.040700435638427734e+00 2.399690002202987671e-01
8.329000000000000000e+03 7.025241088867187500e+01 3.026875877380371094e+01 9.616631269454956055e-01 1.035366630554199219e+01 3.394598722457885742e+00 -1.745617747306823730e+00
8.330000000000000000e+03 1.330566406250000000e+01 2.543454360961914062e+01 -9.156938642263412476e-03 4.004191979765892029e-02 9.265494532883167267e-03 2.611141651868820190e-03
8.331000000000000000e+03 4.241574859619140625e+01 2.105134201049804688e+01 -1.002356171607971191e+00 -9.578366279602050781e-01 -5.880578160285949707e-01 -1.009074091911315918e+00
8.332000000000000000e+03 5.252935409545898438e+01 2.984690093994140625e+01 -7.798482775688171387e-01 -1.639941781759262085e-01 -2.831527590751647949e-01 -5.576863288879394531e-01
8.333000000000000000e+03 3.328860855102539062e+01 2.595994377136230469e+01 5.037437006831169128e-02 7.663795351982116699e-02 3.810369595885276794e-02 6.276892125606536865e-02
8.334000000000000000e+03 1.482762813568115234e+01 8.181704521179199219e+00 8.491182327270507812e-02 3.086832165718078613e-01 1.180785074830055237e-01 1.281546354293823242e-01
8.335000000000000000e+03 3.305477523803710938e+01 -2.207138776779174805e+00 2.656078040599822998e-01 -4.295491576194763184e-01 -4.918240383267402649e-02 6.155943125486373901e-02
8.336000000000000000e+03 1.050177574157714844e+01 -1.741056251525878906e+01 1.326816678047180176e-01 -5.659047365188598633e-01 -1.299669146537780762e-01 -4.133715629577636719e-01
8.337000000000000000e+03 1.741664505004882812e+01 -2.061621475219726562e+01 2.216348350048065186e-01 -1.559684574604034424e-01 1.969991251826286316e-02 -3.287310004234313965e-01
8.338000000000000000e+03 2.545676612854003906e+01 2.451098060607910156e+01 3.026277944445610046e-02 9.408885240554809570e-02 3.730548918247222900e-02 5.975134670734405518e-02
8.339000000000000000e+03 2.536807441711425781e+01 2.513116073608398438e+01 2.792479656636714935e-02 9.280048310756683350e-02 3.621758520603179932e-02 5.721847340464591980e-02
8.340000000000000000e+03 1.723434448242187500e+01 2.498494529724121094e+01 -7.980516529642045498e-04 7.476007193326950073e-02 2.218860574066638947e-02 2.340385131537914276e-02
8.341000000000000000e+03 5.955204010009765625e+01 2.876720809936523438e+01 7.218041419982910156e-01 2.586150169372558594e+00 9.923862814903259277e-01 1.624816179275512695e+00
8.342000000000000000e+03 7.159518432617187500e+01 1.625984954833984375e+01 -5.232486724853515625e-01 8.005548477172851562e+00 2.244689941406250000e+00 -2.512372732162475586e-01
8.343000000000000000e+03 7.109387969970703125e+01 1.757013511657714844e+01 -6.378189921379089355e-01 8.056682586669921875e+00 2.225658893585205078e+00 -2.970319390296936035e-01
8.344000000000000000e+03 7.174065399169921875e+01 -2.257650947570800781e+01 1.142092514783143997e-02 6.870607376098632812e+00 2.064608573913574219e+00 2.495676577091217041e-01
8.345000000000000000e+03 3.458203125000000000e+01 1.120643806457519531e+01 -1.064460992813110352e+00 -1.078356146812438965e+00 -6.428451538085937500e-01 -1.015326380729675293e+00
8.346000000000000000e+03 4.043960952758789062e+01 1.930308151245117188e+01 -9.637594819068908691e-01 -9.918060898780822754e-01 -5.866696834564208984e-01 -1.087062001228332520e+00
8.347000000000000000e+03 6.998252868652343750e+01 2.861551284790039062e+01 -4.765728861093521118e-02 1.040831565856933594e+01 3.108197450637817383e+00 -1.525951981544494629e+00
8.348000000000000000e+03 6.701403808593750000e+01 2.891480255126953125e+01 -7.464482784271240234e-01 1.194854831695556641e+01 3.360630035400390625e+00 -6.610577553510665894e-02
8.349000000000000000e+03 1.581093788146972656e+01 -2.147162818908691406e+01 2.060832977294921875e-01 -2.842905819416046143e-01 -2.346218004822731018e-02 -3.350180685520172119e-01
8.350000000000000000e+03 3.873437881469726562e+01 1.706396865844726562e+01 -1.028584003448486328e+00 -1.088390350341796875e+00 -6.350923180580139160e-01 -1.057780027389526367e+00
8.351000000000000000e+03 3.457310485839843750e+01 1.192811012268066406e+01 -1.102704167366027832e+00 -1.151384592056274414e+00 -6.762266159057617188e-01 -1.082028508186340332e+00
8.352000000000000000e+03 2.995298576354980469e+01 2.849898338317871094e+01 3.344704955816268921e-02 8.142953366041183472e-02 3.446297347545623779e-02 5.433320999145507812e-02
8.353000000000000000e+03 1.154563426971435547e+01 -1.137540626525878906e+01 2.034313976764678955e-02 -5.133748054504394531e-01 -1.479095071554183960e-01 -5.803195834159851074e-01
8.354000000000000000e+03 1.420232486724853516e+01 2.550396728515625000e+01 -7.854493334889411926e-03 4.681473970413208008e-02 1.168807409703731537e-02 7.111249025911092758e-03
8.355000000000000000e+03 1.423177528381347656e+01 2.459071159362792969e+01 -6.397556513547897339e-03 5.114350095391273499e-02 1.342378370463848114e-02 7.766198832541704178e-03
8.356000000000000000e+03 2.096893119812011719e+01 1.538626861572265625e+01 7.346687465906143188e-02 1.364216357469558716e-01 6.296655535697937012e-02 9.824153035879135132e-02
8.357000000000000000e+03 1.505975246429443359e+01 1.057362270355224609e+01 5.887788161635398865e-02 2.252851277589797974e-01 8.524890244007110596e-02 8.969516307115554810e-02
8.358000000000000000e+03 5.737218856811523438e+01 -2.065302467346191406e+01 3.852537600323557854e-03 4.111238002777099609e+00 1.234527230262756348e+00 2.877529561519622803e-01
8.359000000000000000e+03 7.139677429199218750e+01 1.379120254516601562e+01 -4.092480540275573730e-01 7.803650856018066406e+00 2.218320846557617188e+00 -7.718501240015029907e-02
8.360000000000000000e+03 7.166775512695312500e+01 9.435072898864746094e+00 -2.305139899253845215e-01 7.638336181640625000e+00 2.222346782684326172e+00 1.053500622510910034e-01
8.361000000000000000e+03 7.085800933837890625e+01 9.940227508544921875e+00 -2.650043070316314697e-01 7.480726242065429688e+00 2.164716482162475586e+00 1.230301186442375183e-01
8.362000000000000000e+03 2.973810195922851562e+01 1.705167055130004883e+00 -8.939465880393981934e-01 -6.124593019485473633e-01 -4.519217610359191895e-01 -1.933439821004867554e-01
8.363000000000000000e+03 6.443385314941406250e+01 2.848474884033203125e+01 -6.815816164016723633e-01 9.752853393554687500e+00 2.721381664276123047e+00 2.378430843353271484e+00
8.364000000000000000e+03 2.876706886291503906e+01 6.639884114265441895e-01 -5.915031433105468750e-01 -5.068383812904357910e-01 -3.295024633407592773e-01 -8.803161233663558960e-02
8.365000000000000000e+03 5.188707733154296875e+01 2.936863517761230469e+01 -8.072674870491027832e-01 -3.041795194149017334e-01 -3.334341049194335938e-01 -5.993389487266540527e-01
8.366000000000000000e+03 1.172641754150390625e+01 6.982308387756347656e+00 1.198350340127944946e-01 2.676359713077545166e-01 1.162413060665130615e-01 -7.485879212617874146e-02
8.367000000000000000e+03 6.465884399414062500e+01 2.819675064086914062e+01 -8.054407835006713867e-01 9.865822792053222656e+00 2.718114614486694336e+00 2.094810485839843750e+00
8.368000000000000000e+03 6.371695709228515625e+01 2.871267700195312500e+01 -2.789758145809173584e-01 8.654843330383300781e+00 2.512760162353515625e+00 2.906058311462402344e+00
8.369000000000000000e+03 6.532672882080078125e+01 2.832158660888671875e+01 -9.525603652000427246e-01 1.064193916320800781e+01 2.906813621520996094e+00 1.589162945747375488e+00
8.370000000000000000e+03 2.073037528991699219e+01 1.482117366790771484e+01 7.853657007217407227e-02 1.396459490060806274e-01 6.545475870370864868e-02 1.026230305433273315e-01
8.371000000000000000e+03 2.048896026611328125e+01 1.434343147277832031e+01 8.233585208654403687e-02 1.428841203451156616e-01 6.756599247455596924e-02 1.061165705323219299e-01
8.372000000000000000e+03 3.305399703979492188e+01 -1.442550659179687500e+00 1.476437598466873169e-01 -4.425113499164581299e-01 -8.846027404069900513e-02 6.992878764867782593e-02
8.373000000000000000e+03 3.370487976074218750e+01 -1.332321405410766602e+00 1.221214309334754944e-01 -4.035675525665283203e-01 -8.443383872509002686e-02 6.586719304323196411e-02
8.374000000000000000e+03 3.285891723632812500e+01 -1.020080208778381348e+00 5.707817897200584412e-02 -4.596506059169769287e-01 -1.207717284560203552e-01 5.967478454113006592e-02
8.375000000000000000e+03 1.357476997375488281e+01 -9.891906738281250000e+00 9.912382811307907104e-03 -5.890965461730957031e-01 -1.737552583217620850e-01 -6.284494996070861816e-01
8.376000000000000000e+03 1.010138511657714844e+01 -9.460750579833984375e+00 -1.018037721514701843e-01 -4.196028113365173340e-01 -1.564219743013381958e-01 -5.577569603919982910e-01
8.377000000000000000e+03 1.815151405334472656e+01 1.282459926605224609e+01 7.379417866468429565e-02 1.671410202980041504e-01 7.228055596351623535e-02 1.091787740588188171e-01
8.378000000000000000e+03 6.730873107910156250e+01 2.880754852294921875e+01 -6.891493797302246094e-01 1.177786254882812500e+01 3.326614141464233398e+00 -3.351141214370727539e-01
8.379000000000000000e+03 9.322641372680664062e+00 -1.039552974700927734e+01 -5.254887044429779053e-02 -4.375818669795989990e-01 -1.470392197370529175e-01 -5.161553025245666504e-01
8.380000000000000000e+03 6.044983673095703125e+01 2.731388473510742188e+01 3.685508668422698975e-01 4.104907512664794922e+00 1.342037558555603027e+00 2.063651323318481445e+00
8.381000000000000000e+03 3.476885604858398438e+01 3.252677440643310547e+00 -5.782542824745178223e-01 -3.826141357421875000e-01 -2.882605195045471191e-01 -2.097650170326232910e-01
8.382000000000000000e+03 2.070266532897949219e+01 1.576991558074951172e+01 6.716597825288772583e-02 1.354703605175018311e-01 6.079090386629104614e-02 9.382414817810058594e-02
8.383000000000000000e+03 2.051142501831054688e+01 1.520693492889404297e+01 7.142713665962219238e-02 1.388972997665405273e-01 6.309733539819717407e-02 9.781646728515625000e-02
8.384000000000000000e+03 3.882172012329101562e+01 -5.129983425140380859e+00 3.825969696044921875e-01 1.649340540170669556e-01 1.642592996358871460e-01 5.862435698509216309e-02
8.385000000000000000e+03 3.731631851196289062e+01 -3.297718763351440430e+00 3.237293064594268799e-01 -5.376912653446197510e-02 8.098805695772171021e-02 6.759306788444519043e-02
8.386000000000000000e+03 5.958707809448242188e+01 -1.938082122802734375e+01 8.083950728178024292e-03 4.556776523590087891e+00 1.369458198547363281e+00 3.364306986331939697e-01
8.387000000000000000e+03 2.267482757568359375e+01 2.236962127685546875e+01 2.824644744396209717e-02 1.029273048043251038e-01 3.935212641954421997e-02 5.981703475117683411e-02
8.388000000000000000e+03 1.432578468322753906e+01 2.382568931579589844e+01 -5.535188131034374237e-03 5.876969918608665466e-02 1.597035303711891174e-02 1.137032639235258102e-02
8.389000000000000000e+03 5.867028808593750000e+01 2.847281074523925781e+01 5.514537096023559570e-01 2.158215761184692383e+00 8.129008412361145020e-01 1.229450225830078125e+00
8.390000000000000000e+03 4.957078552246093750e+01 -1.793767356872558594e+01 9.276435710489749908e-03 2.475968360900878906e+00 7.455734610557556152e-01 8.995609730482101440e-02
8.391000000000000000e+03 2.605557632446289062e+01 2.143111228942871094e+01 4.980365186929702759e-02 1.002955734729766846e-01 4.502976685762405396e-02 7.406338304281234741e-02
8.392000000000000000e+03 5.135611057281494141e+00 6.337657451629638672e+00 6.533420085906982422e-02 -1.243542134761810303e-01 -1.770600490272045135e-02 8.713252097368240356e-02
8.393000000000000000e+03 1.093443965911865234e+01 -1.060950088500976562e+01 -1.165569480508565903e-02 -4.954482614994049072e-01 -1.521311849355697632e-01 -5.689921975135803223e-01
8.394000000000000000e+03 3.673679733276367188e+01 3.826567411422729492e+00 -4.384005069732666016e-01 -2.326660305261611938e-01 -2.013199627399444580e-01 -1.801934689283370972e-01
8.395000000000000000e+03 6.987932586669921875e+01 2.770870208740234375e+01 -4.316944181919097900e-01 1.025704193115234375e+01 2.947604417800903320e+00 -1.318772435188293457e+00
8.396000000000000000e+03 6.371103668212890625e+01 2.818037223815917969e+01 -4.144580364227294922e-01 8.434270858764648438e+00 2.405943870544433594e+00 2.643262863159179688e+00
8.397000000000000000e+03 6.469225311279296875e+01 2.766544151306152344e+01 -8.821828961372375488e-01 9.516139030456542969e+00 2.590186834335327148e+00 1.907802939414978027e+00
8.398000000000000000e+03 6.487934875488281250e+01 2.794143295288085938e+01 -8.991597294807434082e-01 9.890639305114746094e+00 2.697443723678588867e+00 1.849610447883605957e+00
8.399000000000000000e+03 3.343156814575195312e+01 -6.957494616508483887e-01 1.746801659464836121e-02 -4.262050986289978027e-01 -1.226211264729499817e-01 4.953995719552040100e-02
8.400000000000000000e+03 7.192372894287109375e+01 -2.138136482238769531e+01 4.590142518281936646e-03 6.920374393463134766e+00 2.077489376068115234e+00 2.460210770368576050e-01
8.401000000000000000e+03 2.031507682800292969e+01 1.466406059265136719e+01 7.614032179117202759e-02 1.427682787179946899e-01 6.567257642745971680e-02 1.025258526206016541e-01
8.402000000000000000e+03 7.044779968261718750e+01 1.416526603698730469e+01 -4.697695970535278320e-01 7.652345180511474609e+00 2.154772758483886719e+00 -2.945001609623432159e-02
8.403000000000000000e+03 3.786811065673828125e+01 8.971046447753906250e+00 -6.790657639503479004e-01 -4.586750566959381104e-01 -3.413222432136535645e-01 -5.303365588188171387e-01
8.404000000000000000e+03 7.090687561035156250e+01 -9.610951423645019531e+00 3.115545725449919701e-03 6.955341339111328125e+00 2.087537050247192383e+00 2.912836372852325439e-01
8.405000000000000000e+03 4.112535476684570312e+01 2.012840461730957031e+01 -9.697208404541015625e-01 -9.922096133232116699e-01 -5.885791182518005371e-01 -1.076228499412536621e+00
8.406000000000000000e+03 7.110916614532470703e+00 2.007661437988281250e+01 -4.014644771814346313e-03 -3.461682423949241638e-02 -1.158944144845008850e-02 -2.066744491457939148e-02
8.407000000000000000e+03 5.667127227783203125e+01 -1.796510696411132812e+01 2.466274425387382507e-02 3.943121910095214844e+00 1.190335392951965332e+00 2.695450186729431152e-01
8.408000000000000000e+03 3.490157699584960938e+01 1.156172370910644531e+01 -1.047030806541442871e+00 -1.075799226760864258e+00 -6.368490457534790039e-01 -1.012649178504943848e+00
8.409000000000000000e+03 1.692432022094726562e+01 1.311499309539794922e+01 5.573371797800064087e-02 1.708020120859146118e-01 6.796071678400039673e-02 9.201222658157348633e-02
8.410000000000000000e+03 7.073767089843750000e+01 1.142547225952148438e+01 -3.468103110790252686e-01 7.521517276763916016e+00 2.152412176132202148e+00 7.577224075794219971e-02
8.411000000000000000e+03 1.207793617248535156e+01 1.133851051330566406e+01 3.810012713074684143e-02 1.601131856441497803e-01 5.946399644017219543e-02 7.971482351422309875e-03
8.412000000000000000e+03 6.115666198730468750e+01 2.721582221984863281e+01 2.270896136760711670e-01 4.892703533172607422e+00 1.535937905311584473e+00 2.259457349777221680e+00
8.413000000000000000e+03 6.109530258178710938e+01 2.677947807312011719e+01 1.189462095499038696e-01 4.917110443115234375e+00 1.510817050933837891e+00 2.154700756072998047e+00
8.414000000000000000e+03 6.181022262573242188e+01 2.661396980285644531e+01 -7.964317500591278076e-02 5.711349487304687500e+00 1.689512014389038086e+00 2.236588239669799805e+00
8.415000000000000000e+03 6.978499603271484375e+01 1.694590759277343750e+01 -6.825017333030700684e-01 7.798964023590087891e+00 2.134938716888427734e+00 -1.098651289939880371e-01
8.416000000000000000e+03 3.702417373657226562e+01 1.119987583160400391e+01 -8.609446883201599121e-01 -7.701562643051147461e-01 -4.893302917480468750e-01 -7.784851193428039551e-01
8.417000000000000000e+03 3.517987442016601562e+01 1.118079471588134766e+01 -1.007974863052368164e+00 -1.002704501152038574e+00 -6.032037734985351562e-01 -9.534795880317687988e-01
8.418000000000000000e+03 3.557475662231445312e+01 1.144248771667480469e+01 -9.869795441627502441e-01 -9.834724068641662598e-01 -5.911356210708618164e-01 -9.402913451194763184e-01
8.419000000000000000e+03 3.754701995849609375e+01 -2.225797414779663086e+00 2.379061877727508545e-01 -3.921562060713768005e-02 5.960717052221298218e-02 8.073763549327850342e-02
8.420000000000000000e+03 1.667435264587402344e+01 2.296002578735351562e+01 8.557879482395946980e-04 8.185902982950210571e-02 2.481444366276264191e-02 2.641072310507297516e-02
8.421000000000000000e+03 6.899033355712890625e+01 -5.097897529602050781e+00 -7.299460936337709427e-03 6.613659381866455078e+00 1.981908082962036133e+00 3.364553749561309814e-01
8.422000000000000000e+03 3.770609664916992188e+01 5.823575973510742188e+00 -5.103015899658203125e-01 -2.387809604406356812e-01 -2.247247695922851562e-01 -2.907085120677947998e-01
8.423000000000000000e+03 1.347311687469482422e+01 2.171953964233398438e+01 -4.498833790421485901e-03 6.298357248306274414e-02 1.754542253911495209e-02 8.767434395849704742e-03
8.424000000000000000e+03 7.086083221435546875e+01 -2.014969444274902344e+01 6.128708831965923309e-03 6.744924068450927734e+00 2.025315761566162109e+00 2.771598398685455322e-01
8.425000000000000000e+03 7.073921966552734375e+01 -2.115275573730468750e+01 1.180263515561819077e-02 6.689571380615234375e+00 2.010412216186523438e+00 2.731857001781463623e-01
8.426000000000000000e+03 6.497225952148437500e+01 2.746804237365722656e+01 -9.685383439064025879e-01 9.655261993408203125e+00 2.606017112731933594e+00 1.686536908149719238e+00
8.427000000000000000e+03 6.844806671142578125e+01 -1.378689765930175781e+01 1.688966341316699982e-02 6.377379894256591797e+00 1.918280959129333496e+00 3.207440078258514404e-01
8.428000000000000000e+03 6.887729644775390625e+01 2.721184921264648438e+01 -8.017490506172180176e-01 1.043672752380371094e+01 2.890493392944335938e+00 -8.463388681411743164e-01
8.429000000000000000e+03 6.955818939208984375e+01 2.735381317138671875e+01 -6.084757447242736816e-01 1.026025104522705078e+01 2.895532608032226562e+00 -1.135123133659362793e+00
8.430000000000000000e+03 3.711751937866210938e+01 4.365556240081787109e+00 -4.498558342456817627e-01 -2.176582068204879761e-01 -2.002542018890380859e-01 -2.078029066324234009e-01
8.431000000000000000e+03 7.701883792877197266e+00 7.830849170684814453e+00 1.237452104687690735e-01 -6.004212796688079834e-02 1.911092363297939301e-02 5.237389821559190750e-03
8.432000000000000000e+03 5.129999923706054688e+01 2.883708572387695312e+01 -8.236272335052490234e-01 -4.020454883575439453e-01 -3.677017986774444580e-01 -6.307682394981384277e-01
8.433000000000000000e+03 6.680594635009765625e+01 2.785885238647460938e+01 -1.044003129005432129e+00 1.102371883392333984e+01 2.993914842605590820e+00 2.738502919673919678e-01
8.434000000000000000e+03 6.724182128906250000e+01 2.795217132568359375e+01 -9.618158340454101562e-01 1.115087890625000000e+01 3.056718826293945312e+00 -7.304786145687103271e-02
8.435000000000000000e+03 3.390896606445312500e+01 -2.145036309957504272e-02 -1.051966696977615356e-01 -3.865414261817932129e-01 -1.475214213132858276e-01 3.977661952376365662e-02
8.436000000000000000e+03 2.510959243774414062e+01 2.130553817749023438e+01 4.618955031037330627e-02 1.028850227594375610e-01 4.472237080335617065e-02 7.230680435895919800e-02
8.437000000000000000e+03 2.025065422058105469e+01 1.536913013458251953e+01 6.703846901655197144e-02 1.383790224790573120e-01 6.162524968385696411e-02 9.541097283363342285e-02
8.438000000000000000e+03 1.978275299072265625e+01 1.488643836975097656e+01 6.826885789632797241e-02 1.439920961856842041e-01 6.367828696966171265e-02 9.736502915620803833e-02
8.439000000000000000e+03 1.970663452148437500e+01 1.650260734558105469e+01 5.146986991167068481e-02 1.343372017145156860e-01 5.574212223291397095e-02 8.290535211563110352e-02
8.440000000000000000e+03 3.948729324340820312e+01 -3.229034185409545898e+00 2.939058840274810791e-01 2.344173789024353027e-01 1.584969758987426758e-01 9.222193062305450439e-02
8.441000000000000000e+03 3.848345565795898438e+01 -2.250908136367797852e+00 2.378280013799667358e-01 8.492388576269149780e-02 9.682556986808776855e-02 8.994995057582855225e-02
8.442000000000000000e+03 3.736191558837890625e+01 1.135219287872314453e+01 -8.454264402389526367e-01 -7.397894263267517090e-01 -4.755647778511047363e-01 -7.583099007606506348e-01
8.443000000000000000e+03 3.745545196533203125e+01 1.204957103729248047e+01 -8.675134181976318359e-01 -7.909871935844421387e-01 -4.975501894950866699e-01 -8.068857192993164062e-01
8.444000000000000000e+03 6.334788513183593750e+01 -1.247814273834228516e+01 3.295454010367393494e-02 5.305660247802734375e+00 1.601584434509277344e+00 3.559942245483398438e-01
8.445000000000000000e+03 6.852185058593750000e+01 1.636281776428222656e+01 -6.938951015472412109e-01 7.488834381103515625e+00 2.038481950759887695e+00 6.971488893032073975e-02
8.446000000000000000e+03 6.817032623291015625e+01 1.751934814453125000e+01 -7.864902615547180176e-01 7.567157745361328125e+00 2.034200191497802734e+00 8.396603912115097046e-02
8.447000000000000000e+03 6.876667022705078125e+01 -9.500238418579101562e+00 4.601458553224802017e-03 6.480834007263183594e+00 1.945630669593811035e+00 3.285623192787170410e-01
8.448000000000000000e+03 6.969571685791015625e+01 5.067836761474609375e+00 -1.442610323429107666e-01 7.012263298034667969e+00 2.060400724411010742e+00 2.750349342823028564e-01
8.449000000000000000e+03 5.424634552001953125e+01 -1.605741310119628906e+01 3.891238197684288025e-02 3.420167446136474609e+00 1.037724018096923828e+00 2.319231182336807251e-01
8.450000000000000000e+03 6.888068389892578125e+01 -1.513799285888671875e+01 1.880608871579170227e-02 6.463649272918701172e+00 1.944736719131469727e+00 3.107212185859680176e-01
8.451000000000000000e+03 6.516709136962890625e+01 2.698527717590332031e+01 -1.035715341567993164e+00 9.543705940246582031e+00 2.552397251129150391e+00 1.444423913955688477e+00
8.452000000000000000e+03 1.997412300109863281e+01 1.526574897766113281e+01 6.597268581390380859e-02 1.409312784671783447e-01 6.207118555903434753e-02 9.488707035779953003e-02
8.453000000000000000e+03 2.015557479858398438e+01 1.559161281585693359e+01 6.326581537723541260e-02 1.381647437810897827e-01 6.042916700243949890e-02 9.274917095899581909e-02
8.454000000000000000e+03 1.937028694152832031e+01 1.506349086761474609e+01 6.227849796414375305e-02 1.441695690155029297e-01 6.193441897630691528e-02 9.323606640100479126e-02
8.455000000000000000e+03 5.324508285522460938e+01 -1.615129470825195312e+01 3.678975626826286316e-02 3.169642210006713867e+00 9.619295597076416016e-01 2.112724781036376953e-01
8.456000000000000000e+03 6.982451629638671875e+01 2.656112480163574219e+01 -7.461068034172058105e-01 9.905286788940429688e+00 2.747754096984863281e+00 -1.080920577049255371e+00
8.457000000000000000e+03 6.898120117187500000e+01 2.633437728881835938e+01 -9.486593604087829590e-01 1.005737495422363281e+01 2.732614755630493164e+00 -7.339945435523986816e-01
8.458000000000000000e+03 3.860103607177734375e+01 8.137550354003906250e+00 -5.840755105018615723e-01 -2.929814159870147705e-01 -2.631170749664306641e-01 -4.091327786445617676e-01
8.459000000000000000e+03 7.009646606445312500e+01 1.215068149566650391e+01 -3.979053199291229248e-01 7.456361770629882812e+00 2.117536783218383789e+00 7.726378738880157471e-02
8.460000000000000000e+03 6.931438446044921875e+01 1.277214527130126953e+01 -4.506065249443054199e-01 7.315167903900146484e+00 2.059368371963500977e+00 1.171110719442367554e-01
8.461000000000000000e+03 3.526248168945312500e+01 1.153675365447998047e+01 -1.020527839660644531e+00 -1.021698236465454102e+00 -6.126678586006164551e-01 -9.745305180549621582e-01
8.462000000000000000e+03 6.864507293701171875e+01 -1.043106937408447266e+01 1.507653947919607162e-02 6.445871829986572266e+00 1.938284516334533691e+00 3.278170228004455566e-01
8.463000000000000000e+03 1.708656692504882812e+01 1.387068367004394531e+01 5.019379034638404846e-02 1.620432287454605103e-01 6.367110460996627808e-02 8.470632880926132202e-02
8.464000000000000000e+03 1.639869117736816406e+01 1.416829109191894531e+01 4.021322727203369141e-02 1.599037796258926392e-01 6.003510579466819763e-02 7.418451458215713501e-02
8.465000000000000000e+03 1.893300247192382812e+01 1.404761695861816406e+01 6.864355504512786865e-02 1.524100601673126221e-01 6.631608307361602783e-02 1.004291772842407227e-01
8.466000000000000000e+03 5.604806900024414062e+01 2.671776199340820312e+01 4.684053361415863037e-02 1.532310605049133301e+00 4.737453460693359375e-01 6.019826531410217285e-01
8.467000000000000000e+03 6.178359222412109375e+01 2.590077209472656250e+01 -2.326198965311050415e-01 5.748177051544189453e+00 1.654667139053344727e+00 2.027184009552001953e+00
8.468000000000000000e+03 6.204604721069335938e+01 2.608840370178222656e+01 -2.586434483528137207e-01 6.045474529266357422e+00 1.736049294471740723e+00 2.101620435714721680e+00
8.469000000000000000e+03 3.545031356811523438e+01 1.246737384796142578e+01 -1.058658003807067871e+00 -1.098731994628906250e+00 -6.472170352935791016e-01 -1.033671140670776367e+00
8.470000000000000000e+03 6.333298110961914062e+01 2.676649284362792969e+01 -5.262123942375183105e-01 7.505354881286621094e+00 2.093742609024047852e+00 2.212564229965209961e+00
8.471000000000000000e+03 3.573748397827148438e+01 1.229884815216064453e+01 -1.022805094718933105e+00 -1.043617844581604004e+00 -6.199269294738769531e-01 -9.917959570884704590e-01
8.472000000000000000e+03 1.872467994689941406e+01 1.712395286560058594e+01 3.827806189656257629e-02 1.310092806816101074e-01 5.078620091080665588e-02 7.072621583938598633e-02
8.473000000000000000e+03 1.925562286376953125e+01 1.583367347717285156e+01 5.297210067510604858e-02 1.392659097909927368e-01 5.767140537500381470e-02 8.548570424318313599e-02
8.474000000000000000e+03 1.949825286865234375e+01 1.550636577606201172e+01 5.841505900025367737e-02 1.414373219013214111e-01 5.995571613311767578e-02 8.961033821105957031e-02
8.475000000000000000e+03 6.808157348632812500e+01 1.202134037017822266e+01 -4.302598834037780762e-01 6.971820831298828125e+00 1.962468266487121582e+00 2.150552272796630859e-01
8.476000000000000000e+03 7.314733505249023438e+00 9.953922271728515625e+00 7.440257072448730469e-02 -3.558449819684028625e-02 1.164542138576507568e-02 -1.029861066490411758e-02
8.477000000000000000e+03 4.987876129150390625e+01 -9.590822219848632812e+00 1.836483478546142578e-01 2.302514314651489258e+00 7.458487749099731445e-01 1.882867515087127686e-01
8.478000000000000000e+03 7.941218376159667969e+00 1.310893154144287109e+01 2.847437746822834015e-02 -2.309760544449090958e-03 7.849385030567646027e-03 -1.888461410999298096e-02
8.479000000000000000e+03 2.441972732543945312e+01 2.141181564331054688e+01 4.305652529001235962e-02 1.041848286986351013e-01 4.417240619659423828e-02 7.033719867467880249e-02
8.480000000000000000e+03 1.705372238159179688e+01 2.204445838928222656e+01 5.064141005277633667e-03 9.102077037096023560e-02 2.882547490298748016e-02 3.169396519660949707e-02
8.481000000000000000e+03 3.445103073120117188e+01 1.565514445304870605e+00 -3.371422588825225830e-01 -3.525872826576232910e-01 -2.069188505411148071e-01 -4.670992866158485413e-02
8.482000000000000000e+03 6.147958755493164062e+01 2.580064010620117188e+01 -1.721859723329544067e-01 5.431621074676513672e+00 1.577830553054809570e+00 1.991558909416198730e+00
8.483000000000000000e+03 4.619252395629882812e+01 -3.469035625457763672e+00 2.281630635261535645e-01 1.395040392875671387e+00 4.869610369205474854e-01 2.048176825046539307e-01
8.484000000000000000e+03 4.703150939941406250e+01 -3.285521268844604492e+00 2.111207395792007446e-01 1.576827645301818848e+00 5.363845229148864746e-01 2.250400483608245850e-01
8.485000000000000000e+03 5.585552978515625000e+01 2.621693801879882812e+01 2.357818372547626495e-02 1.588254570960998535e+00 4.835498332977294922e-01 6.245285272598266602e-01
8.486000000000000000e+03 1.449142837524414062e+01 2.065106582641601562e+01 5.777688420494087040e-05 8.163258433341979980e-02 2.450710907578468323e-02 1.909974962472915649e-02
8.487000000000000000e+03 4.339027404785156250e+01 2.109457206726074219e+01 -9.320069551467895508e-01 -8.390592336654663086e-01 -5.313198566436767578e-01 -9.144174456596374512e-01
8.488000000000000000e+03 3.817809677124023438e+01 4.408622264862060547e+00 -3.791860044002532959e-01 -1.076563000679016113e-01 -1.460526883602142334e-01 -1.608197391033172607e-01
8.489000000000000000e+03 6.774594116210937500e+01 2.595017242431640625e+01 -1.149072885513305664e+00 9.929549217224121094e+00 2.634143114089965820e+00 -1.221858039498329163e-01
8.490000000000000000e+03 1.160800838470458984e+01 1.405713844299316406e+01 1.676156930625438690e-02 1.039613559842109680e-01 3.621687740087509155e-02 5.680642090737819672e-03
8.491000000000000000e+03 1.891115188598632812e+01 1.435554122924804688e+01 6.556137651205062866e-02 1.511468291282653809e-01 6.501246243715286255e-02 9.772318601608276367e-02
8.492000000000000000e+03 1.287133216857910156e+01 1.325501060485839844e+01 2.470317296683788300e-02 1.431077867746353149e-01 5.034328997135162354e-02 2.342383936047554016e-02
8.493000000000000000e+03 1.989622116088867188e+01 1.594134998321533203e+01 5.710639804601669312e-02 1.372568160295486450e-01 5.830896645784378052e-02 8.812843263149261475e-02
8.494000000000000000e+03 1.953181076049804688e+01 1.610527229309082031e+01 5.368208140134811401e-02 1.372722983360290527e-01 5.728631466627120972e-02 8.482495695352554321e-02
8.495000000000000000e+03 7.809639930725097656e+00 1.211000347137451172e+01 4.169531911611557007e-02 -6.128282286226749420e-03 1.067011151462793350e-02 -1.894436962902545929e-02
8.496000000000000000e+03 3.588817596435546875e+01 1.258290863037109375e+01 -1.024676918983459473e+00 -1.053203463554382324e+00 -6.233641505241394043e-01 -1.000796198844909668e+00
8.497000000000000000e+03 3.580797195434570312e+01 1.076566457748413086e+00 -1.834945380687713623e-01 -2.445563524961471558e-01 -1.284152716398239136e-01 -1.085199881345033646e-03
8.498000000000000000e+03 1.474252605438232422e+01 1.538708496093750000e+01 2.099718339741230011e-02 1.335620880126953125e-01 4.636778309941291809e-02 4.281145706772804260e-02
8.499000000000000000e+03 3.852746963500976562e+01 4.630589008331298828e+00 -3.726626634597778320e-01 -8.005518466234207153e-02 -1.358153522014617920e-01 -1.617681980133056641e-01
8.500000000000000000e+03 5.557881927490234375e+01 2.615825462341308594e+01 -1.611713320016860962e-02 1.499747633934020996e+00 4.450891613960266113e-01 5.629203915596008301e-01
8.501000000000000000e+03 6.806674194335937500e+01 1.928323173522949219e+01 -9.286101460456848145e-01 7.855991363525390625e+00 2.078214406967163086e+00 5.341871455311775208e-02
8.502000000000000000e+03 3.600676727294921875e+01 5.883143544197082520e-01 -1.099397093057632446e-01 -2.250550687313079834e-01 -1.004984304308891296e-01 2.176806330680847168e-02
8.503000000000000000e+03 5.206535339355468750e+01 -9.828547477722167969e+00 1.474592685699462891e-01 2.782432317733764648e+00 8.789675235748291016e-01 2.325570434331893921e-01
8.504000000000000000e+03 3.894453048706054688e+01 4.231497287750244141e+00 -3.108455538749694824e-01 -2.543732058256864548e-03 -9.401679039001464844e-02 -1.143567785620689392e-01
8.505000000000000000e+03 4.962231445312500000e+01 2.621124267578125000e+01 -7.461103796958923340e-01 -3.857772648334503174e-01 -3.395662903785705566e-01 -5.876765251159667969e-01
8.506000000000000000e+03 3.933491516113281250e+01 7.338790893554687500e+00 -4.873726069927215576e-01 -1.328926533460617065e-01 -1.860795766115188599e-01 -2.990142405033111572e-01
8.507000000000000000e+03 5.057882308959960938e+01 2.685270118713378906e+01 -6.891485452651977539e-01 -2.439285069704055786e-01 -2.799231112003326416e-01 -4.896240532398223877e-01
8.508000000000000000e+03 5.080264282226562500e+01 2.666819953918457031e+01 -6.509546637535095215e-01 -1.605818569660186768e-01 -2.434609532356262207e-01 -4.342571794986724854e-01
8.509000000000000000e+03 5.010111236572265625e+01 2.676647758483886719e+01 -7.416878342628479004e-01 -3.583889603614807129e-01 -3.300230503082275391e-01 -5.679162144660949707e-01
8.510000000000000000e+03 6.680543518066406250e+01 2.649010467529296875e+01 -1.178601503372192383e+00 1.007132625579833984e+01 2.667817592620849609e+00 3.617286980152130127e-01
8.511000000000000000e+03 6.158091354370117188e+01 2.542114257812500000e+01 -2.703898251056671143e-01 5.558249950408935547e+00 1.586358070373535156e+00 1.895434498786926270e+00
8.512000000000000000e+03 1.869473075866699219e+01 1.499342441558837891e+01 5.613088980317115784e-02 1.472935825586318970e-01 6.102734431624412537e-02 8.909066021442413330e-02
8.513000000000000000e+03 1.816481208801269531e+01 1.531904602050781250e+01 4.804305732250213623e-02 1.458277702331542969e-01 5.816124752163887024e-02 8.132907003164291382e-02
8.514000000000000000e+03 6.468627929687500000e+01 -6.341710567474365234e+00 2.580595016479492188e-02 5.594394683837890625e+00 1.686060190200805664e+00 3.829520940780639648e-01
8.515000000000000000e+03 1.115817928314208984e+01 1.493542957305908203e+01 1.069239713251590729e-02 8.152914047241210938e-02 2.766646258533000946e-02 6.314204074442386627e-04
8.516000000000000000e+03 4.653127288818359375e+01 2.344028091430664062e+01 -8.777185678482055664e-01 -6.044073104858398438e-01 -4.446377754211425781e-01 -7.393902540206909180e-01
8.517000000000000000e+03 3.931208419799804688e+01 2.564911365509033203e+00 -1.545590460300445557e-01 1.077781170606613159e-01 -1.403428055346012115e-02 -7.093688938766717911e-03
8.518000000000000000e+03 6.143685150146484375e+01 -9.101092338562011719e+00 4.578479379415512085e-02 4.857675075531005859e+00 1.471037864685058594e+00 3.700448274612426758e-01
8.519000000000000000e+03 6.578347015380859375e+01 2.571500587463378906e+01 -1.164124011993408203e+00 9.212680816650390625e+00 2.414566993713378906e+00 9.060018658638000488e-01
8.520000000000000000e+03 3.616571044921875000e+01 1.259557628631591797e+01 -1.002887725830078125e+00 -1.019038796424865723e+00 -6.065779328346252441e-01 -9.729648828506469727e-01
8.521000000000000000e+03 1.881077003479003906e+01 1.463922309875488281e+01 6.071317195892333984e-02 1.491984128952026367e-01 6.297347694635391235e-02 9.369067102670669556e-02
8.522000000000000000e+03 3.995598220825195312e+01 4.926275730133056641e+00 -2.991041243076324463e-01 9.570699185132980347e-02 -6.101914495229721069e-02 -1.069173067808151245e-01
8.523000000000000000e+03 4.038553237915039062e+01 4.309376239776611328e+00 -2.352916747331619263e-01 1.841258853673934937e-01 -1.534973829984664917e-02 -5.443143472075462341e-02
8.524000000000000000e+03 1.713610839843750000e+01 1.604215240478515625e+01 3.334337845444679260e-02 1.386498212814331055e-01 5.159796029329299927e-02 6.511650234460830688e-02
8.525000000000000000e+03 6.303410720825195312e+01 2.344439506530761719e+01 -7.498002052307128906e-01 6.630510807037353516e+00 1.764213204383850098e+00 1.428629279136657715e+00
8.526000000000000000e+03 6.595030975341796875e+01 2.617584800720214844e+01 -1.166510462760925293e+00 9.536165237426757812e+00 2.510896444320678711e+00 8.472488522529602051e-01
8.527000000000000000e+03 4.876240158081054688e+01 2.346053695678710938e+01 -6.242678165435791016e-01 -1.151335164904594421e-01 -2.218203991651535034e-01 -4.125063717365264893e-01
8.528000000000000000e+03 6.602497863769531250e+01 2.409686088562011719e+01 -1.168018102645874023e+00 8.581418991088867188e+00 2.224020242691040039e+00 6.993771791458129883e-01
8.529000000000000000e+03 4.912823486328125000e+01 2.408806610107421875e+01 -6.348379850387573242e-01 -1.329530775547027588e-01 -2.303373217582702637e-01 -4.226693809032440186e-01
8.530000000000000000e+03 4.005495834350585938e+01 5.873778343200683594e+00 -3.521703779697418213e-01 6.002097204327583313e-02 -8.764482289552688599e-02 -1.552599221467971802e-01
8.531000000000000000e+03 4.049813842773437500e+01 5.267124176025390625e+00 -2.890036404132843018e-01 1.545071601867675781e-01 -4.034893959760665894e-02 -9.633144736289978027e-02
8.532000000000000000e+03 5.057705307006835938e+01 2.736257934570312500e+01 -7.367712855339050293e-01 -3.319429755210876465e-01 -3.206142783164978027e-01 -5.517922043800354004e-01
8.533000000000000000e+03 3.842260360717773438e+01 1.410462665557861328e+01 -9.011518955230712891e-01 -8.498446345329284668e-01 -5.252989530563354492e-01 -8.711681962013244629e-01
8.534000000000000000e+03 4.143299865722656250e+01 8.641061782836914062e+00 -4.208011329174041748e-01 8.362890034914016724e-02 -1.011516749858856201e-01 -2.330769598484039307e-01
8.535000000000000000e+03 3.984856796264648438e+01 1.433052921295166016e+01 -8.030119538307189941e-01 -6.486872434616088867e-01 -4.355097711086273193e-01 -7.475246191024780273e-01
8.536000000000000000e+03 4.998163604736328125e+01 2.408452033996582031e+01 -5.519459843635559082e-01 7.722134888172149658e-02 -1.424173861742019653e-01 -2.876795530319213867e-01
8.537000000000000000e+03 5.279146575927734375e+01 -5.629284858703613281e+00 1.487071067094802856e-01 2.881541490554809570e+00 9.090746045112609863e-01 3.137874305248260498e-01
8.538000000000000000e+03 4.895800018310546875e+01 5.680815577507019043e-01 1.015713065862655640e-01 1.875821709632873535e+00 5.932179093360900879e-01 3.082239329814910889e-01
8.539000000000000000e+03 4.700917434692382812e+01 2.302583122253417969e+01 -7.809240221977233887e-01 -4.496566355228424072e-01 -3.691741824150085449e-01 -6.255988478660583496e-01
8.540000000000000000e+03 6.654568481445312500e+01 1.984373092651367188e+01 -9.702118039131164551e-01 7.564912319183349609e+00 1.978410124778747559e+00 3.623791337013244629e-01
8.541000000000000000e+03 4.730576324462890625e+01 1.755736589431762695e+00 5.998098105192184448e-02 1.478849053382873535e+00 4.616490304470062256e-01 2.619493305683135986e-01
8.542000000000000000e+03 4.547806167602539062e+01 1.769345664978027344e+01 -5.404789447784423828e-01 -5.363097786903381348e-02 -1.782329678535461426e-01 -4.063734114170074463e-01
8.543000000000000000e+03 5.572115325927734375e+01 -3.474057674407958984e+00 9.297420084476470947e-02 3.510283470153808594e+00 1.080977320671081543e+00 4.000614285469055176e-01
8.544000000000000000e+03 4.488366317749023438e+01 3.944484591484069824e-01 1.074092835187911987e-01 1.053412675857543945e+00 3.482466042041778564e-01 2.001344114542007446e-01
8.545000000000000000e+03 5.998419189453125000e+01 1.329014587402343750e+01 -3.823436200618743896e-01 4.620622634887695312e+00 1.271483778953552246e+00 7.131855487823486328e-01
8.546000000000000000e+03 4.828284835815429688e+01 2.207944869995117188e+01 -5.860350131988525391e-01 -2.699482999742031097e-02 -1.839089542627334595e-01 -3.496831953525543213e-01
8.547000000000000000e+03 4.524591064453125000e+01 1.913404464721679688e+01 -6.242393851280212402e-01 -2.828150391578674316e-01 -2.721163332462310791e-01 -5.340670347213745117e-01
8.548000000000000000e+03 5.755212402343750000e+01 -3.746089458465576172e+00 6.373262405395507812e-02 3.927816390991210938e+00 1.197464704513549805e+00 4.134941399097442627e-01
8.549000000000000000e+03 5.426998519897460938e+01 2.192505836486816406e+01 -1.965278238058090210e-01 1.816640257835388184e+00 4.860337376594543457e-01 5.851178765296936035e-01
8.550000000000000000e+03 4.657044601440429688e+01 2.228111076354980469e+01 -7.541178464889526367e-01 -4.393436014652252197e-01 -3.580384552478790283e-01 -6.069076657295227051e-01
8.551000000000000000e+03 4.498709106445312500e+01 2.106614685058593750e+01 -7.849280834197998047e-01 -5.807306766510009766e-01 -4.096976518630981445e-01 -7.113707065582275391e-01
8.552000000000000000e+03 4.776258850097656250e+01 1.342885494232177734e+00 8.427077531814575195e-02 1.597262024879455566e+00 5.044598579406738281e-01 2.699482738971710205e-01
8.553000000000000000e+03 5.006301879882812500e+01 2.222248840332031250e+01 -4.404246509075164795e-01 4.076326489448547363e-01 -9.837603196501731873e-03 -9.463416039943695068e-02
8.554000000000000000e+03 5.934130096435546875e+01 1.534566879272460938e+01 -4.063690006732940674e-01 4.396666049957275391e+00 1.197089195251464844e+00 8.020399212837219238e-01
8.555000000000000000e+03 4.139978027343750000e+01 1.380717849731445312e+01 -6.595075726509094238e-01 -3.488287031650543213e-01 -3.025008738040924072e-01 -5.658074021339416504e-01
8.556000000000000000e+03 5.875898742675781250e+01 1.361076450347900391e+01 -3.504201769828796387e-01 4.181998729705810547e+00 1.149473547935485840e+00 7.225463986396789551e-01
8.557000000000000000e+03 5.849674224853515625e+01 1.248602199554443359e+01 -3.097091913223266602e-01 4.122723102569580078e+00 1.143904209136962891e+00 6.892728805541992188e-01
8.558000000000000000e+03 5.588899230957031250e+01 -2.005293846130371094e+00 6.763801723718643188e-02 3.521910667419433594e+00 1.076864600181579590e+00 4.182327687740325928e-01
8.559000000000000000e+03 4.267177581787109375e+01 1.069795131683349609e+01 -4.458523392677307129e-01 1.287534832954406738e-01 -9.512965381145477295e-02 -2.574748694896697998e-01
8.560000000000000000e+03 4.615676498413085938e+01 1.764625930786132812e+01 -4.996560215950012207e-01 7.508925348520278931e-02 -1.273700296878814697e-01 -3.299672901630401611e-01
8.561000000000000000e+03 4.704984664916992188e+01 2.280029106140136719e+01 -7.557683587074279785e-01 -4.139872193336486816e-01 -3.509266674518585205e-01 -5.982421636581420898e-01
8.562000000000000000e+03 5.021130371093750000e+01 2.137994575500488281e+01 -3.940386474132537842e-01 5.757412314414978027e-01 5.451077595353126526e-02 -1.329612080007791519e-02
8.563000000000000000e+03 5.052047729492187500e+01 2.159561157226562500e+01 -3.895271122455596924e-01 6.126540899276733398e-01 6.693808734416961670e-02 1.398363616317510605e-02
8.564000000000000000e+03 6.402554321289062500e+01 2.065908622741699219e+01 -8.785959482192993164e-01 6.788720607757568359e+00 1.773037433624267578e+00 8.812881112098693848e-01
8.565000000000000000e+03 6.347275924682617188e+01 2.085179519653320312e+01 -8.244906663894653320e-01 6.505400180816650391e+00 1.704272866249084473e+00 9.929965138435363770e-01
8.566000000000000000e+03 4.716852188110351562e+01 2.236295127868652344e+01 -7.082049846649169922e-01 -3.167623877525329590e-01 -3.074901998043060303e-01 -5.371931195259094238e-01
8.567000000000000000e+03 4.650584030151367188e+01 1.819099426269531250e+01 -4.972161352634429932e-01 9.812068194150924683e-02 -1.197286397218704224e-01 -3.103903532028198242e-01
8.568000000000000000e+03 5.867213058471679688e+01 2.008598709106445312e+01 -3.562400639057159424e-01 3.993391513824462891e+00 1.091145396232604980e+00 1.080310821533203125e+00
8.569000000000000000e+03 4.326970672607421875e+01 1.054127597808837891e+01 -4.026554226875305176e-01 2.525611519813537598e-01 -4.502827301621437073e-02 -1.951608508825302124e-01
8.570000000000000000e+03 4.343276977539062500e+01 7.340561866760253906e+00 -2.596835196018218994e-01 4.999687671661376953e-01 7.208557426929473877e-02 -3.396056592464447021e-02
8.571000000000000000e+03 4.816362762451171875e+01 2.093942260742187500e+01 -5.207856297492980957e-01 1.109627410769462585e-01 -1.229468733072280884e-01 -2.716489434242248535e-01
8.572000000000000000e+03 4.694010543823242188e+01 2.238212776184082031e+01 -7.265846729278564453e-01 -3.712885677814483643e-01 -3.293619751930236816e-01 -5.688070654869079590e-01
8.573000000000000000e+03 4.671098327636718750e+01 2.184702682495117188e+01 -7.070285677909851074e-01 -3.490518927574157715e-01 -3.168241381645202637e-01 -5.510298609733581543e-01
8.574000000000000000e+03 5.193627929687500000e+01 1.968925285339355469e+01 -2.766132354736328125e-01 1.335475325584411621e+00 3.176586329936981201e-01 3.166977167129516602e-01
8.575000000000000000e+03 4.841150665283203125e+01 2.169947433471679688e+01 -5.473080873489379883e-01 5.541010946035385132e-02 -1.475693881511688232e-01 -2.986352741718292236e-01
8.576000000000000000e+03 5.033408355712890625e+01 2.102950477600097656e+01 -3.814556300640106201e-01 6.584653854370117188e-01 8.310292661190032959e-02 2.753855846822261810e-02
8.577000000000000000e+03 4.982602310180664062e+01 2.073037910461425781e+01 -4.039023518562316895e-01 5.585201382637023926e-01 4.638532549142837524e-02 -3.089337795972824097e-02
8.578000000000000000e+03 4.609180450439453125e+01 2.106317043304443359e+00 3.673367947340011597e-02 1.221980214118957520e+00 3.776141703128814697e-01 2.254038602113723755e-01
8.579000000000000000e+03 4.469810104370117188e+01 8.459411621093750000e+00 -2.604563236236572266e-01 6.537533998489379883e-01 1.179891228675842285e-01 -3.667328739538788795e-03
8.580000000000000000e+03 5.738288879394531250e+01 2.059776306152343750e+01 -2.652114033699035645e-01 3.325770378112792969e+00 9.181676506996154785e-01 9.882956147193908691e-01
8.581000000000000000e+03 5.859111404418945312e+01 1.963672828674316406e+01 -3.511816561222076416e-01 4.009009838104248047e+00 1.097348451614379883e+00 1.041593194007873535e+00
8.582000000000000000e+03 4.679978561401367188e+01 1.959422111511230469e+01 -5.411691665649414062e-01 -2.526583522558212280e-02 -1.699304878711700439e-01 -3.627152740955352783e-01
8.583000000000000000e+03 4.447815322875976562e+01 6.993536949157714844e+00 -2.009824067354202271e-01 7.171451449394226074e-01 1.548488289117813110e-01 4.734589159488677979e-02
8.584000000000000000e+03 4.580263519287109375e+01 9.795683860778808594e+00 -2.617485225200653076e-01 7.771274447441101074e-01 1.546136736869812012e-01 2.846127003431320190e-02
8.585000000000000000e+03 4.672217178344726562e+01 4.354092121124267578e+00 -4.246272519230842590e-02 1.265637516975402832e+00 3.669524490833282471e-01 2.165459245443344116e-01
8.586000000000000000e+03 5.890810775756835938e+01 1.844336700439453125e+01 -4.047363102436065674e-01 4.191303253173828125e+00 1.135969996452331543e+00 9.644683003425598145e-01
8.587000000000000000e+03 4.645000839233398438e+01 1.564588642120361328e+01 -4.174484014511108398e-01 3.820498883724212646e-01 -1.061955839395523071e-02 -1.796447038650512695e-01
8.588000000000000000e+03 4.403979492187500000e+01 1.078866958618164062e+01 -3.770955801010131836e-01 3.610092997550964355e-01 -4.825883079320192337e-03 -1.545179486274719238e-01
8.589000000000000000e+03 5.657423400878906250e+01 1.762110710144042969e+01 -2.890336811542510986e-01 3.240738630294799805e+00 8.855115175247192383e-01 8.065065145492553711e-01
8.590000000000000000e+03 4.873393630981445312e+01 2.106108283996582031e+01 -4.898366332054138184e-01 2.292112112045288086e-01 -7.818762958049774170e-02 -2.034880667924880981e-01
8.591000000000000000e+03 4.529130554199218750e+01 7.825648307800292969e+00 -2.034716606140136719e-01 8.250745534896850586e-01 1.864808648824691772e-01 6.702589988708496094e-02
8.592000000000000000e+03 4.468816375732421875e+01 4.119233131408691406e+00 -7.059912383556365967e-02 8.896993398666381836e-01 2.457300722599029541e-01 1.369396448135375977e-01
8.593000000000000000e+03 5.701930618286132812e+01 1.973732376098632812e+01 -2.820646166801452637e-01 3.246895074844360352e+00 8.894491195678710938e-01 9.190117120742797852e-01
8.594000000000000000e+03 4.666333389282226562e+01 9.940928459167480469e+00 -2.374415844678878784e-01 9.525700807571411133e-01 2.145385444164276123e-01 7.864666730165481567e-02
8.595000000000000000e+03 4.527647781372070312e+01 7.055032730102539062e+00 -1.789224892854690552e-01 8.491783142089843750e-01 2.010767459869384766e-01 8.329425007104873657e-02
8.596000000000000000e+03 5.621382904052734375e+01 1.982234001159667969e+01 -2.505366802215576172e-01 2.917483568191528320e+00 8.000840544700622559e-01 8.615000247955322266e-01
8.597000000000000000e+03 4.876803970336914062e+01 1.945572280883789062e+01 -4.116297066211700439e-01 4.741274714469909668e-01 1.874933019280433655e-02 -9.422861039638519287e-02
8.598000000000000000e+03 4.833572006225585938e+01 1.906278610229492188e+01 -4.273725152015686035e-01 4.017187356948852539e-01 -7.696134038269519806e-03 -1.302970945835113525e-01
8.599000000000000000e+03 4.943954849243164062e+01 1.909677696228027344e+01 -3.686264455318450928e-01 6.908257007598876953e-01 9.665977954864501953e-02 1.038852613419294357e-02
8.600000000000000000e+03 4.874806213378906250e+01 1.849293518066406250e+01 -3.888312578201293945e-01 5.728996396064758301e-01 5.522051453590393066e-02 -5.257271230220794678e-02
8.601000000000000000e+03 4.904729080200195312e+01 1.881898307800292969e+01 -3.821804523468017578e-01 6.058859229087829590e-01 6.711162626743316650e-02 -2.609235234558582306e-02
8.602000000000000000e+03 4.903930664062500000e+01 1.818877601623535156e+01 -3.669007122516632080e-01 6.857537627220153809e-01 9.565591067075729370e-02 2.804382937029004097e-03
8.603000000000000000e+03 5.411500549316406250e+01 1.199116230010986328e+01 -2.000652253627777100e-01 2.707344532012939453e+00 7.521837949752807617e-01 5.440886020660400391e-01
8.604000000000000000e+03 5.051292037963867188e+01 1.766369819641113281e+01 -2.992693483829498291e-01 1.152500152587890625e+00 2.559692263603210449e-01 1.995446234941482544e-01
8.605000000000000000e+03 5.132607269287109375e+01 8.596592903137207031e+00 -1.193820387125015259e-01 2.134320735931396484e+00 6.044816374778747559e-01 3.907139301300048828e-01
8.606000000000000000e+03 5.476054000854492188e+01 1.835291671752929688e+01 -2.440707385540008545e-01 2.490681886672973633e+00 6.739833354949951172e-01 6.784759163856506348e-01
8.607000000000000000e+03 5.200396728515625000e+01 1.047137355804443359e+01 -1.669896394014358521e-01 2.203193426132202148e+00 6.108611226081848145e-01 4.277426004409790039e-01
8.608000000000000000e+03 5.035041427612304688e+01 1.672706222534179688e+01 -2.856280803680419922e-01 1.215309500694274902e+00 2.789044082164764404e-01 2.067938894033432007e-01
8.609000000000000000e+03 4.872039794921875000e+01 1.236834812164306641e+01 -2.443017214536666870e-01 1.222352385520935059e+00 2.934151887893676758e-01 1.659152656793594360e-01
8.610000000000000000e+03 5.341315460205078125e+01 1.652266693115234375e+01 -2.522924542427062988e-01 2.167220354080200195e+00 5.744783282279968262e-01 5.320351123809814453e-01
8.611000000000000000e+03 4.952531433105468750e+01 1.228458690643310547e+01 -2.242020815610885620e-01 1.428708910942077637e+00 3.613520562648773193e-01 2.340151220560073853e-01
8.612000000000000000e+03 4.946241760253906250e+01 9.685392379760742188e+00 -1.679255217313766479e-01 1.605448842048645020e+00 4.312569797039031982e-01 2.715955972671508789e-01
8.613000000000000000e+03 5.025474929809570312e+01 1.182941341400146484e+01 -2.020981609821319580e-01 1.649474620819091797e+00 4.342129528522491455e-01 3.042184114456176758e-01
8.614000000000000000e+03 2.584251785278320312e+01 7.212073326110839844e+00 -6.200907230377197266e+00 -3.303102731704711914e+00 -2.851202964782714844e+00 -4.726317882537841797e+00
8.615000000000000000e+03 2.572043228149414062e+01 7.138077259063720703e+00 -6.413996219635009766e+00 -3.157515048980712891e+00 -2.871453523635864258e+00 -4.414947509765625000e+00
8.616000000000000000e+03 2.634952735900878906e+01 7.597554206848144531e+00 -5.853251457214355469e+00 -3.573749303817749023e+00 -2.828100204467773438e+00 -4.667868137359619141e+00
8.617000000000000000e+03 2.616312980651855469e+01 7.453005313873291016e+00 -6.567575454711914062e+00 -4.091992378234863281e+00 -3.197870254516601562e+00 -4.872857093811035156e+00
8.618000000000000000e+03 2.604695129394531250e+01 7.367554187774658203e+00 -4.976341724395751953e+00 -2.927906751632690430e+00 -2.371274471282958984e+00 -4.544040203094482422e+00
8.619000000000000000e+03 2.604695320129394531e+01 7.350741386413574219e+00 -5.841880321502685547e+00 -3.214612483978271484e+00 -2.716947793960571289e+00 -4.862052917480468750e+00
8.620000000000000000e+03 2.595564842224121094e+01 7.305611610412597656e+00 -7.621037483215332031e+00 -3.989428043365478516e+00 -3.483139753341674805e+00 -4.769921302795410156e+00
8.621000000000000000e+03 2.575144386291503906e+01 7.166223526000976562e+00 -6.411572933197021484e+00 -3.222619056701660156e+00 -2.890257596969604492e+00 -4.521731376647949219e+00
8.622000000000000000e+03 2.577326011657714844e+01 7.178963184356689453e+00 -6.284947872161865234e+00 -2.935604572296142578e+00 -2.766165733337402344e+00 -3.912545919418334961e+00
8.623000000000000000e+03 2.584209442138671875e+01 7.227762699127197266e+00 -6.233838081359863281e+00 -3.222360372543334961e+00 -2.836859703063964844e+00 -4.803104400634765625e+00
8.624000000000000000e+03 2.585127258300781250e+01 7.226669788360595703e+00 -6.191830635070800781e+00 -3.375100374221801758e+00 -2.870079278945922852e+00 -5.045410633087158203e+00
8.625000000000000000e+03 2.605712127685546875e+01 7.387417793273925781e+00 -6.145383834838867188e+00 -3.557944297790527344e+00 -2.910998582839965820e+00 -4.731521129608154297e+00
8.626000000000000000e+03 1.440488052368164062e+01 9.629713892936706543e-01 3.215289115905761719e+00 2.452422857284545898e+00 1.700313568115234375e+00 -1.983886837959289551e+00
8.627000000000000000e+03 1.114653110504150391e+01 1.993262022733688354e-01 -1.776893258094787598e+00 -1.500254571437835693e-01 -5.780755877494812012e-01 5.536552071571350098e-01
8.628000000000000000e+03 1.121876430511474609e+01 9.378392100334167480e-01 -7.590504288673400879e-01 -3.838372230529785156e-01 -3.428663015365600586e-01 6.520027518272399902e-01
8.629000000000000000e+03 1.040455722808837891e+01 3.265222907066345215e-01 -1.405453085899353027e+00 -1.768132597208023071e-01 -4.746798872947692871e-01 3.884439468383789062e-01
8.630000000000000000e+03 1.188854217529296875e+01 7.071893662214279175e-02 -2.321074008941650391e+00 -2.577790319919586182e-01 -7.736558914184570312e-01 7.258749604225158691e-01
8.631000000000000000e+03 1.271423625946044922e+01 6.772393584251403809e-01 -8.991535902023315430e-01 -4.093263447284698486e-01 -3.925439715385437012e-01 9.709659814834594727e-01
8.632000000000000000e+03 1.263056278228759766e+01 -5.929099395871162415e-02 -2.989080429077148438e+00 -1.786423772573471069e-01 -9.503168463706970215e-01 8.893726468086242676e-01
8.633000000000000000e+03 1.047107124328613281e+01 1.066026568412780762e+00 -6.510224938392639160e-01 -3.025129139423370361e-01 -2.860606312751770020e-01 4.964773356914520264e-01
8.634000000000000000e+03 1.196649551391601562e+01 8.082405924797058105e-01 -7.997395396232604980e-01 -3.814334869384765625e-01 -3.543519079685211182e-01 8.000793457031250000e-01
8.635000000000000000e+03 9.729189872741699219e+00 1.127164006233215332e+00 -5.855675935745239258e-01 -2.264766991138458252e-01 -2.436132878065109253e-01 4.188552200794219971e-01
8.636000000000000000e+03 8.895327568054199219e+00 3.831142783164978027e-01 -7.235551476478576660e-01 -2.884804084897041321e-02 -2.257209569215774536e-01 1.118860766291618347e-01
8.637000000000000000e+03 8.136641502380371094e+00 3.810498118400573730e-01 -5.273308157920837402e-01 -6.633254233747720718e-03 -1.601892113685607910e-01 7.774439454078674316e-02
8.638000000000000000e+03 6.620836257934570312e+00 3.807878792285919189e-01 -2.863889038562774658e-01 -1.092903548851609230e-03 -8.624454587697982788e-02 4.347588494420051575e-02
8.639000000000000000e+03 5.863288402557373047e+00 3.777014017105102539e-01 -2.076964080333709717e-01 -7.425066549330949783e-03 -6.453644484281539917e-02 3.260797262191772461e-02
8.640000000000000000e+03 5.318059444427490234e+00 1.113148808479309082e+00 -1.511080861091613770e-01 -1.762442477047443390e-02 -5.061975494027137756e-02 7.840949296951293945e-02
8.641000000000000000e+03 4.347115039825439453e+00 3.710395395755767822e-01 -9.677100181579589844e-02 -4.355583805590867996e-03 -3.033797442913055420e-02 1.990471780300140381e-02
8.642000000000000000e+03 2.831676959991455078e+00 3.606979846954345703e-01 -2.947184629738330841e-02 -3.330271225422620773e-03 -9.840635582804679871e-03 1.106474176049232483e-02
8.643000000000000000e+03 2.076213359832763672e+00 3.580279946327209473e-01 -1.037486642599105835e-02 -1.087196520529687405e-03 -3.438618965446949005e-03 7.209821138530969620e-03
8.644000000000000000e+03 2.380638122558593750e+00 1.098027944564819336e+00 -2.993634156882762909e-02 -1.145271491259336472e-02 -1.241671666502952576e-02 2.623994648456573486e-02
8.645000000000000000e+03 1.333085298538208008e+00 3.664900958538055420e-01 -2.081237034872174263e-03 -2.573824487626552582e-03 -1.396518433466553688e-03 2.137281699106097221e-03
8.646000000000000000e+03 1.660440564155578613e+00 1.106490135192871094e+00 -1.447495538741350174e-02 -9.824730455875396729e-03 -7.289905566722154617e-03 1.568823121488094330e-02
8.647000000000000000e+03 6.547182202339172363e-01 3.947406113147735596e-01 4.972700844518840313e-04 -3.018961433554068208e-05 1.401241461280733347e-04 9.251981973648071289e-04
8.648000000000000000e+03 3.519233465194702148e-01 9.575628638267517090e-01 -1.363116665743291378e-03 -1.534412847831845284e-03 -8.692588889971375465e-04 6.243532989174127579e-04
8.649000000000000000e+03 3.113171100616455078e+00 1.100697994232177734e+00 -5.101539567112922668e-02 -8.059731684625148773e-03 -1.772253960371017456e-02 3.806781023740768433e-02
8.650000000000000000e+03 3.588829517364501953e+00 3.677253723144531250e-01 -5.823434144258499146e-02 -2.659996389411389828e-04 -1.755010336637496948e-02 1.647064276039600372e-02
8.651000000000000000e+03 5.105357170104980469e+00 3.731488585472106934e-01 -1.456173658370971680e-01 -2.849320590030401945e-04 -4.377068951725959778e-02 2.648666687309741974e-02
8.652000000000000000e+03 6.053060531616210938e+00 1.117701411247253418e+00 -2.012716233730316162e-01 -1.632883027195930481e-02 -6.528013944625854492e-02 9.852213412523269653e-02
8.653000000000000000e+03 7.522262096405029297e+00 1.121038317680358887e+00 -3.371978700160980225e-01 -3.476956486701965332e-02 -1.115902289748191833e-01 1.606221795082092285e-01
8.654000000000000000e+03 7.378351211547851562e+00 3.810383677482604980e-01 -3.889917731285095215e-01 -1.285136677324771881e-02 -1.205529421567916870e-01 5.559463426470756531e-02
8.655000000000000000e+03 8.257620811462402344e+00 1.121049761772155762e+00 -4.285597801208496094e-01 -6.360475718975067139e-02 -1.476493626832962036e-01 2.126607596874237061e-01
8.656000000000000000e+03 8.993377685546875000e+00 1.123114228248596191e+00 -5.443921685218811035e-01 -1.046010479331016541e-01 -1.946979612112045288e-01 3.042813241481781006e-01
8.657000000000000000e+03 9.654070854187011719e+00 3.871639966964721680e-01 -1.054905772209167480e+00 -7.219726592302322388e-02 -3.381309211254119873e-01 2.137273102998733521e-01
8.658000000000000000e+03 6.787677288055419922e+00 1.120787858963012695e+00 -2.618320882320404053e-01 -3.044455870985984802e-02 -8.768299221992492676e-02 1.244900524616241455e-01
8.659000000000000000e+03 4.582747936248779297e+00 1.111039519309997559e+00 -1.102125868201255798e-01 -1.004879083484411240e-02 -3.607841208577156067e-02 6.314682960510253906e-02
8.660000000000000000e+03 3.847393035888671875e+00 1.107725381851196289e+00 -7.714755833148956299e-02 -1.200972497463226318e-02 -2.674718573689460754e-02 4.921610653400421143e-02
8.661000000000000000e+03 1.005004048347473145e+00 1.134740591049194336e+00 -5.977240391075611115e-03 -9.323424659669399261e-03 -4.590199794620275497e-03 6.726409308612346649e-03
8.662000000000000000e+03 9.574274063110351562e+00 -3.935540616512298584e-01 -1.878435015678405762e-01 -1.744874403811991215e-03 -5.687651410698890686e-02 -1.353597920387983322e-02
8.663000000000000000e+03 8.789978027343750000e+00 -3.986168801784515381e-01 -1.572644561529159546e-01 6.541732233017683029e-03 -4.521681740880012512e-02 -1.800638251006603241e-02
8.664000000000000000e+03 8.686211585998535156e+00 -1.138616919517517090e+00 -2.170238047838211060e-01 -8.426067419350147247e-03 -6.763496249914169312e-02 -6.192262470722198486e-02
8.665000000000000000e+03 8.006248474121093750e+00 -3.998050093650817871e-01 -1.185633242130279541e-01 -6.195759400725364685e-03 -3.742772713303565979e-02 -1.987700164318084717e-02
8.666000000000000000e+03 7.223060607910156250e+00 -3.997795581817626953e-01 -8.239322900772094727e-02 3.670701058581471443e-03 -2.361675910651683807e-02 -1.592414453625679016e-02
8.667000000000000000e+03 6.439927577972412109e+00 -4.006183743476867676e-01 -4.980533197522163391e-02 -5.749278236180543900e-03 -1.666638255119323730e-02 -1.551374886184930801e-02
8.668000000000000000e+03 5.657042503356933594e+00 -4.034312665462493896e-01 -2.323355153203010559e-02 1.947891549207270145e-03 -6.385697983205318451e-03 -1.013986393809318542e-02
8.669000000000000000e+03 4.874185085296630859e+00 -4.075828790664672852e-01 -3.042776370421051979e-03 -4.388651344925165176e-03 -2.229428384453058243e-03 -9.109871461987495422e-03
8.670000000000000000e+03 4.091480255126953125e+00 -4.106692969799041748e-01 1.085326541215181351e-02 1.830294604587834328e-05 3.261470701545476913e-03 -3.846383653581142426e-03
8.671000000000000000e+03 3.310033082962036133e+00 -4.133046567440032959e-01 1.767340116202831268e-02 -2.951409434899687767e-03 4.416597541421651840e-03 -1.536024850793182850e-03
8.672000000000000000e+03 2.531398296356201172e+00 -4.163123965263366699e-01 1.786189526319503784e-02 -4.337216960266232491e-04 5.228452384471893311e-03 2.227938268333673477e-03
8.673000000000000000e+03 6.962535381317138672e-01 -1.126455783843994141e+00 1.892655389383435249e-03 4.123454447835683823e-03 1.804832834750413895e-03 5.319093819707632065e-03
8.674000000000000000e+03 3.739950358867645264e-01 -5.643373131752014160e-01 1.046730205416679382e-03 3.307055216282606125e-03 1.306135673075914383e-03 1.807065098546445370e-03
8.675000000000000000e+03 9.497249603271484375e+00 -1.133554100990295410e+00 -2.835767865180969238e-01 1.715954206883907318e-02 -7.992517203092575073e-02 -6.020312756299972534e-02
8.676000000000000000e+03 7.875741004943847656e+00 -1.139804959297180176e+00 -1.708422452211380005e-01 3.359009977430105209e-03 -5.024497210979461670e-02 -5.589779466390609741e-02
8.677000000000000000e+03 7.065812587738037109e+00 -1.139779567718505859e+00 -1.257969290018081665e-01 -1.272117067128419876e-02 -4.155543074011802673e-02 -5.225288495421409607e-02
8.678000000000000000e+03 6.255938053131103516e+00 -1.140618443489074707e+00 -9.145900607109069824e-02 -1.482810825109481812e-03 -2.788254618644714355e-02 -4.047685861587524414e-02
8.679000000000000000e+03 5.446311473846435547e+00 -1.143431305885314941e+00 -6.047601997852325439e-02 -1.215930748730897903e-02 -2.179059945046901703e-02 -3.505019098520278931e-02
8.680000000000000000e+03 4.636712551116943359e+00 -1.147582888603210449e+00 -3.814148530364036560e-02 -4.097019787877798080e-03 -1.267155166715383530e-02 -2.200368233025074005e-02
8.681000000000000000e+03 3.827266693115234375e+00 -1.150669336318969727e+00 -2.033307217061519623e-02 -1.037520542740821838e-02 -9.212483651936054230e-03 -1.591625995934009552e-02
8.682000000000000000e+03 3.019078254699707031e+00 -1.153304696083068848e+00 -7.878182455897331238e-03 -6.067866459488868713e-03 -4.183814860880374908e-03 -4.010656382888555527e-03
8.683000000000000000e+03 2.213702201843261719e+00 -1.156312346458435059e+00 -6.856202962808310986e-04 -5.309514701366424561e-03 -1.798540470190346241e-03 3.472623648121953011e-03
8.684000000000000000e+03 1.420517802238464355e+00 -1.151062846183776855e+00 -6.928876973688602448e-04 1.305138808675110340e-03 1.836753217503428459e-04 8.226031437516212463e-03
8.685000000000000000e+03 1.764955043792724609e+00 -4.110628962516784668e-01 1.357379090040922165e-02 -5.141636211192235351e-05 4.056712146848440170e-03 3.369838697835803032e-03
8.686000000000000000e+03 1.067432165145874023e+00 -3.864558041095733643e-01 6.196138449013233185e-03 -8.984073647297918797e-04 1.589319435879588127e-03 3.522329498082399368e-03
8.687000000000000000e+03 1.107046413421630859e+01 -5.791122317314147949e-01 -3.457894921302795410e-01 -6.052713375538587570e-03 -1.055526584386825562e-01 4.000410903245210648e-03
8.688000000000000000e+03 1.172848224639892578e+01 -1.444193720817565918e+00 -5.952798128128051758e-01 -9.547082707285881042e-03 -1.814480721950531006e-01 -1.211553886532783508e-01
8.689000000000000000e+03 1.026795482635498047e+01 -1.192459702491760254e+00 -3.596920073032379150e-01 1.626573503017425537e-03 -1.074196323752403259e-01 -7.193306833505630493e-02
8.690000000000000000e+03 1.245870399475097656e+01 -1.572161674499511719e+00 -7.408514022827148438e-01 1.810040412237867713e-04 -2.222011238336563110e-01 -1.646225601434707642e-01
8.691000000000000000e+03 1.254237651824951172e+01 -8.356313705444335938e-01 -6.656760573387145996e-01 -1.860366575419902802e-02 -2.052839100360870361e-01 -1.102293725125491619e-03
8.692000000000000000e+03 1.180643558502197266e+01 -7.066720724105834961e-01 -4.756763875484466553e-01 8.582600392401218414e-03 -1.401281356811523438e-01 9.782784618437290192e-03
8.693000000000000000e+03 1.099823093414306641e+01 -1.317625284194946289e+00 -4.625006616115570068e-01 2.351913601160049438e-02 -1.316944509744644165e-01 -8.812293410301208496e-02
8.694000000000000000e+03 1.033446884155273438e+01 -4.529553353786468506e-01 -2.464355528354644775e-01 1.297398936003446579e-02 -7.003846764564514160e-02 -2.124072751030325890e-03
8.695000000000000000e+03 1.412816143035888672e+01 -9.967193007469177246e-01 -1.119395613670349121e+00 -2.369394525885581970e-02 -3.429268598556518555e-01 -8.311133831739425659e-02
8.696000000000000000e+03 1.524391746520996094e+01 -1.466321945190429688e+00 -1.661844611167907715e+00 -2.466427236795425415e-01 -5.725461840629577637e-01 -5.621667504310607910e-01
8.697000000000000000e+03 1.616965675354003906e+01 -1.725686669349670410e+00 -1.728036046028137207e+00 -5.663586854934692383e-01 -6.883184313774108887e-01 -7.052888274192810059e-01
8.698000000000000000e+03 1.574865627288818359e+01 -1.673639893531799316e+00 -1.618060231208801270e+00 -5.485643744468688965e-01 -6.499873995780944824e-01 -6.437575221061706543e-01
8.699000000000000000e+03 1.561703586578369141e+01 -9.138993620872497559e-01 -2.287045717239379883e+00 -2.504225075244903564e-01 -7.612404227256774902e-01 -2.895614802837371826e-01
8.700000000000000000e+03 1.330834674835205078e+01 -9.333403110504150391e-01 -8.832559585571289062e-01 -1.558271516114473343e-02 -2.696516215801239014e-01 -3.862129524350166321e-02
8.701000000000000000e+03 1.325672912597656250e+01 -1.671557903289794922e+00 -9.225383996963500977e-01 -6.588005274534225464e-02 -2.965255379676818848e-01 -2.220641523599624634e-01
8.702000000000000000e+03 1.414637279510498047e+01 -1.739302992820739746e+00 -1.193204522132873535e+00 -4.157062992453575134e-02 -3.704325258731842041e-01 -3.023385405540466309e-01
8.703000000000000000e+03 1.646326637268066406e+01 -1.909508228302001953e+00 -1.739801883697509766e+00 -7.807482481002807617e-01 -7.561650276184082031e-01 -8.269267678260803223e-01
8.704000000000000000e+03 1.419766807556152344e+01 -2.838388085365295410e-01 -5.600352764129638672e+00 2.103627473115921021e-01 -1.616997003555297852e+00 1.040686488151550293e+00
8.705000000000000000e+03 1.352537155151367188e+01 5.852731466293334961e-01 -3.461761176586151123e-01 -5.850036442279815674e-02 -1.214029490947723389e-01 9.143939614295959473e-01
8.706000000000000000e+03 1.342303657531738281e+01 -1.497735083103179932e-01 -4.121676921844482422e+00 -1.959026902914047241e-01 -1.295273780822753906e+00 1.040122985839843750e+00
8.707000000000000000e+03 1.515072631835937500e+01 6.366986036300659180e-01 5.107624530792236328e+00 1.304243206977844238e+00 1.923560380935668945e+00 -1.372392416000366211e+00
8.708000000000000000e+03 1.436956024169921875e+01 6.066150665283203125e-01 1.820476293563842773e+00 1.451318383216857910e+00 9.815384149551391602e-01 -4.669316411018371582e-01
8.709000000000000000e+03 2.157444953918457031e+01 4.003563880920410156e+00 -1.873735189437866211e+00 -1.151496529579162598e+00 -9.075695276260375977e-01 -1.515940666198730469e+00
8.710000000000000000e+03 2.389948272705078125e+01 5.596093177795410156e+00 -4.593705177307128906e+00 -2.219630002975463867e+00 -2.044000625610351562e+00 -3.121216297149658203e+00
8.711000000000000000e+03 2.412474632263183594e+01 4.887040615081787109e+00 1.464606285095214844e+00 -3.750409185886383057e-02 4.281306862831115723e-01 6.162285208702087402e-01
8.712000000000000000e+03 1.590177440643310547e+01 -5.061372518539428711e-01 -4.192389011383056641e+00 -2.157819420099258423e-01 -1.322451353073120117e+00 -1.263452768325805664e+00
8.713000000000000000e+03 1.952704048156738281e+01 2.294429063796997070e+00 -1.024773269891738892e-01 -8.300461769104003906e-01 -2.797570526599884033e-01 -7.167603373527526855e-01
8.714000000000000000e+03 2.090116500854492188e+01 2.502764463424682617e+00 -2.249917089939117432e-01 -2.432568520307540894e-01 -1.404745727777481079e-01 -2.707897126674652100e-01
8.715000000000000000e+03 2.118369483947753906e+01 2.726105928421020508e+00 2.813004553318023682e-01 -9.263648837804794312e-02 5.659918487071990967e-02 -5.366342514753341675e-02
8.716000000000000000e+03 2.619468307495117188e+01 6.949645519256591797e+00 -2.902283906936645508e+00 -1.753701925277709961e+00 -1.396795749664306641e+00 -2.186792373657226562e+00
8.717000000000000000e+03 2.673808860778808594e+01 7.608308792114257812e+00 -4.203018665313720703e+00 -2.589322566986083984e+00 -2.037702322006225586e+00 -3.273589849472045898e+00
8.718000000000000000e+03 2.781131172180175781e+01 8.301882743835449219e+00 -3.169638633728027344e+00 -1.076087594032287598e+00 -1.273717880249023438e+00 -2.163156509399414062e+00
8.719000000000000000e+03 2.843750381469726562e+01 8.249814033508300781e+00 -1.933584690093994141e+00 7.437343150377273560e-02 -5.577633380889892578e-01 -6.783295869827270508e-01
8.720000000000000000e+03 2.872324943542480469e+01 8.505600929260253906e+00 -2.103360891342163086e+00 -1.011287212371826172e+00 -9.343944191932678223e-01 -8.332099914550781250e-01
8.721000000000000000e+03 2.901180076599121094e+01 8.513568878173828125e+00 -1.720109343528747559e+00 -7.861791849136352539e-01 -7.518865466117858887e-01 -5.619564056396484375e-01
8.722000000000000000e+03 2.951800727844238281e+01 8.114252090454101562e+00 -7.140165567398071289e-01 -1.187534809112548828e+00 -5.704653859138488770e-01 -5.607991814613342285e-01
8.723000000000000000e+03 2.974779701232910156e+01 7.457363605499267578e+00 -5.272023081779479980e-01 -1.652457714080810547e+00 -6.538980007171630859e-01 -1.267501831054687500e+00
8.724000000000000000e+03 2.969834518432617188e+01 6.596699714660644531e+00 -1.615193843841552734e+00 -1.218973159790039062e+00 -8.502501249313354492e-01 -1.468097567558288574e+00
8.725000000000000000e+03 2.914324760437011719e+01 6.185403347015380859e+00 -2.126413106918334961e+00 -1.495786428451538086e+00 -1.086659789085388184e+00 -1.346735477447509766e+00
8.726000000000000000e+03 2.731749725341796875e+01 6.180770397186279297e+00 -3.238173723220825195e+00 -1.344509124755859375e+00 -1.374804854393005371e+00 -2.070626974105834961e+00
8.727000000000000000e+03 2.667770767211914062e+01 5.437873363494873047e+00 -3.042378425598144531e+00 -1.205128312110900879e+00 -1.274252057075500488e+00 -1.877721428871154785e+00
8.728000000000000000e+03 2.510387229919433594e+01 4.538621902465820312e+00 -3.292778968811035156e+00 -1.169542908668518066e+00 -1.338696599006652832e+00 -1.957948446273803711e+00
8.729000000000000000e+03 2.605690193176269531e+01 5.097530364990234375e+00 -3.113327264785766602e+00 -1.165880680084228516e+00 -1.283762335777282715e+00 -1.887477040290832520e+00
8.730000000000000000e+03 2.561135482788085938e+01 5.157556533813476562e+00 -3.211524248123168945e+00 -1.220811963081359863e+00 -1.329700827598571777e+00 -1.995030760765075684e+00
8.731000000000000000e+03 2.728079605102539062e+01 4.737926959991455078e+00 -2.538744211196899414e+00 -1.170814752578735352e+00 -1.112867712974548340e+00 -1.507010340690612793e+00
8.732000000000000000e+03 2.848536109924316406e+01 5.469244956970214844e+00 -2.191530466079711914e+00 -1.516870260238647461e+00 -1.112520217895507812e+00 -1.371547341346740723e+00
8.733000000000000000e+03 2.787462043762207031e+01 6.200993061065673828e+00 -3.009042739868164062e+00 -1.674798965454101562e+00 -1.405152559280395508e+00 -2.137081384658813477e+00
8.734000000000000000e+03 2.660818672180175781e+01 6.537590503692626953e+00 1.712766051292419434e+00 4.051741361618041992e-01 6.353820562362670898e-01 8.870456218719482422e-01
8.735000000000000000e+03 2.734742164611816406e+01 6.542398452758789062e+00 4.601257801055908203e+00 1.688360691070556641e+00 1.886885523796081543e+00 2.805245161056518555e+00
8.736000000000000000e+03 2.703376388549804688e+01 6.653264045715332031e+00 2.480224847793579102e+00 1.021731972694396973e+00 1.050587058067321777e+00 1.572228908538818359e+00
8.737000000000000000e+03 2.627173042297363281e+01 4.064880847930908203e+00 -2.714684724807739258e+00 -9.437908530235290527e-01 -1.097542643547058105e+00 -1.461376190185546875e+00
8.738000000000000000e+03 2.386675453186035156e+01 2.603332996368408203e+00 -3.175758123397827148e+00 -7.348315715789794922e-01 -1.173176884651184082e+00 -1.551644444465637207e+00
8.739000000000000000e+03 2.220455932617187500e+01 3.039056539535522461e+00 -4.344188213348388672e+00 -1.573405385017395020e+00 -1.775278091430664062e+00 -2.693673372268676758e+00
8.740000000000000000e+03 2.217053604125976562e+01 1.547746300697326660e+00 -2.955533504486083984e+00 -8.881988525390625000e-01 -1.153119683265686035e+00 -2.003644943237304688e+00
8.741000000000000000e+03 2.025352096557617188e+01 4.149144887924194336e-01 -1.683342099189758301e+00 -2.251549482345581055e+00 -1.180467486381530762e+00 -3.010365724563598633e+00
8.742000000000000000e+03 1.814858818054199219e+01 4.918190240859985352e-01 -1.034030795097351074e+00 -4.536439180374145508e-01 -4.463024139404296875e-01 -6.209513545036315918e-01
8.743000000000000000e+03 1.820799827575683594e+01 -8.796090483665466309e-01 -2.138059139251708984e+00 -1.341513633728027344e+00 -1.043871879577636719e+00 -1.364698052406311035e+00
8.744000000000000000e+03 2.170348358154296875e+01 2.723834276199340820e+00 -4.472595691680908203e+00 -1.760603785514831543e+00 -1.869959831237792969e+00 -2.726862668991088867e+00
8.745000000000000000e+03 2.102823257446289062e+01 2.260757684707641602e+00 -4.298324584960937500e+00 -1.760940432548522949e+00 -1.817779541015625000e+00 -2.725507497787475586e+00
8.746000000000000000e+03 1.607972335815429688e+01 -8.520542383193969727e-01 -2.693987131118774414e+00 -6.703304052352905273e-01 -1.009295225143432617e+00 -8.247085213661193848e-01
8.747000000000000000e+03 1.663420677185058594e+01 -1.785859823226928711e+00 -1.806052327156066895e+00 -6.948862671852111816e-01 -7.502815723419189453e-01 -7.282775044441223145e-01
8.748000000000000000e+03 1.890606498718261719e+01 -4.218147695064544678e-01 -2.436049699783325195e+00 -2.060862779617309570e+00 -1.349073767662048340e+00 -1.565438866615295410e+00
8.749000000000000000e+03 2.062004280090332031e+01 6.062549352645874023e-01 -1.888457536697387695e+00 -1.832757472991943359e+00 -1.116364479064941406e+00 -2.887907028198242188e+00
8.750000000000000000e+03 2.088251113891601562e+01 1.380865573883056641e+00 -2.718827486038208008e+00 -1.803508281707763672e+00 -1.356700778007507324e+00 -2.620986461639404297e+00
8.751000000000000000e+03 2.300205802917480469e+01 2.110841751098632812e+00 -3.192664623260498047e+00 -7.177944183349609375e-01 -1.173137784004211426e+00 -1.735056877136230469e+00
8.752000000000000000e+03 2.438932991027832031e+01 2.960635662078857422e+00 -3.095528364181518555e+00 -7.371422052383422852e-01 -1.149801254272460938e+00 -1.515696525573730469e+00
8.753000000000000000e+03 2.521880340576171875e+01 3.450610637664794922e+00 -2.968213558197021484e+00 -8.230500221252441406e-01 -1.137379050254821777e+00 -1.477130889892578125e+00
8.754000000000000000e+03 2.289822006225585938e+01 3.422800064086914062e+00 -4.099794864654541016e+00 -1.480749368667602539e+00 -1.674163341522216797e+00 -2.493289232254028320e+00
8.755000000000000000e+03 2.307255363464355469e+01 3.524418592453002930e+00 -4.044780254364013672e+00 -1.508681654930114746e+00 -1.666038632392883301e+00 -2.435313463211059570e+00
8.756000000000000000e+03 2.407131767272949219e+01 4.178638458251953125e+00 -3.650771379470825195e+00 -1.363146066665649414e+00 -1.504175186157226562e+00 -2.220633268356323242e+00
8.757000000000000000e+03 1.780109024047851562e+01 1.569384574890136719e+00 2.549654722213745117e+00 6.308714747428894043e-01 9.541578292846679688e-01 1.244133234024047852e+00
8.758000000000000000e+03 2.510248374938964844e+01 4.799768447875976562e+00 -3.329799890518188477e+00 -1.251138925552368164e+00 -1.374281644821166992e+00 -2.024991273880004883e+00
8.759000000000000000e+03 2.383655929565429688e+01 3.735404729843139648e+00 -3.661727428436279297e+00 -1.215290784835815430e+00 -1.463105440139770508e+00 -2.135764837265014648e+00
8.760000000000000000e+03 2.356903648376464844e+01 3.872204303741455078e+00 -3.823678016662597656e+00 -1.402953982353210449e+00 -1.567989587783813477e+00 -2.339387893676757812e+00
8.761000000000000000e+03 2.272424316406250000e+01 3.322763919830322266e+00 -4.189003467559814453e+00 -1.554221630096435547e+00 -1.722967624664306641e+00 -2.513500452041625977e+00
8.762000000000000000e+03 2.186722183227539062e+01 2.835867881774902344e+00 -4.416921615600585938e+00 -1.627655029296875000e+00 -1.813372969627380371e+00 -2.773696422576904297e+00
8.763000000000000000e+03 1.797665786743164062e+01 3.892868459224700928e-01 -1.001465559005737305e+00 -3.678990304470062256e-01 -4.108093678951263428e-01 -6.531928181648254395e-01
8.764000000000000000e+03 1.780901718139648438e+01 2.828388810157775879e-01 -1.064149975776672363e+00 -4.284370839595794678e-01 -4.477761387825012207e-01 -6.023420691490173340e-01
8.765000000000000000e+03 1.786056327819824219e+01 -7.438153028488159180e-01 -2.036859035491943359e+00 -9.238328337669372559e-01 -8.882075548171997070e-01 -1.168510794639587402e+00
8.766000000000000000e+03 1.490975666046142578e+01 -9.672126770019531250e-01 -1.414600491523742676e+00 7.367161661386489868e-02 -4.022786617279052734e-01 -7.012183219194412231e-02
8.767000000000000000e+03 1.553082847595214844e+01 -5.301201939582824707e-01 -6.212974071502685547e+00 4.570434689521789551e-01 -1.726779222488403320e+00 -8.814089745283126831e-02
8.768000000000000000e+03 2.761780357360839844e+01 7.930091857910156250e+00 -2.505673170089721680e+00 -6.748944520950317383e-01 -9.541702866554260254e-01 -1.731801152229309082e+00
8.769000000000000000e+03 2.491459465026855469e+01 6.318172931671142578e+00 -4.310888767242431641e+00 -2.509746789932250977e+00 -2.046190738677978516e+00 -3.364459037780761719e+00
8.770000000000000000e+03 2.509618377685546875e+01 5.497509956359863281e+00 2.082484006881713867e+00 7.867473959922790527e-01 8.607693910598754883e-01 9.929867386817932129e-01
8.771000000000000000e+03 2.355752754211425781e+01 5.373759746551513672e+00 -4.543309688568115234e+00 -2.010203838348388672e+00 -1.966054081916809082e+00 -2.958793878555297852e+00
8.772000000000000000e+03 2.223781585693359375e+01 4.491950511932373047e+00 -2.640215396881103516e+00 -1.349440455436706543e+00 -1.196896672248840332e+00 -1.903935790061950684e+00
8.773000000000000000e+03 2.086944961547851562e+01 3.572295188903808594e+00 -1.415252447128295898e+00 -8.709181547164916992e-01 -6.858511567115783691e-01 -1.179904580116271973e+00
8.774000000000000000e+03 2.071192550659179688e+01 3.059936761856079102e+00 -3.411486148834228516e-01 -8.840975165367126465e-01 -3.675738573074340820e-01 -8.517164587974548340e-01
8.775000000000000000e+03 2.016724014282226562e+01 3.137828350067138672e+00 -6.964184045791625977e-01 -6.036689877510070801e-01 -3.900262117385864258e-01 -7.184349298477172852e-01
8.776000000000000000e+03 2.013880538940429688e+01 2.411051511764526367e+00 -4.424429237842559814e-01 -8.895092010498046875e-01 -3.995856344699859619e-01 -8.637802004814147949e-01
8.777000000000000000e+03 1.905813980102539062e+01 1.327856063842773438e+00 -3.540821790695190430e+00 -1.281026124954223633e+00 -1.446554422378540039e+00 -2.059680223464965820e+00
8.778000000000000000e+03 1.744436645507812500e+01 1.317501544952392578e+00 3.015979290008544922e+00 6.780231595039367676e-01 1.108200788497924805e+00 1.303636670112609863e+00
8.779000000000000000e+03 1.628603553771972656e+01 8.226152062416076660e-01 4.914836406707763672e+00 3.764531314373016357e-01 1.587386846542358398e+00 1.486078143119812012e+00
8.780000000000000000e+03 1.592049598693847656e+01 7.100230455398559570e-01 5.378407001495361328e+00 7.014910578727722168e-01 1.823969483375549316e+00 8.905063867568969727e-01
8.781000000000000000e+03 1.661206626892089844e+01 8.281219750642776489e-03 -5.217423915863037109e+00 -1.136002659797668457e+00 -1.906027913093566895e+00 -2.793386459350585938e+00
8.782000000000000000e+03 1.869659805297851562e+01 1.178386449813842773e+00 -3.724276781082153320e+00 -1.614709496498107910e+00 -1.601695775985717773e+00 -2.357416391372680664e+00
8.783000000000000000e+03 1.813349723815917969e+01 1.811456799507141113e+00 2.119042873382568359e+00 4.887302815914154053e-01 7.823319435119628906e-01 1.058230876922607422e+00
8.784000000000000000e+03 1.867108726501464844e+01 1.794123888015747070e+00 3.666051626205444336e-01 -6.083595752716064453e-01 -7.252633571624755859e-02 -3.738887906074523926e-01
8.785000000000000000e+03 2.021986579895019531e+01 2.136486768722534180e+00 -1.054942250251770020e+00 -6.772087216377258301e-01 -5.196452736854553223e-01 -8.377836346626281738e-01
8.786000000000000000e+03 2.072131156921386719e+01 2.411337137222290039e+00 -4.023081064224243164e-01 -2.919795513153076172e-01 -2.082863003015518188e-01 -3.753383159637451172e-01
8.787000000000000000e+03 2.134403800964355469e+01 2.867102384567260742e+00 5.407726764678955078e-01 -7.159598171710968018e-02 1.407530158758163452e-01 5.392621085047721863e-02
8.788000000000000000e+03 2.052456855773925781e+01 3.346909999847412109e+00 -1.125031709671020508e+00 -8.076460361480712891e-01 -5.798033475875854492e-01 -9.635213613510131836e-01
8.789000000000000000e+03 2.190268898010253906e+01 3.133645534515380859e+00 1.140541434288024902e+00 2.778149843215942383e-01 4.255069196224212646e-01 4.960306882858276367e-01
8.790000000000000000e+03 2.170759963989257812e+01 3.228340387344360352e+00 7.493042349815368652e-01 -2.919607162475585938e-01 1.372030526399612427e-01 5.365084484219551086e-02
8.791000000000000000e+03 2.218294525146484375e+01 3.758147478103637695e+00 2.011325955390930176e-01 -4.991158545017242432e-01 -8.939497917890548706e-02 -3.749420642852783203e-01
8.792000000000000000e+03 2.309049415588378906e+01 3.885665655136108398e+00 2.385648488998413086e+00 7.461938858032226562e-01 9.395526647567749023e-01 1.243057727813720703e+00
8.793000000000000000e+03 2.343356513977050781e+01 4.924833297729492188e+00 -1.693381190299987793e+00 -1.299805641174316406e+00 -8.979560732841491699e-01 -1.571922659873962402e+00
8.794000000000000000e+03 2.389833259582519531e+01 4.438695907592773438e+00 3.456634521484375000e+00 9.860565066337585449e-01 1.332807302474975586e+00 1.807474732398986816e+00
8.795000000000000000e+03 2.493483924865722656e+01 5.057234764099121094e+00 4.042084693908691406e+00 1.330434322357177734e+00 1.611755728721618652e+00 2.418045997619628906e+00
8.796000000000000000e+03 2.634406471252441406e+01 5.882075309753417969e+00 4.634646892547607422e+00 1.575143575668334961e+00 1.862937211990356445e+00 2.775583505630493164e+00
8.797000000000000000e+03 2.651717948913574219e+01 6.223111629486083984e+00 3.598801136016845703e+00 1.128438830375671387e+00 1.418172001838684082e+00 2.102727174758911133e+00
8.798000000000000000e+03 2.752372932434082031e+01 6.642493247985839844e+00 4.610094070434570312e+00 1.719221591949462891e+00 1.898794651031494141e+00 2.828117132186889648e+00
8.799000000000000000e+03 2.770738792419433594e+01 6.731254100799560547e+00 4.716883182525634766e+00 1.756336450576782227e+00 1.941965937614440918e+00 2.799954175949096680e+00
8.800000000000000000e+03 2.837801170349121094e+01 8.509162902832031250e+00 -2.651078224182128906e+00 -5.420771837234497070e-01 -9.579466581344604492e-01 -1.364953398704528809e+00
8.801000000000000000e+03 2.877238655090332031e+01 8.255836486816406250e+00 -1.204161047935485840e+00 -3.399309813976287842e-01 -4.632276296615600586e-01 -1.982116550207138062e-01
8.802000000000000000e+03 2.819168090820312500e+01 8.265731811523437500e+00 -2.565239667892456055e+00 -4.435565471649169922e-01 -9.026389122009277344e-01 -1.299762606620788574e+00
8.803000000000000000e+03 2.762212753295898438e+01 6.936492919921875000e+00 3.154289722442626953e+00 1.156979560852050781e+00 1.293380737304687500e+00 1.858300447463989258e+00
8.804000000000000000e+03 2.782902908325195312e+01 6.540134429931640625e+00 -3.492442369461059570e+00 -1.558923125267028809e+00 -1.515409708023071289e+00 -2.324124574661254883e+00
8.805000000000000000e+03 2.816375541687011719e+01 6.255253791809082031e+00 -2.794106483459472656e+00 -1.961678743362426758e+00 -1.426735520362854004e+00 -2.104888677597045898e+00
8.806000000000000000e+03 2.855319404602050781e+01 6.142180919647216797e+00 -2.367512941360473633e+00 -1.974552154541015625e+00 -1.302619576454162598e+00 -1.652039408683776855e+00
8.807000000000000000e+03 2.994088172912597656e+01 7.355839729309082031e+00 -8.216568231582641602e-01 -1.536211133003234863e+00 -7.073603868484497070e-01 -1.350397825241088867e+00
8.808000000000000000e+03 2.965469932556152344e+01 6.280673980712890625e+00 -1.859236001968383789e+00 -1.146504044532775879e+00 -9.017220139503479004e-01 -1.333836436271667480e+00
8.809000000000000000e+03 2.813894844055175781e+01 5.262156963348388672e+00 -2.301215410232543945e+00 -1.438954591751098633e+00 -1.122051000595092773e+00 -1.458059549331665039e+00
8.810000000000000000e+03 2.796563339233398438e+01 5.154746055603027344e+00 -2.368496179580688477e+00 -1.386074662208557129e+00 -1.126371264457702637e+00 -1.482121825218200684e+00
8.811000000000000000e+03 2.745028686523437500e+01 4.845677852630615234e+00 -2.491854667663574219e+00 -1.201806902885437012e+00 -1.108098506927490234e+00 -1.496339082717895508e+00
8.812000000000000000e+03 2.690469741821289062e+01 4.545875072479248047e+00 -2.635764837265014648e+00 -1.074416279792785645e+00 -1.113054394721984863e+00 -1.511983275413513184e+00
8.813000000000000000e+03 2.642532920837402344e+01 4.458956241607666016e+00 -2.796253681182861328e+00 -1.026586413383483887e+00 -1.146852016448974609e+00 -1.580071687698364258e+00
8.814000000000000000e+03 2.658790779113769531e+01 4.286829948425292969e+00 -2.694298982620239258e+00 -9.952334761619567871e-01 -1.106859683990478516e+00 -1.485435724258422852e+00
8.815000000000000000e+03 2.574311637878417969e+01 3.786098003387451172e+00 -2.869784116744995117e+00 -8.382072448730468750e-01 -1.112397432327270508e+00 -1.468179464340209961e+00
8.816000000000000000e+03 2.541836547851562500e+01 3.930738449096679688e+00 -3.036748170852661133e+00 -9.126115441322326660e-01 -1.184807896614074707e+00 -1.614010334014892578e+00
8.817000000000000000e+03 2.420208168029785156e+01 2.860757350921630859e+00 -3.160913467407226562e+00 -7.834199070930480957e-01 -1.183300018310546875e+00 -1.550034165382385254e+00
8.818000000000000000e+03 2.345994377136230469e+01 2.607226133346557617e+00 -3.296087503433227539e+00 -7.903448343276977539e-01 -1.225929737091064453e+00 -1.722700119018554688e+00
8.819000000000000000e+03 2.318541145324707031e+01 2.221759319305419922e+00 -3.228361845016479492e+00 -7.541225552558898926e-01 -1.194745302200317383e+00 -1.657725453376770020e+00
8.820000000000000000e+03 2.254116249084472656e+01 2.054912328720092773e+00 -3.363727092742919922e+00 -9.319632649421691895e-01 -1.288707137107849121e+00 -1.945860862731933594e+00
8.821000000000000000e+03 2.216105842590332031e+01 1.763288617134094238e+00 -3.150539636611938477e+00 -8.940159678459167480e-01 -1.213366746902465820e+00 -2.050037622451782227e+00
8.822000000000000000e+03 2.199205207824707031e+01 1.458675265312194824e+00 -2.867247343063354492e+00 -7.922614812850952148e-01 -1.097852706909179688e+00 -2.125045299530029297e+00
8.823000000000000000e+03 2.183944702148437500e+01 1.690778493881225586e+00 -3.166268825531005859e+00 -1.118824481964111328e+00 -1.285528063774108887e+00 -2.204545974731445312e+00
8.824000000000000000e+03 2.182098770141601562e+01 1.338136911392211914e+00 -2.826604366302490234e+00 -9.448879361152648926e-01 -1.131447672843933105e+00 -2.154059648513793945e+00
8.825000000000000000e+03 2.131197357177734375e+01 1.024908065795898438e+00 -2.505648851394653320e+00 -9.675815105438232422e-01 -1.041969060897827148e+00 -2.682920694351196289e+00
8.826000000000000000e+03 2.114123344421386719e+01 9.171155691146850586e-01 -2.252857446670532227e+00 -1.624581933021545410e+00 -1.163231730461120605e+00 -2.708526611328125000e+00
8.827000000000000000e+03 2.067724800109863281e+01 9.409630894660949707e-01 -2.141410350799560547e+00 -1.764269590377807617e+00 -1.171704053878784180e+00 -2.735009431838989258e+00
8.828000000000000000e+03 2.001682472229003906e+01 1.637134432792663574e+00 -3.152083873748779297e+00 -1.557232379913330078e+00 -1.412794828414916992e+00 -2.205676078796386719e+00
8.829000000000000000e+03 2.044163322448730469e+01 5.099294185638427734e-01 -1.823433876037597656e+00 -2.204319000244140625e+00 -1.208325862884521484e+00 -2.871457099914550781e+00
8.830000000000000000e+03 1.973522758483886719e+01 4.402073472738265991e-02 -2.242338895797729492e+00 -2.510160446166992188e+00 -1.425749897956848145e+00 -2.220721244812011719e+00
8.831000000000000000e+03 2.007245063781738281e+01 2.987338006496429443e-01 -1.526111721992492676e+00 -3.665407180786132812e+00 -1.557455658912658691e+00 -2.820327997207641602e+00
8.832000000000000000e+03 1.928709983825683594e+01 -2.650651633739471436e-01 -2.766993999481201172e+00 -2.909854412078857422e+00 -1.703054547309875488e+00 -1.440722703933715820e+00
8.833000000000000000e+03 1.904242515563964844e+01 -6.172461062669754028e-02 -2.197580099105834961e+00 -2.264948606491088867e+00 -1.338758587837219238e+00 -1.501825332641601562e+00
8.834000000000000000e+03 1.837055206298828125e+01 -4.188842475414276123e-01 -2.010421037673950195e+00 -1.108623981475830078e+00 -9.357135295867919922e-01 -1.264771223068237305e+00
8.835000000000000000e+03 1.854799652099609375e+01 -6.623200178146362305e-01 -2.257805585861206055e+00 -1.558012127876281738e+00 -1.144745349884033203e+00 -1.483984589576721191e+00
8.836000000000000000e+03 1.837671661376953125e+01 -7.712314128875732422e-01 -2.164401054382324219e+00 -1.298157811164855957e+00 -1.038767695426940918e+00 -1.418466806411743164e+00
8.837000000000000000e+03 2.547790527343750000e+01 6.817430019378662109e+00 -5.200046539306640625e+00 -2.567052125930786133e+00 -2.330129623413085938e+00 -3.661665201187133789e+00
8.838000000000000000e+03 2.751976966857910156e+01 8.118475914001464844e+00 -3.427439689636230469e+00 -1.768515110015869141e+00 -1.558786392211914062e+00 -2.566581487655639648e+00
8.839000000000000000e+03 2.774594306945800781e+01 8.091825485229492188e+00 -2.751477718353271484e+00 -9.190653562545776367e-01 -1.101162910461425781e+00 -1.812912702560424805e+00
8.840000000000000000e+03 2.639754867553710938e+01 7.404555320739746094e+00 -4.611882686614990234e+00 -2.874615669250488281e+00 -2.245949506759643555e+00 -3.493781089782714844e+00
8.841000000000000000e+03 2.606106948852539062e+01 7.185231208801269531e+00 -5.148043155670166016e+00 -2.924523591995239258e+00 -2.421770095825195312e+00 -3.776617765426635742e+00
8.842000000000000000e+03 2.798363685607910156e+01 8.158415794372558594e+00 -2.695316314697265625e+00 -5.325803160667419434e-01 -9.683690071105957031e-01 -1.570164322853088379e+00
8.843000000000000000e+03 2.766287040710449219e+01 7.594291687011718750e+00 -7.587660551071166992e-01 8.420545607805252075e-02 -2.023681849241256714e-01 -7.623114585876464844e-01
8.844000000000000000e+03 2.922995376586914062e+01 8.264119148254394531e+00 -1.046874880790710449e+00 -1.015474915504455566e+00 -6.187049150466918945e-01 -3.573908209800720215e-01
8.845000000000000000e+03 2.787303733825683594e+01 7.956303119659423828e+00 -2.197491884231567383e+00 2.468592673540115356e-02 -6.518418192863464355e-01 -1.343957543373107910e+00
8.846000000000000000e+03 2.732738494873046875e+01 7.844492435455322266e+00 -2.929200649261474609e+00 -1.411519765853881836e+00 -1.302216053009033203e+00 -2.241233348846435547e+00
8.847000000000000000e+03 2.705543899536132812e+01 7.530703067779541016e+00 -2.383711576461791992e+00 -1.313637614250183105e+00 -1.109204769134521484e+00 -1.825981020927429199e+00
8.848000000000000000e+03 2.968653678894042969e+01 7.849141120910644531e+00 -6.215227246284484863e-01 -1.459860920906066895e+00 -6.244150996208190918e-01 -9.399675726890563965e-01
8.849000000000000000e+03 2.835629081726074219e+01 6.176811218261718750e+00 -2.586672067642211914e+00 -2.020421266555786133e+00 -1.382128000259399414e+00 -1.911617875099182129e+00
8.850000000000000000e+03 2.950033187866210938e+01 6.448091506958007812e+00 -1.972208976745605469e+00 -1.222525596618652344e+00 -9.584203958511352539e-01 -1.476970434188842773e+00
8.851000000000000000e+03 2.894675827026367188e+01 6.136587142944335938e+00 -2.195086717605590820e+00 -1.647271037101745605e+00 -1.152707338333129883e+00 -1.353026986122131348e+00
8.852000000000000000e+03 2.874980735778808594e+01 6.135490417480468750e+00 -2.304771423339843750e+00 -1.859787583351135254e+00 -1.249367713928222656e+00 -1.507215499877929688e+00
8.853000000000000000e+03 2.767642974853515625e+01 6.402858257293701172e+00 -3.346695661544799805e+00 -1.479143381118774414e+00 -1.447751641273498535e+00 -2.220686197280883789e+00
8.854000000000000000e+03 2.937743759155273438e+01 6.025830745697021484e+00 -1.984052181243896484e+00 -1.295628428459167480e+00 -9.839041829109191895e-01 -1.234180212020874023e+00
8.855000000000000000e+03 2.971186447143554688e+01 7.641345977783203125e+00 -3.320824503898620605e-01 -1.671730160713195801e+00 -6.011437773704528809e-01 -1.156291246414184570e+00
8.856000000000000000e+03 1.572074985504150391e+01 2.189624011516571045e-01 -5.073138475418090820e-01 1.580554604530334473e+00 3.219722211360931396e-01 -9.872981309890747070e-01
8.857000000000000000e+03 2.408654022216796875e+01 4.547325134277343750e+00 3.686944007873535156e+00 1.014095306396484375e+00 1.410311818122863770e+00 1.938457727432250977e+00
8.858000000000000000e+03 2.037843704223632812e+01 2.863221883773803711e+00 -3.505877554416656494e-01 -8.769367933273315430e-01 -3.682573437690734863e-01 -8.000231981277465820e-01
8.859000000000000000e+03 2.261888504028320312e+01 3.930613756179809570e+00 1.087880253791809082e+00 -1.477669179439544678e-01 2.820339798927307129e-01 2.025750279426574707e-01
8.860000000000000000e+03 2.189883041381835938e+01 4.254463672637939453e+00 -2.193511247634887695e+00 -1.207728505134582520e+00 -1.020371913909912109e+00 -1.695318222045898438e+00
8.861000000000000000e+03 1.715502357482910156e+01 2.484077364206314087e-01 -5.560049533843994141e+00 -1.847736358642578125e+00 -2.222335815429687500e+00 -3.537857532501220703e+00
8.862000000000000000e+03 1.699773979187011719e+01 1.264773458242416382e-01 -5.727027416229248047e+00 -1.639922976493835449e+00 -2.210085153579711914e+00 -3.246605873107910156e+00
8.863000000000000000e+03 1.885128974914550781e+01 2.235883474349975586e+00 1.110456466674804688e+00 2.832150831818580627e-02 3.416333794593811035e-01 3.165798485279083252e-01
8.864000000000000000e+03 1.847843170166015625e+01 2.026584863662719727e+00 1.656572699546813965e+00 1.988001614809036255e-01 5.566118359565734863e-01 7.262254953384399414e-01
8.865000000000000000e+03 2.543092918395996094e+01 5.707922935485839844e+00 1.637625336647033691e+00 2.798144519329071045e-01 5.752319097518920898e-01 8.829813599586486816e-01
8.866000000000000000e+03 2.457446861267089844e+01 5.008879184722900391e+00 3.002325773239135742e+00 6.187585592269897461e-01 1.086325287818908691e+00 1.417725086212158203e+00
8.867000000000000000e+03 2.325514793395996094e+01 3.987225294113159180e+00 2.626907110214233398e+00 7.119740247726440430e-01 1.001664400100708008e+00 1.318229198455810547e+00
8.868000000000000000e+03 2.463901519775390625e+01 4.825169563293457031e+00 3.855183601379394531e+00 1.374032258987426758e+00 1.568764686584472656e+00 2.479745864868164062e+00
8.869000000000000000e+03 2.104832649230957031e+01 2.598700046539306641e+00 4.764355719089508057e-03 -1.520496159791946411e-01 -4.418557882308959961e-02 -1.217569038271903992e-01
8.870000000000000000e+03 2.219436645507812500e+01 3.388534784317016602e+00 1.590482354164123535e+00 3.272243142127990723e-01 5.753120183944702148e-01 6.681023240089416504e-01
8.871000000000000000e+03 2.275546455383300781e+01 3.693754434585571289e+00 2.080998420715332031e+00 5.024340748786926270e-01 7.750297784805297852e-01 1.061170101165771484e+00
8.872000000000000000e+03 2.191262245178222656e+01 3.660018205642700195e+00 -6.693994626402854919e-03 -5.780947804450988770e-01 -1.754366457462310791e-01 -5.197229385375976562e-01
8.873000000000000000e+03 2.427522277832031250e+01 4.646494388580322266e+00 3.918890714645385742e+00 1.088737607002258301e+00 1.502288460731506348e+00 2.096969366073608398e+00
8.874000000000000000e+03 2.446111488342285156e+01 4.740173339843750000e+00 4.020507812500000000e+00 1.176880002021789551e+00 1.559216380119323730e+00 2.319674253463745117e+00
8.875000000000000000e+03 2.528694915771484375e+01 5.271379947662353516e+00 4.175997734069824219e+00 1.495290398597717285e+00 1.701386451721191406e+00 2.364549636840820312e+00
8.876000000000000000e+03 2.717264175415039062e+01 6.434658527374267578e+00 4.576767921447753906e+00 1.598559379577636719e+00 1.852598190307617188e+00 2.764064788818359375e+00
8.877000000000000000e+03 1.733164405822753906e+01 3.668887019157409668e-01 -5.631057739257812500e+00 -2.319246530532836914e+00 -2.385091304779052734e+00 -3.269700288772583008e+00
8.878000000000000000e+03 1.705279922485351562e+01 1.104628801345825195e+00 3.632900238037109375e+00 6.550796627998352051e-01 1.286394000053405762e+00 1.301944613456726074e+00
8.879000000000000000e+03 1.820470809936523438e+01 1.020192623138427734e+00 -2.828580141067504883e+00 -1.679320931434631348e+00 -1.352370262145996094e+00 -2.334794521331787109e+00
8.880000000000000000e+03 1.934757041931152344e+01 1.523654103279113770e+00 -2.668259382247924805e+00 -1.239361286163330078e+00 -1.172286152839660645e+00 -1.752039313316345215e+00
8.881000000000000000e+03 1.620856475830078125e+01 -2.564688026905059814e-01 -4.781036853790283203e+00 -1.178491830825805664e+00 -1.787858605384826660e+00 -2.150603294372558594e+00
8.882000000000000000e+03 1.637600135803222656e+01 -1.055432707071304321e-01 -5.047023773193359375e+00 -1.099115490913391113e+00 -1.843841671943664551e+00 -2.449499607086181641e+00
8.883000000000000000e+03 1.682551574707031250e+01 6.590063869953155518e-02 -5.452616691589355469e+00 -1.598420739173889160e+00 -2.115311384201049805e+00 -2.929202318191528320e+00
8.884000000000000000e+03 2.681288909912109375e+01 6.210831165313720703e+00 4.413205146789550781e+00 1.754462838172912598e+00 1.850300431251525879e+00 2.776025056838989258e+00
8.885000000000000000e+03 2.041065216064453125e+01 2.207756280899047852e+00 -8.356224298477172852e-01 -5.230382680892944336e-01 -4.075981974601745605e-01 -6.711876988410949707e-01
8.886000000000000000e+03 1.647114562988281250e+01 -6.173247694969177246e-01 -1.785938978195190430e+00 -4.731283783912658691e-01 -6.777202486991882324e-01 -8.904528021812438965e-01
8.887000000000000000e+03 2.714648437500000000e+01 6.079617023468017578e+00 -3.193114042282104492e+00 -1.303271889686584473e+00 -1.348915815353393555e+00 -2.040262699127197266e+00
8.888000000000000000e+03 2.610667991638183594e+01 3.989916086196899414e+00 -2.757238388061523438e+00 -9.163279533386230469e-01 -1.102069854736328125e+00 -1.482777833938598633e+00
8.889000000000000000e+03 1.833070755004882812e+01 5.895792841911315918e-01 -1.012730717658996582e+00 -4.958394169807434082e-01 -4.525710344314575195e-01 -6.908068060874938965e-01
8.890000000000000000e+03 2.237835693359375000e+01 3.131584405899047852e+00 -4.316640853881835938e+00 -1.638236999511718750e+00 -1.786463379859924316e+00 -2.599477052688598633e+00
8.891000000000000000e+03 1.764385032653808594e+01 1.744001954793930054e-01 -1.092181563377380371e+00 -3.526519536972045898e-01 -4.334500432014465332e-01 -6.516653895378112793e-01
8.892000000000000000e+03 1.916730690002441406e+01 1.125744342803955078e+00 -1.740532040596008301e+00 -1.114110469818115234e+00 -8.563927412033081055e-01 -1.232143402099609375e+00
8.893000000000000000e+03 2.649093246459960938e+01 5.643176078796386719e+00 -3.127950668334960938e+00 -1.236716628074645996e+00 -1.309400200843811035e+00 -1.949688076972961426e+00
8.894000000000000000e+03 2.631550598144531250e+01 5.527283191680908203e+00 -3.138357162475585938e+00 -1.220447897911071777e+00 -1.307641506195068359e+00 -1.945659875869750977e+00
8.895000000000000000e+03 2.612833976745605469e+01 5.438388347625732422e+00 -3.154320716857910156e+00 -1.211269378662109375e+00 -1.309677004814147949e+00 -1.951950669288635254e+00
8.896000000000000000e+03 2.492999267578125000e+01 4.705292224884033203e+00 -3.378088712692260742e+00 -1.246719837188720703e+00 -1.387442588806152344e+00 -2.069529056549072266e+00
8.897000000000000000e+03 2.546989440917968750e+01 4.657116889953613281e+00 -3.198546171188354492e+00 -1.139518141746520996e+00 -1.301419377326965332e+00 -1.889148354530334473e+00
8.898000000000000000e+03 2.545153236389160156e+01 5.036966800689697266e+00 -3.251636028289794922e+00 -1.249512553215026855e+00 -1.350344538688659668e+00 -1.992995142936706543e+00
8.899000000000000000e+03 2.459490013122558594e+01 4.509659290313720703e+00 -3.477664709091186523e+00 -1.288354754447937012e+00 -1.429805755615234375e+00 -2.130648612976074219e+00
8.900000000000000000e+03 2.469862174987792969e+01 4.145606040954589844e+00 -3.386790752410888672e+00 -1.141602754592895508e+00 -1.358518004417419434e+00 -1.945549607276916504e+00
8.901000000000000000e+03 2.373550224304199219e+01 3.974582195281982422e+00 -3.769574403762817383e+00 -1.408844470977783203e+00 -1.553525567054748535e+00 -2.285015821456909180e+00
8.902000000000000000e+03 2.424369049072265625e+01 4.286685943603515625e+00 -3.590007066726684570e+00 -1.316030859947204590e+00 -1.471811294555664062e+00 -2.189460039138793945e+00
8.903000000000000000e+03 2.339944267272949219e+01 3.365537881851196289e+00 -3.785689353942871094e+00 -1.238675475120544434e+00 -1.507309436798095703e+00 -2.144869565963745117e+00
8.904000000000000000e+03 1.737028121948242188e+01 -1.417335867881774902e+00 -1.983670353889465332e+00 -7.712623476982116699e-01 -8.264798521995544434e-01 -9.707517027854919434e-01
8.905000000000000000e+03 1.628935050964355469e+01 -7.278177142143249512e-01 -2.045021772384643555e+00 -5.194320678710937500e-01 -7.693361043930053711e-01 -9.358320832252502441e-01
8.906000000000000000e+03 1.664281463623046875e+01 -5.031195878982543945e-01 -1.609954953193664551e+00 -4.967825114727020264e-01 -6.320212483406066895e-01 -8.212986588478088379e-01
8.907000000000000000e+03 2.750169563293457031e+01 6.282786369323730469e+00 -3.287525653839111328e+00 -1.438380718231201172e+00 -1.417771935462951660e+00 -2.126191616058349609e+00
8.908000000000000000e+03 2.573222351074218750e+01 4.982469081878662109e+00 -3.177521228790283203e+00 -1.173373460769653320e+00 -1.305268406867980957e+00 -1.918997526168823242e+00
8.909000000000000000e+03 2.255205917358398438e+01 3.223788022994995117e+00 -4.230385303497314453e+00 -1.516678810119628906e+00 -1.724119305610656738e+00 -2.598831892013549805e+00
8.910000000000000000e+03 2.247628593444824219e+01 2.902311563491821289e+00 -4.080333232879638672e+00 -1.346599817276000977e+00 -1.628079891204833984e+00 -2.430777072906494141e+00
8.911000000000000000e+03 2.120512962341308594e+01 2.366119623184204102e+00 -4.348096847534179688e+00 -1.673078179359436035e+00 -1.806352496147155762e+00 -2.773353099822998047e+00
8.912000000000000000e+03 1.982842826843261719e+01 1.562138557434082031e+00 -2.961723327636718750e+00 -1.425527572631835938e+00 -1.316175341606140137e+00 -1.994515299797058105e+00
8.913000000000000000e+03 1.685240936279296875e+01 -8.052365779876708984e-01 -1.971153020858764648e+00 -4.423258602619171143e-01 -7.240436673164367676e-01 -8.422752618789672852e-01
8.914000000000000000e+03 2.866297340393066406e+01 5.560963630676269531e+00 -2.197316646575927734e+00 -1.549117088317871094e+00 -1.123930096626281738e+00 -1.356109142303466797e+00
8.915000000000000000e+03 2.709033966064453125e+01 4.650040626525878906e+00 -2.591707944869995117e+00 -1.108725905418395996e+00 -1.110130071640014648e+00 -1.509954452514648438e+00
8.916000000000000000e+03 1.701620674133300781e+01 -1.598754167556762695e+00 -1.983006954193115234e+00 -7.658801078796386719e-01 -8.246661424636840820e-01 -9.029651880264282227e-01
8.917000000000000000e+03 1.990662193298339844e+01 1.681541800498962402e-01 -1.194457888603210449e+00 -2.795964002609252930e+00 -1.197126507759094238e+00 -1.804811120033264160e+00
8.918000000000000000e+03 2.402393531799316406e+01 2.738673686981201172e+00 -3.170112133026123047e+00 -7.218075990676879883e-01 -1.167575955390930176e+00 -1.555050611495971680e+00
8.919000000000000000e+03 2.919072723388671875e+01 5.915001869201660156e+00 -2.081063747406005859e+00 -1.372856855392456055e+00 -1.036176204681396484e+00 -1.209434866905212402e+00
8.920000000000000000e+03 2.800765800476074219e+01 5.494798660278320312e+00 -2.462459087371826172e+00 -1.529491305351257324e+00 -1.197585105895996094e+00 -1.643309473991394043e+00
8.921000000000000000e+03 2.761833190917968750e+01 4.951700210571289062e+00 -2.457901239395141602e+00 -1.258516430854797363e+00 -1.114925265312194824e+00 -1.494419574737548828e+00
8.922000000000000000e+03 2.456723022460937500e+01 3.055789470672607422e+00 -3.088840007781982422e+00 -7.712360024452209473e-01 -1.158022880554199219e+00 -1.499795556068420410e+00
8.923000000000000000e+03 2.249617195129394531e+01 1.752540349960327148e+00 -3.119969606399536133e+00 -8.179585933685302734e-01 -1.181378483772277832e+00 -1.870761990547180176e+00
8.924000000000000000e+03 2.233315849304199219e+01 1.638239860534667969e+00 -2.996468782424926758e+00 -7.105075120925903320e-01 -1.112092852592468262e+00 -2.007424354553222656e+00
8.925000000000000000e+03 2.148179817199707031e+01 1.128484606742858887e+00 -2.605730295181274414e+00 -1.056413292884826660e+00 -1.098643064498901367e+00 -2.383232593536376953e+00
8.926000000000000000e+03 2.096979713439941406e+01 8.090916872024536133e-01 -2.138229131698608398e+00 -1.390831947326660156e+00 -1.058718323707580566e+00 -2.696823358535766602e+00
8.927000000000000000e+03 2.354416084289550781e+01 2.388252258300781250e+00 -3.180871725082397461e+00 -7.388211488723754883e-01 -1.175907850265502930e+00 -1.592763900756835938e+00
8.928000000000000000e+03 2.522423934936523438e+01 4.140122890472412109e+00 -3.165877580642700195e+00 -1.020790934562683105e+00 -1.256000518798828125e+00 -1.773308992385864258e+00
8.929000000000000000e+03 2.577788734436035156e+01 4.142484188079833984e+00 -2.935589790344238281e+00 -9.557253122329711914e-01 -1.167394518852233887e+00 -1.614235639572143555e+00
8.930000000000000000e+03 2.091345596313476562e+01 1.713690042495727539e+00 -3.159484386444091797e+00 -1.764017462730407715e+00 -1.477050542831420898e+00 -2.547226905822753906e+00
8.931000000000000000e+03 2.337233734130859375e+01 2.300741434097290039e+00 -3.141839265823364258e+00 -6.966885328292846680e-01 -1.151558279991149902e+00 -1.629819989204406738e+00
8.932000000000000000e+03 2.489199066162109375e+01 3.406341314315795898e+00 -3.054297685623168945e+00 -8.258861899375915527e-01 -1.164055228233337402e+00 -1.553588986396789551e+00
8.933000000000000000e+03 2.883820724487304688e+01 5.658454418182373047e+00 -2.152713775634765625e+00 -1.511208415031433105e+00 -1.099176645278930664e+00 -1.283227562904357910e+00
8.934000000000000000e+03 2.854191970825195312e+01 5.962574481964111328e+00 -2.335253715515136719e+00 -1.834891080856323242e+00 -1.251043438911437988e+00 -1.592945456504821777e+00
8.935000000000000000e+03 2.817785644531250000e+01 5.623554706573486328e+00 -2.405869245529174805e+00 -1.607051491737365723e+00 -1.203876256942749023e+00 -1.620331883430480957e+00
8.936000000000000000e+03 2.474594879150390625e+01 3.141265630722045898e+00 -3.008120298385620117e+00 -7.586077451705932617e-01 -1.130018353462219238e+00 -1.479320764541625977e+00
8.937000000000000000e+03 2.469014930725097656e+01 3.378220081329345703e+00 -3.182016134262084961e+00 -8.770148754119873047e-01 -1.217709302902221680e+00 -1.618246674537658691e+00
8.938000000000000000e+03 2.319405364990234375e+01 2.760295867919921875e+00 -3.609824895858764648e+00 -9.996420741081237793e-01 -1.382840156555175781e+00 -1.944910883903503418e+00
8.939000000000000000e+03 2.271275901794433594e+01 2.695827960968017578e+00 -3.787685871124267578e+00 -1.123275399208068848e+00 -1.473288416862487793e+00 -2.166537523269653320e+00
8.940000000000000000e+03 2.165103340148925781e+01 1.230265378952026367e+00 -2.644135236740112305e+00 -8.929328322410583496e-01 -1.061120510101318359e+00 -2.347723960876464844e+00
8.941000000000000000e+03 2.101836776733398438e+01 1.156368136405944824e+00 -2.516378164291381836e+00 -1.401520133018493652e+00 -1.175369501113891602e+00 -2.645770549774169922e+00
8.942000000000000000e+03 1.959152603149414062e+01 -8.714351803064346313e-02 -1.636360883712768555e+00 -3.271031856536865234e+00 -1.472217798233032227e+00 -2.110795497894287109e+00
8.943000000000000000e+03 1.910376167297363281e+01 -3.396536111831665039e-01 -2.233821868896484375e+00 -2.077995300292968750e+00 -1.293545126914978027e+00 -1.518397450447082520e+00
8.944000000000000000e+03 1.737996482849121094e+01 -1.082728028297424316e+00 -2.004623651504516602e+00 -6.814959049224853516e-01 -8.058358430862426758e-01 -9.629667997360229492e-01
8.945000000000000000e+03 1.665299797058105469e+01 -1.366106986999511719e+00 -1.908156156539916992e+00 -6.116930842399597168e-01 -7.559547424316406250e-01 -6.532927155494689941e-01
8.946000000000000000e+03 2.560299110412597656e+01 4.036937236785888672e+00 -3.004835128784179688e+00 -9.584559202194213867e-01 -1.188987255096435547e+00 -1.615143418312072754e+00
8.947000000000000000e+03 2.556997489929199219e+01 3.676821708679199219e+00 -2.900995969772338867e+00 -8.633586168289184570e-01 -1.129306316375732422e+00 -1.480814337730407715e+00
8.948000000000000000e+03 2.267225265502929688e+01 1.856473326683044434e+00 -3.083499431610107422e+00 -6.554597616195678711e-01 -1.121687769889831543e+00 -1.824546456336975098e+00
8.949000000000000000e+03 1.875694274902343750e+01 1.500918716192245483e-01 -1.869205474853515625e+00 -1.522824168205261230e+00 -1.017608880996704102e+00 -1.208174228668212891e+00
8.950000000000000000e+03 1.945619201660156250e+01 -1.930207461118698120e-01 -1.179946780204772949e+00 -2.896920919418334961e+00 -1.223060369491577148e+00 -1.716612815856933594e+00
8.951000000000000000e+03 2.010481643676757812e+01 1.357575654983520508e+00 -2.473662614822387695e+00 -1.827247381210327148e+00 -1.290272951126098633e+00 -2.270563125610351562e+00
8.952000000000000000e+03 1.841072654724121094e+01 5.619067698717117310e-02 -1.650227785110473633e+00 -1.079476237297058105e+00 -8.189111948013305664e-01 -1.028825640678405762e+00
8.953000000000000000e+03 2.293848037719726562e+01 3.778915882110595703e+00 2.156919002532958984e+00 5.820472240447998047e-01 8.216898441314697266e-01 1.221757888793945312e+00
8.954000000000000000e+03 2.319155120849609375e+01 4.172224521636962891e+00 1.772311925888061523e+00 2.299207448959350586e-01 6.006698012351989746e-01 7.193924188613891602e-01
8.955000000000000000e+03 2.230008888244628906e+01 2.838378667831420898e+00 -4.179916381835937500e+00 -1.509197950363159180e+00 -1.706734299659729004e+00 -2.461628675460815430e+00
8.956000000000000000e+03 2.168866348266601562e+01 2.394690036773681641e+00 -4.101063251495361328e+00 -1.563357710838317871e+00 -1.699326276779174805e+00 -2.529341936111450195e+00
8.957000000000000000e+03 1.698645019531250000e+01 5.031378865242004395e-01 -1.772662758827209473e+00 -5.296128988265991211e-01 -6.906827092170715332e-01 -1.223355770111083984e+00
8.958000000000000000e+03 1.666123962402343750e+01 9.482248425483703613e-01 4.386218070983886719e+00 5.303230881690979004e-01 1.474962353706359863e+00 1.324111461639404297e+00
8.959000000000000000e+03 1.766868972778320312e+01 5.414660573005676270e-01 -5.188603401184082031e+00 -2.203390598297119141e+00 -2.217598199844360352e+00 -3.366467237472534180e+00
8.960000000000000000e+03 2.321248054504394531e+01 5.169775009155273438e+00 -4.241332530975341797e+00 -1.760395407676696777e+00 -1.800518393516540527e+00 -2.730895996093750000e+00
8.961000000000000000e+03 2.459815216064453125e+01 6.050763130187988281e+00 -4.346825599670410156e+00 -2.507995367050170898e+00 -2.056446313858032227e+00 -3.185758352279663086e+00
8.962000000000000000e+03 2.424361228942871094e+01 5.820015430450439453e+00 -4.476705074310302734e+00 -2.345029354095458984e+00 -2.046520233154296875e+00 -3.187440395355224609e+00
8.963000000000000000e+03 2.288629722595214844e+01 4.957085609436035156e+00 -3.668347597122192383e+00 -1.587372183799743652e+00 -1.576715946197509766e+00 -2.476426124572753906e+00
8.964000000000000000e+03 2.257455825805664062e+01 4.721637248992919922e+00 -3.045759439468383789e+00 -1.463704466819763184e+00 -1.352839112281799316e+00 -2.168503761291503906e+00
8.965000000000000000e+03 1.947818183898925781e+01 2.024142265319824219e+00 -6.420996189117431641e-01 -1.001446127891540527e+00 -4.930637478828430176e-01 -9.919684529304504395e-01
8.966000000000000000e+03 1.982610702514648438e+01 2.928222179412841797e+00 -3.303847014904022217e-01 -4.429982006549835205e-01 -2.320148646831512451e-01 -4.014680385589599609e-01
8.967000000000000000e+03 2.083228874206542969e+01 2.681646585464477539e+00 -5.627277120947837830e-02 -5.200169682502746582e-01 -1.728869229555130005e-01 -4.253610074520111084e-01
8.968000000000000000e+03 1.949709129333496094e+01 2.715226173400878906e+00 7.234879583120346069e-02 -2.106555253267288208e-01 -4.149201884865760803e-02 -1.678299158811569214e-01
8.969000000000000000e+03 1.919207572937011719e+01 2.472609281539916992e+00 5.880368947982788086e-01 -8.974304795265197754e-02 1.494881510734558105e-01 8.379938453435897827e-02
8.970000000000000000e+03 2.121676445007324219e+01 3.790680646896362305e+00 -1.717683196067810059e+00 -1.075009226799011230e+00 -8.378077149391174316e-01 -1.303996205329895020e+00
8.971000000000000000e+03 2.519695091247558594e+01 6.583257198333740234e+00 -4.742331981658935547e+00 -2.490378618240356445e+00 -2.169813156127929688e+00 -3.524666070938110352e+00
8.972000000000000000e+03 1.563149452209472656e+01 6.393854022026062012e-01 5.988424301147460938e+00 1.123863816261291504e+00 2.133686304092407227e+00 -9.647230058908462524e-02
8.973000000000000000e+03 2.067097282409667969e+01 2.069600105285644531e+00 -4.055331230163574219e+00 -1.749934434890747070e+00 -1.741579651832580566e+00 -2.620687961578369141e+00
8.974000000000000000e+03 1.747878456115722656e+01 6.543330848217010498e-02 -1.133183479309082031e+00 -4.027814269065856934e-01 -4.607894718647003174e-01 -6.689972281455993652e-01
8.975000000000000000e+03 2.746684837341308594e+01 5.217572212219238281e+00 -2.617362737655639648e+00 -1.300751209259033203e+00 -1.175434112548828125e+00 -1.662023663520812988e+00
8.976000000000000000e+03 2.720285987854003906e+01 7.952029705047607422e+00 -3.830383539199829102e+00 -2.245356798171997070e+00 -1.822722077369689941e+00 -2.864717245101928711e+00
8.977000000000000000e+03 2.720083045959472656e+01 7.676205158233642578e+00 -2.666390895843505859e+00 -1.444999575614929199e+00 -1.233417153358459473e+00 -2.061279296875000000e+00
8.978000000000000000e+03 2.689942932128906250e+01 7.720446586608886719e+00 -4.065738201141357422e+00 -2.480541229248046875e+00 -1.963883876800537109e+00 -3.228828191757202148e+00
8.979000000000000000e+03 2.759079551696777344e+01 7.387093544006347656e+00 2.105944454669952393e-01 1.967842876911163330e-01 1.222136169672012329e-01 -8.644548058509826660e-02
8.980000000000000000e+03 2.735442161560058594e+01 8.031585693359375000e+00 -3.632739782333374023e+00 -1.658972382545471191e+00 -1.587513685226440430e+00 -2.682209968566894531e+00
8.981000000000000000e+03 2.757423591613769531e+01 7.161364555358886719e+00 1.571398615837097168e+00 7.303180694580078125e-01 6.905150413513183594e-01 8.135079741477966309e-01
8.982000000000000000e+03 1.913147354125976562e+01 1.708049178123474121e+00 -1.357906103134155273e+00 -1.131037592887878418e+00 -7.466831207275390625e-01 -1.345747709274291992e+00
8.983000000000000000e+03 1.783256149291992188e+01 6.709766387939453125e-01 -5.018421649932861328e+00 -2.099086284637451172e+00 -2.135252475738525391e+00 -3.162790060043334961e+00
8.984000000000000000e+03 2.203362846374511719e+01 3.262252807617187500e+00 1.332949280738830566e+00 2.665632665157318115e-01 4.798537790775299072e-01 6.176887154579162598e-01
8.985000000000000000e+03 2.494200134277343750e+01 5.372527599334716797e+00 2.013012886047363281e+00 5.108992457389831543e-01 7.571736574172973633e-01 1.225226879119873047e+00
8.986000000000000000e+03 2.355599021911621094e+01 4.197517395019531250e+00 3.046063423156738281e+00 8.923445343971252441e-01 1.181522369384765625e+00 1.628660440444946289e+00
8.987000000000000000e+03 1.835742568969726562e+01 9.198219180107116699e-01 -4.300115108489990234e+00 -1.675107598304748535e+00 -1.792566776275634766e+00 -2.783566713333129883e+00
8.988000000000000000e+03 1.981208992004394531e+01 1.908708810806274414e+00 -1.427721261978149414e+00 -8.459407687187194824e-01 -6.820986270904541016e-01 -1.218669533729553223e+00
8.989000000000000000e+03 1.889168930053710938e+01 1.260418415069580078e+00 -3.587121009826660156e+00 -1.391899704933166504e+00 -1.493706226348876953e+00 -2.225641489028930664e+00
8.990000000000000000e+03 2.579296684265136719e+01 5.605371475219726562e+00 4.319775581359863281e+00 1.594961047172546387e+00 1.774420976638793945e+00 2.542381525039672852e+00
8.991000000000000000e+03 2.328168487548828125e+01 4.355839252471923828e+00 1.314666390419006348e+00 -1.367739737033843994e-01 3.533677160739898682e-01 2.818610966205596924e-01
8.992000000000000000e+03 1.962993812561035156e+01 1.788683295249938965e+00 -1.854525446891784668e+00 -1.050581216812133789e+00 -8.715320229530334473e-01 -1.338441848754882812e+00
8.993000000000000000e+03 2.154427337646484375e+01 2.975977420806884766e+00 7.330940961837768555e-01 -4.647173359990119934e-02 2.059866935014724731e-01 1.755519807338714600e-01
8.994000000000000000e+03 2.562596130371093750e+01 5.488987922668457031e+00 4.245279312133789062e+00 1.450992465019226074e+00 1.708881616592407227e+00 2.604235410690307617e+00
8.995000000000000000e+03 2.240906715393066406e+01 3.824522256851196289e+00 7.949397563934326172e-01 -3.216306269168853760e-01 1.419927328824996948e-01 -1.808838360011577606e-02
8.996000000000000000e+03 1.945355224609375000e+01 1.662100911140441895e+00 -1.968818902969360352e+00 -1.069261908531188965e+00 -9.114242196083068848e-01 -1.611387252807617188e+00
8.997000000000000000e+03 2.344686126708984375e+01 4.526854038238525391e+00 9.913171529769897461e-01 -2.959677577018737793e-01 2.086048275232315063e-01 5.102439224720001221e-02
8.998000000000000000e+03 2.002790832519531250e+01 2.680840253829956055e+00 -2.135484069585800171e-01 -8.173266053199768066e-01 -3.092625141143798828e-01 -7.041208744049072266e-01
8.999000000000000000e+03 1.999521446228027344e+01 2.037484884262084961e+00 -1.255039095878601074e+00 -8.303351998329162598e-01 -6.256123185157775879e-01 -1.006867647171020508e+00
9.000000000000000000e+03 2.472340774536132812e+01 5.524893760681152344e+00 -4.602983891963958740e-01 -7.390252947807312012e-01 -3.597970902919769287e-01 -4.908879101276397705e-01
9.001000000000000000e+03 1.850706863403320312e+01 1.045880794525146484e+00 -3.908697128295898438e+00 -1.681008458137512207e+00 -1.676911711692810059e+00 -2.602561950683593750e+00
9.002000000000000000e+03 1.807388114929199219e+01 1.353222250938415527e+00 3.109033703804016113e-01 -7.876482009887695312e-01 -1.430234462022781372e-01 -5.648725628852844238e-01
9.003000000000000000e+03 2.476775360107421875e+01 5.282151699066162109e+00 1.691662549972534180e+00 2.917915582656860352e-01 5.950362682342529297e-01 9.085606336593627930e-01
9.004000000000000000e+03 1.802577590942382812e+01 7.688775658607482910e-01 -4.861668586730957031e+00 -1.911882996559143066e+00 -2.032065391540527344e+00 -3.057809591293334961e+00
9.005000000000000000e+03 1.751261901855468750e+01 4.459056854248046875e-01 -5.516205787658691406e+00 -1.719493389129638672e+00 -2.170709609985351562e+00 -3.472573041915893555e+00
9.006000000000000000e+03 1.748308944702148438e+01 7.161186337471008301e-01 -1.947737216949462891e+00 -9.164397716522216797e-01 -8.592531085014343262e-01 -1.816153168678283691e+00
9.007000000000000000e+03 2.175073432922363281e+01 3.445808649063110352e+00 1.895325630903244019e-01 -5.339354872703552246e-01 -1.033208742737770081e-01 -3.363969624042510986e-01
9.008000000000000000e+03 2.698365974426269531e+01 6.330865859985351562e+00 4.530037403106689453e+00 1.743909478187561035e+00 1.882184028625488281e+00 2.669684410095214844e+00
9.009000000000000000e+03 2.316289901733398438e+01 4.730809688568115234e+00 -1.434207320213317871e+00 -1.139377832412719727e+00 -7.720755338668823242e-01 -1.410590052604675293e+00
9.010000000000000000e+03 2.390306663513183594e+01 4.072781562805175781e+00 -3.701949596405029297e+00 -1.366208195686340332e+00 -1.520447373390197754e+00 -2.261199712753295898e+00
9.011000000000000000e+03 2.434104156494140625e+01 4.051373481750488281e+00 -3.514163017272949219e+00 -1.217465400695800781e+00 -1.419488430023193359e+00 -2.051076173782348633e+00
9.012000000000000000e+03 1.749348831176757812e+01 -2.773938775062561035e-01 -1.566300392150878906e+00 -4.997225701808929443e-01 -6.198068857192993164e-01 -8.508760929107666016e-01
9.013000000000000000e+03 1.681100463867187500e+01 -3.843196630477905273e-01 -1.460546135902404785e+00 -4.248244166374206543e-01 -5.656111836433410645e-01 -8.165979981422424316e-01
9.014000000000000000e+03 2.064845657348632812e+01 1.720833301544189453e+00 -3.274830579757690430e+00 -1.788190960884094238e+00 -1.518906474113464355e+00 -2.544142723083496094e+00
9.015000000000000000e+03 2.354714202880859375e+01 3.523911237716674805e+00 -3.753562450408935547e+00 -1.245017051696777344e+00 -1.499573826789855957e+00 -2.175566911697387695e+00
9.016000000000000000e+03 2.284470939636230469e+01 3.051742553710937500e+00 -3.950502872467041016e+00 -1.271681070327758789e+00 -1.566655278205871582e+00 -2.307184696197509766e+00
9.017000000000000000e+03 2.114830780029296875e+01 1.961969375610351562e+00 -3.635041236877441406e+00 -1.534286260604858398e+00 -1.550798296928405762e+00 -2.563672542572021484e+00
9.018000000000000000e+03 2.664954948425292969e+01 5.772653579711914062e+00 -3.124553203582763672e+00 -1.246073365211486816e+00 -1.311187982559204102e+00 -1.968352794647216797e+00
9.019000000000000000e+03 2.085013771057128906e+01 2.169435262680053711e+00 -4.176629066467285156e+00 -1.676093816757202148e+00 -1.755816817283630371e+00 -2.725782871246337891e+00
9.020000000000000000e+03 2.347192382812500000e+01 2.782396554946899414e+00 -3.504346132278442383e+00 -8.524525761604309082e-01 -1.307039618492126465e+00 -1.761845231056213379e+00
9.021000000000000000e+03 2.442706489562988281e+01 4.389493942260742188e+00 -3.535406589508056641e+00 -1.325370073318481445e+00 -1.458232998847961426e+00 -2.144389390945434570e+00
9.022000000000000000e+03 1.697849273681640625e+01 -2.681143581867218018e-01 -1.376533508300781250e+00 -4.564817547798156738e-01 -5.499045848846435547e-01 -7.355131506919860840e-01
9.023000000000000000e+03 1.953655624389648438e+01 1.334767699241638184e+00 -2.261718273162841797e+00 -1.235635042190551758e+00 -1.049206018447875977e+00 -1.606592297554016113e+00
9.024000000000000000e+03 1.868786430358886719e+01 5.500091910362243652e-01 -1.594339013099670410e+00 -8.495780229568481445e-01 -7.331750988960266113e-01 -1.073683738708496094e+00
9.025000000000000000e+03 1.882062339782714844e+01 9.368521571159362793e-01 -1.355075597763061523e+00 -7.786374688148498535e-01 -6.401139497756958008e-01 -9.051448106765747070e-01
9.026000000000000000e+03 2.038509559631347656e+01 1.609160423278808594e+00 -2.981213092803955078e+00 -1.784302115440368652e+00 -1.429654598236083984e+00 -2.448572158813476562e+00
9.027000000000000000e+03 2.033870124816894531e+01 1.899681448936462402e+00 -3.720299482345581055e+00 -1.585072636604309082e+00 -1.591611623764038086e+00 -2.435546875000000000e+00
9.028000000000000000e+03 1.850164413452148438e+01 7.063417434692382812e-01 -1.069058775901794434e+00 -5.685944557189941406e-01 -4.912959933280944824e-01 -7.504203915596008301e-01
9.029000000000000000e+03 2.476949882507324219e+01 4.374063491821289062e+00 -3.380390405654907227e+00 -1.191437959671020508e+00 -1.371548533439636230e+00 -2.002516269683837891e+00
9.030000000000000000e+03 2.643661117553710938e+01 5.221018314361572266e+00 -3.020316123962402344e+00 -1.186401247978210449e+00 -1.262015223503112793e+00 -1.852421283721923828e+00
9.031000000000000000e+03 1.714562606811523438e+01 -1.553380340337753296e-01 -1.265438437461853027e+00 -3.933358788490295410e-01 -4.976322948932647705e-01 -7.404866218566894531e-01
9.032000000000000000e+03 2.687044715881347656e+01 5.361169338226318359e+00 -2.914221525192260742e+00 -1.228468298912048340e+00 -1.242806911468505859e+00 -1.833017230033874512e+00
9.033000000000000000e+03 2.709128570556640625e+01 5.285356521606445312e+00 -2.818891048431396484e+00 -1.260154366493225098e+00 -1.223713636398315430e+00 -1.783298730850219727e+00
9.034000000000000000e+03 2.118954086303710938e+01 1.274497270584106445e+00 -2.620806217193603516e+00 -1.565226197242736816e+00 -1.255809783935546875e+00 -2.553102016448974609e+00
9.035000000000000000e+03 2.019433784484863281e+01 1.759514331817626953e+00 -3.369554519653320312e+00 -1.513617157936096191e+00 -1.464951515197753906e+00 -2.371346712112426758e+00
9.036000000000000000e+03 2.018190765380859375e+01 1.064736366271972656e+00 -2.027601003646850586e+00 -2.158977270126342773e+00 -1.255973458290100098e+00 -2.529443264007568359e+00
9.037000000000000000e+03 1.935871696472167969e+01 1.216935992240905762e+00 -1.898965954780578613e+00 -1.042351365089416504e+00 -8.823952078819274902e-01 -1.577501893043518066e+00
9.038000000000000000e+03 2.539921188354492188e+01 3.561335802078247070e+00 -2.920933246612548828e+00 -8.303943276405334473e-01 -1.125398278236389160e+00 -1.490192294120788574e+00
9.039000000000000000e+03 1.571566581726074219e+01 -1.323912382125854492e+00 -1.748515248298645020e+00 -4.524198472499847412e-01 -6.602805256843566895e-01 -5.936085581779479980e-01
9.040000000000000000e+03 2.263900375366210938e+01 2.504871845245361328e+00 -3.668700933456420898e+00 -1.098171353340148926e+00 -1.430061697959899902e+00 -2.080365419387817383e+00
9.041000000000000000e+03 2.800488471984863281e+01 5.848486900329589844e+00 -2.622005462646484375e+00 -1.678453445434570312e+00 -1.290137648582458496e+00 -1.850582480430603027e+00
9.042000000000000000e+03 1.719545364379882812e+01 -1.510667562484741211e+00 -2.082649707794189453e+00 -8.042522668838500977e-01 -8.660706281661987305e-01 -8.836700916290283203e-01
9.043000000000000000e+03 1.787138938903808594e+01 -1.097423791885375977e+00 -2.152516126632690430e+00 -1.097283840179443359e+00 -9.749400019645690918e-01 -1.254794597625732422e+00
9.044000000000000000e+03 2.079612731933593750e+01 7.050688266754150391e-01 -2.069922447204589844e+00 -1.802572727203369141e+00 -1.161748528480529785e+00 -2.835501432418823242e+00
9.045000000000000000e+03 2.169133377075195312e+01 1.558170557022094727e+00 -3.003891468048095703e+00 -1.082666039466857910e+00 -1.225967168807983398e+00 -2.337604284286499023e+00
9.046000000000000000e+03 2.729758262634277344e+01 5.097759246826171875e+00 -2.656183719635009766e+00 -1.247904539108276367e+00 -1.171226501464843750e+00 -1.653091073036193848e+00
9.047000000000000000e+03 2.415109443664550781e+01 3.541301012039184570e+00 -3.477713584899902344e+00 -1.031009912490844727e+00 -1.352617025375366211e+00 -1.898978590965270996e+00
9.048000000000000000e+03 2.448440170288085938e+01 3.341402530670166016e+00 -3.230485439300537109e+00 -8.562132716178894043e-01 -1.226009607315063477e+00 -1.667717814445495605e+00
9.049000000000000000e+03 1.683305740356445312e+01 -1.691916942596435547e+00 -1.946059107780456543e+00 -7.445627450942993164e-01 -8.071865439414978027e-01 -8.861227035522460938e-01
9.050000000000000000e+03 2.622740745544433594e+01 7.297908306121826172e+00 -4.834014892578125000e+00 -2.827871799468994141e+00 -2.298565864562988281e+00 -3.668628454208374023e+00
9.051000000000000000e+03 2.697657012939453125e+01 5.983730792999267578e+00 -3.168626070022583008e+00 -1.288871288299560547e+00 -1.337249159812927246e+00 -1.999128818511962891e+00
9.052000000000000000e+03 2.779113769531250000e+01 5.052097320556640625e+00 -2.405263900756835938e+00 -1.311988830566406250e+00 -1.115175843238830566e+00 -1.490772485733032227e+00
9.053000000000000000e+03 2.248469924926757812e+01 4.194937229156494141e+00 -6.572123765945434570e-01 -8.640336990356445312e-01 -4.563738107681274414e-01 -9.064198136329650879e-01
9.054000000000000000e+03 2.810100364685058594e+01 6.046474933624267578e+00 -2.684111118316650391e+00 -1.803233265876770020e+00 -1.346203327178955078e+00 -1.943152070045471191e+00
9.055000000000000000e+03 2.771772384643554688e+01 5.859869003295898438e+00 -2.806043863296508789e+00 -1.542510628700256348e+00 -1.304566383361816406e+00 -1.947908163070678711e+00
9.056000000000000000e+03 2.727552604675292969e+01 5.811677932739257812e+00 -2.994512319564819336e+00 -1.359241604804992676e+00 -1.306126117706298828e+00 -1.966493010520935059e+00
9.057000000000000000e+03 1.802574157714843750e+01 -6.289025545120239258e-01 -2.040600299835205078e+00 -8.446434736251831055e-01 -8.655731081962585449e-01 -1.187136769294738770e+00
9.058000000000000000e+03 2.210570907592773438e+01 2.492837190628051758e+00 -3.953901767730712891e+00 -1.330745935440063477e+00 -1.585394382476806641e+00 -2.397654771804809570e+00
9.059000000000000000e+03 2.677413558959960938e+01 6.737572669982910156e+00 1.011335134506225586e+00 2.470006197690963745e-01 3.775007128715515137e-01 5.701857209205627441e-01
9.060000000000000000e+03 2.137590599060058594e+01 2.484710216522216797e+00 -4.412728309631347656e+00 -1.786156177520751953e+00 -1.859665393829345703e+00 -2.737437248229980469e+00
9.061000000000000000e+03 2.203787803649902344e+01 2.063200950622558594e+00 -3.530646800994873047e+00 -1.155012845993041992e+00 -1.405697941780090332e+00 -2.212076187133789062e+00
9.062000000000000000e+03 2.509796905517578125e+01 3.919186592102050781e+00 -3.199297904968261719e+00 -9.544373154640197754e-01 -1.246120572090148926e+00 -1.711260795593261719e+00
9.063000000000000000e+03 2.195049285888671875e+01 1.871048808097839355e+00 -3.325912714004516602e+00 -1.122228503227233887e+00 -1.334442377090454102e+00 -2.242014408111572266e+00
9.064000000000000000e+03 2.650942611694335938e+01 5.975653648376464844e+00 4.631196022033691406e+00 1.705626487731933594e+00 1.901046872138977051e+00 2.835848808288574219e+00
9.065000000000000000e+03 2.526243782043457031e+01 3.778376102447509766e+00 -3.051886558532714844e+00 -9.103344678878784180e-01 -1.188666343688964844e+00 -1.591479301452636719e+00
9.066000000000000000e+03 2.581404304504394531e+01 5.989075660705566406e+00 1.740429878234863281e+00 4.380613863468170166e-01 6.535473465919494629e-01 8.294363617897033691e-01
9.067000000000000000e+03 2.056393432617187500e+01 2.613148450851440430e+00 -2.158261984586715698e-01 -7.257462143898010254e-01 -2.824717164039611816e-01 -6.444246768951416016e-01
9.068000000000000000e+03 2.220507812500000000e+01 4.010235309600830078e+00 -6.626129150390625000e-01 -8.099017143249511719e-01 -4.417543709278106689e-01 -8.876554965972900391e-01
9.069000000000000000e+03 2.517549514770507812e+01 5.827631950378417969e+00 -4.588685333728790283e-01 -3.153322041034698486e-01 -2.322602123022079468e-01 -4.131742417812347412e-01
9.070000000000000000e+03 2.293656158447265625e+01 4.501118659973144531e+00 -7.718116641044616699e-01 -8.830371499061584473e-01 -4.964546263217926025e-01 -1.002003312110900879e+00
9.071000000000000000e+03 2.442124557495117188e+01 5.519610404968261719e+00 -1.622449874877929688e+00 -1.259028196334838867e+00 -8.644434213638305664e-01 -1.317913293838500977e+00
9.072000000000000000e+03 2.104181480407714844e+01 3.073762416839599609e+00 -1.107140034437179565e-01 -7.375963330268859863e-01 -2.544931173324584961e-01 -6.649100780487060547e-01
9.073000000000000000e+03 2.142096900939941406e+01 3.482760190963745117e+00 -4.106461405754089355e-01 -8.875667452812194824e-01 -3.894638717174530029e-01 -8.513842225074768066e-01
9.074000000000000000e+03 2.412429046630859375e+01 5.373105525970458984e+00 -2.005722522735595703e+00 -1.351507425308227539e+00 -1.007168889045715332e+00 -1.571559667587280273e+00
9.075000000000000000e+03 2.116611099243164062e+01 3.312534093856811523e+00 -4.148823022842407227e-01 -9.330458641052246094e-01 -4.043784439563751221e-01 -8.318655490875244141e-01
9.076000000000000000e+03 1.517877674102783203e+01 2.289497256278991699e-01 -1.948267668485641479e-01 1.722052097320556641e+00 4.581675827503204346e-01 -8.844179511070251465e-01
9.077000000000000000e+03 2.783670806884765625e+01 5.383440017700195312e+00 -2.505482196807861328e+00 -1.431065917015075684e+00 -1.180964469909667969e+00 -1.642922639846801758e+00
9.078000000000000000e+03 1.819314384460449219e+01 -5.126250386238098145e-01 -2.050996780395507812e+00 -1.119436025619506836e+00 -9.511297941207885742e-01 -1.251875758171081543e+00
9.079000000000000000e+03 2.597503852844238281e+01 5.709755897521972656e+00 4.426614284515380859e+00 1.533169507980346680e+00 1.787935137748718262e+00 2.568433284759521484e+00
9.080000000000000000e+03 1.796308708190917969e+01 1.059279084205627441e+00 -1.198257207870483398e+00 -1.143639087677001953e+00 -7.025688886642456055e-01 -1.489371538162231445e+00
9.081000000000000000e+03 2.720183753967285156e+01 6.784772396087646484e+00 2.349168539047241211e+00 8.404778242111206055e-01 9.568939208984375000e-01 1.493928074836730957e+00
9.082000000000000000e+03 1.673983955383300781e+01 5.516457557678222656e-01 -6.140697598457336426e-01 -6.718249619007110596e-02 -2.043756842613220215e-01 -5.474680662155151367e-01
9.083000000000000000e+03 2.389292526245117188e+01 4.802043437957763672e+00 1.166522741317749023e+00 -9.635303914546966553e-02 3.210509121417999268e-01 1.917722970247268677e-01
9.084000000000000000e+03 1.610945892333984375e+01 3.070570528507232666e-01 -3.204592466354370117e-01 2.676077187061309814e-01 -1.585545763373374939e-02 -5.801307559013366699e-01
9.085000000000000000e+03 2.368414306640625000e+01 3.659442424774169922e+00 -3.751933097839355469e+00 -1.271896362304687500e+00 -1.507148861885070801e+00 -2.158142805099487305e+00
9.086000000000000000e+03 2.561004066467285156e+01 4.838339805603027344e+00 -3.194610357284545898e+00 -1.155067801475524902e+00 -1.304903388023376465e+00 -1.914755821228027344e+00
9.087000000000000000e+03 2.371541023254394531e+01 2.803117275238037109e+00 -3.345672845840454102e+00 -8.291383981704711914e-01 -1.252443313598632812e+00 -1.693998456001281738e+00
9.088000000000000000e+03 2.558269309997558594e+01 4.275063514709472656e+00 -3.046291828155517578e+00 -1.005425453186035156e+00 -1.215515136718750000e+00 -1.710711240768432617e+00
9.089000000000000000e+03 2.534510612487792969e+01 4.405199050903320312e+00 -3.196054220199584961e+00 -1.080260753631591797e+00 -1.282894492149353027e+00 -1.834780097007751465e+00
9.090000000000000000e+03 2.360383987426757812e+01 3.146109819412231445e+00 -3.610486984252929688e+00 -1.039188146591186523e+00 -1.394902586936950684e+00 -1.947135686874389648e+00
9.091000000000000000e+03 2.136069869995117188e+01 1.376713991165161133e+00 -2.793272733688354492e+00 -1.173241615295410156e+00 -1.189954280853271484e+00 -2.523929595947265625e+00
9.092000000000000000e+03 1.911192321777343750e+01 8.317236304283142090e-01 -1.394493699073791504e+00 -1.480095863342285156e+00 -8.623768687248229980e-01 -1.287884473800659180e+00
9.093000000000000000e+03 2.709817886352539062e+01 5.751211166381835938e+00 -3.011568069458007812e+00 -1.306826353073120117e+00 -1.295518279075622559e+00 -1.947638630867004395e+00
9.094000000000000000e+03 2.756222724914550781e+01 5.541855812072753906e+00 -2.700583934783935547e+00 -1.404277205467224121e+00 -1.231458306312561035e+00 -1.799368739128112793e+00
9.095000000000000000e+03 1.706620979309082031e+01 -1.017040967941284180e+00 -1.954896569252014160e+00 -5.425201058387756348e-01 -7.492249608039855957e-01 -8.218672871589660645e-01
9.096000000000000000e+03 2.030491447448730469e+01 7.856969833374023438e-01 -1.867370247840881348e+00 -2.097378730773925781e+00 -1.189424753189086914e+00 -2.749058246612548828e+00
9.097000000000000000e+03 2.607737541198730469e+01 4.842619895935058594e+00 -3.020066976547241211e+00 -1.117406845092773438e+00 -1.241242170333862305e+00 -1.808834552764892578e+00
9.098000000000000000e+03 2.666492843627929688e+01 4.805519580841064453e+00 -2.820004463195800781e+00 -1.103468418121337891e+00 -1.177041888236999512e+00 -1.660671353340148926e+00
9.099000000000000000e+03 2.630720329284667969e+01 4.768382549285888672e+00 -2.945917129516601562e+00 -1.091606497764587402e+00 -1.211257100105285645e+00 -1.727675437927246094e+00
9.100000000000000000e+03 2.283657073974609375e+01 1.973399281501770020e+00 -3.207772731781005859e+00 -7.281841039657592773e-01 -1.180787086486816406e+00 -1.743332147598266602e+00
9.101000000000000000e+03 2.334562683105468750e+01 2.934128522872924805e+00 -3.636518001556396484e+00 -1.058080792427062988e+00 -1.408379673957824707e+00 -1.960525155067443848e+00
9.102000000000000000e+03 1.984938049316406250e+01 5.231701135635375977e-01 -1.406304121017456055e+00 -2.149428367614746094e+00 -1.066719770431518555e+00 -2.133973121643066406e+00
9.103000000000000000e+03 2.011395072937011719e+01 7.077939510345458984e-01 -1.621744871139526367e+00 -2.611265659332275391e+00 -1.269903063774108887e+00 -2.689385890960693359e+00
9.104000000000000000e+03 1.963491249084472656e+01 7.110378742218017578e-01 -1.709352612495422363e+00 -2.176868677139282227e+00 -1.165866374969482422e+00 -2.170929670333862305e+00
9.105000000000000000e+03 1.723280715942382812e+01 -1.188942551612854004e+00 -2.124143123626708984e+00 -7.037076354026794434e-01 -8.483552336692810059e-01 -9.647501707077026367e-01
9.106000000000000000e+03 1.616164016723632812e+01 -1.410947084426879883e+00 -1.805923581123352051e+00 -6.786428689956665039e-01 -7.453699111938476562e-01 -5.739628672599792480e-01
9.107000000000000000e+03 2.569254302978515625e+01 4.493881225585937500e+00 -3.109749317169189453e+00 -1.047654509544372559e+00 -1.247221231460571289e+00 -1.768937587738037109e+00
9.108000000000000000e+03 1.685601615905761719e+01 -1.279227972030639648e+00 -2.071180582046508789e+00 -5.738885998725891113e-01 -7.935207486152648926e-01 -7.283246517181396484e-01
9.109000000000000000e+03 1.799986267089843750e+01 -2.705654203891754150e-01 -1.815101981163024902e+00 -6.554817557334899902e-01 -7.411751151084899902e-01 -1.024538874626159668e+00
9.110000000000000000e+03 2.143686676025390625e+01 1.690131187438964844e+00 -3.203396320343017578e+00 -1.283237457275390625e+00 -1.345990061759948730e+00 -2.446133613586425781e+00
9.111000000000000000e+03 2.634053611755371094e+01 6.562598705291748047e+00 2.529475986957550049e-01 -3.076453506946563721e-01 -1.640932820737361908e-02 3.284492716193199158e-02
9.112000000000000000e+03 2.582064056396484375e+01 6.539969921112060547e+00 -2.106040954589843750e+00 -1.307853102684020996e+00 -1.024168133735656738e+00 -1.666413545608520508e+00
9.113000000000000000e+03 2.690040969848632812e+01 7.386531829833984375e+00 -2.321500301361083984e+00 -1.359049201011657715e+00 -1.104164838790893555e+00 -1.810539245605468750e+00
9.114000000000000000e+03 2.739855003356933594e+01 6.886539459228515625e+00 2.591615438461303711e+00 9.959179759025573730e-01 1.076259970664978027e+00 1.508562564849853516e+00
9.115000000000000000e+03 2.546012306213378906e+01 6.374949455261230469e+00 -2.453999519348144531e+00 -1.472250819206237793e+00 -1.177875041961669922e+00 -2.003761529922485352e+00
9.116000000000000000e+03 2.576717567443847656e+01 6.282899379730224609e+00 -5.629495978355407715e-01 -4.519860744476318359e-01 -3.044807016849517822e-01 -5.965020060539245605e-01
9.117000000000000000e+03 2.224742889404296875e+01 2.353343725204467773e+00 -3.747951269149780273e+00 -1.251302957534790039e+00 -1.499776244163513184e+00 -2.267358303070068359e+00
9.118000000000000000e+03 1.846948242187500000e+01 3.501643538475036621e-01 -1.525358319282531738e+00 -9.557103514671325684e-01 -7.443206310272216797e-01 -9.609421491622924805e-01
9.119000000000000000e+03 2.635047340393066406e+01 7.097494602203369141e+00 -3.170300006866455078e+00 -1.904515981674194336e+00 -1.522444725036621094e+00 -2.315009593963623047e+00
9.120000000000000000e+03 1.812079811096191406e+01 1.768802553415298462e-01 -1.431386590003967285e+00 -6.482036113739013672e-01 -6.238770484924316406e-01 -8.312343358993530273e-01
9.121000000000000000e+03 2.571139526367187500e+01 6.977231502532958984e+00 -5.331805706024169922e+00 -2.800445318222045898e+00 -2.439675331115722656e+00 -3.759954214096069336e+00
9.122000000000000000e+03 2.285479354858398438e+01 4.230628013610839844e+00 2.718249559402465820e-01 -4.970062077045440674e-01 -6.755436956882476807e-02 -3.393138647079467773e-01
9.123000000000000000e+03 1.606735420227050781e+01 -3.954804837703704834e-01 -4.027691364288330078e+00 -2.884162068367004395e-01 -1.294832229614257812e+00 -2.261103630065917969e+00
9.124000000000000000e+03 1.644632148742675781e+01 -1.453485488891601562e+00 -1.948685407638549805e+00 -6.069949269294738770e-01 -7.667040824890136719e-01 -7.522331476211547852e-01
9.125000000000000000e+03 1.625562286376953125e+01 -1.167083740234375000e+00 -2.008841753005981445e+00 -5.584079623222351074e-01 -7.701749205589294434e-01 -4.416922926902770996e-01
9.126000000000000000e+03 1.906036376953125000e+01 1.955818653106689453e+00 -1.578004360198974609e-01 -7.640396356582641602e-01 -2.765520215034484863e-01 -7.462944388389587402e-01
9.127000000000000000e+03 1.830961990356445312e+01 -2.198664695024490356e-01 -2.056277990341186523e+00 -1.047601222991943359e+00 -9.311637878417968750e-01 -1.306361794471740723e+00
9.128000000000000000e+03 1.897157478332519531e+01 5.663049221038818359e-01 -1.852193951606750488e+00 -1.358838915824890137e+00 -9.633098244667053223e-01 -1.561861991882324219e+00
9.129000000000000000e+03 2.714145660400390625e+01 5.515115261077880859e+00 -2.885322332382202148e+00 -1.284441590309143066e+00 -1.250929117202758789e+00 -1.853254914283752441e+00
9.130000000000000000e+03 2.736359596252441406e+01 5.513992786407470703e+00 -2.799923896789550781e+00 -1.354665160179138184e+00 -1.246376752853393555e+00 -1.825952529907226562e+00
9.131000000000000000e+03 2.710399055480957031e+01 7.190565109252929688e+00 -5.215557813644409180e-01 -2.217205017805099487e-01 -2.229828834533691406e-01 -3.546711504459381104e-01
9.132000000000000000e+03 2.526805114746093750e+01 6.093179225921630859e+00 -1.585506796836853027e+00 -8.653544187545776367e-01 -7.352584004402160645e-01 -1.295542478561401367e+00
9.133000000000000000e+03 2.039383125305175781e+01 1.114218592643737793e+00 -2.195114850997924805e+00 -1.941240549087524414e+00 -1.240906596183776855e+00 -2.591236114501953125e+00
9.134000000000000000e+03 2.417414855957031250e+01 3.933209896087646484e+00 -3.555981874465942383e+00 -1.189272165298461914e+00 -1.423576235771179199e+00 -2.075596809387207031e+00
9.135000000000000000e+03 2.251664733886718750e+01 2.358477115631103516e+00 -3.631107568740844727e+00 -1.092882871627807617e+00 -1.417197108268737793e+00 -2.112166166305541992e+00
9.136000000000000000e+03 1.867271995544433594e+01 3.759214282035827637e-01 -1.244240760803222656e+00 -1.025817513465881348e+00 -6.810174584388732910e-01 -1.219643115997314453e+00
9.137000000000000000e+03 1.949674224853515625e+01 9.525567889213562012e-01 -1.706927537918090820e+00 -1.954066276550292969e+00 -1.098298192024230957e+00 -1.769734978675842285e+00
9.138000000000000000e+03 1.783939170837402344e+01 -3.905213475227355957e-01 -1.821901202201843262e+00 -7.383718490600585938e-01 -7.680819034576416016e-01 -1.024496436119079590e+00
9.139000000000000000e+03 2.321898460388183594e+01 3.217948198318481445e+00 -3.822487354278564453e+00 -1.199722528457641602e+00 -1.506662964820861816e+00 -2.174008131027221680e+00
9.140000000000000000e+03 2.300796318054199219e+01 2.877877712249755859e+00 -3.759376049041748047e+00 -1.125727295875549316e+00 -1.465530991554260254e+00 -2.101330757141113281e+00
9.141000000000000000e+03 2.580160903930664062e+01 4.695583820343017578e+00 -3.087850809097290039e+00 -1.094394445419311523e+00 -1.254673600196838379e+00 -1.815875172615051270e+00
9.142000000000000000e+03 2.489657402038574219e+01 4.026909351348876953e+00 -3.270653963088989258e+00 -1.043140292167663574e+00 -1.294138312339782715e+00 -1.829284429550170898e+00
9.143000000000000000e+03 1.720486450195312500e+01 -8.704810738563537598e-01 -2.008274555206298828e+00 -5.479204058647155762e-01 -7.668585181236267090e-01 -9.179138541221618652e-01
9.144000000000000000e+03 1.967807006835937500e+01 1.468261122703552246e+00 -2.473978519439697266e+00 -1.218779206275939941e+00 -1.107827305793762207e+00 -1.886063694953918457e+00
9.145000000000000000e+03 1.999178695678710938e+01 9.750122427940368652e-01 -1.940370917320251465e+00 -2.000451803207397461e+00 -1.182246804237365723e+00 -2.321261405944824219e+00
9.146000000000000000e+03 1.881453514099121094e+01 -1.145941466093063354e-01 -1.862926125526428223e+00 -1.412472605705261230e+00 -9.826196432113647461e-01 -1.256196975708007812e+00
9.147000000000000000e+03 2.476461601257324219e+01 3.816526651382446289e+00 -3.286919116973876953e+00 -9.813290238380432129e-01 -1.280474424362182617e+00 -1.767530202865600586e+00
9.148000000000000000e+03 2.222923851013183594e+01 2.596244335174560547e+00 -4.013342857360839844e+00 -1.419352889060974121e+00 -1.629808783531188965e+00 -2.368842363357543945e+00
9.149000000000000000e+03 2.157818603515625000e+01 1.730562210083007812e+00 -3.208533525466918945e+00 -1.275442004203796387e+00 -1.345192670822143555e+00 -2.417867898941040039e+00
9.150000000000000000e+03 1.753607368469238281e+01 -9.707576036453247070e-01 -2.072980880737304688e+00 -7.769831418991088867e-01 -8.549891710281372070e-01 -1.040210604667663574e+00
9.151000000000000000e+03 1.557396507263183594e+01 -2.852958738803863525e-01 -4.946446895599365234e+00 1.304957747459411621e+00 -1.092446804046630859e+00 -1.055350184440612793e+00
9.152000000000000000e+03 1.580789661407470703e+01 -2.014942407608032227e+00 -1.570880532264709473e+00 -5.960164070129394531e-01 -6.500690579414367676e-01 -7.458692789077758789e-01
9.153000000000000000e+03 2.779977416992187500e+01 6.011123180389404297e+00 -2.909598350524902344e+00 -1.612199068069458008e+00 -1.356539249420166016e+00 -2.025238990783691406e+00
9.154000000000000000e+03 2.430105209350585938e+01 3.707533121109008789e+00 -3.451967239379882812e+00 -1.066477775573730469e+00 -1.355533480644226074e+00 -1.895612120628356934e+00
9.155000000000000000e+03 1.976152992248535156e+01 8.037325739860534668e-01 -1.813232064247131348e+00 -1.848349094390869141e+00 -1.098474383354187012e+00 -2.072074413299560547e+00
9.156000000000000000e+03 2.400750732421875000e+01 3.809019565582275391e+00 -3.621913671493530273e+00 -1.233577609062194824e+00 -1.456647396087646484e+00 -2.085736036300659180e+00
9.157000000000000000e+03 2.676595687866210938e+01 6.886943340301513672e+00 1.205406337976455688e-01 -1.874039918184280396e-01 -2.005900628864765167e-02 3.789163008332252502e-02
9.158000000000000000e+03 2.651888465881347656e+01 7.204801559448242188e+00 -3.034499406814575195e+00 -1.880969405174255371e+00 -1.474640607833862305e+00 -2.228162050247192383e+00
9.159000000000000000e+03 1.628826141357421875e+01 -2.017508745193481445e+00 -1.639627099037170410e+00 -6.937166452407836914e-01 -7.000030875205993652e-01 -7.876833677291870117e-01
9.160000000000000000e+03 2.591839790344238281e+01 4.346871852874755859e+00 -2.940963506698608398e+00 -9.969657063484191895e-01 -1.181378722190856934e+00 -1.641349077224731445e+00
9.161000000000000000e+03 1.501998519897460938e+01 -1.876763939857482910e+00 -1.501676440238952637e+00 -2.695548534393310547e-01 -5.313693881034851074e-01 -5.667034983634948730e-01
9.162000000000000000e+03 2.733472442626953125e+01 7.141497611999511719e+00 6.847344636917114258e-01 3.648146688938140869e-01 3.148647546768188477e-01 4.623243808746337891e-01
9.163000000000000000e+03 2.684387207031250000e+01 6.556024074554443359e+00 2.309713363647460938e+00 9.734800457954406738e-01 9.849579930305480957e-01 1.405469417572021484e+00
9.164000000000000000e+03 2.666568374633789062e+01 6.083534240722656250e+00 4.513420104980468750e+00 1.732142210006713867e+00 1.873668670654296875e+00 2.846540689468383789e+00
9.165000000000000000e+03 2.625601196289062500e+01 6.063596248626708984e+00 3.168821573257446289e+00 9.538076519966125488e-01 1.236788749694824219e+00 1.820752739906311035e+00
9.166000000000000000e+03 2.616489219665527344e+01 5.798119544982910156e+00 4.556330204010009766e+00 1.530677080154418945e+00 1.826102256774902344e+00 2.639530181884765625e+00
9.167000000000000000e+03 2.606442070007324219e+01 6.034417629241943359e+00 2.488818883895874023e+00 7.021356225013732910e-01 9.572862982749938965e-01 1.387553453445434570e+00
9.168000000000000000e+03 2.558020401000976562e+01 5.873181343078613281e+00 1.522472143173217773e+00 2.784080803394317627e-01 5.402640700340270996e-01 6.394770741462707520e-01
9.169000000000000000e+03 2.528006172180175781e+01 5.593722820281982422e+00 1.902156352996826172e+00 5.430286526679992676e-01 7.335554957389831543e-01 1.061907052993774414e+00
9.170000000000000000e+03 2.545791816711425781e+01 5.377339839935302734e+00 4.286182403564453125e+00 1.391873955726623535e+00 1.703416943550109863e+00 2.476899623870849609e+00
9.171000000000000000e+03 2.511786651611328125e+01 5.163075447082519531e+00 4.013051986694335938e+00 1.444669604301452637e+00 1.637316465377807617e+00 2.440255403518676758e+00
9.172000000000000000e+03 2.478065109252929688e+01 4.935214519500732422e+00 4.062685489654541016e+00 1.537582397460937500e+00 1.680080294609069824e+00 2.247922658920288086e+00
9.173000000000000000e+03 2.434786415100097656e+01 4.955834388732910156e+00 1.914605855941772461e+00 2.858374416828155518e-01 6.601330041885375977e-01 1.029687166213989258e+00
9.174000000000000000e+03 2.371851730346679688e+01 4.320669174194335938e+00 3.223339080810546875e+00 9.275652170181274414e-01 1.245271325111389160e+00 1.730575561523437500e+00
9.175000000000000000e+03 2.365928649902343750e+01 4.679716110229492188e+00 9.174715280532836914e-01 -2.702898979187011719e-01 1.941544860601425171e-01 4.546389728784561157e-02
9.176000000000000000e+03 2.341914558410644531e+01 4.077101707458496094e+00 2.830951690673828125e+00 7.601358294486999512e-01 1.077326297760009766e+00 1.562439441680908203e+00
9.177000000000000000e+03 2.287387466430664062e+01 3.978004455566406250e+00 1.630951285362243652e+00 1.037384476512670517e-02 4.923975467681884766e-01 5.387802124023437500e-01
9.178000000000000000e+03 2.257127761840820312e+01 3.593299865722656250e+00 1.906032800674438477e+00 4.547795951366424561e-01 7.082437276840209961e-01 9.334895014762878418e-01
9.179000000000000000e+03 2.238205909729003906e+01 3.494225025177001953e+00 1.718678116798400879e+00 3.144415020942687988e-01 6.099358797073364258e-01 8.436291217803955078e-01
9.180000000000000000e+03 2.175230789184570312e+01 3.041884422302246094e+00 8.730630874633789062e-01 2.683659829199314117e-02 2.699699103832244873e-01 4.116524457931518555e-01
9.181000000000000000e+03 2.091606521606445312e+01 2.871060132980346680e+00 4.111820086836814880e-02 -6.094027757644653320e-01 -1.704853624105453491e-01 -5.124625563621520996e-01
9.182000000000000000e+03 2.039735031127929688e+01 2.418879747390747070e+00 -4.666994512081146240e-01 -7.447918653488159180e-01 -3.634473979473114014e-01 -7.389674782752990723e-01
9.183000000000000000e+03 2.056420326232910156e+01 2.295139312744140625e+00 -5.801023244857788086e-01 -3.850647807121276855e-01 -2.895501554012298584e-01 -4.715538620948791504e-01
9.184000000000000000e+03 1.985025787353515625e+01 2.300310134887695312e+00 -5.199921131134033203e-01 -9.993323683738708496e-01 -4.557973444461822510e-01 -9.687921404838562012e-01
9.185000000000000000e+03 1.921669578552246094e+01 1.422919631004333496e+00 -3.150472402572631836e+00 -1.186322689056396484e+00 -1.301038503646850586e+00 -2.123006343841552734e+00
9.186000000000000000e+03 1.834779357910156250e+01 1.595245122909545898e+00 7.193259000778198242e-01 -5.977367758750915527e-01 3.647674247622489929e-02 -2.126181125640869141e-01
9.187000000000000000e+03 1.854553031921386719e+01 1.398307919502258301e+00 -1.362756490707397461e+00 -1.313271403312683105e+00 -8.028083443641662598e-01 -1.466704368591308594e+00
9.188000000000000000e+03 1.820831489562988281e+01 8.324990868568420410e-01 -4.694309234619140625e+00 -1.860682845115661621e+00 -1.966497659683227539e+00 -2.903222799301147461e+00
9.189000000000000000e+03 1.684770965576171875e+01 3.050752580165863037e-01 -3.271172761917114258e+00 -1.252884507179260254e+00 -1.357217192649841309e+00 -2.508572578430175781e+00
9.190000000000000000e+03 1.643051910400390625e+01 4.287737011909484863e-01 -4.123764485120773315e-02 -1.428927481174468994e-01 -5.523911491036415100e-02 -6.062601208686828613e-01
9.191000000000000000e+03 1.508499240875244141e+01 -1.196102350950241089e-01 -4.237533569335937500e+00 6.525270938873291016e-01 -1.075501918792724609e+00 -2.221417874097824097e-01
9.192000000000000000e+03 1.489139747619628906e+01 -4.429558813571929932e-01 -7.285953998565673828e+00 -1.867705136537551880e-01 -2.241817474365234375e+00 5.844764113426208496e-01
9.193000000000000000e+03 1.458994865417480469e+01 1.278747320175170898e-01 -1.894223332405090332e+00 4.909655451774597168e-01 -4.209773540496826172e-01 4.504772722721099854e-01
9.194000000000000000e+03 2.798352813720703125e+01 6.378621101379394531e+00 -3.153738260269165039e+00 -1.783424019813537598e+00 -1.481148719787597656e+00 -2.283946037292480469e+00
9.195000000000000000e+03 2.744732856750488281e+01 5.919847488403320312e+00 -2.990604639053344727e+00 -1.440927386283874512e+00 -1.329459667205810547e+00 -2.014164924621582031e+00
9.196000000000000000e+03 2.681096076965332031e+01 5.881733417510986328e+00 -3.143763303756713867e+00 -1.248879313468933105e+00 -1.317792773246765137e+00 -1.986311554908752441e+00
9.197000000000000000e+03 2.695290946960449219e+01 5.657287120819091797e+00 -3.019136190414428711e+00 -1.266705989837646484e+00 -1.285752654075622559e+00 -1.920248508453369141e+00
9.198000000000000000e+03 2.680890464782714844e+01 5.554503917694091797e+00 -3.042837619781494141e+00 -1.229975223541259766e+00 -1.281843781471252441e+00 -1.907634615898132324e+00
9.199000000000000000e+03 2.595121192932128906e+01 5.348055839538574219e+00 -3.167715311050415039e+00 -1.212679505348205566e+00 -1.314118504524230957e+00 -1.963720798492431641e+00
9.200000000000000000e+03 2.624352073669433594e+01 5.168264389038085938e+00 -3.073985338211059570e+00 -1.161154627799987793e+00 -1.270542025566101074e+00 -1.876993536949157715e+00
9.201000000000000000e+03 2.577732086181640625e+01 5.259509563446044922e+00 -3.196401357650756836e+00 -1.226720094680786133e+00 -1.326936483383178711e+00 -1.968991398811340332e+00
9.202000000000000000e+03 2.587140464782714844e+01 5.063723564147949219e+00 -3.136192083358764648e+00 -1.165883183479309082e+00 -1.290622591972351074e+00 -1.918014407157897949e+00
9.203000000000000000e+03 2.528497123718261719e+01 4.897889137268066406e+00 -3.288340091705322266e+00 -1.233163356781005859e+00 -1.356451034545898438e+00 -2.013930559158325195e+00
9.204000000000000000e+03 2.476001930236816406e+01 4.607118606567382812e+00 -3.423352718353271484e+00 -1.287677764892578125e+00 -1.413309097290039062e+00 -2.084764957427978516e+00
9.205000000000000000e+03 2.340548515319824219e+01 3.757633924484252930e+00 -3.915628433227539062e+00 -1.463754057884216309e+00 -1.613814711570739746e+00 -2.351039409637451172e+00
9.206000000000000000e+03 2.324150848388671875e+01 3.638243675231933594e+00 -3.969942092895507812e+00 -1.427918553352355957e+00 -1.619358181953430176e+00 -2.421288490295410156e+00
9.207000000000000000e+03 2.301863098144531250e+01 3.138655900955200195e+00 -3.909574031829833984e+00 -1.295598864555358887e+00 -1.561551809310913086e+00 -2.208155632019042969e+00
9.208000000000000000e+03 2.266702651977539062e+01 2.957285165786743164e+00 -4.023405075073242188e+00 -1.363900303840637207e+00 -1.616191506385803223e+00 -2.313018083572387695e+00
9.209000000000000000e+03 2.203386688232421875e+01 2.941110372543334961e+00 -4.428046703338623047e+00 -1.708683848381042480e+00 -1.841019153594970703e+00 -2.680288791656494141e+00
9.210000000000000000e+03 2.213482093811035156e+01 2.759301662445068359e+00 -4.173776626586914062e+00 -1.443808674812316895e+00 -1.685275554656982422e+00 -2.557430267333984375e+00
9.211000000000000000e+03 2.154034233093261719e+01 2.606009721755981445e+00 -4.411559104919433594e+00 -1.655103445053100586e+00 -1.819998741149902344e+00 -2.807315587997436523e+00
9.212000000000000000e+03 2.183447265625000000e+01 2.533674716949462891e+00 -4.136726856231689453e+00 -1.486182689666748047e+00 -1.686872839927673340e+00 -2.585355281829833984e+00
9.213000000000000000e+03 2.136129570007324219e+01 2.078829288482666016e+00 -3.758536338806152344e+00 -1.627291798591613770e+00 -1.615748405456542969e+00 -2.514209032058715820e+00
9.214000000000000000e+03 2.154104804992675781e+01 2.237478971481323242e+00 -3.919064044952392578e+00 -1.491987824440002441e+00 -1.623315572738647461e+00 -2.571855306625366211e+00
9.215000000000000000e+03 2.077692985534667969e+01 1.859538793563842773e+00 -3.585553407669067383e+00 -1.685259699821472168e+00 -1.581243872642517090e+00 -2.550150156021118164e+00
9.216000000000000000e+03 2.049374771118164062e+01 1.987400770187377930e+00 -3.936607599258422852e+00 -1.622057676315307617e+00 -1.667599558830261230e+00 -2.545439720153808594e+00
9.217000000000000000e+03 2.048386955261230469e+01 1.801054954528808594e+00 -3.511091470718383789e+00 -1.711749672889709473e+00 -1.566852331161499023e+00 -2.535739898681640625e+00
9.218000000000000000e+03 2.034474945068359375e+01 1.374484896659851074e+00 -2.629975080490112305e+00 -1.895836234092712402e+00 -1.357743382453918457e+00 -2.516397476196289062e+00
9.219000000000000000e+03 1.986848831176757812e+01 1.354785084724426270e+00 -2.361632347106933594e+00 -1.669579982757568359e+00 -1.209363698959350586e+00 -2.179063081741333008e+00
9.220000000000000000e+03 1.977758979797363281e+01 1.160026073455810547e+00 -2.083783864974975586e+00 -1.894732594490051270e+00 -1.193554997444152832e+00 -2.127961635589599609e+00
9.221000000000000000e+03 1.899002265930175781e+01 1.033178091049194336e+00 -1.460671901702880859e+00 -7.512586712837219238e-01 -6.635791659355163574e-01 -1.154552817344665527e+00
9.222000000000000000e+03 1.865701293945312500e+01 8.324456810951232910e-01 -1.174553036689758301e+00 -5.459987521171569824e-01 -5.161655545234680176e-01 -8.703305721282958984e-01
9.223000000000000000e+03 1.796325874328613281e+01 6.934621185064315796e-02 -1.426348567008972168e+00 -5.130379199981689453e-01 -5.818159580230712891e-01 -8.657345175743103027e-01
9.224000000000000000e+03 1.781099510192871094e+01 -4.681610688567161560e-02 -1.445947408676147461e+00 -5.762532353401184082e-01 -6.066601872444152832e-01 -8.257893919944763184e-01
9.225000000000000000e+03 1.731255149841308594e+01 -4.446045309305191040e-02 -1.217078208923339844e+00 -4.126342236995697021e-01 -4.889137148857116699e-01 -6.701967716217041016e-01
9.226000000000000000e+03 1.716968917846679688e+01 -5.165702104568481445e-01 -1.706612110137939453e+00 -4.540218710899353027e-01 -6.481902003288269043e-01 -8.674035668373107910e-01
9.227000000000000000e+03 1.733124160766601562e+01 -3.948403298854827881e-01 -1.636144399642944336e+00 -4.676186144351959229e-01 -6.311289072036743164e-01 -8.288519382476806641e-01
9.228000000000000000e+03 1.700969696044921875e+01 -6.479260325431823730e-01 -1.800025224685668945e+00 -4.624238312244415283e-01 -6.787347197532653809e-01 -8.422293066978454590e-01
9.229000000000000000e+03 1.667558479309082031e+01 -9.449340701103210449e-01 -2.049580812454223633e+00 -4.473647475242614746e-01 -7.490836977958679199e-01 -7.996819019317626953e-01
9.230000000000000000e+03 2.749036979675292969e+01 7.732102394104003906e+00 -1.961248993873596191e+00 -7.689903974533081055e-01 -8.190718293190002441e-01 -1.513651013374328613e+00
9.231000000000000000e+03 2.737743186950683594e+01 7.516111850738525391e+00 -1.234436511993408203e+00 -4.346318542957305908e-01 -5.007205009460449219e-01 -9.979826807975769043e-01
9.232000000000000000e+03 2.775899505615234375e+01 7.781839847564697266e+00 -1.512151598930358887e+00 -1.854264736175537109e-01 -5.092734098434448242e-01 -1.155346870422363281e+00
9.233000000000000000e+03 2.767353057861328125e+01 8.236301422119140625e+00 -3.390158653259277344e+00 -1.300936460494995117e+00 -1.407328605651855469e+00 -2.287202596664428711e+00
9.234000000000000000e+03 2.705670928955078125e+01 7.836090087890625000e+00 -3.768503427505493164e+00 -2.299604415893554688e+00 -1.820432305335998535e+00 -3.008758783340454102e+00
9.235000000000000000e+03 2.657050704956054688e+01 7.504411220550537109e+00 -4.374511718750000000e+00 -2.807792186737060547e+00 -2.154691219329833984e+00 -3.444100141525268555e+00
9.236000000000000000e+03 2.671600341796875000e+01 7.279695510864257812e+00 -2.570509433746337891e+00 -1.525566935539245605e+00 -1.228822946548461914e+00 -1.844903230667114258e+00
9.237000000000000000e+03 2.589096641540527344e+01 7.078425884246826172e+00 -5.193865776062011719e+00 -2.834843873977661133e+00 -2.408612966537475586e+00 -3.815836668014526367e+00
9.238000000000000000e+03 2.600694847106933594e+01 6.826173305511474609e+00 -3.049003362655639648e+00 -1.842674136161804199e+00 -1.467503309249877930e+00 -2.259747266769409180e+00
9.239000000000000000e+03 2.562108039855957031e+01 6.621604919433593750e+00 -3.283458948135375977e+00 -1.923256635665893555e+00 -1.562014698982238770e+00 -2.569047927856445312e+00
9.240000000000000000e+03 2.579959106445312500e+01 6.754337787628173828e+00 -3.467952251434326172e+00 -2.053503513336181641e+00 -1.656436681747436523e+00 -2.511209726333618164e+00
9.241000000000000000e+03 2.861095428466796875e+01 8.252856254577636719e+00 -1.759407997131347656e+00 -3.308619260787963867e-01 -6.270809769630432129e-01 -6.498159170150756836e-01
9.242000000000000000e+03 2.853674888610839844e+01 8.360008239746093750e+00 -1.925390005111694336e+00 -9.612438082695007324e-02 -6.064543128013610840e-01 -7.320226430892944336e-01
9.243000000000000000e+03 2.883415985107421875e+01 8.333746910095214844e+00 -1.316754221916198730e+00 -6.275231242179870605e-01 -5.832832455635070801e-01 -6.486071646213531494e-02
9.244000000000000000e+03 2.870514488220214844e+01 8.375977516174316406e+00 -1.972591638565063477e+00 -6.887723803520202637e-01 -7.984092235565185547e-01 -7.874139547348022461e-01
9.245000000000000000e+03 1.971903610229492188e+01 2.516002416610717773e+00 6.110218167304992676e-02 -7.287725806236267090e-01 -2.003011107444763184e-01 -5.305968523025512695e-01
9.246000000000000000e+03 2.373731422424316406e+01 5.086797237396240234e+00 -1.566614985466003418e+00 -1.176973938941955566e+00 -8.230766654014587402e-01 -1.395682573318481445e+00
9.247000000000000000e+03 2.900718116760253906e+01 8.279201507568359375e+00 -1.281825661659240723e+00 -5.891892910003662109e-01 -5.613045096397399902e-01 -2.249247878789901733e-01
9.248000000000000000e+03 2.995883560180664062e+01 7.631362438201904297e+00 -6.781724691390991211e-01 -1.583562970161437988e+00 -6.785206198692321777e-01 -1.203380465507507324e+00
9.249000000000000000e+03 2.986109924316406250e+01 7.173797130584716797e+00 -8.833408951759338379e-01 -1.491767525672912598e+00 -7.125325202941894531e-01 -1.477188706398010254e+00
9.250000000000000000e+03 2.977012825012207031e+01 7.303269386291503906e+00 -6.549239158630371094e-01 -1.596621513366699219e+00 -6.754636168479919434e-01 -1.540540218353271484e+00
9.251000000000000000e+03 1.753824615478515625e+01 -1.313276886940002441e+00 -2.127443313598632812e+00 -9.688202142715454102e-01 -9.288790822029113770e-01 -1.066102027893066406e+00
9.252000000000000000e+03 1.770430946350097656e+01 -1.205825805664062500e+00 -2.039638519287109375e+00 -9.621763825416564941e-01 -9.005444645881652832e-01 -1.144050359725952148e+00
9.253000000000000000e+03 1.803942489624023438e+01 -9.887551069259643555e-01 -2.117295503616333008e+00 -1.029946088790893555e+00 -9.441725015640258789e-01 -1.261280894279479980e+00
9.254000000000000000e+03 1.769699668884277344e+01 -8.576623797416687012e-01 -2.006484985351562500e+00 -7.640110254287719727e-01 -8.311488032341003418e-01 -1.077579498291015625e+00
9.255000000000000000e+03 1.871887207031250000e+01 -5.354961752891540527e-01 -2.266071319580078125e+00 -1.493180036544799805e+00 -1.127775430679321289e+00 -1.509141802787780762e+00
9.256000000000000000e+03 1.851503944396972656e+01 -2.948162555694580078e-01 -2.019194364547729492e+00 -1.345615506172180176e+00 -1.009442925453186035e+00 -1.251039862632751465e+00
9.257000000000000000e+03 1.856393241882324219e+01 1.237389743328094482e-01 -1.559722423553466797e+00 -1.066712141036987305e+00 -7.879303693771362305e-01 -1.207456588745117188e+00
9.258000000000000000e+03 1.924990653991699219e+01 -5.019795522093772888e-02 -1.487652897834777832e+00 -2.258518218994140625e+00 -1.123851299285888672e+00 -1.645433664321899414e+00
9.259000000000000000e+03 1.943012428283691406e+01 -4.136993363499641418e-02 -2.410496473312377930e+00 -2.910902261734008789e+00 -1.596419572830200195e+00 -2.317407131195068359e+00
9.260000000000000000e+03 1.920506477355957031e+01 2.889018356800079346e-01 -1.867510795593261719e+00 -2.177462577819824219e+00 -1.213492035865783691e+00 -1.783638238906860352e+00
9.261000000000000000e+03 1.935403060913085938e+01 1.091038063168525696e-01 -1.615368843078613281e+00 -2.245953321456909180e+00 -1.158396720886230469e+00 -1.479984641075134277e+00
9.262000000000000000e+03 1.970587158203125000e+01 3.779152035713195801e-01 -2.012247085571289062e+00 -2.608138561248779297e+00 -1.386115670204162598e+00 -2.500271081924438477e+00
9.263000000000000000e+03 2.085043907165527344e+01 1.039960861206054688e+00 -2.341434717178344727e+00 -1.829812169075012207e+00 -1.251374125480651855e+00 -2.720008134841918945e+00
9.264000000000000000e+03 2.049315261840820312e+01 8.613141179084777832e-01 -2.027638673782348633e+00 -2.078481912612915039e+00 -1.231836199760437012e+00 -2.750801324844360352e+00
9.265000000000000000e+03 2.152845191955566406e+01 1.460379362106323242e+00 -2.967133998870849609e+00 -1.235156059265136719e+00 -1.260686993598937988e+00 -2.340445280075073242e+00
9.266000000000000000e+03 2.228789710998535156e+01 2.100796222686767578e+00 -3.509703397750854492e+00 -1.082162857055664062e+00 -1.377559900283813477e+00 -2.145023584365844727e+00
9.267000000000000000e+03 2.268266296386718750e+01 2.183539867401123047e+00 -3.358129978179931641e+00 -8.563014268875122070e-01 -1.264329433441162109e+00 -1.908498048782348633e+00
9.268000000000000000e+03 2.282362365722656250e+01 2.349183797836303711e+00 -3.490578889846801758e+00 -9.067018628120422363e-01 -1.319184303283691406e+00 -1.923222303390502930e+00
9.269000000000000000e+03 2.291903305053710938e+01 2.602031946182250977e+00 -3.606010913848876953e+00 -1.053453922271728516e+00 -1.397839426994323730e+00 -1.984877824783325195e+00
9.270000000000000000e+03 2.312372589111328125e+01 2.517670631408691406e+00 -3.458099603652954102e+00 -8.515788912773132324e-01 -1.292903542518615723e+00 -1.868110656738281250e+00
9.271000000000000000e+03 2.329864883422851562e+01 2.554312467575073242e+00 -3.379453897476196289e+00 -8.689479827880859375e-01 -1.274520516395568848e+00 -1.760863661766052246e+00
9.272000000000000000e+03 2.370875740051269531e+01 2.486496210098266602e+00 -3.135786294937133789e+00 -6.979049444198608398e-01 -1.150107383728027344e+00 -1.583596944808959961e+00
9.273000000000000000e+03 2.360039710998535156e+01 2.670200109481811523e+00 -3.316402673721313477e+00 -8.301287889480590820e-01 -1.243959426879882812e+00 -1.683394908905029297e+00
9.274000000000000000e+03 2.383144950866699219e+01 2.970955133438110352e+00 -3.384034395217895508e+00 -8.800022602081298828e-01 -1.279211044311523438e+00 -1.742476105690002441e+00
9.275000000000000000e+03 2.428691291809082031e+01 3.261617898941040039e+00 -3.312135696411132812e+00 -9.004092812538146973e-01 -1.263763546943664551e+00 -1.699118733406066895e+00
9.276000000000000000e+03 2.491758537292480469e+01 3.217509746551513672e+00 -3.011687040328979492e+00 -7.708312273025512695e-01 -1.134755492210388184e+00 -1.455762624740600586e+00
9.277000000000000000e+03 2.506211090087890625e+01 3.325509548187255859e+00 -2.967137813568115234e+00 -7.873412966728210449e-01 -1.126343727111816406e+00 -1.479019045829772949e+00
9.278000000000000000e+03 2.508978843688964844e+01 3.686359405517578125e+00 -3.089477062225341797e+00 -8.787478208541870117e-01 -1.190467476844787598e+00 -1.619910240173339844e+00
9.279000000000000000e+03 2.592293930053710938e+01 3.904886245727539062e+00 -2.828552484512329102e+00 -8.904176950454711914e-01 -1.115691065788269043e+00 -1.463112473487854004e+00
9.280000000000000000e+03 2.642688369750976562e+01 4.173763751983642578e+00 -2.695974588394165039e+00 -9.586836695671081543e-01 -1.096397399902343750e+00 -1.459658265113830566e+00
9.281000000000000000e+03 2.612514495849609375e+01 4.211234092712402344e+00 -2.840574026107788086e+00 -9.574565291404724121e-01 -1.139409184455871582e+00 -1.544028162956237793e+00
9.282000000000000000e+03 2.628206062316894531e+01 4.349055767059326172e+00 -2.842193126678466797e+00 -9.946515560150146484e-01 -1.151053428649902344e+00 -1.573585033416748047e+00
9.283000000000000000e+03 2.674450492858886719e+01 4.412423610687255859e+00 -2.668833255767822266e+00 -1.025547146797180176e+00 -1.108314156532287598e+00 -1.499979615211486816e+00
9.284000000000000000e+03 2.653885078430175781e+01 4.620157718658447266e+00 -2.792313337326049805e+00 -1.060737490653991699e+00 -1.155915260314941406e+00 -1.612369775772094727e+00
9.285000000000000000e+03 2.699238395690917969e+01 4.901086807250976562e+00 -2.744615316390991211e+00 -1.141858100891113281e+00 -1.165942072868347168e+00 -1.629190325736999512e+00
9.286000000000000000e+03 2.765724372863769531e+01 5.295273303985595703e+00 -2.575080633163452148e+00 -1.370399475097656250e+00 -1.183644056320190430e+00 -1.650726079940795898e+00
9.287000000000000000e+03 2.831085968017578125e+01 5.369943618774414062e+00 -2.258098840713500977e+00 -1.502764582633972168e+00 -1.128259062767028809e+00 -1.432813525199890137e+00
9.288000000000000000e+03 2.837192344665527344e+01 5.715072154998779297e+00 -2.360910415649414062e+00 -1.687461495399475098e+00 -1.214511513710021973e+00 -1.583575725555419922e+00
9.289000000000000000e+03 2.900979804992675781e+01 5.785435676574707031e+00 -2.108314514160156250e+00 -1.483913779258728027e+00 -1.077668547630310059e+00 -1.249057531356811523e+00
9.290000000000000000e+03 2.888737106323242188e+01 5.938385963439941406e+00 -2.174328804016113281e+00 -1.604633808135986328e+00 -1.133688807487487793e+00 -1.338561177253723145e+00
9.291000000000000000e+03 2.932737922668457031e+01 6.294694900512695312e+00 -2.004355907440185547e+00 -1.296099662780761719e+00 -9.901366829872131348e-01 -1.404688596725463867e+00
9.292000000000000000e+03 2.987050247192382812e+01 6.886860370635986328e+00 -1.232077717781066895e+00 -1.307271838188171387e+00 -7.618048787117004395e-01 -1.546940922737121582e+00
9.293000000000000000e+03 2.857546615600585938e+01 5.763775825500488281e+00 -2.232377290725708008e+00 -1.678028702735900879e+00 -1.173121809959411621e+00 -1.449976563453674316e+00
9.294000000000000000e+03 2.832865715026855469e+01 5.965070724487304688e+00 -2.441252708435058594e+00 -1.833648800849914551e+00 -1.282470464706420898e+00 -1.735653281211853027e+00
9.295000000000000000e+03 1.585226917266845703e+01 -1.314679533243179321e-01 -4.608311653137207031e+00 1.364402055740356445e+00 -9.731727838516235352e-01 -1.595860362052917480e+00
9.296000000000000000e+03 2.700904464721679688e+01 6.986386775970458984e+00 2.025284916162490845e-01 1.093578934669494629e-01 9.356591105461120605e-02 1.482935696840286255e-01
9.297000000000000000e+03 1.915440750122070312e+01 1.539692163467407227e+00 -2.109906673431396484e+00 -1.224186301231384277e+00 -1.000227928161621094e+00 -1.757475256919860840e+00
9.298000000000000000e+03 1.895336532592773438e+01 1.434279918670654297e+00 -2.447601318359375000e+00 -1.450135827064514160e+00 -1.169321179389953613e+00 -2.030948400497436523e+00
9.299000000000000000e+03 1.832626342773437500e+01 1.212554574012756348e+00 -2.125610351562500000e+00 -1.430684804916381836e+00 -1.066888570785522461e+00 -1.785554289817810059e+00
9.300000000000000000e+03 1.881803703308105469e+01 1.581102371215820312e+00 -1.074586272239685059e+00 -1.110672950744628906e+00 -6.555777788162231445e-01 -1.309673190116882324e+00
9.301000000000000000e+03 1.720338821411132812e+01 7.016548514366149902e-01 -1.196959733963012695e+00 -6.471041440963745117e-01 -5.532191395759582520e-01 -1.138559460639953613e+00
9.302000000000000000e+03 1.766154289245605469e+01 9.660823345184326172e-01 -9.131582975387573242e-01 -1.087434172630310059e+00 -6.001777648925781250e-01 -1.197085261344909668e+00
9.303000000000000000e+03 2.660479927062988281e+01 6.350921630859375000e+00 2.663017511367797852e+00 8.179803490638732910e-01 1.044299364089965820e+00 1.645212769508361816e+00
9.304000000000000000e+03 2.639602661132812500e+01 6.356693744659423828e+00 1.646256804466247559e+00 3.080285787582397461e-01 5.862856507301330566e-01 9.499734640121459961e-01
9.305000000000000000e+03 2.637787246704101562e+01 6.789946079254150391e+00 -1.196139574050903320e+00 -8.541097640991210938e-01 -6.150748133659362793e-01 -9.338353872299194336e-01
9.306000000000000000e+03 2.639554023742675781e+01 6.124566555023193359e+00 3.529912710189819336e+00 1.063984870910644531e+00 1.378169298171997070e+00 2.090431928634643555e+00
9.307000000000000000e+03 2.626122474670410156e+01 6.240300655364990234e+00 2.008553266525268555e+00 4.437187314033508301e-01 7.356815934181213379e-01 1.083764553070068359e+00
9.308000000000000000e+03 2.605123901367187500e+01 6.284544944763183594e+00 1.083970904350280762e+00 2.182710357010364532e-02 3.317393958568572998e-01 4.128709137439727783e-01
9.309000000000000000e+03 2.451865959167480469e+01 5.238244056701660156e+00 1.191350340843200684e+00 7.251487579196691513e-03 3.595805466175079346e-01 4.351876974105834961e-01
9.310000000000000000e+03 2.402710723876953125e+01 5.146443367004394531e+00 -8.825055360794067383e-01 -1.032606840133666992e+00 -5.745337009429931641e-01 -8.881903290748596191e-01
9.311000000000000000e+03 2.145628166198730469e+01 3.227499723434448242e+00 3.240205943584442139e-01 -3.024276494979858398e-01 6.477888673543930054e-03 -1.901353746652603149e-01
9.312000000000000000e+03 2.426770591735839844e+01 5.176071166992187500e+00 5.536263585090637207e-01 -5.155222415924072266e-01 1.143123395740985870e-02 -1.347891539335250854e-01
9.313000000000000000e+03 2.872770690917968750e+01 5.972564697265625000e+00 -2.222330331802368164e+00 -1.760139346122741699e+00 -1.194740891456604004e+00 -1.434193253517150879e+00
9.314000000000000000e+03 2.875193977355957031e+01 5.821742534637451172e+00 -2.183918714523315430e+00 -1.651861906051635742e+00 -1.150734186172485352e+00 -1.380715370178222656e+00
9.315000000000000000e+03 2.641004180908203125e+01 4.976247310638427734e+00 -2.943652868270874023e+00 -1.144710063934326172e+00 -1.226508855819702148e+00 -1.787760376930236816e+00
9.316000000000000000e+03 2.677645301818847656e+01 4.986546516418457031e+00 -2.819597482681274414e+00 -1.159523129463195801e+00 -1.193736195564270020e+00 -1.710642933845520020e+00
9.317000000000000000e+03 2.664482498168945312e+01 5.213761329650878906e+00 -2.955980539321899414e+00 -1.171192407608032227e+00 -1.238151907920837402e+00 -1.826778650283813477e+00
9.318000000000000000e+03 2.723494148254394531e+01 7.353139877319335938e+00 -9.828987121582031250e-01 -5.095205307006835938e-01 -4.477257728576660156e-01 -8.454637527465820312e-01
9.319000000000000000e+03 2.647268295288085938e+01 6.952697277069091797e+00 -1.874889016151428223e+00 -1.263310909271240234e+00 -9.414600133895874023e-01 -1.398472666740417480e+00
9.320000000000000000e+03 2.488064193725585938e+01 5.748773574829101562e+00 -8.906091451644897461e-01 -7.584153413772583008e-01 -4.947073459625244141e-01 -8.322944641113281250e-01
9.321000000000000000e+03 2.606977462768554688e+01 6.554043769836425781e+00 -1.012795567512512207e+00 -7.276797294616699219e-01 -5.221425890922546387e-01 -7.295406460762023926e-01
9.322000000000000000e+03 1.970203399658203125e+01 9.767117500305175781e-01 -1.793722271919250488e+00 -1.677561640739440918e+00 -1.041385173797607422e+00 -2.195829153060913086e+00
9.323000000000000000e+03 2.451392555236816406e+01 4.150055408477783203e+00 -3.444432258605957031e+00 -1.179431915283203125e+00 -1.387159228324890137e+00 -2.010404348373413086e+00
9.324000000000000000e+03 2.222106933593750000e+01 1.953441381454467773e+00 -3.351487398147583008e+00 -1.049973487854003906e+00 -1.320438265800476074e+00 -2.086282730102539062e+00
9.325000000000000000e+03 2.499477386474609375e+01 4.285282135009765625e+00 -3.297491073608398438e+00 -1.110968470573425293e+00 -1.322537779808044434e+00 -1.898988723754882812e+00
9.326000000000000000e+03 2.772571945190429688e+01 5.587497234344482422e+00 -2.633486270904541016e+00 -1.481457471847534180e+00 -1.234483122825622559e+00 -1.772089242935180664e+00
9.327000000000000000e+03 2.786710739135742188e+01 5.700411319732666016e+00 -2.624248266220092773e+00 -1.535891056060791016e+00 -1.248041749000549316e+00 -1.779316306114196777e+00
9.328000000000000000e+03 2.761308097839355469e+01 6.036466598510742188e+00 -2.997732162475585938e+00 -1.504524350166320801e+00 -1.350676894187927246e+00 -2.055201768875122070e+00
9.329000000000000000e+03 2.683716011047363281e+01 5.168988704681396484e+00 -2.842833280563354492e+00 -1.225604772567749023e+00 -1.220531463623046875e+00 -1.778108835220336914e+00
9.330000000000000000e+03 2.701836776733398438e+01 5.092906475067138672e+00 -2.772205352783203125e+00 -1.204463005065917969e+00 -1.193000435829162598e+00 -1.726204395294189453e+00
9.331000000000000000e+03 2.715846061706542969e+01 4.960176944732666016e+00 -2.674058914184570312e+00 -1.173204302787780762e+00 -1.154178977012634277e+00 -1.612237691879272461e+00
9.332000000000000000e+03 2.239185333251953125e+01 1.953694581985473633e+00 -3.255594968795776367e+00 -8.090993165969848633e-01 -1.219408273696899414e+00 -1.970163583755493164e+00
9.333000000000000000e+03 2.253596496582031250e+01 2.679699420928955078e+00 -3.920799493789672852e+00 -1.319112420082092285e+00 -1.571973562240600586e+00 -2.272512197494506836e+00
9.334000000000000000e+03 2.059241485595703125e+01 1.542418837547302246e+00 -2.914655208587646484e+00 -1.832700848579406738e+00 -1.424206852912902832e+00 -2.585368633270263672e+00
9.335000000000000000e+03 1.705965614318847656e+01 -1.238278031349182129e+00 -2.061431407928466797e+00 -6.198692321777343750e-01 -8.043901920318603516e-01 -8.793650269508361816e-01
9.336000000000000000e+03 1.735778236389160156e+01 -7.449176907539367676e-01 -1.905107855796813965e+00 -5.575082302093505859e-01 -7.387847900390625000e-01 -9.282460212707519531e-01
9.337000000000000000e+03 1.751641082763671875e+01 -6.253772377967834473e-01 -1.887019157409667969e+00 -6.237223148345947266e-01 -7.532224655151367188e-01 -9.805877804756164551e-01
9.338000000000000000e+03 1.767763137817382812e+01 -5.077363848686218262e-01 -1.847854137420654297e+00 -5.956184864044189453e-01 -7.330417633056640625e-01 -9.774177670478820801e-01
9.339000000000000000e+03 1.858691024780273438e+01 -9.391445666551589966e-02 -2.005688190460205078e+00 -1.330788850784301758e+00 -1.000943183898925781e+00 -1.310144543647766113e+00
9.340000000000000000e+03 1.897811508178710938e+01 2.083240002393722534e-01 -1.415866971015930176e+00 -1.568441033363342285e+00 -8.952924013137817383e-01 -1.328828096389770508e+00
9.341000000000000000e+03 1.828685569763183594e+01 2.713023126125335693e-01 -1.387206673622131348e+00 -5.912915468215942383e-01 -5.935494899749755859e-01 -9.431318640708923340e-01
9.342000000000000000e+03 2.410520935058593750e+01 3.153629302978515625e+00 -3.338660240173339844e+00 -8.505349159240722656e-01 -1.256758570671081543e+00 -1.706494331359863281e+00
9.343000000000000000e+03 2.391318130493164062e+01 3.180729627609252930e+00 -3.457892417907714844e+00 -9.546937942504882812e-01 -1.323775887489318848e+00 -1.811192154884338379e+00
9.344000000000000000e+03 2.399816131591796875e+01 3.385308742523193359e+00 -3.521476507186889648e+00 -1.027959942817687988e+00 -1.364830970764160156e+00 -1.904553413391113281e+00
9.345000000000000000e+03 2.488282585144042969e+01 3.632354021072387695e+00 -3.174914360046386719e+00 -9.158095121383666992e-01 -1.227217078208923340e+00 -1.651433706283569336e+00
9.346000000000000000e+03 2.444554328918457031e+01 3.841858625411987305e+00 -3.378804445266723633e+00 -1.082555413246154785e+00 -1.338407874107360840e+00 -1.902812600135803223e+00
9.347000000000000000e+03 2.601859092712402344e+01 4.594632148742675781e+00 -2.995376586914062500e+00 -1.053389310836791992e+00 -1.214629769325256348e+00 -1.714284181594848633e+00
9.348000000000000000e+03 2.623686027526855469e+01 4.541726589202880859e+00 -2.882087230682373047e+00 -1.035218834877014160e+00 -1.175191760063171387e+00 -1.649913191795349121e+00
9.349000000000000000e+03 1.928930854797363281e+01 8.976932168006896973e-01 -1.542765855789184570e+00 -1.228486776351928711e+00 -8.313757777214050293e-01 -1.645354628562927246e+00
9.350000000000000000e+03 1.927956962585449219e+01 6.948968768119812012e-01 -1.986081123352050781e+00 -1.670969605445861816e+00 -1.097115278244018555e+00 -1.883887767791748047e+00
9.351000000000000000e+03 1.991943740844726562e+01 6.985806822776794434e-01 -1.684475779533386230e+00 -2.543566226959228516e+00 -1.268412590026855469e+00 -2.176621675491333008e+00
9.352000000000000000e+03 2.460322952270507812e+01 3.955327272415161133e+00 -3.382927179336547852e+00 -1.090804457664489746e+00 -1.342119574546813965e+00 -1.913654685020446777e+00
9.353000000000000000e+03 2.382778739929199219e+01 3.521178722381591797e+00 -3.605228185653686523e+00 -1.144106984138488770e+00 -1.424800634384155273e+00 -2.012037992477416992e+00
9.354000000000000000e+03 2.198137664794921875e+01 2.655979156494140625e+00 -4.225324630737304688e+00 -1.564837455749511719e+00 -1.737048625946044922e+00 -2.530396461486816406e+00
9.355000000000000000e+03 2.185815811157226562e+01 2.212323427200317383e+00 -3.751127004623413086e+00 -1.334493279457092285e+00 -1.525686025619506836e+00 -2.391650438308715820e+00
9.356000000000000000e+03 2.198051834106445312e+01 2.364504098892211914e+00 -3.917118787765502930e+00 -1.383118867874145508e+00 -1.590071320533752441e+00 -2.387076139450073242e+00
9.357000000000000000e+03 2.148756027221679688e+01 1.866619586944580078e+00 -3.449740171432495117e+00 -1.319821476936340332e+00 -1.430868506431579590e+00 -2.433743715286254883e+00
9.358000000000000000e+03 2.106024551391601562e+01 1.529556989669799805e+00 -3.014060020446777344e+00 -1.493547677993774414e+00 -1.352282285690307617e+00 -2.591332435607910156e+00
9.359000000000000000e+03 2.125181007385253906e+01 1.653330326080322266e+00 -3.161303520202636719e+00 -1.617265343666076660e+00 -1.433570623397827148e+00 -2.506083250045776367e+00
9.360000000000000000e+03 2.094637107849121094e+01 1.918027877807617188e+00 -3.638501405715942383e+00 -1.749384999275207520e+00 -1.616365909576416016e+00 -2.564838886260986328e+00
9.361000000000000000e+03 2.076650810241699219e+01 1.574730277061462402e+00 -2.995731592178344727e+00 -1.655519008636474609e+00 -1.395375132560729980e+00 -2.566199541091918945e+00
9.362000000000000000e+03 2.587970352172851562e+01 4.881956577301025391e+00 -3.123411655426025391e+00 -1.130333304405212402e+00 -1.276123404502868652e+00 -1.859499812126159668e+00
9.363000000000000000e+03 1.765451049804687500e+01 -1.619453579187393188e-01 -1.529199123382568359e+00 -4.592462778091430664e-01 -5.965335965156555176e-01 -8.195480108261108398e-01
9.364000000000000000e+03 1.812890052795410156e+01 -1.340038925409317017e-01 -1.709562420845031738e+00 -7.842032313346862793e-01 -7.481296658515930176e-01 -9.727341532707214355e-01
9.365000000000000000e+03 1.826277923583984375e+01 -2.977999858558177948e-02 -1.635014891624450684e+00 -7.386794686317443848e-01 -7.121083140373229980e-01 -1.042918562889099121e+00
9.366000000000000000e+03 1.880193901062011719e+01 6.758607029914855957e-01 -1.192615985870361328e+00 -1.024168252944946289e+00 -6.650352478027343750e-01 -9.916908144950866699e-01
9.367000000000000000e+03 1.894854354858398438e+01 7.549192905426025391e-01 -1.292048215866088867e+00 -1.004762887954711914e+00 -6.890433430671691895e-01 -1.218919396400451660e+00
9.368000000000000000e+03 2.678519821166992188e+01 7.062376022338867188e+00 -1.249768257141113281e+00 -8.033803701400756836e-01 -6.159446239471435547e-01 -9.160884022712707520e-01
9.369000000000000000e+03 2.690731239318847656e+01 6.818960189819335938e+00 9.192032814025878906e-01 4.458299577236175537e-01 4.095099568367004395e-01 5.817753076553344727e-01
9.370000000000000000e+03 2.660069084167480469e+01 7.038652420043945312e+00 -1.897092700004577637e+00 -1.217800974845886230e+00 -9.344680905342102051e-01 -1.356871724128723145e+00
9.371000000000000000e+03 2.659112930297851562e+01 6.734062194824218750e+00 4.781263172626495361e-01 -1.059836074709892273e-01 1.116428077220916748e-01 2.165849953889846802e-01
9.372000000000000000e+03 2.661147308349609375e+01 6.894548892974853516e+00 -8.958698511123657227e-01 -6.646948456764221191e-01 -4.681694209575653076e-01 -6.623689532279968262e-01
9.373000000000000000e+03 2.073003196716308594e+01 1.245025277137756348e+00 -2.542479038238525391e+00 -1.676907896995544434e+00 -1.265816092491149902e+00 -2.658870220184326172e+00
9.374000000000000000e+03 2.058207511901855469e+01 1.154570817947387695e+00 -2.384395122528076172e+00 -1.941190838813781738e+00 -1.297675848007202148e+00 -2.645137786865234375e+00
9.375000000000000000e+03 2.174007797241210938e+01 2.035988092422485352e+00 -3.594691991806030273e+00 -1.332371592521667480e+00 -1.478119134902954102e+00 -2.340252399444580078e+00
9.376000000000000000e+03 1.986181449890136719e+01 8.778309226036071777e-01 -1.681564450263977051e+00 -2.307078838348388672e+00 -1.196592926979064941e+00 -2.294857263565063477e+00
9.377000000000000000e+03 1.949866867065429688e+01 5.670157074928283691e-01 -1.210826158523559570e+00 -2.215936183929443359e+00 -1.028028607368469238e+00 -1.677808284759521484e+00
9.378000000000000000e+03 1.954581260681152344e+01 2.329013496637344360e-01 -1.349002838134765625e+00 -2.815259695053100586e+00 -1.249278783798217773e+00 -1.953668117523193359e+00
9.379000000000000000e+03 2.056551742553710938e+01 1.350121736526489258e+00 -2.592453002929687500e+00 -1.861063361167907715e+00 -1.336054921150207520e+00 -2.572187662124633789e+00
9.380000000000000000e+03 2.213665390014648438e+01 2.220813751220703125e+00 -3.630356311798095703e+00 -1.189150810241699219e+00 -1.445852041244506836e+00 -2.211349010467529297e+00
9.381000000000000000e+03 2.759283638000488281e+01 5.736433982849121094e+00 -2.816709756851196289e+00 -1.449516296386718750e+00 -1.279867887496948242e+00 -1.873562693595886230e+00
9.382000000000000000e+03 1.647349929809570312e+01 -1.049277424812316895e+00 -2.280458927154541016e+00 -4.554357826709747314e-01 -8.207684159278869629e-01 -6.437413096427917480e-01
9.383000000000000000e+03 2.371811103820800781e+01 3.334536314010620117e+00 -3.614446878433227539e+00 -1.078361988067626953e+00 -1.407842636108398438e+00 -1.980957984924316406e+00
9.384000000000000000e+03 1.918312644958496094e+01 5.033789277076721191e-01 -1.065926671028137207e+00 -1.801242232322692871e+00 -8.601506948471069336e-01 -1.335438370704650879e+00
9.385000000000000000e+03 2.467941284179687500e+01 3.614620447158813477e+00 -3.255301237106323242e+00 -9.067371487617492676e-01 -1.248611450195312500e+00 -1.718776345252990723e+00
9.386000000000000000e+03 1.937634086608886719e+01 4.028036594390869141e-01 -1.860954046249389648e+00 -2.012401342391967773e+00 -1.162006616592407227e+00 -1.936295747756958008e+00
9.387000000000000000e+03 1.885597801208496094e+01 4.195890128612518311e-01 -1.479625701904296875e+00 -1.571846961975097656e+00 -9.154418110847473145e-01 -1.438285708427429199e+00
9.388000000000000000e+03 2.240024375915527344e+01 2.218441963195800781e+00 -3.527844190597534180e+00 -1.022087693214416504e+00 -1.364979624748229980e+00 -2.065203428268432617e+00
9.389000000000000000e+03 2.447861862182617188e+01 3.615789175033569336e+00 -3.388783693313598633e+00 -9.782142639160156250e-01 -1.310099363327026367e+00 -1.798663973808288574e+00
9.390000000000000000e+03 2.235301589965820312e+01 2.481110811233520508e+00 -3.840343713760375977e+00 -1.221513986587524414e+00 -1.518557310104370117e+00 -2.238083362579345703e+00
9.391000000000000000e+03 2.166055107116699219e+01 1.858121275901794434e+00 -3.419362783432006836e+00 -1.359486341476440430e+00 -1.433654785156250000e+00 -2.372337341308593750e+00
9.392000000000000000e+03 2.237258148193359375e+01 2.643537998199462891e+00 -3.921210289001464844e+00 -1.255380749702453613e+00 -1.552977323532104492e+00 -2.341868638992309570e+00
9.393000000000000000e+03 2.353147506713867188e+01 2.949220895767211914e+00 -3.548916816711425781e+00 -9.660173058509826660e-01 -1.354480266571044922e+00 -1.901023626327514648e+00
9.394000000000000000e+03 2.845718574523925781e+01 7.030216693878173828e+00 -5.890320777893066406e+00 -2.884825706481933594e+00 -2.632543802261352539e+00 -4.160620212554931641e+00
9.395000000000000000e+03 2.829931449890136719e+01 6.909000873565673828e+00 -4.570146560668945312e+00 -2.236629247665405273e+00 -2.042032718658447266e+00 -3.147331237792968750e+00
9.396000000000000000e+03 2.814144515991210938e+01 6.787785530090332031e+00 -4.026983261108398438e+00 -1.833565592765808105e+00 -1.758164644241333008e+00 -2.707674741744995117e+00
9.397000000000000000e+03 2.798357582092285156e+01 6.666570186614990234e+00 -3.708336830139160156e+00 -1.666939020156860352e+00 -1.612582802772521973e+00 -2.483824968338012695e+00
9.398000000000000000e+03 2.849719047546386719e+01 6.987525463104248047e+00 -4.617138862609863281e+00 -3.425802707672119141e+00 -2.412882328033447266e+00 -4.002491950988769531e+00
9.399000000000000000e+03 2.836599349975585938e+01 6.837849140167236328e+00 -3.913494825363159180e+00 -2.717835903167724609e+00 -1.989399313926696777e+00 -3.031730651855468750e+00
9.400000000000000000e+03 2.823479461669921875e+01 6.688172817230224609e+00 -3.536128282546997070e+00 -2.207598686218261719e+00 -1.723118066787719727e+00 -2.707414388656616211e+00
9.401000000000000000e+03 2.810359573364257812e+01 6.538496494293212891e+00 -3.311521291732788086e+00 -1.951575875282287598e+00 -1.578929185867309570e+00 -2.442953824996948242e+00
9.402000000000000000e+03 2.854475593566894531e+01 6.953455924987792969e+00 -3.678422689437866211e+00 -3.853681564331054688e+00 -2.259631156921386719e+00 -3.558471202850341797e+00
9.403000000000000000e+03 2.844526672363281250e+01 6.781066894531250000e+00 -3.377073764801025391e+00 -2.915397167205810547e+00 -1.887741327285766602e+00 -2.774857759475708008e+00
9.404000000000000000e+03 2.834577941894531250e+01 6.608678340911865234e+00 -3.073307514190673828e+00 -2.473340272903442383e+00 -1.663994431495666504e+00 -2.477525949478149414e+00
9.405000000000000000e+03 2.824629020690917969e+01 6.436289310455322266e+00 -2.953629255294799805e+00 -2.150323152542114258e+00 -1.531185746192932129e+00 -2.290514707565307617e+00
9.406000000000000000e+03 2.859805107116699219e+01 6.929316997528076172e+00 -3.099021434783935547e+00 -3.949270725250244141e+00 -2.114487648010253906e+00 -2.959149122238159180e+00
9.407000000000000000e+03 2.853409385681152344e+01 6.740835666656494141e+00 -2.949016571044921875e+00 -2.957574367523193359e+00 -1.771977186203002930e+00 -2.441842555999755859e+00
9.408000000000000000e+03 2.847013473510742188e+01 6.552354335784912109e+00 -2.777721405029296875e+00 -2.528172254562377930e+00 -1.591768026351928711e+00 -2.198266983032226562e+00
9.409000000000000000e+03 2.840617561340332031e+01 6.363872528076171875e+00 -2.625201940536499023e+00 -2.233482599258422852e+00 -1.457605361938476562e+00 -2.021329402923583984e+00
9.410000000000000000e+03 2.865503120422363281e+01 6.916035652160644531e+00 -2.789977312088012695e+00 -3.678403854370117188e+00 -1.940514326095581055e+00 -2.381493091583251953e+00
9.411000000000000000e+03 2.862905883789062500e+01 6.718699932098388672e+00 -2.735400676727294922e+00 -2.830653905868530273e+00 -1.669816374778747559e+00 -2.131916284561157227e+00
9.412000000000000000e+03 2.860308647155761719e+01 6.521364212036132812e+00 -2.530272483825683594e+00 -2.431363821029663086e+00 -1.488490939140319824e+00 -1.907415390014648438e+00
9.413000000000000000e+03 2.857711601257324219e+01 6.324028491973876953e+00 -2.471443653106689453e+00 -2.169312238693237305e+00 -1.392226696014404297e+00 -1.782987475395202637e+00
9.414000000000000000e+03 2.871350669860839844e+01 6.914121627807617188e+00 -2.799180030822753906e+00 -3.168210744857788086e+00 -1.790217280387878418e+00 -2.025775909423828125e+00
9.415000000000000000e+03 2.872651863098144531e+01 6.715509891510009766e+00 -2.558987140655517578e+00 -2.546823501586914062e+00 -1.531743168830871582e+00 -1.882595300674438477e+00
9.416000000000000000e+03 2.873953056335449219e+01 6.516898155212402344e+00 -2.454446077346801758e+00 -2.237012147903442383e+00 -1.407437443733215332e+00 -1.717423677444458008e+00
9.417000000000000000e+03 2.875254249572753906e+01 6.318286418914794922e+00 -2.313615083694458008e+00 -1.985661387443542480e+00 -1.289783000946044922e+00 -1.556801676750183105e+00
9.418000000000000000e+03 2.877123260498046875e+01 6.923648357391357422e+00 -2.785613775253295898e+00 -2.525383234024047852e+00 -1.593299150466918945e+00 -1.939090490341186523e+00
9.419000000000000000e+03 2.882272911071777344e+01 6.731388092041015625e+00 -2.523004531860351562e+00 -2.236286878585815430e+00 -1.427787423133850098e+00 -1.791988015174865723e+00
9.420000000000000000e+03 2.887422561645507812e+01 6.539127349853515625e+00 -2.346487045288085938e+00 -1.947978854179382324e+00 -1.288339734077453613e+00 -1.595741629600524902e+00
9.421000000000000000e+03 2.892572212219238281e+01 6.346867084503173828e+00 -2.261384725570678711e+00 -1.794002056121826172e+00 -1.216616034507751465e+00 -1.475528120994567871e+00
9.422000000000000000e+03 2.882599258422851562e+01 6.944250583648681641e+00 -2.761630296707153320e+00 -2.040390253067016602e+00 -1.440606117248535156e+00 -2.155335426330566406e+00
9.423000000000000000e+03 2.891399574279785156e+01 6.765724658966064453e+00 -2.370365381240844727e+00 -1.892636299133300781e+00 -1.278900504112243652e+00 -1.800350904464721680e+00
9.424000000000000000e+03 2.900199890136718750e+01 6.587198734283447266e+00 -2.310920715332031250e+00 -1.713078260421752930e+00 -1.207199692726135254e+00 -1.615041851997375488e+00
9.425000000000000000e+03 2.909000015258789062e+01 6.408672809600830078e+00 -2.160268068313598633e+00 -1.549902081489562988e+00 -1.113051056861877441e+00 -1.470617890357971191e+00
9.426000000000000000e+03 2.887568473815917969e+01 6.975136280059814453e+00 -2.435606718063354492e+00 -1.709136009216308594e+00 -1.243422865867614746e+00 -2.466415405273437500e+00
9.427000000000000000e+03 2.899681282043457031e+01 6.817201137542724609e+00 -2.211342096328735352e+00 -1.694369077682495117e+00 -1.171713352203369141e+00 -1.967773437500000000e+00
9.428000000000000000e+03 2.911794281005859375e+01 6.659265518188476562e+00 -2.112582921981811523e+00 -1.510017514228820801e+00 -1.086780190467834473e+00 -1.669048309326171875e+00
9.429000000000000000e+03 2.923907279968261719e+01 6.501330375671386719e+00 -2.124099254608154297e+00 -1.390963554382324219e+00 -1.054518818855285645e+00 -1.548388719558715820e+00
9.430000000000000000e+03 2.891839790344238281e+01 7.015120029449462891e+00 -1.852016925811767578e+00 -1.741796255111694336e+00 -1.078143954277038574e+00 -2.802549362182617188e+00
9.431000000000000000e+03 2.906800079345703125e+01 6.883840560913085938e+00 -1.930090308189392090e+00 -1.544621229171752930e+00 -1.042413473129272461e+00 -2.109795570373535156e+00
9.432000000000000000e+03 2.921760559082031250e+01 6.752560615539550781e+00 -1.854443073272705078e+00 -1.462763428688049316e+00 -9.951619505882263184e-01 -1.854014992713928223e+00
9.433000000000000000e+03 2.936721229553222656e+01 6.621281147003173828e+00 -1.865890622138977051e+00 -1.310060858726501465e+00 -9.527854323387145996e-01 -1.577285170555114746e+00
9.434000000000000000e+03 2.895249176025390625e+01 7.062665939331054688e+00 -1.174445033073425293e+00 -1.918506026268005371e+00 -9.278852939605712891e-01 -2.990612506866455078e+00
9.435000000000000000e+03 2.912482643127441406e+01 6.963083744049072266e+00 -1.434385895729064941e+00 -1.587870359420776367e+00 -9.066768884658813477e-01 -2.218355655670166016e+00
9.436000000000000000e+03 2.929716110229492188e+01 6.863501071929931641e+00 -1.620411992073059082e+00 -1.437520503997802734e+00 -9.173797369003295898e-01 -1.987231373786926270e+00
9.437000000000000000e+03 2.946949577331542969e+01 6.763918876647949219e+00 -1.452014565467834473e+00 -1.403767943382263184e+00 -8.567347526550292969e-01 -1.749441027641296387e+00
9.438000000000000000e+03 2.897665977478027344e+01 7.115948200225830078e+00 -3.024584949016571045e-01 -2.161778688430786133e+00 -7.392711639404296875e-01 -2.874161481857299805e+00
9.439000000000000000e+03 2.916510581970214844e+01 7.051887512207031250e+00 -9.893193840980529785e-01 -1.744377613067626953e+00 -8.201091289520263672e-01 -2.310896396636962891e+00
9.440000000000000000e+03 2.935355186462402344e+01 6.987826824188232422e+00 -1.149643301963806152e+00 -1.496390700340270996e+00 -7.938101887702941895e-01 -1.959306478500366211e+00
9.441000000000000000e+03 2.954199981689453125e+01 6.923766136169433594e+00 -1.327633142471313477e+00 -1.479494214057922363e+00 -8.421382308006286621e-01 -1.913080096244812012e+00
9.442000000000000000e+03 2.898997116088867188e+01 7.172920703887939453e+00 3.752296864986419678e-01 -2.468649864196777344e+00 -6.280260682106018066e-01 -2.637059211730957031e+00
9.443000000000000000e+03 2.918729400634765625e+01 7.146841526031494141e+00 -4.045803546905517578e-01 -1.838539600372314453e+00 -6.729359626770019531e-01 -2.171958208084106445e+00
9.444000000000000000e+03 2.938461494445800781e+01 7.120762348175048828e+00 -7.477844953536987305e-01 -1.717081189155578613e+00 -7.394596934318542480e-01 -1.945519685745239258e+00
9.445000000000000000e+03 2.958193588256835938e+01 7.094683170318603516e+00 -9.908876419067382812e-01 -1.477796316146850586e+00 -7.406051754951477051e-01 -1.734219908714294434e+00
9.446000000000000000e+03 2.899191665649414062e+01 7.231395721435546875e+00 9.911187887191772461e-01 -2.491652965545654297e+00 -4.501602649688720703e-01 -2.173527956008911133e+00
9.447000000000000000e+03 2.919053649902343750e+01 7.244299411773681641e+00 6.994451582431793213e-02 -2.068736314773559570e+00 -5.996375679969787598e-01 -1.988811254501342773e+00
9.448000000000000000e+03 2.938915443420410156e+01 7.257203578948974609e+00 -3.047724366188049316e-01 -1.784775853157043457e+00 -6.268644928932189941e-01 -1.730796217918395996e+00
9.449000000000000000e+03 2.958777427673339844e+01 7.270107746124267578e+00 -5.689620375633239746e-01 -1.694388508796691895e+00 -6.790051460266113281e-01 -1.568672537803649902e+00
9.450000000000000000e+03 2.898242187500000000e+01 7.289126873016357422e+00 1.365775585174560547e+00 -2.556472539901733398e+00 -3.572091162204742432e-01 -1.754130721092224121e+00
9.451000000000000000e+03 2.917471122741699219e+01 7.340518474578857422e+00 5.422111749649047852e-01 -2.062811136245727539e+00 -4.561799764633178711e-01 -1.606970071792602539e+00
9.452000000000000000e+03 2.936699867248535156e+01 7.391910076141357422e+00 7.048459723591804504e-03 -1.941706657409667969e+00 -5.803974270820617676e-01 -1.482195138931274414e+00
9.453000000000000000e+03 2.955928802490234375e+01 7.443301677703857422e+00 -2.353152781724929810e-01 -1.736528754234313965e+00 -5.915532112121582031e-01 -1.350410819053649902e+00
9.454000000000000000e+03 2.896185111999511719e+01 7.343897819519042969e+00 1.664082169532775879e+00 -2.245244741439819336e+00 -1.743487566709518433e-01 -1.296271800994873047e+00
9.455000000000000000e+03 2.914042282104492188e+01 7.431803703308105469e+00 8.504329919815063477e-01 -2.205043792724609375e+00 -4.063832461833953857e-01 -1.227021694183349609e+00
9.456000000000000000e+03 2.931899642944335938e+01 7.519709587097167969e+00 2.817148268222808838e-01 -1.798637390136718750e+00 -4.550767540931701660e-01 -1.063163638114929199e+00
9.457000000000000000e+03 2.949757194519042969e+01 7.607614994049072266e+00 -1.922001987695693970e-01 -1.761490941047668457e+00 -5.861073136329650879e-01 -1.109790325164794922e+00
9.458000000000000000e+03 2.893099212646484375e+01 7.393605232238769531e+00 1.868472218513488770e+00 -2.224328994750976562e+00 -1.067570522427558899e-01 -9.114144444465637207e-01
9.459000000000000000e+03 2.908899307250976562e+01 7.514648914337158203e+00 1.053629040718078613e+00 -1.886205554008483887e+00 -2.497729510068893433e-01 -7.756365537643432617e-01
9.460000000000000000e+03 2.924699401855468750e+01 7.635693073272705078e+00 4.067723155021667480e-01 -1.880646109580993652e+00 -4.421621263027191162e-01 -6.894382238388061523e-01
9.461000000000000000e+03 2.940499496459960938e+01 7.756736755371093750e+00 -1.391444504261016846e-01 -1.425521373748779297e+00 -4.693997502326965332e-01 -6.070120930671691895e-01
9.462000000000000000e+03 2.889103126525878906e+01 7.436339855194091797e+00 2.109068393707275391e+00 -1.800349712371826172e+00 9.261558949947357178e-02 -5.979571342468261719e-01
9.463000000000000000e+03 2.902239227294921875e+01 7.585873603820800781e+00 1.102444767951965332e+00 -1.825917363166809082e+00 -2.170417755842208862e-01 -2.859410047531127930e-01
9.464000000000000000e+03 2.915375137329101562e+01 7.735406875610351562e+00 3.624477386474609375e-01 -1.430986166000366211e+00 -3.205615282058715820e-01 -3.638639450073242188e-01
9.465000000000000000e+03 2.928511238098144531e+01 7.884940624237060547e+00 -1.382969040423631668e-02 -1.573629260063171387e+00 -4.762377142906188965e-01 -2.623413503170013428e-01
9.466000000000000000e+03 2.884350395202636719e+01 7.470460414886474609e+00 2.249202966690063477e+00 -1.669937610626220703e+00 1.737796068191528320e-01 -1.512703001499176025e-01
9.467000000000000000e+03 2.894317817687988281e+01 7.642741680145263672e+00 1.073914527893066406e+00 -1.307538390159606934e+00 -7.008715718984603882e-02 1.100235991179943085e-02
9.468000000000000000e+03 2.904285430908203125e+01 7.815021991729736328e+00 2.151945978403091431e-01 -1.265483617782592773e+00 -3.150867223739624023e-01 4.657732695341110229e-02
9.469000000000000000e+03 2.914253044128417969e+01 7.987303256988525391e+00 -2.284020483493804932e-01 -1.100901484489440918e+00 -3.987910747528076172e-01 -2.745160162448883057e-01
9.470000000000000000e+03 2.879023361206054688e+01 7.494657516479492188e+00 2.424443960189819336e+00 -1.263567209243774414e+00 3.482630550861358643e-01 2.107456028461456299e-01
9.471000000000000000e+03 2.885439682006835938e+01 7.683069229125976562e+00 8.885362744331359863e-01 -8.833364844322204590e-01 1.559939235448837280e-03 3.721063435077667236e-01
9.472000000000000000e+03 2.891856002807617188e+01 7.871481418609619141e+00 9.827752597630023956e-03 -7.972117662429809570e-01 -2.362152189016342163e-01 1.246791854500770569e-01
9.473000000000000000e+03 2.898272323608398438e+01 8.059893608093261719e+00 -6.744508147239685059e-01 -7.972658276557922363e-01 -4.415149986743927002e-01 -7.144843041896820068e-02
9.474000000000000000e+03 2.873326873779296875e+01 7.508000850677490234e+00 2.516174316406250000e+00 -7.473405599594116211e-01 5.306501388549804688e-01 6.144799590110778809e-01
9.475000000000000000e+03 2.875945472717285156e+01 7.705308437347412109e+00 6.477230787277221680e-01 -3.831027448177337646e-01 7.938610762357711792e-02 5.103898048400878906e-01
9.476000000000000000e+03 2.878564071655273438e+01 7.902615547180175781e+00 -2.399371564388275146e-01 -3.198336064815521240e-01 -1.679312288761138916e-01 2.314954847097396851e-01
9.477000000000000000e+03 2.881182670593261719e+01 8.099923133850097656e+00 -1.098990082740783691e+00 -3.853138387203216553e-01 -4.452911913394927979e-01 -1.114855110645294189e-01
9.478000000000000000e+03 2.867479515075683594e+01 7.509978294372558594e+00 2.236537456512451172e+00 -1.852295696735382080e-01 6.153923273086547852e-01 8.990840315818786621e-01
9.479000000000000000e+03 2.866199874877929688e+01 7.708603858947753906e+00 7.074334025382995605e-01 1.863020360469818115e-01 2.681206464767456055e-01 5.532994866371154785e-01
9.480000000000000000e+03 2.864920234680175781e+01 7.907229900360107422e+00 -6.954293847084045410e-01 6.854743510484695435e-02 -1.880645751953125000e-01 1.800705045461654663e-01
9.481000000000000000e+03 2.863640785217285156e+01 8.105855941772460938e+00 -1.224821805953979492e+00 1.658924296498298645e-02 -3.624697625637054443e-01 -1.433869302272796631e-01
9.482000000000000000e+03 2.861705780029296875e+01 7.500514030456542969e+00 2.388289451599121094e+00 6.127569079399108887e-01 9.003139138221740723e-01 1.091033339500427246e+00
9.483000000000000000e+03 2.856577110290527344e+01 7.692830562591552734e+00 3.890338242053985596e-01 5.831978321075439453e-01 2.916694879531860352e-01 3.815345764160156250e-01
9.484000000000000000e+03 2.851448440551757812e+01 7.885146617889404297e+00 -5.051975846290588379e-01 5.006809234619140625e-01 -1.355000422336161137e-03 1.485695838928222656e-01
9.485000000000000000e+03 2.846319770812988281e+01 8.077463150024414062e+00 -1.770278215408325195e+00 8.742103725671768188e-02 -5.048571825027465820e-01 -4.203804433345794678e-01
9.486000000000000000e+03 2.856227684020996094e+01 7.479971885681152344e+00 2.313585281372070312e+00 1.118988156318664551e+00 1.029772043228149414e+00 8.747805953025817871e-01
9.487000000000000000e+03 2.847446632385253906e+01 7.658593177795410156e+00 6.067034006118774414e-01 1.035511612892150879e+00 4.926645159721374512e-01 3.654969632625579834e-01
9.488000000000000000e+03 2.838665962219238281e+01 7.837214469909667969e+00 -5.656585097312927246e-01 6.238915920257568359e-01 1.746991463005542755e-02 -1.527626067399978638e-01
9.489000000000000000e+03 2.829885101318359375e+01 8.015835762023925781e+00 -1.612274765968322754e+00 6.064867973327636719e-01 -3.017363846302032471e-01 -4.671510756015777588e-01
9.490000000000000000e+03 2.851255226135253906e+01 7.449139595031738281e+00 2.432107210159301758e+00 1.589020729064941406e+00 1.206338405609130859e+00 6.319979429244995117e-01
9.491000000000000000e+03 2.839159393310546875e+01 7.607206821441650391e+00 1.086286544799804688e+00 1.166079878807067871e+00 6.757099032402038574e-01 2.548274993896484375e-01
9.492000000000000000e+03 2.827063560485839844e+01 7.765273571014404297e+00 -4.892104566097259521e-01 8.802590966224670410e-01 1.173145845532417297e-01 -3.016310632228851318e-01
9.493000000000000000e+03 2.814967727661132812e+01 7.923340797424316406e+00 -1.169148921966552734e+00 5.317580699920654297e-01 -1.912172436714172363e-01 -4.747597873210906982e-01
9.494000000000000000e+03 2.846979522705078125e+01 7.409202575683593750e+00 3.258119106292724609e+00 1.820751428604125977e+00 1.523661136627197266e+00 4.740845263004302979e-01
9.495000000000000000e+03 2.832033348083496094e+01 7.540644645690917969e+00 1.437401652336120605e+00 1.105705499649047852e+00 7.629321813583374023e-01 9.464439749717712402e-02
9.496000000000000000e+03 2.817087173461914062e+01 7.672087192535400391e+00 1.858905851840972900e-01 1.077610611915588379e+00 3.790503442287445068e-01 -8.502639085054397583e-02
9.497000000000000000e+03 2.802140998840332031e+01 7.803529262542724609e+00 -1.000331163406372070e+00 1.359364837408065796e-01 -2.593184113502502441e-01 -7.900964021682739258e-01
9.498000000000000000e+03 2.843564987182617188e+01 7.361693859100341797e+00 3.953104734420776367e+00 1.382368326187133789e+00 1.600641965866088867e+00 3.006099164485931396e-01
9.499000000000000000e+03 2.826342201232910156e+01 7.461463451385498047e+00 2.326021909713745117e+00 1.346327781677246094e+00 1.101704835891723633e+00 3.679512739181518555e-01
9.500000000000000000e+03 2.809119606018066406e+01 7.561233043670654297e+00 8.048723340034484863e-01 7.250851988792419434e-01 4.589872658252716064e-01 -4.257354140281677246e-02
9.501000000000000000e+03 2.791897010803222656e+01 7.661002635955810547e+00 -3.876173794269561768e-01 5.571618080139160156e-01 5.086333677172660828e-02 -5.599431395530700684e-01
9.502000000000000000e+03 2.841142272949218750e+01 7.308437824249267578e+00 5.142433166503906250e+00 1.384359717369079590e+00 1.958037853240966797e+00 6.403222680091857910e-01
9.503000000000000000e+03 2.822304725646972656e+01 7.372703552246093750e+00 3.044054508209228516e+00 9.790317416191101074e-01 1.206925868988037109e+00 6.377956867218017578e-01
9.504000000000000000e+03 2.803466987609863281e+01 7.436968803405761719e+00 1.769568800926208496e+00 9.857769608497619629e-01 8.266037106513977051e-01 3.616762459278106689e-01
9.505000000000000000e+03 2.784629249572753906e+01 7.501234531402587891e+00 4.099770486354827881e-01 4.915404617786407471e-01 2.704552710056304932e-01 -1.300306916236877441e-01
9.506000000000000000e+03 2.839804840087890625e+01 7.251480102539062500e+00 6.012257575988769531e+00 8.583427667617797852e-01 2.061180114746093750e+00 1.277689814567565918e+00
9.507000000000000000e+03 2.820075607299804688e+01 7.277773380279541016e+00 3.981000185012817383e+00 1.236958742141723633e+00 1.565387725830078125e+00 1.181098580360412598e+00
9.508000000000000000e+03 2.800346374511718750e+01 7.304067134857177734e+00 2.626011133193969727e+00 8.017997145652770996e-01 1.028343319892883301e+00 8.567076325416564941e-01
9.509000000000000000e+03 2.780616950988769531e+01 7.330360889434814453e+00 1.613783359527587891e+00 8.716154694557189941e-01 7.456196546554565430e-01 5.762704610824584961e-01
9.510000000000000000e+03 2.839603996276855469e+01 7.193007469177246094e+00 6.791820526123046875e+00 1.089268684387207031e+00 2.364326715469360352e+00 2.183955907821655273e+00
9.511000000000000000e+03 2.819740867614746094e+01 7.180319309234619141e+00 4.674676418304443359e+00 1.141629099845886230e+00 1.744891643524169922e+00 1.844613194465637207e+00
9.512000000000000000e+03 2.799877548217773438e+01 7.167631149291992188e+00 3.607200384140014648e+00 1.185712695121765137e+00 1.437873840332031250e+00 1.537204027175903320e+00
9.513000000000000000e+03 2.780014228820800781e+01 7.154942989349365234e+00 2.708500623703002930e+00 8.677465915679931641e-01 1.072874188423156738e+00 1.295424818992614746e+00
9.514000000000000000e+03 2.840547180175781250e+01 7.135265827178955078e+00 7.014291286468505859e+00 1.336308121681213379e+00 2.505179882049560547e+00 3.230253458023071289e+00
9.515000000000000000e+03 2.821312904357910156e+01 7.084083080291748047e+00 5.348173141479492188e+00 1.563059687614440918e+00 2.073369741439819336e+00 2.502576828002929688e+00
9.516000000000000000e+03 2.802078437805175781e+01 7.032900810241699219e+00 4.447805404663085938e+00 1.322637677192687988e+00 1.731132984161376953e+00 2.317453384399414062e+00
9.517000000000000000e+03 2.782843971252441406e+01 6.981718063354492188e+00 3.752149581909179688e+00 1.347198486328125000e+00 1.529804348945617676e+00 2.118757247924804688e+00
9.518000000000000000e+03 2.842598533630371094e+01 7.080472469329833984e+00 7.010599613189697266e+00 2.207275867462158203e+00 2.765362501144409180e+00 4.022844791412353516e+00
9.519000000000000000e+03 2.824731636047363281e+01 6.992761135101318359e+00 5.782313823699951172e+00 1.886389613151550293e+00 2.300611019134521484e+00 3.227441072463989258e+00
9.520000000000000000e+03 2.806864738464355469e+01 6.905049324035644531e+00 5.102252006530761719e+00 1.819982051849365234e+00 2.076670169830322266e+00 3.014505863189697266e+00
9.521000000000000000e+03 2.788997840881347656e+01 6.817337989807128906e+00 4.867750167846679688e+00 1.688977956771850586e+00 1.967018365859985352e+00 2.903349399566650391e+00
9.522000000000000000e+03 2.861505317687988281e+01 7.151432037353515625e+00 -9.248738288879394531e+00 -4.168779850006103516e+00 -4.025255203247070312e+00 -6.218368530273437500e+00
9.523000000000000000e+03 2.862838935852050781e+01 7.137201309204101562e+00 -8.174271583557128906e+00 -4.967036247253417969e+00 -3.942392349243164062e+00 -6.331105232238769531e+00
9.524000000000000000e+03 2.864424514770507812e+01 7.125844955444335938e+00 -6.774219512939453125e+00 -5.535307407379150391e+00 -3.692857980728149414e+00 -6.167374610900878906e+00
9.525000000000000000e+03 2.866201019287109375e+01 7.117798805236816406e+00 -5.355091094970703125e+00 -5.763316154479980469e+00 -3.335522174835205078e+00 -5.755064964294433594e+00
9.526000000000000000e+03 2.868100357055664062e+01 7.113371372222900391e+00 -4.130452156066894531e+00 -5.631491661071777344e+00 -2.928583145141601562e+00 -5.250529289245605469e+00
9.527000000000000000e+03 2.870049476623535156e+01 7.112733364105224609e+00 -2.970746517181396484e+00 -5.175696372985839844e+00 -2.443932771682739258e+00 -4.770798683166503906e+00
9.528000000000000000e+03 2.871973609924316406e+01 7.115909099578857422e+00 -1.996248960494995117e+00 -4.614758968353271484e+00 -1.983302474021911621e+00 -4.429745674133300781e+00
9.529000000000000000e+03 2.873798942565917969e+01 7.122776508331298828e+00 -9.424805045127868652e-01 -3.995092153549194336e+00 -1.481271862983703613e+00 -4.170116424560546875e+00
9.530000000000000000e+03 2.875455474853515625e+01 7.133071899414062500e+00 5.517238378524780273e-02 -3.585438966751098633e+00 -1.059080004692077637e+00 -4.000091552734375000e+00
9.531000000000000000e+03 2.876879119873046875e+01 7.146399497985839844e+00 1.041730642318725586e+00 -3.230333328247070312e+00 -6.565808057785034180e-01 -3.750403165817260742e+00
9.532000000000000000e+03 2.878015708923339844e+01 7.162248134613037109e+00 2.030741214752197266e+00 -3.071263551712036133e+00 -3.121567070484161377e-01 -3.364816904067993164e+00
9.533000000000000000e+03 2.878821182250976562e+01 7.180008888244628906e+00 2.679653882980346680e+00 -2.980424642562866211e+00 -9.023125469684600830e-02 -2.921149730682373047e+00
9.534000000000000000e+03 2.879265022277832031e+01 7.198999881744384766e+00 3.180445671081542969e+00 -2.753755331039428711e+00 1.280071139335632324e-01 -2.310918092727661133e+00
9.535000000000000000e+03 2.879329872131347656e+01 7.218491554260253906e+00 3.283127784729003906e+00 -2.620738267898559570e+00 1.987168788909912109e-01 -1.808450937271118164e+00
9.536000000000000000e+03 2.879013252258300781e+01 7.237735271453857422e+00 3.213634967803955078e+00 -2.243533372879028320e+00 2.910304665565490723e-01 -1.343728899955749512e+00
9.537000000000000000e+03 2.878327560424804688e+01 7.255992412567138672e+00 2.981371164321899414e+00 -2.154077529907226562e+00 2.481880486011505127e-01 -1.117279291152954102e+00
9.538000000000000000e+03 2.877298927307128906e+01 7.272561550140380859e+00 2.815662622451782227e+00 -1.796918272972106934e+00 3.056232929229736328e-01 -1.031182289123535156e+00
9.539000000000000000e+03 2.875966835021972656e+01 7.286806106567382812e+00 2.729065895080566406e+00 -1.937278270721435547e+00 2.375363111495971680e-01 -9.874463081359863281e-01
9.540000000000000000e+03 2.874382781982421875e+01 7.298179626464843750e+00 2.946761846542358398e+00 -1.829706549644470215e+00 3.351166248321533203e-01 -1.037436962127685547e+00
9.541000000000000000e+03 2.872607040405273438e+01 7.306245326995849609e+00 3.252720832824707031e+00 -1.920730590820312500e+00 3.995971083641052246e-01 -9.203360676765441895e-01
9.542000000000000000e+03 2.870708084106445312e+01 7.310693264007568359e+00 3.699666023254394531e+00 -1.875422954559326172e+00 5.472729802131652832e-01 -7.351378202438354492e-01
9.543000000000000000e+03 2.868759155273437500e+01 7.311352252960205078e+00 4.532009601593017578e+00 -1.541831970214843750e+00 8.970532417297363281e-01 -4.904186129570007324e-01
9.544000000000000000e+03 2.866834640502929688e+01 7.308197498321533203e+00 5.037571907043457031e+00 -1.257481455802917480e+00 1.134027123451232910e+00 -3.254074156284332275e-01
9.545000000000000000e+03 2.865008544921875000e+01 7.301350116729736328e+00 6.017603397369384766e+00 -5.957378149032592773e-01 1.626559734344482422e+00 -9.274660609662532806e-03
9.546000000000000000e+03 2.863351058959960938e+01 7.291072845458984375e+00 7.264195919036865234e+00 -1.416437923908233643e-01 2.136765718460083008e+00 1.752362698316574097e-01
9.547000000000000000e+03 2.861925697326660156e+01 7.277760505676269531e+00 8.277436256408691406e+00 1.552200615406036377e-01 2.529796838760375977e+00 4.151155650615692139e-01
9.548000000000000000e+03 2.860787582397460938e+01 7.261924266815185547e+00 9.836258888244628906e+00 7.565723061561584473e-01 3.177849292755126953e+00 1.035321116447448730e+00
9.549000000000000000e+03 2.859980010986328125e+01 7.244172573089599609e+00 1.089536666870117188e+01 7.449424266815185547e-01 3.492092609405517578e+00 1.785536050796508789e+00
9.550000000000000000e+03 2.859534263610839844e+01 7.225186347961425781e+00 1.189098072052001953e+01 1.432081580162048340e+00 3.996918678283691406e+00 2.861800670623779297e+00
9.551000000000000000e+03 2.859467124938964844e+01 7.205695629119873047e+00 1.216551876068115234e+01 1.806199789047241211e+00 4.191515445709228516e+00 4.090170383453369141e+00
9.552000000000000000e+03 2.859781646728515625e+01 7.186448097229003906e+00 1.202078247070312500e+01 2.747359275817871094e+00 4.430442333221435547e+00 5.197363853454589844e+00
9.553000000000000000e+03 2.860465431213378906e+01 7.168183803558349609e+00 1.115866661071777344e+01 3.529909372329711914e+00 4.406572818756103516e+00 6.163241386413574219e+00
9.554000000000000000e+03 6.441738128662109375e+01 3.409638977050781250e+01 3.136947059631347656e+01 4.491948127746582031e+00 1.075842571258544922e+01 9.757391929626464844e+00
9.555000000000000000e+03 6.441968536376953125e+01 3.407706069946289062e+01 3.053950500488281250e+01 1.472109699249267578e+01 1.357818031311035156e+01 2.175365447998046875e+01
9.556000000000000000e+03 6.442572021484375000e+01 3.405854797363281250e+01 2.911779022216796875e+01 2.591933631896972656e+01 1.651113700866699219e+01 2.646904563903808594e+01
9.557000000000000000e+03 6.443523406982421875e+01 3.404156494140625000e+01 2.574423027038574219e+01 3.793824386596679688e+01 1.910474205017089844e+01 2.874160194396972656e+01
9.558000000000000000e+03 6.444787597656250000e+01 3.402676010131835938e+01 2.241734886169433594e+01 4.933049774169921875e+01 2.152435493469238281e+01 2.797975921630859375e+01
9.559000000000000000e+03 6.446315765380859375e+01 3.401470184326171875e+01 1.889004135131835938e+01 5.958182907104492188e+01 2.354156112670898438e+01 2.467442131042480469e+01
9.560000000000000000e+03 6.448049926757812500e+01 3.400584793090820312e+01 1.659098243713378906e+01 6.757038116455078125e+01 2.524840927124023438e+01 1.926972389221191406e+01
9.561000000000000000e+03 6.449922943115234375e+01 3.400053787231445312e+01 1.569173049926757812e+01 7.265816497802734375e+01 2.650496864318847656e+01 1.246266460418701172e+01
9.562000000000000000e+03 6.451863098144531250e+01 3.399897384643554688e+01 1.689381599426269531e+01 7.460742187500000000e+01 2.745037269592285156e+01 5.326212882995605469e+00
9.563000000000000000e+03 6.453797149658203125e+01 3.400122070312500000e+01 1.986282920837402344e+01 7.351969909667968750e+01 2.801475715637207031e+01 -1.193330287933349609e+00
9.564000000000000000e+03 6.455650329589843750e+01 3.400719070434570312e+01 2.439988327026367188e+01 7.010437011718750000e+01 2.835127639770507812e+01 -6.221063613891601562e+00
9.565000000000000000e+03 6.457351684570312500e+01 3.401665115356445312e+01 2.959522438049316406e+01 6.517261505126953125e+01 2.843035316467285156e+01 -9.251161575317382812e+00
9.566000000000000000e+03 6.458836364746093750e+01 3.402924346923828125e+01 3.496322250366210938e+01 5.977298736572265625e+01 2.842086219787597656e+01 -1.011982822418212891e+01
9.567000000000000000e+03 6.460047912597656250e+01 3.404448318481445312e+01 3.962724304199218750e+01 5.473883056640625000e+01 2.830982208251953125e+01 -9.053471565246582031e+00
9.568000000000000000e+03 6.460939025878906250e+01 3.406179428100585938e+01 4.328601455688476562e+01 5.076424026489257812e+01 2.821507644653320312e+01 -6.392683982849121094e+00
9.569000000000000000e+03 6.461476135253906250e+01 3.408050537109375000e+01 4.548170852661132812e+01 4.829037475585937500e+01 2.813162422180175781e+01 -2.747626066207885742e+00
9.570000000000000000e+03 6.461638641357421875e+01 3.409990692138671875e+01 4.622747421264648438e+01 4.766716003417968750e+01 2.816839027404785156e+01 1.514886140823364258e+00
9.571000000000000000e+03 6.461420440673828125e+01 3.411925125122070312e+01 4.529566574096679688e+01 4.871264648437500000e+01 2.820249366760253906e+01 5.692757606506347656e+00
9.572000000000000000e+03 6.460829925537109375e+01 3.413780212402343750e+01 4.281290435791015625e+01 5.165891265869140625e+01 2.834154510498046875e+01 9.344927787780761719e+00
9.573000000000000000e+03 6.459889221191406250e+01 3.415485000610351562e+01 3.890605545043945312e+01 5.604886627197265625e+01 2.848647689819335938e+01 1.183604049682617188e+01
9.574000000000000000e+03 6.458634948730468750e+01 3.416973495483398438e+01 3.376811599731445312e+01 6.141786193847656250e+01 2.855579376220703125e+01 1.269245815277099609e+01
9.575000000000000000e+03 6.457115173339843750e+01 3.418190002441406250e+01 2.817973709106445312e+01 6.702124786376953125e+01 2.856029510498046875e+01 1.144154834747314453e+01
9.576000000000000000e+03 6.455387115478515625e+01 3.419086837768554688e+01 2.259703636169433594e+01 7.193405914306640625e+01 2.835932922363281250e+01 7.951496601104736328e+00
9.577000000000000000e+03 6.453517913818359375e+01 3.419630050659179688e+01 1.798134994506835938e+01 7.510053253173828125e+01 2.792456436157226562e+01 2.476289272308349609e+00
9.578000000000000000e+03 6.451578521728515625e+01 3.419799423217773438e+01 1.484101295471191406e+01 7.563044738769531250e+01 2.714143943786621094e+01 -4.395549297332763672e+00
9.579000000000000000e+03 6.449642944335937500e+01 3.419587707519531250e+01 1.394430923461914062e+01 7.312863922119140625e+01 2.612188339233398438e+01 -1.180320930480957031e+01
9.580000000000000000e+03 6.447785949707031250e+01 3.419003295898437500e+01 1.455219078063964844e+01 6.718531799316406250e+01 2.452125358581542969e+01 -1.867020034790039062e+01
9.581000000000000000e+03 6.446078491210937500e+01 3.418068695068359375e+01 1.741490745544433594e+01 5.860828399658203125e+01 2.280695724487304688e+01 -2.395414924621582031e+01
9.582000000000000000e+03 6.444585418701171875e+01 3.416819000244140625e+01 2.058814620971679688e+01 4.755662536621093750e+01 2.044343185424804688e+01 -2.709411811828613281e+01
9.583000000000000000e+03 6.443363952636718750e+01 3.415303039550781250e+01 2.501119232177734375e+01 3.536708068847656250e+01 1.811348152160644531e+01 -2.719737815856933594e+01
9.584000000000000000e+03 6.442461395263671875e+01 3.413578033447265625e+01 2.807575035095214844e+01 2.245719337463378906e+01 1.515988254547119141e+01 -2.447855949401855469e+01
9.585000000000000000e+03 6.441911315917968750e+01 3.411710739135742188e+01 3.288212585449218750e+01 8.832307815551757812e+00 1.251432991027832031e+01 -1.457199096679687500e+01
