# el_label, x, y, sXX, sYY, sZZ, sXY
1.000000000000000000e+00 7.321611785888671875e+01 3.391408538818359375e+01 -8.035706520080566406e+00 -2.703767299652099609e+00 -3.221842288970947266e+00 -2.904286146163940430e+00
2.000000000000000000e+00 7.301840972900390625e+01 3.389115142822265625e+01 -3.892141580581665039e+00 1.025456666946411133e+00 -8.600054383277893066e-01 5.933166146278381348e-01
3.000000000000000000e+00 7.282068634033203125e+01 3.386821746826171875e+01 -5.049366474151611328e+00 -4.400276839733123779e-01 -1.646818161010742188e+00 -1.774504333734512329e-01
4.000000000000000000e+00 7.262297058105468750e+01 3.384527969360351562e+01 -5.313447952270507812e+00 2.170197069644927979e-01 -1.528928399085998535e+00 1.034894213080406189e-02
5.000000000000000000e+00 7.322849273681640625e+01 3.385700607299804688e+01 7.121757507324218750e+00 -2.357647180557250977e+00 1.429233074188232422e+00 1.993275403976440430e+00
6.000000000000000000e+00 7.303902435302734375e+01 3.379601669311523438e+01 1.569296121597290039e-01 3.613761067390441895e-01 1.554917097091674805e-01 1.278364300727844238e+00
7.000000000000000000e+00 7.284955596923828125e+01 3.373503112792968750e+01 -6.928686052560806274e-02 9.434675574302673340e-01 2.622542083263397217e-01 2.008538961410522461e+00
8.000000000000000000e+00 7.266008758544921875e+01 3.367404556274414062e+01 -1.222329020500183105e+00 2.047032266855239868e-01 -3.052877485752105713e-01 1.228124618530273438e+00
9.000000000000000000e+00 7.325173950195312500e+01 3.380342864990234375e+01 1.203842067718505859e+01 2.936582326889038086e+00 4.492500782012939453e+00 8.997791290283203125e+00
1.000000000000000000e+01 7.307776641845703125e+01 3.370672225952148438e+01 5.926058769226074219e+00 1.706922888755798340e+00 2.289894580841064453e+00 5.213384628295898438e+00
1.100000000000000000e+01 7.290380096435546875e+01 3.361001586914062500e+01 2.842386007308959961e+00 2.238472461700439453e+00 1.524257540702819824e+00 4.107838153839111328e+00
1.200000000000000000e+01 7.272983551025390625e+01 3.351330947875976562e+01 1.944159746170043945e+00 2.131535530090332031e+00 1.222708582878112793e+00 3.825889348983764648e+00
1.300000000000000000e+01 7.328497314453125000e+01 3.375540161132812500e+01 1.346577453613281250e+01 1.001165676116943359e+01 7.043229579925537109e+00 1.427364921569824219e+01
1.400000000000000000e+01 7.313316345214843750e+01 3.362667465209960938e+01 7.493347167968750000e+00 6.270268917083740234e+00 4.129084587097167969e+00 9.287528991699218750e+00
1.500000000000000000e+01 7.298134613037109375e+01 3.349795150756835938e+01 5.181676387786865234e+00 5.058203697204589844e+00 3.071964025497436523e+00 7.335856914520263672e+00
1.600000000000000000e+01 7.282953643798828125e+01 3.336922836303710938e+01 3.442854881286621094e+00 4.676019191741943359e+00 2.435662269592285156e+00 6.202235221862792969e+00
1.700000000000000000e+01 7.332691955566406250e+01 3.371476364135742188e+01 1.155627346038818359e+01 1.877501296997070312e+01 9.099386215209960938e+00 1.733750343322753906e+01
1.800000000000000000e+01 7.320307159423828125e+01 3.355894470214843750e+01 7.402504444122314453e+00 1.222618484497070312e+01 5.888606548309326172e+00 1.222424888610839844e+01
1.900000000000000000e+01 7.307922363281250000e+01 3.340312576293945312e+01 5.091444492340087891e+00 9.710679054260253906e+00 4.440637111663818359e+00 9.693438529968261719e+00
2.000000000000000000e+01 7.295537567138671875e+01 3.324731063842773438e+01 3.794344425201416016e+00 8.307308197021484375e+00 3.630495786666870117e+00 8.460907936096191406e+00
2.100000000000000000e+01 7.337597656250000000e+01 3.368306732177734375e+01 8.744023323059082031e+00 2.766863441467285156e+01 1.092379760742187500e+01 1.777501678466796875e+01
2.200000000000000000e+01 7.328483581542968750e+01 3.350611877441406250e+01 5.636681556701660156e+00 1.894539260864257812e+01 7.374622344970703125e+00 1.321646690368652344e+01
2.300000000000000000e+01 7.319368743896484375e+01 3.332917404174804688e+01 4.053301334381103516e+00 1.523193740844726562e+01 5.785571575164794922e+00 1.094891738891601562e+01
2.400000000000000000e+01 7.310253906250000000e+01 3.315222549438476562e+01 2.756976604461669922e+00 1.296786022186279297e+01 4.717451095581054688e+00 9.376658439636230469e+00
2.500000000000000000e+01 7.343026733398437500e+01 3.366152954101562500e+01 5.690794467926025391e+00 3.569320678710937500e+01 1.241520023345947266e+01 1.557460117340087891e+01
2.600000000000000000e+01 7.337531280517578125e+01 3.347022247314453125e+01 3.847112417221069336e+00 2.540064048767089844e+01 8.774325370788574219e+00 1.239770412445068359e+01
2.700000000000000000e+01 7.332036590576171875e+01 3.327891921997070312e+01 2.284690618515014648e+00 2.071584701538085938e+01 6.900161266326904297e+00 1.050920677185058594e+01
2.800000000000000000e+01 7.326541137695312500e+01 3.308761596679687500e+01 1.504351258277893066e+00 1.811061859130859375e+01 5.884490966796875000e+00 9.263421058654785156e+00
2.900000000000000000e+01 7.348770904541015625e+01 3.365097427368164062e+01 4.049871444702148438e+00 4.188240432739257812e+01 1.377968215942382812e+01 1.149854373931884766e+01
3.000000000000000000e+01 7.347105407714843750e+01 3.345262908935546875e+01 2.302195072174072266e+00 3.077580642700195312e+01 9.923399925231933594e+00 9.854530334472656250e+00
3.100000000000000000e+01 7.345439147949218750e+01 3.325428771972656250e+01 1.079809665679931641e+00 2.554437065124511719e+01 7.987253665924072266e+00 8.740697860717773438e+00
3.200000000000000000e+01 7.343773651123046875e+01 3.305594253540039062e+01 2.599416077136993408e-01 2.233061408996582031e+01 6.777166366577148438e+00 7.794368743896484375e+00
3.300000000000000000e+01 7.354610443115234375e+01 3.365179824829101562e+01 4.059083461761474609e+00 4.559059906005859375e+01 1.489490413665771484e+01 6.311360836029052734e+00
3.400000000000000000e+01 7.356838226318359375e+01 3.345401000976562500e+01 1.963238477706909180e+00 3.463903427124023438e+01 1.098068141937255859e+01 6.346117019653320312e+00
3.500000000000000000e+01 7.359066009521484375e+01 3.325621795654296875e+01 6.647248864173889160e-01 2.899822807312011719e+01 8.898885726928710938e+00 5.799185752868652344e+00
3.600000000000000000e+01 7.361293029785156250e+01 3.305842971801757812e+01 -2.294411957263946533e-01 2.542780113220214844e+01 7.559508323669433594e+00 5.354149818420410156e+00
3.700000000000000000e+01 7.360322570800781250e+01 3.366398239135742188e+01 6.074366092681884766e+00 4.688580322265625000e+01 1.588805103302001953e+01 1.224268794059753418e+00
3.800000000000000000e+01 7.366358184814453125e+01 3.347431182861328125e+01 2.925318479537963867e+00 3.655779266357421875e+01 1.184493255615234375e+01 2.402594566345214844e+00
3.900000000000000000e+01 7.372393798828125000e+01 3.328464508056640625e+01 1.409677267074584961e+00 3.101280593872070312e+01 9.726744651794433594e+00 2.453673362731933594e+00
4.000000000000000000e+01 7.378429412841796875e+01 3.309497451782226562e+01 3.368661999702453613e-01 2.728682899475097656e+01 8.287108421325683594e+00 2.310257673263549805e+00
4.100000000000000000e+01 7.365688323974609375e+01 3.368704986572265625e+01 9.523224830627441406e+00 4.599515151977539062e+01 1.665551376342773438e+01 -2.962505340576171875e+00
4.200000000000000000e+01 7.375300598144531250e+01 3.351276016235351562e+01 5.318489551544189453e+00 3.680457687377929688e+01 1.263691997528076172e+01 -1.166071891784667969e+00
4.300000000000000000e+01 7.384913635253906250e+01 3.333847045898437500e+01 3.210297107696533203e+00 3.137804222106933594e+01 1.037650203704833984e+01 -7.225617170333862305e-01
4.400000000000000000e+01 7.394525909423828125e+01 3.316418075561523438e+01 1.994781255722045898e+00 2.805036926269531250e+01 9.013545036315917969e+00 -5.011186003684997559e-01
4.500000000000000000e+01 7.370501708984375000e+01 3.372012329101562500e+01 1.403922557830810547e+01 4.382998657226562500e+01 1.736076354980468750e+01 -5.576292514801025391e+00
4.600000000000000000e+01 7.383324432373046875e+01 3.356788253784179688e+01 8.532022476196289062e+00 3.550747680664062500e+01 1.321185016632080078e+01 -3.842845678329467773e+00
4.700000000000000000e+01 7.396145629882812500e+01 3.341563796997070312e+01 6.063211441040039062e+00 3.060634040832519531e+01 1.100086498260498047e+01 -3.089136362075805664e+00
4.800000000000000000e+01 7.408967590332031250e+01 3.326339721679687500e+01 4.380406856536865234e+00 2.731771278381347656e+01 9.509435653686523438e+00 -2.594590425491333008e+00
4.900000000000000000e+01 7.374580383300781250e+01 3.376193618774414062e+01 1.850574111938476562e+01 4.093666076660156250e+01 1.783271980285644531e+01 -6.544405460357666016e+00
5.000000000000000000e+01 7.390120697021484375e+01 3.363756942749023438e+01 1.235751628875732422e+01 3.347559738159179688e+01 1.374993419647216797e+01 -5.129435062408447266e+00
5.100000000000000000e+01 7.405660247802734375e+01 3.351320266723632812e+01 9.197109222412109375e+00 2.886071014404296875e+01 1.141734600067138672e+01 -4.340164184570312500e+00
5.200000000000000000e+01 7.421200561523437500e+01 3.338883590698242188e+01 7.389798641204833984e+00 2.581755065917968750e+01 9.962204933166503906e+00 -3.759707689285278320e+00
5.300000000000000000e+01 7.377765655517578125e+01 3.381088638305664062e+01 2.253252983093261719e+01 3.829986572265625000e+01 1.824971961975097656e+01 -5.903736114501953125e+00
5.400000000000000000e+01 7.395429992675781250e+01 3.371915054321289062e+01 1.586298847198486328e+01 3.110498237609863281e+01 1.409039115905761719e+01 -5.023934841156005859e+00
5.500000000000000000e+01 7.413093566894531250e+01 3.362741851806640625e+01 1.237322235107421875e+01 2.692298126220703125e+01 1.178886127471923828e+01 -4.279352664947509766e+00
5.600000000000000000e+01 7.430757904052734375e+01 3.353568649291992188e+01 1.006458282470703125e+01 2.401970863342285156e+01 1.022528743743896484e+01 -3.848843097686767578e+00
5.700000000000000000e+01 7.379936981201171875e+01 3.386510086059570312e+01 2.534417915344238281e+01 3.622144699096679688e+01 1.846968650817871094e+01 -4.137478351593017578e+00
5.800000000000000000e+01 7.399049377441406250e+01 3.380951309204101562e+01 1.871555519104003906e+01 2.921080970764160156e+01 1.437790966033935547e+01 -3.617126464843750000e+00
5.900000000000000000e+01 7.418161773681640625e+01 3.375392150878906250e+01 1.479481410980224609e+01 2.520129203796386719e+01 1.199883174896240234e+01 -3.132994413375854492e+00
6.000000000000000000e+01 7.437273406982421875e+01 3.369833374023437500e+01 1.224197006225585938e+01 2.250765419006347656e+01 1.042488765716552734e+01 -2.767911911010742188e+00
6.100000000000000000e+01 7.381011962890625000e+01 3.392251205444335938e+01 2.692176818847656250e+01 3.528602981567382812e+01 1.866233825683593750e+01 -1.572398424148559570e+00
6.200000000000000000e+01 7.400840759277343750e+01 3.390519332885742188e+01 2.017272758483886719e+01 2.802947616577148438e+01 1.446066093444824219e+01 -1.454406738281250000e+00
6.300000000000000000e+01 7.420669555664062500e+01 3.388787460327148438e+01 1.625176239013671875e+01 2.431492614746093750e+01 1.217000675201416016e+01 -1.142877101898193359e+00
6.400000000000000000e+01 7.440498352050781250e+01 3.387055587768554688e+01 1.354371547698974609e+01 2.160885429382324219e+01 1.054577159881591797e+01 -1.069542407989501953e+00
6.500000000000000000e+01 7.380948638916015625e+01 3.398091125488281250e+01 2.685572052001953125e+01 3.515075683593750000e+01 1.860194396972656250e+01 1.102272391319274902e+00
6.600000000000000000e+01 7.400735473632812500e+01 3.400252532958984375e+01 2.025471115112304688e+01 2.825667953491210938e+01 1.455341720581054688e+01 1.091213226318359375e+00
6.700000000000000000e+01 7.420521545410156250e+01 3.402414321899414062e+01 1.625974845886230469e+01 2.412303733825683594e+01 1.211483573913574219e+01 9.739943146705627441e-01
6.800000000000000000e+01 7.440308380126953125e+01 3.404575729370117188e+01 1.373730754852294922e+01 2.186597251892089844e+01 1.068098354339599609e+01 9.138432741165161133e-01
6.900000000000000000e+01 7.379750061035156250e+01 3.403807067871093750e+01 2.544858551025390625e+01 3.651739120483398438e+01 1.858979225158691406e+01 3.538765907287597656e+00
7.000000000000000000e+01 7.398737335205078125e+01 3.409779357910156250e+01 1.874802398681640625e+01 2.916218376159667969e+01 1.437306213378906250e+01 3.264266967773437500e+00
7.100000000000000000e+01 7.417723846435546875e+01 3.415751647949218750e+01 1.500708675384521484e+01 2.535112953186035156e+01 1.210746479034423828e+01 2.835519790649414062e+00
7.200000000000000000e+01 7.436711120605468750e+01 3.421723937988281250e+01 1.242486667633056641e+01 2.251832580566406250e+01 1.048295783996582031e+01 2.564229488372802734e+00
7.300000000000000000e+01 7.377460479736328125e+01 3.409180450439453125e+01 2.257974815368652344e+01 3.842453002929687500e+01 1.830128288269042969e+01 5.243744850158691406e+00
7.400000000000000000e+01 7.394921875000000000e+01 3.418734741210937500e+01 1.611470794677734375e+01 3.128969764709472656e+01 1.422132205963134766e+01 4.527495384216308594e+00
7.500000000000000000e+01 7.412383270263671875e+01 3.428289031982421875e+01 1.258405303955078125e+01 2.689797019958496094e+01 1.184460735321044922e+01 3.932030439376831055e+00
7.600000000000000000e+01 7.429843902587890625e+01 3.437843704223632812e+01 1.024339199066162109e+01 2.419235420227050781e+01 1.033072376251220703e+01 3.564898967742919922e+00
7.700000000000000000e+01 7.374169158935546875e+01 3.414005279541015625e+01 1.881418418884277344e+01 4.119607162475585938e+01 1.800307655334472656e+01 5.699013710021972656e+00
7.800000000000000000e+01 7.389436340332031250e+01 3.426776123046875000e+01 1.264808177947998047e+01 3.349364852905273438e+01 1.384251976013183594e+01 4.565247535705566406e+00
7.900000000000000000e+01 7.404702758789062500e+01 3.439546966552734375e+01 9.572212219238281250e+00 2.896706771850585938e+01 1.156178379058837891e+01 3.863244056701660156e+00
8.000000000000000000e+01 7.419969940185546875e+01 3.452317810058593750e+01 7.669144630432128906e+00 2.576201248168945312e+01 1.002934741973876953e+01 3.516790628433227539e+00
8.100000000000000000e+01 7.370001983642578125e+01 3.418096923828125000e+01 1.446853160858154297e+01 4.385515594482421875e+01 1.749710655212402344e+01 4.654088497161865234e+00
8.200000000000000000e+01 7.382490539550781250e+01 3.433595657348632812e+01 9.087314605712890625e+00 3.560702133178710938e+01 1.340830039978027344e+01 3.139698743820190430e+00
8.300000000000000000e+01 7.394979095458984375e+01 3.449094390869140625e+01 6.525546073913574219e+00 3.053370666503906250e+01 1.111777591705322266e+01 2.598096847534179688e+00
8.400000000000000000e+01 7.407467651367187500e+01 3.464593124389648438e+01 4.909920215606689453e+00 2.725117683410644531e+01 9.648328781127929688e+00 2.205387830734252930e+00
8.500000000000000000e+01 7.365117645263671875e+01 3.421298980712890625e+01 1.034733581542968750e+01 4.598210906982421875e+01 1.689883422851562500e+01 1.898678898811340332e+00
8.600000000000000000e+01 7.374349975585937500e+01 3.438932418823242188e+01 5.994117259979248047e+00 3.668662643432617188e+01 1.280422306060791016e+01 4.820168316364288330e-01
8.700000000000000000e+01 7.383582305908203125e+01 3.456565856933593750e+01 3.965583801269531250e+00 3.135516738891601562e+01 1.059622478485107422e+01 1.363525241613388062e-01
8.800000000000000000e+01 7.392813873291015625e+01 3.474199295043945312e+01 2.631738662719726562e+00 2.784014511108398438e+01 9.141565322875976562e+00 9.656731039285659790e-02
8.900000000000000000e+01 7.359703063964843750e+01 3.423488998413085938e+01 7.106981277465820312e+00 4.664863204956054688e+01 1.612668418884277344e+01 -2.283723831176757812e+00
9.000000000000000000e+01 7.365325927734375000e+01 3.442582321166992188e+01 3.959414958953857422e+00 3.633673477172851562e+01 1.208884525299072266e+01 -3.128410816192626953e+00
9.100000000000000000e+01 7.370948791503906250e+01 3.461675643920898438e+01 2.302833557128906250e+00 3.081687355041503906e+01 9.935912132263183594e+00 -2.944564342498779297e+00
9.200000000000000000e+01 7.376570892333984375e+01 3.480769348144531250e+01 1.315596342086791992e+00 2.724134635925292969e+01 8.567082405090332031e+00 -2.701021671295166016e+00
9.300000000000000000e+01 7.353966522216796875e+01 3.424582672119140625e+01 5.407267570495605469e+00 4.518237686157226562e+01 1.517689323425292969e+01 -7.326877593994140625e+00
9.400000000000000000e+01 7.355764007568359375e+01 3.444405364990234375e+01 3.272264719009399414e+00 3.424550247192382812e+01 1.125533103942871094e+01 -7.018108367919921875e+00
9.500000000000000000e+01 7.357562255859375000e+01 3.464228057861328125e+01 1.813772797584533691e+00 2.865167236328125000e+01 9.139634132385253906e+00 -6.209375381469726562e+00
9.600000000000000000e+01 7.359359741210937500e+01 3.484051132202148438e+01 1.040566921234130859e+00 2.519618988037109375e+01 7.871026992797851562e+00 -5.552381515502929688e+00
9.700000000000000000e+01 7.348126220703125000e+01 3.424538803100585938e+01 5.757336616516113281e+00 4.132155609130859375e+01 1.412366771697998047e+01 -1.238484191894531250e+01
9.800000000000000000e+01 7.346030426025390625e+01 3.444332122802734375e+01 3.779117345809936523e+00 3.025272560119628906e+01 1.020955276489257812e+01 -1.044732379913330078e+01
9.900000000000000000e+01 7.343934631347656250e+01 3.464125823974609375e+01 2.594736099243164062e+00 2.504216003417968750e+01 8.291069030761718750e+00 -9.022910118103027344e+00
1.000000000000000000e+02 7.341838836669921875e+01 3.483919143676757812e+01 1.597014665603637695e+00 2.167958068847656250e+01 6.982978343963623047e+00 -7.990556716918945312e+00
1.010000000000000000e+02 7.342405700683593750e+01 3.423358917236328125e+01 7.588292121887207031e+00 3.497134399414062500e+01 1.276789093017578125e+01 -1.633917808532714844e+01
1.020000000000000000e+02 7.336496734619140625e+01 3.442365646362304688e+01 5.579646110534667969e+00 2.482350158691406250e+01 9.120944023132324219e+00 -1.278365135192871094e+01
1.030000000000000000e+02 7.330587768554687500e+01 3.461372375488281250e+01 3.929254531860351562e+00 2.009911346435546875e+01 7.208510398864746094e+00 -1.077778148651123047e+01
1.040000000000000000e+02 7.324678802490234375e+01 3.480379104614257812e+01 3.015269279479980469e+00 1.742768478393554688e+01 6.132886409759521484e+00 -9.436320304870605469e+00
1.050000000000000000e+02 7.337024688720703125e+01 3.421087646484375000e+01 1.086966323852539062e+01 2.694922828674316406e+01 1.134566688537597656e+01 -1.829298782348632812e+01
1.060000000000000000e+02 7.327528381347656250e+01 3.438580322265625000e+01 7.467314243316650391e+00 1.828892707824707031e+01 7.726871967315673828e+00 -1.347234153747558594e+01
1.070000000000000000e+02 7.318032836914062500e+01 3.456072998046875000e+01 5.776226520538330078e+00 1.467774391174316406e+01 6.136191368103027344e+00 -1.106967163085937500e+01
1.080000000000000000e+02 7.308536529541015625e+01 3.473566055297851562e+01 4.333669662475585938e+00 1.258453941345214844e+01 5.075462818145751953e+00 -9.523205757141113281e+00
1.090000000000000000e+02 7.332189178466796875e+01 3.417812728881835938e+01 1.369710636138916016e+01 1.798324394226074219e+01 9.504104614257812500e+00 -1.767750930786132812e+01
1.100000000000000000e+02 7.319469451904296875e+01 3.433121871948242188e+01 9.347779273986816406e+00 1.172494125366210938e+01 6.321815967559814453e+00 -1.226678657531738281e+01
1.110000000000000000e+02 7.306749725341796875e+01 3.448431015014648438e+01 6.753576278686523438e+00 9.210164070129394531e+00 4.789122104644775391e+00 -9.768942832946777344e+00
1.120000000000000000e+02 7.294029235839843750e+01 3.463740539550781250e+01 5.425247192382812500e+00 8.071336746215820312e+00 4.048974990844726562e+00 -8.283107757568359375e+00
1.130000000000000000e+02 7.328083801269531250e+01 3.413658905029296875e+01 1.572110080718994141e+01 9.510493278503417969e+00 7.569478511810302734e+00 -1.432322692871093750e+01
1.140000000000000000e+02 7.312626647949218750e+01 3.426198959350585938e+01 9.297929763793945312e+00 5.746647834777832031e+00 4.513373374938964844e+00 -9.313720703125000000e+00
1.150000000000000000e+02 7.297169494628906250e+01 3.438738632202148438e+01 6.893793106079101562e+00 4.888787269592285156e+00 3.534774065017700195e+00 -7.205918788909912109e+00
1.160000000000000000e+02 7.281712341308593750e+01 3.451278686523437500e+01 5.067841053009033203e+00 4.164230346679687500e+00 2.769621372222900391e+00 -6.108043670654296875e+00
1.170000000000000000e+02 7.324865722656250000e+01 3.408784866333007812e+01 1.409784221649169922e+01 2.380302429199218750e+00 4.943443298339843750e+00 -8.969574928283691406e+00
1.180000000000000000e+02 7.307263183593750000e+01 3.418075942993164062e+01 7.701977729797363281e+00 1.652863025665283203e+00 2.806452274322509766e+00 -5.130343914031982422e+00
1.190000000000000000e+02 7.289660644531250000e+01 3.427366638183593750e+01 4.486591339111328125e+00 1.915966510772705078e+00 1.920767426490783691e+00 -4.071505546569824219e+00
1.200000000000000000e+02 7.272057342529296875e+01 3.436657714843750000e+01 3.604663372039794922e+00 2.036573410034179688e+00 1.692371010780334473e+00 -3.786092758178710938e+00
1.210000000000000000e+02 7.322657775878906250e+01 3.403377914428710938e+01 9.069442749023437500e+00 -2.324430704116821289e+00 2.023503541946411133e+00 -1.902273893356323242e+00
1.220000000000000000e+02 7.303582763671875000e+01 3.409064102172851562e+01 1.784242868423461914e+00 2.072456628084182739e-01 5.974465608596801758e-01 -1.334512829780578613e+00
1.230000000000000000e+02 7.284508514404296875e+01 3.414750289916992188e+01 1.626974344253540039e+00 9.698827862739562988e-01 7.790571451187133789e-01 -2.061991214752197266e+00
1.240000000000000000e+02 7.265433502197265625e+01 3.420436859130859375e+01 3.973729908466339111e-01 5.438326299190521240e-02 1.355268806219100952e-01 -1.278560280799865723e+00
1.250000000000000000e+02 7.321544647216796875e+01 3.397644424438476562e+01 -6.312216758728027344e+00 -2.742028713226318359e+00 -2.716273546218872070e+00 2.716687440872192383e+00
1.260000000000000000e+02 7.301727294921875000e+01 3.399508285522460938e+01 -2.107800483703613281e+00 1.160457849502563477e+00 -2.842027842998504639e-01 -7.880901694297790527e-01
1.270000000000000000e+02 7.281911468505859375e+01 3.401372528076171875e+01 -3.403536081314086914e+00 -5.653429031372070312e-01 -1.190663695335388184e+00 2.439392730593681335e-02
1.280000000000000000e+02 7.262094116210937500e+01 3.403236389160156250e+01 -3.669650077819824219e+00 3.400681018829345703e-01 -9.988745450973510742e-01 -1.675731986761093140e-01
1.290000000000000000e+02 5.662155914306640625e+01 3.460263824462890625e+01 -1.319276094436645508e+00 2.317973040044307709e-02 -3.888289034366607666e-01 1.208658143877983093e-02
1.300000000000000000e+02 5.648379135131835938e+01 3.387492752075195312e+01 -1.424809813499450684e+00 9.718852490186691284e-02 -3.982864022254943848e-01 -2.791837751865386963e-01
1.310000000000000000e+02 5.571845626831054688e+01 3.398872375488281250e+01 -1.143900156021118164e+00 1.111276671290397644e-01 -3.098317384719848633e-01 -3.146343827247619629e-01
1.320000000000000000e+02 5.801555252075195312e+01 3.365230941772460938e+01 -1.985631465911865234e+00 8.151095360517501831e-02 -5.712361335754394531e-01 -2.236243039369583130e-01
1.330000000000000000e+02 5.812237167358398438e+01 3.438455963134765625e+01 -2.040946960449218750e+00 3.487835405394434929e-03 -6.112377643585205078e-01 9.894058853387832642e-02
1.340000000000000000e+02 5.737181472778320312e+01 3.449321365356445312e+01 -1.670740962028503418e+00 1.484106201678514481e-02 -4.967699646949768066e-01 5.924481153488159180e-02
1.350000000000000000e+02 5.724952316284179688e+01 3.376323318481445312e+01 -1.709897994995117188e+00 9.712578356266021729e-02 -4.838316738605499268e-01 -2.541240453720092773e-01
1.360000000000000000e+02 5.587170028686523438e+01 3.471416091918945312e+01 -9.757876396179199219e-01 2.226330712437629700e-02 -2.860572934150695801e-01 -3.141731768846511841e-02
1.370000000000000000e+02 6.036611557006835938e+01 3.409850692749023438e+01 -3.053546190261840820e+00 -5.735847167670726776e-03 -9.177846312522888184e-01 1.917674988508224487e-01
1.380000000000000000e+02 6.028128051757812500e+01 3.336336135864257812e+01 -2.811126470565795898e+00 4.769713431596755981e-02 -8.290287852287292480e-01 -1.494330763816833496e-01
1.390000000000000000e+02 5.877515792846679688e+01 3.354987716674804688e+01 -2.260288238525390625e+00 6.833658367395401001e-02 -6.575855016708374023e-01 -1.888370811939239502e-01
1.400000000000000000e+02 6.103430938720703125e+01 3.327088928222656250e+01 -3.044890880584716797e+00 2.094167657196521759e-02 -9.071847200393676758e-01 -1.411702781915664673e-01
1.410000000000000000e+02 6.111344909667968750e+01 3.400674057006835938e+01 -3.437829017639160156e+00 -2.930913865566253662e-02 -1.040141463279724121e+00 2.013216614723205566e-01
1.420000000000000000e+02 5.961875534057617188e+01 3.419079971313476562e+01 -2.714807748794555664e+00 -2.614041091874241829e-03 -8.152264952659606934e-01 1.583847403526306152e-01
1.430000000000000000e+02 5.887139129638671875e+01 3.428361511230468750e+01 -2.391578912734985352e+00 -2.620945917442440987e-03 -7.182599306106567383e-01 1.288868635892868042e-01
1.440000000000000000e+02 5.952822113037109375e+01 3.345635986328125000e+01 -2.537021875381469727e+00 6.421972811222076416e-02 -7.418406605720520020e-01 -1.565017253160476685e-01
1.450000000000000000e+02 6.330451965332031250e+01 3.306448745727539062e+01 -3.750526905059814453e+00 7.790067233145236969e-03 -1.122820973396301270e+00 -1.145938634872436523e-01
1.460000000000000000e+02 6.254696655273437500e+01 3.312799835205078125e+01 -3.532698869705200195e+00 1.633301563560962677e-02 -1.054909706115722656e+00 -9.822794049978256226e-02
1.470000000000000000e+02 6.178956222534179688e+01 3.319244766235351562e+01 -3.282509565353393555e+00 1.742800581268966198e-03 -9.842300415039062500e-01 -1.142989769577980042e-01
1.480000000000000000e+02 6.406219482421875000e+01 3.300191879272460938e+01 -3.916930437088012695e+00 -1.220341399312019348e-02 -1.178740143775939941e+00 -1.157755777239799500e-01
1.490000000000000000e+02 6.336417388916015625e+01 3.380208206176757812e+01 -4.315886497497558594e+00 -6.699097808450460434e-03 -1.296775579452514648e+00 1.912156343460083008e-01
1.500000000000000000e+02 6.261327362060546875e+01 3.386503601074218750e+01 -4.023598194122314453e+00 -1.124519668519496918e-02 -1.210453033447265625e+00 1.793987900018692017e-01
1.510000000000000000e+02 6.411519622802734375e+01 3.374007415771484375e+01 -4.660254478454589844e+00 -3.348283842206001282e-02 -1.408121228218078613e+00 1.784173548221588135e-01
1.520000000000000000e+02 6.186252593994140625e+01 3.392892837524414062e+01 -3.766364097595214844e+00 -2.531838230788707733e-02 -1.137504696846008301e+00 1.856360435485839844e-01
1.530000000000000000e+02 6.486697387695312500e+01 3.368957138061523438e+01 -4.939176082611083984e+00 -2.341486886143684387e-02 -1.488777279853820801e+00 1.422402113676071167e-01
1.540000000000000000e+02 6.633953857421875000e+01 3.287319183349609375e+01 -4.354448318481445312e+00 -1.129412837326526642e-02 -1.309722781181335449e+00 -1.074771881103515625e-01
1.550000000000000000e+02 6.482070159912109375e+01 3.295096588134765625e+01 -4.083215713500976562e+00 -2.758764848113059998e-02 -1.233240962028503418e+00 -9.689386188983917236e-02
1.560000000000000000e+02 6.637224578857421875e+01 3.361248397827148438e+01 -5.382334709167480469e+00 3.868045285344123840e-03 -1.613540053367614746e+00 1.196836009621620178e-01
1.570000000000000000e+02 6.709891510009765625e+01 3.283536529541015625e+01 -4.353539466857910156e+00 -3.321157395839691162e-02 -1.316025376319885254e+00 -8.707217872142791748e-02
1.580000000000000000e+02 6.712483215332031250e+01 3.357500457763671875e+01 -5.682856559753417969e+00 -4.996886849403381348e-02 -1.719847679138183594e+00 8.073668926954269409e-02
1.590000000000000000e+02 6.561961364746093750e+01 3.365067672729492188e+01 -5.141441345214843750e+00 -1.334211137145757675e-02 -1.546435117721557617e+00 1.178123652935028076e-01
1.600000000000000000e+02 6.558012390136718750e+01 3.291172790527343750e+01 -4.246532917022705078e+00 -8.547806646674871445e-04 -1.274216413497924805e+00 -8.359654247760772705e-02
1.610000000000000000e+02 6.906480407714843750e+01 3.270565414428710938e+01 -3.831928491592407227e+00 1.923050358891487122e-02 -1.143809318542480469e+00 1.350695192813873291e-01
1.620000000000000000e+02 6.847740936279296875e+01 3.280736160278320312e+01 -4.236077785491943359e+00 1.561640202999114990e-02 -1.266138434410095215e+00 2.210275642573833466e-02
1.630000000000000000e+02 7.037464904785156250e+01 3.275643539428710938e+01 -2.998807907104492188e+00 2.072382122278213501e-01 -8.374709486961364746e-01 7.003831267356872559e-01
1.640000000000000000e+02 6.780660247802734375e+01 3.281719207763671875e+01 -4.350248336791992188e+00 -5.149574950337409973e-02 -1.320523262023925781e+00 -3.408528864383697510e-02
1.650000000000000000e+02 7.027532196044921875e+01 3.254200363159179688e+01 -2.431773900985717773e+00 3.399712741374969482e-01 -6.275407671928405762e-01 8.575193285942077637e-01
1.660000000000000000e+02 7.033592224121093750e+01 3.335116958618164062e+01 -5.139352798461914062e+00 1.165940389037132263e-01 -1.506827712059020996e+00 7.038996368646621704e-02
1.670000000000000000e+02 6.860562133789062500e+01 3.354609680175781250e+01 -5.932898998260498047e+00 -1.657640375196933746e-02 -1.784842610359191895e+00 -2.800164744257926941e-02
1.680000000000000000e+02 7.039349365234375000e+01 3.294176483154296875e+01 -3.419821023941040039e+00 1.533317714929580688e-01 -9.799467921257019043e-01 4.171473979949951172e-01
1.690000000000000000e+02 6.999124908447265625e+01 3.328857803344726562e+01 -5.138276576995849609e+00 1.260703895241022110e-02 -1.537700891494750977e+00 1.239488646388053894e-01
1.700000000000000000e+02 6.941963958740234375e+01 3.303864288330078125e+01 -4.443904876708984375e+00 3.225303441286087036e-02 -1.323495507240295410e+00 1.006658226251602173e-01
1.710000000000000000e+02 7.031509399414062500e+01 3.356335067749023438e+01 -5.732956886291503906e+00 1.689881980419158936e-01 -1.669190645217895508e+00 -1.936734467744827271e-01
1.720000000000000000e+02 6.994749450683593750e+01 3.273120117187500000e+01 -3.189170360565185547e+00 1.535510271787643433e-01 -9.106858372688293457e-01 5.273019075393676758e-01
1.730000000000000000e+02 6.992067718505859375e+01 3.358207321166992188e+01 -6.106568336486816406e+00 -7.987481355667114258e-02 -1.855932950973510742e+00 -1.175094097852706909e-01
1.740000000000000000e+02 6.786434936523437500e+01 3.355664443969726562e+01 -5.870540618896484375e+00 -2.250183187425136566e-02 -1.767912745475769043e+00 1.165612228214740753e-02
1.750000000000000000e+02 7.022583770751953125e+01 3.378521347045898438e+01 -6.704235553741455078e+00 7.302503287792205811e-02 -1.989363193511962891e+00 -1.131669953465461731e-01
1.760000000000000000e+02 7.017971038818359375e+01 3.287878417968750000e+01 -3.524047374725341797e+00 1.420559436082839966e-01 -1.014597415924072266e+00 4.814740717411041260e-01
1.770000000000000000e+02 7.036753082275390625e+01 3.314101028442382812e+01 -4.108268737792968750e+00 7.609259337186813354e-02 -1.209652900695800781e+00 3.089998662471771240e-01
1.780000000000000000e+02 6.984069824218750000e+01 3.307106399536132812e+01 -4.470645427703857422e+00 -4.212601855397224426e-02 -1.353831410408020020e+00 2.047589868307113647e-01
1.790000000000000000e+02 6.955935668945312500e+01 3.262906646728515625e+01 -3.165663242340087891e+00 2.536823153495788574e-01 -8.735942840576171875e-01 3.558608293533325195e-01
1.800000000000000000e+02 6.935391998291015625e+01 3.357584381103515625e+01 -6.071923255920410156e+00 -2.818586491048336029e-02 -1.830032706260681152e+00 -7.378395646810531616e-02
1.810000000000000000e+02 7.010164642333984375e+01 3.308546066284179688e+01 -4.081982135772705078e+00 1.576575189828872681e-01 -1.177297472953796387e+00 2.674338519573211670e-01
1.820000000000000000e+02 7.180361938476562500e+01 3.276011657714843750e+01 -1.267300546169281006e-01 1.885448217391967773e+00 5.276154279708862305e-01 2.952779054641723633e+00
1.830000000000000000e+02 7.422957611083984375e+01 3.310034561157226562e+01 3.230295896530151367e+00 2.473063850402832031e+01 8.388280868530273438e+00 -2.312832832336425781e+00
1.840000000000000000e+02 7.490626525878906250e+01 3.368900680541992188e+01 8.861265182495117188e+00 1.799954986572265625e+01 8.058244705200195312e+00 -1.604292988777160645e+00
1.850000000000000000e+02 7.454234313964843750e+01 3.484247207641601562e+01 4.618539333343505859e+00 2.136511611938476562e+01 7.795096397399902344e+00 2.958373546600341797e+00
1.860000000000000000e+02 7.378120422363281250e+01 3.529524993896484375e+01 -1.812151074409484863e-01 2.121252059936523438e+01 6.309391498565673828e+00 -3.190286159515380859e+00
1.870000000000000000e+02 7.298915863037109375e+01 3.494854736328125000e+01 3.363097190856933594e+00 1.151380157470703125e+01 4.463069438934326172e+00 -8.356670379638671875e+00
1.880000000000000000e+02 7.320211791992187500e+01 3.288112640380859375e+01 7.198230624198913574e-01 1.581563663482666016e+01 4.960638046264648438e+00 8.228579521179199219e+00
1.890000000000000000e+02 7.182384490966796875e+01 3.378089141845703125e+01 -6.144748687744140625e+00 3.912802040576934814e-02 -1.831686258316040039e+00 -1.030649021267890930e-01
1.900000000000000000e+02 7.062719726562500000e+01 3.253025436401367188e+01 -2.001442193984985352e+00 8.326671123504638672e-01 -3.506325483322143555e-01 1.282301068305969238e+00
1.910000000000000000e+02 7.200479125976562500e+01 3.279158401489257812e+01 3.263121843338012695e-01 2.515759706497192383e+00 8.526216149330139160e-01 3.533644199371337891e+00
1.920000000000000000e+02 7.268387603759765625e+01 3.287093734741210938e+01 1.820413231849670410e+00 6.825585365295410156e+00 2.593799591064453125e+00 6.676052570343017578e+00
1.930000000000000000e+02 7.254324340820312500e+01 3.342424774169921875e+01 7.566728591918945312e-01 1.352014183998107910e+00 6.326060891151428223e-01 3.031171798706054688e+00
1.940000000000000000e+02 7.262808990478515625e+01 3.254584503173828125e+01 1.069389700889587402e+00 7.831630229949951172e+00 2.670305967330932617e+00 6.451854228973388672e+00
1.950000000000000000e+02 7.083084869384765625e+01 3.251671600341796875e+01 -1.722077369689941406e+00 7.985484004020690918e-01 -2.770586907863616943e-01 1.429861545562744141e+00
1.960000000000000000e+02 7.407218170166015625e+01 3.491920852661132812e+01 1.986542463302612305e+00 2.525484085083007812e+01 8.172414779663085938e+00 3.867592215538024902e-01
1.970000000000000000e+02 7.422282409667968750e+01 3.480516433715820312e+01 3.813739776611328125e+00 2.460189628601074219e+01 8.524690628051757812e+00 2.131422519683837891e+00
1.980000000000000000e+02 7.456616973876953125e+01 3.427316665649414062e+01 1.058652591705322266e+01 2.057329177856445312e+01 9.347945213317871094e+00 2.352537393569946289e+00
1.990000000000000000e+02 7.479238891601562500e+01 3.334325027465820312e+01 6.910806655883789062e+00 1.922878265380859375e+01 7.841876506805419922e+00 -2.832263946533203125e+00
2.000000000000000000e+02 7.372551727294921875e+01 3.269754028320312500e+01 -1.063000679016113281e+00 2.195908737182617188e+01 6.268826484680175781e+00 4.017699241638183594e+00
2.010000000000000000e+02 7.061017608642578125e+01 3.531510543823242188e+01 -2.477717250585556030e-01 8.283352851867675781e-01 1.741690635681152344e-01 -9.688089489936828613e-01
2.020000000000000000e+02 7.064513397216796875e+01 3.468086242675781250e+01 -1.967295050621032715e+00 1.366302073001861572e-01 -5.491994619369506836e-01 -1.879714280366897583e-01
2.030000000000000000e+02 7.139027404785156250e+01 3.464156341552734375e+01 -1.060358643531799316e+00 3.227441608905792236e-01 -2.212843596935272217e-01 -7.938495874404907227e-01
2.040000000000000000e+02 7.141704559326171875e+01 3.409859466552734375e+01 -4.508363723754882812e+00 6.570092588663101196e-02 -1.332798838615417480e+00 -5.478349700570106506e-02
2.050000000000000000e+02 7.138130950927734375e+01 3.529354476928710938e+01 8.235193490982055664e-01 1.832224726676940918e+00 7.967231869697570801e-01 -2.145595550537109375e+00
2.060000000000000000e+02 7.061318206787109375e+01 3.404139709472656250e+01 -4.764991760253906250e+00 -9.896447509527206421e-02 -1.459186911582946777e+00 -2.459134720265865326e-02
2.070000000000000000e+02 7.222618865966796875e+01 3.406562805175781250e+01 -4.092755794525146484e+00 1.128185093402862549e-01 -1.193981289863586426e+00 -8.778179436922073364e-02
2.080000000000000000e+02 7.242337799072265625e+01 3.405024337768554688e+01 -3.933123826980590820e+00 -1.816751658916473389e-01 -1.234439730644226074e+00 -6.137868762016296387e-02
2.090000000000000000e+02 7.460436248779296875e+01 3.384099197387695312e+01 1.163772392272949219e+01 1.986525917053222656e+01 9.450895309448242188e+00 -1.008333206176757812e+00
2.100000000000000000e+02 7.436672210693359375e+01 3.466222381591796875e+01 6.180267810821533203e+00 2.348239707946777344e+01 8.898798942565917969e+00 3.161086559295654297e+00
2.110000000000000000e+02 7.339915466308593750e+01 3.505849838256835938e+01 1.134436964988708496e+00 1.954290771484375000e+01 6.203203201293945312e+00 -7.042644500732421875e+00
2.120000000000000000e+02 7.319321441650390625e+01 3.503042602539062500e+01 2.205487966537475586e+00 1.556018543243408203e+01 5.329701900482177734e+00 -8.250546455383300781e+00
2.130000000000000000e+02 7.233133697509765625e+01 3.456633758544921875e+01 1.976558804512023926e+00 1.440670609474182129e+00 1.025168895721435547e+00 -2.844975233078002930e+00
2.140000000000000000e+02 7.246958160400390625e+01 3.362176895141601562e+01 -1.866476058959960938e+00 4.586337208747863770e-01 -4.223527014255523682e-01 1.219502806663513184e+00
2.150000000000000000e+02 7.310253906250000000e+01 3.269651794433593750e+01 4.783278107643127441e-01 1.406507873535156250e+01 4.363021850585937500e+00 7.533352375030517578e+00
2.160000000000000000e+02 7.342445373535156250e+01 3.283285522460937500e+01 -3.612731099128723145e-01 1.994174766540527344e+01 5.874142169952392578e+00 6.929068088531494141e+00
2.170000000000000000e+02 7.437747192382812500e+01 3.325206375122070312e+01 5.774250030517578125e+00 2.347014808654785156e+01 8.773319244384765625e+00 -3.403483867645263672e+00
2.180000000000000000e+02 7.062982940673828125e+01 3.275125122070312500e+01 -2.605511903762817383e+00 4.912213385105133057e-01 -6.342871785163879395e-01 8.815349936485290527e-01
2.190000000000000000e+02 7.080172729492187500e+01 3.340641403198242188e+01 -4.642637729644775391e+00 -8.646367490291595459e-02 -1.418730497360229492e+00 1.121580749750137329e-01
2.200000000000000000e+02 7.080883026123046875e+01 3.378962707519531250e+01 -6.778758525848388672e+00 5.631626397371292114e-02 -2.016732692718505859e+00 -1.195848360657691956e-01
2.210000000000000000e+02 7.061079406738281250e+01 3.379167556762695312e+01 -6.991371631622314453e+00 -1.753663271665573120e-01 -2.150021314620971680e+00 -2.016643993556499481e-02
2.220000000000000000e+02 7.476666259765625000e+01 3.376284027099609375e+01 1.013200473785400391e+01 1.879588317871093750e+01 8.678366661071777344e+00 -1.336814522743225098e+00
2.230000000000000000e+02 7.454605102539062500e+01 3.363957595825195312e+01 1.060690307617187500e+01 2.073327636718750000e+01 9.402053833007812500e+00 -2.598823308944702148e+00
2.240000000000000000e+02 7.378373718261718750e+01 3.503703308105468750e+01 4.958203136920928955e-01 2.440043640136718750e+01 7.468876838684082031e+00 -2.806215524673461914e+00
2.250000000000000000e+02 7.280718231201171875e+01 3.533947753906250000e+01 2.352287769317626953e+00 9.283761978149414062e+00 3.490814924240112305e+00 -6.461539268493652344e+00
2.260000000000000000e+02 7.199585723876953125e+01 3.526497268676757812e+01 2.064195871353149414e+00 2.895449876785278320e+00 1.487893700599670410e+00 -3.781882762908935547e+00
2.270000000000000000e+02 7.339367675781250000e+01 3.531307601928710938e+01 4.699134826660156250e-01 1.751848602294921875e+01 5.396519660949707031e+00 -6.126841068267822266e+00
2.280000000000000000e+02 7.207205963134765625e+01 3.434683227539062500e+01 -1.130696415901184082e+00 3.745808303356170654e-01 -2.268346846103668213e-01 -7.957927584648132324e-01
2.290000000000000000e+02 7.253413391113281250e+01 3.446750640869140625e+01 2.553492307662963867e+00 1.219256997108459473e+00 1.131824851036071777e+00 -3.143225669860839844e+00
2.300000000000000000e+02 7.462350463867187500e+01 3.405775070190429688e+01 1.148444080352783203e+01 1.963056564331054688e+01 9.334502220153808594e+00 7.513090968132019043e-01
2.310000000000000000e+02 7.464449310302734375e+01 3.338557815551757812e+01 7.493568897247314453e+00 2.055182456970214844e+01 8.413618087768554688e+00 -3.078111648559570312e+00
2.320000000000000000e+02 7.404651641845703125e+01 3.299214935302734375e+01 1.187741160392761230e+00 2.539401817321777344e+01 7.974527835845947266e+00 -4.553360342979431152e-01
2.330000000000000000e+02 7.227262115478515625e+01 3.358235931396484375e+01 -2.641324520111083984e+00 2.210692316293716431e-01 -7.260766029357910156e-01 9.100180268287658691e-01
2.340000000000000000e+02 7.242664337158203125e+01 3.382583999633789062e+01 -5.606544971466064453e+00 -1.004989072680473328e-01 -1.712113261222839355e+00 -6.758120656013488770e-02
2.350000000000000000e+02 7.202799224853515625e+01 3.379646682739257812e+01 -6.010407924652099609e+00 -1.734809018671512604e-02 -1.808326840400695801e+00 -7.483305037021636963e-02
2.360000000000000000e+02 7.455696105957031250e+01 3.307566452026367188e+01 4.390778064727783203e+00 2.169719123840332031e+01 7.826391220092773438e+00 -2.984474420547485352e+00
2.370000000000000000e+02 7.448117065429687500e+01 3.343777465820312500e+01 8.362738609313964844e+00 2.216290092468261719e+01 9.157691955566406250e+00 -3.467570304870605469e+00
2.380000000000000000e+02 7.364541625976562500e+01 3.285903167724609375e+01 -7.671053409576416016e-01 2.315372085571289062e+01 6.715984821319580078e+00 4.777478694915771484e+00
2.390000000000000000e+02 7.359298706054687500e+01 3.531156921386718750e+01 1.887596398591995239e-02 2.007980728149414062e+01 6.029604911804199219e+00 -4.674520015716552734e+00
2.400000000000000000e+02 7.363061523437500000e+01 3.255633163452148438e+01 -1.303085565567016602e+00 2.034776306152343750e+01 5.713403224945068359e+00 4.795353889465332031e+00
2.410000000000000000e+02 7.397525787353515625e+01 3.261625671386718750e+01 -1.012145638465881348e+00 2.203361701965332031e+01 6.306441307067871094e+00 1.718113422393798828e+00
2.420000000000000000e+02 7.414598083496093750e+01 3.268185424804687500e+01 -3.172294795513153076e-01 2.224108123779296875e+01 6.577155590057373047e+00 3.593378663063049316e-01
2.430000000000000000e+02 7.485406494140625000e+01 3.351528930664062500e+01 8.196205139160156250e+00 1.850681304931640625e+01 8.010905265808105469e+00 -2.442271471023559570e+00
2.440000000000000000e+02 7.410825347900390625e+01 3.521050643920898438e+01 7.824862003326416016e-01 2.287108802795410156e+01 7.096072196960449219e+00 -2.249268144369125366e-01
2.450000000000000000e+02 7.487729644775390625e+01 3.425885391235351562e+01 9.235023498535156250e+00 1.813082122802734375e+01 8.209753036499023438e+00 1.568499088287353516e+00
2.460000000000000000e+02 7.395600891113281250e+01 3.527249145507812500e+01 3.127999603748321533e-02 2.233750534057617188e+01 6.710635185241699219e+00 -1.832234740257263184e+00
2.470000000000000000e+02 7.490631103515625000e+01 3.386027526855468750e+01 9.718751907348632812e+00 1.781152534484863281e+01 8.259082794189453125e+00 -5.886980891227722168e-01
2.480000000000000000e+02 7.487506103515625000e+01 3.406075668334960938e+01 9.816622734069824219e+00 1.809810829162597656e+01 8.374419212341308594e+00 5.874847769737243652e-01
2.490000000000000000e+02 7.468111419677734375e+01 3.471487808227539062e+01 6.001191616058349609e+00 2.059128189086914062e+01 7.977741718292236328e+00 3.206615924835205078e+00
2.500000000000000000e+02 7.440856170654296875e+01 3.292366409301757812e+01 2.596703052520751953e+00 2.261730575561523438e+01 7.564202785491943359e+00 -2.210562229156494141e+00
2.510000000000000000e+02 7.410121917724609375e+01 3.282882690429687500e+01 6.122767329216003418e-01 2.370595359802246094e+01 7.295469284057617188e+00 -6.698234379291534424e-02
2.520000000000000000e+02 7.396473693847656250e+01 3.507160949707031250e+01 8.571388125419616699e-01 2.394429397583007812e+01 7.440430164337158203e+00 -1.114345312118530273e+00
2.530000000000000000e+02 7.464529418945312500e+01 3.453917312622070312e+01 7.658806324005126953e+00 2.058308029174804688e+01 8.472566604614257812e+00 3.147022485733032227e+00
2.540000000000000000e+02 7.220982360839843750e+01 3.526816177368164062e+01 2.461531877517700195e+00 4.057185173034667969e+00 1.955615162849426270e+00 -4.629326820373535156e+00
2.550000000000000000e+02 7.241968536376953125e+01 3.529471969604492188e+01 2.658846378326416016e+00 5.797330379486083984e+00 2.536853075027465820e+00 -5.660099506378173828e+00
2.560000000000000000e+02 7.287733459472656250e+01 3.515604400634765625e+01 2.751234769821166992e+00 1.033454704284667969e+01 3.925734519958496094e+00 -7.408815383911132812e+00
2.570000000000000000e+02 7.144084167480468750e+01 3.440214157104492188e+01 -2.316512584686279297e+00 6.140343472361564636e-02 -6.765327453613281250e-01 -4.049749970436096191e-01
2.580000000000000000e+02 7.195763397216796875e+01 3.464834213256835938e+01 2.536723315715789795e-01 9.059825539588928223e-01 3.478964567184448242e-01 -1.780052661895751953e+00
2.590000000000000000e+02 7.100933074951171875e+01 3.404572677612304688e+01 -4.706349849700927734e+00 5.045655742287635803e-02 -1.396767973899841309e+00 -8.248870819807052612e-02
2.600000000000000000e+02 7.298572540283203125e+01 3.532542419433593750e+01 1.835330247879028320e+00 1.263728237152099609e+01 4.341784000396728516e+00 -7.264797210693359375e+00
2.610000000000000000e+02 7.318360137939453125e+01 3.530359649658203125e+01 1.267763257026672363e+00 1.471727371215820312e+01 4.795511245727539062e+00 -7.179515838623046875e+00
2.620000000000000000e+02 7.182852935791015625e+01 3.409017944335937500e+01 -4.389279842376708984e+00 1.776093095541000366e-01 -1.263501167297363281e+00 -3.978205844759941101e-02
2.630000000000000000e+02 7.187482452392578125e+01 3.438842010498046875e+01 -1.393515229225158691e+00 1.050893142819404602e-01 -3.865277767181396484e-01 -7.280921339988708496e-01
2.640000000000000000e+02 7.061593627929687500e+01 3.425125122070312500e+01 -3.766318321228027344e+00 -5.386843159794807434e-02 -1.146056056022644043e+00 6.578877568244934082e-02
2.650000000000000000e+02 7.165098571777343750e+01 3.347211074829101562e+01 -3.860544919967651367e+00 1.588128209114074707e-01 -1.110519647598266602e+00 4.951397180557250977e-01
2.660000000000000000e+02 7.142036437988281250e+01 3.252460479736328125e+01 -6.039299368858337402e-01 1.608174920082092285e+00 3.012734949588775635e-01 2.568450927734375000e+00
2.670000000000000000e+02 7.094309234619140625e+01 3.266389465332031250e+01 -1.868260383605957031e+00 7.452240586280822754e-01 -3.369109034538269043e-01 1.400420546531677246e+00
2.680000000000000000e+02 7.078845977783203125e+01 3.358467864990234375e+01 -5.945106983184814453e+00 -7.805202901363372803e-02 -1.806947708129882812e+00 -4.563678428530693054e-02
2.690000000000000000e+02 7.143262481689453125e+01 3.290539169311523438e+01 -1.556354522705078125e+00 8.709864616394042969e-01 -2.056104093790054321e-01 1.676088929176330566e+00
2.700000000000000000e+02 7.101284790039062500e+01 3.376970291137695312e+01 -6.657025814056396484e+00 -3.777993097901344299e-02 -2.008441686630249023e+00 -1.022087484598159790e-01
2.710000000000000000e+02 7.223394775390625000e+01 3.256816864013671875e+01 9.809190034866333008e-01 4.598461151123046875e+00 1.673814058303833008e+00 4.990099906921386719e+00
2.720000000000000000e+02 7.246450805664062500e+01 3.289035797119140625e+01 1.667884826660156250e+00 4.588160991668701172e+00 1.876813769340515137e+00 5.503366947174072266e+00
2.730000000000000000e+02 7.303256988525390625e+01 3.253293609619140625e+01 1.381245851516723633e-01 1.245723247528076172e+01 3.778607130050659180e+00 7.065400600433349609e+00
2.740000000000000000e+02 7.321472167968750000e+01 3.254996490478515625e+01 -3.439310789108276367e-01 1.563219356536865234e+01 4.586478710174560547e+00 7.053996562957763672e+00
2.750000000000000000e+02 7.161381530761718750e+01 3.273396301269531250e+01 -6.052909493446350098e-01 1.565842866897583008e+00 2.881655991077423096e-01 2.537653207778930664e+00
2.760000000000000000e+02 7.101667022705078125e+01 3.251403808593750000e+01 -1.365243077278137207e+00 1.131839871406555176e+00 -7.002097368240356445e-02 1.792152881622314453e+00
2.770000000000000000e+02 7.121389007568359375e+01 3.377740097045898438e+01 -6.553251266479492188e+00 3.742415457963943481e-02 -1.954748153686523438e+00 -1.006407290697097778e-01
2.780000000000000000e+02 7.201970672607421875e+01 3.255403900146484375e+01 5.790680050849914551e-01 3.311077594757080078e+00 1.167043685913085938e+00 4.110597610473632812e+00
2.790000000000000000e+02 7.342397308349609375e+01 3.257820892333984375e+01 -8.335427045822143555e-01 1.823085021972656250e+01 5.219192504882812500e+00 6.133923530578613281e+00
2.800000000000000000e+02 7.062532806396484375e+01 3.446192550659179688e+01 -2.842584371566772461e+00 1.408707797527313232e-01 -8.105140924453735352e-01 1.472058333456516266e-02
2.810000000000000000e+02 7.063707733154296875e+01 3.489967346191406250e+01 -1.237004637718200684e+00 2.885367274284362793e-01 -2.845403552055358887e-01 -3.806315362453460693e-01
2.820000000000000000e+02 7.081345367431640625e+01 3.300849151611328125e+01 -3.191687822341918945e+00 3.497195243835449219e-01 -8.525905013084411621e-01 6.934893131256103516e-01
2.830000000000000000e+02 7.060832977294921875e+01 3.337799072265625000e+01 -4.750470638275146484e+00 3.974653780460357666e-02 -1.413217306137084961e+00 -4.818579182028770447e-02
2.840000000000000000e+02 7.222926330566406250e+01 3.381088256835937500e+01 -5.822979450225830078e+00 5.264512449502944946e-02 -1.731100320816040039e+00 -5.391332879662513733e-02
2.850000000000000000e+02 7.158194732666015625e+01 3.528923034667968750e+01 1.289048910140991211e+00 1.922154426574707031e+00 9.633610248565673828e-01 -2.661896228790283203e+00
2.860000000000000000e+02 7.099439239501953125e+01 3.532044219970703125e+01 9.500017762184143066e-02 1.269155383110046387e+00 4.092466831207275391e-01 -1.407798647880554199e+00
2.870000000000000000e+02 7.279778289794921875e+01 3.482518005371093750e+01 4.070917129516601562e+00 6.941465377807617188e+00 3.303714752197265625e+00 -7.200871944427490234e+00
2.880000000000000000e+02 7.118537902832031250e+01 3.530655288696289062e+01 4.663626253604888916e-01 1.111422061920166016e+00 4.733353853225708008e-01 -1.664009690284729004e+00
2.890000000000000000e+02 7.081215667724609375e+01 3.404077529907226562e+01 -4.765356540679931641e+00 5.447756126523017883e-02 -1.413263678550720215e+00 2.251787111163139343e-02
2.900000000000000000e+02 7.140715026855468750e+01 3.377596664428710938e+01 -6.375163078308105469e+00 -2.582342596724629402e-03 -1.913323640823364258e+00 -6.602568924427032471e-02
2.910000000000000000e+02 7.233665466308593750e+01 3.335569763183593750e+01 -7.436360418796539307e-02 1.240076303482055664e+00 3.497138023376464844e-01 2.580180168151855469e+00
2.920000000000000000e+02 7.130352783203125000e+01 3.357122421264648438e+01 -5.224176883697509766e+00 4.314803704619407654e-02 -1.554308652877807617e+00 3.843577206134796143e-02
2.930000000000000000e+02 7.121676635742187500e+01 3.252851867675781250e+01 -1.063522934913635254e+00 1.281129360198974609e+00 6.528195738792419434e-02 2.103940010070800781e+00
2.940000000000000000e+02 7.289302825927734375e+01 3.277289199829101562e+01 1.471316695213317871e+00 1.023435688018798828e+01 3.511702060699462891e+00 7.633484363555908203e+00
2.950000000000000000e+02 7.084310913085937500e+01 3.497526550292968750e+01 -8.302381634712219238e-01 5.632378458976745605e-01 -8.010008931159973145e-02 -6.507067084312438965e-01
2.960000000000000000e+02 7.061661529541015625e+01 3.296445846557617188e+01 -3.320793867111206055e+00 1.775468587875366211e-01 -9.429740905761718750e-01 5.603007674217224121e-01
2.970000000000000000e+02 7.243563842773437500e+01 3.479737854003906250e+01 2.958843946456909180e+00 3.102455377578735352e+00 1.818389892578125000e+00 -4.567031383514404297e+00
2.980000000000000000e+02 7.080394744873046875e+01 3.532302856445312500e+01 6.164764054119586945e-03 7.038519382476806641e-01 2.130050063133239746e-01 -8.713445067405700684e-01
2.990000000000000000e+02 7.109166717529296875e+01 3.278617858886718750e+01 -1.943963050842285156e+00 7.336091995239257812e-01 -3.631061613559722900e-01 1.397973060607910156e+00
3.000000000000000000e+02 7.153321838378906250e+01 3.501467132568359375e+01 5.028881430625915527e-01 1.302915811538696289e+00 5.417411923408508301e-01 -1.894218921661376953e+00
3.010000000000000000e+02 7.165869903564453125e+01 3.441932678222656250e+01 -1.821286916732788086e+00 2.258411198854446411e-01 -4.786337316036224365e-01 -6.367771029472351074e-01
3.020000000000000000e+02 7.213175201416015625e+01 3.460549163818359375e+01 1.082671642303466797e+00 1.091898918151855469e+00 6.523711681365966797e-01 -2.296817064285278320e+00
3.030000000000000000e+02 7.112316131591796875e+01 3.339793395996093750e+01 -4.371695518493652344e+00 8.486113697290420532e-02 -1.286050319671630859e+00 2.622862756252288818e-01
3.040000000000000000e+02 7.222668457031250000e+01 3.282709503173828125e+01 9.257536530494689941e-01 3.321545362472534180e+00 1.274189710617065430e+00 4.338263988494873047e+00
3.050000000000000000e+02 7.154128265380859375e+01 3.315233230590820312e+01 -2.233082771301269531e+00 5.445295572280883789e-01 -5.065659284591674805e-01 1.182024598121643066e+00
3.060000000000000000e+02 7.218054962158203125e+01 3.306949615478515625e+01 3.587962985038757324e-01 2.054024696350097656e+00 7.238463163375854492e-01 3.324488639831542969e+00
3.070000000000000000e+02 7.182820129394531250e+01 3.475611114501953125e+01 4.201985597610473633e-01 7.440683841705322266e-01 3.492800891399383545e-01 -1.905563950538635254e+00
3.080000000000000000e+02 7.111898803710937500e+01 3.507631301879882812e+01 -7.592325657606124878e-02 9.362933635711669922e-01 2.581110298633575439e-01 -1.194874882698059082e+00
3.090000000000000000e+02 7.083647918701171875e+01 3.444207763671875000e+01 -2.869179010391235352e+00 2.511270716786384583e-02 -8.532198667526245117e-01 -3.652597591280937195e-02
3.100000000000000000e+02 7.170363616943359375e+01 3.482120513916015625e+01 7.051621079444885254e-01 1.205015897750854492e+00 5.730534195899963379e-01 -1.849948406219482422e+00
3.110000000000000000e+02 7.095184326171875000e+01 3.512903594970703125e+01 -2.174081504344940186e-01 5.557145476341247559e-01 1.014919131994247437e-01 -9.609867334365844727e-01
3.120000000000000000e+02 7.144775390625000000e+01 3.337728881835937500e+01 -3.679162502288818359e+00 1.846850067377090454e-01 -1.048343300819396973e+00 5.317184925079345703e-01
3.130000000000000000e+02 7.084385681152343750e+01 3.281528854370117188e+01 -2.496244668960571289e+00 5.619558691978454590e-01 -5.802866816520690918e-01 1.048421621322631836e+00
3.140000000000000000e+02 7.161885070800781250e+01 3.253015518188476562e+01 -2.131273448467254639e-01 2.044251441955566406e+00 5.493372082710266113e-01 2.970912456512451172e+00
3.150000000000000000e+02 7.181720733642578125e+01 3.254083633422851562e+01 1.396242678165435791e-01 2.637798547744750977e+00 8.332268595695495605e-01 3.544107437133789062e+00
3.160000000000000000e+02 7.061358642578125000e+01 3.317359161376953125e+01 -4.077058792114257812e+00 6.502605229616165161e-02 -1.203609824180603027e+00 3.016653358936309814e-01
3.170000000000000000e+02 7.243745422363281250e+01 3.254976272583007812e+01 1.044270634651184082e+00 6.101229190826416016e+00 2.143649816513061523e+00 5.698830604553222656e+00
3.180000000000000000e+02 7.255010986328125000e+01 3.271129226684570312e+01 1.230657815933227539e+00 6.508367538452148438e+00 2.321707487106323242e+00 6.094106674194335938e+00
3.190000000000000000e+02 7.283375549316406250e+01 3.255628585815429688e+01 6.859827637672424316e-01 9.802458763122558594e+00 3.146532297134399414e+00 6.927275657653808594e+00
3.200000000000000000e+02 7.060613250732421875e+01 3.358221817016601562e+01 -5.795262813568115234e+00 -1.461803913116455078e-01 -1.782432913780212402e+00 -5.879358574748039246e-02
3.210000000000000000e+02 7.300041961669921875e+01 3.296895599365234375e+01 2.040926218032836914e+00 1.143600177764892578e+01 4.043078422546386719e+00 8.426652908325195312e+00
3.220000000000000000e+02 7.280632019042968750e+01 3.307582473754882812e+01 2.672863006591796875e+00 7.180965900421142578e+00 2.956148624420166016e+00 7.242967128753662109e+00
3.230000000000000000e+02 7.120916748046875000e+01 3.407450485229492188e+01 -4.582052230834960938e+00 -7.192590087652206421e-02 -1.396193385124206543e+00 -5.554646998643875122e-02
3.240000000000000000e+02 7.081426239013671875e+01 3.424379730224609375e+01 -3.826638460159301758e+00 7.144298404455184937e-02 -1.126558661460876465e+00 -3.962670266628265381e-02
3.250000000000000000e+02 7.099382019042968750e+01 3.423738861083984375e+01 -3.941742897033691406e+00 3.742189332842826843e-02 -1.171296238899230957e+00 9.580961614847183228e-02
3.260000000000000000e+02 7.089019775390625000e+01 3.465069961547851562e+01 -1.793401837348937988e+00 2.858588695526123047e-01 -4.522629082202911377e-01 -2.932558655738830566e-01
3.270000000000000000e+02 7.079528045654296875e+01 3.513719177246093750e+01 -4.916681945323944092e-01 6.944447755813598633e-01 6.083297729492187500e-02 -8.966194987297058105e-01
3.280000000000000000e+02 7.126521301269531250e+01 3.445292282104492188e+01 -2.545129060745239258e+00 1.998303532600402832e-01 -7.035896182060241699e-01 -2.466081380844116211e-01
3.290000000000000000e+02 7.109643554687500000e+01 3.457032012939453125e+01 -2.088020563125610352e+00 1.121304631233215332e-01 -5.927670001983642578e-01 -2.959381639957427979e-01
3.300000000000000000e+02 7.061235809326171875e+01 3.510926055908203125e+01 -7.104262113571166992e-01 6.007025837898254395e-01 -3.291709348559379578e-02 -5.466421842575073242e-01
3.310000000000000000e+02 7.162602996826171875e+01 3.409783935546875000e+01 -4.445061206817626953e+00 -1.194628402590751648e-01 -1.369357228279113770e+00 -3.302480652928352356e-02
3.320000000000000000e+02 7.202806091308593750e+01 3.407817840576171875e+01 -4.273918151855468750e+00 -1.150986030697822571e-01 -1.316705107688903809e+00 -1.174011453986167908e-01
3.330000000000000000e+02 7.246165466308593750e+01 3.426157760620117188e+01 -1.786460727453231812e-01 5.524007678031921387e-01 1.121264025568962097e-01 -1.314077854156494141e+00
3.340000000000000000e+02 7.095633697509765625e+01 3.352944564819335938e+01 -5.285287380218505859e+00 6.500633060932159424e-02 -1.566084265708923340e+00 -9.784967638552188873e-03
3.350000000000000000e+02 7.226740264892578125e+01 3.431119918823242188e+01 -8.029938936233520508e-01 1.252986639738082886e-01 -2.033085823059082031e-01 -1.058856010437011719e+00
3.360000000000000000e+02 7.264208221435546875e+01 3.466572570800781250e+01 3.996433973312377930e+00 3.954243421554565430e+00 2.385203361511230469e+00 -5.472558975219726562e+00
3.370000000000000000e+02 7.267898559570312500e+01 3.506244277954101562e+01 3.401275873184204102e+00 7.133662700653076172e+00 3.160481691360473633e+00 -6.633682250976562500e+00
3.380000000000000000e+02 7.247042083740234375e+01 3.502459335327148438e+01 3.339996576309204102e+00 4.798745155334472656e+00 2.441622495651245117e+00 -5.637837409973144531e+00
3.390000000000000000e+02 7.241719818115234375e+01 3.312688827514648438e+01 1.227604985237121582e+00 2.830202579498291016e+00 1.217342257499694824e+00 4.271755218505859375e+00
3.400000000000000000e+02 7.264816284179687500e+01 3.323251342773437500e+01 2.339278697967529297e+00 3.967134237289428711e+00 1.891923904418945312e+00 5.453089714050292969e+00
3.410000000000000000e+02 7.186152648925781250e+01 3.351405334472656250e+01 -3.618975639343261719e+00 1.599058508872985840e-01 -1.037720918655395508e+00 5.969843864440917969e-01
3.420000000000000000e+02 7.161214447021484375e+01 3.376158142089843750e+01 -6.255484580993652344e+00 -4.696233943104743958e-02 -1.890734076499938965e+00 -9.492734819650650024e-02
3.430000000000000000e+02 7.380244445800781250e+01 3.256012725830078125e+01 -1.281101822853088379e+00 2.116147613525390625e+01 5.964112281799316406e+00 3.099180936813354492e+00
3.440000000000000000e+02 7.427861785888671875e+01 3.278413391113281250e+01 9.818399548530578613e-01 2.279264831542968750e+01 7.132346153259277344e+00 -1.081707239151000977e+00
3.450000000000000000e+02 7.469318389892578125e+01 3.320856094360351562e+01 5.727782726287841797e+00 2.043377876281738281e+01 7.848468303680419922e+00 -3.213115215301513672e+00
3.460000000000000000e+02 7.485404205322265625e+01 3.442456817626953125e+01 7.680332660675048828e+00 1.868774032592773438e+01 7.910421848297119141e+00 2.418096780776977539e+00
3.470000000000000000e+02 7.478459930419921875e+01 3.458528137207031250e+01 7.121539115905761719e+00 1.929293632507324219e+01 7.924342155456542969e+00 2.856222629547119141e+00
3.480000000000000000e+02 7.447750091552734375e+01 3.447950744628906250e+01 8.526573181152343750e+00 2.197509384155273438e+01 9.150500297546386719e+00 3.341059923171997070e+00
3.490000000000000000e+02 7.439792633056640625e+01 3.498568725585937500e+01 3.011356830596923828e+00 2.231601142883300781e+01 7.598210811614990234e+00 2.194110631942749023e+00
3.500000000000000000e+02 7.425038909912109375e+01 3.510511016845703125e+01 1.659060120582580566e+00 2.229738426208496094e+01 7.186933040618896484e+00 9.878916144371032715e-01
3.510000000000000000e+02 7.359709930419921875e+01 3.505986022949218750e+01 3.981211781501770020e-01 2.234915161132812500e+01 6.824182033538818359e+00 -5.120782852172851562e+00
3.520000000000000000e+02 7.262014770507812500e+01 3.531358337402343750e+01 2.554759502410888672e+00 7.448070526123046875e+00 3.000849008560180664e+00 -6.351272583007812500e+00
3.530000000000000000e+02 7.227163696289062500e+01 3.497037506103515625e+01 2.545026540756225586e+00 3.044996261596679688e+00 1.677006840705871582e+00 -4.097012996673583984e+00
3.540000000000000000e+02 7.178624725341796875e+01 3.528530883789062500e+01 1.668456435203552246e+00 2.448951482772827148e+00 1.235222339630126953e+00 -3.210872173309326172e+00
3.550000000000000000e+02 7.131998443603515625e+01 3.502458190917968750e+01 1.623233407735824585e-01 8.009731769561767578e-01 2.889889478683471680e-01 -1.432534694671630859e+00
3.560000000000000000e+02 7.472682189941406250e+01 3.435169982910156250e+01 9.233177185058593750e+00 1.951049423217773438e+01 8.623101234436035156e+00 2.389251470565795898e+00
3.570000000000000000e+02 7.469837951660156250e+01 3.357821273803710938e+01 9.497851371765136719e+00 1.977861785888671875e+01 8.782940864562988281e+00 -2.524773836135864258e+00
3.580000000000000000e+02 7.384632110595703125e+01 3.292247772216796875e+01 -2.302694469690322876e-01 2.515747070312500000e+01 7.478160381317138672e+00 2.210843086242675781e+00
3.590000000000000000e+02 7.101594543457031250e+01 3.439642333984375000e+01 -2.836488723754882812e+00 1.736973375082015991e-01 -7.988374233245849609e-01 -1.694854348897933960e-01
3.600000000000000000e+02 7.121385955810546875e+01 3.477848052978515625e+01 -8.367052674293518066e-01 4.993411004543304443e-01 -1.012092456221580505e-01 -7.331544756889343262e-01
3.610000000000000000e+02 7.081965637207031250e+01 3.321447753906250000e+01 -3.919502735137939453e+00 1.460781097412109375e-01 -1.132027387619018555e+00 3.328811824321746826e-01
3.620000000000000000e+02 7.206827545166015625e+01 3.354818725585937500e+01 -3.195053339004516602e+00 2.934759259223937988e-01 -8.704732656478881836e-01 7.199164032936096191e-01
3.630000000000000000e+02 7.100017547607421875e+01 3.486178970336914062e+01 -9.723576307296752930e-01 3.567595183849334717e-01 -1.846794337034225464e-01 -6.528529524803161621e-01
3.640000000000000000e+02 7.097845458984375000e+01 3.304577255249023438e+01 -3.001666307449340820e+00 4.216285049915313721e-01 -7.740113735198974609e-01 8.089898228645324707e-01
3.650000000000000000e+02 7.126927185058593750e+01 3.322740173339843750e+01 -3.230828046798706055e+00 3.189817070960998535e-01 -8.735539317131042480e-01 6.977970004081726074e-01
3.660000000000000000e+02 7.212342071533203125e+01 3.330620193481445312e+01 -9.594576954841613770e-01 9.030312895774841309e-01 -1.692792028188705444e-02 2.015061616897583008e+00
3.670000000000000000e+02 7.390975952148437500e+01 3.277044677734375000e+01 -6.012296676635742188e-01 2.371566200256347656e+01 6.934329509735107422e+00 1.979537367820739746e+00
3.680000000000000000e+02 7.115122222900390625e+01 3.428907394409179688e+01 -3.350403547286987305e+00 4.654599726200103760e-02 -9.911572933197021484e-01 -1.101244091987609863e-01
3.690000000000000000e+02 7.196833038330078125e+01 3.302416610717773438e+01 -2.781246900558471680e-01 1.516183137893676758e+00 3.714175522327423096e-01 2.660999059677124023e+00
3.700000000000000000e+02 7.100353240966796875e+01 3.320762252807617188e+01 -3.668684720993041992e+00 2.243710607290267944e-01 -1.033294081687927246e+00 4.790242016315460205e-01
3.710000000000000000e+02 7.168626403808593750e+01 3.466221237182617188e+01 -5.060488581657409668e-01 4.144670963287353516e-01 -2.747452817857265472e-02 -1.173157215118408203e+00
3.720000000000000000e+02 7.128915405273437500e+01 3.292037582397460938e+01 -2.045167207717895508e+00 6.174364089965820312e-01 -4.283192753791809082e-01 1.332785367965698242e+00
3.730000000000000000e+02 7.142898559570312500e+01 3.271992874145507812e+01 -1.031573653221130371e+00 1.222359776496887207e+00 5.723582580685615540e-02 2.132085323333740234e+00
3.740000000000000000e+02 7.124579620361328125e+01 3.273018646240234375e+01 -1.495463490486145020e+00 9.372044801712036133e-01 -1.674777120351791382e-01 1.755462765693664551e+00
3.750000000000000000e+02 7.173994445800781250e+01 3.502103042602539062e+01 1.143000006675720215e+00 1.482516169548034668e+00 7.876548767089843750e-01 -2.441591024398803711e+00
3.760000000000000000e+02 7.193304443359375000e+01 3.497608947753906250e+01 1.781241774559020996e+00 1.983130812644958496e+00 1.129311800003051758e+00 -2.954332590103149414e+00
3.770000000000000000e+02 7.209400939941406250e+01 3.483552169799804688e+01 1.937350749969482422e+00 1.771799683570861816e+00 1.112745165824890137e+00 -3.233018159866333008e+00
3.780000000000000000e+02 7.191677093505859375e+01 3.326303100585937500e+01 -1.602684497833251953e+00 7.362288236618041992e-01 -2.599366903305053711e-01 1.618165135383605957e+00
3.790000000000000000e+02 7.159410858154296875e+01 3.294070434570312500e+01 -1.199708700180053711e+00 1.013601422309875488e+00 -5.583219975233078003e-02 1.920200228691101074e+00
3.800000000000000000e+02 7.100970458984375000e+01 3.289944076538085938e+01 -2.544491529464721680e+00 4.685235321521759033e-01 -6.227904558181762695e-01 1.018311142921447754e+00
3.810000000000000000e+02 7.111855316162109375e+01 3.310350418090820312e+01 -3.000831127166748047e+00 3.086174130439758301e-01 -8.076641559600830078e-01 8.133700489997863770e-01
3.820000000000000000e+02 7.114961242675781250e+01 3.294414901733398438e+01 -2.355671644210815430e+00 5.697304606437683105e-01 -5.357823967933654785e-01 1.171901345252990723e+00
3.830000000000000000e+02 7.177369689941406250e+01 3.298191452026367188e+01 -8.314208984375000000e-01 1.255524635314941406e+00 1.272311210632324219e-01 2.225339889526367188e+00
3.840000000000000000e+02 7.155197143554687500e+01 3.477271270751953125e+01 -1.260897368192672729e-01 6.018575429916381836e-01 1.427303403615951538e-01 -1.173802971839904785e+00
3.850000000000000000e+02 7.137858581542968750e+01 3.306429672241210938e+01 -2.317685604095458984e+00 4.995783269405364990e-01 -5.454321503639221191e-01 1.159647583961486816e+00
3.860000000000000000e+02 7.172248840332031250e+01 3.321575164794921875e+01 -1.949453473091125488e+00 5.774466991424560547e-01 -4.116020202636718750e-01 1.353827238082885742e+00
3.870000000000000000e+02 6.978519439697265625e+01 3.426661300659179688e+01 -3.936632871627807617e+00 -1.006215885281562805e-01 -1.211176395416259766e+00 1.998976767063140869e-01
3.880000000000000000e+02 7.037770080566406250e+01 3.490012741088867188e+01 -1.407748937606811523e+00 3.252466022968292236e-01 -3.247506916522979736e-01 -2.318995445966720581e-01
3.890000000000000000e+02 6.982517242431640625e+01 3.477268981933593750e+01 -2.244324445724487305e+00 3.637117892503738403e-02 -6.623859405517578125e-01 5.027554929256439209e-02
3.900000000000000000e+02 6.851888275146484375e+01 3.503909683227539062e+01 -1.950943946838378906e+00 5.466607213020324707e-02 -5.688833594322204590e-01 2.780084908008575439e-01
3.910000000000000000e+02 7.013092041015625000e+01 3.487102127075195312e+01 -1.833786249160766602e+00 2.213934361934661865e-01 -4.837178289890289307e-01 -1.642201095819473267e-01
3.920000000000000000e+02 7.036512756347656250e+01 3.510098648071289062e+01 -1.004272222518920898e+00 3.015269339084625244e-01 -2.108235806226730347e-01 -4.288485050201416016e-01
3.930000000000000000e+02 7.006755828857421875e+01 3.515709304809570312e+01 -1.106474399566650391e+00 3.495611846446990967e-01 -2.270739674568176270e-01 -3.003623485565185547e-01
3.940000000000000000e+02 6.786721038818359375e+01 3.506310653686523438e+01 -1.976580142974853516e+00 6.375368684530258179e-02 -5.738479495048522949e-01 3.961400389671325684e-01
3.950000000000000000e+02 6.861566162109375000e+01 3.429807662963867188e+01 -3.481551885604858398e+00 -5.832272581756114960e-03 -1.046215176582336426e+00 2.230503410100936890e-01
3.960000000000000000e+02 6.931838226318359375e+01 3.421669769287109375e+01 -3.825727462768554688e+00 3.716151788830757141e-02 -1.136569738388061523e+00 1.783863455057144165e-01
3.970000000000000000e+02 6.788445281982421875e+01 3.432289123535156250e+01 -3.083688974380493164e+00 5.822095554322004318e-03 -9.233601093292236328e-01 2.268855571746826172e-01
3.980000000000000000e+02 7.033971405029296875e+01 3.450143432617187500e+01 -2.815700531005859375e+00 1.556613892316818237e-01 -7.980117201805114746e-01 6.197249889373779297e-02
3.990000000000000000e+02 7.032398223876953125e+01 3.429235839843750000e+01 -3.691552162170410156e+00 1.874810606241226196e-01 -1.051221370697021484e+00 1.500876247882843018e-01
4.000000000000000000e+02 7.021263885498046875e+01 3.406793975830078125e+01 -4.423201084136962891e+00 7.566604763269424438e-02 -1.304260492324829102e+00 1.613998264074325562e-01
4.010000000000000000e+02 6.966205596923828125e+01 3.518857955932617188e+01 -1.320736885070800781e+00 2.259320616722106934e-01 -3.284414410591125488e-01 -7.320859283208847046e-02
4.020000000000000000e+02 7.029132843017578125e+01 3.530997085571289062e+01 -6.013615131378173828e-01 4.780281484127044678e-01 -3.700001165270805359e-02 -5.857645869255065918e-01
4.030000000000000000e+02 6.912877655029296875e+01 3.509711456298828125e+01 -1.802427172660827637e+00 1.589987874031066895e-01 -4.930285215377807617e-01 1.850044876337051392e-01
4.040000000000000000e+02 6.943998718261718750e+01 3.460109710693359375e+01 -2.745613336563110352e+00 2.197133935987949371e-02 -8.170925378799438477e-01 1.328513324260711670e-01
4.050000000000000000e+02 7.004383850097656250e+01 3.446243667602539062e+01 -3.154093980789184570e+00 9.229470044374465942e-02 -9.185398221015930176e-01 3.749278932809829712e-02
4.060000000000000000e+02 7.035479736328125000e+01 3.470673751831054688e+01 -2.187579631805419922e+00 2.838388681411743164e-01 -5.711222290992736816e-01 -7.644294947385787964e-02
4.070000000000000000e+02 6.640644073486328125e+01 3.439306259155273438e+01 -2.471120119094848633e+00 -3.729120641946792603e-02 -7.525233626365661621e-01 2.814179360866546631e-01
4.080000000000000000e+02 6.643914794921875000e+01 3.513235473632812500e+01 -1.662667512893676758e+00 -7.738705258816480637e-03 -5.011218786239624023e-01 4.987922608852386475e-01
4.090000000000000000e+02 6.717790222167968750e+01 3.509513473510742188e+01 -1.851225018501281738e+00 4.028993099927902222e-02 -5.432805418968200684e-01 4.415238201618194580e-01
4.100000000000000000e+02 6.496202087402343750e+01 3.520683670043945312e+01 -1.295386195182800293e+00 -2.036955580115318298e-02 -3.947267234325408936e-01 4.617419242858886719e-01
4.110000000000000000e+02 6.570060729980468750e+01 3.516909790039062500e+01 -1.470643162727355957e+00 -8.750292658805847168e-02 -4.674438238143920898e-01 4.790438413619995117e-01
4.120000000000000000e+02 6.491574096679687500e+01 3.446823501586914062e+01 -1.844805479049682617e+00 -3.677821531891822815e-02 -5.644751191139221191e-01 2.466244548559188843e-01
4.130000000000000000e+02 6.715198516845703125e+01 3.435549545288085938e+01 -2.758664846420288086e+00 2.093351446092128754e-02 -8.213194012641906738e-01 2.723159790039062500e-01
4.140000000000000000e+02 6.566111755371093750e+01 3.443015289306640625e+01 -2.158132076263427734e+00 -7.281949743628501892e-03 -6.496241688728332520e-01 2.672236859798431396e-01
4.150000000000000000e+02 6.268238067626953125e+01 3.464594268798828125e+01 -1.110158562660217285e+00 1.241289894096553326e-03 -3.326751887798309326e-01 1.935608386993408203e-01
4.160000000000000000e+02 6.274868774414062500e+01 3.538298034667968750e+01 -8.376491665840148926e-01 -9.001956135034561157e-02 -2.783006131649017334e-01 3.800951540470123291e-01
4.170000000000000000e+02 6.193933486938476562e+01 3.470622634887695312e+01 -9.038790464401245117e-01 -4.206131398677825928e-02 -2.837820947170257568e-01 1.794513165950775146e-01
4.180000000000000000e+02 6.342625427246093750e+01 3.458350372314453125e+01 -1.321477413177490234e+00 -7.494083046913146973e-02 -4.189254641532897949e-01 2.254888415336608887e-01
4.190000000000000000e+02 6.422395324707031250e+01 3.525720977783203125e+01 -1.151513099670410156e+00 -7.683605700731277466e-02 -3.685047328472137451e-01 4.023831784725189209e-01
4.200000000000000000e+02 6.417095184326171875e+01 3.451905822753906250e+01 -1.563443541526794434e+00 9.544169530272483826e-03 -4.661698043346405029e-01 2.576127648353576660e-01
4.210000000000000000e+02 6.201229858398437500e+01 3.544270706176757812e+01 -6.946868896484375000e-01 -5.596966296434402466e-02 -2.251969724893569946e-01 3.139590620994567871e-01
4.220000000000000000e+02 6.348590850830078125e+01 3.532109832763671875e+01 -1.025789380073547363e+00 -5.730602890253067017e-02 -3.249286115169525146e-01 3.899002671241760254e-01
4.230000000000000000e+02 5.980386352539062500e+01 3.570315170288085938e+01 -3.803667426109313965e-01 -6.819527596235275269e-02 -1.345686018466949463e-01 2.033699303865432739e-01
4.240000000000000000e+02 5.971332931518554688e+01 3.496871185302734375e+01 -4.734767973423004150e-01 -3.093390539288520813e-02 -1.513232141733169556e-01 1.162824854254722595e-01
4.250000000000000000e+02 5.897272491455078125e+01 3.505795669555664062e+01 -3.718665540218353271e-01 -2.061010524630546570e-02 -1.177429929375648499e-01 9.105031192302703857e-02
4.260000000000000000e+02 6.045466995239257812e+01 3.487708282470703125e+01 -5.981339216232299805e-01 -2.984178997576236725e-02 -1.883927136659622192e-01 1.446791291236877441e-01
4.270000000000000000e+02 6.127589035034179688e+01 3.551908111572265625e+01 -5.611718893051147461e-01 -8.015944063663482666e-02 -1.923993974924087524e-01 2.866925597190856934e-01
4.280000000000000000e+02 6.119675064086914062e+01 3.478322982788085938e+01 -7.356463074684143066e-01 -1.761868968605995178e-02 -2.259795069694519043e-01 1.566807031631469727e-01
4.290000000000000000e+02 5.906895828247070312e+01 3.579169464111328125e+01 -2.830657362937927246e-01 -5.031096190214157104e-02 -1.000130102038383484e-01 1.873253434896469116e-01
4.300000000000000000e+02 6.053950500488281250e+01 3.561222839355468750e+01 -4.519762992858886719e-01 -6.566542387008666992e-02 -1.552925109863281250e-01 2.282975912094116211e-01
4.310000000000000000e+02 5.676622772216796875e+01 3.537297821044921875e+01 -1.474410146474838257e-01 -1.208296511322259903e-02 -4.785719513893127441e-02 4.891390353441238403e-02
4.320000000000000000e+02 5.690399551391601562e+01 3.610068511962890625e+01 -1.056776791810989380e-01 -4.322912916541099548e-02 -4.467204213142395020e-02 1.025774851441383362e-01
4.330000000000000000e+02 5.603319931030273438e+01 3.547965621948242188e+01 -9.323529899120330811e-02 -9.551773779094219208e-03 -3.083612211048603058e-02 4.048272594809532166e-02
4.340000000000000000e+02 5.750018692016601562e+01 3.526519775390625000e+01 -2.080274671316146851e-01 -2.484816685318946838e-02 -6.986269354820251465e-02 6.669821590185165405e-02
4.350000000000000000e+02 5.834177017211914062e+01 3.588873672485351562e+01 -1.979863345623016357e-01 -5.514955148100852966e-02 -7.594076544046401978e-02 1.415037512779235840e-01
4.360000000000000000e+02 5.823495101928710938e+01 3.515648651123046875e+01 -2.854199707508087158e-01 -1.162965223193168640e-02 -8.911488950252532959e-02 8.369269967079162598e-02
4.370000000000000000e+02 5.618644332885742188e+01 3.620509338378906250e+01 -6.903562694787979126e-02 -2.965974435210227966e-02 -2.960861101746559143e-02 7.645910233259201050e-02
4.380000000000000000e+02 5.762247848510742188e+01 3.599517822265625000e+01 -1.566357612609863281e-01 -4.105784744024276733e-02 -5.930808186531066895e-02 1.156226992607116699e-01
4.390000000000000000e+02 5.384532546997070312e+01 3.667871856689453125e+01 -5.100884940475225449e-03 -5.683092772960662842e-02 -1.857954449951648712e-02 1.706148963421583176e-03
4.400000000000000000e+02 5.390139770507812500e+01 3.633741760253906250e+01 1.229960843920707703e-02 -2.800526842474937439e-02 -4.711698275059461594e-03 1.499268319457769394e-02
4.410000000000000000e+02 5.457950592041015625e+01 3.674075698852539062e+01 -1.030097622424364090e-02 -3.730393201112747192e-02 -1.428147312253713608e-02 4.230603575706481934e-02
4.420000000000000000e+02 5.383747482299804688e+01 3.704690551757812500e+01 -7.728175260126590729e-04 -7.468065619468688965e-02 -2.263604104518890381e-02 8.759984746575355530e-03
4.430000000000000000e+02 5.522666168212890625e+01 3.569715881347656250e+01 -4.892148450016975403e-02 -1.375281810760498047e-02 -1.880229078233242035e-02 2.972468920052051544e-02
4.440000000000000000e+02 5.406111526489257812e+01 3.588264846801757812e+01 -1.248588878661394119e-02 -7.159647531807422638e-03 -5.893660709261894226e-03 9.484889917075634003e-03
4.450000000000000000e+02 5.539877319335937500e+01 3.641811752319335938e+01 -3.084673359990119934e-02 -3.476096689701080322e-02 -1.968230865895748138e-02 6.371784955263137817e-02
4.460000000000000000e+02 5.409225845336914062e+01 3.654366683959960938e+01 4.165281541645526886e-03 -4.286785796284675598e-02 -1.161077246069908142e-02 2.491663768887519836e-02
4.470000000000000000e+02 5.450753784179687500e+01 3.614347457885742188e+01 -1.333638746291399002e-02 -1.818550750613212585e-02 -9.456568397581577301e-03 2.968893572688102722e-02
4.480000000000000000e+02 5.406600952148437500e+01 3.695836257934570312e+01 -4.118204582482576370e-03 -6.691111624240875244e-02 -2.130879648029804230e-02 2.033432200551033020e-02
4.490000000000000000e+02 5.344662094116210938e+01 3.479689788818359375e+01 -1.128654927015304565e-01 -7.887349277734756470e-02 -5.752169340848922729e-02 -1.006481200456619263e-01
4.500000000000000000e+02 5.366340637207031250e+01 3.510863113403320312e+01 -6.886530667543411255e-02 -2.162651345133781433e-02 -2.714754454791545868e-02 -7.457221299409866333e-02
4.510000000000000000e+02 5.494368743896484375e+01 3.414394760131835938e+01 -8.672099113464355469e-01 6.015144288539886475e-02 -2.421175390481948853e-01 -3.222684264183044434e-01
4.520000000000000000e+02 5.424127578735351562e+01 3.501722717285156250e+01 -2.309707552194595337e-01 -7.370403502136468887e-03 -7.150234282016754150e-02 -8.876531571149826050e-02
4.530000000000000000e+02 5.503524398803710938e+01 3.488909530639648438e+01 -5.251836180686950684e-01 2.504115924239158630e-02 -1.500427275896072388e-01 -5.890452861785888672e-02
4.540000000000000000e+02 5.318430709838867188e+01 3.449492645263671875e+01 -2.093185782432556152e-01 -1.402640491724014282e-01 -1.048747897148132324e-01 -1.673583835363388062e-01
4.550000000000000000e+02 5.394946670532226562e+01 3.541463851928710938e+01 -7.086283713579177856e-02 -2.680968609638512135e-04 -2.133928053081035614e-02 -4.425849765539169312e-03
4.560000000000000000e+02 5.366458129882812500e+01 3.433396148681640625e+01 -3.979620039463043213e-01 -7.433315366506576538e-02 -1.416885405778884888e-01 -2.637187540531158447e-01
4.570000000000000000e+02 5.396925354003906250e+01 3.460595321655273438e+01 -3.927532434463500977e-01 1.558383955853059888e-04 -1.177792176604270935e-01 -1.613317281007766724e-01
4.580000000000000000e+02 5.424771118164062500e+01 3.423815917968750000e+01 -6.331883072853088379e-01 1.481902040541172028e-02 -1.855107843875885010e-01 -2.956625223159790039e-01
4.590000000000000000e+02 5.297615051269531250e+01 3.412331390380859375e+01 -2.950974106788635254e-01 -2.664724588394165039e-01 -1.684709638357162476e-01 -3.007811903953552246e-01
4.600000000000000000e+02 5.434761810302734375e+01 3.290420913696289062e+01 -1.106022834777832031e+00 2.886569872498512268e-02 -3.231471478939056396e-01 -6.271947026252746582e-01
4.610000000000000000e+02 5.951853942871093750e+01 3.219971466064453125e+01 -2.228747129440307617e+00 1.440962553024291992e-01 -6.253952980041503906e-01 -5.446820259094238281e-01
4.620000000000000000e+02 5.278238677978515625e+01 3.371775054931640625e+01 -4.343086183071136475e-01 -3.690729439258575439e-01 -2.410144656896591187e-01 -3.763492703437805176e-01
4.630000000000000000e+02 4.947778320312500000e+01 3.019192314147949219e+01 -1.387125730514526367e+00 -1.276975154876708984e+00 -7.992302775382995605e-01 -1.328951478004455566e+00
4.640000000000000000e+02 4.744820404052734375e+01 2.828471374511718750e+01 -1.602064490318298340e+00 -1.311607480049133301e+00 -8.741015791893005371e-01 -1.450927972793579102e+00
4.650000000000000000e+02 5.617261123657226562e+01 2.352730178833007812e+01 -6.376470923423767090e-01 4.123204052448272705e-01 -6.759800016880035400e-02 -6.303105950355529785e-01
4.660000000000000000e+02 6.571962738037109375e+01 1.086854553222656250e+01 3.725314140319824219e-01 3.726166009902954102e+00 1.229609251022338867e+00 8.021212816238403320e-01
4.670000000000000000e+02 7.208235168457031250e+01 4.356891632080078125e+00 1.501330733299255371e-01 5.755643844604492188e+00 1.771733045578002930e+00 6.263400912284851074e-01
4.680000000000000000e+02 7.806373596191406250e+01 -2.731429815292358398e+00 8.561708964407444000e-03 6.783771991729736328e+00 2.037700176239013672e+00 1.284909695386886597e-01
4.690000000000000000e+02 7.934798431396484375e+01 2.798365831375122070e+00 1.974453451111912727e-03 7.523103237152099609e+00 2.257523298263549805e+00 5.168433859944343567e-02
4.700000000000000000e+02 7.806159973144531250e+01 4.223873615264892578e+00 1.111893076449632645e-02 7.365490913391113281e+00 2.212982892990112305e+00 1.943030208349227905e-01
4.710000000000000000e+02 7.935209655761718750e+01 8.383522033691406250e+00 3.213881282135844231e-03 8.213012695312500000e+00 2.464868068695068359e+00 7.367344945669174194e-02
4.720000000000000000e+02 7.344956970214843750e+01 1.750378417968750000e+01 1.446643024682998657e-01 6.990921974182128906e+00 2.140676021575927734e+00 1.041765570640563965e+00
4.730000000000000000e+02 6.466780853271484375e+01 2.832403945922851562e+01 -7.538061141967773438e-01 6.925625801086425781e-01 -1.837306842207908630e-02 -2.019777707755565643e-02
4.740000000000000000e+02 5.874518585205078125e+01 3.288900756835937500e+01 -2.166358232498168945e+00 1.263069808483123779e-01 -6.120153665542602539e-01 -4.144223034381866455e-01
4.750000000000000000e+02 5.762319564819335938e+01 2.885356903076171875e+01 -1.376648068428039551e+00 3.057308495044708252e-01 -3.212751746177673340e-01 -9.124138355255126953e-01
4.760000000000000000e+02 5.851591491699218750e+01 2.816080093383789062e+01 -1.226156234741210938e+00 3.538604378700256348e-01 -2.616887390613555908e-01 -8.609326481819152832e-01
4.770000000000000000e+02 3.280661773681640625e+01 -1.419356060028076172e+01 -4.592158645391464233e-02 -3.845097124576568604e-01 -1.291293948888778687e-01 1.800759881734848022e-01
4.780000000000000000e+02 3.325365829467773438e+01 -1.042707061767578125e+01 4.210060238838195801e-01 -3.466488420963287354e-01 2.230715565383434296e-02 -1.296253204345703125e-01
4.790000000000000000e+02 4.043483734130859375e+01 -9.798114776611328125e+00 5.204415917396545410e-01 -2.431639730930328369e-01 8.318328857421875000e-02 7.301639299839735031e-03
4.800000000000000000e+02 4.714002609252929688e+01 -1.369027328491210938e+01 3.470814228057861328e-01 6.541349887847900391e-01 3.003649413585662842e-01 9.135697036981582642e-02
4.810000000000000000e+02 6.736617279052734375e+01 -1.088736343383789062e+01 1.428866237401962280e-01 4.301935195922851562e+00 1.333446621894836426e+00 3.849262595176696777e-01
4.820000000000000000e+02 7.288942718505859375e+01 -1.150298500061035156e+01 4.842752218246459961e-02 5.381192207336425781e+00 1.628885984420776367e+00 2.615482211112976074e-01
4.830000000000000000e+02 7.936096191406250000e+01 -1.248750591278076172e+01 6.754143978469073772e-04 6.473343372344970703e+00 1.942205667495727539e+00 1.974955387413501740e-02
4.840000000000000000e+02 7.814323425292968750e+01 -9.608106613159179688e+00 3.055868903174996376e-03 6.397518157958984375e+00 1.920172214508056641e+00 8.213708549737930298e-02
4.850000000000000000e+02 7.937945556640625000e+01 -5.541026115417480469e+00 1.853063986345659941e-05 6.843916416168212891e+00 2.053180456161499023e+00 2.787684090435504913e-02
4.860000000000000000e+02 7.126130676269531250e+01 -2.508390188217163086e+00 1.232004389166831970e-01 5.275344848632812500e+00 1.619563579559326172e+00 4.804799556732177734e-01
4.870000000000000000e+02 6.651360321044921875e+01 -3.577602624893188477e+00 2.254123985767364502e-01 4.158381462097167969e+00 1.315138220787048340e+00 5.321914553642272949e-01
4.880000000000000000e+02 6.005195999145507812e+01 -8.288496732711791992e-01 3.662677407264709473e-01 2.685008525848388672e+00 9.153828620910644531e-01 5.221168994903564453e-01
4.890000000000000000e+02 4.594545745849609375e+01 -5.725398540496826172e+00 4.703565537929534912e-01 3.228350877761840820e-01 2.379574924707412720e-01 1.431759744882583618e-01
4.900000000000000000e+02 4.171800231933593750e+01 -6.829817295074462891e+00 5.266157388687133789e-01 -1.723167449235916138e-01 1.062896922230720520e-01 6.480212509632110596e-02
4.910000000000000000e+02 3.520905303955078125e+01 -7.216980934143066406e+00 6.719653010368347168e-01 -5.493418574333190918e-01 3.678703680634498596e-02 -8.567769080400466919e-02
4.920000000000000000e+02 2.745991516113281250e+01 -6.277227401733398438e+00 8.343425393104553223e-01 7.318847775459289551e-01 4.698681831359863281e-01 -8.722299933433532715e-01
4.930000000000000000e+02 2.562237548828125000e+01 -4.112418174743652344e+00 1.429438948631286621e+00 1.111802220344543457e+00 7.623723745346069336e-01 -1.351768016815185547e+00
4.940000000000000000e+02 2.845437049865722656e+01 -5.712810039520263672e+00 1.061872005462646484e+00 3.240079879760742188e-01 4.157640039920806885e-01 -6.692010760307312012e-01
4.950000000000000000e+02 3.229415893554687500e+01 -1.116591739654541016e+01 2.211204171180725098e-01 -2.485222220420837402e-01 -8.220539428293704987e-03 -9.760021418333053589e-02
4.960000000000000000e+02 3.130841064453125000e+01 -1.188787269592285156e+01 7.902190089225769043e-02 -1.294577121734619141e-01 -1.513074431568384171e-02 1.200617197901010513e-02
4.970000000000000000e+02 3.237668609619140625e+01 1.293432712554931641e+01 -1.406379103660583496e+00 -1.520155072212219238e+00 -8.779602646827697754e-01 -1.487426280975341797e+00
4.980000000000000000e+02 3.183899116516113281e+01 1.234708404541015625e+01 -1.469401359558105469e+00 -1.653913140296936035e+00 -9.369943141937255859e-01 -1.553228855133056641e+00
4.990000000000000000e+02 3.210717773437500000e+01 1.264297580718994141e+01 -1.410713195800781250e+00 -1.588463544845581055e+00 -8.997530341148376465e-01 -1.503464698791503906e+00
5.000000000000000000e+02 3.128433418273925781e+01 1.171481800079345703e+01 -1.667087674140930176e+00 -1.617723226547241211e+00 -9.854432940483093262e-01 -1.594589233398437500e+00
5.010000000000000000e+02 3.068260955810546875e+01 1.123232460021972656e+01 -1.687370657920837402e+00 -1.349781870841979980e+00 -9.111457467079162598e-01 -1.536775946617126465e+00
5.020000000000000000e+02 3.068841934204101562e+01 7.415895938873291016e+00 -1.220903277397155762e+00 -1.458140850067138672e+00 -8.037132620811462402e-01 -1.413666963577270508e+00
5.030000000000000000e+02 2.955693435668945312e+01 5.745527744293212891e+00 -2.290206432342529297e+00 -1.307985186576843262e+00 -1.079457521438598633e+00 -1.227906227111816406e+00
5.040000000000000000e+02 3.049762535095214844e+01 6.236681938171386719e+00 -1.808494448661804199e+00 -1.135713934898376465e+00 -8.832625150680541992e-01 -1.344358205795288086e+00
5.050000000000000000e+02 2.298435783386230469e+01 1.738117337226867676e+00 -3.245430946350097656e+00 -5.589773058891296387e-01 -1.141322493553161621e+00 -1.838940739631652832e+00
5.060000000000000000e+02 2.268477439880371094e+01 1.248057603836059570e+00 -2.924512147903442383e+00 -2.471938431262969971e-01 -9.515118002891540527e-01 -1.927770495414733887e+00
5.070000000000000000e+02 2.255704116821289062e+01 1.105518817901611328e+00 -2.756932020187377930e+00 -4.020025134086608887e-01 -9.476803541183471680e-01 -2.061909198760986328e+00
5.080000000000000000e+02 2.200028228759765625e+01 1.058409929275512695e+00 -2.666269063949584961e+00 -5.865902900695800781e-01 -9.758578538894653320e-01 -2.450841665267944336e+00
5.090000000000000000e+02 1.953525352478027344e+01 -4.712743461132049561e-01 -2.929236173629760742e+00 -4.491332530975341797e+00 -2.226170778274536133e+00 -1.970437407493591309e+00
5.100000000000000000e+02 1.582868003845214844e+01 -2.457462787628173828e+00 -1.488192915916442871e+00 -5.807582736015319824e-01 -6.206853985786437988e-01 -7.709567546844482422e-01
5.110000000000000000e+02 1.171180057525634766e+01 -2.215537309646606445e+00 -5.679665207862854004e-01 -4.210645798593759537e-03 -1.716531515121459961e-01 -1.987725347280502319e-01
5.120000000000000000e+02 1.097348976135253906e+01 -2.106524467468261719e+00 -4.588480293750762939e-01 -1.558280922472476959e-02 -1.423292458057403564e-01 -1.583354026079177856e-01
5.130000000000000000e+02 9.737808227539062500e+00 -6.789736270904541016e+00 -3.236361145973205566e-01 -2.869019508361816406e-01 -1.831614226102828979e-01 -5.099017620086669922e-01
5.140000000000000000e+02 7.089797496795654297e+00 -1.959366607666015625e+01 7.839609682559967041e-02 -7.624877691268920898e-01 -2.052275091409683228e-01 -3.549370765686035156e-01
5.150000000000000000e+02 7.070658206939697266e+00 -2.682775115966796875e+01 6.943130493164062500e-02 -9.320064187049865723e-01 -2.587725222110748291e-01 -2.390133440494537354e-01
5.160000000000000000e+02 7.569199085235595703e+00 -4.102301406860351562e+01 5.477955564856529236e-02 -1.056495189666748047e+00 -3.005146682262420654e-01 -2.413129992783069611e-02
5.170000000000000000e+02 1.206025218963623047e+01 -3.746847534179687500e+01 1.441159248352050781e-01 -6.916375160217285156e-01 -1.642564833164215088e-01 -9.690399467945098877e-02
5.180000000000000000e+02 2.009670257568359375e+01 -3.909683609008789062e+01 3.326194584369659424e-01 -1.129044368863105774e-01 6.591450423002243042e-02 -8.509462326765060425e-02
5.190000000000000000e+02 1.673444747924804688e+01 -4.058846664428710938e+01 2.491210550069808960e-01 -3.352933526039123535e-01 -2.585168927907943726e-02 -4.474045336246490479e-02
5.200000000000000000e+02 1.393878459930419922e+01 -2.926730728149414062e+01 1.742905229330062866e-01 -5.065811276435852051e-01 -9.968718141317367554e-02 -2.550838291645050049e-01
5.210000000000000000e+02 1.885817337036132812e+01 -2.542314720153808594e+01 2.482761442661285400e-01 -1.294212639331817627e-01 3.565646335482597351e-02 -3.161194622516632080e-01
5.220000000000000000e+02 1.924689102172851562e+01 -1.772326087951660156e+01 2.451862245798110962e-01 -1.424747854471206665e-01 3.081343509256839752e-02 -2.938163876533508301e-01
5.230000000000000000e+02 2.226626586914062500e+01 -1.313932418823242188e+01 1.752721667289733887e-01 2.351846992969512939e-01 1.231370568275451660e-01 -1.729721128940582275e-01
5.240000000000000000e+02 1.979555511474609375e+01 -8.164840698242187500e+00 7.843209803104400635e-02 -7.872843742370605469e-01 -2.126556932926177979e-01 1.340042054653167725e-01
5.250000000000000000e+02 1.794322013854980469e+01 -1.036493110656738281e+01 1.672418117523193359e-01 -8.100380897521972656e-01 -1.928388774394989014e-01 -3.790422081947326660e-01
5.260000000000000000e+02 1.943258285522460938e+01 -6.816353321075439453e+00 -1.449397057294845581e-01 -1.406376004219055176e+00 -4.653947055339813232e-01 4.297490790486335754e-02
5.270000000000000000e+02 1.903269195556640625e+01 -3.979160308837890625e+00 -5.583919286727905273e-01 -4.095884323120117188e+00 -1.396282911300659180e+00 -6.659989953041076660e-01
5.280000000000000000e+02 1.023805141448974609e+01 -2.000142335891723633e+00 -3.668930828571319580e-01 6.935145240277051926e-03 -1.079873815178871155e-01 -1.287090778350830078e-01
5.290000000000000000e+02 3.772398948669433594e+00 -1.975588083267211914e+00 -3.473557904362678528e-02 -1.534918881952762604e-02 -1.502543035894632339e-02 -1.693295501172542572e-02
5.300000000000000000e+02 1.644168615341186523e+00 -1.065361785888671875e+01 -6.342621985822916031e-03 -3.399779200553894043e-01 -1.038961634039878845e-01 -1.243028044700622559e-01
5.310000000000000000e+02 1.825383901596069336e+00 -1.754639053344726562e+01 4.291057121008634567e-03 -8.378512859344482422e-01 -2.500680685043334961e-01 -1.360704600811004639e-01
5.320000000000000000e+02 6.319571733474731445e-01 -2.472188758850097656e+01 1.986159710213541985e-03 -1.345071673393249512e+00 -4.029256403446197510e-01 -3.006164357066154480e-02
5.330000000000000000e+02 7.860833406448364258e-01 -3.174207115173339844e+01 -2.609430521260946989e-04 -1.594939589500427246e+00 -4.785601496696472168e-01 -1.734421961009502411e-02
5.340000000000000000e+02 4.020741462707519531e+00 -3.894315719604492188e+01 4.721282795071601868e-02 -1.401113033294677734e+00 -4.061700403690338135e-01 -3.964734822511672974e-02
5.350000000000000000e+02 1.234339714050292969e+00 -3.747957229614257812e+01 9.200047701597213745e-03 -1.672097325325012207e+00 -4.988691806793212891e-01 -4.912545438855886459e-03
5.360000000000000000e+02 2.467488098144531250e+01 -3.801043319702148438e+01 4.595873057842254639e-01 1.673485636711120605e-01 1.880807578563690186e-01 -1.653646975755691528e-01
5.370000000000000000e+02 2.215467071533203125e+01 -3.664207077026367188e+01 3.862675428390502930e-01 4.334005340933799744e-02 1.288822740316390991e-01 -1.761400848627090454e-01
5.380000000000000000e+02 2.653606796264648438e+01 -3.356206512451171875e+01 4.285154938697814941e-01 3.924112617969512939e-01 2.462780326604843140e-01 -3.237869739532470703e-01
5.390000000000000000e+02 2.632993316650390625e+01 -2.022948646545410156e+01 1.865394115447998047e-01 5.867658853530883789e-01 2.319915890693664551e-01 -3.149250745773315430e-01
5.400000000000000000e+02 2.603202247619628906e+01 -2.322738075256347656e+01 1.993722319602966309e-01 5.355858802795410156e-01 2.204874306917190552e-01 -3.607102036476135254e-01
5.410000000000000000e+02 2.370486259460449219e+01 -1.548112869262695312e+01 2.090515196323394775e-01 3.770536780357360840e-01 1.758315563201904297e-01 -2.522866427898406982e-01
5.420000000000000000e+02 2.393095016479492188e+01 -1.828268623352050781e+01 1.621573567390441895e-01 3.440360128879547119e-01 1.518580019474029541e-01 -2.997594177722930908e-01
5.430000000000000000e+02 3.053917312622070312e+01 -3.629180145263671875e+01 5.788586139678955078e-01 5.531343221664428711e-01 3.395978808403015137e-01 -4.073888361454010010e-01
5.440000000000000000e+02 3.735832214355468750e+01 -3.764214324951171875e+01 9.123548269271850586e-01 6.308211684226989746e-01 4.629527926445007324e-01 -6.941978931427001953e-01
5.450000000000000000e+02 3.279394912719726562e+01 -3.247291946411132812e+01 5.784561634063720703e-01 8.458810448646545410e-01 4.273011684417724609e-01 -6.415238380432128906e-01
5.460000000000000000e+02 3.199968147277832031e+01 -3.137586593627929688e+01 4.682574272155761719e-01 9.508068561553955078e-01 4.257192611694335938e-01 -6.380203962326049805e-01
5.470000000000000000e+02 3.164342880249023438e+01 -3.300034713745117188e+01 4.874660372734069824e-01 7.761781215667724609e-01 3.790932595729827881e-01 -5.292525291442871094e-01
5.480000000000000000e+02 2.991389083862304688e+01 -2.774580764770507812e+01 2.517339289188385010e-01 8.406543135643005371e-01 3.277164697647094727e-01 -4.398636817932128906e-01
5.490000000000000000e+02 2.803154182434082031e+01 -2.400166893005371094e+01 1.969898939132690430e-01 7.300821542739868164e-01 2.781216204166412354e-01 -3.874947726726531982e-01
5.500000000000000000e+02 4.464113235473632812e+01 -4.106483459472656250e+01 1.780896663665771484e+00 8.695274591445922852e-01 7.951272130012512207e-01 9.304555505514144897e-02
5.510000000000000000e+02 4.492224121093750000e+01 -3.918041610717773438e+01 1.355846524238586426e+00 9.107497930526733398e-01 6.799789071083068848e-01 4.790795743465423584e-01
5.520000000000000000e+02 4.452032852172851562e+01 -3.763383483886718750e+01 7.846730947494506836e-01 1.276522874832153320e+00 6.183587908744812012e-01 7.824869751930236816e-01
5.530000000000000000e+02 5.432300567626953125e+01 -3.732923126220703125e+01 4.815727174282073975e-01 1.896715402603149414e+00 7.134864330291748047e-01 3.281808495521545410e-01
5.540000000000000000e+02 5.451787567138671875e+01 -2.108311462402343750e+01 1.003764495253562927e-01 2.007871627807617188e+00 6.324744224548339844e-01 1.995406001806259155e-01
5.550000000000000000e+02 5.499741744995117188e+01 -1.921516609191894531e+01 1.450620144605636597e-01 2.068638086318969727e+00 6.641100049018859863e-01 2.132596522569656372e-01
5.560000000000000000e+02 5.354420852661132812e+01 -1.870964050292968750e+01 1.533390879631042480e-01 1.817354321479797363e+00 5.912080407142639160e-01 1.774934977293014526e-01
5.570000000000000000e+02 4.799804306030273438e+01 -1.913660621643066406e+01 1.436227560043334961e-01 8.600562214851379395e-01 3.011036813259124756e-01 9.272456169128417969e-02
5.580000000000000000e+02 5.015059280395507812e+01 -1.909202957153320312e+01 1.456942856311798096e-01 1.229153513908386230e+00 4.124543368816375732e-01 1.221660673618316650e-01
5.590000000000000000e+02 4.619062805175781250e+01 -2.507189369201660156e+01 -9.024725109338760376e-02 5.477635860443115234e-01 1.372548937797546387e-01 1.346987932920455933e-01
5.600000000000000000e+02 4.719106292724609375e+01 -3.043152999877929688e+01 -1.527374982833862305e-01 7.854720354080200195e-01 1.898203641176223755e-01 2.201694101095199585e-01
5.610000000000000000e+02 4.659336471557617188e+01 -3.258875656127929688e+01 -1.675053238868713379e-01 6.748026013374328613e-01 1.521891802549362183e-01 2.789429128170013428e-01
5.620000000000000000e+02 5.552081298828125000e+01 -3.085374069213867188e+01 9.344547241926193237e-02 2.235602855682373047e+00 6.987145543098449707e-01 3.141539692878723145e-01
5.630000000000000000e+02 5.775190734863281250e+01 -4.087547683715820312e+01 4.538289010524749756e-01 2.422990322113037109e+00 8.630457520484924316e-01 6.731426715850830078e-02
5.640000000000000000e+02 6.250063705444335938e+01 -4.088442230224609375e+01 2.687745690345764160e-01 3.232775211334228516e+00 1.050464987754821777e+00 5.050160363316535950e-02
5.650000000000000000e+02 6.686166381835937500e+01 -3.048002624511718750e+01 7.921950519084930420e-02 4.038844585418701172e+00 1.235419273376464844e+00 2.022141665220260620e-01
5.660000000000000000e+02 6.579925537109375000e+01 -2.543918991088867188e+01 5.719385296106338501e-02 3.924913883209228516e+00 1.194632291793823242e+00 2.333338558673858643e-01
5.670000000000000000e+02 6.377978515625000000e+01 -2.017682075500488281e+01 8.123406022787094116e-02 3.578330993652343750e+00 1.097869515419006348e+00 2.690390348434448242e-01
5.680000000000000000e+02 6.499184417724609375e+01 -1.815044212341308594e+01 9.916009753942489624e-02 3.807647466659545898e+00 1.172042250633239746e+00 2.829909324645996094e-01
5.690000000000000000e+02 5.816866302490234375e+01 -3.756620407104492188e+01 3.612424433231353760e-01 2.504426479339599609e+00 8.597006797790527344e-01 2.122278362512588501e-01
5.700000000000000000e+02 6.731510925292968750e+01 -4.085345840454101562e+01 1.425531059503555298e-01 4.015352725982666016e+00 1.247371792793273926e+00 3.276583552360534668e-02
5.710000000000000000e+02 7.154957580566406250e+01 -3.286472702026367188e+01 3.114967048168182373e-02 4.728345870971679688e+00 1.427848696708679199e+00 1.160364374518394470e-01
5.720000000000000000e+02 7.150175476074218750e+01 -2.443879127502441406e+01 2.640900947153568268e-02 4.859778404235839844e+00 1.465856313705444336e+00 1.859393864870071411e-01
5.730000000000000000e+02 7.265592956542968750e+01 -1.826518821716308594e+01 2.949972450733184814e-02 5.170578956604003906e+00 1.560023546218872070e+00 1.960127651691436768e-01
5.740000000000000000e+02 7.343961334228515625e+01 -1.882309913635253906e+01 2.408063225448131561e-02 5.297497272491455078e+00 1.596473336219787598e+00 1.794942915439605713e-01
5.750000000000000000e+02 6.974019622802734375e+01 -3.660324478149414062e+01 8.428318053483963013e-02 4.461660861968994141e+00 1.363783240318298340e+00 7.273586839437484741e-02
5.760000000000000000e+02 7.840984344482421875e+01 -4.020632553100585938e+01 -9.288593195378780365e-03 5.642562389373779297e+00 1.689982175827026367e+00 5.923724919557571411e-02
5.770000000000000000e+02 7.738672637939453125e+01 -3.674547195434570312e+01 -2.078655362129211426e-02 5.566204547882080078e+00 1.663625359535217285e+00 3.862870484590530396e-02
5.780000000000000000e+02 7.922611236572265625e+01 -3.331016921997070312e+01 -3.193529322743415833e-03 5.856612205505371094e+00 1.756025552749633789e+00 1.504890155047178268e-02
5.790000000000000000e+02 7.767962646484375000e+01 -3.027075004577636719e+01 5.454014055430889130e-03 5.693556308746337891e+00 1.709703087806701660e+00 4.628291353583335876e-02
5.800000000000000000e+02 7.933554840087890625e+01 -2.636151313781738281e+01 1.960636116564273834e-03 6.014674663543701172e+00 1.804990530014038086e+00 1.280386745929718018e-02
5.810000000000000000e+02 7.813556671142578125e+01 -2.338140869140625000e+01 4.427576641319319606e-05 5.910954475402832031e+00 1.773299574851989746e+00 4.614021256566047668e-02
5.820000000000000000e+02 7.807390594482421875e+01 -1.651926422119140625e+01 2.831490477547049522e-03 6.109372615814208984e+00 1.833661198616027832e+00 6.015390530228614807e-02
5.830000000000000000e+02 7.938316345214843750e+01 -2.220561790466308594e+01 -1.284594647586345673e-03 6.130409717559814453e+00 1.838737487792968750e+00 1.289143972098827362e-02
5.840000000000000000e+02 7.805693817138671875e+01 1.123125743865966797e+01 1.759489625692367554e-02 8.238116264343261719e+00 2.476713180541992188e+00 2.992939352989196777e-01
5.850000000000000000e+02 7.938967132568359375e+01 1.675860214233398438e+01 -7.578679651487618685e-05 9.813207626342773438e+00 2.943939685821533203e+00 1.146628931164741516e-01
5.860000000000000000e+02 7.352445983886718750e+01 2.384704208374023438e+01 -3.663614988327026367e-01 7.805934906005859375e+00 2.231872081756591797e+00 1.332173824310302734e+00
5.870000000000000000e+02 6.326994705200195312e+01 3.238745880126953125e+01 -3.210597038269042969e+00 2.618695609271526337e-02 -9.553230404853820801e-01 -2.955308854579925537e-01
5.880000000000000000e+02 6.251098632812500000e+01 3.245098876953125000e+01 -3.074720144271850586e+00 3.213130682706832886e-02 -9.127765893936157227e-01 -3.167535662651062012e-01
5.890000000000000000e+02 6.024357604980468750e+01 3.269726181030273438e+01 -2.562098503112792969e+00 8.465326577425003052e-02 -7.432335615158081055e-01 -3.733134865760803223e-01
5.900000000000000000e+02 7.821708679199218750e+01 1.823923110961914062e+01 3.087762743234634399e-03 9.569773674011230469e+00 2.871858358383178711e+00 3.927878439426422119e-01
5.910000000000000000e+02 7.947455596923828125e+01 2.370699882507324219e+01 -2.173412591218948364e-02 1.151738929748535156e+01 3.448696613311767578e+00 3.528698533773422241e-02
5.920000000000000000e+02 7.100370025634765625e+01 3.229739761352539062e+01 -9.529811739921569824e-01 1.398308277130126953e+00 1.335981339216232300e-01 2.110608577728271484e+00
5.930000000000000000e+02 6.955026245117187500e+01 3.165883636474609375e+01 -1.581107378005981445e+00 7.870985269546508789e-01 -2.382026463747024536e-01 1.156537890434265137e+00
5.940000000000000000e+02 6.773400115966796875e+01 3.215372085571289062e+01 -3.159018754959106445e+00 5.361754819750785828e-02 -9.316203594207763672e-01 5.604977160692214966e-02
5.950000000000000000e+02 7.836593627929687500e+01 2.239006042480468750e+01 -4.770648479461669922e-02 1.053490734100341797e+01 3.146160125732421875e+00 3.060276508331298828e-01
5.960000000000000000e+02 7.949042510986328125e+01 2.926776695251464844e+01 -9.058861434459686279e-02 1.012458515167236328e+01 3.010198831558227539e+00 -5.171528458595275879e-01
5.970000000000000000e+02 7.481449890136718750e+01 3.278174972534179688e+01 2.579027414321899414e+00 1.927371788024902344e+01 6.555823326110839844e+00 -2.554113388061523438e+00
5.980000000000000000e+02 7.513263702392578125e+01 3.336476135253906250e+01 6.419740676879882812e+00 1.729671096801757812e+01 7.114935398101806641e+00 -2.374533176422119141e+00
5.990000000000000000e+02 7.423523712158203125e+01 3.546086883544921875e+01 2.508570849895477295e-01 2.040140914916992188e+01 6.195679664611816406e+00 -5.632738769054412842e-02
6.000000000000000000e+02 7.082993316650390625e+01 3.566817092895507812e+01 5.180346369743347168e-01 1.595175266265869141e+00 6.339629292488098145e-01 -1.638253808021545410e+00
6.010000000000000000e+02 7.105410766601562500e+01 3.566659164428710938e+01 1.051161527633666992e+00 1.701073884963989258e+00 8.256705999374389648e-01 -1.980956912040710449e+00
6.020000000000000000e+02 6.839396667480468750e+01 3.586365509033203125e+01 -7.490187883377075195e-01 3.089870810508728027e-01 -1.320095062255859375e-01 1.123270392417907715e-01
6.030000000000000000e+02 6.555835723876953125e+01 3.621563339233398438e+01 -6.699866056442260742e-01 -7.391277700662612915e-02 -2.231698185205459595e-01 5.783342719078063965e-01
6.040000000000000000e+02 6.487130737304687500e+01 4.055725479125976562e+01 1.031739950180053711e+00 -1.543935667723417282e-02 3.048901855945587158e-01 1.913741081953048706e-01
6.050000000000000000e+02 6.284350967407226562e+01 3.636365509033203125e+01 -4.504913985729217529e-01 -1.546241790056228638e-01 -1.815346777439117432e-01 4.658047854900360107e-01
6.060000000000000000e+02 5.596494674682617188e+01 3.865923309326171875e+01 1.660012751817703247e-01 -1.880596280097961426e-01 -6.617505103349685669e-03 7.218939065933227539e-02
6.070000000000000000e+02 5.700783920288085938e+01 3.691509246826171875e+01 -4.554941132664680481e-02 -6.809441000223159790e-02 -3.409314528107643127e-02 1.281570047140121460e-01
6.080000000000000000e+02 5.384240341186523438e+01 3.740556335449218750e+01 -2.102643047692254186e-04 -1.135770305991172791e-01 -3.413619101047515869e-02 1.196496654301881790e-02
6.090000000000000000e+02 5.464042663574218750e+01 3.725928115844726562e+01 5.826931912451982498e-03 -6.013650074601173401e-02 -1.629287004470825195e-02 3.326752036809921265e-02
6.100000000000000000e+02 5.404508590698242188e+01 3.765956115722656250e+01 1.325941993854939938e-03 -8.358263224363327026e-02 -2.467700652778148651e-02 2.543014474213123322e-02
6.110000000000000000e+02 4.534459686279296875e+01 3.495867156982421875e+01 8.771616220474243164e-02 4.619025811553001404e-02 4.017192497849464417e-02 6.438927352428436279e-02
6.120000000000000000e+02 4.237945938110351562e+01 3.627276229858398438e+01 9.720885008573532104e-02 4.608807712793350220e-02 4.298907890915870667e-02 5.370793119072914124e-02
6.130000000000000000e+02 4.561242294311523438e+01 3.524909591674804688e+01 9.005914628505706787e-02 4.682116955518722534e-02 4.106409475207328796e-02 6.312774121761322021e-02
6.140000000000000000e+02 4.112860870361328125e+01 3.876711273193359375e+01 1.041356548666954041e-01 4.448245465755462646e-02 4.458543285727500916e-02 3.245747089385986328e-02
6.150000000000000000e+02 3.900097656250000000e+01 3.496569442749023438e+01 7.028914242982864380e-02 6.230337917804718018e-02 3.977775573730468750e-02 5.070896074175834656e-02
6.160000000000000000e+02 3.698053741455078125e+01 2.742597579956054688e+01 6.811583787202835083e-02 9.030671417713165283e-02 4.752676561474800110e-02 7.699929922819137573e-02
6.170000000000000000e+02 3.195929145812988281e+01 2.166798591613769531e+01 7.477415353059768677e-02 7.183785736560821533e-02 4.398360103368759155e-02 7.490629702806472778e-02
6.180000000000000000e+02 3.537555694580078125e+01 2.561336517333984375e+01 6.571230292320251465e-02 8.503750711679458618e-02 4.522494599223136902e-02 7.449483871459960938e-02
6.190000000000000000e+02 3.548296356201171875e+01 3.880294418334960938e+01 6.052973493933677673e-02 6.596336513757705688e-02 3.794793039560317993e-02 2.400542795658111572e-02
6.200000000000000000e+02 3.210903930664062500e+01 3.855183410644531250e+01 4.320698603987693787e-02 7.267060130834579468e-02 3.476327657699584961e-02 2.135239169001579285e-02
6.210000000000000000e+02 3.111083793640136719e+01 2.085391807556152344e+01 9.165260940790176392e-02 8.615198731422424316e-02 5.334137752652168274e-02 8.794301748275756836e-02
6.220000000000000000e+02 2.648717308044433594e+01 1.641143226623535156e+01 1.143706142902374268e-01 1.245186999440193176e-01 7.166679203510284424e-02 1.186953857541084290e-01
6.230000000000000000e+02 1.782028388977050781e+01 1.272169494628906250e+01 8.037881553173065186e-02 1.904123872518539429e-01 8.123736083507537842e-02 1.204505637288093567e-01
6.240000000000000000e+02 6.166526317596435547e+00 1.824213981628417969e+01 -2.961621503345668316e-04 -6.093230098485946655e-02 -1.836853846907615662e-02 -2.501934394240379333e-02
6.250000000000000000e+02 1.755983948707580566e+00 1.894360542297363281e+01 1.962347305379807949e-04 -1.770674139261245728e-01 -5.306135490536689758e-02 -1.420889794826507568e-02
6.260000000000000000e+02 5.428587794303894043e-01 1.346494865417480469e+01 4.445905506145209074e-04 -2.537791430950164795e-01 -7.600036263465881348e-02 -2.649927977472543716e-03
6.270000000000000000e+02 1.491203546524047852e+00 9.233489990234375000e+00 8.231371641159057617e-03 -2.030589282512664795e-01 -5.844826623797416687e-02 2.042829990386962891e-02
6.280000000000000000e+02 4.714850783348083496e-01 6.468276977539062500e+00 1.264052814804017544e-03 -1.715502440929412842e-01 -5.108585953712463379e-02 1.661014743149280548e-02
6.290000000000000000e+02 1.315306425094604492e+00 3.658366203308105469e+00 -6.049445364624261856e-03 -7.300725579261779785e-02 -2.371700853109359741e-02 4.705517366528511047e-02
6.300000000000000000e+02 2.238683891296386719e+01 4.114072036743164062e+01 3.593658562749624252e-03 6.301943957805633545e-02 1.998392865061759949e-02 3.327778307721018791e-03
6.310000000000000000e+02 2.633844757080078125e+01 2.843574714660644531e+01 2.482545375823974609e-02 9.319899231195449829e-02 3.540733456611633301e-02 5.346908420324325562e-02
6.320000000000000000e+02 2.738953399658203125e+01 2.309098625183105469e+01 5.127747729420661926e-02 1.052961051464080811e-01 4.697207733988761902e-02 7.865341007709503174e-02
6.330000000000000000e+02 2.584968948364257812e+01 2.157604598999023438e+01 5.443691462278366089e-02 1.128212586045265198e-01 5.017745494842529297e-02 8.227096498012542725e-02
6.340000000000000000e+02 1.751014709472656250e+01 4.096954727172851562e+01 -5.653458181768655777e-03 3.575467690825462341e-02 9.030365385115146637e-03 1.754719414748251438e-03
6.350000000000000000e+02 2.218490982055664062e+01 3.836348342895507812e+01 3.891967236995697021e-03 6.310357898473739624e-02 2.009866386651992798e-02 1.079037413001060486e-02
6.360000000000000000e+02 1.806276702880859375e+01 2.982648849487304688e+01 -2.940180711448192596e-03 6.536123156547546387e-02 1.872631534934043884e-02 1.974637620151042938e-02
6.370000000000000000e+02 1.302181911468505859e+01 2.271372795104980469e+01 -6.272156257182359695e-03 5.525694414973258972e-02 1.469543669372797012e-02 6.395878735929727554e-03
6.380000000000000000e+02 1.351154327392578125e+01 2.436543846130371094e+01 -7.388132158666849136e-03 5.113449692726135254e-02 1.312390901148319244e-02 7.023329846560955048e-03
6.390000000000000000e+02 1.261663055419921875e+01 4.103245925903320312e+01 -7.670868188142776489e-03 -3.777342499233782291e-04 -2.414580667391419411e-03 -3.709009906742721796e-04
6.400000000000000000e+02 1.208515071868896484e+01 3.823112106323242188e+01 -8.036378771066665649e-03 -3.915291279554367065e-03 -3.585500875487923622e-03 -1.064542331732809544e-03
6.410000000000000000e+02 8.069911003112792969e+00 3.051863861083984375e+01 -7.274803239852190018e-03 -3.987355530261993408e-02 -1.414450816810131073e-02 -1.138645410537719727e-02
6.420000000000000000e+02 6.564155101776123047e+00 2.611104393005371094e+01 -6.368597969412803650e-03 -5.873934552073478699e-02 -1.953238248825073242e-02 -1.747768372297286987e-02
6.430000000000000000e+02 7.125936985015869141e+00 2.480245780944824219e+01 -7.353733293712139130e-03 -4.890547692775726318e-02 -1.687776297330856323e-02 -1.832758076488971710e-02
6.440000000000000000e+02 2.050390958786010742e+00 4.166336059570312500e+01 -5.083845928311347961e-03 -1.071340665221214294e-01 -3.366537392139434814e-02 -1.439056359231472015e-03
6.450000000000000000e+02 5.965214252471923828e+00 3.690149688720703125e+01 -2.966637490317225456e-03 -6.909716874361038208e-02 -2.161914110183715820e-02 -3.365717362612485886e-03
6.460000000000000000e+02 2.465544700622558594e+00 3.559263229370117188e+01 2.304647787241265178e-04 -1.079571768641471863e-01 -3.231801465153694153e-02 -4.685770254582166672e-03
6.470000000000000000e+02 1.790527343750000000e+00 2.871753501892089844e+01 -1.168161863461136818e-03 -1.284578442573547363e-01 -3.888779878616333008e-02 -7.085526362061500549e-03
6.480000000000000000e+02 1.793332695960998535e+00 2.036325645446777344e+01 -1.194701646454632282e-03 -1.677025258541107178e-01 -5.066916719079017639e-02 -1.347385533154010773e-02
6.490000000000000000e+02 5.521160125732421875e+00 1.858029365539550781e+00 -1.466081887483596802e-01 -3.815892338752746582e-02 -5.543013289570808411e-02 1.374237090349197388e-01
6.500000000000000000e+02 7.781953334808349609e+00 2.307568788528442383e+00 -1.684472262859344482e-01 -1.294963210821151733e-01 -8.938306570053100586e-02 2.705701589584350586e-01
6.510000000000000000e+02 6.073772907257080078e+00 1.128346538543701172e+01 4.920454695820808411e-02 -7.156079262495040894e-02 -6.706873420625925064e-03 -5.407540593296289444e-03
6.520000000000000000e+02 7.154253482818603516e+00 1.804561042785644531e+01 -3.459134313743561506e-04 -3.503446280956268311e-02 -1.061411201953887939e-02 -2.292241901159286499e-02
6.530000000000000000e+02 1.383332252502441406e+01 1.711873292922973633e+00 1.893585443496704102e+00 3.407277822494506836e+00 1.590258955955505371e+00 -1.721831917762756348e+00
6.540000000000000000e+02 1.411859035491943359e+01 1.345273971557617188e+00 3.242236375808715820e+00 3.188609600067138672e+00 1.929253697395324707e+00 -2.404736518859863281e+00
6.550000000000000000e+02 1.541032886505126953e+01 8.580539822578430176e-01 9.144726753234863281e+00 2.311242222785949707e-01 2.812755107879638672e+00 -8.309104442596435547e-01
6.560000000000000000e+02 1.056880378723144531e+01 1.702100276947021484e+00 -1.696079671382904053e-01 -4.207555353641510010e-01 -1.771090477705001831e-01 5.161965489387512207e-01
6.570000000000000000e+02 1.133459091186523438e+01 1.574162244796752930e+00 -6.535540800541639328e-03 -4.814364910125732422e-01 -1.463916003704071045e-01 5.246022343635559082e-01
6.580000000000000000e+02 1.410704135894775391e+01 3.729640245437622070e+00 3.990070223808288574e-01 1.380140900611877441e+00 5.337443947792053223e-01 5.890727043151855469e-01
6.590000000000000000e+02 1.637435531616210938e+01 6.153408050537109375e+00 2.627423405647277832e-01 3.020928800106048584e-01 1.694505661725997925e-01 2.761887013912200928e-01
6.600000000000000000e+02 2.140597915649414062e+01 1.128315544128417969e+01 1.538082659244537354e-01 1.640359759330749512e-01 9.535327553749084473e-02 1.585958749055862427e-01
6.610000000000000000e+02 2.480773925781250000e+01 1.467479515075683594e+01 1.278230696916580200e-01 1.151037365198135376e-01 7.287804037332534790e-02 1.228122562170028687e-01
6.620000000000000000e+02 4.942345809936523438e+01 3.752487564086914062e+01 1.774290651082992554e-01 2.422045357525348663e-02 6.049485504627227783e-02 6.254266947507858276e-02
6.630000000000000000e+02 4.883484268188476562e+01 3.758470153808593750e+01 1.801145374774932861e-01 3.005535341799259186e-02 6.305097043514251709e-02 7.162349671125411987e-02
6.640000000000000000e+02 5.194918441772460938e+01 3.863381576538085938e+01 3.699339032173156738e-01 6.767406314611434937e-02 1.312823891639709473e-01 1.117076650261878967e-01
6.650000000000000000e+02 5.262205505371093750e+01 3.884881973266601562e+01 4.830703139305114746e-01 5.546794086694717407e-02 1.615614742040634155e-01 2.564806304872035980e-02
6.660000000000000000e+02 5.281678390502929688e+01 3.926530456542968750e+01 2.789486050605773926e-01 7.202819734811782837e-02 1.052930355072021484e-01 4.930819198489189148e-02
6.670000000000000000e+02 5.219409942626953125e+01 3.951016235351562500e+01 2.767547070980072021e-01 6.270425766706466675e-02 1.018376946449279785e-01 2.790716104209423065e-02
6.680000000000000000e+02 5.360694122314453125e+01 3.823706054687500000e+01 3.541673719882965088e-02 -4.445347562432289124e-02 -2.711021574214100838e-03 1.796188880689442158e-03
6.690000000000000000e+02 5.436525344848632812e+01 3.792744827270507812e+01 4.179667308926582336e-02 -7.212176173925399780e-02 -9.097527712583541870e-03 9.916153067024424672e-05
6.700000000000000000e+02 5.126546096801757812e+01 3.821407699584960938e+01 2.354855835437774658e-01 4.767692834138870239e-02 8.494875580072402954e-02 1.006548553705215454e-01
6.710000000000000000e+02 3.604605102539062500e+01 -1.696556472778320312e+01 -2.589692361652851105e-02 -5.489053130149841309e-01 -1.724406629800796509e-01 2.206451445817947388e-01
6.720000000000000000e+02 4.010516738891601562e+01 -2.417054557800292969e+01 -1.863862276077270508e-01 -5.159602165222167969e-01 -2.107039391994476318e-01 3.417625427246093750e-01
6.730000000000000000e+02 4.045298385620117188e+01 -2.725200843811035156e+01 -2.818053364753723145e-01 -6.908332109451293945e-01 -2.917915582656860352e-01 4.306303262710571289e-01
6.740000000000000000e+02 3.963891220092773438e+01 -1.795068740844726562e+01 8.189605176448822021e-02 -3.068984448909759521e-01 -6.750071793794631958e-02 1.303902864456176758e-01
6.750000000000000000e+02 4.127180862426757812e+01 -1.540918254852294922e+01 2.508635222911834717e-01 -1.064802408218383789e-01 4.331498220562934875e-02 3.749559447169303894e-02
6.760000000000000000e+02 3.564934539794921875e+01 -1.892533493041992188e+01 -1.902940571308135986e-01 -6.957013607025146484e-01 -2.657986283302307129e-01 3.807235062122344971e-01
6.770000000000000000e+02 3.425030517578125000e+01 -1.654560661315917969e+01 -1.266561895608901978e-01 -5.723222494125366211e-01 -2.096935361623764038e-01 2.954063713550567627e-01
6.780000000000000000e+02 4.317171859741210938e+01 -2.688208007812500000e+01 -1.722554415464401245e-01 -1.228167861700057983e-01 -8.852166682481765747e-02 2.494174242019653320e-01
6.790000000000000000e+02 4.146585083007812500e+01 -2.649894714355468750e+01 -2.063533812761306763e-01 -4.398704469203948975e-01 -1.938671469688415527e-01 3.482623100280761719e-01
6.800000000000000000e+02 4.513254928588867188e+01 -3.471697235107421875e+01 -7.401119917631149292e-02 3.734084665775299072e-01 8.981917798519134521e-02 3.081350326538085938e-01
6.810000000000000000e+02 3.831125259399414062e+01 -4.150556182861328125e+01 1.724677562713623047e+00 5.796369314193725586e-01 6.912943720817565918e-01 -7.593215256929397583e-02
6.820000000000000000e+02 3.578706359863281250e+01 -4.017739486694335938e+01 1.381222367286682129e+00 4.273653626441955566e-01 5.425763130187988281e-01 -3.353041410446166992e-01
6.830000000000000000e+02 6.246772003173828125e+01 2.855442428588867188e+01 -1.112534880638122559e+00 4.131801426410675049e-01 -2.098063975572586060e-01 -4.920451939105987549e-01
6.840000000000000000e+02 7.385506439208984375e+01 2.265960884094238281e+01 -2.198182791471481323e-01 7.815273761749267578e+00 2.278636693954467773e+00 1.211340546607971191e+00
6.850000000000000000e+02 4.627589416503906250e+01 2.663936996459960938e+01 -1.458929181098937988e+00 -1.321541905403137207e+00 -8.341413140296936035e-01 -1.430782675743103027e+00
6.860000000000000000e+02 4.886583709716796875e+01 1.472115612030029297e+01 -3.485781252384185791e-01 -9.335522353649139404e-02 -1.325800120830535889e-01 -4.613652825355529785e-01
6.870000000000000000e+02 4.840766525268554688e+01 -4.676291048526763916e-01 3.462947607040405273e-01 5.557125806808471680e-01 2.706021964550018311e-01 1.855052858591079712e-01
6.880000000000000000e+02 4.636429595947265625e+01 1.900995254516601562e+00 2.043560296297073364e-01 2.147162258625030518e-01 1.257216781377792358e-01 8.424836397171020508e-02
6.890000000000000000e+02 6.116677474975585938e+01 1.595679640769958496e+00 3.627288043498992920e-01 2.867377519607543945e+00 9.690319299697875977e-01 5.703808069229125977e-01
6.900000000000000000e+02 5.817464447021484375e+01 1.945426464080810547e+00 3.752295374870300293e-01 2.196525812149047852e+00 7.715266346931457520e-01 4.833359420299530029e-01
6.910000000000000000e+02 6.073575592041015625e+01 1.232378196716308594e+01 3.577199280261993408e-01 2.259279251098632812e+00 7.850997447967529297e-01 4.935507774353027344e-01
6.920000000000000000e+02 5.683818817138671875e+01 2.101805114746093750e+01 -2.920691370964050293e-01 6.791760325431823730e-01 1.161320731043815613e-01 -3.663951456546783447e-01
6.930000000000000000e+02 4.849871444702148438e+01 2.213591194152832031e+01 -9.869695305824279785e-01 -6.307900547981262207e-01 -4.853278696537017822e-01 -9.440082907676696777e-01
6.940000000000000000e+02 4.016841125488281250e+01 2.147955131530761719e+01 -1.424592256546020508e+00 -1.191413998603820801e+00 -7.848018407821655273e-01 -1.324655413627624512e+00
6.950000000000000000e+02 4.599271774291992188e+01 2.692748069763183594e+01 -1.470272064208984375e+00 -1.372720122337341309e+00 -8.528976440429687500e-01 -1.436630606651306152e+00
6.960000000000000000e+02 4.570795059204101562e+01 2.664942169189453125e+01 -1.448713064193725586e+00 -1.417773008346557617e+00 -8.599458336830139160e-01 -1.451220512390136719e+00
6.970000000000000000e+02 3.344823074340820312e+01 1.354756641387939453e+01 -1.455944776535034180e+00 -1.621766209602355957e+00 -9.233132600784301758e-01 -1.500615715980529785e+00
6.980000000000000000e+02 3.320251083374023438e+01 1.379183101654052734e+01 -1.574159622192382812e+00 -1.644095063209533691e+00 -9.654763936996459961e-01 -1.586489200592041016e+00
6.990000000000000000e+02 3.353929138183593750e+01 6.121557712554931641e+00 -1.162634611129760742e+00 -8.855267167091369629e-01 -6.144483685493469238e-01 -7.933660149574279785e-01
7.000000000000000000e+02 3.274268722534179688e+01 5.597497940063476562e+00 -1.289636850357055664e+00 -8.724544048309326172e-01 -6.486274003982543945e-01 -7.968586087226867676e-01
7.010000000000000000e+02 4.188884353637695312e+01 -1.863096833229064941e+00 3.239827752113342285e-01 -2.100553512573242188e-01 3.417822718620300293e-02 8.086842298507690430e-02
7.020000000000000000e+02 4.102599716186523438e+01 -3.870008885860443115e-01 2.011135965585708618e-01 -3.066610693931579590e-01 -3.166423738002777100e-02 4.604322835803031921e-02
7.030000000000000000e+02 3.933443832397460938e+01 1.283281230926513672e+01 -9.152060747146606445e-01 -1.019657731056213379e+00 -5.804591178894042969e-01 -9.457180500030517578e-01
7.040000000000000000e+02 3.993541336059570312e+01 2.008329772949218750e+01 -1.193565726280212402e+00 -1.307575225830078125e+00 -7.503423094749450684e-01 -1.360194087028503418e+00
7.050000000000000000e+02 4.025292587280273438e+01 1.980345344543457031e+01 -1.181915283203125000e+00 -1.296781897544860840e+00 -7.436091303825378418e-01 -1.361265420913696289e+00
7.060000000000000000e+02 6.695320129394531250e+01 1.782935142517089844e+01 3.837659358978271484e-01 3.745455265045166016e+00 1.238766312599182129e+00 9.707543849945068359e-01
7.070000000000000000e+02 6.572791290283203125e+01 1.939688682556152344e+01 3.847678601741790771e-01 3.083290338516235352e+00 1.040417432785034180e+00 8.385160565376281738e-01
7.080000000000000000e+02 7.274157714843750000e+01 2.011784744262695312e+01 7.910788059234619141e-02 6.771251201629638672e+00 2.055107593536376953e+00 1.221345663070678711e+00
7.090000000000000000e+02 3.953238677978515625e+01 1.186029529571533203e+01 -8.452770709991455078e-01 -9.324300885200500488e-01 -5.333121418952941895e-01 -8.574818372726440430e-01
7.100000000000000000e+02 3.878420257568359375e+01 2.005795478820800781e+01 -1.099632143974304199e+00 -1.441807508468627930e+00 -7.624319195747375488e-01 -1.286271095275878906e+00
7.110000000000000000e+02 6.055998611450195312e+01 1.040211486816406250e+01 3.624047935009002686e-01 2.329406499862670898e+00 8.075433969497680664e-01 5.189910531044006348e-01
7.120000000000000000e+02 4.590130996704101562e+01 1.318831348419189453e+01 -4.449312686920166016e-01 -3.636591434478759766e-01 -2.425771355628967285e-01 -5.557761788368225098e-01
7.130000000000000000e+02 7.289237213134765625e+01 1.019175338745117188e+01 1.677836477756500244e-01 6.285509586334228516e+00 1.935987949371337891e+00 7.782125473022460938e-01
7.140000000000000000e+02 7.182446289062500000e+01 1.062781143188476562e+01 2.100124359130859375e-01 5.897210121154785156e+00 1.832166790962219238e+00 8.506435751914978027e-01
7.150000000000000000e+02 6.711956787109375000e+01 9.520740509033203125e+00 3.417187035083770752e-01 4.265538215637207031e+00 1.382177114486694336e+00 8.284595012664794922e-01
7.160000000000000000e+02 6.428172302246093750e+01 -6.979023218154907227e-01 2.999073266983032227e-01 3.642015695571899414e+00 1.182576894760131836e+00 5.876914858818054199e-01
7.170000000000000000e+02 7.284702301025390625e+01 1.773243665695190430e+00 1.119445934891700745e-01 5.859330654144287109e+00 1.791382551193237305e+00 5.205789804458618164e-01
7.180000000000000000e+02 6.605072784423828125e+01 2.434541225433349609e+00 2.871308028697967529e-01 4.046550750732421875e+00 1.300104379653930664e+00 6.665924191474914551e-01
7.190000000000000000e+02 1.391962718963623047e+01 -1.043082809448242188e+01 4.615217819809913635e-02 -7.272971272468566895e-01 -2.043434828519821167e-01 -6.633214950561523438e-01
7.200000000000000000e+02 2.055435180664062500e+01 -1.999497222900390625e+01 2.309345453977584839e-01 1.505178213119506836e-02 7.379589974880218506e-02 -3.039813339710235596e-01
7.210000000000000000e+02 6.833680629730224609e+00 -1.682905960083007812e+01 5.970938503742218018e-02 -6.842368841171264648e-01 -1.873582452535629272e-01 -3.948543071746826172e-01
7.220000000000000000e+02 5.433280467987060547e-01 -1.068078994750976562e+01 -4.540108144283294678e-03 -3.061004877090454102e-01 -9.319218248128890991e-02 -4.278005659580230713e-02
7.230000000000000000e+02 1.685080909729003906e+01 -2.440581893920898438e+01 2.358083575963973999e-01 -2.754091024398803711e-01 -1.188022643327713013e-02 -3.251226842403411865e-01
7.240000000000000000e+02 7.265061855316162109e+00 -2.389516639709472656e+01 7.708032429218292236e-02 -8.663654327392578125e-01 -2.367855310440063477e-01 -2.884103655815124512e-01
7.250000000000000000e+02 6.058196425437927246e-01 -1.769019508361816406e+01 3.898921888321638107e-03 -8.960258364677429199e-01 -2.676380872726440430e-01 -4.649548605084419250e-02
7.260000000000000000e+02 1.839524269104003906e+01 -3.610522460937500000e+01 2.505275607109069824e-01 -2.419863641262054443e-01 2.562362700700759888e-03 -1.604712903499603271e-01
7.270000000000000000e+02 2.444725799560546875e+01 -2.746642112731933594e+01 2.698813676834106445e-01 3.374785780906677246e-01 1.822079718112945557e-01 -3.569986224174499512e-01
7.280000000000000000e+02 6.318341493606567383e-01 -2.331738853454589844e+01 2.053193747997283936e-03 -1.271860122680664062e+00 -3.809420764446258545e-01 -3.484643623232841492e-02
7.290000000000000000e+02 7.155251502990722656e-01 -3.033423042297363281e+01 1.743798959068953991e-03 -1.560161352157592773e+00 -4.675252735614776611e-01 -1.804784871637821198e-02
7.300000000000000000e+02 6.485572052001953125e+01 -3.248239135742187500e+01 1.127794533967971802e-01 3.701958417892456055e+00 1.144421339035034180e+00 2.090522050857543945e-01
7.310000000000000000e+02 6.834528350830078125e+01 -2.336128997802734375e+01 4.566051065921783447e-02 4.352443218231201172e+00 1.319431066513061523e+00 2.292969226837158203e-01
7.320000000000000000e+02 5.633523178100585938e+01 -2.137972068786621094e+01 9.493776410818099976e-02 2.333633422851562500e+00 7.285713553428649902e-01 2.276489287614822388e-01
7.330000000000000000e+02 4.502098083496093750e+01 -3.323909759521484375e+01 -1.151600107550621033e-01 1.571025699377059937e-01 1.258276589214801788e-02 3.201263546943664551e-01
7.340000000000000000e+02 7.339125061035156250e+01 -5.644635200500488281e+00 6.191844120621681213e-02 5.669414520263671875e+00 1.719399809837341309e+00 3.368616700172424316e-01
7.350000000000000000e+02 7.168289184570312500e+01 -1.093111515045166016e+01 6.815481930971145630e-02 5.152976036071777344e+00 1.566339254379272461e+00 3.017751872539520264e-01
7.360000000000000000e+02 6.682498168945312500e+01 -1.759343147277832031e+00 2.369093745946884155e-01 4.248857021331787109e+00 1.345729947090148926e+00 5.745923519134521484e-01
7.370000000000000000e+02 6.770664978027343750e+01 -1.256383037567138672e+01 1.197988539934158325e-01 4.335651874542236328e+00 1.336635231971740723e+00 3.502042889595031738e-01
7.380000000000000000e+02 5.305987548828125000e+01 -1.192409992218017578e+01 3.433953523635864258e-01 1.587180614471435547e+00 5.791727900505065918e-01 2.303015887737274170e-01
7.390000000000000000e+02 4.820275878906250000e+01 -4.122556209564208984e+00 4.369274973869323730e-01 6.156373023986816406e-01 3.157694339752197266e-01 1.946496367454528809e-01
7.400000000000000000e+02 4.642410659790039062e+01 -1.135882377624511719e+01 4.264046549797058105e-01 4.926277399063110352e-01 2.757097184658050537e-01 9.375906735658645630e-02
7.410000000000000000e+02 4.083444595336914062e+01 -6.367214202880859375e+00 5.288044810295104980e-01 -2.638328373432159424e-01 7.949150353670120239e-02 6.103145703673362732e-02
7.420000000000000000e+02 3.605258178710937500e+01 -6.550690650939941406e+00 6.273301243782043457e-01 -5.669049024581909180e-01 1.812756247818470001e-02 -3.362411260604858398e-02
7.430000000000000000e+02 7.303417682647705078e+00 3.284404754638671875e+01 -5.565917585045099258e-03 -5.094945430755615234e-02 -1.695461198687553406e-02 -9.371641092002391815e-03
7.440000000000000000e+02 1.741898727416992188e+01 3.187170982360839844e+01 -5.377421155571937561e-03 5.332352966070175171e-02 1.438383292406797409e-02 1.345197204500436783e-02
7.450000000000000000e+02 2.519855690002441406e+01 2.885902404785156250e+01 2.029636502265930176e-02 9.219184517860412598e-02 3.374646231532096863e-02 4.849829897284507751e-02
7.460000000000000000e+02 3.320798492431640625e+01 2.947229957580566406e+01 5.040872097015380859e-02 8.496341854333877563e-02 4.061164334416389465e-02 6.081346422433853149e-02
7.470000000000000000e+02 3.140279388427734375e+01 2.111955451965332031e+01 8.939563482999801636e-02 8.051013201475143433e-02 5.097172781825065613e-02 8.397946506738662720e-02
7.480000000000000000e+02 2.038402080535888672e+00 3.145487594604492188e+01 -1.153930556029081345e-03 -1.180111989378929138e-01 -3.574953973293304443e-02 -5.429580807685852051e-03
7.490000000000000000e+02 1.724114227294921875e+01 6.958683013916015625e+00 2.017332911491394043e-01 2.198402136564254761e-01 1.264720559120178223e-01 2.099533677101135254e-01
7.500000000000000000e+02 1.938651275634765625e+01 1.410780048370361328e+01 8.291992545127868652e-02 1.674758940935134888e-01 7.511874288320541382e-02 1.162520870566368103e-01
7.510000000000000000e+02 5.736333847045898438e+00 9.985370635986328125e+00 6.450142711400985718e-02 -9.286721050739288330e-02 -8.509734645485877991e-03 9.769892320036888123e-03
7.520000000000000000e+02 1.695872497558593750e+01 6.689123153686523438e+00 2.189866304397583008e-01 2.238772064447402954e-01 1.328591555356979370e-01 2.276784777641296387e-01
7.530000000000000000e+02 9.813809394836425781e+00 1.769454598426818848e+00 -2.517231404781341553e-01 -3.162759542465209961e-01 -1.703997403383255005e-01 4.356227517127990723e-01
7.540000000000000000e+02 5.194523239135742188e+01 3.277670288085937500e+01 -6.694024801254272461e-01 -8.444751501083374023e-01 -4.541632831096649170e-01 -7.551964521408081055e-01
7.550000000000000000e+02 5.425445175170898438e+01 3.361616897583007812e+01 -8.906580209732055664e-01 3.002586588263511658e-02 -2.581896483898162842e-01 -4.668707251548767090e-01
7.560000000000000000e+02 5.143119430541992188e+01 3.218785095214843750e+01 -9.205187559127807617e-01 -1.037545919418334961e+00 -5.874193906784057617e-01 -9.626010656356811523e-01
7.570000000000000000e+02 5.116738510131835938e+01 3.189140510559082031e+01 -1.032674789428710938e+00 -1.086396336555480957e+00 -6.357213258743286133e-01 -1.043437957763671875e+00
7.580000000000000000e+02 5.168690872192382812e+01 3.248533630371093750e+01 -7.962129712104797363e-01 -9.719149470329284668e-01 -5.304383635520935059e-01 -8.624421954154968262e-01
7.590000000000000000e+02 5.089569854736328125e+01 3.159907531738281250e+01 -1.122862339019775391e+00 -1.119915843009948730e+00 -6.728334426879882812e-01 -1.111805319786071777e+00
7.600000000000000000e+02 5.061784362792968750e+01 3.131139755249023438e+01 -1.197970271110534668e+00 -1.151332139968872070e+00 -7.047907114028930664e-01 -1.164995431900024414e+00
7.610000000000000000e+02 4.919132614135742188e+01 2.991526603698730469e+01 -1.436628818511962891e+00 -1.312588691711425781e+00 -8.247652649879455566e-01 -1.370580196380615234e+00
7.620000000000000000e+02 4.861602783203125000e+01 2.936524963378906250e+01 -1.544156432151794434e+00 -1.351851940155029297e+00 -8.688024878501892090e-01 -1.436623811721801758e+00
7.630000000000000000e+02 4.832590866088867188e+01 2.909279632568359375e+01 -1.583664894104003906e+00 -1.348832488059997559e+00 -8.797491788864135742e-01 -1.452248215675354004e+00
7.640000000000000000e+02 4.803423690795898438e+01 2.882225799560546875e+01 -1.603932976722717285e+00 -1.335430741310119629e+00 -8.818091154098510742e-01 -1.458506822586059570e+00
7.650000000000000000e+02 4.686201095581054688e+01 2.774680709838867188e+01 -1.558849453926086426e+00 -1.307757377624511719e+00 -8.599820733070373535e-01 -1.436406135559082031e+00
7.660000000000000000e+02 4.657032012939453125e+01 2.747591018676757812e+01 -1.529304385185241699e+00 -1.318941116333007812e+00 -8.544736504554748535e-01 -1.431236028671264648e+00
7.670000000000000000e+02 4.628035354614257812e+01 2.720289611816406250e+01 -1.497839689254760742e+00 -1.339515805244445801e+00 -8.512066602706909180e-01 -1.431462168693542480e+00
7.680000000000000000e+02 4.542657089233398438e+01 2.636836051940917969e+01 -1.444332242012023926e+00 -1.480360984802246094e+00 -8.774079680442810059e-01 -1.477738618850708008e+00
7.690000000000000000e+02 4.514794158935546875e+01 2.608432388305664062e+01 -1.471847891807556152e+00 -1.556219339370727539e+00 -9.084202051162719727e-01 -1.520858645439147949e+00
7.700000000000000000e+02 4.312800979614257812e+01 2.415105056762695312e+01 -1.733883500099182129e+00 -1.430594563484191895e+00 -9.493434429168701172e-01 -1.573590278625488281e+00
7.710000000000000000e+02 4.253607177734375000e+01 2.361708450317382812e+01 -1.649679899215698242e+00 -1.391561865806579590e+00 -9.123725295066833496e-01 -1.523513197898864746e+00
7.720000000000000000e+02 4.195096206665039062e+01 2.307550621032714844e+01 -1.618098616600036621e+00 -1.424504518508911133e+00 -9.127809405326843262e-01 -1.520766854286193848e+00
7.730000000000000000e+02 4.165914916992187500e+01 2.280290794372558594e+01 -1.642719507217407227e+00 -1.437492251396179199e+00 -9.240635037422180176e-01 -1.529694795608520508e+00
7.740000000000000000e+02 4.136509323120117188e+01 2.253254508972167969e+01 -1.675144076347351074e+00 -1.419656157493591309e+00 -9.284400939941406250e-01 -1.526237487792968750e+00
7.750000000000000000e+02 4.076701736450195312e+01 2.200496673583984375e+01 -1.627148270606994629e+00 -1.282750487327575684e+00 -8.729696273803710938e-01 -1.440478563308715820e+00
7.760000000000000000e+02 3.987686920166015625e+01 2.120970916748046875e+01 -1.323429107666015625e+00 -1.198215723037719727e+00 -7.564934492111206055e-01 -1.288720130920410156e+00
7.770000000000000000e+02 3.959227752685546875e+01 2.093292808532714844e+01 -1.239961504936218262e+00 -1.233133316040039062e+00 -7.419284582138061523e-01 -1.267494797706604004e+00
7.780000000000000000e+02 3.931473922729492188e+01 2.064943122863769531e+01 -1.172834277153015137e+00 -1.285289883613586426e+00 -7.374372482299804688e-01 -1.259556055068969727e+00
7.790000000000000000e+02 3.935708618164062500e+01 2.008079147338867188e+01 -1.165890455245971680e+00 -1.345579624176025391e+00 -7.534410357475280762e-01 -1.329944849014282227e+00
7.800000000000000000e+02 3.853208541870117188e+01 1.974556350708007812e+01 -1.096821188926696777e+00 -1.536010384559631348e+00 -7.898494601249694824e-01 -1.317952156066894531e+00
7.810000000000000000e+02 3.827886581420898438e+01 1.943173980712890625e+01 -1.114292979240417480e+00 -1.624417662620544434e+00 -8.216131925582885742e-01 -1.357212185859680176e+00
7.820000000000000000e+02 3.904516601562500000e+01 2.035891151428222656e+01 -1.125722050666809082e+00 -1.355592608451843262e+00 -7.443944215774536133e-01 -1.265043139457702637e+00
7.830000000000000000e+02 3.923049926757812500e+01 1.925415039062500000e+01 -1.187271595001220703e+00 -1.383329153060913086e+00 -7.711802124977111816e-01 -1.360522031784057617e+00
7.840000000000000000e+02 3.750462722778320312e+01 1.850415802001953125e+01 -1.268467068672180176e+00 -1.820553302764892578e+00 -9.267061352729797363e-01 -1.504581451416015625e+00
7.850000000000000000e+02 3.724361419677734375e+01 1.819846343994140625e+01 -1.330482840538024902e+00 -1.828507423400878906e+00 -9.476970434188842773e-01 -1.542304992675781250e+00
7.860000000000000000e+02 3.671008300781250000e+01 1.759746742248535156e+01 -1.400056242942810059e+00 -1.769198775291442871e+00 -9.507765173912048340e-01 -1.563407421112060547e+00
7.870000000000000000e+02 3.644006347656250000e+01 1.730124664306640625e+01 -1.409707427024841309e+00 -1.736700057983398438e+00 -9.439222216606140137e-01 -1.556946158409118652e+00
7.880000000000000000e+02 3.697849273681640625e+01 1.789623641967773438e+01 -1.376494050025939941e+00 -1.806271195411682129e+00 -9.548295736312866211e-01 -1.559815526008605957e+00
7.890000000000000000e+02 3.535685729980468750e+01 1.612755775451660156e+01 -1.406389236450195312e+00 -1.666508913040161133e+00 -9.218694567680358887e-01 -1.528474926948547363e+00
7.900000000000000000e+02 3.508574676513671875e+01 1.583582401275634766e+01 -1.393341183662414551e+00 -1.653127670288085938e+00 -9.139406681060791016e-01 -1.521349072456359863e+00
7.910000000000000000e+02 3.481527709960937500e+01 1.554431438446044922e+01 -1.379169106483459473e+00 -1.652597069740295410e+00 -9.095298647880554199e-01 -1.512655854225158691e+00
7.920000000000000000e+02 3.427922058105468750e+01 1.495981788635253906e+01 -1.373877763748168945e+00 -1.700773954391479492e+00 -9.223955273628234863e-01 -1.529092788696289062e+00
7.930000000000000000e+02 3.401349639892578125e+01 1.466583156585693359e+01 -1.411856293678283691e+00 -1.738638639450073242e+00 -9.451484680175781250e-01 -1.562901377677917480e+00
7.940000000000000000e+02 3.374690628051757812e+01 1.437180614471435547e+01 -1.482919335365295410e+00 -1.758251667022705078e+00 -9.723513126373291016e-01 -1.593351960182189941e+00
7.950000000000000000e+02 3.347691726684570312e+01 1.407993698120117188e+01 -1.547900557518005371e+00 -1.722455382347106934e+00 -9.811068177223205566e-01 -1.611269116401672363e+00
7.960000000000000000e+02 3.292573165893554688e+01 1.350664901733398438e+01 -1.532369971275329590e+00 -1.554236650466918945e+00 -9.259819984436035156e-01 -1.545105814933776855e+00
7.970000000000000000e+02 3.102479362487792969e+01 1.104098987579345703e+01 -1.559896111488342285e+00 -1.488171696662902832e+00 -9.144203662872314453e-01 -1.474188566207885742e+00
7.980000000000000000e+02 3.043246269226074219e+01 8.838456153869628906e+00 -1.373280882835388184e+00 -1.338932514190673828e+00 -8.136640191078186035e-01 -1.187451601028442383e+00
7.990000000000000000e+02 2.979815292358398438e+01 1.038471984863281250e+01 -1.594893693923950195e+00 -1.296009421348571777e+00 -8.672709465026855469e-01 -1.405763268470764160e+00
8.000000000000000000e+02 3.009768295288085938e+01 9.994973182678222656e+00 -1.554942846298217773e+00 -1.289097785949707031e+00 -8.532121777534484863e-01 -1.397579312324523926e+00
8.010000000000000000e+02 2.948425865173339844e+01 1.010954570770263672e+01 -1.613695025444030762e+00 -1.279266357421875000e+00 -8.678883910179138184e-01 -1.463513851165771484e+00
8.020000000000000000e+02 2.889654159545898438e+01 9.342844009399414062e+00 -2.106666564941406250e+00 -1.277592658996582031e+00 -1.015277743339538574e+00 -1.606723666191101074e+00
8.030000000000000000e+02 2.916137886047363281e+01 9.851216316223144531e+00 -1.657784700393676758e+00 -1.391926169395446777e+00 -9.149132966995239258e-01 -1.539088368415832520e+00
8.040000000000000000e+02 3.002894592285156250e+01 9.275115966796875000e+00 -1.525724530220031738e+00 -1.272570610046386719e+00 -8.394885063171386719e-01 -1.241413593292236328e+00
8.050000000000000000e+02 2.859487724304199219e+01 9.416542053222656250e+00 -2.097396373748779297e+00 -1.736110806465148926e+00 -1.150052189826965332e+00 -1.907142877578735352e+00
8.060000000000000000e+02 2.867834091186523438e+01 9.046733856201171875e+00 -2.481071472167968750e+00 -1.261232376098632812e+00 -1.122691154479980469e+00 -1.684105634689331055e+00
8.070000000000000000e+02 2.800766372680664062e+01 8.828255653381347656e+00 -3.501751422882080078e+00 -2.057322740554809570e+00 -1.667722344398498535e+00 -2.547230720520019531e+00
8.080000000000000000e+02 2.771314430236816406e+01 8.554718017578125000e+00 -3.975417137145996094e+00 -2.190591573715209961e+00 -1.849802613258361816e+00 -3.154360055923461914e+00
8.090000000000000000e+02 2.727041435241699219e+01 8.159408569335937500e+00 -4.234668254852294922e+00 -2.606472492218017578e+00 -2.052342176437377930e+00 -3.328038454055786133e+00
8.100000000000000000e+02 2.679916191101074219e+01 7.842544555664062500e+00 -4.624665260314941406e+00 -2.881612777709960938e+00 -2.251883268356323242e+00 -4.260660648345947266e+00
8.110000000000000000e+02 2.632375717163085938e+01 7.528436660766601562e+00 -6.203804492950439453e+00 -3.371004581451416016e+00 -2.872442722320556641e+00 -4.497170448303222656e+00
8.120000000000000000e+02 2.598110771179199219e+01 7.298938274383544922e+00 -6.820497989654541016e+00 -3.540570259094238281e+00 -3.108320474624633789e+00 -4.616383075714111328e+00
8.130000000000000000e+02 2.616645622253417969e+01 7.425003528594970703e+00 -5.994147777557373047e+00 -3.985011339187622070e+00 -2.993747711181640625e+00 -4.809988021850585938e+00
8.140000000000000000e+02 2.648079872131347656e+01 7.650261878967285156e+00 -5.688941001892089844e+00 -3.798530340194702148e+00 -2.846241474151611328e+00 -4.726130962371826172e+00
8.150000000000000000e+02 2.664261054992675781e+01 7.755420207977294922e+00 -5.868226051330566406e+00 -3.785032033920288086e+00 -2.895977258682250977e+00 -4.260929107666015625e+00
8.160000000000000000e+02 2.673066902160644531e+01 7.884767055511474609e+00 -5.347662448883056641e+00 -3.702894210815429688e+00 -2.715167045593261719e+00 -4.647192001342773438e+00
8.170000000000000000e+02 2.691510009765625000e+01 7.947913169860839844e+00 -5.420657634735107422e+00 -3.397586107254028320e+00 -2.645473003387451172e+00 -3.882445335388183594e+00
8.180000000000000000e+02 2.707943534851074219e+01 8.053480148315429688e+00 -4.758754253387451172e+00 -3.057140588760375977e+00 -2.344768524169921875e+00 -3.872981309890747070e+00
8.190000000000000000e+02 2.733045387268066406e+01 8.364109039306640625e+00 -4.733790874481201172e+00 -3.193764209747314453e+00 -2.378266572952270508e+00 -3.832172870635986328e+00
8.200000000000000000e+02 2.755171966552734375e+01 8.395728111267089844e+00 -4.475434780120849609e+00 -2.359445333480834961e+00 -2.050463914871215820e+00 -3.131442546844482422e+00
8.210000000000000000e+02 2.864018058776855469e+01 5.259703159332275391e+00 -2.484612703323364258e+00 -1.574497103691101074e+00 -1.217732906341552734e+00 -1.419923067092895508e+00
8.220000000000000000e+02 2.893214988708496094e+01 5.467707633972167969e+00 -2.440521240234375000e+00 -1.566903710365295410e+00 -1.202227473258972168e+00 -1.328969120979309082e+00
8.230000000000000000e+02 2.671129035949707031e+01 3.597330570220947266e+00 -2.804273366928100586e+00 -8.847758769989013672e-01 -1.106714725494384766e+00 -1.308280706405639648e+00
8.240000000000000000e+02 2.674906158447265625e+01 4.053807258605957031e+00 -2.977491617202758789e+00 -1.032794713973999023e+00 -1.203085899353027344e+00 -1.530245304107666016e+00
8.250000000000000000e+02 2.487758064270019531e+01 2.882638692855834961e+00 -3.399407863616943359e+00 -7.303513884544372559e-01 -1.238927721977233887e+00 -1.532448649406433105e+00
8.260000000000000000e+02 2.300384902954101562e+01 1.502409815788269043e+00 -3.068011760711669922e+00 -4.378557503223419189e-01 -1.051760196685791016e+00 -1.687456130981445312e+00
8.270000000000000000e+02 2.233321762084960938e+01 1.300492167472839355e+00 -2.967571496963500977e+00 -5.778618454933166504e-01 -1.063629984855651855e+00 -2.170571327209472656e+00
8.280000000000000000e+02 2.215766716003417969e+01 1.188091516494750977e+00 -3.008114099502563477e+00 -6.536220312118530273e-01 -1.098520755767822266e+00 -2.304023027420043945e+00
8.290000000000000000e+02 2.072852706909179688e+01 4.011729657649993896e-01 -1.866793155670166016e+00 -2.173184871673583984e+00 -1.211993455886840820e+00 -3.533029317855834961e+00
8.300000000000000000e+02 2.032007026672363281e+01 8.188398927450180054e-02 -1.181029796600341797e+00 -2.862052917480468750e+00 -1.212924838066101074e+00 -4.178111076354980469e+00
8.310000000000000000e+02 2.056720924377441406e+01 -2.676897644996643066e-01 -1.417143106460571289e+00 -1.591869950294494629e+00 -9.027038812637329102e-01 -4.167408466339111328e+00
8.320000000000000000e+02 2.000664520263671875e+01 -2.241733372211456299e-01 -1.432991981506347656e+00 -4.953550338745117188e+00 -1.915962696075439453e+00 -2.819638967514038086e+00
8.330000000000000000e+02 1.912086486816406250e+01 -7.690892815589904785e-01 -2.490933418273925781e+00 -3.386983156204223633e+00 -1.763374924659729004e+00 -2.220191955566406250e+00
8.340000000000000000e+02 1.854864883422851562e+01 -9.911108613014221191e-01 -2.398282766342163086e+00 -2.302590608596801758e+00 -1.410261988639831543e+00 -1.791347384452819824e+00
8.350000000000000000e+02 1.885828590393066406e+01 -7.725710272789001465e-01 -2.482644557952880859e+00 -2.746706247329711914e+00 -1.568805217742919922e+00 -2.073008298873901367e+00
8.360000000000000000e+02 1.847011947631835938e+01 -1.351895570755004883e+00 -2.351905345916748047e+00 -2.563613414764404297e+00 -1.474655628204345703e+00 -1.771177053451538086e+00
8.370000000000000000e+02 1.822039794921875000e+01 -1.231353521347045898e+00 -2.278682947158813477e+00 -2.053736925125122070e+00 -1.299726009368896484e+00 -1.410799860954284668e+00
8.380000000000000000e+02 1.838897323608398438e+01 -1.109503984451293945e+00 -2.104709148406982422e+00 -2.139188051223754883e+00 -1.273169159889221191e+00 -1.736053109169006348e+00
8.390000000000000000e+02 1.735785675048828125e+01 -1.805050611495971680e+00 -1.922432303428649902e+00 -1.169849514961242676e+00 -9.276845455169677734e-01 -1.158704042434692383e+00
8.400000000000000000e+02 1.754431152343750000e+01 -1.695252537727355957e+00 -2.163887977600097656e+00 -1.271306872367858887e+00 -1.030558466911315918e+00 -1.263329863548278809e+00
8.410000000000000000e+02 1.698497200012207031e+01 -1.998098731040954590e+00 -1.878553867340087891e+00 -9.792081713676452637e-01 -8.573285937309265137e-01 -9.654362201690673828e-01
8.420000000000000000e+02 1.660808944702148438e+01 -2.254467010498046875e+00 -1.685433030128479004e+00 -7.871924638748168945e-01 -7.417876720428466797e-01 -8.307815194129943848e-01
8.430000000000000000e+02 1.717044067382812500e+01 -1.902711153030395508e+00 -1.948366165161132812e+00 -1.054065108299255371e+00 -9.007293581962585449e-01 -1.010792016983032227e+00
8.440000000000000000e+02 1.636840438842773438e+01 -2.392839670181274414e+00 -1.696591496467590332e+00 -6.672871112823486328e-01 -7.091636061668395996e-01 -9.201256036758422852e-01
8.450000000000000000e+02 1.672133636474609375e+01 -2.639101505279541016e+00 -1.686303734779357910e+00 -1.077470302581787109e+00 -8.291321992874145508e-01 -1.152428030967712402e+00
8.460000000000000000e+02 1.245584392547607422e+01 -2.319224596023559570e+00 -6.957492828369140625e-01 -5.220215395092964172e-02 -2.243854254484176636e-01 -2.493482083082199097e-01
8.470000000000000000e+02 1.326397228240966797e+01 -2.391245603561401367e+00 -8.569514751434326172e-01 -4.858704656362533569e-02 -2.716615498065948486e-01 -3.047427237033843994e-01
8.480000000000000000e+02 1.413296318054199219e+01 -2.430427074432373047e+00 -1.076853752136230469e+00 -1.666644662618637085e-01 -3.730554580688476562e-01 -4.476586580276489258e-01
8.490000000000000000e+02 1.100646305084228516e+01 -2.927732706069946289e+00 -5.265476703643798828e-01 -2.422945573925971985e-02 -1.652331352233886719e-01 -2.611473500728607178e-01
8.500000000000000000e+02 9.471262931823730469e+00 -1.936964392662048340e+00 -2.869762778282165527e-01 -1.167443022131919861e-02 -8.959521353244781494e-02 -1.081606894731521606e-01
8.510000000000000000e+02 8.666625976562500000e+00 -1.921125292778015137e+00 -2.286520153284072876e-01 -3.079689573496580124e-03 -6.951951235532760620e-02 -9.526461362838745117e-02
8.520000000000000000e+02 7.854391098022460938e+00 -1.916778564453125000e+00 -1.747025400400161743e-01 -1.699510589241981506e-02 -5.750929564237594604e-02 -8.160459250211715698e-02
8.530000000000000000e+02 7.039133071899414062e+00 -1.919602155685424805e+00 -1.363102495670318604e-01 -1.174253690987825394e-02 -4.441583529114723206e-02 -7.025387883186340332e-02
8.540000000000000000e+02 5.405584335327148438e+00 -1.938290596008300781e+00 -7.405880093574523926e-02 -1.541803684085607529e-02 -2.684305235743522644e-02 -4.314414411783218384e-02
8.550000000000000000e+02 2.951793909072875977e+00 -2.011403560638427734e+00 -2.071766927838325500e-02 -1.487961225211620331e-02 -1.067918445914983749e-02 -6.990258581936359406e-03
8.560000000000000000e+02 3.127347707748413086e+00 -2.993506669998168945e+00 -4.327782988548278809e-02 -2.944683842360973358e-02 -2.181740105152130127e-02 -2.666401676833629608e-02
8.570000000000000000e+02 2.122095346450805664e+00 -2.069258689880371094e+00 -1.047732215374708176e-02 -1.115944422781467438e-02 -6.491030100733041763e-03 2.507752040401101112e-03
8.580000000000000000e+02 1.284535765647888184e+00 -2.146919965744018555e+00 -2.342025516554713249e-03 1.866322476416826248e-03 -1.427109236828982830e-04 8.792025968432426453e-03
8.590000000000000000e+02 4.325427711009979248e-01 -2.197908163070678711e+00 -4.214574582874774933e-04 1.761072129011154175e-02 5.156779196113348007e-03 3.650358878076076508e-03
8.600000000000000000e+02 1.922568202018737793e+00 -4.176361465454101562e+01 -5.012671649456024170e-02 -1.612356305122375488e+00 -4.987449347972869873e-01 1.421739161014556885e-02
8.610000000000000000e+02 1.371689558029174805e+00 -4.035739517211914062e+01 1.140350196510553360e-02 -1.638999104499816895e+00 -4.882786870002746582e-01 3.703103587031364441e-02
8.620000000000000000e+02 1.351840138435363770e+00 -3.895481872558593750e+01 2.904657833278179169e-02 -1.665381193161010742e+00 -4.909003973007202148e-01 1.650195941329002380e-02
8.630000000000000000e+02 9.833074808120727539e-01 -3.457010650634765625e+01 -3.638774389401078224e-03 -1.642699003219604492e+00 -4.939013123512268066e-01 -1.424341276288032532e-02
8.640000000000000000e+02 8.766384720802307129e-01 -3.315151596069335938e+01 4.062013700604438782e-03 -1.620821595191955566e+00 -4.850278794765472412e-01 -1.301713753491640091e-02
8.650000000000000000e+02 6.679212450981140137e-01 -2.892620277404785156e+01 4.698252887465059757e-04 -1.519495248794555664e+00 -4.557076096534729004e-01 -2.089175023138523102e-02
8.660000000000000000e+02 6.434007287025451660e-01 -2.752345085144042969e+01 2.881368855014443398e-03 -1.469821095466613770e+00 -4.400819242000579834e-01 -2.367183566093444824e-02
8.670000000000000000e+02 6.339625120162963867e-01 -2.612318992614746094e+01 3.718078369274735451e-04 -1.411845207214355469e+00 -4.234420061111450195e-01 -2.807448245584964752e-02
8.680000000000000000e+02 6.298133134841918945e-01 -2.191065216064453125e+01 1.908305275719612837e-04 -1.189369440078735352e+00 -3.567535579204559326e-01 -3.726045042276382446e-02
8.690000000000000000e+02 6.242886781692504883e-01 -2.050347137451171875e+01 3.526092041283845901e-03 -1.100263357162475586e+00 -3.290211856365203857e-01 -4.123626649379730225e-02
8.700000000000000000e+02 1.881969690322875977e+00 -2.033380126953125000e+01 6.395977921783924103e-03 -1.012831568717956543e+00 -3.019306957721710205e-01 -1.205607056617736816e-01
8.710000000000000000e+02 5.945135354995727539e-01 -1.628498840332031250e+01 -2.468839287757873535e-03 -7.824880480766296387e-01 -2.354870587587356567e-01 -4.849113523960113525e-02
8.720000000000000000e+02 5.822673439979553223e-01 -1.488169860839843750e+01 3.295315196737647057e-03 -6.644757986068725586e-01 -1.983541548252105713e-01 -4.913859441876411438e-02
8.730000000000000000e+02 5.699651837348937988e-01 -1.347933578491210938e+01 -3.578112926334142685e-03 -5.424681901931762695e-01 -1.638138890266418457e-01 -4.894167929887771606e-02
8.740000000000000000e+02 1.718991160392761230e+00 -1.339559173583984375e+01 7.332971435971558094e-04 -5.411170721054077148e-01 -1.621151268482208252e-01 -1.420474052429199219e-01
8.750000000000000000e+02 5.286027789115905762e-01 -9.287514686584472656e+00 -2.927748719230294228e-04 -2.016028016805648804e-01 -6.056867167353630066e-02 -3.660247847437858582e-02
8.760000000000000000e+02 5.149444937705993652e-01 -7.899334430694580078e+00 -4.738173447549343109e-03 -1.116727963089942932e-01 -3.492329269647598267e-02 -2.923138067126274109e-02
8.770000000000000000e+02 3.928637027740478516e+00 -2.910736799240112305e+00 -5.852577462792396545e-02 -3.570372611284255981e-02 -2.826885133981704712e-02 -4.124888032674789429e-02
8.780000000000000000e+02 4.093864440917968750e+00 -3.826915025711059570e+00 -8.050182461738586426e-02 -5.716300383210182190e-02 -4.129944741725921631e-02 -7.389357686042785645e-02
8.790000000000000000e+02 6.671462249755859375e+01 -3.746227264404296875e+01 1.384194493293762207e-01 3.950947761535644531e+00 1.226810216903686523e+00 1.138244494795799255e-01
8.800000000000000000e+02 4.739614105224609375e+01 -3.866622924804687500e+01 1.035740256309509277e+00 8.553953766822814941e-01 5.673406720161437988e-01 5.696864724159240723e-01
8.810000000000000000e+02 1.221654796600341797e+01 -4.080318450927734375e+01 1.366691291332244873e-01 -6.846904158592224121e-01 -1.644063889980316162e-01 -3.025867603719234467e-02
8.820000000000000000e+02 7.689212036132812500e+01 3.931517791748046875e+01 -1.003642559051513672e+00 1.213531494140625000e+01 3.339501857757568359e+00 1.109289526939392090e+00
8.830000000000000000e+02 7.880297088623046875e+01 4.016388702392578125e+01 -1.109880357980728149e-01 1.140536117553710938e+01 3.388312101364135742e+00 5.415801405906677246e-01
8.840000000000000000e+02 7.795365905761718750e+01 3.838557052612304688e+01 -4.178076386451721191e-01 1.132278251647949219e+01 3.271492481231689453e+00 1.637714266777038574e+00
8.850000000000000000e+02 7.517192840576171875e+01 3.359959411621093750e+01 7.375133514404296875e+00 1.672604560852050781e+01 7.230353832244873047e+00 -1.654522895812988281e+00
8.860000000000000000e+02 7.421965026855468750e+01 3.246107482910156250e+01 -8.174297809600830078e-01 2.083409881591796875e+01 6.005000591278076172e+00 4.394884109497070312e-01
8.870000000000000000e+02 7.949093627929687500e+01 2.648009109497070312e+01 -6.516708433628082275e-02 1.157929992675781250e+01 3.454239845275878906e+00 -1.611498594284057617e-01
8.880000000000000000e+02 7.752484893798828125e+01 2.644316673278808594e+01 -4.687181115150451660e-01 1.075979042053222656e+01 3.087321758270263672e+00 -1.602512449026107788e-01
8.890000000000000000e+02 7.948728179931640625e+01 2.509161949157714844e+01 -2.786606363952159882e-02 1.167637062072753906e+01 3.494551420211791992e+00 -3.171341121196746826e-02
8.900000000000000000e+02 7.943904113769531250e+01 2.093711471557617188e+01 -6.887774448841810226e-03 1.088940238952636719e+01 3.264754295349121094e+00 9.913542121648788452e-02
8.910000000000000000e+02 7.942208099365234375e+01 1.954656219482421875e+01 -4.438159987330436707e-03 1.052523708343505859e+01 3.156239509582519531e+00 1.119388863444328308e-01
8.920000000000000000e+02 7.711225128173828125e+01 1.973331832885742188e+01 -1.087706442922353745e-02 9.259031295776367188e+00 2.774446249008178711e+00 6.255545020103454590e-01
8.930000000000000000e+02 7.940548706054687500e+01 1.815326118469238281e+01 1.894546730909496546e-04 1.016165828704833984e+01 3.048554182052612305e+00 1.156665682792663574e-01
8.940000000000000000e+02 7.936490631103515625e+01 1.397001743316650391e+01 1.929641119204461575e-03 9.187570571899414062e+00 2.756850004196166992e+00 1.024539023637771606e-01
8.950000000000000000e+02 7.935670471191406250e+01 1.257350826263427734e+01 3.412446472793817520e-03 8.912087440490722656e+00 2.674650192260742188e+00 9.586302936077117920e-02
8.960000000000000000e+02 7.935214996337890625e+01 1.117573642730712891e+01 2.873614430427551270e-03 8.658818244934082031e+00 2.598507642745971680e+00 8.854526281356811523e-02
8.970000000000000000e+02 7.935382080078125000e+01 6.988401889801025391e+00 2.766142832115292549e-03 8.017809867858886719e+00 2.406172752380371094e+00 6.681860238313674927e-02
8.980000000000000000e+02 7.935415649414062500e+01 5.592156887054443359e+00 2.495960332453250885e-03 7.838893890380859375e+00 2.352416992187500000e+00 6.082278117537498474e-02
8.990000000000000000e+02 7.935205841064453125e+01 4.195326328277587891e+00 1.754438504576683044e-03 7.674480915069580078e+00 2.302870512008666992e+00 5.592637136578559875e-02
9.000000000000000000e+02 7.934372711181640625e+01 1.202818751335144043e-02 1.098987646400928497e-03 7.257493495941162109e+00 2.177577733993530273e+00 4.321493580937385559e-02
9.010000000000000000e+02 7.934786987304687500e+01 -1.377173066139221191e+00 3.280381672084331512e-03 7.141161441802978516e+00 2.143332481384277344e+00 3.831171616911888123e-02
9.020000000000000000e+02 7.810190582275390625e+01 -4.109332561492919922e+00 5.456268787384033203e-03 6.698970317840576172e+00 2.011327981948852539e+00 1.165175139904022217e-01
9.030000000000000000e+02 7.936837005615234375e+01 -4.153246879577636719e+00 2.945807296782732010e-03 6.935566425323486328e+00 2.081553697586059570e+00 3.115813247859477997e-02
9.040000000000000000e+02 7.938615417480468750e+01 -8.316942214965820312e+00 4.652547941077500582e-04 6.679328441619873047e+00 2.003938198089599609e+00 2.314613386988639832e-02
9.050000000000000000e+02 7.810999298095703125e+01 -1.099069213867187500e+01 3.388297045603394508e-03 6.329513549804687500e+00 1.899870514869689941e+00 7.856071740388870239e-02
9.060000000000000000e+02 7.937030029296875000e+01 -1.109678268432617188e+01 4.741460143122822046e-04 6.537159919738769531e+00 1.961290240287780762e+00 2.109176293015480042e-02
9.070000000000000000e+02 7.935530090332031250e+01 -1.526348876953125000e+01 1.835100236348807812e-03 6.360097408294677734e+00 1.908579826354980469e+00 1.621934771537780762e-02
9.080000000000000000e+02 7.809796905517578125e+01 -1.790586471557617188e+01 1.554730988573282957e-04 6.066824436187744141e+00 1.820093989372253418e+00 5.802191421389579773e-02
9.090000000000000000e+02 7.936624908447265625e+01 -1.804245948791503906e+01 2.131507499143481255e-03 6.261932849884033203e+00 1.879219293594360352e+00 1.458020973950624466e-02
9.100000000000000000e+02 7.937860870361328125e+01 -2.358791351318359375e+01 1.397331361658871174e-03 6.090729236602783203e+00 1.827638030052185059e+00 1.236162427812814713e-02
9.110000000000000000e+02 7.809310913085937500e+01 -2.473949813842773438e+01 1.837451127357780933e-03 5.870315551757812500e+00 1.761645913124084473e+00 4.413387924432754517e-02
9.120000000000000000e+02 7.936331176757812500e+01 -2.497249412536621094e+01 -1.945503288879990578e-03 6.051786899566650391e+00 1.814952373504638672e+00 1.347326114773750305e-02
9.130000000000000000e+02 7.926567077636718750e+01 -2.914148902893066406e+01 1.489773159846663475e-03 5.944100379943847656e+00 1.783676981925964355e+00 1.490296423435211182e-02
9.140000000000000000e+02 7.762683868408203125e+01 -3.167363739013671875e+01 3.153523895889520645e-03 5.659807682037353516e+00 1.698888421058654785e+00 4.205757379531860352e-02
9.150000000000000000e+02 7.922502136230468750e+01 -3.192251586914062500e+01 6.428982014767825603e-04 5.885458946228027344e+00 1.765830636024475098e+00 1.219660881906747818e-02
9.160000000000000000e+02 7.920147705078125000e+01 -3.604989242553710938e+01 -1.282544992864131927e-02 5.792982578277587891e+00 1.734047174453735352e+00 2.250225096940994263e-02
9.170000000000000000e+02 7.902542877197265625e+01 -3.738252639770507812e+01 5.296484596328809857e-05 5.744718551635742188e+00 1.723431468009948730e+00 3.022678755223751068e-02
9.180000000000000000e+02 7.860977172851562500e+01 -3.874312210083007812e+01 -2.077151462435722351e-02 5.689957618713378906e+00 1.700755834579467773e+00 4.829437658190727234e-02
9.190000000000000000e+02 7.799239349365234375e+01 -4.173232650756835938e+01 7.490928471088409424e-02 5.607848167419433594e+00 1.704827308654785156e+00 2.091459557414054871e-02
9.200000000000000000e+02 8.391354560852050781e+00 3.659235382080078125e+01 -5.390984471887350082e-03 -3.844175487756729126e-02 -1.314982213079929352e-02 -4.403745289891958237e-03
9.210000000000000000e+02 2.724266052246093750e+01 4.104795074462890625e+01 2.185745537281036377e-02 7.312437891960144043e-02 2.849454991519451141e-02 6.235668435692787170e-03
9.220000000000000000e+02 6.897610473632812500e+01 3.681140518188476562e+01 3.510878086090087891e-01 8.465365767478942871e-01 3.592873215675354004e-01 -5.367631912231445312e-01
9.230000000000000000e+02 3.864137232303619385e-01 2.212972164154052734e+00 -2.211126731708645821e-03 -2.121412381529808044e-02 -7.027575280517339706e-03 9.121287614107131958e-03
9.240000000000000000e+02 2.908399105072021484e+00 3.144120454788208008e+00 -2.957021631300449371e-02 -6.188797578215599060e-02 -2.743745781481266022e-02 8.729711174964904785e-02
9.250000000000000000e+02 5.030163288116455078e+00 2.659764289855957031e+00 -8.091609925031661987e-02 -6.123428419232368469e-02 -4.264511540532112122e-02 1.450374126434326172e-01
9.260000000000000000e+02 1.415730714797973633e+00 6.512349605560302734e+00 6.788077764213085175e-03 -1.553978174924850464e-01 -4.458292201161384583e-02 4.485805705189704895e-02
9.270000000000000000e+02 4.946554005146026611e-01 9.264381408691406250e+00 1.484633772633969784e-03 -2.417429834604263306e-01 -7.207750529050827026e-02 6.882965099066495895e-03
9.280000000000000000e+02 5.285751819610595703e-01 1.206312561035156250e+01 1.124835689552128315e-03 -2.581703066825866699e-01 -7.711364328861236572e-02 -6.752612534910440445e-04
9.290000000000000000e+02 1.597938656806945801e+00 1.197239112854003906e+01 5.003376863896846771e-03 -2.138939052820205688e-01 -6.266716122627258301e-02 1.035307286656461656e-04
9.300000000000000000e+02 5.644395947456359863e-01 1.627526092529296875e+01 -2.817943750414997339e-04 -2.330660074949264526e-01 -7.000433653593063354e-02 -4.861680325120687485e-03
9.310000000000000000e+02 6.069623231887817383e-01 2.192957687377929688e+01 -8.403373649343848228e-04 -1.838027238845825195e-01 -5.539292097091674805e-02 -4.547819960862398148e-03
9.320000000000000000e+02 6.096300482749938965e-01 2.334212112426757812e+01 4.946256522089242935e-04 -1.735693663358688354e-01 -5.192242190241813660e-02 -4.322084132581949234e-03
9.330000000000000000e+02 1.841106653213500977e+00 2.320111274719238281e+01 -1.522823586128652096e-03 -1.511994004249572754e-01 -4.581666737794876099e-02 -1.140095945447683334e-02
9.340000000000000000e+02 6.045922636985778809e-01 2.474991226196289062e+01 -1.012551132589578629e-03 -1.646010726690292358e-01 -4.968408867716789246e-02 -3.519608639180660248e-03
9.350000000000000000e+02 5.977816581726074219e-01 2.895469856262207031e+01 3.789981710724532604e-04 -1.433543115854263306e-01 -4.289259389042854309e-02 -2.558982465416193008e-03
9.360000000000000000e+02 6.291186213493347168e-01 3.036007881164550781e+01 -4.894260200671851635e-04 -1.378424763679504395e-01 -4.149957001209259033e-02 -2.251493278890848160e-03
9.370000000000000000e+02 1.889692187309265137e+00 3.008925437927246094e+01 -3.926351782865822315e-04 -1.229677349328994751e-01 -3.700811043381690979e-02 -6.170633714646100998e-03
9.380000000000000000e+02 6.763712763786315918e-01 3.176146125793457031e+01 2.154599351342767477e-04 -1.331420689821243286e-01 -3.987798094749450684e-02 -2.100938698276877403e-03
9.390000000000000000e+02 8.257130980491638184e-01 3.595901870727539062e+01 -3.105656651314347982e-04 -1.215928122401237488e-01 -3.657101467251777649e-02 -2.133835572749376297e-03
9.400000000000000000e+02 3.082499027252197266e+00 3.802115631103515625e+01 9.235176839865744114e-04 -9.896283596754074097e-02 -2.941179648041725159e-02 -4.615216981619596481e-03
9.410000000000000000e+02 1.095254182815551758e+00 3.871401214599609375e+01 7.975051994435489178e-04 -1.137389540672302246e-01 -3.388243541121482849e-02 -3.169690258800983429e-03
9.420000000000000000e+02 1.413909792900085449e+00 4.010631942749023438e+01 9.717114153318107128e-04 -1.092379391193389893e-01 -3.247986733913421631e-02 -4.235491622239351273e-03
9.430000000000000000e+02 9.082008361816406250e+00 1.765689015388488770e+00 -2.898304462432861328e-01 -2.322185635566711426e-01 -1.566147059202194214e-01 3.950130939483642578e-01
9.440000000000000000e+02 8.364339828491210938e+00 1.758559703826904297e+00 -3.124815523624420166e-01 -1.316093802452087402e-01 -1.332272738218307495e-01 3.153319954872131348e-01
9.450000000000000000e+02 7.653695583343505859e+00 1.768444657325744629e+00 -2.706965208053588867e-01 -9.515186399221420288e-02 -1.097545102238655090e-01 2.490669786930084229e-01
9.460000000000000000e+02 6.945361137390136719e+00 1.794701814651489258e+00 -2.280634045600891113e-01 -6.243906915187835693e-02 -8.715073764324188232e-02 1.999653726816177368e-01
9.470000000000000000e+02 4.804390907287597656e+00 1.893356323242187500e+00 -1.132820397615432739e-01 -3.581254929304122925e-02 -4.472837597131729126e-02 1.144388243556022644e-01
9.480000000000000000e+02 4.086147308349609375e+00 1.937796354293823242e+00 -8.492016047239303589e-02 -2.975684404373168945e-02 -3.440310060977935791e-02 9.420014917850494385e-02
9.490000000000000000e+02 3.364714384078979492e+00 1.996081233024597168e+00 -6.092863529920578003e-02 -3.132446855306625366e-02 -2.767593227326869965e-02 7.639443874359130859e-02
9.500000000000000000e+02 1.897522330284118652e+00 2.154557704925537109e+00 -2.378667891025543213e-02 -3.329310566186904907e-02 -1.712393574416637421e-02 4.078612476587295532e-02
9.510000000000000000e+02 1.149508237838745117e+00 2.207690238952636719e+00 -1.106115896254777908e-02 -2.941579557955265045e-02 -1.214308664202690125e-02 2.466126531362533569e-02
9.520000000000000000e+02 1.389905738830566406e+01 3.358757972717285156e+00 3.687434494495391846e-01 2.019937515258789062e+00 7.166042923927307129e-01 4.384199082851409912e-01
9.530000000000000000e+02 1.173089885711669922e+01 3.311773538589477539e+00 6.021673679351806641e-01 6.555557996034622192e-02 2.003168910741806030e-01 -1.898519098758697510e-01
9.540000000000000000e+02 1.313040256500244141e+01 2.602956295013427734e+00 7.625736594200134277e-01 1.566798925399780273e+00 6.988117694854736328e-01 -6.068434119224548340e-01
9.550000000000000000e+02 1.457897758483886719e+01 1.086919546127319336e+00 5.710209369659423828e+00 2.649391412734985352e+00 2.507880210876464844e+00 -3.318147182464599609e+00
9.560000000000000000e+02 1.507569217681884766e+01 8.763532638549804688e-01 9.862892150878906250e+00 1.079393863677978516e+00 3.282685756683349609e+00 -2.688781499862670898e+00
9.570000000000000000e+02 1.372000217437744141e+01 2.549467325210571289e+00 4.582957029342651367e-01 3.175311088562011719e+00 1.090082049369812012e+00 -3.941568732261657715e-01
9.580000000000000000e+02 1.436318874359130859e+01 4.063685417175292969e+00 4.638958275318145752e-01 8.905373215675354004e-01 4.063299298286437988e-01 5.284698605537414551e-01
9.590000000000000000e+02 1.519704055786132812e+01 4.985926151275634766e+00 2.126997709274291992e-01 3.394768536090850830e-01 1.656529903411865234e-01 3.010522425174713135e-01
9.600000000000000000e+02 1.464458179473876953e+01 5.300091743469238281e+00 1.863402426242828369e-01 5.467259287834167480e-01 2.199198603630065918e-01 3.126803934574127197e-01
9.610000000000000000e+02 1.608602333068847656e+01 5.875128269195556641e+00 2.570199966430664062e-01 3.604518473148345947e-01 1.852415502071380615e-01 2.833383381366729736e-01
9.620000000000000000e+02 1.580160713195800781e+01 5.589773178100585938e+00 2.230447232723236084e-01 3.718371093273162842e-01 1.784645467996597290e-01 2.800855040550231934e-01
9.630000000000000000e+02 1.666762161254882812e+01 6.423103332519531250e+00 2.482254058122634888e-01 2.574899196624755859e-01 1.517145931720733643e-01 2.462667822837829590e-01
9.640000000000000000e+02 1.776947402954101562e+01 7.536696910858154297e+00 1.823905259370803833e-01 2.234936654567718506e-01 1.217652559280395508e-01 2.001919150352478027e-01
9.650000000000000000e+02 1.853435516357421875e+01 8.473847389221191406e+00 1.942825168371200562e-01 2.227113544940948486e-01 1.250981539487838745e-01 2.050172686576843262e-01
9.660000000000000000e+02 1.886260414123535156e+01 9.350380897521972656e+00 1.673430204391479492e-01 2.039871364831924438e-01 1.113990470767021179e-01 1.775406599044799805e-01
9.670000000000000000e+02 1.883283996582031250e+01 8.760028839111328125e+00 2.021898478269577026e-01 2.115740478038787842e-01 1.241291686892509460e-01 1.990617811679840088e-01
9.680000000000000000e+02 1.914019203186035156e+01 9.033149719238281250e+00 1.971730440855026245e-01 1.879133731126785278e-01 1.155259236693382263e-01 1.901872754096984863e-01
9.690000000000000000e+02 1.944580078125000000e+01 9.300265312194824219e+00 1.840886622667312622e-01 1.689761132001876831e-01 1.059194356203079224e-01 1.751777678728103638e-01
9.700000000000000000e+02 1.917725753784179688e+01 1.020928668975830078e+01 1.416390240192413330e-01 1.883974075317382812e-01 9.901092946529388428e-02 1.703946292400360107e-01
9.710000000000000000e+02 1.974360847473144531e+01 9.567679405212402344e+00 1.641907840967178345e-01 1.564366370439529419e-01 9.618822485208511353e-02 1.652868837118148804e-01
9.720000000000000000e+02 2.003072166442871094e+01 9.840211868286132812e+00 1.509501338005065918e-01 1.583826690912246704e-01 9.279984235763549805e-02 1.575138419866561890e-01
9.730000000000000000e+02 2.030870819091796875e+01 1.012270736694335938e+01 1.439155787229537964e-01 1.649861484766006470e-01 9.267051517963409424e-02 1.582138091325759888e-01
9.740000000000000000e+02 2.058079719543457031e+01 1.041396236419677734e+01 1.469236165285110474e-01 1.752992570400238037e-01 9.666686505079269409e-02 1.596984118223190308e-01
9.750000000000000000e+02 1.974615859985351562e+01 1.015224838256835938e+01 1.490478366613388062e-01 1.707367599010467529e-01 9.593538194894790649e-02 1.693031489849090576e-01
9.760000000000000000e+02 2.112640762329101562e+01 1.099813842773437500e+01 1.566013246774673462e-01 1.737328767776489258e-01 9.910025447607040405e-02 1.619998514652252197e-01
9.770000000000000000e+02 2.168793296813964844e+01 1.156562042236328125e+01 1.481938511133193970e-01 1.574155688285827637e-01 9.168282896280288696e-02 1.526931524276733398e-01
9.780000000000000000e+02 2.196848106384277344e+01 1.184923648834228516e+01 1.407919675111770630e-01 1.538677066564559937e-01 8.839789777994155884e-02 1.491570621728897095e-01
9.790000000000000000e+02 2.251908683776855469e+01 1.242679214477539062e+01 1.368642598390579224e-01 1.582850366830825806e-01 8.854478597640991211e-02 1.478270292282104492e-01
9.800000000000000000e+02 2.307027053833007812e+01 1.300895500183105469e+01 1.434934586286544800e-01 1.585498601198196411e-01 9.061300009489059448e-02 1.495528221130371094e-01
9.810000000000000000e+02 2.335142517089843750e+01 1.329621601104736328e+01 1.470413506031036377e-01 1.542483270168304443e-01 9.038689732551574707e-02 1.484181284904479980e-01
9.820000000000000000e+02 2.363698005676269531e+01 1.357927322387695312e+01 1.486316025257110596e-01 1.471901386976242065e-01 8.874652534723281860e-02 1.461732238531112671e-01
9.830000000000000000e+02 2.392672729492187500e+01 1.385760116577148438e+01 1.487066149711608887e-01 1.389171034097671509e-01 8.628711849451065063e-02 1.416544169187545776e-01
9.840000000000000000e+02 2.451463127136230469e+01 1.440251731872558594e+01 1.374861449003219604e-01 1.207782104611396790e-01 7.747931033372879028e-02 1.287788748741149902e-01
9.850000000000000000e+02 2.509625244140625000e+01 1.495223617553710938e+01 1.191503480076789856e-01 1.137716770172119141e-01 6.987661123275756836e-02 1.184107437729835510e-01
9.860000000000000000e+02 2.478477859497070312e+01 1.521556472778320312e+01 1.153770536184310913e-01 1.222215667366981506e-01 7.127958536148071289e-02 1.232912465929985046e-01
9.870000000000000000e+02 2.565609359741210938e+01 1.552899456024169922e+01 1.110173091292381287e-01 1.197752580046653748e-01 6.923776865005493164e-02 1.164850890636444092e-01
9.880000000000000000e+02 2.560445976257324219e+01 1.611717224121093750e+01 1.105695143342018127e-01 1.206684634089469910e-01 6.937139481306076050e-02 1.166106835007667542e-01
9.890000000000000000e+02 2.505916595458984375e+01 1.550802898406982422e+01 1.127976849675178528e-01 1.203847676515579224e-01 6.995473802089691162e-02 1.207058429718017578e-01
9.900000000000000000e+02 2.706160926818847656e+01 1.698137855529785156e+01 1.174224913120269775e-01 1.193226426839828491e-01 7.102353870868682861e-02 1.172575876116752625e-01
9.910000000000000000e+02 2.764971733093261719e+01 1.753523826599121094e+01 1.156005114316940308e-01 1.093615144491195679e-01 6.748860329389572144e-02 1.119109988212585449e-01
9.920000000000000000e+02 2.735491943359375000e+01 1.725999641418457031e+01 1.174998581409454346e-01 1.147573515772819519e-01 6.967715919017791748e-02 1.148645654320716858e-01
9.930000000000000000e+02 2.823603820800781250e+01 1.808258819580078125e+01 1.091347709298133850e-01 1.011993065476417542e-01 6.310021877288818359e-02 1.053226888179779053e-01
9.940000000000000000e+02 2.852591323852539062e+01 1.835758209228515625e+01 1.059887036681175232e-01 9.887097030878067017e-02 6.145790219306945801e-02 1.024382561445236206e-01
9.950000000000000000e+02 2.881416893005371094e+01 1.863434791564941406e+01 1.029045581817626953e-01 9.682621061801910400e-02 5.991923063993453979e-02 1.001886725425720215e-01
9.960000000000000000e+02 2.938806533813476562e+01 1.919214439392089844e+01 9.744787961244583130e-02 9.367903321981430054e-02 5.733807384967803955e-02 9.599199891090393066e-02
9.970000000000000000e+02 2.967427444458007812e+01 1.947190093994140625e+01 9.494440257549285889e-02 9.257929027080535889e-02 5.625710636377334595e-02 9.401352703571319580e-02
9.980000000000000000e+02 2.996008110046386719e+01 1.975141334533691406e+01 9.250282496213912964e-02 9.165272116661071777e-02 5.524666234850883484e-02 9.260220080614089966e-02
9.990000000000000000e+02 3.024552154541015625e+01 2.003016662597656250e+01 9.114009886980056763e-02 9.147773683071136475e-02 5.478535220026969910e-02 9.141650795936584473e-02
1.000000000000000000e+03 3.081970214843750000e+01 2.058285140991210938e+01 9.159540385007858276e-02 8.977336436510086060e-02 5.441062897443771362e-02 8.976994454860687256e-02
1.001000000000000000e+03 3.220314788818359375e+01 2.199173736572265625e+01 6.612211465835571289e-02 7.298064976930618286e-02 4.173082858324050903e-02 7.341530919075012207e-02
1.002000000000000000e+03 3.247550582885742188e+01 2.231195259094238281e+01 6.228584423661231995e-02 7.791406661272048950e-02 4.205997288227081299e-02 7.300579547882080078e-02
1.003000000000000000e+03 3.277313995361328125e+01 2.260194778442382812e+01 6.244489923119544983e-02 8.466938883066177368e-02 4.413428530097007751e-02 7.375294715166091919e-02
1.004000000000000000e+03 3.332029724121093750e+01 2.318541717529296875e+01 6.704514473676681519e-02 8.964635431766510010e-02 4.700744897127151489e-02 7.682313770055770874e-02
1.005000000000000000e+03 3.242049026489257812e+01 2.298048210144042969e+01 6.656669825315475464e-02 8.174479752779006958e-02 4.449344798922538757e-02 7.630538195371627808e-02
1.006000000000000000e+03 3.386036300659179688e+01 2.376658630371093750e+01 6.433165073394775391e-02 8.502370864152908325e-02 4.480660706758499146e-02 7.456418126821517944e-02
1.007000000000000000e+03 3.359218215942382812e+01 2.347620773315429688e+01 6.682667136192321777e-02 8.733544498682022095e-02 4.624863341450691223e-02 7.611238211393356323e-02
1.008000000000000000e+03 3.412212753295898438e+01 2.406029129028320312e+01 6.161637604236602783e-02 8.508148789405822754e-02 4.400935769081115723e-02 7.332961261272430420e-02
1.009000000000000000e+03 3.437637710571289062e+01 2.436120414733886719e+01 6.062109023332595825e-02 8.762811869382858276e-02 4.447476193308830261e-02 7.363571971654891968e-02
1.010000000000000000e+03 3.487250900268554688e+01 2.498110389709472656e+01 6.535378098487854004e-02 9.174804389476776123e-02 4.713054746389389038e-02 7.651019841432571411e-02
1.011000000000000000e+03 3.512243270874023438e+01 2.529590415954589844e+01 6.715445220470428467e-02 8.933142572641372681e-02 4.694576561450958252e-02 7.626149058341979980e-02
1.012000000000000000e+03 3.590207672119140625e+01 2.623709106445312500e+01 5.907670781016349792e-02 8.172506093978881836e-02 4.224053025245666504e-02 7.101818919181823730e-02
1.013000000000000000e+03 3.645219039916992188e+01 2.682889366149902344e+01 5.979664996266365051e-02 8.827205747365951538e-02 4.442061111330986023e-02 7.274290174245834351e-02
1.014000000000000000e+03 3.671772003173828125e+01 2.712631034851074219e+01 6.384564936161041260e-02 9.107880294322967529e-02 4.647733271121978760e-02 7.507053017616271973e-02
1.015000000000000000e+03 3.750396347045898438e+01 2.802725028991699219e+01 7.230162620544433594e-02 8.216553181409835815e-02 4.634014889597892761e-02 7.594045251607894897e-02
1.016000000000000000e+03 3.776727294921875000e+01 2.832739639282226562e+01 7.238116860389709473e-02 7.780441641807556152e-02 4.505567625164985657e-02 7.392192631959915161e-02
1.017000000000000000e+03 3.724237060546875000e+01 2.772649574279785156e+01 7.117786258459091187e-02 8.680491894483566284e-02 4.739483445882797241e-02 7.703074812889099121e-02
1.018000000000000000e+03 3.860260391235351562e+01 2.918632316589355469e+01 6.773263961076736450e-02 6.878212839365005493e-02 4.095442965626716614e-02 6.845998018980026245e-02
1.019000000000000000e+03 3.762197494506835938e+01 2.893226242065429688e+01 6.630310416221618652e-02 7.779271900653839111e-02 4.322874918580055237e-02 6.953787058591842651e-02
1.020000000000000000e+03 3.887128448486328125e+01 2.948772430419921875e+01 6.679369509220123291e-02 6.807133555412292480e-02 4.045950993895530701e-02 6.740532815456390381e-02
1.021000000000000000e+03 3.975473022460937500e+01 3.036952590942382812e+01 7.049728929996490479e-02 6.581534445285797119e-02 4.089378938078880310e-02 6.691226363182067871e-02
1.022000000000000000e+03 4.037134933471679688e+01 3.092017745971679688e+01 7.142490893602371216e-02 6.038990244269371033e-02 3.954444453120231628e-02 6.449569016695022583e-02
1.023000000000000000e+03 4.005411911010742188e+01 3.065408134460449219e+01 7.132617384195327759e-02 6.318064779043197632e-02 4.035204648971557617e-02 6.598047912120819092e-02
1.024000000000000000e+03 4.099695968627929688e+01 3.140647506713867188e+01 6.967730075120925903e-02 5.565550923347473145e-02 3.759984299540519714e-02 6.163210421800613403e-02
1.025000000000000000e+03 4.037944030761718750e+01 3.183510017395019531e+01 6.807366013526916504e-02 6.060108169913291931e-02 3.860242292284965515e-02 6.256668269634246826e-02
1.026000000000000000e+03 4.156887435913085938e+01 3.194781494140625000e+01 6.962164491415023804e-02 5.455375462770462036e-02 3.725261986255645752e-02 6.081905961036682129e-02
1.027000000000000000e+03 4.186519622802734375e+01 3.222725296020507812e+01 7.006726413965225220e-02 5.350501462817192078e-02 3.707168623805046082e-02 6.111717969179153442e-02
1.028000000000000000e+03 4.216876220703125000e+01 3.250642395019531250e+01 7.114057242870330811e-02 5.331344529986381531e-02 3.733620420098304749e-02 6.079183891415596008e-02
1.029000000000000000e+03 4.248756790161132812e+01 3.276395034790039062e+01 7.273217290639877319e-02 5.221372842788696289e-02 3.748377040028572083e-02 6.048810482025146484e-02
1.030000000000000000e+03 4.281489944458007812e+01 3.299210739135742188e+01 7.382101565599441528e-02 5.066865310072898865e-02 3.734689950942993164e-02 6.080294027924537659e-02
1.031000000000000000e+03 4.343436813354492188e+01 3.348702621459960938e+01 7.547207176685333252e-02 4.800580441951751709e-02 3.704336285591125488e-02 5.985500663518905640e-02
1.032000000000000000e+03 4.403366851806640625e+01 3.403495407104492188e+01 7.673538476228713989e-02 4.686644300818443298e-02 3.708054870367050171e-02 6.050166860222816467e-02
1.033000000000000000e+03 4.313185501098632812e+01 3.322692108154296875e+01 7.495859265327453613e-02 4.966549202799797058e-02 3.738722577691078186e-02 6.014657393097877502e-02
1.034000000000000000e+03 4.502262496948242188e+01 3.515162658691406250e+01 8.890210837125778198e-02 4.686288908123970032e-02 4.072950035333633423e-02 6.225050240755081177e-02
1.035000000000000000e+03 4.505904006958007812e+01 3.475423812866210938e+01 8.564586192369461060e-02 4.912857711315155029e-02 4.043233022093772888e-02 6.269628554582595825e-02
1.036000000000000000e+03 4.716736984252929688e+01 3.706458282470703125e+01 1.459725499153137207e-01 4.629358276724815369e-02 5.767984315752983093e-02 7.063274085521697998e-02
1.037000000000000000e+03 4.832662963867187500e+01 3.719454574584960938e+01 1.794916093349456787e-01 4.571975395083427429e-02 6.756340712308883667e-02 7.710266113281250000e-02
1.038000000000000000e+03 5.065666198730468750e+01 3.823833847045898438e+01 2.164526134729385376e-01 2.979368530213832855e-02 7.387388497591018677e-02 7.764636725187301636e-02
1.039000000000000000e+03 5.092624664306640625e+01 3.800873184204101562e+01 1.850744187831878662e-01 3.726813942193984985e-02 6.670276820659637451e-02 9.044092893600463867e-02
1.040000000000000000e+03 5.381708145141601562e+01 3.794264602661132812e+01 -5.112657323479652405e-03 -1.102970018982887268e-01 -3.462289646267890930e-02 1.042723003774881363e-02
1.041000000000000000e+03 5.619243621826171875e+01 3.780546951293945312e+01 8.722082525491714478e-02 -1.009329706430435181e-01 -4.113643895834684372e-03 1.130500584840774536e-01
1.042000000000000000e+03 5.844802474975585938e+01 3.661164474487304688e+01 -1.275626718997955322e-01 -8.309622108936309814e-02 -6.319766491651535034e-02 1.910099536180496216e-01
1.043000000000000000e+03 5.875917816162109375e+01 3.724643325805664062e+01 -3.118731267750263214e-02 -1.179818212985992432e-01 -4.475073888897895813e-02 2.158536911010742188e-01
1.044000000000000000e+03 6.061886596679687500e+01 3.661770629882812500e+01 -2.663841843605041504e-01 -1.446503102779388428e-01 -1.233103498816490173e-01 3.219431936740875244e-01
1.045000000000000000e+03 6.139100646972656250e+01 3.641462326049804688e+01 -3.192078173160552979e-01 -1.230465471744537354e-01 -1.326763182878494263e-01 3.513988554477691650e-01
1.046000000000000000e+03 6.207927703857421875e+01 3.633376693725585938e+01 -3.870226740837097168e-01 -1.461206376552581787e-01 -1.599429994821548462e-01 4.235484004020690918e-01
1.047000000000000000e+03 6.369754028320312500e+01 3.628882980346679688e+01 -5.079292654991149902e-01 -1.390131115913391113e-01 -1.940827220678329468e-01 5.380256175994873047e-01
1.048000000000000000e+03 6.448292541503906250e+01 3.608318710327148438e+01 -6.726384758949279785e-01 -6.909340620040893555e-02 -2.225195616483688354e-01 5.900407433509826660e-01
1.049000000000000000e+03 6.623698425292968750e+01 3.638262557983398438e+01 -5.413700938224792480e-01 -3.913909662514925003e-03 -1.635852009057998657e-01 5.471074581146240234e-01
1.050000000000000000e+03 6.711658477783203125e+01 3.580202865600585938e+01 -1.039018750190734863e+00 1.312395483255386353e-01 -2.723337411880493164e-01 5.202121138572692871e-01
1.051000000000000000e+03 6.778039550781250000e+01 3.583126449584960938e+01 -9.247082471847534180e-01 2.322674542665481567e-01 -2.077322304248809814e-01 3.102666735649108887e-01
1.052000000000000000e+03 6.960971832275390625e+01 3.583139801025390625e+01 -3.106445074081420898e-01 6.571722626686096191e-01 1.039583235979080200e-01 -4.392345249652862549e-01
1.053000000000000000e+03 7.017868804931640625e+01 3.578862380981445312e+01 3.844078257679939270e-02 8.177853822708129883e-01 2.568678557872772217e-01 -8.771111369132995605e-01
1.054000000000000000e+03 7.058808898925781250e+01 3.574027633666992188e+01 2.817314565181732178e-01 1.170102238655090332e+00 4.355501234531402588e-01 -1.190657496452331543e+00
1.055000000000000000e+03 7.127311706542968750e+01 3.565012359619140625e+01 1.251311421394348145e+00 2.194559812545776367e+00 1.033761382102966309e+00 -2.324321985244750977e+00
1.056000000000000000e+03 7.145356750488281250e+01 3.556478118896484375e+01 1.483008146286010742e+00 2.307755708694458008e+00 1.137229204177856445e+00 -2.716819524765014648e+00
1.057000000000000000e+03 7.183677673339843750e+01 3.556786346435546875e+01 1.930381178855895996e+00 3.279603242874145508e+00 1.562995314598083496e+00 -3.787794113159179688e+00
1.058000000000000000e+03 7.205912780761718750e+01 3.557552719116210938e+01 2.134505271911621094e+00 4.461722850799560547e+00 1.978868365287780762e+00 -4.470588684082031250e+00
1.059000000000000000e+03 7.224924468994140625e+01 3.554410934448242188e+01 2.077174901962280273e+00 5.424147605895996094e+00 2.250396728515625000e+00 -4.938423633575439453e+00
1.060000000000000000e+03 7.259767913818359375e+01 3.551572799682617188e+01 1.996475458145141602e+00 7.592896938323974609e+00 2.876811742782592773e+00 -5.964496612548828125e+00
1.061000000000000000e+03 7.276454162597656250e+01 3.554030227661132812e+01 1.762603163719177246e+00 9.026734352111816406e+00 3.236801147460937500e+00 -6.373757839202880859e+00
1.062000000000000000e+03 7.340621948242187500e+01 3.559134292602539062e+01 -7.358374446630477905e-02 1.634539031982421875e+01 4.881542205810546875e+00 -5.620723724365234375e+00
1.063000000000000000e+03 7.402692413330078125e+01 3.556608581542968750e+01 -4.229794442653656006e-01 2.016850471496582031e+01 5.923657894134521484e+00 -1.774528980255126953e+00
1.064000000000000000e+03 7.472957611083984375e+01 3.503842926025390625e+01 3.431272745132446289e+00 1.991528511047363281e+01 7.003967285156250000e+00 2.814269542694091797e+00
1.065000000000000000e+03 7.487498474121093750e+01 3.488560485839843750e+01 4.601603507995605469e+00 1.899675941467285156e+01 7.079509258270263672e+00 3.002771854400634766e+00
1.066000000000000000e+03 7.493443298339843750e+01 3.298310089111328125e+01 4.031416893005371094e+00 1.876873016357421875e+01 6.840044021606445312e+00 -2.916515588760375977e+00
1.067000000000000000e+03 7.263893127441406250e+01 3.221039962768554688e+01 2.779165208339691162e-01 8.851444244384765625e+00 2.738808155059814453e+00 6.138877391815185547e+00
1.068000000000000000e+03 7.233834838867187500e+01 3.181485939025878906e+01 -6.104692351073026657e-03 7.275201797485351562e+00 2.180729150772094727e+00 5.253502845764160156e+00
1.069000000000000000e+03 7.120135498046875000e+01 3.230540084838867188e+01 -6.664770245552062988e-01 1.744038701057434082e+00 3.232685029506683350e-01 2.451025009155273438e+00
1.070000000000000000e+03 7.158694458007812500e+01 3.228664398193359375e+01 -8.347363024950027466e-02 2.517499208450317383e+00 7.302076816558837891e-01 3.365508079528808594e+00
1.071000000000000000e+03 7.079814147949218750e+01 3.227433395385742188e+01 -1.270938277244567871e+00 1.249322891235351562e+00 -6.484625395387411118e-03 1.745862603187561035e+00
1.072000000000000000e+03 7.056240844726562500e+01 3.223651504516601562e+01 -1.442241072654724121e+00 8.731881380081176758e-01 -1.707158684730529785e-01 1.513800740242004395e+00
1.073000000000000000e+03 6.957497406005859375e+01 3.217790222167968750e+01 -2.453977346420288086e+00 3.785359859466552734e-01 -6.226323843002319336e-01 7.135593891143798828e-01
1.074000000000000000e+03 6.897029113769531250e+01 3.216085815429687500e+01 -2.806487560272216797e+00 2.275744080543518066e-01 -7.736739516258239746e-01 4.590677320957183838e-01
1.075000000000000000e+03 6.835644531250000000e+01 3.215248870849609375e+01 -2.947728633880615234e+00 1.351442337036132812e-01 -8.437753319740295410e-01 2.403822094202041626e-01
1.076000000000000000e+03 6.402893829345703125e+01 3.232757186889648438e+01 -3.321448564529418945e+00 1.238289475440979004e-02 -9.927197098731994629e-01 -2.761878669261932373e-01
1.077000000000000000e+03 6.478839874267578125e+01 3.227892303466796875e+01 -3.401692152023315430e+00 1.400630548596382141e-02 -1.016305804252624512e+00 -2.417136579751968384e-01
1.078000000000000000e+03 6.554673767089843750e+01 3.224140548706054688e+01 -3.456635951995849609e+00 7.263550534844398499e-03 -1.034811735153198242e+00 -2.091836929321289062e-01
1.079000000000000000e+03 6.175154495239257812e+01 3.251885986328125000e+01 -2.914613485336303711e+00 4.993165656924247742e-02 -8.594045042991638184e-01 -3.350524604320526123e-01
1.080000000000000000e+03 6.099472427368164062e+01 3.260107040405273438e+01 -2.743322849273681641e+00 6.079813092947006226e-02 -8.047574162483215332e-01 -3.560167849063873291e-01
1.081000000000000000e+03 5.798374938964843750e+01 3.298274230957031250e+01 -1.954153537750244141e+00 1.398714482784271240e-01 -5.442846417427062988e-01 -4.444137513637542725e-01
1.082000000000000000e+03 5.949598312377929688e+01 3.279506683349609375e+01 -2.375213861465454102e+00 1.077508330345153809e-01 -6.802389025688171387e-01 -3.948256075382232666e-01
1.083000000000000000e+03 5.568347167968750000e+01 3.327647781372070312e+01 -1.319467902183532715e+00 1.512062698602676392e-01 -3.504785001277923584e-01 -5.051470994949340820e-01
1.084000000000000000e+03 5.224095153808593750e+01 3.304009246826171875e+01 -5.702210068702697754e-01 -6.099159717559814453e-01 -3.540410995483398438e-01 -6.415973901748657227e-01
1.085000000000000000e+03 2.451670455932617188e+01 -3.110618829727172852e+00 2.021885395050048828e+00 1.436271786689758301e+00 1.037447094917297363e+00 -1.526283264160156250e+00
1.086000000000000000e+03 2.835988998413085938e+01 -7.293294429779052734e+00 8.487969040870666504e-01 6.769763231277465820e-01 4.577319622039794922e-01 -6.747009754180908203e-01
1.087000000000000000e+03 3.004460525512695312e+01 -7.800848484039306641e+00 7.354709506034851074e-01 7.836404442787170410e-02 2.441505044698715210e-01 -3.995241522789001465e-01
1.088000000000000000e+03 2.919545555114746094e+01 -8.373089790344238281e+00 4.560159444808959961e-01 4.927255213260650635e-01 2.846224308013916016e-01 -5.053148269653320312e-01
1.089000000000000000e+03 3.155007743835449219e+01 -1.004018592834472656e+01 3.610566854476928711e-01 -1.383946090936660767e-01 6.679861992597579956e-02 -1.856594234704971313e-01
1.090000000000000000e+03 3.353966522216796875e+01 -1.536332798004150391e+01 -1.165620908141136169e-01 -5.013184547424316406e-01 -1.853641569614410400e-01 2.296334803104400635e-01
1.091000000000000000e+03 3.494914627075195312e+01 -1.773436737060546875e+01 -1.752775609493255615e-01 -6.386656165122985840e-01 -2.441829442977905273e-01 3.286522626876831055e-01
1.092000000000000000e+03 3.633657073974609375e+01 -2.012574768066406250e+01 -2.239974439144134521e-01 -7.522341609001159668e-01 -2.928694784641265869e-01 3.961907625198364258e-01
1.093000000000000000e+03 3.766057586669921875e+01 -2.254125785827636719e+01 -2.271540164947509766e-01 -7.364309430122375488e-01 -2.890754938125610352e-01 4.132088422775268555e-01
1.094000000000000000e+03 3.905557632446289062e+01 -2.489957237243652344e+01 -2.850399613380432129e-01 -7.533310055732727051e-01 -3.115112781524658203e-01 4.454068541526794434e-01
1.095000000000000000e+03 4.051552963256835938e+01 -2.227630043029785156e+01 -9.763635694980621338e-02 -3.569791913032531738e-01 -1.363846659660339355e-01 2.582879662513732910e-01
1.096000000000000000e+03 4.216468429565429688e+01 -2.764699363708496094e+01 -2.269759923219680786e-01 -4.053734838962554932e-01 -1.897048503160476685e-01 3.185382485389709473e-01
1.097000000000000000e+03 4.190854263305664062e+01 -2.956576347351074219e+01 -2.986406087875366211e-01 -6.353321671485900879e-01 -2.801918387413024902e-01 4.115627706050872803e-01
1.098000000000000000e+03 4.329676818847656250e+01 -3.186433982849121094e+01 -2.384815067052841187e-01 -4.750885069370269775e-01 -2.140710055828094482e-01 3.228608369827270508e-01
1.099000000000000000e+03 4.389881515502929688e+01 -3.293014144897460938e+01 -1.689563691616058350e-01 -2.153059840202331543e-01 -1.152787059545516968e-01 2.769308090209960938e-01
1.100000000000000000e+03 4.509878158569335938e+01 -3.624151611328125000e+01 1.298634707927703857e-01 7.629063129425048828e-01 2.678309381008148193e-01 3.710947632789611816e-01
1.101000000000000000e+03 3.819673538208007812e+01 -3.875950241088867188e+01 1.602826595306396484e+00 6.407954692840576172e-01 6.730865836143493652e-01 -7.390466332435607910e-01
1.102000000000000000e+03 3.647936630249023438e+01 -3.671746063232421875e+01 6.946558356285095215e-01 6.412249803543090820e-01 4.007642567157745361e-01 -6.260309219360351562e-01
1.103000000000000000e+03 3.440809249877929688e+01 -3.471761322021484375e+01 6.418278217315673828e-01 6.850523352622985840e-01 3.980640470981597900e-01 -6.126726269721984863e-01
1.104000000000000000e+03 3.357191085815429688e+01 -3.358506393432617188e+01 5.732284784317016602e-01 7.322742938995361328e-01 3.916508257389068604e-01 -6.397597789764404297e-01
1.105000000000000000e+03 3.052878570556640625e+01 -2.901947402954101562e+01 2.757516205310821533e-01 9.041221737861633301e-01 3.539621531963348389e-01 -4.984196722507476807e-01
1.106000000000000000e+03 3.121520805358886719e+01 -3.024228668212890625e+01 3.829222023487091064e-01 9.644826650619506836e-01 4.042214751243591309e-01 -5.525818467140197754e-01
1.107000000000000000e+03 2.689967727661132812e+01 -2.148339462280273438e+01 1.637864857912063599e-01 6.372997760772705078e-01 2.403258830308914185e-01 -3.475162684917449951e-01
1.108000000000000000e+03 2.559177017211914062e+01 -2.190726852416992188e+01 2.083657234907150269e-01 4.990705251693725586e-01 2.122308760881423950e-01 -3.280423283576965332e-01
1.109000000000000000e+03 2.745815658569335938e+01 -2.274333763122558594e+01 1.968913823366165161e-01 6.866667270660400391e-01 2.650674283504486084e-01 -3.537499606609344482e-01
1.110000000000000000e+03 2.509586906433105469e+01 -1.780703735351562500e+01 1.858171373605728149e-01 4.741894900798797607e-01 1.980019956827163696e-01 -2.787771522998809814e-01
1.111000000000000000e+03 2.297333145141601562e+01 -1.432273769378662109e+01 1.456769853830337524e-01 3.085980117321014404e-01 1.362825036048889160e-01 -2.563724815845489502e-01
1.112000000000000000e+03 2.090731811523437500e+01 -1.072324371337890625e+01 1.252193748950958252e-01 -8.240670710802078247e-02 1.284379977732896805e-02 -3.481888025999069214e-02
1.113000000000000000e+03 2.028276634216308594e+01 -9.473474502563476562e+00 -2.430866658687591553e-02 -4.287448823451995850e-01 -1.359160542488098145e-01 -1.693747937679290771e-02
1.114000000000000000e+03 1.728910636901855469e+01 -2.920820236206054688e+00 -1.596854329109191895e+00 -1.725959897041320801e+00 -9.968442916870117188e-01 -1.356029510498046875e+00
1.115000000000000000e+03 4.486971664428710938e+01 2.579868888854980469e+01 -1.536155700683593750e+00 -1.627003312110900879e+00 -9.489477276802062988e-01 -1.575155854225158691e+00
1.116000000000000000e+03 4.458911895751953125e+01 2.551394462585449219e+01 -1.625833511352539062e+00 -1.665907859802246094e+00 -9.875224232673645020e-01 -1.627154946327209473e+00
1.117000000000000000e+03 4.430417633056640625e+01 2.523283576965332031e+01 -1.712217926979064941e+00 -1.654458165168762207e+00 -1.010002851486206055e+00 -1.657984852790832520e+00
1.118000000000000000e+03 4.372065353393554688e+01 2.468558120727539062e+01 -1.779563188552856445e+00 -1.535023093223571777e+00 -9.943758845329284668e-01 -1.637722969055175781e+00
1.119000000000000000e+03 3.156782531738281250e+01 1.204360485076904297e+01 -1.576027750968933105e+00 -1.679699778556823730e+00 -9.767182469367980957e-01 -1.589100718498229980e+00
1.120000000000000000e+03 7.944711303710937500e+01 3.213986206054687500e+01 1.539141833782196045e-01 6.899238586425781250e+00 2.115945816040039062e+00 -6.992666125297546387e-01
1.121000000000000000e+03 7.544960021972656250e+01 3.448328781127929688e+01 6.246771335601806641e+00 1.564413356781005859e+01 6.567271232604980469e+00 1.828377485275268555e+00
1.122000000000000000e+03 7.457761383056640625e+01 3.518367767333984375e+01 2.172166347503662109e+00 2.030601310729980469e+01 6.743453979492187500e+00 2.208668708801269531e+00
1.123000000000000000e+03 7.503711700439453125e+01 3.317243957519531250e+01 5.611351013183593750e+00 1.788068008422851562e+01 7.047609329223632812e+00 -2.813404321670532227e+00
1.124000000000000000e+03 7.669440460205078125e+01 3.313761901855468750e+01 2.822995901107788086e+00 1.229874801635742188e+01 4.536523342132568359e+00 -1.593439459800720215e+00
1.125000000000000000e+03 7.948130035400390625e+01 3.489403533935546875e+01 1.637534499168395996e-01 5.775015830993652344e+00 1.781630754470825195e+00 3.422466814517974854e-01
1.126000000000000000e+03 7.538494110107421875e+01 3.246197509765625000e+01 1.673010468482971191e+00 1.667914772033691406e+01 5.505647659301757812e+00 -2.396792411804199219e+00
1.127000000000000000e+03 7.944794464111328125e+01 3.069522094726562500e+01 -7.334220409393310547e-02 8.499139785766601562e+00 2.527739524841308594e+00 -7.564944028854370117e-01
1.128000000000000000e+03 7.441648101806640625e+01 3.532822799682617188e+01 1.131112098693847656e+00 2.075417518615722656e+01 6.565586090087890625e+00 1.275213599205017090e+00
1.129000000000000000e+03 7.463372802734375000e+01 3.260293579101562500e+01 1.075500965118408203e+00 1.992483711242675781e+01 6.300101280212402344e+00 -1.800218343734741211e+00
1.130000000000000000e+03 7.945899200439453125e+01 3.623579788208007812e+01 5.819545686244964600e-02 7.048116683959960938e+00 2.131893634796142578e+00 6.396090984344482422e-01
1.131000000000000000e+03 7.520251464843750000e+01 3.382939529418945312e+01 7.970084667205810547e+00 1.630910110473632812e+01 7.283755779266357422e+00 -5.562688708305358887e-01
1.132000000000000000e+03 7.949808502197265625e+01 3.353497695922851562e+01 2.194498181343078613e-01 5.621336460113525391e+00 1.752235770225524902e+00 -1.996144801378250122e-01
1.133000000000000000e+03 7.475199127197265625e+01 3.604170227050781250e+01 -5.378051400184631348e-01 1.757650756835937500e+01 5.111610889434814453e+00 1.049563407897949219e+00
1.134000000000000000e+03 7.517480468750000000e+01 3.429494857788085938e+01 7.670935630798339844e+00 1.651688194274902344e+01 7.256345272064208984e+00 1.458345055580139160e+00
1.135000000000000000e+03 7.383869934082031250e+01 3.237853622436523438e+01 -1.584583878517150879e+00 2.026912117004394531e+01 5.605360984802246094e+00 2.870661735534667969e+00
1.136000000000000000e+03 7.163110351562500000e+01 3.554643630981445312e+01 1.673847317695617676e+00 2.844414472579956055e+00 1.355478525161743164e+00 -3.209461212158203125e+00
1.137000000000000000e+03 7.359541320800781250e+01 3.558250427246093750e+01 -3.015218675136566162e-01 1.765665245056152344e+01 5.206539154052734375e+00 -4.201974868774414062e+00
1.138000000000000000e+03 2.913483047485351562e+01 5.515172004699707031e+00 -2.360156536102294922e+00 -1.472532749176025391e+00 -1.149806737899780273e+00 -1.260846376419067383e+00
1.139000000000000000e+03 2.812183189392089844e+01 4.928478717803955078e+00 -2.596949338912963867e+00 -1.437288641929626465e+00 -1.210271358489990234e+00 -1.488433599472045898e+00
1.140000000000000000e+03 2.848211288452148438e+01 4.806338787078857422e+00 -2.417064428329467773e+00 -1.366332411766052246e+00 -1.135019063949584961e+00 -1.284844398498535156e+00
1.141000000000000000e+03 2.814505386352539062e+01 4.604715824127197266e+00 -2.508978843688964844e+00 -1.308712720870971680e+00 -1.145307421684265137e+00 -1.341922760009765625e+00
1.142000000000000000e+03 2.694806480407714844e+01 3.911117553710937500e+00 -2.826075315475463867e+00 -9.943666458129882812e-01 -1.146132588386535645e+00 -1.391943097114562988e+00
1.143000000000000000e+03 2.084101295471191406e+01 2.639994621276855469e-01 -1.428916215896606445e+00 -1.826181054115295410e+00 -9.765291810035705566e-01 -3.619791984558105469e+00
1.144000000000000000e+03 2.170353317260742188e+01 4.601303935050964355e-01 -2.062175273895263672e+00 -3.620955944061279297e-01 -7.272812724113464355e-01 -2.609656095504760742e+00
1.145000000000000000e+03 2.102219772338867188e+01 -8.189226984977722168e-01 -4.131715744733810425e-02 -2.093564122915267944e-01 -7.520207017660140991e-02 -2.227357864379882812e+00
1.146000000000000000e+03 1.933488273620605469e+01 -5.295938253402709961e-01 -2.605487823486328125e+00 -3.584975004196166992e+00 -1.857138872146606445e+00 -2.070864915847778320e+00
1.147000000000000000e+03 1.977480506896972656e+01 -3.699120581150054932e-01 -1.802696466445922852e+00 -4.105138778686523438e+00 -1.772350549697875977e+00 -2.325165271759033203e+00
1.148000000000000000e+03 1.955243682861328125e+01 -8.859670162200927734e-01 -3.255381345748901367e+00 -4.883451461791992188e+00 -2.441649913787841797e+00 -2.821000337600708008e+00
1.149000000000000000e+03 1.996081733703613281e+01 -7.739317417144775391e-01 -4.803114414215087891e+00 -6.044859886169433594e+00 -3.254392385482788086e+00 -3.759183168411254883e+00
1.150000000000000000e+03 1.891860008239746094e+01 -1.723532199859619141e+00 -2.368882417678833008e+00 -3.990606784820556641e+00 -1.907846808433532715e+00 -2.251597881317138672e+00
1.151000000000000000e+03 2.745478439331054688e+01 4.469680309295654297e+00 -2.793126106262207031e+00 -1.210818886756896973e+00 -1.201183557510375977e+00 -1.521897077560424805e+00
1.152000000000000000e+03 2.265793037414550781e+01 1.547099828720092773e+00 -3.267641544342041016e+00 -5.526434183120727539e-01 -1.146085500717163086e+00 -2.028939247131347656e+00
1.153000000000000000e+03 2.201281356811523438e+01 4.795227944850921631e-01 -1.916083574295043945e+00 -7.130803167819976807e-02 -5.962175130844116211e-01 -2.408796787261962891e+00
1.154000000000000000e+03 2.341950607299804688e+01 -2.233452081680297852e+00 2.307849884033203125e+00 1.559022545814514160e+00 1.160061717033386230e+00 -2.149397134780883789e+00
1.155000000000000000e+03 2.934865951538085938e+01 5.606574058532714844e+00 -2.323104619979858398e+00 -1.401166558265686035e+00 -1.117281436920166016e+00 -1.248610138893127441e+00
1.156000000000000000e+03 2.878001022338867188e+01 5.382518291473388672e+00 -2.451208114624023438e+00 -1.564181804656982422e+00 -1.204617023468017578e+00 -1.381069660186767578e+00
1.157000000000000000e+03 2.886364173889160156e+01 5.079164981842041016e+00 -2.351120710372924805e+00 -1.408789634704589844e+00 -1.127973079681396484e+00 -1.226528048515319824e+00
1.158000000000000000e+03 2.830038833618164062e+01 5.032677650451660156e+00 -2.559810638427734375e+00 -1.501414299011230469e+00 -1.218367457389831543e+00 -1.471627235412597656e+00
1.159000000000000000e+03 2.728422927856445312e+01 4.338861465454101562e+00 -2.824204206466674805e+00 -1.178222417831420898e+00 -1.200727939605712891e+00 -1.512547135353088379e+00
1.160000000000000000e+03 2.690196418762207031e+01 4.165742397308349609e+00 -2.951298952102661133e+00 -1.098263621330261230e+00 -1.214868783950805664e+00 -1.538861632347106934e+00
1.161000000000000000e+03 2.648805046081542969e+01 3.524713516235351562e+00 -2.912934064865112305e+00 -8.879969120025634766e-01 -1.140279293060302734e+00 -1.355143666267395020e+00
1.162000000000000000e+03 2.588907814025878906e+01 3.535377740859985352e+00 -3.198693275451660156e+00 -8.946870565414428711e-01 -1.228014111518859863e+00 -1.531710982322692871e+00
1.163000000000000000e+03 2.605576896667480469e+01 3.650128126144409180e+00 -3.148209571838378906e+00 -8.844549655914306641e-01 -1.209799408912658691e+00 -1.513201951980590820e+00
1.164000000000000000e+03 2.536989212036132812e+01 3.237342119216918945e+00 -3.275371313095092773e+00 -8.109389543533325195e-01 -1.225893020629882812e+00 -1.531694769859313965e+00
1.165000000000000000e+03 2.524008750915527344e+01 2.749472856521606445e+00 -3.089230060577392578e+00 -6.671759486198425293e-01 -1.126921772956848145e+00 -1.323342084884643555e+00
1.166000000000000000e+03 2.411479377746582031e+01 2.115220785140991211e+00 -3.181238889694213867e+00 -5.659283995628356934e-01 -1.124150156974792480e+00 -1.425374031066894531e+00
1.167000000000000000e+03 2.340853881835937500e+01 1.648352861404418945e+00 -3.075793981552124023e+00 -4.257755875587463379e-01 -1.050470829010009766e+00 -1.498274564743041992e+00
1.168000000000000000e+03 2.109416389465332031e+01 5.398206710815429688e-01 -2.158842325210571289e+00 -1.652183294296264648e+00 -1.143307685852050781e+00 -3.444478511810302734e+00
1.169000000000000000e+03 1.787611198425292969e+01 -1.435432195663452148e+00 -2.060801744461059570e+00 -1.644011855125427246e+00 -1.111444115638732910e+00 -1.341008424758911133e+00
1.170000000000000000e+03 1.772223854064941406e+01 -1.569274544715881348e+00 -2.030941486358642578e+00 -1.205455183982849121e+00 -9.709189534187316895e-01 -1.191708207130432129e+00
1.171000000000000000e+03 1.707899475097656250e+01 -2.265652179718017578e+00 -1.898018956184387207e+00 -1.094444990158081055e+00 -8.977391719818115234e-01 -1.156153440475463867e+00
1.172000000000000000e+03 1.763881874084472656e+01 -2.531863212585449219e+00 -1.976277232170104980e+00 -1.961050271987915039e+00 -1.181198239326477051e+00 -1.405158877372741699e+00
1.173000000000000000e+03 2.504633903503417969e+01 2.999700307846069336e+00 -3.332863330841064453e+00 -7.564871311187744141e-01 -1.226805210113525391e+00 -1.529670000076293945e+00
1.174000000000000000e+03 2.469094848632812500e+01 2.387911558151245117e+00 -3.096248626708984375e+00 -5.168934464454650879e-01 -1.083942651748657227e+00 -1.322528123855590820e+00
1.175000000000000000e+03 2.779091262817382812e+01 4.703154563903808594e+00 -2.707361221313476562e+00 -1.325767278671264648e+00 -1.209938526153564453e+00 -1.525740742683410645e+00
1.176000000000000000e+03 7.303486633300781250e+01 3.197683906555175781e+01 -8.096434473991394043e-01 1.226424026489257812e+01 3.436379194259643555e+00 5.818631649017333984e+00
1.177000000000000000e+03 7.343115997314453125e+01 3.231654739379882812e+01 -1.191094279289245605e+00 1.682104301452636719e+01 4.688984870910644531e+00 5.386691570281982422e+00
1.178000000000000000e+03 7.178466796875000000e+01 3.227392578125000000e+01 2.154917865991592407e-01 3.232488870620727539e+00 1.034394264221191406e+00 3.824545383453369141e+00
1.179000000000000000e+03 7.015351867675781250e+01 3.220240783691406250e+01 -1.895304203033447266e+00 6.753810644149780273e-01 -3.659769594669342041e-01 1.134217858314514160e+00
1.180000000000000000e+03 7.139523315429687500e+01 3.230101013183593750e+01 -4.215530753135681152e-01 2.060255289077758789e+00 4.916106760501861572e-01 2.885401964187622070e+00
1.181000000000000000e+03 7.198573303222656250e+01 3.225780868530273438e+01 4.151349365711212158e-01 4.168207645416259766e+00 1.375002741813659668e+00 4.475602149963378906e+00
1.182000000000000000e+03 7.364126586914062500e+01 3.233035659790039062e+01 -1.526209473609924316e+00 1.853111648559570312e+01 5.101472377777099609e+00 4.467056751251220703e+00
1.183000000000000000e+03 5.302061080932617188e+01 3.871865081787109375e+01 3.864031434059143066e-01 4.316741600632667542e-02 1.288711726665496826e-01 -7.277952134609222412e-02
1.184000000000000000e+03 5.625698089599609375e+01 3.697751617431640625e+01 -1.999377273023128510e-02 -6.624650955200195312e-02 -2.587208524346351624e-02 1.088871136307716370e-01
1.185000000000000000e+03 5.705688858032226562e+01 3.784334564208984375e+01 6.033490970730781555e-02 -1.226085200905799866e-01 -1.868208497762680054e-02 1.714188158512115479e-01
1.186000000000000000e+03 5.378886413574218750e+01 3.845855331420898438e+01 1.211298778653144836e-01 -8.182121813297271729e-02 1.179259736090898514e-02 -2.381368726491928101e-02
1.187000000000000000e+03 5.334235382080078125e+01 3.850186920166015625e+01 1.661568135023117065e-01 1.642428338527679443e-02 5.477432906627655029e-02 -6.717406213283538818e-02
1.188000000000000000e+03 5.387638854980468750e+01 3.880774688720703125e+01 2.278019934892654419e-01 -8.135685324668884277e-02 4.393354430794715881e-02 -5.193772260099649429e-03
1.189000000000000000e+03 5.353377532958984375e+01 3.868857574462890625e+01 2.274210155010223389e-01 -5.551959201693534851e-02 5.157043039798736572e-02 -7.698935456573963165e-03
1.190000000000000000e+03 5.409618759155273438e+01 3.736134338378906250e+01 -3.321304451674222946e-03 -5.571655184030532837e-02 -1.771135628223419189e-02 2.795262448489665985e-02
1.191000000000000000e+03 3.096944046020507812e+01 1.145823287963867188e+01 -1.730968713760375977e+00 -1.516266345977783203e+00 -9.741705060005187988e-01 -1.546234130859375000e+00
1.192000000000000000e+03 5.190180206298828125e+01 3.220726013183593750e+01 -9.477330446243286133e-01 -7.548426985740661621e-01 -5.107727050781250000e-01 -8.334298729896545410e-01
1.193000000000000000e+03 3.318831634521484375e+01 1.325319004058837891e+01 -1.434691309928894043e+00 -1.588626503944396973e+00 -9.069953560829162598e-01 -1.496581912040710449e+00
1.194000000000000000e+03 3.264974594116210938e+01 1.322168159484863281e+01 -1.467326760292053223e+00 -1.512087225914001465e+00 -8.938242197036743164e-01 -1.498815417289733887e+00
1.195000000000000000e+03 3.270915603637695312e+01 1.208706092834472656e+01 -1.441045284271240234e+00 -1.485286831855773926e+00 -8.778996467590332031e-01 -1.449160456657409668e+00
1.196000000000000000e+03 3.240701675415039062e+01 1.236645412445068359e+01 -1.457039117813110352e+00 -1.518370270729064941e+00 -8.926227688789367676e-01 -1.505907654762268066e+00
1.197000000000000000e+03 3.989604187011718750e+01 2.065162849426269531e+01 -1.231701016426086426e+00 -1.275903582572937012e+00 -7.522813677787780762e-01 -1.334843516349792480e+00
1.198000000000000000e+03 5.165692520141601562e+01 3.191774559020996094e+01 -1.035758614540100098e+00 -8.382391929626464844e-01 -5.621993541717529297e-01 -9.135301113128662109e-01
1.199000000000000000e+03 4.017216873168945312e+01 2.093288040161132812e+01 -1.284352183341979980e+00 -1.265052199363708496e+00 -7.648213505744934082e-01 -1.346983313560485840e+00
1.200000000000000000e+03 4.046609115600585938e+01 2.174376678466796875e+01 -1.533036947250366211e+00 -1.219759106636047363e+00 -8.258388042449951172e-01 -1.378581762313842773e+00
1.201000000000000000e+03 2.974330902099609375e+01 9.697654724121093750e+00 -1.660899996757507324e+00 -1.237790942192077637e+00 -8.696072697639465332e-01 -1.332152962684631348e+00
1.202000000000000000e+03 3.043329048156738281e+01 1.030649280548095703e+01 -1.545086264610290527e+00 -1.344414710998535156e+00 -8.668503165245056152e-01 -1.402558207511901855e+00
1.203000000000000000e+03 5.405834579467773438e+01 3.228774642944335938e+01 -1.243449330329895020e+00 1.429567672312259674e-02 -3.687460720539093018e-01 -7.264984250068664551e-01
1.204000000000000000e+03 4.401432800292968750e+01 2.495687484741210938e+01 -1.764463067054748535e+00 -1.600677609443664551e+00 -1.009542226791381836e+00 -1.659059762954711914e+00
1.205000000000000000e+03 4.455488204956054688e+01 2.498145294189453125e+01 -1.632181525230407715e+00 -1.528547883033752441e+00 -9.482188224792480469e-01 -1.526635527610778809e+00
1.206000000000000000e+03 4.045338821411132812e+01 2.120845222473144531e+01 -1.345428466796875000e+00 -1.273711681365966797e+00 -7.857420444488525391e-01 -1.365300416946411133e+00
1.207000000000000000e+03 3.802017974853515625e+01 1.912165641784667969e+01 -1.151226639747619629e+00 -1.707301020622253418e+00 -8.575583100318908691e-01 -1.404419779777526855e+00
1.208000000000000000e+03 3.910012817382812500e+01 1.978672218322753906e+01 -1.155490398406982422e+00 -1.393080949783325195e+00 -7.645713686943054199e-01 -1.337821722030639648e+00
1.209000000000000000e+03 5.139922714233398438e+01 3.162100410461425781e+01 -1.111646890640258789e+00 -9.029693007469177246e-01 -6.043848395347595215e-01 -9.853572845458984375e-01
1.210000000000000000e+03 4.133131790161132812e+01 2.200860786437988281e+01 -1.528273820877075195e+00 -1.361780047416687012e+00 -8.670161366462707520e-01 -1.418809294700622559e+00
1.211000000000000000e+03 4.106752395629882812e+01 2.226672935485839844e+01 -1.677893877029418945e+00 -1.360952973365783691e+00 -9.116540551185607910e-01 -1.496264576911926270e+00
1.212000000000000000e+03 3.293054199218750000e+01 1.295634365081787109e+01 -1.412500619888305664e+00 -1.551032304763793945e+00 -8.890599012374877930e-01 -1.504767894744873047e+00
1.213000000000000000e+03 3.370108413696289062e+01 1.331082344055175781e+01 -1.399970173835754395e+00 -1.585037708282470703e+00 -8.955023288726806641e-01 -1.444484829902648926e+00
1.214000000000000000e+03 2.996309661865234375e+01 8.434091567993164062e+00 -1.207642316818237305e+00 -1.404291033744812012e+00 -7.835800051689147949e-01 -9.845248460769653320e-01
1.215000000000000000e+03 4.342477035522460938e+01 2.441754531860351562e+01 -1.765643477439880371e+00 -1.475504159927368164e+00 -9.723442792892456055e-01 -1.606646895408630371e+00
1.216000000000000000e+03 4.426136016845703125e+01 2.470808982849121094e+01 -1.651568531990051270e+00 -1.524806618690490723e+00 -9.529125094413757324e-01 -1.536796331405639648e+00
1.217000000000000000e+03 4.192125701904296875e+01 2.254519844055175781e+01 -1.575987100601196289e+00 -1.375964999198913574e+00 -8.855856060981750488e-01 -1.458988904953002930e+00
1.218000000000000000e+03 3.886758804321289062e+01 1.945503997802734375e+01 -1.164058208465576172e+00 -1.448903799057006836e+00 -7.838885784149169922e-01 -1.355675697326660156e+00
1.219000000000000000e+03 4.542327880859375000e+01 2.581054306030273438e+01 -1.511905312538146973e+00 -1.426393628120422363e+00 -8.814896941184997559e-01 -1.484427928924560547e+00
1.220000000000000000e+03 5.334197235107421875e+01 3.332065582275390625e+01 -7.663307785987854004e-01 -1.693346947431564331e-01 -2.806996405124664307e-01 -5.347580313682556152e-01
1.221000000000000000e+03 5.253530883789062500e+01 3.334732437133789062e+01 -5.135741233825683594e-01 -4.574392735958099365e-01 -2.913040220737457275e-01 -5.201995968818664551e-01
1.222000000000000000e+03 4.570760726928710938e+01 2.608693122863769531e+01 -1.478244304656982422e+00 -1.386233329772949219e+00 -8.593432903289794922e-01 -1.466587066650390625e+00
1.223000000000000000e+03 3.477709579467773438e+01 1.498323059082031250e+01 -1.364577054977416992e+00 -1.630282521247863770e+00 -8.984578847885131836e-01 -1.499206066131591797e+00
1.224000000000000000e+03 3.454625701904296875e+01 1.525254249572753906e+01 -1.364227533340454102e+00 -1.663971304893493652e+00 -9.084596633911132812e-01 -1.515861392021179199e+00
1.225000000000000000e+03 3.267118072509765625e+01 1.265967750549316406e+01 -1.427240014076232910e+00 -1.531591892242431641e+00 -8.876495361328125000e-01 -1.504613518714904785e+00
1.226000000000000000e+03 4.627669525146484375e+01 2.607432174682617188e+01 -1.455502629280090332e+00 -1.276524424552917480e+00 -8.196081519126892090e-01 -1.414487361907958984e+00
1.227000000000000000e+03 5.033559799194335938e+01 3.102779388427734375e+01 -1.255831122398376465e+00 -1.177394032478332520e+00 -7.299675345420837402e-01 -1.212468504905700684e+00
1.228000000000000000e+03 5.113029479980468750e+01 3.132551193237304688e+01 -1.178593754768371582e+00 -9.580421447753906250e-01 -6.409907341003417969e-01 -1.046703338623046875e+00
1.229000000000000000e+03 3.776253509521484375e+01 1.881227111816406250e+01 -1.203359246253967285e+00 -1.775953531265258789e+00 -8.937938213348388672e-01 -1.456535220146179199e+00
1.230000000000000000e+03 2.884900474548339844e+01 9.638341903686523438e+00 -1.787256240844726562e+00 -1.535811901092529297e+00 -9.969204664230346680e-01 -1.641055107116699219e+00
1.231000000000000000e+03 3.041439437866210938e+01 1.094653987884521484e+01 -1.645829081535339355e+00 -1.338759660720825195e+00 -8.953766226768493652e-01 -1.470394492149353027e+00
1.232000000000000000e+03 3.616951370239257812e+01 1.700657463073730469e+01 -1.410740494728088379e+00 -1.711098909378051758e+00 -9.365518093109130859e-01 -1.550647974014282227e+00
1.233000000000000000e+03 3.722228240966796875e+01 1.761252212524414062e+01 -1.328902006149291992e+00 -1.708366394042968750e+00 -9.111805558204650879e-01 -1.470718026161193848e+00
1.234000000000000000e+03 4.741830062866210938e+01 2.774116897583007812e+01 -1.517267584800720215e+00 -1.266114354133605957e+00 -8.350145816802978516e-01 -1.399514436721801758e+00
1.235000000000000000e+03 3.831309509277343750e+01 1.882116699218750000e+01 -1.213349103927612305e+00 -1.577479481697082520e+00 -8.372485637664794922e-01 -1.393237948417663574e+00
1.236000000000000000e+03 3.966451263427734375e+01 1.979709243774414062e+01 -1.183413624763488770e+00 -1.332559585571289062e+00 -7.547919750213623047e-01 -1.358924508094787598e+00
1.237000000000000000e+03 4.308716964721679688e+01 2.363052177429199219e+01 -1.605370521545410156e+00 -1.405293226242065430e+00 -9.031990766525268555e-01 -1.510246992111206055e+00
1.238000000000000000e+03 4.224267578125000000e+01 2.334746170043945312e+01 -1.619436621665954590e+00 -1.401248693466186523e+00 -9.062055945396423340e-01 -1.515736460685729980e+00
1.239000000000000000e+03 4.396727752685546875e+01 2.443704223632812500e+01 -1.655707716941833496e+00 -1.498446941375732422e+00 -9.462463855743408203e-01 -1.539234161376953125e+00
1.240000000000000000e+03 4.656143188476562500e+01 2.691595840454101562e+01 -1.468751549720764160e+00 -1.298822283744812012e+00 -8.302721381187438965e-01 -1.418303132057189941e+00
1.241000000000000000e+03 3.010920906066894531e+01 1.066407394409179688e+01 -1.580185174942016602e+00 -1.287906646728515625e+00 -8.604275584220886230e-01 -1.445689201354980469e+00
1.242000000000000000e+03 5.005058288574218750e+01 3.074738311767578125e+01 -1.304090976715087891e+00 -1.207379460334777832e+00 -7.534410953521728516e-01 -1.251336812973022461e+00
1.243000000000000000e+03 5.085256958007812500e+01 3.103466415405273438e+01 -1.232656240463256836e+00 -1.003481268882751465e+00 -6.708412766456604004e-01 -1.102956891059875488e+00
1.244000000000000000e+03 3.589882659912109375e+01 1.671282768249511719e+01 -1.412256836891174316e+00 -1.695175170898437500e+00 -9.322295784950256348e-01 -1.542895317077636719e+00
1.245000000000000000e+03 3.694639968872070312e+01 1.731517982482910156e+01 -1.343794465065002441e+00 -1.702010869979858398e+00 -9.137415885925292969e-01 -1.483448624610900879e+00
1.246000000000000000e+03 4.283146667480468750e+01 2.388460922241210938e+01 -1.692402005195617676e+00 -1.401947975158691406e+00 -9.283049702644348145e-01 -1.544775009155273438e+00
1.247000000000000000e+03 4.279520797729492188e+01 2.336101341247558594e+01 -1.585872530937194824e+00 -1.387374639511108398e+00 -8.919741511344909668e-01 -1.500730633735656738e+00
1.248000000000000000e+03 4.715486907958984375e+01 2.801612472534179688e+01 -1.584865093231201172e+00 -1.306799054145812988e+00 -8.674992322921752930e-01 -1.442848324775695801e+00
1.249000000000000000e+03 4.221333694458007812e+01 2.281795883178710938e+01 -1.576237440109252930e+00 -1.373649001121520996e+00 -8.849659562110900879e-01 -1.477125763893127441e+00
1.250000000000000000e+03 3.213811111450195312e+01 1.207412528991699219e+01 -1.510245084762573242e+00 -1.531489491462707520e+00 -9.125203490257263184e-01 -1.491710424423217773e+00
1.251000000000000000e+03 4.976426315307617188e+01 3.046919059753417969e+01 -1.343342185020446777e+00 -1.237813234329223633e+00 -7.743466496467590332e-01 -1.290653228759765625e+00
1.252000000000000000e+03 5.056858825683593750e+01 3.074924278259277344e+01 -1.280020594596862793e+00 -1.046806216239929199e+00 -6.980480551719665527e-01 -1.150905013084411621e+00
1.253000000000000000e+03 4.074177932739257812e+01 2.147916412353515625e+01 -1.411554694175720215e+00 -1.300325751304626465e+00 -8.135641217231750488e-01 -1.384111285209655762e+00
1.254000000000000000e+03 4.855769348144531250e+01 2.883154487609863281e+01 -1.526736974716186523e+00 -1.257027029991149902e+00 -8.351292014122009277e-01 -1.369149804115295410e+00
1.255000000000000000e+03 4.774143981933593750e+01 2.855322647094726562e+01 -1.610061287879943848e+00 -1.323061823844909668e+00 -8.799369335174560547e-01 -1.456060409545898438e+00
1.256000000000000000e+03 3.860480499267578125e+01 1.912407112121582031e+01 -1.186163902282714844e+00 -1.508756399154663086e+00 -8.084760904312133789e-01 -1.371410965919494629e+00
1.257000000000000000e+03 4.599127578735351562e+01 2.636301612854003906e+01 -1.460235834121704102e+00 -1.351933717727661133e+00 -8.436508774757385254e-01 -1.446934103965759277e+00
1.258000000000000000e+03 4.513665390014648438e+01 2.553369140625000000e+01 -1.555730581283569336e+00 -1.469083189964294434e+00 -9.074441194534301758e-01 -1.500309228897094727e+00
1.259000000000000000e+03 4.367337417602539062e+01 2.416779327392578125e+01 -1.646844863891601562e+00 -1.464284420013427734e+00 -9.333387613296508789e-01 -1.532872796058654785e+00
1.260000000000000000e+03 3.397653579711914062e+01 1.412764072418212891e+01 -1.456015825271606445e+00 -1.651341557502746582e+00 -9.322072267532348633e-01 -1.511331439018249512e+00
1.261000000000000000e+03 3.424240875244140625e+01 1.441374588012695312e+01 -1.425619840621948242e+00 -1.647509217262268066e+00 -9.219387173652648926e-01 -1.509452819824218750e+00
1.262000000000000000e+03 3.562795639038085938e+01 1.641985130310058594e+01 -1.410096764564514160e+00 -1.679009199142456055e+00 -9.267317652702331543e-01 -1.537685871124267578e+00
1.263000000000000000e+03 3.667193603515625000e+01 1.701973915100097656e+01 -1.352311849594116211e+00 -1.685540556907653809e+00 -9.113557338714599609e-01 -1.492130279541015625e+00
1.264000000000000000e+03 4.890436553955078125e+01 2.963956642150878906e+01 -1.492684960365295410e+00 -1.341181159019470215e+00 -8.501598238945007324e-01 -1.406945586204528809e+00
1.265000000000000000e+03 4.713289642333984375e+01 2.746729660034179688e+01 -1.501205444335937500e+00 -1.272144317626953125e+00 -8.320049047470092773e-01 -1.403711795806884766e+00
1.266000000000000000e+03 4.798798751831054688e+01 2.828669738769531250e+01 -1.537390470504760742e+00 -1.263929247856140137e+00 -8.403959274291992188e-01 -1.390165328979492188e+00
1.267000000000000000e+03 5.028086090087890625e+01 3.046878242492675781e+01 -1.320187807083129883e+00 -1.084507584571838379e+00 -7.214086055755615234e-01 -1.196762204170227051e+00
1.268000000000000000e+03 3.077821159362792969e+01 1.063399696350097656e+01 -1.505496740341186523e+00 -1.402055144309997559e+00 -8.722655773162841797e-01 -1.442280769348144531e+00
1.269000000000000000e+03 4.684721374511718750e+01 2.719215774536132812e+01 -1.483408212661743164e+00 -1.282002568244934082e+00 -8.296232223510742188e-01 -1.410250067710876465e+00
1.270000000000000000e+03 3.612738800048828125e+01 1.643246650695800781e+01 -1.361263155937194824e+00 -1.654351472854614258e+00 -9.046844244003295898e-01 -1.493001103401184082e+00
1.271000000000000000e+03 3.585645294189453125e+01 1.614017677307128906e+01 -1.362102746963500977e+00 -1.644511818885803223e+00 -9.019843339920043945e-01 -1.489097833633422852e+00
1.272000000000000000e+03 3.504595565795898438e+01 1.526994228363037109e+01 -1.351543784141540527e+00 -1.625989198684692383e+00 -8.932598829269409180e-01 -1.493983864784240723e+00
1.273000000000000000e+03 3.558591079711914062e+01 1.584880256652832031e+01 -1.356841206550598145e+00 -1.634459733963012695e+00 -8.973902463912963867e-01 -1.488954782485961914e+00
1.274000000000000000e+03 3.531567382812500000e+01 1.555858993530273438e+01 -1.354302406311035156e+00 -1.629993915557861328e+00 -8.952888846397399902e-01 -1.487912535667419434e+00
1.275000000000000000e+03 4.912877655029296875e+01 2.937597274780273438e+01 -1.478113293647766113e+00 -1.220163106918334961e+00 -8.094829320907592773e-01 -1.330138564109802246e+00
1.276000000000000000e+03 4.970268249511718750e+01 2.991971015930175781e+01 -1.400938034057617188e+00 -1.156684994697570801e+00 -7.672868967056274414e-01 -1.273331403732299805e+00
1.277000000000000000e+03 4.684635925292968750e+01 2.663155364990234375e+01 -1.442027330398559570e+00 -1.240879297256469727e+00 -8.048719763755798340e-01 -1.389362692832946777e+00
1.278000000000000000e+03 4.337996673583984375e+01 2.389928817749023438e+01 -1.628064870834350586e+00 -1.431193113327026367e+00 -9.177774190902709961e-01 -1.522243380546569824e+00
1.279000000000000000e+03 2.895504188537597656e+01 8.812114715576171875e+00 -2.061600685119628906e+00 -7.491815090179443359e-01 -8.432346582412719727e-01 -1.010216355323791504e+00
1.280000000000000000e+03 1.289323520660400391e+01 1.276574015617370605e+00 9.716812372207641602e-01 -2.451706975698471069e-01 2.179531753063201904e-01 3.719234764575958252e-01
1.281000000000000000e+03 1.376196575164794922e+01 2.962028503417968750e+00 2.554313242435455322e-01 2.670200109481811523e+00 8.776894211769104004e-01 1.295750588178634644e-01
1.282000000000000000e+03 1.305545043945312500e+01 1.739527821540832520e+00 1.668896436691284180e+00 4.940513074398040771e-01 6.488843560218811035e-01 -4.972460269927978516e-01
1.283000000000000000e+03 1.375041770935058594e+01 2.130209922790527344e+00 6.958450675010681152e-01 3.430263042449951172e+00 1.237832427024841309e+00 -1.016683340072631836e+00
1.284000000000000000e+03 8.496900558471679688e+00 2.759999513626098633e+00 -3.326907753944396973e-02 -2.165922075510025024e-01 -7.495838403701782227e-02 2.927389144897460938e-01
1.285000000000000000e+03 1.393874931335449219e+01 4.251054763793945312e+00 2.046777606010437012e-01 1.082118630409240723e+00 3.860388994216918945e-01 2.820240557193756104e-01
1.286000000000000000e+03 1.492955589294433594e+01 4.659007549285888672e+00 2.965300679206848145e-01 4.001100659370422363e-01 2.089920341968536377e-01 3.348306417465209961e-01
1.287000000000000000e+03 1.420370674133300781e+01 4.593073844909667969e+00 2.051333785057067871e-01 8.486995100975036621e-01 3.161498606204986572e-01 3.136197626590728760e-01
1.288000000000000000e+03 1.549224662780761719e+01 5.305202007293701172e+00 2.069003880023956299e-01 3.590037822723388672e-01 1.697712540626525879e-01 2.728977799415588379e-01
1.289000000000000000e+03 1.553620719909667969e+01 5.985682010650634766e+00 2.215258479118347168e-01 3.572932779788970947e-01 1.736457347869873047e-01 2.504702210426330566e-01
1.290000000000000000e+03 4.874324035644531250e+01 3.723757934570312500e+01 1.863503903150558472e-01 2.847720123827457428e-02 6.444827467203140259e-02 6.919119507074356079e-02
1.291000000000000000e+03 1.464560604095458984e+01 4.365680217742919922e+00 3.743594586849212646e-01 5.545135736465454102e-01 2.786619067192077637e-01 4.372672438621520996e-01
1.292000000000000000e+03 1.616063690185546875e+01 6.460292816162109375e+00 2.128783166408538818e-01 3.259678184986114502e-01 1.616538316011428833e-01 2.418530583381652832e-01
1.293000000000000000e+03 4.981520843505859375e+01 3.770480728149414062e+01 1.754890680313110352e-01 2.011471055448055267e-02 5.868113413453102112e-02 6.841820478439331055e-02
1.294000000000000000e+03 4.961242675781250000e+01 3.819961929321289062e+01 1.918472498655319214e-01 2.165322005748748779e-02 6.405014544725418091e-02 6.438340991735458374e-02
1.295000000000000000e+03 1.444215393066406250e+01 4.932277202606201172e+00 1.671925336122512817e-01 6.614499688148498535e-01 2.485927492380142212e-01 3.383948504924774170e-01
1.296000000000000000e+03 1.946403694152832031e+01 9.886701583862304688e+00 1.534518301486968994e-01 1.796282082796096802e-01 9.992400556802749634e-02 1.716823726892471313e-01
1.297000000000000000e+03 1.787343215942382812e+01 8.468649864196777344e+00 1.761687844991683960e-01 2.224327027797698975e-01 1.195804476737976074e-01 1.951419413089752197e-01
1.298000000000000000e+03 4.625544357299804688e+01 3.586064910888671875e+01 9.527350217103958130e-02 4.701499268412590027e-02 4.268654808402061462e-02 6.827552616596221924e-02
1.299000000000000000e+03 3.209971618652343750e+01 2.273927497863769531e+01 6.688484549522399902e-02 8.134075999259948730e-02 4.446768388152122498e-02 7.916428148746490479e-02
1.300000000000000000e+03 1.470361137390136719e+01 5.744438648223876953e+00 1.679785698652267456e-01 4.916769266128540039e-01 1.978966593742370605e-01 2.775960564613342285e-01
1.301000000000000000e+03 3.618008422851562500e+01 2.653342247009277344e+01 5.821603536605834961e-02 8.444725722074508667e-02 4.279898852109909058e-02 7.089409232139587402e-02
1.302000000000000000e+03 3.168910598754882812e+01 2.138533592224121094e+01 8.274395018815994263e-02 7.457407563924789429e-02 4.719540849328041077e-02 7.927886396646499634e-02
1.303000000000000000e+03 5.022411346435546875e+01 3.784923553466796875e+01 1.760021299123764038e-01 2.781413495540618896e-02 6.114488095045089722e-02 7.483748346567153931e-02
1.304000000000000000e+03 2.002887725830078125e+01 1.041843318939208984e+01 1.484108865261077881e-01 1.693199723958969116e-01 9.531925618648529053e-02 1.629828512668609619e-01
1.305000000000000000e+03 3.614422988891601562e+01 2.712246131896972656e+01 6.330412626266479492e-02 8.428722620010375977e-02 4.427740350365638733e-02 7.227695733308792114e-02
1.306000000000000000e+03 1.701038169860839844e+01 7.215351581573486328e+00 1.883294135332107544e-01 2.410053163766860962e-01 1.288004219532012939e-01 2.229388952255249023e-01
1.307000000000000000e+03 1.751229476928710938e+01 7.239439487457275391e+00 1.849621534347534180e-01 2.164688557386398315e-01 1.204293072223663330e-01 2.065690308809280396e-01
1.308000000000000000e+03 1.673730278015136719e+01 6.969668865203857422e+00 1.985758692026138306e-01 2.644533812999725342e-01 1.389087736606597900e-01 2.304828017950057983e-01
1.309000000000000000e+03 2.537865829467773438e+01 1.523710060119628906e+01 1.131986975669860840e-01 1.158526688814163208e-01 6.871540844440460205e-02 1.166827604174613953e-01
1.310000000000000000e+03 2.416971397399902344e+01 1.570192432403564453e+01 1.053034663200378418e-01 1.314484030008316040e-01 7.102555781602859497e-02 1.212454438209533691e-01
1.311000000000000000e+03 1.748888206481933594e+01 7.756311416625976562e+00 1.777553856372833252e-01 2.290897220373153687e-01 1.220535337924957275e-01 2.089181840419769287e-01
1.312000000000000000e+03 1.917376327514648438e+01 9.615592956542968750e+00 1.584668159484863281e-01 1.891894638538360596e-01 1.042968854308128357e-01 1.766378134489059448e-01
1.313000000000000000e+03 3.381117248535156250e+01 2.430846023559570312e+01 6.209504231810569763e-02 8.700762689113616943e-02 4.473080113530158997e-02 7.536136358976364136e-02
1.314000000000000000e+03 3.563258361816406250e+01 2.593055915832519531e+01 6.239534914493560791e-02 8.205704391002655029e-02 4.333571717143058777e-02 7.230025529861450195e-02
1.315000000000000000e+03 3.519491958618164062e+01 2.625705146789550781e+01 5.975024774670600891e-02 8.647706359624862671e-02 4.386819526553153992e-02 7.289242744445800781e-02
1.316000000000000000e+03 2.085169029235839844e+01 1.070772171020507812e+01 1.521363705396652222e-01 1.775712221860885620e-01 9.891227632761001587e-02 1.633824557065963745e-01
1.317000000000000000e+03 2.030529594421386719e+01 1.069687175750732422e+01 1.477624028921127319e-01 1.682642549276351929e-01 9.480799734592437744e-02 1.596459895372390747e-01
1.318000000000000000e+03 3.210586929321289062e+01 2.337130165100097656e+01 6.512174755334854126e-02 8.487795293331146240e-02 4.499991238117218018e-02 7.824392616748809814e-02
1.319000000000000000e+03 3.304830169677734375e+01 2.289342689514160156e+01 6.491205096244812012e-02 8.899398148059844971e-02 4.617181047797203064e-02 7.565180212259292603e-02
1.320000000000000000e+03 3.803531265258789062e+01 2.862137031555175781e+01 7.121754437685012817e-02 7.384940981864929199e-02 4.352008551359176636e-02 7.199463248252868652e-02
1.321000000000000000e+03 3.717362594604492188e+01 2.826382637023925781e+01 6.789947301149368286e-02 8.278942853212356567e-02 4.520666971802711487e-02 7.154209166765213013e-02
1.322000000000000000e+03 3.429907226562500000e+01 2.488869476318359375e+01 6.359896808862686157e-02 8.718311041593551636e-02 4.523462429642677307e-02 7.439088076353073120e-02
1.323000000000000000e+03 3.462500000000000000e+01 2.466898918151855469e+01 6.239152327179908752e-02 9.080339223146438599e-02 4.595847427845001221e-02 7.501517236232757568e-02
1.324000000000000000e+03 2.057669258117675781e+01 1.098359680175781250e+01 1.475328505039215088e-01 1.712892800569534302e-01 9.564663469791412354e-02 1.551976799964904785e-01
1.325000000000000000e+03 2.112439727783203125e+01 1.155422210693359375e+01 1.416431814432144165e-01 1.687973439693450928e-01 9.313215315341949463e-02 1.522789597511291504e-01
1.326000000000000000e+03 5.016993331909179688e+01 3.837075805664062500e+01 2.106794565916061401e-01 1.501542143523693085e-02 6.770846247673034668e-02 6.443001329898834229e-02
1.327000000000000000e+03 3.136856460571289062e+01 2.160896873474121094e+01 7.593140751123428345e-02 8.402027189731597900e-02 4.798550158739089966e-02 8.095448464155197144e-02
1.328000000000000000e+03 1.801520538330078125e+01 7.849372863769531250e+00 1.784384250640869141e-01 2.248332202434539795e-01 1.209814921021461487e-01 2.038793861865997314e-01
1.329000000000000000e+03 1.767899703979492188e+01 8.089723587036132812e+00 1.801463514566421509e-01 2.284056693315505981e-01 1.225656047463417053e-01 2.004178166389465332e-01
1.330000000000000000e+03 3.583199310302734375e+01 2.686830711364746094e+01 6.170516088604927063e-02 8.364590257406234741e-02 4.360532015562057495e-02 7.299459725618362427e-02
1.331000000000000000e+03 2.224516487121582031e+01 1.213633537292480469e+01 1.373553723096847534e-01 1.557296365499496460e-01 8.792550861835479736e-02 1.470000594854354858e-01
1.332000000000000000e+03 2.168191337585449219e+01 1.211355781555175781e+01 1.363595277070999146e-01 1.599481403827667236e-01 8.889229595661163330e-02 1.496134847402572632e-01
1.333000000000000000e+03 3.739564132690429688e+01 2.859086418151855469e+01 6.703278422355651855e-02 8.019746840000152588e-02 4.416907578706741333e-02 7.068568468093872070e-02
1.334000000000000000e+03 2.393672561645507812e+01 1.437579059600830078e+01 1.304346323013305664e-01 1.368580609560012817e-01 8.018780499696731567e-02 1.311837136745452881e-01
1.335000000000000000e+03 2.421992874145507812e+01 1.413139247894287109e+01 1.447580456733703613e-01 1.291906535625457764e-01 8.218461275100708008e-02 1.358342319726943970e-01
1.336000000000000000e+03 2.364921760559082031e+01 1.409833145141601562e+01 1.344522535800933838e-01 1.422377675771713257e-01 8.300700783729553223e-02 1.346082687377929688e-01
1.337000000000000000e+03 3.174279975891113281e+01 2.221266937255859375e+01 6.729011982679367065e-02 8.280279487371444702e-02 4.502787441015243530e-02 8.028153330087661743e-02
1.338000000000000000e+03 3.158976745605468750e+01 2.188216972351074219e+01 7.012281566858291626e-02 8.225817233324050903e-02 4.571429640054702759e-02 7.981114089488983154e-02
1.339000000000000000e+03 2.250950431823730469e+01 1.296505641937255859e+01 1.363318413496017456e-01 1.548190116882324219e-01 8.734525740146636963e-02 1.437725126743316650e-01
1.340000000000000000e+03 4.346762084960937500e+01 3.487682342529296875e+01 8.569973707199096680e-02 4.890655726194381714e-02 4.038188979029655457e-02 6.217024102807044983e-02
1.341000000000000000e+03 4.404356765747070312e+01 3.536592102050781250e+01 9.225610643625259399e-02 4.686832427978515625e-02 4.173732921481132507e-02 6.042203307151794434e-02
1.342000000000000000e+03 2.223187446594238281e+01 1.267922592163085938e+01 1.358505338430404663e-01 1.557507812976837158e-01 8.748038858175277710e-02 1.453113108873367310e-01
1.343000000000000000e+03 2.195701217651367188e+01 1.239514923095703125e+01 1.351920813322067261e-01 1.564526110887527466e-01 8.749341219663619995e-02 1.480222195386886597e-01
1.344000000000000000e+03 2.447586631774902344e+01 1.546423244476318359e+01 1.106886863708496094e-01 1.278648525476455688e-01 7.156606018543243408e-02 1.229366660118103027e-01
1.345000000000000000e+03 3.271910858154296875e+01 2.323266983032226562e+01 6.582184135913848877e-02 8.464263379573822021e-02 4.513934254646301270e-02 7.489484548568725586e-02
1.346000000000000000e+03 3.301013946533203125e+01 2.349298477172851562e+01 6.468167901039123535e-02 8.696106821298599243e-02 4.549282416701316833e-02 7.434868067502975464e-02
1.347000000000000000e+03 1.826280784606933594e+01 8.167868614196777344e+00 1.878217458724975586e-01 2.294000983238220215e-01 1.251665502786636353e-01 2.020413428544998169e-01
1.348000000000000000e+03 2.279322433471679688e+01 1.271848678588867188e+01 1.400035023689270020e-01 1.602311134338378906e-01 9.007038176059722900e-02 1.486083269119262695e-01
1.349000000000000000e+03 3.911661529541015625e+01 2.982299995422363281e+01 6.744354963302612305e-02 6.786631047725677490e-02 4.059295728802680969e-02 6.713902205228805542e-02
1.350000000000000000e+03 3.831635665893554688e+01 2.890357017517089844e+01 6.972122937440872192e-02 7.092663645744323730e-02 4.219435900449752808e-02 6.994868069887161255e-02
1.351000000000000000e+03 3.022950172424316406e+01 2.059591674804687500e+01 8.702879399061203003e-02 9.157846122980117798e-02 5.358217656612396240e-02 8.872124552726745605e-02
1.352000000000000000e+03 2.422294235229492188e+01 1.465243625640869141e+01 1.248992830514907837e-01 1.309397816658020020e-01 7.675172388553619385e-02 1.284512430429458618e-01
1.353000000000000000e+03 2.677188491821289062e+01 1.669852447509765625e+01 1.163266748189926147e-01 1.228398233652114868e-01 7.174994796514511108e-02 1.182371303439140320e-01
1.354000000000000000e+03 1.852829742431640625e+01 9.088499069213867188e+00 1.715768277645111084e-01 2.110478430986404419e-01 1.147873997688293457e-01 1.817840337753295898e-01
1.355000000000000000e+03 1.678551864624023438e+01 7.499158859252929688e+00 1.772885322570800781e-01 2.645240426063537598e-01 1.325437724590301514e-01 2.189546525478363037e-01
1.356000000000000000e+03 4.915679550170898438e+01 3.790910720825195312e+01 1.811864376068115234e-01 3.098153136670589447e-02 6.365039199590682983e-02 6.817916035652160645e-02
1.357000000000000000e+03 4.907856750488281250e+01 3.734439468383789062e+01 1.806854456663131714e-01 2.312212809920310974e-02 6.114226952195167542e-02 6.630393862724304199e-02
1.358000000000000000e+03 4.288348770141601562e+01 3.352206802368164062e+01 7.547088712453842163e-02 5.028976500034332275e-02 3.772819414734840393e-02 6.004419922828674316e-02
1.359000000000000000e+03 2.527238655090332031e+01 1.639915084838867188e+01 1.062309071421623230e-01 1.214977502822875977e-01 6.831859797239303589e-02 1.155415102839469910e-01
1.360000000000000000e+03 3.859474182128906250e+01 3.013739013671875000e+01 6.685545295476913452e-02 6.982104480266571045e-02 4.100295156240463257e-02 6.655512750148773193e-02
1.361000000000000000e+03 4.313484191894531250e+01 3.379591369628906250e+01 7.749494910240173340e-02 4.977437853813171387e-02 3.818079829216003418e-02 6.006044521927833557e-02
1.362000000000000000e+03 4.392707061767578125e+01 3.476983642578125000e+01 8.273430168628692627e-02 4.683656245470046997e-02 3.887125849723815918e-02 6.159036606550216675e-02
1.363000000000000000e+03 4.338594818115234375e+01 3.412902069091796875e+01 7.770023494958877563e-02 4.893298447132110596e-02 3.798996657133102417e-02 6.089336052536964417e-02
1.364000000000000000e+03 4.070283889770507812e+01 3.115126037597656250e+01 7.015146315097808838e-02 5.701780691742897034e-02 3.815077990293502808e-02 6.320497393608093262e-02
1.365000000000000000e+03 4.150775909423828125e+01 3.259610366821289062e+01 7.111878693103790283e-02 5.534766986966133118e-02 3.793993592262268066e-02 6.097159534692764282e-02
1.366000000000000000e+03 2.140358734130859375e+01 1.183365345001220703e+01 1.379340589046478271e-01 1.635591685771942139e-01 9.044796973466873169e-02 1.517719030380249023e-01
1.367000000000000000e+03 2.620759010314941406e+01 1.611997032165527344e+01 1.127001196146011353e-01 1.248376667499542236e-01 7.126133143901824951e-02 1.181225255131721497e-01
1.368000000000000000e+03 3.374003219604492188e+01 2.482573890686035156e+01 6.209338828921318054e-02 8.689925819635391235e-02 4.469779506325721741e-02 7.456775754690170288e-02
1.369000000000000000e+03 2.794387435913085938e+01 1.780887222290039062e+01 1.127326339483261108e-01 1.048680767416954041e-01 6.528021395206451416e-02 1.083597615361213684e-01
1.370000000000000000e+03 2.741504287719726562e+01 1.838167381286621094e+01 9.799999743700027466e-02 1.111707463860511780e-01 6.275122612714767456e-02 1.034664064645767212e-01
1.371000000000000000e+03 4.373121261596679688e+01 3.375912475585937500e+01 7.644860446453094482e-02 4.731920734047889709e-02 3.713034465909004211e-02 5.941772460937500000e-02
1.372000000000000000e+03 2.994022560119628906e+01 2.032790374755859375e+01 8.780478686094284058e-02 9.270668774843215942e-02 5.415344238281250000e-02 9.074773639440536499e-02
1.373000000000000000e+03 3.053152275085449219e+01 2.030766677856445312e+01 9.079516679048538208e-02 9.109023213386535645e-02 5.456561967730522156e-02 9.082023054361343384e-02
1.374000000000000000e+03 2.616881942749023438e+01 1.671801185607910156e+01 1.102031022310256958e-01 1.212845519185066223e-01 6.944629549980163574e-02 1.137301996350288391e-01
1.375000000000000000e+03 3.396696090698242188e+01 2.510409164428710938e+01 6.257681548595428467e-02 8.673616498708724976e-02 4.479389265179634094e-02 7.361955195665359497e-02
1.376000000000000000e+03 3.453229522705078125e+01 2.519746017456054688e+01 6.411939114332199097e-02 8.778347820043563843e-02 4.557086154818534851e-02 7.331264019012451172e-02
1.377000000000000000e+03 2.965471267700195312e+01 2.005287551879882812e+01 8.899232000112533569e-02 9.415385872125625610e-02 5.494385212659835815e-02 9.230080991983413696e-02
1.378000000000000000e+03 4.093394851684570312e+01 3.201484680175781250e+01 6.978981941938400269e-02 5.753006413578987122e-02 3.819596394896507263e-02 6.210867315530776978e-02
1.379000000000000000e+03 3.081754684448242188e+01 2.111510086059570312e+01 8.346001803874969482e-02 8.871365338563919067e-02 5.165209993720054626e-02 8.435635268688201904e-02
1.380000000000000000e+03 3.052313804626464844e+01 2.085822486877441406e+01 8.558540046215057373e-02 9.026254713535308838e-02 5.275438725948333740e-02 8.672877401113510132e-02
1.381000000000000000e+03 4.591624832153320312e+01 3.556222152709960938e+01 9.240948408842086792e-02 4.563370719552040100e-02 4.141295701265335083e-02 6.469587981700897217e-02
1.382000000000000000e+03 4.693735504150390625e+01 3.666450119018554688e+01 1.352985650300979614e-01 4.849389567971229553e-02 5.513773858547210693e-02 7.339510321617126465e-02
1.383000000000000000e+03 2.853132057189941406e+01 1.892091941833496094e+01 9.749532490968704224e-02 1.004465967416763306e-01 5.938257649540901184e-02 9.945019334554672241e-02
1.384000000000000000e+03 4.127854919433593750e+01 3.167527961730957031e+01 6.886322796344757080e-02 5.441324040293693542e-02 3.698294237256050110e-02 6.160242110490798950e-02
1.385000000000000000e+03 2.825059318542480469e+01 1.864246559143066406e+01 9.981713443994522095e-02 1.025503054261207581e-01 6.071023270487785339e-02 1.017969548702239990e-01
1.386000000000000000e+03 2.588197517395019531e+01 1.642272186279296875e+01 1.100512146949768066e-01 1.211950480937957764e-01 6.937387585639953613e-02 1.152021512389183044e-01
1.387000000000000000e+03 2.910144424438476562e+01 1.891274833679199219e+01 1.002752929925918579e-01 9.529881924390792847e-02 5.867223441600799561e-02 9.788198769092559814e-02
1.388000000000000000e+03 2.906317138671875000e+01 2.007363891601562500e+01 8.601920306682586670e-02 9.804466366767883301e-02 5.521916225552558899e-02 9.294518828392028809e-02
1.389000000000000000e+03 4.122509384155273438e+01 3.229224395751953125e+01 7.023298740386962891e-02 5.598988756537437439e-02 3.786686435341835022e-02 6.170525029301643372e-02
1.390000000000000000e+03 3.845088195800781250e+01 2.977361679077148438e+01 6.633573025465011597e-02 7.079581171274185181e-02 4.113946482539176941e-02 6.820726394653320312e-02
1.391000000000000000e+03 2.450611305236816406e+01 1.493123626708984375e+01 1.197763308882713318e-01 1.260330677032470703e-01 7.374282181262969971e-02 1.255460083484649658e-01
1.392000000000000000e+03 4.367480850219726562e+01 3.442858886718750000e+01 8.154270052909851074e-02 4.795576632022857666e-02 3.884954005479812622e-02 5.964638292789459229e-02
1.393000000000000000e+03 2.796690177917480469e+01 1.836746406555175781e+01 1.023494899272918701e-01 1.055153831839561462e-01 6.235946342349052429e-02 1.039019227027893066e-01
1.394000000000000000e+03 4.047551345825195312e+01 3.149201202392578125e+01 6.939064711332321167e-02 6.011745333671569824e-02 3.885243088006973267e-02 6.341843307018280029e-02
1.395000000000000000e+03 4.433903503417968750e+01 3.434835433959960938e+01 8.024343848228454590e-02 4.834997653961181641e-02 3.857802599668502808e-02 6.015802547335624695e-02
1.396000000000000000e+03 2.937163925170898438e+01 1.977153587341308594e+01 9.049578011035919189e-02 9.537838399410247803e-02 5.576224997639656067e-02 9.400498867034912109e-02
1.397000000000000000e+03 5.101036453247070312e+01 3.852870178222656250e+01 2.256632894277572632e-01 2.512473426759243011e-02 7.523640245199203491e-02 7.767540216445922852e-02
1.398000000000000000e+03 6.900710296630859375e+01 3.586751174926757812e+01 -5.292302966117858887e-01 3.700861334800720215e-01 -4.774325340986251831e-02 -1.423926651477813721e-01
1.399000000000000000e+03 7.068327331542968750e+01 3.646145629882812500e+01 1.042469859123229980e+00 2.421048164367675781e+00 1.039055347442626953e+00 -2.346152305603027344e+00
1.400000000000000000e+03 6.998760986328125000e+01 3.752811050415039062e+01 9.014052748680114746e-01 2.588651895523071289e+00 1.047017097473144531e+00 -1.495744228363037109e+00
1.401000000000000000e+03 6.826194000244140625e+01 3.675234985351562500e+01 5.366807430982589722e-02 7.957325577735900879e-01 2.548201978206634521e-01 -1.427546739578247070e-01
1.402000000000000000e+03 6.894272613525390625e+01 3.160876655578613281e+01 -1.887088298797607422e+00 4.880631864070892334e-01 -4.197075366973876953e-01 7.253416776657104492e-01
1.403000000000000000e+03 6.831663513183593750e+01 3.157733726501464844e+01 -2.197175502777099609e+00 3.448633253574371338e-01 -5.556936264038085938e-01 4.447253346443176270e-01
1.404000000000000000e+03 6.704888153076171875e+01 3.217378997802734375e+01 -3.356118440628051758e+00 2.693553082644939423e-02 -9.987549185752868652e-01 -7.019504159688949585e-02
1.405000000000000000e+03 6.767222595214843750e+01 3.156609344482421875e+01 -2.398697614669799805e+00 2.099192589521408081e-01 -6.566334962844848633e-01 2.234109640121459961e-01
1.406000000000000000e+03 6.630146026611328125e+01 3.220702362060546875e+01 -3.439447879791259766e+00 1.165748108178377151e-02 -1.028337121009826660e+00 -1.510214060544967651e-01
1.407000000000000000e+03 5.354210662841796875e+01 3.385636138916015625e+01 -5.933515429496765137e-01 -1.128457933664321899e-01 -2.118591964244842529e-01 -3.947213292121887207e-01
1.408000000000000000e+03 5.721512603759765625e+01 3.307770919799804688e+01 -1.739517688751220703e+00 1.515973061323165894e-01 -4.763761162757873535e-01 -4.696139395236968994e-01
1.409000000000000000e+03 5.496163558959960938e+01 3.343127822875976562e+01 -1.126343965530395508e+00 9.706113487482070923e-02 -3.087848722934722900e-01 -4.998020827770233154e-01
1.410000000000000000e+03 5.301985168457031250e+01 3.292101669311523438e+01 -8.481789231300354004e-01 -2.919746041297912598e-01 -3.420460522174835205e-01 -6.551557779312133789e-01
1.411000000000000000e+03 5.315911865234375000e+01 3.217416000366210938e+01 -1.120621204376220703e+00 -2.099746614694595337e-01 -3.991787731647491455e-01 -7.591039538383483887e-01
1.412000000000000000e+03 5.776098632812500000e+01 3.679491806030273438e+01 -7.029086351394653320e-02 -8.764388412237167358e-02 -4.738042503595352173e-02 1.620759218931198120e-01
1.413000000000000000e+03 5.546633529663085938e+01 3.707398223876953125e+01 6.480545736849308014e-03 -5.013865232467651367e-02 -1.309743151068687439e-02 7.549975067377090454e-02
1.414000000000000000e+03 5.908414840698242188e+01 3.655517578125000000e+01 -1.442518830299377441e-01 -1.049499437212944031e-01 -7.476054877042770386e-02 2.198585718870162964e-01
1.415000000000000000e+03 5.799556350708007812e+01 3.768854904174804688e+01 3.554365132004022598e-03 -1.252632439136505127e-01 -3.651266172528266907e-02 2.006604522466659546e-01
1.416000000000000000e+03 9.140601158142089844e+00 2.298813343048095703e+00 -9.823822975158691406e-02 -2.563779354095458984e-01 -1.063848510384559631e-01 3.506753146648406982e-01
1.417000000000000000e+03 7.117543220520019531e+00 2.394549369812011719e+00 -1.476998329162597656e-01 -1.122000664472579956e-01 -7.796996831893920898e-02 2.350350171327590942e-01
1.418000000000000000e+03 6.430459499359130859e+00 2.482016563415527344e+00 -1.232967451214790344e-01 -8.433606475591659546e-02 -6.228984147310256958e-02 1.982513368129730225e-01
1.419000000000000000e+03 6.235204696655273438e+00 1.826031684875488281e+00 -1.854040622711181641e-01 -5.328775569796562195e-02 -7.160754501819610596e-02 1.664880514144897461e-01
1.420000000000000000e+03 2.622978687286376953e+00 4.435290336608886719e+00 -4.150226246565580368e-03 -9.698439389467239380e-02 -3.034038469195365906e-02 8.446229994297027588e-02
1.421000000000000000e+03 5.287769317626953125e+00 3.387359619140625000e+00 -3.886758908629417419e-02 -9.450689703226089478e-02 -4.001234471797943115e-02 1.608220636844635010e-01
1.422000000000000000e+03 1.444941759109497070e+00 7.875061988830566406e+00 8.437218144536018372e-03 -1.836807280778884888e-01 -5.257305130362510681e-02 3.298437222838401794e-02
1.423000000000000000e+03 2.635860204696655273e+00 2.070964813232421875e+00 -4.014671221375465393e-02 -3.187442570924758911e-02 -2.160634286701679230e-02 5.910900607705116272e-02
1.424000000000000000e+03 2.150709152221679688e+00 3.461069107055664062e+00 -1.517153438180685043e-02 -6.847859174013137817e-02 -2.509503811597824097e-02 6.910978257656097412e-02
1.425000000000000000e+03 8.445294380187988281e+00 2.272013902664184570e+00 -1.504986137151718140e-01 -2.014545798301696777e-01 -1.055859550833702087e-01 3.235818147659301758e-01
1.426000000000000000e+03 6.732748413085937500e+01 3.733309173583984375e+01 3.091832995414733887e-01 4.354075491428375244e-01 2.233772575855255127e-01 3.687679171562194824e-01
1.427000000000000000e+03 6.640314483642578125e+01 3.578747177124023438e+01 -1.025248646736145020e+00 -5.303529649972915649e-02 -3.234851658344268799e-01 5.466130375862121582e-01
1.428000000000000000e+03 6.392816543579101562e+01 3.741844177246093750e+01 4.011789709329605103e-02 -2.334019988775253296e-01 -5.798523128032684326e-02 5.676537156105041504e-01
1.429000000000000000e+03 6.584295654296875000e+01 3.787787628173828125e+01 3.553333282470703125e-01 1.174587309360504150e-01 1.418376266956329346e-01 4.472108483314514160e-01
1.430000000000000000e+03 1.029404067993164062e+01 -3.662250041961669922e+00 -4.716258347034454346e-01 -5.288748815655708313e-02 -1.573539972305297852e-01 -3.030194640159606934e-01
1.431000000000000000e+03 1.176443290710449219e+01 -3.012497901916503906e+00 -6.303344368934631348e-01 -7.708122581243515015e-02 -2.122246921062469482e-01 -3.172510564327239990e-01
1.432000000000000000e+03 9.501395225524902344e+00 -2.791341304779052734e+00 -3.612037003040313721e-01 -1.594161614775657654e-02 -1.131435930728912354e-01 -1.839947551488876343e-01
1.433000000000000000e+03 5.979363250732421875e+01 3.664669418334960938e+01 -1.888403743505477905e-01 -1.164532527327537537e-01 -9.158808737993240356e-02 2.757983505725860596e-01
1.434000000000000000e+03 1.367862224578857422e+01 1.106862425804138184e+00 2.219446420669555664e+00 1.138183355331420898e+00 1.007288932800292969e+00 -4.182310402393341064e-01
1.435000000000000000e+03 5.878588867187500000e+01 3.229565811157226562e+01 -2.083881139755249023e+00 1.614272892475128174e-01 -5.767361521720886230e-01 -5.701025128364562988e-01
1.436000000000000000e+03 6.024696731567382812e+01 3.208932113647460938e+01 -2.361342191696166992e+00 1.185540482401847839e-01 -6.728364229202270508e-01 -5.292031168937683105e-01
1.437000000000000000e+03 6.099037551879882812e+01 3.198559188842773438e+01 -2.479472637176513672e+00 1.004039794206619263e-01 -7.137206196784973145e-01 -5.051784515380859375e-01
1.438000000000000000e+03 1.209562969207763672e+01 1.432513356208801270e+00 2.306493222713470459e-01 -4.190658032894134521e-01 -5.652494728565216064e-02 5.803010463714599609e-01
1.439000000000000000e+03 1.339369773864746094e+01 4.969655036926269531e+00 1.202150732278823853e-01 8.566319942474365234e-01 2.930541336536407471e-01 2.322418428957462311e-02
1.440000000000000000e+03 1.258598518371582031e+01 2.422881841659545898e+00 1.159809947013854980e+00 2.822480499744415283e-01 4.326173961162567139e-01 -4.569613039493560791e-01
1.441000000000000000e+03 1.351317977905273438e+01 4.446052551269531250e+00 1.646581143140792847e-01 1.055342078208923340e+00 3.660000860691070557e-01 3.849515318870544434e-02
1.442000000000000000e+03 1.227289867401123047e+01 1.950018644332885742e+00 8.122450709342956543e-01 -2.898225784301757812e-01 1.567267477512359619e-01 1.723910868167877197e-01
1.443000000000000000e+03 6.249629974365234375e+01 3.118465805053710938e+01 -2.310497283935546875e+00 1.103970035910606384e-01 -6.600300669670104980e-01 -5.304371714591979980e-01
1.444000000000000000e+03 6.250403976440429688e+01 3.182447433471679688e+01 -2.681993961334228516e+00 6.924255192279815674e-02 -7.838253974914550781e-01 -4.453669488430023193e-01
1.445000000000000000e+03 6.326074600219726562e+01 3.176153755187988281e+01 -2.758256673812866211e+00 5.573079735040664673e-02 -8.107577562332153320e-01 -4.095546603202819824e-01
1.446000000000000000e+03 6.477110290527343750e+01 3.166171073913574219e+01 -2.826038360595703125e+00 5.318525433540344238e-02 -8.318559527397155762e-01 -3.032053112983703613e-01
1.447000000000000000e+03 6.552151489257812500e+01 3.162621307373046875e+01 -2.796215057373046875e+00 6.555522978305816650e-02 -8.191979527473449707e-01 -2.220943123102188110e-01
1.448000000000000000e+03 3.031694412231445312e+01 7.831704139709472656e+00 -1.043223142623901367e+00 -1.553592205047607422e+00 -7.790446281433105469e-01 -1.284839272499084473e+00
1.449000000000000000e+03 3.142460060119628906e+01 7.817410945892333984e+00 -1.248668551445007324e+00 -1.339610934257507324e+00 -7.764838337898254395e-01 -1.247044801712036133e+00
1.450000000000000000e+03 3.047481346130371094e+01 6.836118221282958984e+00 -1.527760982513427734e+00 -1.314169406890869141e+00 -8.525791168212890625e-01 -1.478090643882751465e+00
1.451000000000000000e+03 2.991206550598144531e+01 6.015468120574951172e+00 -2.095653057098388672e+00 -1.222286462783813477e+00 -9.953818321228027344e-01 -1.346849322319030762e+00
1.452000000000000000e+03 3.084652900695800781e+01 7.961823940277099609e+00 -1.170611262321472168e+00 -1.418956398963928223e+00 -7.768703103065490723e-01 -1.213055849075317383e+00
1.453000000000000000e+03 3.115442657470703125e+01 6.748476982116699219e+00 -1.475283741950988770e+00 -1.168772220611572266e+00 -7.932167649269104004e-01 -1.246582269668579102e+00
1.454000000000000000e+03 5.644627761840820312e+01 3.317253875732421875e+01 -1.522111535072326660e+00 1.556344181299209595e-01 -4.099431633949279785e-01 -5.010571479797363281e-01
1.455000000000000000e+03 5.728727340698242188e+01 3.241921615600585938e+01 -1.760830879211425781e+00 1.875844597816467285e-01 -4.719739258289337158e-01 -6.254518032073974609e-01
1.456000000000000000e+03 5.740977096557617188e+01 3.173508453369140625e+01 -1.756958007812500000e+00 2.219299077987670898e-01 -4.605084359645843506e-01 -7.407113909721374512e-01
1.457000000000000000e+03 5.652924728393554688e+01 3.246488189697265625e+01 -1.613856792449951172e+00 1.985490173101425171e-01 -4.245923161506652832e-01 -6.517568230628967285e-01
1.458000000000000000e+03 5.503249740600585938e+01 3.270212936401367188e+01 -1.297140717506408691e+00 1.304683238267898560e-01 -3.500017225742340088e-01 -6.534880995750427246e-01
1.459000000000000000e+03 5.576487731933593750e+01 3.252052688598632812e+01 -1.459687113761901855e+00 1.713864505290985107e-01 -3.864901959896087646e-01 -6.681418418884277344e-01
1.460000000000000000e+03 8.724394798278808594e+00 -2.760188102722167969e+00 -2.874757647514343262e-01 -3.382822871208190918e-02 -9.639120101928710938e-02 -1.565532982349395752e-01
1.461000000000000000e+03 7.933990001678466797e+00 -2.752275228500366211e+00 -2.345065921545028687e-01 -2.315231226384639740e-02 -7.729767262935638428e-02 -1.346996277570724487e-01
1.462000000000000000e+03 6.222515106201171875e+00 -1.927116155624389648e+00 -9.923562407493591309e-02 -1.945956796407699585e-02 -3.560855612158775330e-02 -5.585014075040817261e-02
1.463000000000000000e+03 9.542747497558593750e+00 -3.614126443862915039e+00 -3.914456069469451904e-01 -7.172081619501113892e-02 -1.389499306678771973e-01 -2.621003985404968262e-01
1.464000000000000000e+03 4.589300155639648438e+00 -1.953361511230468750e+00 -4.956383630633354187e-02 -1.877984963357448578e-02 -2.050310559570789337e-02 -2.919561043381690979e-02
1.465000000000000000e+03 6.332876682281494141e+00 -2.784825325012207031e+00 -1.461214721202850342e-01 -3.093601018190383911e-02 -5.311724543571472168e-02 -9.592846035957336426e-02
1.466000000000000000e+03 4.235933303833007812e+00 -4.754612445831298828e+00 -8.874769508838653564e-02 -9.491877257823944092e-02 -5.509994179010391235e-02 -1.131283491849899292e-01
1.467000000000000000e+03 7.135764598846435547e+00 -2.762143135070800781e+00 -1.824838072061538696e-01 -3.705493360757827759e-02 -6.586162000894546509e-02 -1.140321865677833557e-01
1.468000000000000000e+03 1.602193593978881836e+00 -9.301939964294433594e+00 -1.230407599359750748e-02 -2.471829950809478760e-01 -7.784612476825714111e-02 -1.085489317774772644e-01
1.469000000000000000e+03 5.124102234840393066e-01 -6.511492729187011719e+00 -1.852470217272639275e-03 -4.378864169120788574e-02 -1.369233336299657822e-02 -2.059900015592575073e-02
1.470000000000000000e+03 2.590500593185424805e+00 -4.021260738372802734e+00 -3.765198215842247009e-02 -4.501609876751899719e-02 -2.480042539536952972e-02 -3.704648092389106750e-02
1.471000000000000000e+03 5.221373438835144043e-01 -3.628237962722778320e+00 -3.647355828434228897e-03 1.754601858556270599e-02 4.169598687440156937e-03 -3.141399938613176346e-03
1.472000000000000000e+03 1.499616527557373047e+01 -2.453456163406372070e+00 -1.249317049980163574e+00 -2.724288702011108398e-01 -4.565237760543823242e-01 -5.693635344505310059e-01
1.473000000000000000e+03 1.502880001068115234e+01 -3.140194892883300781e+00 -1.224412560462951660e+00 -4.671878516674041748e-01 -5.074800848960876465e-01 -7.552026510238647461e-01
1.474000000000000000e+03 1.430040645599365234e+01 -3.985142946243286133e+00 -9.915053844451904297e-01 -4.360845983028411865e-01 -4.282769858837127686e-01 -7.584652900695800781e-01
1.475000000000000000e+03 1.253775501251220703e+01 -3.090129613876342773e+00 -7.490424513816833496e-01 -7.218433916568756104e-02 -2.463680356740951538e-01 -3.804607093334197998e-01
1.476000000000000000e+03 1.335130023956298828e+01 -3.142696142196655273e+00 -9.112114310264587402e-01 -1.737902760505676270e-01 -3.255005180835723877e-01 -4.894138574600219727e-01
1.477000000000000000e+03 5.478329467773437500e+01 3.772654342651367188e+01 3.091012686491012573e-02 -4.869199544191360474e-02 -5.334560293704271317e-03 3.031848929822444916e-02
1.478000000000000000e+03 1.981420898437500000e+01 -1.475451827049255371e+00 -2.729427337646484375e+00 -7.124490737915039062e+00 -2.956175327301025391e+00 -3.987853765487670898e+00
1.479000000000000000e+03 2.239205932617187500e+01 -1.489341616630554199e+00 3.514098882675170898e+00 1.914995431900024414e+00 1.628728270530700684e+00 -2.100192308425903320e+00
1.480000000000000000e+03 4.370381546020507812e+01 -3.861549377441406250e+01 1.859906792640686035e+00 1.030608177185058594e+00 8.671544790267944336e-01 1.003071069717407227e+00
1.481000000000000000e+03 4.174462890625000000e+01 -3.979113388061523438e+01 2.574674606323242188e+00 5.903880596160888672e-01 9.495187997817993164e-01 1.538272649049758911e-01
1.482000000000000000e+03 4.215748214721679688e+01 -4.163661575317382812e+01 1.953726768493652344e+00 9.086250662803649902e-01 8.587055802345275879e-01 8.523485623300075531e-03
1.483000000000000000e+03 4.261806488037109375e+01 -3.072274208068847656e+01 -2.459665387868881226e-01 -5.566921234130859375e-01 -2.407975941896438599e-01 3.965307176113128662e-01
1.484000000000000000e+03 3.972604370117187500e+01 -3.959405517578125000e+01 2.333590269088745117e+00 5.428060293197631836e-01 8.629188537597656250e-01 -5.174879431724548340e-01
1.485000000000000000e+03 4.725629425048828125e+01 -3.400442504882812500e+01 -2.237851731479167938e-02 9.275724291801452637e-01 2.715581655502319336e-01 4.527914226055145264e-01
1.486000000000000000e+03 3.060327720642089844e+01 -1.071961021423339844e+01 1.004400178790092468e-01 1.993769546970725060e-03 3.073013573884963989e-02 -1.199077442288398743e-01
1.487000000000000000e+03 3.019549560546875000e+01 -6.149491310119628906e+00 9.262736439704895020e-01 -1.413435041904449463e-01 2.354790419340133667e-01 -3.842494487762451172e-01
1.488000000000000000e+03 1.913515472412109375e+01 -5.427963256835937500e+00 1.019560471177101135e-01 -2.216038465499877930e+00 -6.342247128486633301e-01 9.105640649795532227e-02
1.489000000000000000e+03 3.834823989868164062e+01 -2.372529983520507812e+01 -2.435728013515472412e-01 -7.218679189682006836e-01 -2.896322011947631836e-01 4.453290700912475586e-01
1.490000000000000000e+03 3.700401306152343750e+01 -2.133446502685546875e+01 -2.125978767871856689e-01 -7.624524235725402832e-01 -2.925150990486145020e-01 4.168765246868133545e-01
1.491000000000000000e+03 2.733655738830566406e+01 -3.172331428527832031e+01 3.970347344875335693e-01 4.980638027191162109e-01 2.685295641422271729e-01 -3.797281086444854736e-01
1.492000000000000000e+03 1.917988967895507812e+01 -9.901348114013671875e+00 1.826619654893875122e-01 -6.261869668960571289e-01 -1.330574899911880493e-01 -1.348393708467483521e-01
1.493000000000000000e+03 2.158175086975097656e+01 -1.193773078918457031e+01 7.063244283199310303e-02 7.579176872968673706e-02 4.392726346850395203e-02 -1.554236561059951782e-01
1.494000000000000000e+03 2.851580429077148438e+01 -3.403647661209106445e+00 9.324662089347839355e-01 -1.545667648315429688e-01 2.333698421716690063e-01 -3.480987548828125000e-01
1.495000000000000000e+03 2.444912147521972656e+01 -1.522724509239196777e+00 1.398340582847595215e+00 5.809122920036315918e-01 5.937758684158325195e-01 -9.425437450408935547e-01
1.496000000000000000e+03 3.205005645751953125e+01 -3.423268508911132812e+01 5.466377139091491699e-01 7.217084765434265137e-01 3.805038630962371826e-01 -5.220384001731872559e-01
1.497000000000000000e+03 1.871990585327148438e+01 -8.520013809204101562e+00 5.798568576574325562e-02 -1.046745419502258301e+00 -2.966279387474060059e-01 -2.433963418006896973e-01
1.498000000000000000e+03 3.547865295410156250e+01 -3.816036224365234375e+01 9.872324466705322266e-01 5.363793969154357910e-01 4.570835530757904053e-01 -6.099748611450195312e-01
1.499000000000000000e+03 3.205230712890625000e+01 -1.303986263275146484e+01 -1.884016022086143494e-02 -2.707375586032867432e-01 -8.687331527471542358e-02 8.100169897079467773e-02
1.500000000000000000e+03 3.099748992919921875e+01 -3.203615570068359375e+01 4.774054586887359619e-01 7.843500971794128418e-01 3.785266578197479248e-01 -4.934629201889038086e-01
1.501000000000000000e+03 2.659465980529785156e+01 -5.195188999176025391e+00 1.262585639953613281e+00 9.817708134651184082e-01 6.733069419860839844e-01 -1.007131099700927734e+00
1.502000000000000000e+03 2.454546928405761719e+01 -1.943429565429687500e+01 1.997691094875335693e-01 4.139823913574218750e-01 1.841254532337188721e-01 -2.948961853981018066e-01
1.503000000000000000e+03 2.442564201354980469e+01 -1.663223838806152344e+01 1.446417272090911865e-01 4.005885720252990723e-01 1.635690927505493164e-01 -2.871113121509552002e-01
1.504000000000000000e+03 2.929189872741699219e+01 -2.648800659179687500e+01 2.071901410818099976e-01 7.816591262817382812e-01 2.966547906398773193e-01 -4.200536310672760010e-01
1.505000000000000000e+03 2.167510414123535156e+01 3.824780881404876709e-02 -1.542217493057250977e+00 2.998085916042327881e-01 -3.727226853370666504e-01 -2.823347330093383789e+00
1.506000000000000000e+03 2.915815353393554688e+01 -2.976386451721191406e+01 3.636935055255889893e-01 7.095563411712646484e-01 3.219749629497528076e-01 -4.515796601772308350e-01
1.507000000000000000e+03 2.189330101013183594e+01 -1.485301876068115234e+01 2.163149565458297729e-01 1.460434198379516602e-01 1.087075173854827881e-01 -2.028116881847381592e-01
1.508000000000000000e+03 2.639898490905761719e+01 -3.321022033691406250e+00 1.446175217628479004e+00 4.507296085357666016e-01 5.690714716911315918e-01 -8.111680150032043457e-01
1.509000000000000000e+03 2.118831062316894531e+01 -1.367011737823486328e+01 1.673229932785034180e-01 -5.972587503492832184e-03 4.840511828660964966e-02 -2.193665951490402222e-01
1.510000000000000000e+03 2.572933387756347656e+01 -1.900467872619628906e+01 1.473132669925689697e-01 5.238277316093444824e-01 2.013422995805740356e-01 -3.121240139007568359e-01
1.511000000000000000e+03 3.942876052856445312e+01 -2.299207687377929688e+01 -1.699894815683364868e-01 -5.663694739341735840e-01 -2.209076881408691406e-01 3.312983810901641846e-01
1.512000000000000000e+03 3.974959945678710938e+01 -2.608015441894531250e+01 -2.573969960212707520e-01 -7.129924297332763672e-01 -2.911168336868286133e-01 4.530486166477203369e-01
1.513000000000000000e+03 2.865256500244140625e+01 -2.524851417541503906e+01 2.249556332826614380e-01 7.573409676551818848e-01 2.946889698505401611e-01 -3.990662992000579834e-01
1.514000000000000000e+03 2.792142677307128906e+01 -2.709306144714355469e+01 2.611917257308959961e-01 6.685541868209838867e-01 2.789237797260284424e-01 -4.055886566638946533e-01
1.515000000000000000e+03 4.287857055664062500e+01 -2.878460311889648438e+01 -2.180106341838836670e-01 -3.025423288345336914e-01 -1.561658829450607300e-01 3.053634762763977051e-01
1.516000000000000000e+03 4.358362197875976562e+01 -2.990388107299804688e+01 -2.448922842741012573e-01 -2.039728611707687378e-01 -1.346595436334609985e-01 2.683472633361816406e-01
1.517000000000000000e+03 2.775317573547363281e+01 -4.650800704956054688e+00 1.137200236320495605e+00 2.755537331104278564e-01 4.238262176513671875e-01 -7.058821916580200195e-01
1.518000000000000000e+03 4.425930404663085938e+01 -3.099645805358886719e+01 -2.167311906814575195e-01 -8.424137718975543976e-03 -6.754659861326217651e-02 2.689292132854461670e-01
1.519000000000000000e+03 4.485498428344726562e+01 -3.203390121459960938e+01 -2.435429394245147705e-01 1.714339703321456909e-01 -2.163269184529781342e-02 2.866739630699157715e-01
1.520000000000000000e+03 4.117305374145507812e+01 -2.841335487365722656e+01 -2.672324478626251221e-01 -6.360616087913513184e-01 -2.709882259368896484e-01 4.431997239589691162e-01
1.521000000000000000e+03 1.980625343322753906e+01 -1.121594715118408203e+01 1.385974884033203125e-01 -3.977738320827484131e-01 -7.775290310382843018e-02 -1.834290921688079834e-01
1.522000000000000000e+03 2.048990440368652344e+01 -1.246258163452148438e+01 2.101991325616836548e-01 -1.254132539033889771e-01 2.543576247990131378e-02 -1.447142362594604492e-01
1.523000000000000000e+03 3.533367156982421875e+01 -1.577355194091796875e+01 -8.192745037376880646e-03 -5.152097344398498535e-01 -1.570207327604293823e-01 1.646254956722259521e-01
1.524000000000000000e+03 2.597054290771484375e+01 -2.549983739852905273e+00 1.323271751403808594e+00 6.059445738792419434e-01 5.787649154663085938e-01 -6.958881616592407227e-01
1.525000000000000000e+03 2.214584159851074219e+01 -1.768117141723632812e+01 1.863393634557723999e-01 1.520919650793075562e-01 1.015293970704078674e-01 -2.831234037876129150e-01
1.526000000000000000e+03 2.327901268005371094e+01 -1.714836120605468750e+01 1.987993121147155762e-01 3.100443482398986816e-01 1.526530981063842773e-01 -2.608339488506317139e-01
1.527000000000000000e+03 3.674214935302734375e+01 -1.817326545715332031e+01 -8.216197043657302856e-02 -5.773414969444274902e-01 -1.978510320186614990e-01 2.423388063907623291e-01
1.528000000000000000e+03 3.459601974487304688e+01 -1.459928703308105469e+01 6.531903147697448730e-02 -4.651753604412078857e-01 -1.199569031596183777e-01 1.234138607978820801e-01
1.529000000000000000e+03 2.510663414001464844e+01 -2.063323402404785156e+01 1.730022579431533813e-01 4.529433250427246094e-01 1.877836734056472778e-01 -3.273765146732330322e-01
1.530000000000000000e+03 3.537684249877929688e+01 -3.581562042236328125e+01 6.398158669471740723e-01 6.415049433708190918e-01 3.843962252140045166e-01 -6.453551650047302246e-01
1.531000000000000000e+03 3.383388900756835938e+01 -1.344106483459472656e+01 9.492909908294677734e-02 -4.133550226688385010e-01 -9.552777558565139771e-02 5.213476717472076416e-02
1.532000000000000000e+03 1.842158889770507812e+01 -7.137364864349365234e+00 5.434278026223182678e-02 -1.375741124153137207e+00 -3.964195251464843750e-01 -2.113061100244522095e-01
1.533000000000000000e+03 3.785292434692382812e+01 -1.742217636108398438e+01 4.128793254494667053e-02 -4.533498287200927734e-01 -1.236185729503631592e-01 1.640563756227493286e-01
1.534000000000000000e+03 2.991855621337890625e+01 -9.538243293762207031e+00 2.650761604309082031e-01 2.324398010969161987e-01 1.492547839879989624e-01 -2.387166321277618408e-01
1.535000000000000000e+03 3.370902633666992188e+01 -3.731268310546875000e+01 8.266594409942626953e-01 5.850005149841308594e-01 4.234979748725891113e-01 -5.354551672935485840e-01
1.536000000000000000e+03 3.081035423278808594e+01 -8.914102554321289062e+00 4.658953547477722168e-01 -3.876317292451858521e-02 1.281396448612213135e-01 -3.290354311466217041e-01
1.537000000000000000e+03 2.655940628051757812e+01 -2.454870605468750000e+01 2.324538975954055786e-01 5.760785937309265137e-01 2.425597608089447021e-01 -3.588510751724243164e-01
1.538000000000000000e+03 2.859150695800781250e+01 -2.835431098937988281e+01 2.678960561752319336e-01 6.948578953742980957e-01 2.888261973857879639e-01 -4.373011589050292969e-01
1.539000000000000000e+03 7.644557189941406250e+01 -3.775571441650390625e+01 -1.986846514046192169e-02 5.434228420257568359e+00 1.624307990074157715e+00 1.005194894969463348e-02
1.540000000000000000e+03 7.923319244384765625e+01 -3.468780899047851562e+01 5.172271747142076492e-03 5.829322814941406250e+00 1.750348567962646484e+00 1.183271314948797226e-02
1.541000000000000000e+03 7.930053710937500000e+01 -2.775195503234863281e+01 -2.750359708443284035e-03 5.979122161865234375e+00 1.792911529541015625e+00 1.433411147445440292e-02
1.542000000000000000e+03 7.941122436523437500e+01 3.755710983276367188e+01 6.181930378079414368e-02 8.884190559387207031e+00 2.683802843093872070e+00 7.926365137100219727e-01
1.543000000000000000e+03 7.938056945800781250e+01 -2.082214736938476562e+01 2.104207640513777733e-03 6.172072887420654297e+00 1.852253198623657227e+00 1.341942045837640762e-02
1.544000000000000000e+03 7.789798736572265625e+01 -2.749203300476074219e+01 2.924758708104491234e-03 5.775876045227050781e+00 1.733640313148498535e+00 4.352626577019691467e-02
1.545000000000000000e+03 7.801050567626953125e+01 -2.611155509948730469e+01 -1.211384078487753868e-04 5.823541641235351562e+00 1.747026205062866211e+00 4.532710835337638855e-02
1.546000000000000000e+03 7.923817443847656250e+01 -3.053188514709472656e+01 4.649322363547980785e-04 5.912885189056396484e+00 1.774005055427551270e+00 1.317516062408685684e-02
1.547000000000000000e+03 7.768855285644531250e+01 -3.443008041381835938e+01 -6.962796207517385483e-03 5.639585971832275391e+00 1.689786911010742188e+00 3.972774371504783630e-02
1.548000000000000000e+03 7.763017272949218750e+01 -3.307022857666015625e+01 3.177837468683719635e-03 5.648453235626220703e+00 1.695489406585693359e+00 3.270844742655754089e-02
1.549000000000000000e+03 7.202352905273437500e+01 -3.851605606079101562e+01 7.147813588380813599e-02 4.764420986175537109e+00 1.450769782066345215e+00 4.905693605542182922e-02
1.550000000000000000e+03 7.555721282958984375e+01 -4.059174346923828125e+01 3.086618147790431976e-02 5.358805656433105469e+00 1.616901516914367676e+00 -4.636073857545852661e-02
1.551000000000000000e+03 7.809277343750000000e+01 1.404651737213134766e+01 1.955897919833660126e-02 8.707086563110351562e+00 2.617993593215942383e+00 3.448571264743804932e-01
1.552000000000000000e+03 7.937597656250000000e+01 1.536434078216552734e+01 3.769917879253625870e-03 9.487470626831054688e+00 2.847372293472290039e+00 1.093871891498565674e-01
1.553000000000000000e+03 7.831389617919921875e+01 2.101728248596191406e+01 -2.427794598042964935e-02 1.022054481506347656e+01 3.058880090713500977e+00 3.629547357559204102e-01
1.554000000000000000e+03 7.945694732666015625e+01 2.232345771789550781e+01 -1.118812058120965958e-02 1.123275947570800781e+01 3.366471529006958008e+00 7.745818793773651123e-02
1.555000000000000000e+03 7.948606872558593750e+01 2.787425422668457031e+01 -4.916521534323692322e-02 1.108938503265380859e+01 3.312066078186035156e+00 -3.220389485359191895e-01
1.556000000000000000e+03 7.847024536132812500e+01 2.511094856262207031e+01 -1.426082104444503784e-01 1.100346946716308594e+01 3.258258342742919922e+00 3.078561089932918549e-02
1.557000000000000000e+03 7.842240905761718750e+01 2.375173759460449219e+01 -8.718100935220718384e-02 1.081342792510986328e+01 3.217874050140380859e+00 2.093002945184707642e-01
1.558000000000000000e+03 7.694927215576171875e+01 1.694244575500488281e+01 3.430926799774169922e-02 8.685922622680664062e+00 2.616069555282592773e+00 6.061190366744995117e-01
1.559000000000000000e+03 7.812585449218750000e+01 1.544425296783447266e+01 1.708730123937129974e-02 8.972121238708496094e+00 2.696762561798095703e+00 3.653026223182678223e-01
1.560000000000000000e+03 7.816867065429687500e+01 1.684170532226562500e+01 1.555702835321426392e-02 9.258642196655273438e+00 2.782259702682495117e+00 3.833415210247039795e-01
1.561000000000000000e+03 7.676543426513671875e+01 1.128337383270263672e+01 4.331350699067115784e-02 7.786751747131347656e+00 2.349019527435302734e+00 4.802220761775970459e-01
1.562000000000000000e+03 7.805668640136718750e+01 8.424617767333984375e+00 1.702732220292091370e-02 7.847599983215332031e+00 2.359388113021850586e+00 2.525006532669067383e-01
1.563000000000000000e+03 7.935093688964843750e+01 9.778754234313964844e+00 3.417798085138201714e-03 8.426212310791015625e+00 2.528888940811157227e+00 8.122313767671585083e-02
1.564000000000000000e+03 7.845501708984375000e+01 2.788299560546875000e+01 -3.041276335716247559e-01 1.091867542266845703e+01 3.184364318847656250e+00 -6.949858069419860840e-01
1.565000000000000000e+03 7.802359008789062500e+01 3.188663721084594727e-02 1.027994789183139801e-02 6.982073307037353516e+00 2.097706079483032227e+00 1.530420929193496704e-01
1.566000000000000000e+03 7.934434509277343750e+01 1.403498291969299316e+00 2.244506496936082840e-03 7.384516716003417969e+00 2.216028451919555664e+00 4.692488163709640503e-02
1.567000000000000000e+03 7.935549163818359375e+01 -1.387628459930419922e+01 2.764426462817937136e-04 6.414124011993408203e+00 1.924320101737976074e+00 1.869656145572662354e-02
1.568000000000000000e+03 7.938607025146484375e+01 -6.928740978240966797e+00 1.746719935908913612e-03 6.758361339569091797e+00 2.028032302856445312e+00 2.567132003605365753e-02
1.569000000000000000e+03 7.937387084960937500e+01 -1.943396568298339844e+01 -1.629427191801369190e-03 6.216197967529296875e+00 1.864370465278625488e+00 1.441005989909172058e-02
1.570000000000000000e+03 7.921814727783203125e+01 3.885214614868164062e+01 -1.104819923639297485e-01 1.051828861236572266e+01 3.122341871261596680e+00 7.090165615081787109e-01
1.571000000000000000e+03 7.848946380615234375e+01 2.647797966003417969e+01 -2.363670915365219116e-01 1.108218669891357422e+01 3.253745794296264648e+00 -2.396663427352905273e-01
1.572000000000000000e+03 7.805287933349609375e+01 9.824741363525390625e+00 1.670633256435394287e-02 8.033492088317871094e+00 2.415059328079223633e+00 2.759515941143035889e-01
1.573000000000000000e+03 7.804659271240234375e+01 2.820992708206176758e+00 1.112241856753826141e-02 7.226076126098632812e+00 2.171159505844116211e+00 1.793993711471557617e-01
1.574000000000000000e+03 7.669688415527343750e+01 -1.342087030410766602e+00 2.392501011490821838e-02 6.593194961547851562e+00 1.985135912895202637e+00 2.346882075071334839e-01
1.575000000000000000e+03 7.935677337646484375e+01 -2.765351533889770508e+00 4.698760312749072909e-05 7.034589767456054688e+00 2.110391139984130859e+00 3.468604385852813721e-02
1.576000000000000000e+03 7.813863372802734375e+01 -5.484435558319091797e+00 6.572280079126358032e-03 6.618376255035400391e+00 1.987484574317932129e+00 1.066416352987289429e-01
1.577000000000000000e+03 7.938016510009765625e+01 -9.706356048583984375e+00 3.770963812712579966e-04 6.605885028839111328e+00 1.981878638267517090e+00 2.211922407150268555e-02
1.578000000000000000e+03 7.807678985595703125e+01 -1.237713336944580078e+01 3.404370509088039398e-03 6.264932155609130859e+00 1.880500912666320801e+00 7.522070407867431641e-02
1.579000000000000000e+03 7.935966491699218750e+01 -1.665188789367675781e+01 -1.291436259634792805e-03 6.309868812561035156e+00 1.892573237419128418e+00 1.591002382338047028e-02
1.580000000000000000e+03 7.812123107910156250e+01 -1.929430961608886719e+01 2.734607551246881485e-03 6.025285720825195312e+00 1.808406114578247070e+00 5.465258657932281494e-02
1.581000000000000000e+03 7.522530364990234375e+01 3.407003021240234375e+01 7.834527969360351562e+00 1.617440795898437500e+01 7.202681064605712891e+00 5.225973725318908691e-01
1.582000000000000000e+03 9.080156683921813965e-01 3.734928131103515625e+01 2.955280360765755177e-04 -1.179272606968879700e-01 -3.528951853513717651e-02 -2.258384134620428085e-03
1.583000000000000000e+03 7.777436971664428711e-01 3.456223297119140625e+01 4.676400567404925823e-04 -1.253866255283355713e-01 -3.747569397091865540e-02 -2.164416480809450150e-03
1.584000000000000000e+03 7.298487424850463867e-01 3.316184616088867188e+01 -3.303104313090443611e-04 -1.292080432176589966e-01 -3.886150568723678589e-02 -1.867047161795198917e-03
1.585000000000000000e+03 5.879568457603454590e-01 2.755263710021972656e+01 -7.258667610585689545e-04 -1.497065424919128418e-01 -4.512972012162208557e-02 -2.754793502390384674e-03
1.586000000000000000e+03 5.945317745208740234e-01 2.615335655212402344e+01 5.417864304035902023e-04 -1.567514091730117798e-01 -4.686288535594940186e-02 -3.194087184965610504e-03
1.587000000000000000e+03 1.101331233978271484e+00 -3.600931549072265625e+01 3.612355096265673637e-03 -1.661437749862670898e+00 -4.973476231098175049e-01 -1.303512416779994965e-02
1.588000000000000000e+03 2.578524827957153320e+00 -3.276768875122070312e+01 9.606357663869857788e-03 -1.442607045173645020e+00 -4.299002289772033691e-01 -5.869926884770393372e-02
1.589000000000000000e+03 2.938623666763305664e+00 2.718854713439941406e+01 -2.049081493169069290e-03 -1.162300556898117065e-01 -3.548374027013778687e-02 -1.226307265460491180e-02
1.590000000000000000e+03 3.025656700134277344e+00 2.586651992797851562e+01 -1.552823232486844063e-03 -1.195959076285362244e-01 -3.634461760520935059e-02 -1.354327425360679626e-02
1.591000000000000000e+03 2.349905014038085938e+00 3.421659469604492188e+01 -3.389969351701438427e-04 -1.101651340723037720e-01 -3.315123915672302246e-02 -4.613856784999370575e-03
1.592000000000000000e+03 2.203446865081787109e+00 3.282995605468750000e+01 -2.297971077496185899e-04 -1.133685931563377380e-01 -3.407951444387435913e-02 -5.059375893324613571e-03
1.593000000000000000e+03 3.790998220443725586e+00 3.925086212158203125e+01 -3.974966530222445726e-04 -1.002035290002822876e-01 -3.018030896782875061e-02 -1.122498302720487118e-03
1.594000000000000000e+03 1.987748742103576660e+00 -2.862328910827636719e+01 1.045832503587007523e-02 -1.385599970817565918e+00 -4.125424921512603760e-01 -6.691981106996536255e-02
1.595000000000000000e+03 1.907903671264648438e+00 -2.588652801513671875e+01 8.224810473620891571e-03 -1.290409326553344727e+00 -3.846553564071655273e-01 -8.198039233684539795e-02
1.596000000000000000e+03 3.206662416458129883e+00 -3.567072677612304688e+01 9.402728639543056488e-03 -1.422934889793395996e+00 -4.240596294403076172e-01 -4.940516129136085510e-02
1.597000000000000000e+03 1.723101258277893066e+00 1.753288841247558594e+01 -3.101807960774749517e-04 -1.868356913328170776e-01 -5.614376068115234375e-02 -1.382464170455932617e-02
1.598000000000000000e+03 5.544637441635131836e-01 1.486865139007568359e+01 8.167687337845563889e-04 -2.446400225162506104e-01 -7.314697653055191040e-02 -4.347831942141056061e-03
1.599000000000000000e+03 4.800649583339691162e-01 7.867442607879638672e+00 1.942125032655894756e-03 -2.144226580858230591e-01 -6.374415755271911621e-02 1.189321372658014297e-02
1.600000000000000000e+03 5.979340672492980957e-01 2.051381111145019531e+01 4.496623587328940630e-04 -1.950646936893463135e-01 -5.838450789451599121e-02 -5.180275999009609222e-03
1.601000000000000000e+03 5.859822630882263184e-01 1.909840393066406250e+01 -6.088098161853849888e-04 -2.074451744556427002e-01 -6.241619214415550232e-02 -5.211146548390388489e-03
1.602000000000000000e+03 1.791440606117248535e+00 -1.615775680541992188e+01 6.026985123753547668e-03 -7.438755631446838379e-01 -2.213545739650726318e-01 -1.417670696973800659e-01
1.603000000000000000e+03 4.027148246765136719e+00 -4.077914428710937500e+01 7.346934638917446136e-03 -1.483170390129089355e+00 -4.427470564842224121e-01 -4.858935996890068054e-02
1.604000000000000000e+03 5.149075984954833984e+00 -3.520383453369140625e+01 3.075497783720493317e-02 -1.236570954322814941e+00 -3.617447614669799805e-01 -7.412739843130111694e-02
1.605000000000000000e+03 2.893122911453247070e+00 -3.419090652465820312e+01 9.355261921882629395e-03 -1.440485358238220215e+00 -4.293390214443206787e-01 -5.363373085856437683e-02
1.606000000000000000e+03 2.316262483596801758e+00 -3.137966918945312500e+01 8.706537075340747833e-03 -1.432591915130615234e+00 -4.271655976772308350e-01 -5.768258869647979736e-02
1.607000000000000000e+03 1.927015185356140137e+00 -2.725401878356933594e+01 6.432066205888986588e-03 -1.342874169349670410e+00 -4.009326100349426270e-01 -7.611361145973205566e-02
1.608000000000000000e+03 3.198144435882568359e+00 -2.699029922485351562e+01 2.027333527803421021e-02 -1.228152275085449219e+00 -3.623636662960052490e-01 -1.209556311368942261e-01
1.609000000000000000e+03 1.898907899856567383e+00 -2.173068046569824219e+01 9.025263600051403046e-03 -1.093945264816284180e+00 -3.254760205745697021e-01 -1.137865483760833740e-01
1.610000000000000000e+03 1.906052827835083008e+00 -2.451181030273437500e+01 7.410922087728977203e-03 -1.232282638549804688e+00 -3.674615323543548584e-01 -9.446249157190322876e-02
1.611000000000000000e+03 1.856139659881591797e+00 -1.893908500671386719e+01 8.545427583158016205e-03 -9.306520223617553711e-01 -2.766319811344146729e-01 -1.306161880493164062e-01
1.612000000000000000e+03 6.158620715141296387e-01 -1.909668350219726562e+01 -1.357961795292794704e-03 -1.001462578773498535e+00 -3.008461892604827881e-01 -4.395767673850059509e-02
1.613000000000000000e+03 2.881856679916381836e+00 -1.329771327972412109e+01 -2.534791594371199608e-03 -5.360271334648132324e-01 -1.615685820579528809e-01 -2.230690568685531616e-01
1.614000000000000000e+03 5.568708181381225586e-01 -1.207870483398437500e+01 1.749937422573566437e-03 -4.222594499588012695e-01 -1.261528581380844116e-01 -4.652708768844604492e-02
1.615000000000000000e+03 1.682113289833068848e+00 -1.202044105529785156e+01 -5.872264504432678223e-03 -4.369084537029266357e-01 -1.328342109918594360e-01 -1.357284486293792725e-01
1.616000000000000000e+03 1.544786572456359863e+00 -6.662253379821777344e+00 -1.539563573896884918e-02 -1.021295115351676941e-01 -3.525754436850547791e-02 -6.604787707328796387e-02
1.617000000000000000e+03 1.471776843070983887e+00 -3.438335418701171875e+00 -1.432799268513917923e-02 -1.567761786282062531e-02 -9.001683443784713745e-03 -9.337820112705230713e-03
1.618000000000000000e+03 5.529497265815734863e-01 -5.088719844818115234e+00 -3.949859645217657089e-03 2.814289473462849855e-04 -1.100529218092560768e-03 -1.203032955527305603e-02
1.619000000000000000e+03 4.662393629550933838e-01 5.061301231384277344e+00 2.612567914184182882e-04 -1.179440543055534363e-01 -3.530484065413475037e-02 1.888051815330982208e-02
1.620000000000000000e+03 1.545846939086914062e+00 1.059895133972167969e+01 6.975983269512653351e-03 -2.117755115032196045e-01 -6.143985688686370850e-02 8.495477959513664246e-03
1.621000000000000000e+03 5.117683410644531250e-01 1.066285800933837891e+01 1.436449470929801464e-03 -2.554229199886322021e-01 -7.619594782590866089e-02 2.818286651745438576e-03
1.622000000000000000e+03 1.640663743019104004e+00 1.335133171081542969e+01 3.683501156046986580e-03 -2.104785144329071045e-01 -6.203850731253623962e-02 -6.908983923494815826e-03
1.623000000000000000e+03 1.671756029129028320e+00 1.473679161071777344e+01 1.730002812109887600e-03 -2.044098675251007080e-01 -6.080396100878715515e-02 -1.036331336945295334e-02
1.624000000000000000e+03 5.744505524635314941e-01 1.768534660339355469e+01 6.012310623191297054e-04 -2.202793061733245850e-01 -6.590342521667480469e-02 -5.402497947216033936e-03
1.625000000000000000e+03 1.829841971397399902e+00 2.460282707214355469e+01 -4.112778115086257458e-04 -1.447204798460006714e-01 -4.353952780365943909e-02 -1.045403070747852325e-02
1.626000000000000000e+03 7.846736907958984375e+01 3.058035278320312500e+01 -1.154095008969306946e-01 9.952308654785156250e+00 2.951069831848144531e+00 -1.661079287528991699e+00
1.627000000000000000e+03 2.721679687500000000e+01 3.598074436187744141e+00 -2.541046142578125000e+00 -9.303005337715148926e-01 -1.041404008865356445e+00 -1.165409445762634277e+00
1.628000000000000000e+03 2.762325477600097656e+01 4.588585376739501953e+00 -2.745286941528320312e+00 -1.286663770675659180e+00 -1.209585309028625488e+00 -1.525605797767639160e+00
1.629000000000000000e+03 2.679210853576660156e+01 3.291308641433715820e+00 -2.633289337158203125e+00 -8.686128854751586914e-01 -1.050570726394653320e+00 -1.170158863067626953e+00
1.630000000000000000e+03 2.452876091003417969e+01 2.670028924942016602e+00 -3.411685466766357422e+00 -7.088838815689086914e-01 -1.236170887947082520e+00 -1.539356946945190430e+00
1.631000000000000000e+03 2.350300788879394531e+01 1.876997470855712891e+00 -3.147137403488159180e+00 -5.493167638778686523e-01 -1.108936190605163574e+00 -1.617117047309875488e+00
1.632000000000000000e+03 2.399710655212402344e+01 2.364372253417968750e+00 -3.445451498031616211e+00 -6.237849593162536621e-01 -1.220770955085754395e+00 -1.603661417961120605e+00
1.633000000000000000e+03 2.332037925720214844e+01 1.982940435409545898e+00 -3.387822151184082031e+00 -5.991200804710388184e-01 -1.196082711219787598e+00 -1.743716955184936523e+00
1.634000000000000000e+03 1.690872573852539062e+01 -2.384419441223144531e+00 -1.798332571983337402e+00 -9.626049995422363281e-01 -8.282812237739562988e-01 -1.008259892463684082e+00
1.635000000000000000e+03 1.680263519287109375e+01 -2.112851142883300781e+00 -1.840426087379455566e+00 -9.039678573608398438e-01 -8.233181834220886230e-01 -1.052897095680236816e+00
1.636000000000000000e+03 1.804918670654296875e+01 -1.340283870697021484e+00 -2.179491043090820312e+00 -1.533207654953002930e+00 -1.113809585571289062e+00 -1.479986786842346191e+00
1.637000000000000000e+03 2.553219604492187500e+01 3.346536874771118164e+00 -3.279925107955932617e+00 -8.437662124633789062e-01 -1.237107396125793457e+00 -1.528123736381530762e+00
1.638000000000000000e+03 2.435404968261718750e+01 2.566533565521240234e+00 -3.404754877090454102e+00 -6.239842772483825684e-01 -1.208621740341186523e+00 -1.530191302299499512e+00
1.639000000000000000e+03 2.372529602050781250e+01 1.905810952186584473e+00 -3.249248504638671875e+00 -5.287740230560302734e-01 -1.133406758308410645e+00 -1.550903797149658203e+00
1.640000000000000000e+03 2.381987380981445312e+01 2.260443210601806641e+00 -3.491788387298583984e+00 -6.884205937385559082e-01 -1.254062652587890625e+00 -1.667200684547424316e+00
1.641000000000000000e+03 1.733114051818847656e+01 -2.547360897064208984e+00 -1.828747391700744629e+00 -1.347110748291015625e+00 -9.527574181556701660e-01 -1.295426249504089355e+00
1.642000000000000000e+03 2.782714080810546875e+01 4.342850208282470703e+00 -2.588231325149536133e+00 -1.188727378845214844e+00 -1.133087635040283203e+00 -1.338955283164978027e+00
1.643000000000000000e+03 2.709358787536621094e+01 4.233451366424560547e+00 -2.876556873321533203e+00 -1.095228552818298340e+00 -1.191535592079162598e+00 -1.501118540763854980e+00
1.644000000000000000e+03 2.317174148559570312e+01 1.838456511497497559e+00 -3.360636234283447266e+00 -6.397696733474731445e-01 -1.200121760368347168e+00 -1.766348123550415039e+00
1.645000000000000000e+03 2.658299064636230469e+01 3.924659729003906250e+00 -3.021547794342041016e+00 -1.008119583129882812e+00 -1.208900213241577148e+00 -1.526811361312866211e+00
1.646000000000000000e+03 7.080958557128906250e+01 3.199897384643554688e+01 -8.068466782569885254e-01 1.749428749084472656e+00 2.827746272087097168e-01 2.146400690078735352e+00
1.647000000000000000e+03 7.323085784912109375e+01 3.234359741210937500e+01 -6.831630468368530273e-01 1.516289997100830078e+01 4.343921184539794922e+00 6.374091148376464844e+00
1.648000000000000000e+03 7.372223663330078125e+01 3.211201858520507812e+01 -1.722121119499206543e+00 1.756679534912109375e+01 4.753402233123779297e+00 3.794307708740234375e+00
1.649000000000000000e+03 7.170019531250000000e+01 3.196914672851562500e+01 8.638099581003189087e-02 3.465633153915405273e+00 1.065604209899902344e+00 3.908496856689453125e+00
1.650000000000000000e+03 7.187405395507812500e+01 3.585649871826171875e+01 1.727546334266662598e+00 4.416131973266601562e+00 1.843103528022766113e+00 -4.115864753723144531e+00
1.651000000000000000e+03 7.388032531738281250e+01 3.217659759521484375e+01 -1.704294323921203613e+00 1.916173171997070312e+01 5.237231254577636719e+00 2.718468189239501953e+00
1.652000000000000000e+03 7.834282684326171875e+01 3.741944885253906250e+01 -2.331488132476806641e-01 1.038089752197265625e+01 3.044324398040771484e+00 1.652058959007263184e+00
1.653000000000000000e+03 7.606566619873046875e+01 3.465695953369140625e+01 4.431316375732421875e+00 1.396717166900634766e+01 5.519546508789062500e+00 1.676440715789794922e+00
1.654000000000000000e+03 7.850803375244140625e+01 3.372821807861328125e+01 9.067934751510620117e-01 8.250804901123046875e+00 2.747279405593872070e+00 -2.910669744014739990e-01
1.655000000000000000e+03 7.767420196533203125e+01 2.948708343505859375e+01 -6.892547607421875000e-01 1.118255043029785156e+01 3.147988557815551758e+00 -1.466099500656127930e+00
1.656000000000000000e+03 7.402894592285156250e+01 3.242163467407226562e+01 -1.277149677276611328e+00 2.066894531250000000e+01 5.817538738250732422e+00 1.665655136108398438e+00
1.657000000000000000e+03 7.475883483886718750e+01 3.536996841430664062e+01 1.677048921585083008e+00 1.951650238037109375e+01 6.358065605163574219e+00 2.243745565414428711e+00
1.658000000000000000e+03 7.644271850585937500e+01 3.436717987060546875e+01 4.259732723236083984e+00 1.301585674285888672e+01 5.182676792144775391e+00 8.789830803871154785e-01
1.659000000000000000e+03 7.502532958984375000e+01 3.471094894409179688e+01 5.913149833679199219e+00 1.786752700805664062e+01 7.134202957153320312e+00 2.674766540527343750e+00
1.660000000000000000e+03 7.378290557861328125e+01 3.603308868408203125e+01 -9.070106148719787598e-01 1.625293540954589844e+01 4.603777408599853516e+00 -2.765188217163085938e+00
1.661000000000000000e+03 7.583523559570312500e+01 3.528145217895507812e+01 2.575552701950073242e+00 1.495891189575195312e+01 5.260339260101318359e+00 2.472872734069824219e+00
1.662000000000000000e+03 7.241738128662109375e+01 3.551720046997070312e+01 2.103027343750000000e+00 6.573639869689941406e+00 2.603000164031982422e+00 -5.699948787689208984e+00
1.663000000000000000e+03 2.182935523986816406e+01 9.185042381286621094e-01 -2.790294647216796875e+00 -7.213288545608520508e-01 -1.053487062454223633e+00 -2.549144506454467773e+00
1.664000000000000000e+03 2.036181640625000000e+01 -5.286562442779541016e-01 -3.845152139663696289e+00 -4.494140625000000000e+00 -2.501787900924682617e+00 -4.101005554199218750e+00
1.665000000000000000e+03 1.874600791931152344e+01 -1.051870584487915039e+00 -2.642843961715698242e+00 -2.614769220352172852e+00 -1.577283978462219238e+00 -2.045852661132812500e+00
1.666000000000000000e+03 2.090224838256835938e+01 4.589210748672485352e-01 -2.035127162933349609e+00 -1.736394762992858887e+00 -1.131456613540649414e+00 -3.529596805572509766e+00
1.667000000000000000e+03 2.062733650207519531e+01 1.773172467947006226e-01 -1.566577196121215820e+00 -2.154395580291748047e+00 -1.116291761398315430e+00 -3.521958827972412109e+00
1.668000000000000000e+03 1.516766548156738281e+01 5.791872024536132812e+00 2.128979116678237915e-01 3.877421915531158447e-01 1.801920235157012939e-01 2.830282449722290039e-01
1.669000000000000000e+03 1.585867214202880859e+01 6.212374210357666016e+00 2.166517227888107300e-01 3.426099419593811035e-01 1.677784919738769531e-01 2.468164116144180298e-01
1.670000000000000000e+03 3.151860618591308594e+01 2.297795677185058594e+01 6.488902121782302856e-02 8.622751384973526001e-02 4.533496126532554626e-02 8.042261004447937012e-02
1.671000000000000000e+03 3.171165847778320312e+01 2.260383224487304688e+01 6.643269211053848267e-02 8.418370783329010010e-02 4.518492147326469421e-02 8.089409768581390381e-02
1.672000000000000000e+03 1.976665115356445312e+01 1.071403312683105469e+01 1.419111937284469604e-01 1.732585877180099487e-01 9.455092996358871460e-02 1.627135723829269409e-01
1.673000000000000000e+03 4.877848052978515625e+01 3.826898193359375000e+01 1.753611862659454346e-01 3.094192408025264740e-02 6.189093366265296936e-02 6.090313568711280823e-02
1.674000000000000000e+03 3.962406158447265625e+01 2.036620521545410156e+01 -1.191664457321166992e+00 -1.306002974510192871e+00 -7.493002414703369141e-01 -1.329466104507446289e+00
1.675000000000000000e+03 4.020504760742187500e+01 2.037860870361328125e+01 -1.215887546539306641e+00 -1.295969247817993164e+00 -7.535570263862609863e-01 -1.362245917320251465e+00
1.676000000000000000e+03 4.047336959838867188e+01 2.066691780090332031e+01 -1.247528314590454102e+00 -1.296315670013427734e+00 -7.631531953811645508e-01 -1.365191221237182617e+00
1.677000000000000000e+03 1.651288223266601562e+01 7.275458335876464844e+00 1.755099892616271973e-01 2.788794934749603271e-01 1.363168507814407349e-01 2.246153503656387329e-01
1.678000000000000000e+03 1.726702499389648438e+01 7.468418598175048828e+00 1.857923269271850586e-01 2.350538372993469238e-01 1.262538582086563110e-01 2.116691619157791138e-01
1.679000000000000000e+03 4.103559112548828125e+01 2.174510383605957031e+01 -1.475138902664184570e+00 -1.334976315498352051e+00 -8.430345654487609863e-01 -1.402960896492004395e+00
1.680000000000000000e+03 3.548638534545898438e+01 2.659971427917480469e+01 6.038738787174224854e-02 8.493198454380035400e-02 4.359581321477890015e-02 7.319495826959609985e-02
1.681000000000000000e+03 3.447186660766601562e+01 1.415615558624267578e+01 -1.396451115608215332e+00 -1.584658145904541016e+00 -8.943327665328979492e-01 -1.458601713180541992e+00
1.682000000000000000e+03 3.187009429931640625e+01 1.177134704589843750e+01 -1.547961592674255371e+00 -1.538744211196899414e+00 -9.260117411613464355e-01 -1.483926057815551758e+00
1.683000000000000000e+03 2.474275016784667969e+01 1.576099872589111328e+01 1.086650118231773376e-01 1.246847808361053467e-01 7.000494003295898438e-02 1.209581568837165833e-01
1.684000000000000000e+03 3.355546569824218750e+01 2.403375053405761719e+01 6.239153072237968445e-02 8.767770230770111084e-02 4.502077028155326843e-02 7.513307034969329834e-02
1.685000000000000000e+03 3.497872924804687500e+01 2.587310409545898438e+01 6.119931116700172424e-02 8.768494427204132080e-02 4.466527700424194336e-02 7.233374565839767456e-02
1.686000000000000000e+03 3.405946731567382812e+01 2.459253311157226562e+01 6.274193525314331055e-02 8.679001033306121826e-02 4.485958069562911987e-02 7.501130551099777222e-02
1.687000000000000000e+03 4.656916427612304688e+01 2.577979278564453125e+01 -1.432394266128540039e+00 -1.202759861946105957e+00 -7.905462384223937988e-01 -1.366536974906921387e+00
1.688000000000000000e+03 4.162706375122070312e+01 2.227474403381347656e+01 -1.562280416488647461e+00 -1.373937249183654785e+00 -8.808652758598327637e-01 -1.437963843345642090e+00
1.689000000000000000e+03 4.656192016601562500e+01 2.635137176513671875e+01 -1.444033861160278320e+00 -1.257647871971130371e+00 -8.105045557022094727e-01 -1.401674270629882812e+00
1.690000000000000000e+03 3.329024505615234375e+01 2.376152610778808594e+01 6.337739527225494385e-02 8.797553181648254395e-02 4.540587961673736572e-02 7.475586980581283569e-02
1.691000000000000000e+03 1.816565322875976562e+01 8.813452720642089844e+00 1.760574281215667725e-01 2.207279950380325317e-01 1.190356239676475525e-01 1.849988251924514771e-01
1.692000000000000000e+03 1.690991783142089844e+01 8.707459449768066406e+00 1.451186984777450562e-01 2.511549890041351318e-01 1.188821122050285339e-01 1.867004036903381348e-01
1.693000000000000000e+03 2.139912414550781250e+01 1.238218498229980469e+01 1.299748420715332031e-01 1.615192145109176636e-01 8.744821697473526001e-02 1.468545496463775635e-01
1.694000000000000000e+03 4.598977661132812500e+01 2.580130195617675781e+01 -1.475239157676696777e+00 -1.300739169120788574e+00 -8.327934741973876953e-01 -1.424028515815734863e+00
1.695000000000000000e+03 3.804174423217773438e+01 1.851770401000976562e+01 -1.248190879821777344e+00 -1.631039261817932129e+00 -8.637690544128417969e-01 -1.414329290390014648e+00
1.696000000000000000e+03 4.250422286987304688e+01 2.309030151367187500e+01 -1.577312707901000977e+00 -1.377138257026672363e+00 -8.863352537155151367e-01 -1.490556478500366211e+00
1.697000000000000000e+03 4.305705261230468750e+01 2.310997009277343750e+01 -1.520930886268615723e+00 -1.367716550827026367e+00 -8.665942549705505371e-01 -1.456817746162414551e+00
1.698000000000000000e+03 4.713771820068359375e+01 2.634987831115722656e+01 -1.414752960205078125e+00 -1.173122048377990723e+00 -7.763624787330627441e-01 -1.348285555839538574e+00
1.699000000000000000e+03 3.500739288330078125e+01 1.470997524261474609e+01 -1.349579572677612305e+00 -1.581688284873962402e+00 -8.793803453445434570e-01 -1.463308215141296387e+00
1.700000000000000000e+03 3.450923538208007812e+01 1.469834136962890625e+01 -1.387516617774963379e+00 -1.635290980339050293e+00 -9.068422913551330566e-01 -1.508787035942077637e+00
1.701000000000000000e+03 1.645318412780761719e+01 6.716424942016601562e+00 2.039984166622161865e-01 2.879073321819305420e-01 1.475717276334762573e-01 2.418435066938400269e-01
1.702000000000000000e+03 1.502217483520507812e+01 6.253444194793701172e+00 1.664687246084213257e-01 4.305562973022460938e-01 1.791075021028518677e-01 2.407538741827011108e-01
1.703000000000000000e+03 4.276882171630859375e+01 2.283741378784179688e+01 -1.513421893119812012e+00 -1.353802800178527832e+00 -8.601674437522888184e-01 -1.446145176887512207e+00
1.704000000000000000e+03 2.084882354736328125e+01 1.127153491973876953e+01 1.444309353828430176e-01 1.703914701938629150e-01 9.444672614336013794e-02 1.539899110794067383e-01
1.705000000000000000e+03 2.003632354736328125e+01 1.097880840301513672e+01 1.419216394424438477e-01 1.724094450473785400e-01 9.429932385683059692e-02 1.569762080907821655e-01
1.706000000000000000e+03 3.145823287963867188e+01 1.096264266967773438e+01 -1.488003015518188477e+00 -1.487150669097900391e+00 -8.925461173057556152e-01 -1.403115272521972656e+00
1.707000000000000000e+03 4.712910461425781250e+01 2.691256904602050781e+01 -1.447560429573059082e+00 -1.227934956550598145e+00 -8.026486039161682129e-01 -1.376745820045471191e+00
1.708000000000000000e+03 4.770329284667968750e+01 2.801418876647949219e+01 -1.530679821968078613e+00 -1.264995932579040527e+00 -8.387027382850646973e-01 -1.394840717315673828e+00
1.709000000000000000e+03 3.527687072753906250e+01 1.499296379089355469e+01 -1.334389209747314453e+00 -1.586520433425903320e+00 -8.762728571891784668e-01 -1.457384943962097168e+00
1.710000000000000000e+03 4.334581756591796875e+01 2.338100433349609375e+01 -1.530773878097534180e+00 -1.385993957519531250e+00 -8.750303387641906738e-01 -1.463094234466552734e+00
1.711000000000000000e+03 1.657991409301757812e+01 7.844339370727539062e+00 1.582420766353607178e-01 2.715198993682861328e-01 1.289285868406295776e-01 2.075910568237304688e-01
1.712000000000000000e+03 3.643251800537109375e+01 2.738138198852539062e+01 6.503291428089141846e-02 8.539763838052749634e-02 4.512916505336761475e-02 7.220584154129028320e-02
1.713000000000000000e+03 3.588127136230468750e+01 2.744210052490234375e+01 6.335689872503280640e-02 8.334796130657196045e-02 4.401145875453948975e-02 7.126195728778839111e-02
1.714000000000000000e+03 3.777107620239257812e+01 1.821442985534667969e+01 -1.281279325485229492e+00 -1.672264218330383301e+00 -8.860630393028259277e-01 -1.434825897216796875e+00
1.715000000000000000e+03 4.740984344482421875e+01 2.719263458251953125e+01 -1.456129074096679688e+00 -1.217601299285888672e+00 -8.021190762519836426e-01 -1.365349888801574707e+00
1.716000000000000000e+03 7.241294860839843750e+01 3.568136978149414062e+01 1.874454140663146973e+00 7.015623569488525391e+00 2.667023420333862305e+00 -5.465226650238037109e+00
1.717000000000000000e+03 7.358763885498046875e+01 3.891293334960937500e+01 -1.202298045158386230e+00 1.062241649627685547e+01 2.826035499572753906e+00 -1.229490160942077637e+00
1.718000000000000000e+03 7.151118469238281250e+01 3.601295089721679688e+01 1.444606304168701172e+00 3.494940519332885742e+00 1.481864094734191895e+00 -3.248154640197753906e+00
1.719000000000000000e+03 7.099221038818359375e+01 3.608892440795898438e+01 1.344364285469055176e+00 2.068390369415283203e+00 1.023826360702514648e+00 -2.487806558609008789e+00
1.720000000000000000e+03 7.213465118408203125e+01 3.586688995361328125e+01 1.652623772621154785e+00 5.409171581268310547e+00 2.118538618087768555e+00 -4.648630142211914062e+00
1.721000000000000000e+03 3.216136932373046875e+01 1.152714538574218750e+01 -1.500494003295898438e+00 -1.475693345069885254e+00 -8.928561806678771973e-01 -1.406213998794555664e+00
1.722000000000000000e+03 2.279083061218261719e+01 1.325112819671630859e+01 1.374187469482421875e-01 1.541774272918701172e-01 8.747885376214981079e-02 1.416300684213638306e-01
1.723000000000000000e+03 2.194434738159179688e+01 1.293715572357177734e+01 1.301821917295455933e-01 1.554609984159469604e-01 8.569295704364776611e-02 1.424095332622528076e-01
1.724000000000000000e+03 4.363515472412109375e+01 2.365071296691894531e+01 -1.544172525405883789e+00 -1.406824946403503418e+00 -8.852992653846740723e-01 -1.465066909790039062e+00
1.725000000000000000e+03 2.646728134155273438e+01 1.700286674499511719e+01 1.099239513278007507e-01 1.202571839094161987e-01 6.905434280633926392e-02 1.127026900649070740e-01
1.726000000000000000e+03 2.554575538635253906e+01 1.672952270507812500e+01 1.055712774395942688e-01 1.209253594279289246e-01 6.794898957014083862e-02 1.127312481403350830e-01
1.727000000000000000e+03 2.962955093383789062e+01 2.064357948303222656e+01 8.303937315940856934e-02 9.508224576711654663e-02 5.343648791313171387e-02 8.934605866670608521e-02
1.728000000000000000e+03 4.074300384521484375e+01 2.094773864746093750e+01 -1.285991072654724121e+00 -1.307670712471008301e+00 -7.780985832214355469e-01 -1.368956804275512695e+00
1.729000000000000000e+03 4.484700012207031250e+01 2.525697135925292969e+01 -1.599798440933227539e+00 -1.507192730903625488e+00 -9.320973753929138184e-01 -1.513811111450195312e+00
1.730000000000000000e+03 4.569850158691406250e+01 2.553093338012695312e+01 -1.502161860466003418e+00 -1.328834295272827148e+00 -8.492988348007202148e-01 -1.430928945541381836e+00
1.731000000000000000e+03 5.050990676879882812e+01 3.018731689453125000e+01 -1.341344833374023438e+00 -9.654760956764221191e-01 -6.920462846755981445e-01 -1.147444367408752441e+00
1.732000000000000000e+03 4.999165725708007812e+01 3.019281387329101562e+01 -1.360840439796447754e+00 -1.122928977012634277e+00 -7.451308369636535645e-01 -1.236747503280639648e+00
1.733000000000000000e+03 2.934371376037597656e+01 2.036450767517089844e+01 8.437294512987136841e-02 9.632654488086700439e-02 5.420984700322151184e-02 9.132066369056701660e-02
1.734000000000000000e+03 4.827278900146484375e+01 2.855895805358886719e+01 -1.537135720252990723e+00 -1.263692617416381836e+00 -8.402485251426696777e-01 -1.381253123283386230e+00
1.735000000000000000e+03 4.941510772705078125e+01 2.964755630493164062e+01 -1.441940546035766602e+00 -1.191705346107482910e+00 -7.900937795639038086e-01 -1.303263545036315918e+00
1.736000000000000000e+03 3.554646301269531250e+01 1.527980804443359375e+01 -1.322457790374755859e+00 -1.590220928192138672e+00 -8.738036155700683594e-01 -1.453710317611694336e+00
1.737000000000000000e+03 3.475946044921875000e+01 2.552327919006347656e+01 6.305010616779327393e-02 8.799478411674499512e-02 4.531347006559371948e-02 7.265006750822067261e-02
1.738000000000000000e+03 3.418735885620117188e+01 2.539717674255371094e+01 6.224853172898292542e-02 8.699002861976623535e-02 4.477156698703765869e-02 7.282337546348571777e-02
1.739000000000000000e+03 2.851498413085937500e+01 1.948931121826171875e+01 8.994530886411666870e-02 1.015153080224990845e-01 5.743818357586860657e-02 9.648745507001876831e-02
1.740000000000000000e+03 4.768833923339843750e+01 2.747103500366210938e+01 -1.466729164123535156e+00 -1.210566639900207520e+00 -8.031887412071228027e-01 -1.354230523109436035e+00
1.741000000000000000e+03 4.851639556884765625e+01 2.829896354675292969e+01 -1.486181616783142090e+00 -1.183870553970336914e+00 -8.010156750679016113e-01 -1.319692850112915039e+00
1.742000000000000000e+03 3.581601715087890625e+01 1.556905174255371094e+01 -1.321190237998962402e+00 -1.597157120704650879e+00 -8.755041956901550293e-01 -1.447535514831542969e+00
1.743000000000000000e+03 3.608581542968750000e+01 1.585978794097900391e+01 -1.318534493446350098e+00 -1.602427959442138672e+00 -8.762887716293334961e-01 -1.446194529533386230e+00
1.744000000000000000e+03 3.639905166625976562e+01 1.672562789916992188e+01 -1.359591841697692871e+00 -1.669797420501708984e+00 -9.088167548179626465e-01 -1.493048429489135742e+00
1.745000000000000000e+03 3.635642242431640625e+01 1.615144920349121094e+01 -1.318794965744018555e+00 -1.611140370368957520e+00 -8.789806365966796875e-01 -1.442459106445312500e+00
1.746000000000000000e+03 3.906860733032226562e+01 3.061129570007324219e+01 6.756570935249328613e-02 6.768883764743804932e-02 4.057636484503746033e-02 6.481483578681945801e-02
1.747000000000000000e+03 4.248026657104492188e+01 2.256263923645019531e+01 -1.506727099418640137e+00 -1.346316218376159668e+00 -8.559129834175109863e-01 -1.429611444473266602e+00
1.748000000000000000e+03 2.797280502319335938e+01 1.892484474182128906e+01 9.413204342126846313e-02 1.057631373405456543e-01 5.996855720877647400e-02 1.001623794436454773e-01
1.749000000000000000e+03 4.392538070678710938e+01 2.391940498352050781e+01 -1.556929469108581543e+00 -1.426543235778808594e+00 -8.950418233871459961e-01 -1.464262247085571289e+00
1.750000000000000000e+03 2.881091880798339844e+01 1.920292663574218750e+01 9.490959346294403076e-02 9.846253693103790283e-02 5.801163986325263977e-02 9.753771871328353882e-02
1.751000000000000000e+03 2.824422264099121094e+01 1.920401000976562500e+01 9.191835671663284302e-02 1.033536195755004883e-01 5.858159065246582031e-02 9.847439080476760864e-02
1.752000000000000000e+03 2.909064865112304688e+01 1.948720359802246094e+01 9.269283711910247803e-02 9.696201235055923462e-02 5.689645558595657349e-02 9.553245455026626587e-02
1.753000000000000000e+03 3.662857437133789062e+01 1.644371032714843750e+01 -1.314326643943786621e+00 -1.618472576141357422e+00 -8.798397779464721680e-01 -1.440336823463439941e+00
1.754000000000000000e+03 1.340799331665039062e+01 3.494428396224975586e+00 3.287743031978607178e-01 1.550796031951904297e+00 5.638710856437683105e-01 -1.020151451230049133e-01
1.755000000000000000e+03 4.015267944335937500e+01 3.135177040100097656e+01 6.823463737964630127e-02 6.224672868847846985e-02 3.914441168308258057e-02 6.362701207399368286e-02
1.756000000000000000e+03 3.102208328247070312e+01 9.646058082580566406e+00 -1.415669441223144531e+00 -1.365442872047424316e+00 -8.343337178230285645e-01 -1.304220914840698242e+00
1.757000000000000000e+03 3.148147773742675781e+01 2.351396560668945312e+01 6.272605806589126587e-02 8.795590698719024658e-02 4.520459100604057312e-02 7.934935390949249268e-02
1.758000000000000000e+03 3.110341262817382812e+01 2.136399269104003906e+01 7.972575724124908447e-02 8.648017793893814087e-02 4.986178129911422729e-02 8.262239396572113037e-02
1.759000000000000000e+03 3.022476196289062500e+01 2.115630912780761719e+01 7.983105629682540894e-02 9.258212894201278687e-02 5.172395706176757812e-02 8.545011281967163086e-02
1.760000000000000000e+03 2.767797660827636719e+01 1.809523963928222656e+01 1.044989004731178284e-01 1.087179630994796753e-01 6.396505981683731079e-02 1.062128916382789612e-01
1.761000000000000000e+03 4.796496582031250000e+01 2.774793815612792969e+01 -1.476107954978942871e+00 -1.202666401863098145e+00 -8.036323189735412598e-01 -1.343907237052917480e+00
1.762000000000000000e+03 5.080348205566406250e+01 3.046608734130859375e+01 -1.307876110076904297e+00 -9.162861704826354980e-01 -6.672487258911132812e-01 -1.104889035224914551e+00
1.763000000000000000e+03 3.941538619995117188e+01 3.012104988098144531e+01 6.890116631984710693e-02 6.748654693365097046e-02 4.091631248593330383e-02 6.699363887310028076e-02
1.764000000000000000e+03 2.738217353820800781e+01 1.782460021972656250e+01 1.067013293504714966e-01 1.125320047140121460e-01 6.577000021934509277e-02 1.079691722989082336e-01
1.765000000000000000e+03 4.180604171752929688e+01 3.293586349487304688e+01 7.330679893493652344e-02 5.393847078084945679e-02 3.817358240485191345e-02 6.065192818641662598e-02
1.766000000000000000e+03 3.749778366088867188e+01 1.791235733032226562e+01 -1.309269785881042480e+00 -1.700092315673828125e+00 -9.028086662292480469e-01 -1.452177047729492188e+00
1.767000000000000000e+03 3.241465759277343750e+01 2.359034538269042969e+01 6.457664817571640015e-02 8.507793396711349487e-02 4.489637538790702820e-02 7.612127065658569336e-02
1.768000000000000000e+03 1.810184860229492188e+01 -1.589613676071166992e+00 -2.237918138504028320e+00 -1.724458456039428711e+00 -1.188712954521179199e+00 -1.632112145423889160e+00
1.769000000000000000e+03 2.018311882019042969e+01 -6.825097650289535522e-02 -1.805606961250305176e+00 -5.034206867218017578e+00 -2.051944255828857422e+00 -3.742177724838256836e+00
1.770000000000000000e+03 1.868984031677246094e+01 -8.723885416984558105e-01 -2.203758478164672852e+00 -2.308550596237182617e+00 -1.353692770004272461e+00 -1.831715345382690430e+00
1.771000000000000000e+03 2.251982307434082031e+01 8.949524164199829102e-01 -2.538810729980468750e+00 -1.274126321077346802e-01 -7.998669743537902832e-01 -1.978153347969055176e+00
1.772000000000000000e+03 2.677330398559570312e+01 1.728066635131835938e+01 1.094775125384330750e-01 1.186133697628974915e-01 6.842726469039916992e-02 1.111385896801948547e-01
1.773000000000000000e+03 2.468202209472656250e+01 1.631086349487304688e+01 1.026112064719200134e-01 1.255909800529479980e-01 6.846065819263458252e-02 1.168482005596160889e-01
1.774000000000000000e+03 2.307511138916015625e+01 1.353594303131103516e+01 1.374672651290893555e-01 1.514189690351486206e-01 8.666586875915527344e-02 1.401106119155883789e-01
1.775000000000000000e+03 2.166979598999023438e+01 1.265844535827636719e+01 1.302353143692016602e-01 1.587582528591156006e-01 8.669807016849517822e-02 1.443694680929183960e-01
1.776000000000000000e+03 5.109306716918945312e+01 3.075128936767578125e+01 -1.273663401603698730e+00 -8.642063140869140625e-01 -6.413609385490417480e-01 -1.056340456008911133e+00
1.777000000000000000e+03 1.740394210815429688e+01 8.656332969665527344e+00 1.621572822332382202e-01 2.331700026988983154e-01 1.185981854796409607e-01 1.877199262380599976e-01
1.778000000000000000e+03 3.371145629882812500e+01 1.383905601501464844e+01 -1.472704410552978516e+00 -1.647281050682067871e+00 -9.359956383705139160e-01 -1.501632928848266602e+00
1.779000000000000000e+03 3.420877838134765625e+01 1.388059139251708984e+01 -1.413461446762084961e+00 -1.591384649276733398e+00 -9.014537930488586426e-01 -1.447766661643981934e+00
1.780000000000000000e+03 3.321997833251953125e+01 1.270309638977050781e+01 -1.390124320983886719e+00 -1.533253908157348633e+00 -8.770134449005126953e-01 -1.458076357841491699e+00
1.781000000000000000e+03 3.943966293334960938e+01 3.074671936035156250e+01 6.837113946676254272e-02 6.608000397682189941e-02 4.033534228801727295e-02 6.463112682104110718e-02
1.782000000000000000e+03 4.544168853759765625e+01 3.609196472167968750e+01 1.051665693521499634e-01 4.526627808809280396e-02 4.512985423207283020e-02 6.275445967912673950e-02
1.783000000000000000e+03 3.690318679809570312e+01 1.673640632629394531e+01 -1.310538887977600098e+00 -1.626763463020324707e+00 -8.811907172203063965e-01 -1.432331681251525879e+00
1.784000000000000000e+03 3.856358337402343750e+01 3.061879730224609375e+01 6.554731726646423340e-02 6.946251541376113892e-02 4.050294682383537292e-02 6.480792909860610962e-02
1.785000000000000000e+03 4.586003494262695312e+01 3.662191009521484375e+01 1.221940070390701294e-01 3.986901789903640747e-02 4.861890897154808044e-02 6.540745496749877930e-02
1.786000000000000000e+03 5.137507247924804688e+01 3.104380226135253906e+01 -1.233717918395996094e+00 -8.046296238899230957e-01 -6.115042567253112793e-01 -1.006373524665832520e+00
1.787000000000000000e+03 2.492996788024902344e+01 1.665591430664062500e+01 1.012615635991096497e-01 1.237925887107849121e-01 6.751624494791030884e-02 1.137942150235176086e-01
1.788000000000000000e+03 4.219011306762695312e+01 2.228648376464843750e+01 -1.491958498954772949e+00 -1.344793796539306641e+00 -8.510257005691528320e-01 -1.409875273704528809e+00
1.789000000000000000e+03 4.102148056030273438e+01 2.122241783142089844e+01 -1.332757472991943359e+00 -1.324710011482238770e+00 -7.972402572631835938e-01 -1.373266577720642090e+00
1.790000000000000000e+03 4.131015014648437500e+01 2.148725700378417969e+01 -1.382405042648315430e+00 -1.339215159416198730e+00 -8.164860606193542480e-01 -1.374414443969726562e+00
1.791000000000000000e+03 5.242300796508789062e+01 3.261190795898437500e+01 -8.714065551757812500e-01 -4.822956919670104980e-01 -4.061106741428375244e-01 -7.228972315788269043e-01
1.792000000000000000e+03 4.217853164672851562e+01 3.322519683837890625e+01 7.394916564226150513e-02 5.356536805629730225e-02 3.825435787439346313e-02 6.065502017736434937e-02
1.793000000000000000e+03 3.052389335632324219e+01 2.139982795715332031e+01 7.714704424142837524e-02 9.142690151929855347e-02 5.057218298316001892e-02 8.402486145496368408e-02
1.794000000000000000e+03 4.421709060668945312e+01 2.418770980834960938e+01 -1.566656589508056641e+00 -1.441253662109375000e+00 -9.023730754852294922e-01 -1.458881139755249023e+00
1.795000000000000000e+03 4.451090240478515625e+01 2.445608901977539062e+01 -1.570556044578552246e+00 -1.442540526390075684e+00 -9.039289951324462891e-01 -1.450669288635253906e+00
1.796000000000000000e+03 2.769763755798339844e+01 1.865092086791992188e+01 9.599106758832931519e-02 1.081761196255683899e-01 6.125015392899513245e-02 1.020685434341430664e-01
1.797000000000000000e+03 3.694425201416015625e+01 2.795249366760253906e+01 6.755385547876358032e-02 8.493615686893463135e-02 4.574700444936752319e-02 7.227721810340881348e-02
1.798000000000000000e+03 3.886395645141601562e+01 1.879801368713378906e+01 -1.212581038475036621e+00 -1.440041661262512207e+00 -7.957867980003356934e-01 -1.364968538284301758e+00
1.799000000000000000e+03 3.718130111694335938e+01 1.702960205078125000e+01 -1.303029537200927734e+00 -1.628401279449462891e+00 -8.794292807579040527e-01 -1.422754287719726562e+00
1.800000000000000000e+03 3.746379852294921875e+01 1.732366180419921875e+01 -1.296333312988281250e+00 -1.621390104293823242e+00 -8.753170371055603027e-01 -1.407733678817749023e+00
1.801000000000000000e+03 4.257694625854492188e+01 3.336537551879882812e+01 7.419644296169281006e-02 5.188458040356636047e-02 3.782430663704872131e-02 6.001214310526847839e-02
1.802000000000000000e+03 4.302259445190429688e+01 3.437519836425781250e+01 8.279106765985488892e-02 4.967974871397018433e-02 3.974124416708946228e-02 6.144684925675392151e-02
1.803000000000000000e+03 3.161266326904296875e+01 1.142271041870117188e+01 -1.574981927871704102e+00 -1.523476004600524902e+00 -9.295373558998107910e-01 -1.445644736289978027e+00
1.804000000000000000e+03 2.336158561706542969e+01 1.381850624084472656e+01 1.371148526668548584e-01 1.476182192564010620e-01 8.541992306709289551e-02 1.374007314443588257e-01
1.805000000000000000e+03 3.342710876464843750e+01 2.505680084228515625e+01 6.117776408791542053e-02 8.704027533531188965e-02 4.446541145443916321e-02 7.370325922966003418e-02
1.806000000000000000e+03 4.160365676879882812e+01 2.174682807922363281e+01 -1.427400946617126465e+00 -1.348259925842285156e+00 -8.326982855796813965e-01 -1.379461884498596191e+00
1.807000000000000000e+03 4.469289398193359375e+01 3.460519409179687500e+01 8.221443742513656616e-02 4.664383456110954285e-02 3.865748271346092224e-02 6.256719678640365601e-02
1.808000000000000000e+03 4.458079147338867188e+01 3.520933914184570312e+01 8.907999098300933838e-02 4.595457017421722412e-02 4.051036760210990906e-02 6.121859326958656311e-02
1.809000000000000000e+03 5.279247283935546875e+01 3.249021148681640625e+01 -9.672766923904418945e-01 -3.521317541599273682e-01 -3.958225250244140625e-01 -7.402439117431640625e-01
1.810000000000000000e+03 3.324344635009765625e+01 2.431543731689453125e+01 6.189589574933052063e-02 8.751858770847320557e-02 4.482434689998626709e-02 7.486131787300109863e-02
1.811000000000000000e+03 2.112137603759765625e+01 1.210858249664306641e+01 1.314469873905181885e-01 1.660776287317276001e-01 8.925738930702209473e-02 1.475506722927093506e-01
1.812000000000000000e+03 2.083758735656738281e+01 1.183720588684082031e+01 1.331418305635452271e-01 1.682715564966201782e-01 9.042401611804962158e-02 1.489973813295364380e-01
1.813000000000000000e+03 3.791360092163085938e+01 2.922122573852539062e+01 6.593609601259231567e-02 7.512851804494857788e-02 4.231938719749450684e-02 6.915017217397689819e-02
1.814000000000000000e+03 3.714691162109375000e+01 2.917900466918945312e+01 6.313099712133407593e-02 7.938002794981002808e-02 4.275330528616905212e-02 6.747587025165557861e-02
1.815000000000000000e+03 2.222570800781250000e+01 1.321791267395019531e+01 1.305089294910430908e-01 1.541361659765243530e-01 8.539352566003799438e-02 1.391872912645339966e-01
1.816000000000000000e+03 2.308293914794921875e+01 1.406136608123779297e+01 1.269593387842178345e-01 1.477006077766418457e-01 8.239798247814178467e-02 1.320582330226898193e-01
1.817000000000000000e+03 3.080892372131347656e+01 2.163930130004882812e+01 7.433129847049713135e-02 9.016474336385726929e-02 4.934881255030632019e-02 8.267267048358917236e-02
1.818000000000000000e+03 5.164580154418945312e+01 3.134281921386718750e+01 -1.189993262290954590e+00 -7.391789555549621582e-01 -5.787516832351684570e-01 -9.511019587516784668e-01
1.819000000000000000e+03 5.234108352661132812e+01 3.225084304809570312e+01 -1.019304990768432617e+00 -4.995822906494140625e-01 -4.556661844253540039e-01 -7.951771020889282227e-01
1.820000000000000000e+03 2.364903450012207031e+01 1.461875152587890625e+01 1.203616559505462646e-01 1.404469907283782959e-01 7.824259251356124878e-02 1.280716955661773682e-01
1.821000000000000000e+03 3.345930480957031250e+01 1.301209545135498047e+01 -1.382685661315917969e+00 -1.562001824378967285e+00 -8.834062814712524414e-01 -1.454752564430236816e+00
1.822000000000000000e+03 3.682857513427734375e+01 2.846555709838867188e+01 6.490879505872726440e-02 8.248343318700790405e-02 4.421766847372055054e-02 6.908119469881057739e-02
1.823000000000000000e+03 3.669906616210937500e+01 2.765751075744628906e+01 6.664943695068359375e-02 8.609265834093093872e-02 4.582262784242630005e-02 7.218728214502334595e-02
1.824000000000000000e+03 3.134653472900390625e+01 2.228285789489746094e+01 6.808721274137496948e-02 8.687332272529602051e-02 4.648816213011741638e-02 8.210441470146179199e-02
1.825000000000000000e+03 3.127323341369628906e+01 2.202326583862304688e+01 6.969716399908065796e-02 8.732338249683380127e-02 4.710616543889045715e-02 8.193584531545639038e-02
1.826000000000000000e+03 5.213800048828125000e+01 3.194883537292480469e+01 -1.082388997077941895e+00 -5.762897729873657227e-01 -4.976036250591278076e-01 -8.382188677787780762e-01
1.827000000000000000e+03 3.271825408935546875e+01 2.381249427795410156e+01 6.359341740608215332e-02 8.631825447082519531e-02 4.497350007295608521e-02 7.514893263578414917e-02
1.828000000000000000e+03 5.190156555175781250e+01 3.164561653137207031e+01 -1.136788010597229004e+00 -6.644441485404968262e-01 -5.403696894645690918e-01 -8.951367139816284180e-01
1.829000000000000000e+03 5.162993621826171875e+01 3.075111579895019531e+01 -1.286689519882202148e+00 -6.664127111434936523e-01 -5.859306454658508301e-01 -9.800563454627990723e-01
1.830000000000000000e+03 3.073433113098144531e+01 9.961922645568847656e+00 -1.460784673690795898e+00 -1.355237960815429688e+00 -8.448067903518676758e-01 -1.369594216346740723e+00
1.831000000000000000e+03 3.152510833740234375e+01 1.045664024353027344e+01 -1.424428582191467285e+00 -1.427887320518493652e+00 -8.556947708129882812e-01 -1.364941835403442383e+00
1.832000000000000000e+03 3.664218902587890625e+01 2.815867996215820312e+01 6.563999503850936890e-02 8.346662670373916626e-02 4.473198577761650085e-02 6.952554732561111450e-02
1.833000000000000000e+03 3.554781341552734375e+01 2.724335479736328125e+01 6.173260137438774109e-02 8.388935774564743042e-02 4.368658736348152161e-02 7.168033719062805176e-02
1.834000000000000000e+03 1.566709136962890625e+01 6.551073551177978516e+00 1.908709406852722168e-01 3.513118326663970947e-01 1.626548320055007935e-01 2.298156619071960449e-01
1.835000000000000000e+03 1.891324424743652344e+01 9.917264938354492188e+00 1.466132104396820068e-01 1.997656524181365967e-01 1.039136573672294617e-01 1.710352897644042969e-01
1.836000000000000000e+03 1.861181068420410156e+01 9.667912483215332031e+00 1.500028222799301147e-01 2.059425562620162964e-01 1.067836135625839233e-01 1.734684109687805176e-01
1.837000000000000000e+03 3.017402076721191406e+01 5.603093147277832031e+00 -1.957341313362121582e+00 -1.088363289833068848e+00 -9.137113690376281738e-01 -1.119934916496276855e+00
1.838000000000000000e+03 2.982262611389160156e+01 5.458081722259521484e+00 -2.145400762557983398e+00 -1.177367210388183594e+00 -9.968304038047790527e-01 -1.126901626586914062e+00
1.839000000000000000e+03 4.754858016967773438e+01 3.671458435058593750e+01 1.478342413902282715e-01 6.023573875427246094e-02 6.242099404335021973e-02 8.590138703584671021e-02
1.840000000000000000e+03 4.674965667724609375e+01 3.748121643066406250e+01 1.457456648349761963e-01 3.930046036839485168e-02 5.551383644342422485e-02 5.890567973256111145e-02
1.841000000000000000e+03 4.840366744995117188e+01 3.775790786743164062e+01 1.702750921249389648e-01 4.403877258300781250e-02 6.429415941238403320e-02 6.701426953077316284e-02
1.842000000000000000e+03 1.623640060424804688e+01 7.023000717163085938e+00 1.794382333755493164e-01 3.090927004814147949e-01 1.465592831373214722e-01 2.253251224756240845e-01
1.843000000000000000e+03 1.595326328277587891e+01 6.775842666625976562e+00 1.839706301689147949e-01 3.275592923164367676e-01 1.534589678049087524e-01 2.306007146835327148e-01
1.844000000000000000e+03 1.377894496917724609e+01 4.783705234527587891e+00 1.214306950569152832e-01 8.875569105148315430e-01 3.026962876319885254e-01 1.716698855161666870e-01
1.845000000000000000e+03 5.362391662597656250e+01 3.922411346435546875e+01 2.506288886070251465e-01 -5.864787101745605469e-02 5.759430304169654846e-02 5.070813745260238647e-02
1.846000000000000000e+03 5.471018218994140625e+01 3.819523620605468750e+01 7.995150983333587646e-02 -7.659864425659179688e-02 1.005859347060322762e-03 2.285243012011051178e-02
1.847000000000000000e+03 1.258475589752197266e+01 3.296799659729003906e+00 6.901168227195739746e-01 7.147478461265563965e-01 4.214594066143035889e-01 -4.848859012126922607e-01
1.848000000000000000e+03 1.366561317443847656e+01 3.888230085372924805e+00 2.683329284191131592e-01 1.386096715927124023e+00 4.963288903236389160e-01 1.161539852619171143e-01
1.849000000000000000e+03 5.323129272460937500e+01 3.968792724609375000e+01 2.679318487644195557e-01 -6.300428416579961777e-03 7.848942279815673828e-02 5.153976380825042725e-02
1.850000000000000000e+03 5.323620223999023438e+01 3.897641754150390625e+01 3.296566009521484375e-01 -2.614350803196430206e-02 9.105392545461654663e-02 2.306304126977920532e-02
1.851000000000000000e+03 1.149734306335449219e+01 2.116084575653076172e+00 4.628672599792480469e-01 -3.952015936374664307e-01 2.029970102012157440e-02 2.685638964176177979e-01
1.852000000000000000e+03 5.543517303466796875e+01 3.772888565063476562e+01 5.735071003437042236e-02 -1.034585237503051758e-01 -1.383234467357397079e-02 5.531032383441925049e-02
1.853000000000000000e+03 1.318020248413085938e+01 3.057997465133666992e+00 6.230345964431762695e-01 1.577028274536132812e+00 6.600188612937927246e-01 -4.711298942565917969e-01
1.854000000000000000e+03 5.380406951904296875e+01 3.281509780883789062e+01 -1.040579915046691895e+00 -5.016317591071128845e-02 -3.272229135036468506e-01 -6.497691869735717773e-01
1.855000000000000000e+03 5.149693679809570312e+01 3.906395721435546875e+01 2.792787849903106689e-01 2.443809062242507935e-02 9.111505746841430664e-02 4.401051998138427734e-02
1.856000000000000000e+03 5.209530639648437500e+01 3.898820114135742188e+01 3.674609959125518799e-01 6.580536067485809326e-02 1.299799084663391113e-01 5.415765941143035889e-02
1.857000000000000000e+03 6.761987304687500000e+01 3.032540512084960938e+01 -1.223584175109863281e+00 6.928020119667053223e-01 -1.592346429824829102e-01 5.981426239013671875e-01
1.858000000000000000e+03 6.893572235107421875e+01 3.103854560852050781e+01 -1.294043540954589844e+00 8.683802485466003418e-01 -1.276989728212356567e-01 1.061099410057067871e+00
1.859000000000000000e+03 6.698731994628906250e+01 3.157624435424804688e+01 -2.578987836837768555e+00 1.373284161090850830e-01 -7.324978113174438477e-01 2.983627840876579285e-02
1.860000000000000000e+03 6.829492950439453125e+01 3.098837852478027344e+01 -1.530795335769653320e+00 6.034483909606933594e-01 -2.782040834426879883e-01 6.876244544982910156e-01
1.861000000000000000e+03 6.763600158691406250e+01 3.095945167541503906e+01 -1.754205465316772461e+00 4.245001077651977539e-01 -3.989116251468658447e-01 3.995059728622436523e-01
1.862000000000000000e+03 7.010930633544921875e+01 3.173441505432128906e+01 -1.302698016166687012e+00 1.089634060859680176e+00 -6.391917914152145386e-02 1.560204267501831055e+00
1.863000000000000000e+03 4.932251358032226562e+01 3.873734283447265625e+01 1.990222036838531494e-01 2.693423628807067871e-02 6.778693199157714844e-02 5.188126489520072937e-02
1.864000000000000000e+03 1.025800704956054688e+01 -2.849639177322387695e+00 -4.335943162441253662e-01 -4.056205227971076965e-02 -1.422469019889831543e-01 -2.185604423284530640e-01
1.865000000000000000e+03 4.662252426147460938e+01 3.608423233032226562e+01 1.000154688954353333e-01 5.131564289331436157e-02 4.539933428168296814e-02 7.361201196908950806e-02
1.866000000000000000e+03 5.343982315063476562e+01 3.251440048217773438e+01 -1.067666172981262207e+00 -1.342545002698898315e-01 -3.605761826038360596e-01 -7.021375894546508789e-01
1.867000000000000000e+03 6.626261138916015625e+01 3.159848594665527344e+01 -2.726484775543212891e+00 8.516430109739303589e-02 -7.923961281776428223e-01 -1.190461963415145874e-01
1.868000000000000000e+03 5.474386215209960938e+01 3.907654190063476562e+01 1.810152679681777954e-01 -9.889716655015945435e-02 2.463542856276035309e-02 3.066466748714447021e-02
1.869000000000000000e+03 7.955823898315429688e+00 2.837924718856811523e+00 -4.695441201329231262e-02 -1.887383162975311279e-01 -7.070782035589218140e-02 2.703764140605926514e-01
1.870000000000000000e+03 6.660556793212890625e+00 3.140733242034912109e+00 -5.093697831034660339e-02 -1.264160871505737305e-01 -5.320591852068901062e-02 2.115320712327957153e-01
1.871000000000000000e+03 5.555988311767578125e+00 4.092132568359375000e+00 5.019761621952056885e-03 -1.151964142918586731e-01 -3.305299580097198486e-02 1.607800722122192383e-01
1.872000000000000000e+03 5.730723381042480469e+00 2.566242694854736328e+00 -1.017815619707107544e-01 -7.460132241249084473e-02 -5.291486904025077820e-02 1.705305278301239014e-01
1.873000000000000000e+03 3.625818014144897461e+00 2.933365345001220703e+00 -4.472838342189788818e-02 -5.688197538256645203e-02 -3.048310801386833191e-02 1.045529022812843323e-01
1.874000000000000000e+03 4.330594062805175781e+00 2.777324199676513672e+00 -6.183954328298568726e-02 -6.004761531949043274e-02 -3.656614944338798523e-02 1.238842308521270752e-01
1.875000000000000000e+03 5.967354774475097656e+00 3.256314039230346680e+00 -4.519138485193252563e-02 -1.023816615343093872e-01 -4.427191242575645447e-02 1.831686794757843018e-01
1.876000000000000000e+03 9.899811744689941406e+00 2.334244966506958008e+00 2.038587816059589386e-02 -3.518802523612976074e-01 -9.944831579923629761e-02 3.720729947090148926e-01
1.877000000000000000e+03 4.286377429962158203e+00 4.491233825683593750e+00 6.224882323294878006e-03 -1.054993495345115662e-01 -2.978233993053436279e-02 1.263064891099929810e-01
1.878000000000000000e+03 1.069692230224609375e+01 2.250196933746337891e+00 1.799413412809371948e-01 -4.077238738536834717e-01 -6.833476573228836060e-02 3.390126824378967285e-01
1.879000000000000000e+03 9.133174896240234375e+00 2.840325355529785156e+00 4.178449884057044983e-02 -2.759027779102325439e-01 -7.023549079895019531e-02 3.026527464389801025e-01
1.880000000000000000e+03 1.104893875122070312e+01 -3.728518724441528320e+00 -5.498856306076049805e-01 -1.059875935316085815e-01 -1.967619806528091431e-01 -3.613627552986145020e-01
1.881000000000000000e+03 1.419730949401855469e+01 -3.162468910217285156e+00 -1.045785069465637207e+00 -2.564953267574310303e-01 -3.906841278076171875e-01 -5.867708921432495117e-01
1.882000000000000000e+03 6.174567794799804688e+01 3.189768218994140625e+01 -2.589603900909423828e+00 8.106401562690734863e-02 -7.525619864463806152e-01 -4.791193008422851562e-01
1.883000000000000000e+03 5.803934478759765625e+01 3.236650466918945312e+01 -1.919612169265747070e+00 1.783383041620254517e-01 -5.223821997642517090e-01 -5.946292877197265625e-01
1.884000000000000000e+03 5.952585220336914062e+01 3.159724235534667969e+01 -2.077124357223510742e+00 1.787589043378829956e-01 -5.695096254348754883e-01 -6.648768186569213867e-01
1.885000000000000000e+03 5.883310699462890625e+01 3.170168685913085938e+01 -1.973078250885009766e+00 1.941144466400146484e-01 -5.336891412734985352e-01 -6.859338879585266113e-01
1.886000000000000000e+03 1.334915637969970703e+01 5.700225353240966797e+00 9.119118750095367432e-02 6.450548171997070312e-01 2.208738029003143311e-01 5.086867511272430420e-02
1.887000000000000000e+03 6.325263214111328125e+01 3.112236595153808594e+01 -2.329839229583740234e+00 1.100418567657470703e-01 -6.659392118453979492e-01 -4.675413966178894043e-01
1.888000000000000000e+03 6.401635742187500000e+01 3.170689010620117188e+01 -2.804704189300537109e+00 5.508373305201530457e-02 -8.248860836029052734e-01 -3.588508069515228271e-01
1.889000000000000000e+03 6.550003051757812500e+01 3.098976898193359375e+01 -2.213954687118530273e+00 1.585640907287597656e-01 -6.166171431541442871e-01 -1.865553855895996094e-01
1.890000000000000000e+03 6.694876098632812500e+01 3.095355224609375000e+01 -1.941496372222900391e+00 3.012930154800415039e-01 -4.920610189437866211e-01 1.645889133214950562e-01
1.891000000000000000e+03 3.099330139160156250e+01 8.529108047485351562e+00 -1.280915975570678711e+00 -1.381726384162902832e+00 -7.987927198410034180e-01 -1.199422478675842285e+00
1.892000000000000000e+03 3.126903152465820312e+01 7.276117801666259766e+00 -1.361718535423278809e+00 -1.254323482513427734e+00 -7.848125696182250977e-01 -1.291208267211914062e+00
1.893000000000000000e+03 3.113562011718750000e+01 6.234943389892578125e+00 -1.579503178596496582e+00 -1.074652910232543945e+00 -7.962468266487121582e-01 -1.186683058738708496e+00
1.894000000000000000e+03 5.759274291992187500e+01 3.103589439392089844e+01 -1.711019396781921387e+00 2.398791909217834473e-01 -4.413420557975769043e-01 -8.283238410949707031e-01
1.895000000000000000e+03 5.667734527587890625e+01 3.171812820434570312e+01 -1.646552205085754395e+00 2.192056179046630859e-01 -4.282039999961853027e-01 -7.690568566322326660e-01
1.896000000000000000e+03 6.400492095947265625e+01 3.106924629211425781e+01 -2.325756311416625977e+00 1.100300997495651245e-01 -6.647179126739501953e-01 -3.969806134700775146e-01
1.897000000000000000e+03 5.812605285644531250e+01 3.173612785339355469e+01 -1.866947293281555176e+00 2.013332098722457886e-01 -4.996842145919799805e-01 -7.103815674781799316e-01
1.898000000000000000e+03 6.023188400268554688e+01 3.145992279052734375e+01 -2.146343231201171875e+00 1.551396548748016357e-01 -5.973610877990722656e-01 -6.427628397941589355e-01
1.899000000000000000e+03 6.097670364379882812e+01 3.134799194335937500e+01 -2.210033178329467773e+00 1.396031677722930908e-01 -6.211289763450622559e-01 -6.165040731430053711e-01
1.900000000000000000e+03 1.638519668579101562e+01 -2.902519702911376953e+00 -1.483250379562377930e+00 -9.008629322052001953e-01 -7.152339816093444824e-01 -9.864442944526672363e-01
1.901000000000000000e+03 8.782999038696289062e+00 -3.589149713516235352e+00 -3.329820036888122559e-01 -4.537772014737129211e-02 -1.135079115629196167e-01 -2.239948362112045288e-01
1.902000000000000000e+03 5.529191493988037109e+00 -2.816631078720092773e+00 -1.087506115436553955e-01 -3.895336389541625977e-02 -4.431119188666343689e-02 -7.600429654121398926e-02
1.903000000000000000e+03 7.237006664276123047e+00 -3.607724666595458984e+00 -2.232620269060134888e-01 -5.158222839236259460e-02 -8.245327323675155640e-02 -1.670251190662384033e-01
1.904000000000000000e+03 4.728082180023193359e+00 -2.856562137603759766e+00 -8.444076776504516602e-02 -3.367079049348831177e-02 -3.543346747756004333e-02 -5.855963006615638733e-02
1.905000000000000000e+03 6.450449943542480469e+00 -3.646828651428222656e+00 -1.748515069484710693e-01 -6.444908678531646729e-02 -7.179018110036849976e-02 -1.414887458086013794e-01
1.906000000000000000e+03 5.661015510559082031e+00 -3.698966979980468750e+00 -1.415194123983383179e-01 -5.789351835846900940e-02 -5.982388183474540710e-02 -1.187836527824401855e-01
1.907000000000000000e+03 2.312498331069946289e+00 -3.142566680908203125e+00 -2.791650593280792236e-02 -2.547227963805198669e-02 -1.601663604378700256e-02 -1.727372035384178162e-02
1.908000000000000000e+03 3.720167398452758789e+00 -8.012624740600585938e+00 -5.957144871354103088e-02 -2.354136854410171509e-01 -8.849554508924484253e-02 -2.033069431781768799e-01
1.909000000000000000e+03 1.613978385925292969e+00 -5.368813037872314453e+00 -1.747725903987884521e-02 -6.062233448028564453e-02 -2.342987805604934692e-02 -4.154456779360771179e-02
1.910000000000000000e+03 5.269784927368164062e+01 3.144046211242675781e+01 -1.246441960334777832e+00 -3.401061296463012695e-01 -4.759644269943237305e-01 -8.566204905509948730e-01
1.911000000000000000e+03 5.492083358764648438e+01 3.215187072753906250e+01 -1.377408623695373535e+00 1.230957061052322388e-01 -3.762938976287841797e-01 -7.461971640586853027e-01
1.912000000000000000e+03 9.855795860290527344e+00 2.937433242797851562e+00 2.164027541875839233e-01 -3.233823180198669434e-01 -3.209387138485908508e-02 2.465748190879821777e-01
1.913000000000000000e+03 2.954037475585937500e+01 8.962684631347656250e+00 -1.705411911010742188e+00 -1.133819580078125000e+00 -8.517694473266601562e-01 -1.027418136596679688e+00
1.914000000000000000e+03 1.350961685180664062e+01 -4.810436725616455078e+00 -7.667130827903747559e-01 -4.126481115818023682e-01 -3.538083434104919434e-01 -7.300250530242919922e-01
1.915000000000000000e+03 1.344353485107421875e+01 -3.953261137008666992e+00 -8.485180139541625977e-01 -2.526923120021820068e-01 -3.303630948066711426e-01 -6.196506023406982422e-01
1.916000000000000000e+03 1.182057189941406250e+01 -3.807209253311157227e+00 -6.437986493110656738e-01 -9.907817840576171875e-02 -2.228630632162094116e-01 -4.238788485527038574e-01
1.917000000000000000e+03 1.261500740051269531e+01 -3.888488531112670898e+00 -7.568047642707824707e-01 -1.966752856969833374e-01 -2.860440313816070557e-01 -5.206093788146972656e-01
1.918000000000000000e+03 1.813168144226074219e+01 -5.810737609863281250e+00 -1.277546733617782593e-01 -2.110143423080444336e+00 -6.713693737983703613e-01 -6.252644062042236328e-01
1.919000000000000000e+03 1.593962669372558594e+01 -3.805796861648559570e+00 -1.179923772811889648e+00 -9.152610301971435547e-01 -6.285554170608520508e-01 -1.011502146720886230e+00
1.920000000000000000e+03 5.523048019409179688e+01 3.841107559204101562e+01 1.255582273006439209e-01 -9.818476438522338867e-02 8.212040178477764130e-03 1.635967567563056946e-02
1.921000000000000000e+03 2.176257514953613281e+01 -8.866545557975769043e-01 1.957601547241210938e+00 2.329787492752075195e+00 1.286216735839843750e+00 -1.643477916717529297e+00
1.922000000000000000e+03 2.276679992675781250e+01 -9.626029133796691895e-01 1.132757544517517090e+00 1.033345699310302734e+00 6.498309969902038574e-01 -1.339017987251281738e+00
1.923000000000000000e+03 1.932663726806640625e+01 -2.612342834472656250e+00 -7.447259426116943359e-01 -5.810221672058105469e+00 -1.966484308242797852e+00 -1.968144416809082031e+00
1.924000000000000000e+03 1.880478858947753906e+01 -1.318285465240478516e+00 -2.100101470947265625e+00 -3.093510627746582031e+00 -1.558083653450012207e+00 -2.142294406890869141e+00
1.925000000000000000e+03 3.486811065673828125e+01 -1.265402221679687500e+01 2.687482535839080811e-01 -4.242602586746215820e-01 -4.665360227227210999e-02 -4.771445877850055695e-03
1.926000000000000000e+03 3.985509109497070312e+01 -2.108807754516601562e+01 -8.454272896051406860e-02 -3.998894691467285156e-01 -1.453296691179275513e-01 2.345683574676513672e-01
1.927000000000000000e+03 6.285503387451171875e+01 3.766182327270507812e+01 6.860750913619995117e-02 -2.571184635162353516e-01 -5.655328184366226196e-02 4.787733256816864014e-01
1.928000000000000000e+03 2.395499610900878906e+01 -2.098865127563476562e+01 2.160996496677398682e-01 3.465743064880371094e-01 1.688021868467330933e-01 -3.075834214687347412e-01
1.929000000000000000e+03 2.924393272399902344e+01 -6.736444950103759766e+00 7.817789912223815918e-01 2.231501191854476929e-01 3.014787435531616211e-01 -5.151312351226806641e-01
1.930000000000000000e+03 2.976119995117187500e+01 -3.854887485504150391e+00 8.381376266479492188e-01 -3.599339127540588379e-01 1.434611231088638306e-01 -2.366222888231277466e-01
1.931000000000000000e+03 2.432658767700195312e+01 -2.221640968322753906e+01 1.958224624395370483e-01 3.700776696205139160e-01 1.697700321674346924e-01 -3.370601534843444824e-01
1.932000000000000000e+03 3.305927658081054688e+01 -1.229727935791015625e+01 1.916153877973556519e-01 -3.322390913963317871e-01 -4.218710958957672119e-02 1.362637733109295368e-03
1.933000000000000000e+03 3.567398834228515625e+01 -1.379508972167968750e+01 1.775560826063156128e-01 -4.475987553596496582e-01 -8.101279288530349731e-02 3.267282247543334961e-02
1.934000000000000000e+03 3.265339279174804688e+01 -3.569343948364257812e+01 5.940463542938232422e-01 6.504854559898376465e-01 3.733595311641693115e-01 -5.236243605613708496e-01
1.935000000000000000e+03 2.299487876892089844e+01 -2.351401710510253906e+01 2.245113402605056763e-01 2.507834434509277344e-01 1.425884366035461426e-01 -3.383365273475646973e-01
1.936000000000000000e+03 2.345367431640625000e+01 -2.607093238830566406e+01 2.578488886356353760e-01 2.756334841251373291e-01 1.600447148084640503e-01 -3.392919003963470459e-01
1.937000000000000000e+03 2.259541893005371094e+01 -1.601095771789550781e+01 1.644551157951354980e-01 2.158036381006240845e-01 1.140776276588439941e-01 -2.590704858303070068e-01
1.938000000000000000e+03 2.279012298583984375e+01 -1.878111076354980469e+01 2.089629471302032471e-01 2.486515790224075317e-01 1.372843533754348755e-01 -2.814849913120269775e-01
1.939000000000000000e+03 4.371806979179382324e-01 3.640565156936645508e+00 -1.907905912958085537e-03 -6.445023417472839355e-02 -1.990744285285472870e-02 1.618579775094985962e-02
1.940000000000000000e+03 2.508123970031738281e+01 -2.262796401977539062e+00 1.409682035446166992e+00 5.654879212379455566e-01 5.925509929656982422e-01 -1.056126475334167480e+00
1.941000000000000000e+03 2.747122001647949219e+01 -3.602908372879028320e+00 1.195155858993530273e+00 7.859168946743011475e-02 3.821242451667785645e-01 -6.415655016899108887e-01
1.942000000000000000e+03 2.773312377929687500e+01 -3.013819503784179688e+01 3.480929434299468994e-01 5.734040737152099609e-01 2.764490842819213867e-01 -4.098642468452453613e-01
1.943000000000000000e+03 4.117518234252929688e+01 -2.345225143432617188e+01 -1.311367452144622803e-01 -3.326321244239807129e-01 -1.391306668519973755e-01 2.555410265922546387e-01
1.944000000000000000e+03 3.172949028015136719e+01 -8.235193252563476562e+00 6.709243059158325195e-01 -2.637399435043334961e-01 1.221553087234497070e-01 -2.677661180496215820e-01
1.945000000000000000e+03 2.738388252258300781e+01 -2.889867019653320312e+01 3.257643580436706543e-01 5.826932191848754883e-01 2.725372910499572754e-01 -4.118594229221343994e-01
1.946000000000000000e+03 2.721949005126953125e+01 -2.584282684326171875e+01 2.168772667646408081e-01 6.206774711608886719e-01 2.512664198875427246e-01 -3.844794332981109619e-01
1.947000000000000000e+03 4.388548660278320312e+01 -2.797813034057617188e+01 -1.993202716112136841e-01 -2.506232820451259613e-02 -6.731478124856948853e-02 2.241386622190475464e-01
1.948000000000000000e+03 3.716279983520507812e+01 -1.618582344055175781e+01 7.219661027193069458e-02 -4.620337486267089844e-01 -1.169511452317237854e-01 1.172429323196411133e-01
1.949000000000000000e+03 4.249124145507812500e+01 -2.575633239746093750e+01 -1.727158427238464355e-01 -2.199774533510208130e-01 -1.178079918026924133e-01 2.497036159038543701e-01
1.950000000000000000e+03 4.078227996826171875e+01 -2.534082412719726562e+01 -2.204293757677078247e-01 -4.993301033973693848e-01 -2.159278541803359985e-01 3.390549719333648682e-01
1.951000000000000000e+03 4.417720413208007812e+01 -2.612945365905761719e+01 -1.456449031829833984e-01 1.085773259401321411e-01 -1.112027466297149658e-02 1.852321177721023560e-01
1.952000000000000000e+03 3.742544555664062500e+01 -1.938965034484863281e+01 -1.042810603976249695e-01 -5.802021622657775879e-01 -2.053449600934982300e-01 2.822305262088775635e-01
1.953000000000000000e+03 1.940046882629394531e+01 -1.301620101928710938e+01 2.155340462923049927e-01 -3.474584817886352539e-01 -3.957732766866683960e-02 -2.599262595176696777e-01
1.954000000000000000e+03 2.010323715209960938e+01 -1.422327804565429688e+01 2.390866279602050781e-01 -1.317773163318634033e-01 3.219279274344444275e-02 -2.115269303321838379e-01
1.955000000000000000e+03 3.034324264526367188e+01 -4.650696277618408203e+00 9.001386165618896484e-01 -3.535292148590087891e-01 1.639828234910964966e-01 -2.413620501756668091e-01
1.956000000000000000e+03 1.526914882659912109e+01 -7.158613681793212891e+00 -3.155927956104278564e-01 -9.503889679908752441e-01 -3.797945082187652588e-01 -8.466280698776245117e-01
1.957000000000000000e+03 3.875971221923828125e+01 -2.180574035644531250e+01 -1.472495049238204956e-01 -5.668268799781799316e-01 -2.142229080200195312e-01 3.404906690120697021e-01
1.958000000000000000e+03 3.809624481201171875e+01 -2.060418319702148438e+01 -1.484296917915344238e-01 -5.751256346702575684e-01 -2.170666009187698364e-01 3.019398152828216553e-01
1.959000000000000000e+03 6.760280609130859375e+01 3.660139083862304688e+01 -2.173314988613128662e-01 5.132086277008056641e-01 8.876314014196395874e-02 3.416668176651000977e-01
1.960000000000000000e+03 7.342666625976562500e+01 -3.705920028686523438e+01 3.172122314572334290e-02 4.957959651947021484e+00 1.496904373168945312e+00 7.852407544851303101e-02
1.961000000000000000e+03 7.390123748779296875e+01 -3.287964630126953125e+01 2.372753620147705078e-02 5.121907711029052734e+00 1.543690562248229980e+00 9.763468801975250244e-02
1.962000000000000000e+03 7.645998382568359375e+01 -3.571804809570312500e+01 -9.450213052332401276e-03 5.444596767425537109e+00 1.630543947219848633e+00 3.177165240049362183e-02
1.963000000000000000e+03 7.565901947021484375e+01 -2.171838951110839844e+01 7.198022678494453430e-03 5.574549198150634766e+00 1.674524188041687012e+00 1.137642562389373779e-01
1.964000000000000000e+03 7.777922821044921875e+01 -2.887585830688476562e+01 -2.556112594902515411e-03 5.734547138214111328e+00 1.719597339630126953e+00 4.449405893683433533e-02
1.965000000000000000e+03 7.826546478271484375e+01 1.963233757019042969e+01 -6.391302216798067093e-03 9.893538475036621094e+00 2.966144084930419922e+00 3.854038119316101074e-01
1.966000000000000000e+03 7.573999023437500000e+01 1.706753921508789062e+01 6.711424142122268677e-02 8.087680816650390625e+00 2.446438550949096680e+00 7.908043265342712402e-01
1.967000000000000000e+03 7.814697265625000000e+01 -2.202825927734375000e+01 2.929579932242631912e-03 5.950068473815917969e+00 1.785899400711059570e+00 4.837728664278984070e-02
1.968000000000000000e+03 7.689811706542968750e+01 -2.317160797119140625e+01 4.652194213122129440e-03 5.730376720428466797e+00 1.720508694648742676e+00 7.873596251010894775e-02
1.969000000000000000e+03 7.604660034179687500e+01 -2.996649932861328125e+01 -1.078555011190474033e-03 5.461087703704833984e+00 1.638002753257751465e+00 7.245235890150070190e-02
1.970000000000000000e+03 7.834305572509765625e+01 3.627342605590820312e+01 2.776089906692504883e-01 9.688835144042968750e+00 2.989933013916015625e+00 1.714907288551330566e+00
1.971000000000000000e+03 7.442686462402343750e+01 3.578453063964843750e+01 -3.595375418663024902e-01 1.865051078796386719e+01 5.487292289733886719e+00 3.455635011196136475e-01
1.972000000000000000e+03 7.509385681152343750e+01 -3.626473236083984375e+01 1.373075135052204132e-02 5.186091423034667969e+00 1.559946656227111816e+00 4.538896679878234863e-02
1.973000000000000000e+03 7.626474761962890625e+01 -2.854490470886230469e+01 7.794296368956565857e-03 5.509773731231689453e+00 1.655270457267761230e+00 7.209166884422302246e-02
1.974000000000000000e+03 7.544416046142578125e+01 -2.547280311584472656e+01 7.374772801995277405e-03 5.447637557983398438e+00 1.636503696441650391e+00 1.063461005687713623e-01
1.975000000000000000e+03 7.649963378906250000e+01 -2.716965675354003906e+01 3.290000837296247482e-03 5.574281215667724609e+00 1.673271417617797852e+00 7.637017220258712769e-02
1.976000000000000000e+03 7.683825683593750000e+01 -2.448365211486816406e+01 3.179281717166304588e-03 5.685121059417724609e+00 1.706490159034729004e+00 7.702086865901947021e-02
1.977000000000000000e+03 7.590167999267578125e+01 -3.143431854248046875e+01 1.109992247074842453e-02 5.422497749328613281e+00 1.630079269409179688e+00 7.613223791122436523e-02
1.978000000000000000e+03 7.588222503662109375e+01 -3.291962814331054688e+01 1.436177361756563187e-02 5.382739067077636719e+00 1.619130253791809082e+00 6.928566843271255493e-02
1.979000000000000000e+03 7.402473449707031250e+01 -3.116855430603027344e+01 6.471800617873668671e-03 5.135066032409667969e+00 1.542461276054382324e+00 9.616670757532119751e-02
1.980000000000000000e+03 7.469252014160156250e+01 -3.866719436645507812e+01 1.203718315809965134e-02 5.163065433502197266e+00 1.552530765533447266e+00 3.357297042384743690e-03
1.981000000000000000e+03 7.736853790283203125e+01 2.381752014160156250e+01 -1.936522126197814941e-01 1.019611358642578125e+01 3.000738382339477539e+00 3.889493346214294434e-01
1.982000000000000000e+03 7.678504180908203125e+01 1.271313190460205078e+01 4.622486978769302368e-02 7.982826232910156250e+00 2.408715248107910156e+00 5.144309401512145996e-01
1.983000000000000000e+03 7.806993865966796875e+01 1.264122200012207031e+01 1.736536808311939240e-02 8.462119102478027344e+00 2.543845415115356445e+00 3.214657306671142578e-01
1.984000000000000000e+03 7.428671264648437500e+01 1.282520389556884766e+01 1.340563744306564331e-01 6.983465194702148438e+00 2.135256290435791016e+00 7.870288491249084473e-01
1.985000000000000000e+03 7.657361602783203125e+01 2.753908538818359375e+01 -1.051649212837219238e+00 1.106520271301269531e+01 3.004065990447998047e+00 -2.425784170627593994e-01
1.986000000000000000e+03 7.849583435058593750e+01 2.926838111877441406e+01 -3.836171925067901611e-01 1.048418426513671875e+01 3.030169963836669922e+00 -1.203184604644775391e+00
1.987000000000000000e+03 7.681523895263671875e+01 1.413288307189941406e+01 5.077049508690834045e-02 8.192422866821289062e+00 2.472958087921142578e+00 5.491583943367004395e-01
1.988000000000000000e+03 7.813935089111328125e+01 -2.066990661621093750e+01 7.029107073321938515e-04 5.987750053405761719e+00 1.796535849571228027e+00 5.111996084451675415e-02
1.989000000000000000e+03 7.690750122070312500e+01 -2.186026191711425781e+01 3.807275090366601944e-03 5.765530109405517578e+00 1.730801224708557129e+00 8.140722662210464478e-02
1.990000000000000000e+03 7.747239685058593750e+01 2.513675880432128906e+01 -3.317572474479675293e-01 1.051167678833007812e+01 3.053975820541381836e+00 1.672588586807250977e-01
1.991000000000000000e+03 7.806405639648437500e+01 7.025843143463134766e+00 1.429509650915861130e-02 7.676388740539550781e+00 2.307205200195312500e+00 2.301668524742126465e-01
1.992000000000000000e+03 7.543656158447265625e+01 -2.756856679916381836e+00 3.562374785542488098e-02 6.226190567016601562e+00 1.878544330596923828e+00 2.964908480644226074e-01
1.993000000000000000e+03 7.816243743896484375e+01 -8.230510711669921875e+00 5.430703051388263702e-03 6.468847751617431641e+00 1.942283630371093750e+00 8.860316127538681030e-02
1.994000000000000000e+03 7.806753540039062500e+01 5.625270366668701172e+00 1.310523692518472672e-02 7.516105175018310547e+00 2.258763074874877930e+00 2.109655886888504028e-01
1.995000000000000000e+03 7.548115539550781250e+01 2.881771087646484375e+00 5.440862849354743958e-02 6.592329978942871094e+00 1.994021534919738770e+00 3.944504261016845703e-01
1.996000000000000000e+03 7.578150939941406250e+01 -8.070029258728027344e+00 2.437405101954936981e-02 6.037180423736572266e+00 1.818466305732727051e+00 2.033299505710601807e-01
1.997000000000000000e+03 7.805634307861328125e+01 -1.513817691802978516e+01 3.054792061448097229e-03 6.156162738800048828e+00 1.847765207290649414e+00 6.591764092445373535e-02
1.998000000000000000e+03 7.536336517333984375e+01 -1.494312667846679688e+01 1.679849997162818909e-02 5.718451499938964844e+00 1.720575094223022461e+00 1.600520759820938110e-01
1.999000000000000000e+03 7.718423461914062500e+01 2.111408042907714844e+01 -5.161485821008682251e-02 9.570701599121093750e+00 2.855726003646850586e+00 5.907537341117858887e-01
2.000000000000000000e+03 7.679635620117187500e+01 5.648534774780273438e+00 3.219542279839515686e-02 7.174817085266113281e+00 2.162103652954101562e+00 3.444179594516754150e-01
2.001000000000000000e+03 7.803477478027343750e+01 -1.351287603378295898e+00 7.898898795247077942e-03 6.878655910491943359e+00 2.065966367721557617e+00 1.417508721351623535e-01
2.002000000000000000e+03 7.675617218017578125e+01 -2.721848726272583008e+00 1.832769624888896942e-02 6.518417358398437500e+00 1.961023569107055664e+00 2.154116332530975342e-01
2.003000000000000000e+03 7.691957092285156250e+01 -9.502859115600585938e+00 1.219517551362514496e-02 6.183484554290771484e+00 1.858703970909118652e+00 1.396582424640655518e-01
2.004000000000000000e+03 7.677957153320312500e+01 -1.640774536132812500e+01 5.561609286814928055e-03 5.902864933013916016e+00 1.772528052330017090e+00 1.050620153546333313e-01
2.005000000000000000e+03 7.840707397460937500e+01 3.250026321411132812e+01 5.758959054946899414e-01 8.910506248474121094e+00 2.845920562744140625e+00 -1.376986503601074219e+00
2.006000000000000000e+03 7.798567962646484375e+01 3.159981536865234375e+01 2.252195477485656738e-01 1.015834808349609375e+01 3.115070104598999023e+00 -1.875162363052368164e+00
2.007000000000000000e+03 7.703466033935546875e+01 1.834242439270019531e+01 2.209387160837650299e-02 8.959196090698242188e+00 2.694386959075927734e+00 6.202093362808227539e-01
2.008000000000000000e+03 7.675415802001953125e+01 9.861233711242675781e+00 4.644058644771575928e-02 7.610709667205810547e+00 2.297144889831542969e+00 4.433809816837310791e-01
2.009000000000000000e+03 7.678263092041015625e+01 7.049714565277099609e+00 3.683669492602348328e-02 7.313756942749023438e+00 2.205178022384643555e+00 3.732688724994659424e-01
2.010000000000000000e+03 7.746300506591796875e+01 2.774803543090820312e+01 -6.944522857666015625e-01 1.102533531188964844e+01 3.099264860153198242e+00 -6.666799187660217285e-01
2.011000000000000000e+03 7.803036499023437500e+01 1.421830892562866211e+00 9.772658348083496094e-03 7.097398757934570312e+00 2.132151365280151367e+00 1.671990603208541870e-01
2.012000000000000000e+03 7.805654907226562500e+01 -1.375989913940429688e+01 4.614913370460271835e-03 6.207791328430175781e+00 1.863721966743469238e+00 6.943678110837936401e-02
2.013000000000000000e+03 7.673171234130859375e+01 -1.502441883087158203e+01 1.063679624348878860e-02 5.941459655761718750e+00 1.785629034042358398e+00 1.116812527179718018e-01
2.014000000000000000e+03 7.816122436523437500e+01 -6.857169151306152344e+00 5.080349277704954147e-03 6.542454719543457031e+00 1.964260578155517578e+00 9.574259072542190552e-02
2.015000000000000000e+03 7.695468902587890625e+01 -8.146996498107910156e+00 1.222323626279830933e-02 6.253193855285644531e+00 1.879625201225280762e+00 1.487694829702377319e-01
2.016000000000000000e+03 7.668146514892578125e+01 4.351541399955749512e-02 2.498852461576461792e-02 6.685245513916015625e+00 2.013070106506347656e+00 2.571282386779785156e-01
2.017000000000000000e+03 7.678723907470703125e+01 4.248891353607177734e+00 3.296239674091339111e-02 7.040649890899658203e+00 2.122083663940429688e+00 3.163998425006866455e-01
2.018000000000000000e+03 7.554289245605468750e+01 4.271838665008544922e+00 5.622272565960884094e-02 6.715270042419433594e+00 2.031447887420654297e+00 4.203062057495117188e-01
2.019000000000000000e+03 7.694992828369140625e+01 -6.799778461456298828e+00 1.529334113001823425e-02 6.319341182708740234e+00 1.900390267372131348e+00 1.613534092903137207e-01
2.020000000000000000e+03 7.683403778076171875e+01 -4.093173980712890625e+00 1.706137694418430328e-02 6.446089267730712891e+00 1.938945174217224121e+00 1.973677277565002441e-01
2.021000000000000000e+03 7.557820892333984375e+01 -4.124391555786132812e+00 3.474436327815055847e-02 6.183188915252685547e+00 1.865379929542541504e+00 2.648763060569763184e-01
2.022000000000000000e+03 7.672985076904296875e+01 -1.364235305786132812e+01 1.035428512841463089e-02 5.989619255065917969e+00 1.799991965293884277e+00 1.217215284705162048e-01
2.023000000000000000e+03 7.685310363769531250e+01 -1.087249183654785156e+01 8.354026824235916138e-03 6.113356590270996094e+00 1.836513161659240723e+00 1.317890137434005737e-01
2.024000000000000000e+03 7.561102294921875000e+01 -1.072800922393798828e+01 2.175320871174335480e-02 5.894419193267822266e+00 1.774851679801940918e+00 1.832372397184371948e-01
2.025000000000000000e+03 7.689434814453125000e+01 -2.053581047058105469e+01 6.006887648254632950e-03 5.796949863433837891e+00 1.740886926651000977e+00 8.607640117406845093e-02
2.026000000000000000e+03 7.683585357666015625e+01 -1.779307746887207031e+01 3.808217123150825500e-03 5.864955902099609375e+00 1.760629296302795410e+00 9.821144491434097290e-02
2.027000000000000000e+03 7.560458374023437500e+01 -1.772243309020996094e+01 1.180628687143325806e-02 5.662180423736572266e+00 1.702196002006530762e+00 1.341789960861206055e-01
2.028000000000000000e+03 7.841056823730468750e+01 3.500177001953125000e+01 7.791417837142944336e-01 8.843152999877929688e+00 2.886688470840454102e+00 9.886174798011779785e-01
2.029000000000000000e+03 7.512697601318359375e+01 4.058946990966796875e+01 -1.335273027420043945e+00 1.128159904479980469e+01 2.983897924423217773e+00 2.077936679124832153e-01
2.030000000000000000e+03 7.413782501220703125e+01 3.601713562011718750e+01 -1.065052032470703125e+00 1.751190757751464844e+01 4.934056282043457031e+00 -1.166935563087463379e+00
2.031000000000000000e+03 2.898098182678222656e+01 -3.241474151611328125e+01 4.381029605865478516e-01 6.027465462684631348e-01 3.122548460960388184e-01 -4.072156846523284912e-01
2.032000000000000000e+03 2.996816825866699219e+01 -3.107451629638671875e+01 4.092668592929840088e-01 7.318290472030639648e-01 3.423287570476531982e-01 -4.790464937686920166e-01
2.033000000000000000e+03 2.340777206420898438e+01 -1.987005043029785156e+01 1.837428361177444458e-01 2.863084375858306885e-01 1.410153806209564209e-01 -3.123858869075775146e-01
2.034000000000000000e+03 2.148026847839355469e+01 -1.655520248413085938e+01 2.218616753816604614e-01 9.631258249282836914e-02 9.545227885246276855e-02 -2.415303587913513184e-01
2.035000000000000000e+03 4.074723243713378906e+00 3.682135391235351562e+01 -1.221227139467373490e-04 -9.131579846143722534e-02 -2.743137627840042114e-02 -3.945028409361839294e-03
2.036000000000000000e+03 1.767603158950805664e+00 2.735355567932128906e+01 -2.754946945060510188e-05 -1.337718069553375244e-01 -4.013980925083160400e-02 -7.797611411660909653e-03
2.037000000000000000e+03 3.411051750183105469e+00 3.106623649597167969e+01 -1.525528030470013618e-03 -1.016642823815345764e-01 -3.095694258809089661e-02 -8.519855327904224396e-03
2.038000000000000000e+03 1.796879053115844727e+00 2.598888587951660156e+01 -1.490009017288684845e-03 -1.387893408536911011e-01 -4.208380356431007385e-02 -9.010568261146545410e-03
2.039000000000000000e+03 5.625734329223632812e+00 3.342360305786132812e+01 -3.933859989047050476e-03 -7.166890799999237061e-02 -2.268083021044731140e-02 -8.084043860435485840e-03
2.040000000000000000e+03 3.703632116317749023e+00 3.242679977416992188e+01 -2.138119190931320190e-03 -9.612090140581130981e-02 -2.947770617902278900e-02 -7.612471003085374832e-03
2.041000000000000000e+03 3.092000961303710938e+00 2.447879600524902344e+01 -2.767123514786362648e-03 -1.220804080367088318e-01 -3.745425865054130554e-02 -1.512132212519645691e-02
2.042000000000000000e+03 3.140874862670898438e+00 2.976064109802246094e+01 -2.495601074770092964e-03 -1.075477674603462219e-01 -3.301300853490829468e-02 -9.226273745298385620e-03
2.043000000000000000e+03 5.877482891082763672e+00 3.878554153442382812e+01 -3.780584316700696945e-03 -6.621205061674118042e-02 -2.099778875708580017e-02 -1.104993163608014584e-03
2.044000000000000000e+03 2.577842235565185547e+00 3.690261077880859375e+01 -5.107290926389396191e-04 -1.047471463680267334e-01 -3.157736361026763916e-02 -4.816299304366111755e-03
2.045000000000000000e+03 3.963193655014038086e+00 3.384786987304687500e+01 -1.213681069202721119e-03 -9.142588824033737183e-02 -2.779187075793743134e-02 -6.398615427315235138e-03
2.046000000000000000e+03 6.077286720275878906e+00 2.992182922363281250e+01 -5.120885092765092850e-03 -6.684380024671554565e-02 -2.158940583467483521e-02 -1.244044024497270584e-02
2.047000000000000000e+03 4.742140293121337891e+00 -3.368289566040039062e+01 2.573922090232372284e-02 -1.252710580825805664e+00 -3.680914044380187988e-01 -8.736538887023925781e-02
2.048000000000000000e+03 3.593325138092041016e+00 -3.724699783325195312e+01 3.506438806653022766e-02 -1.391234397888183594e+00 -4.068509936332702637e-01 -3.789227828383445740e-02
2.049000000000000000e+03 4.151016235351562500e+00 -3.225724029541015625e+01 2.246675081551074982e-02 -1.285418391227722168e+00 -3.788855075836181641e-01 -9.136783331632614136e-02
2.050000000000000000e+03 2.117315053939819336e+00 -3.000286102294921875e+01 6.188814528286457062e-03 -1.418022871017456055e+00 -4.235502183437347412e-01 -6.256833672523498535e-02
2.051000000000000000e+03 3.263743877410888672e+00 -2.830241394042968750e+01 1.771217770874500275e-02 -1.265444517135620117e+00 -3.743197023868560791e-01 -1.132852584123611450e-01
2.052000000000000000e+03 3.192055225372314453e+00 -2.566308593750000000e+01 1.745030656456947327e-02 -1.181944966316223145e+00 -3.493483960628509521e-01 -1.387309432029724121e-01
2.053000000000000000e+03 1.825975298881530762e+00 2.178619575500488281e+01 -4.117893113289028406e-04 -1.587265580892562866e-01 -4.774150252342224121e-02 -1.291874796152114868e-02
2.054000000000000000e+03 2.769733905792236328e+00 -1.060806274414062500e+01 -2.015351504087448120e-02 -3.595972955226898193e-01 -1.139252483844757080e-01 -1.983168274164199829e-01
2.055000000000000000e+03 3.058863639831542969e+00 -1.738973236083984375e+01 1.538083422929048538e-02 -7.932825684547424316e-01 -2.333705276250839233e-01 -2.168725430965423584e-01
2.056000000000000000e+03 1.754777550697326660e+00 -1.477537822723388672e+01 4.376469878479838371e-04 -6.421207189559936523e-01 -1.925049275159835815e-01 -1.431866735219955444e-01
2.057000000000000000e+03 2.915582180023193359e+00 1.877706336975097656e+01 -1.285798032768070698e-03 -1.462818980216979980e-01 -4.427031055092811584e-02 -1.982263103127479553e-02
2.058000000000000000e+03 2.762440443038940430e+00 1.322163105010986328e+01 8.513179607689380646e-03 -1.710910797119140625e-01 -4.877337068319320679e-02 -8.114282041788101196e-03
2.059000000000000000e+03 3.054497718811035156e+00 2.163392829895019531e+01 -2.382701961323618889e-03 -1.326144933700561523e-01 -4.049915820360183716e-02 -1.833905652165412903e-02
2.060000000000000000e+03 3.157387495040893555e+00 -2.015764236450195312e+01 1.987945660948753357e-02 -9.419325590133666992e-01 -2.766159176826477051e-01 -1.955800652503967285e-01
2.061000000000000000e+03 2.824641466140747070e+00 -1.194704055786132812e+01 -1.025840267539024353e-02 -4.499064981937408447e-01 -1.380494683980941772e-01 -2.152312844991683960e-01
2.062000000000000000e+03 1.560749769210815430e+00 -7.970965385437011719e+00 -1.281009521335363388e-02 -1.690658926963806152e-01 -5.456279590725898743e-02 -8.708513528108596802e-02
2.063000000000000000e+03 3.455200672149658203e+00 -4.804420471191406250e+00 -6.606674194335937500e-02 -8.263521641492843628e-02 -4.461058974266052246e-02 -8.786112815141677856e-02
2.064000000000000000e+03 3.556685447692871094e+00 5.848449230194091797e+00 2.666345611214637756e-02 -1.273968666791915894e-01 -3.022002615034580231e-02 9.427615255117416382e-02
2.065000000000000000e+03 2.499921798706054688e+00 9.183386802673339844e+00 2.013902179896831512e-02 -1.728748530149459839e-01 -4.582075029611587524e-02 2.953835017979145050e-02
2.066000000000000000e+03 1.696777462959289551e+00 1.613036155700683594e+01 1.437856815755367279e-03 -1.961348503828048706e-01 -5.840909853577613831e-02 -1.325990818440914154e-02
2.067000000000000000e+03 2.865833520889282227e+00 1.737196731567382812e+01 1.144908135756850243e-03 -1.534797847270965576e-01 -4.570046067237854004e-02 -2.014843747019767761e-02
2.068000000000000000e+03 2.598204851150512695e+00 1.051133537292480469e+01 1.714430935680866241e-02 -1.767615824937820435e-01 -4.788518324494361877e-02 1.408913545310497284e-02
2.069000000000000000e+03 2.635956764221191406e+00 -8.020450592041015625e+00 -3.469014912843704224e-02 -2.058960646390914917e-01 -7.217586040496826172e-02 -1.468510478734970093e-01
2.070000000000000000e+03 1.958371877670288086e+00 -4.408733367919921875e+00 -1.993163675069808960e-02 -3.838986903429031372e-02 -1.749645173549652100e-02 -3.213280439376831055e-02
2.071000000000000000e+03 3.187909841537475586e+00 -2.154973220825195312e+01 1.940964907407760620e-02 -1.005178213119506836e+00 -2.957305610179901123e-01 -1.783069074153900146e-01
2.072000000000000000e+03 5.682187557220458984e+00 -3.670911788940429688e+01 4.429651424288749695e-02 -1.208462357521057129e+00 -3.492497503757476807e-01 -6.524210423231124878e-02
2.073000000000000000e+03 2.708003044128417969e+00 -9.294176101684570312e+00 -2.635878324508666992e-02 -2.820503413677215576e-01 -9.252274036407470703e-02 -1.749951243400573730e-01
2.074000000000000000e+03 3.001640081405639648e+00 -1.601664161682128906e+01 1.011987123638391495e-02 -7.084683775901794434e-01 -2.095045596361160278e-01 -2.221450060606002808e-01
2.075000000000000000e+03 2.940998554229736328e+00 -1.465450954437255859e+01 5.617463029921054840e-03 -6.269249320030212402e-01 -1.863922327756881714e-01 -2.261969894170761108e-01
2.076000000000000000e+03 1.905844688415527344e+00 -2.312532234191894531e+01 7.369470316916704178e-03 -1.164118409156799316e+00 -3.470247089862823486e-01 -1.006673499941825867e-01
2.077000000000000000e+03 6.202547550201416016e+00 -3.283119964599609375e+01 5.060906708240509033e-02 -1.128953218460083008e+00 -3.235032558441162109e-01 -1.218852624297142029e-01
2.078000000000000000e+03 4.519460678100585938e+00 -2.413671493530273438e+01 3.600088134407997131e-02 -1.037275195121765137e+00 -3.003823161125183105e-01 -2.062197476625442505e-01
2.079000000000000000e+03 3.112205028533935547e+00 -1.877076721191406250e+01 1.684183441102504730e-02 -8.660108447074890137e-01 -2.547506988048553467e-01 -2.047710567712783813e-01
2.080000000000000000e+03 2.690933227539062500e+00 1.186040115356445312e+01 1.321551576256752014e-02 -1.746789813041687012e-01 -4.843904078006744385e-02 1.968594879144802690e-04
2.081000000000000000e+03 3.909978628158569336e+00 1.307909774780273438e+01 1.634815894067287445e-02 -1.333473920822143555e-01 -3.509976714849472046e-02 -1.078293379396200180e-02
2.082000000000000000e+03 3.953516006469726562e+00 1.445090007781982422e+01 9.670632891356945038e-03 -1.289933919906616211e-01 -3.579682484269142151e-02 -1.665933988988399506e-02
2.083000000000000000e+03 2.982848167419433594e+00 2.019902420043945312e+01 -9.345601429231464863e-04 -1.390588581562042236e-01 -4.199802875518798828e-02 -1.949645392596721649e-02
2.084000000000000000e+03 3.101495265960693359e+00 2.306379508972167969e+01 -1.958469627425074577e-03 -1.265261173248291016e-01 -3.854537755250930786e-02 -1.728986948728561401e-02
2.085000000000000000e+03 1.629918289184570312e+01 -7.389420032501220703e+00 -1.513310521841049194e-01 -1.075286269187927246e+00 -3.679852187633514404e-01 -7.703047394752502441e-01
2.086000000000000000e+03 3.919399642944335938e+01 -1.988299369812011719e+01 -4.246116429567337036e-02 -4.190674424171447754e-01 -1.384585797786712646e-01 2.251837402582168579e-01
2.087000000000000000e+03 3.031666755676269531e+01 -3.447735214233398438e+01 4.988778233528137207e-01 6.172756552696228027e-01 3.348460495471954346e-01 -4.240218400955200195e-01
2.088000000000000000e+03 2.079698562622070312e+01 -1.540093898773193359e+01 2.040227949619293213e-01 -4.392328858375549316e-02 4.802985116839408875e-02 -2.559301853179931641e-01
2.089000000000000000e+03 5.947946929931640625e+01 3.787517929077148438e+01 6.038299202919006348e-02 -1.921389102935791016e-01 -3.952677547931671143e-02 2.898990213871002197e-01
2.090000000000000000e+03 3.405144882202148438e+01 -1.153259181976318359e+01 3.036993145942687988e-01 -3.936549425125122070e-01 -2.698668465018272400e-02 -7.325115054845809937e-02
2.091000000000000000e+03 6.673458099365234375e+01 3.714540863037109375e+01 7.122014462947845459e-02 1.449266523122787476e-01 6.484404206275939941e-02 4.319866299629211426e-01
2.092000000000000000e+03 6.120023345947265625e+01 3.975392532348632812e+01 4.707556962966918945e-01 -3.043345510959625244e-01 4.992633685469627380e-02 2.910107076168060303e-01
2.093000000000000000e+03 6.185200881958007812e+01 3.735171890258789062e+01 -1.828012429177761078e-02 -2.086633592844009399e-01 -6.808304786682128906e-02 4.134047031402587891e-01
2.094000000000000000e+03 1.868359375000000000e+01 -1.175103473663330078e+01 2.326380461454391479e-01 -4.830171465873718262e-01 -7.511372864246368408e-02 -2.435410022735595703e-01
2.095000000000000000e+03 4.461127471923828125e+01 -2.904999351501464844e+01 -1.973662674427032471e-01 1.382118016481399536e-01 -1.774633862078189850e-02 2.213038653135299683e-01
2.096000000000000000e+03 2.439826202392578125e+01 1.978645324707031250e+00 -2.903253555297851562e+00 -5.373814105987548828e-01 -1.032190561294555664e+00 -1.271900415420532227e+00
2.097000000000000000e+03 2.886937522888183594e+01 -4.276075839996337891e+00 1.015132904052734375e+00 -1.357163488864898682e-01 2.638249695301055908e-01 -3.993412852287292480e-01
2.098000000000000000e+03 6.332618713378906250e+01 3.909376144409179688e+01 4.863156974315643311e-01 -3.145579397678375244e-01 5.152732878923416138e-02 3.817022740840911865e-01
2.099000000000000000e+03 3.040338325500488281e+01 -3.302930450439453125e+01 4.806153476238250732e-01 6.829300522804260254e-01 3.490636050701141357e-01 -4.571632742881774902e-01
2.100000000000000000e+03 1.760865592956542969e+01 -4.832204818725585938e+00 -7.113000154495239258e-01 -2.086512327194213867e+00 -8.393436670303344727e-01 -1.033076286315917969e+00
2.101000000000000000e+03 1.677742385864257812e+01 -5.427460670471191406e+00 -4.923717379570007324e-01 -1.440706372261047363e+00 -5.799234509468078613e-01 -1.004315137863159180e+00
2.102000000000000000e+03 4.532587051391601562e+01 -3.014197540283203125e+01 -2.111640423536300659e-01 2.928467392921447754e-01 2.450481057167053223e-02 2.315590232610702515e-01
2.103000000000000000e+03 1.749640083312988281e+01 -8.840488433837890625e+00 1.256049871444702148e-01 -9.893618226051330566e-01 -2.591270506381988525e-01 -4.239847660064697266e-01
2.104000000000000000e+03 2.945642089843750000e+01 -5.196892261505126953e+00 9.486057758331298828e-01 -1.275500059127807617e-01 2.463167458772659302e-01 -3.992878794670104980e-01
2.105000000000000000e+03 4.868926620483398438e+01 -3.283085632324218750e+01 1.496504712849855423e-02 1.161793828010559082e+00 3.530276715755462646e-01 3.761185705661773682e-01
2.106000000000000000e+03 4.701726531982421875e+01 -3.699861907958984375e+01 6.481565833091735840e-01 8.401758670806884766e-01 4.464997351169586182e-01 6.622236371040344238e-01
2.107000000000000000e+03 4.983367443084716797e+00 4.061470031738281250e+01 -3.553597023710608482e-03 -7.973334193229675293e-02 -2.498608268797397614e-02 1.325904973782598972e-03
2.108000000000000000e+03 2.521143913269042969e+01 2.079713344573974609e+00 -2.641728639602661133e+00 -4.635151922702789307e-01 -9.315731525421142578e-01 -1.008831143379211426e+00
2.109000000000000000e+03 2.538328742980957031e+01 2.908849239349365234e+00 -3.094442605972290039e+00 -7.144100069999694824e-01 -1.142655730247497559e+00 -1.360206961631774902e+00
2.110000000000000000e+03 2.490948486328125000e+01 2.204450368881225586e+00 -2.797905206680297852e+00 -4.877454638481140137e-01 -9.856952428817749023e-01 -1.155562400817871094e+00
2.111000000000000000e+03 2.356847953796386719e+01 1.264404058456420898e+00 -2.558198451995849609e+00 -2.310406416654586792e-01 -8.367717266082763672e-01 -1.267076373100280762e+00
2.112000000000000000e+03 2.487232398986816406e+01 2.486478090286254883e+00 -3.108868837356567383e+00 -5.860261917114257812e-01 -1.108468532562255859e+00 -1.295786499977111816e+00
2.113000000000000000e+03 2.417562866210937500e+01 2.466800451278686523e+00 -3.410532712936401367e+00 -7.066352963447570801e-01 -1.235150337219238281e+00 -1.576662182807922363e+00
2.114000000000000000e+03 2.422976875305175781e+01 1.878831505775451660e+00 -2.896024703979492188e+00 -3.557279407978057861e-01 -9.755257964134216309e-01 -1.230055570602416992e+00
2.115000000000000000e+03 2.570120620727539062e+01 3.447321653366088867e+00 -3.227113246917724609e+00 -8.441204428672790527e-01 -1.221370100975036621e+00 -1.529102563858032227e+00
2.116000000000000000e+03 2.621296310424804688e+01 3.063322067260742188e+00 -2.787806034088134766e+00 -7.061202526092529297e-01 -1.048177838325500488e+00 -1.173441767692565918e+00
2.117000000000000000e+03 2.621023750305175781e+01 3.754904031753540039e+00 -3.144053697586059570e+00 -9.432126879692077637e-01 -1.226179957389831543e+00 -1.525019764900207520e+00
2.118000000000000000e+03 2.828542900085449219e+01 4.722551345825195312e+00 -2.495770454406738281e+00 -1.366705894470214844e+00 -1.158742904663085938e+00 -1.343171238899230957e+00
2.119000000000000000e+03 7.210409545898437500e+01 3.186515808105468750e+01 1.951028108596801758e-01 5.646918296813964844e+00 1.752606272697448730e+00 4.869754314422607422e+00
2.120000000000000000e+03 7.260341644287109375e+01 3.174939727783203125e+01 -3.565193712711334229e-01 9.068971633911132812e+00 2.613735675811767578e+00 5.509802341461181641e+00
2.121000000000000000e+03 7.291281127929687500e+01 3.167871284484863281e+01 -8.542740941047668457e-01 1.109624767303466797e+01 3.072592020034790039e+00 5.396630287170410156e+00
2.122000000000000000e+03 2.847824859619140625e+01 5.140282154083251953e+00 -2.516123056411743164e+00 -1.521872282028198242e+00 -1.211398601531982422e+00 -1.430707097053527832e+00
2.123000000000000000e+03 2.817643165588378906e+01 4.233829498291015625e+00 -2.386842012405395508e+00 -1.172939658164978027e+00 -1.067934513092041016e+00 -1.178038597106933594e+00
2.124000000000000000e+03 2.870259857177734375e+01 4.911804676055908203e+00 -2.370472431182861328e+00 -1.397989988327026367e+00 -1.130538702011108398e+00 -1.249544143676757812e+00
2.125000000000000000e+03 7.442975616455078125e+01 3.249323654174804688e+01 3.452479839324951172e-03 2.056286811828613281e+01 6.169896125793457031e+00 -9.244599342346191406e-01
2.126000000000000000e+03 7.519004058837890625e+01 3.202392578125000000e+01 -9.547442942857742310e-02 1.687671279907226562e+01 5.034371376037597656e+00 -1.798082113265991211e+00
2.127000000000000000e+03 7.508759307861328125e+01 3.240153121948242188e+01 1.260399699211120605e+00 1.781704521179199219e+01 5.723233699798583984e+00 -2.303237676620483398e+00
2.128000000000000000e+03 7.601243591308593750e+01 3.141949844360351562e+01 -5.189574360847473145e-01 1.404980373382568359e+01 4.059253692626953125e+00 -1.982254743576049805e+00
2.129000000000000000e+03 7.556433868408203125e+01 3.374213790893554688e+01 6.435134410858154297e+00 1.517652893066406250e+01 6.483499050140380859e+00 -8.187636137008666992e-01
2.130000000000000000e+03 7.553051757812500000e+01 3.347635269165039062e+01 6.051082134246826172e+00 1.542521095275878906e+01 6.442888259887695312e+00 -1.539232850074768066e+00
2.131000000000000000e+03 7.596625518798828125e+01 3.385688400268554688e+01 4.996953487396240234e+00 1.389258670806884766e+01 5.666862010955810547e+00 -1.748000383377075195e-01
2.132000000000000000e+03 7.563350677490234375e+01 3.401276016235351562e+01 6.429963588714599609e+00 1.490585041046142578e+01 6.400743961334228516e+00 3.380617201328277588e-01
2.133000000000000000e+03 7.587749481201171875e+01 3.364020156860351562e+01 5.411115169525146484e+00 1.435970211029052734e+01 5.931245326995849609e+00 -9.993810057640075684e-01
2.134000000000000000e+03 7.510459899902343750e+01 3.509855270385742188e+01 3.527790546417236328e+00 1.802734184265136719e+01 6.466539382934570312e+00 2.850035667419433594e+00
2.135000000000000000e+03 7.644909667968750000e+01 3.198255729675292969e+01 6.980882287025451660e-01 1.340230464935302734e+01 4.230117797851562500e+00 -2.352233171463012695e+00
2.136000000000000000e+03 7.483500671386718750e+01 3.789750671386718750e+01 -1.686779141426086426e+00 1.365957355499267578e+01 3.591838359832763672e+00 1.265926212072372437e-01
2.137000000000000000e+03 7.461198425292968750e+01 3.556309509277343750e+01 7.442144155502319336e-01 1.918784332275390625e+01 5.979617118835449219e+00 1.580311536788940430e+00
2.138000000000000000e+03 1.822665214538574219e+01 -2.961445569992065430e+00 -1.509649395942687988e+00 -3.180488109588623047e+00 -1.407041311264038086e+00 -1.599157929420471191e+00
2.139000000000000000e+03 2.281258392333984375e+01 3.298671543598175049e-01 -1.407724976539611816e+00 4.781788289546966553e-01 -2.788638472557067871e-01 -1.288377881050109863e+00
2.140000000000000000e+03 2.225161361694335938e+01 9.027093648910522461e-01 -2.393994092941284180e+00 -3.251526653766632080e-01 -8.157440423965454102e-01 -2.203779220581054688e+00
2.141000000000000000e+03 2.365342330932617188e+01 -1.444162130355834961e+00 1.875375628471374512e+00 1.020421862602233887e+00 8.687392473220825195e-01 -1.103306412696838379e+00
2.142000000000000000e+03 2.287819290161132812e+01 6.447839140892028809e-01 -1.966572999954223633e+00 9.360887855291366577e-02 -5.618892312049865723e-01 -1.374705076217651367e+00
2.143000000000000000e+03 1.414172744750976562e+01 5.461414813995361328e+00 1.152191311120986938e-01 6.495947837829589844e-01 2.294441759586334229e-01 2.280145287513732910e-01
2.144000000000000000e+03 7.388045501708984375e+01 3.707989501953125000e+01 -1.336948156356811523e+00 1.356115150451660156e+01 3.667260885238647461e+00 -1.827246665954589844e+00
2.145000000000000000e+03 2.992819786071777344e+01 5.147072792053222656e+00 -2.017603635787963867e+00 -1.085287332534790039e+00 -9.308672547340393066e-01 -9.745535850524902344e-01
2.146000000000000000e+03 2.914353370666503906e+01 4.992982864379882812e+00 -2.224479436874389648e+00 -1.288292050361633301e+00 -1.053831458091735840e+00 -1.096978068351745605e+00
2.147000000000000000e+03 1.935594940185546875e+01 -1.395348310470581055e+00 -2.153029441833496094e+00 -4.394387722015380859e+00 -1.964225172996520996e+00 -2.651936769485473633e+00
2.148000000000000000e+03 7.054212188720703125e+01 3.185945320129394531e+01 -1.035462379455566406e+00 1.284348726272583008e+00 7.466587424278259277e-02 1.884018063545227051e+00
2.149000000000000000e+03 3.110679435729980469e+01 2.385586738586425781e+01 5.995228514075279236e-02 9.038196504116058350e-02 4.510027542710304260e-02 7.854938507080078125e-02
2.150000000000000000e+03 1.946300125122070312e+01 1.047804260253906250e+01 1.413925141096115112e-01 1.823270022869110107e-01 9.711585193872451782e-02 1.655910611152648926e-01
2.151000000000000000e+03 3.299379348754882812e+01 2.405625152587890625e+01 6.245645135641098022e-02 8.728802204132080078e-02 4.492334276437759399e-02 7.469132542610168457e-02
2.152000000000000000e+03 3.119277763366699219e+01 2.291263961791992188e+01 6.423579156398773193e-02 8.881572633981704712e-02 4.591545462608337402e-02 8.132536709308624268e-02
2.153000000000000000e+03 1.827169418334960938e+01 9.437212944030761719e+00 1.549660414457321167e-01 2.165324240922927856e-01 1.114495396614074707e-01 1.734830737113952637e-01
2.154000000000000000e+03 4.052413558959960938e+01 2.011713409423828125e+01 -1.194511294364929199e+00 -1.295767426490783691e+00 -7.470836043357849121e-01 -1.362025499343872070e+00
2.155000000000000000e+03 4.078655242919921875e+01 2.041155052185058594e+01 -1.215963363647460938e+00 -1.301743268966674805e+00 -7.553119659423828125e-01 -1.361112952232360840e+00
2.156000000000000000e+03 1.627391052246093750e+01 7.611565589904785156e+00 1.571814119815826416e-01 2.966288924217224121e-01 1.361430883407592773e-01 2.094991505146026611e-01
2.157000000000000000e+03 1.703997230529785156e+01 7.688683032989501953e+00 1.737619936466217041e-01 2.468836605548858643e-01 1.261937022209167480e-01 2.148219645023345947e-01
2.158000000000000000e+03 3.519779968261718750e+01 1.387814044952392578e+01 -1.310738801956176758e+00 -1.489503979682922363e+00 -8.400728106498718262e-01 -1.363836050033569336e+00
2.159000000000000000e+03 2.029781150817871094e+01 1.126285934448242188e+01 1.394938826560974121e-01 1.701194643974304199e-01 9.288400411605834961e-02 1.537271142005920410e-01
2.160000000000000000e+03 1.976601028442382812e+01 1.124922275543212891e+01 1.337328106164932251e-01 1.750723272562026978e-01 9.264153987169265747e-02 1.556588262319564819e-01
2.161000000000000000e+03 2.500699043273925781e+01 1.607230377197265625e+01 1.076349839568138123e-01 1.227591633796691895e-01 6.911824643611907959e-02 1.182131096720695496e-01
2.162000000000000000e+03 3.859125900268554688e+01 1.851626014709472656e+01 -1.233700633049011230e+00 -1.486644625663757324e+00 -8.161035776138305664e-01 -1.370281100273132324e+00
2.163000000000000000e+03 3.940225982666015625e+01 1.954443359375000000e+01 -1.177953243255615234e+00 -1.361452102661132812e+00 -7.618216276168823242e-01 -1.360065340995788574e+00
2.164000000000000000e+03 2.584366416931152344e+01 1.703798484802246094e+01 1.044217050075531006e-01 1.203732267022132874e-01 6.743848323822021484e-02 1.107994616031646729e-01
2.165000000000000000e+03 1.720614814758300781e+01 7.922500133514404297e+00 1.749339997768402100e-01 2.400068938732147217e-01 1.244822666049003601e-01 2.059381306171417236e-01
2.166000000000000000e+03 1.691098022460937500e+01 7.953724861145019531e+00 1.656134426593780518e-01 2.553160786628723145e-01 1.262788623571395874e-01 2.072060108184814453e-01
2.167000000000000000e+03 3.349498367309570312e+01 2.456686592102050781e+01 6.188908219337463379e-02 8.726710081100463867e-02 4.474685713648796082e-02 7.487937062978744507e-02
2.168000000000000000e+03 3.617826461791992188e+01 2.764541053771972656e+01 6.445015966892242432e-02 8.364461362361907959e-02 4.442843049764633179e-02 7.056253403425216675e-02
2.169000000000000000e+03 6.956459808349609375e+01 3.110845947265625000e+01 -1.013981342315673828e+00 1.261157512664794922e+00 7.415285706520080566e-02 1.482131242752075195e+00
2.170000000000000000e+03 4.657316207885742188e+01 2.519851493835449219e+01 -1.410333395004272461e+00 -1.147361040115356445e+00 -7.673083543777465820e-01 -1.317322015762329102e+00
2.171000000000000000e+03 3.831868362426757812e+01 1.821738052368164062e+01 -1.252425074577331543e+00 -1.527765274047851562e+00 -8.340570926666259766e-01 -1.377058863639831543e+00
2.172000000000000000e+03 4.627705764770507812e+01 2.550783920288085938e+01 -1.450371503829956055e+00 -1.221202611923217773e+00 -8.014722466468811035e-01 -1.372360587120056152e+00
2.173000000000000000e+03 2.112054634094238281e+01 1.265462684631347656e+01 1.241414770483970642e-01 1.631139069795608521e-01 8.617661893367767334e-02 1.419756114482879639e-01
2.174000000000000000e+03 2.392849922180175781e+01 1.489706993103027344e+01 1.166784390807151794e-01 1.363368332386016846e-01 7.590458542108535767e-02 1.262286752462387085e-01
2.175000000000000000e+03 4.685492324829101562e+01 2.606194686889648438e+01 -1.420534491539001465e+00 -1.186744689941406250e+00 -7.821837663650512695e-01 -1.359530568122863770e+00
2.176000000000000000e+03 3.457878112792968750e+01 2.606214904785156250e+01 6.003595888614654541e-02 8.736826479434967041e-02 4.422126710414886475e-02 7.190395146608352661e-02
2.177000000000000000e+03 3.472083282470703125e+01 2.646375274658203125e+01 5.964456126093864441e-02 8.671179413795471191e-02 4.390690848231315613e-02 7.180868089199066162e-02
2.178000000000000000e+03 1.787901496887207031e+01 9.216358184814453125e+00 1.549955904483795166e-01 2.204374670982360840e-01 1.126299127936363220e-01 1.768792271614074707e-01
2.179000000000000000e+03 1.730272483825683594e+01 8.251910209655761719e+00 1.687775999307632446e-01 2.365569472312927246e-01 1.216003596782684326e-01 2.008224725723266602e-01
2.180000000000000000e+03 3.439685058593750000e+01 2.571186447143554688e+01 6.143928691744804382e-02 8.738101273775100708e-02 4.464609175920486450e-02 7.197927683591842651e-02
2.181000000000000000e+03 3.362335968017578125e+01 2.531863594055175781e+01 6.104250997304916382e-02 8.694394677877426147e-02 4.439593479037284851e-02 7.328038662672042847e-02
2.182000000000000000e+03 2.165468597412109375e+01 1.320192718505859375e+01 1.233836933970451355e-01 1.571689844131469727e-01 8.416580408811569214e-02 1.378154456615447998e-01
2.183000000000000000e+03 2.517946052551269531e+01 1.704253768920898438e+01 9.868527948856353760e-02 1.223410740494728088e-01 6.630790233612060547e-02 1.104363426566123962e-01
2.184000000000000000e+03 3.179278564453125000e+01 2.376562881469726562e+01 6.248791515827178955e-02 8.739033341407775879e-02 4.496347531676292419e-02 7.785841077566146851e-02
2.185000000000000000e+03 3.180599021911621094e+01 2.315742683410644531e+01 6.497434526681900024e-02 8.573102205991744995e-02 4.521160945296287537e-02 7.945299893617630005e-02
2.186000000000000000e+03 4.332278442382812500e+01 2.286473655700683594e+01 -1.454455256462097168e+00 -1.340144157409667969e+00 -8.383798003196716309e-01 -1.407518267631530762e+00
2.187000000000000000e+03 4.743715286254882812e+01 2.607422637939453125e+01 -1.383077740669250488e+00 -1.101011514663696289e+00 -7.452268004417419434e-01 -1.300619244575500488e+00
2.188000000000000000e+03 3.550845336914062500e+01 1.471356964111328125e+01 -1.308345556259155273e+00 -1.539450407028198242e+00 -8.543387651443481445e-01 -1.415569782257080078e+00
2.189000000000000000e+03 3.473863601684570312e+01 1.443152618408203125e+01 -1.375933647155761719e+00 -1.583016633987426758e+00 -8.876850605010986328e-01 -1.460542678833007812e+00
2.190000000000000000e+03 4.189775085449218750e+01 2.201287841796875000e+01 -1.465604186058044434e+00 -1.349117279052734375e+00 -8.444164395332336426e-01 -1.391454696655273438e+00
2.191000000000000000e+03 3.803638458251953125e+01 1.791724014282226562e+01 -1.270758390426635742e+00 -1.568081736564636230e+00 -8.516520857810974121e-01 -1.383155226707458496e+00
2.192000000000000000e+03 4.540291595458984375e+01 2.526178932189941406e+01 -1.530467510223388672e+00 -1.363189578056335449e+00 -8.680971264839172363e-01 -1.434307694435119629e+00
2.193000000000000000e+03 4.597510147094726562e+01 2.524374389648437500e+01 -1.469469785690307617e+00 -1.247906208038330078e+00 -8.152127861976623535e-01 -1.375344991683959961e+00
2.194000000000000000e+03 3.108334732055664062e+01 2.183014106750488281e+01 7.138683646917343140e-02 8.846918493509292603e-02 4.795680567622184753e-02 8.200170844793319702e-02
2.195000000000000000e+03 4.741763687133789062e+01 2.663787269592285156e+01 -1.414559364318847656e+00 -1.162164688110351562e+00 -7.730171680450439453e-01 -1.335534572601318359e+00
2.196000000000000000e+03 3.395104217529296875e+01 1.359997653961181641e+01 -1.408473372459411621e+00 -1.591170072555541992e+00 -8.998930454254150391e-01 -1.446932077407836914e+00
2.197000000000000000e+03 3.523780822753906250e+01 1.443252658843994141e+01 -1.328110218048095703e+00 -1.536059498786926270e+00 -8.592509031295776367e-01 -1.414556860923767090e+00
2.198000000000000000e+03 4.360766220092773438e+01 2.313639068603515625e+01 -1.463921427726745605e+00 -1.354008674621582031e+00 -8.453789949417114258e-01 -1.410392165184020996e+00
2.199000000000000000e+03 3.809539794921875000e+01 2.995627784729003906e+01 6.546314805746078491e-02 7.259816676378250122e-02 4.141839593648910522e-02 6.701258569955825806e-02
2.200000000000000000e+03 3.727677917480468750e+01 3.006028366088867188e+01 6.147775799036026001e-02 7.667060196399688721e-02 4.144450649619102478e-02 6.482207775115966797e-02
2.201000000000000000e+03 2.056268501281738281e+01 1.155568504333496094e+01 1.366351693868637085e-01 1.708967983722686768e-01 9.225959330797195435e-02 1.500185877084732056e-01
2.202000000000000000e+03 2.992338371276855469e+01 2.090622520446777344e+01 8.146616816520690918e-02 9.370313584804534912e-02 5.255079269409179688e-02 8.748509734869003296e-02
2.203000000000000000e+03 2.902092933654785156e+01 2.068577384948730469e+01 7.925785332918167114e-02 9.891077876091003418e-02 5.345059186220169067e-02 8.978168666362762451e-02
2.204000000000000000e+03 4.275430679321289062e+01 2.231227684020996094e+01 -1.432480216026306152e+00 -1.322040915489196777e+00 -8.263563513755798340e-01 -1.385215282440185547e+00
2.205000000000000000e+03 4.769416427612304688e+01 2.692347717285156250e+01 -1.419172525405883789e+00 -1.153250336647033691e+00 -7.717268466949462891e-01 -1.322324275970458984e+00
2.206000000000000000e+03 4.824064254760742188e+01 2.802387809753417969e+01 -1.483447551727294922e+00 -1.195565581321716309e+00 -8.037039041519165039e-01 -1.331994056701660156e+00
2.207000000000000000e+03 3.185285186767578125e+01 1.093631744384765625e+01 -1.452183485031127930e+00 -1.459851264953613281e+00 -8.736104369163513184e-01 -1.365314245223999023e+00
2.208000000000000000e+03 3.109738349914550781e+01 1.027027511596679688e+01 -1.464179515838623047e+00 -1.412187099456787109e+00 -8.629099726676940918e-01 -1.367953181266784668e+00
2.209000000000000000e+03 3.577835083007812500e+01 1.499997329711914062e+01 -1.297636270523071289e+00 -1.546461939811706543e+00 -8.532294631004333496e-01 -1.410347461700439453e+00
2.210000000000000000e+03 7.226439666748046875e+01 3.617535018920898438e+01 1.269775509834289551e+00 7.155150413513183594e+00 2.527477741241455078e+00 -4.851692676544189453e+00
2.211000000000000000e+03 2.960997962951660156e+01 2.125034904479980469e+01 7.617300748825073242e-02 9.622982889413833618e-02 5.172085016965866089e-02 8.650349825620651245e-02
2.212000000000000000e+03 2.795152473449707031e+01 1.948206329345703125e+01 8.693547546863555908e-02 1.059635728597640991e-01 5.786971747875213623e-02 9.683698415756225586e-02
2.213000000000000000e+03 2.878742218017578125e+01 1.978008079528808594e+01 8.776226639747619629e-02 9.962581843137741089e-02 5.621642619371414185e-02 9.485354274511337280e-02
2.214000000000000000e+03 2.251087760925292969e+01 1.349942111968994141e+01 1.298907250165939331e-01 1.521292924880981445e-01 8.460600674152374268e-02 1.368602365255355835e-01
2.215000000000000000e+03 2.194393539428710938e+01 1.347668743133544922e+01 1.229200214147567749e-01 1.539978832006454468e-01 8.307537436485290527e-02 1.354237943887710571e-01
2.216000000000000000e+03 1.886127662658691406e+01 1.044561195373535156e+01 1.339508742094039917e-01 1.955949962139129639e-01 9.886375814676284790e-02 1.635988205671310425e-01
2.217000000000000000e+03 2.769158172607421875e+01 1.920346641540527344e+01 8.862807601690292358e-02 1.078951805830001831e-01 5.895697697997093201e-02 9.852068871259689331e-02
2.218000000000000000e+03 2.550254249572753906e+01 1.738774490356445312e+01 9.756595641374588013e-02 1.211739331483840942e-01 6.562196463346481323e-02 1.075633615255355835e-01
2.219000000000000000e+03 2.847739028930664062e+01 2.006654548645019531e+01 8.310171961784362793e-02 1.022370606660842896e-01 5.560163408517837524e-02 9.348305314779281616e-02
2.220000000000000000e+03 2.874626159667968750e+01 2.037313461303710938e+01 8.109578490257263184e-02 1.004276350140571594e-01 5.445702746510505676e-02 9.185652434825897217e-02
2.221000000000000000e+03 4.389313125610351562e+01 2.340562248229980469e+01 -1.474021673202514648e+00 -1.366906762123107910e+00 -8.522785305976867676e-01 -1.408763051033020020e+00
2.222000000000000000e+03 5.021597290039062500e+01 2.991470909118652344e+01 -1.373302578926086426e+00 -1.007712244987487793e+00 -7.143044471740722656e-01 -1.186214089393615723e+00
2.223000000000000000e+03 5.043498992919921875e+01 2.963463211059570312e+01 -1.381805419921875000e+00 -9.038605690002441406e-01 -6.856997609138488770e-01 -1.142094612121582031e+00
2.224000000000000000e+03 3.973678207397460938e+01 3.170060729980468750e+01 6.693070381879806519e-02 6.418274343013763428e-02 3.933403640985488892e-02 6.273349374532699585e-02
2.225000000000000000e+03 3.930686569213867188e+01 3.109210205078125000e+01 6.710319221019744873e-02 6.685271859169006348e-02 4.018677398562431335e-02 6.360825151205062866e-02
2.226000000000000000e+03 4.935300445556640625e+01 2.911271095275878906e+01 -1.458628177642822266e+00 -1.118248939514160156e+00 -7.730631232261657715e-01 -1.267308354377746582e+00
2.227000000000000000e+03 4.985551071166992188e+01 2.911345291137695312e+01 -1.423724293708801270e+00 -9.893222451210021973e-01 -7.239139676094055176e-01 -1.195675849914550781e+00
2.228000000000000000e+03 3.967687988281250000e+01 3.099460983276367188e+01 6.832239031791687012e-02 6.489169597625732422e-02 3.996422514319419861e-02 6.394214183092117310e-02
2.229000000000000000e+03 3.604725265502929688e+01 1.528888416290283203e+01 -1.287342190742492676e+00 -1.551317691802978516e+00 -8.515979647636413574e-01 -1.407258391380310059e+00
2.230000000000000000e+03 2.363407897949218750e+01 1.513815689086914062e+01 1.096964180469512939e-01 1.389527767896652222e-01 7.459475845098495483e-02 1.238385140895843506e-01
2.231000000000000000e+03 4.301857376098632812e+01 3.480859375000000000e+01 8.400941640138626099e-02 4.815061762928962708e-02 3.964801132678985596e-02 5.949228629469871521e-02
2.232000000000000000e+03 3.351995468139648438e+01 1.247254562377929688e+01 -1.353276133537292480e+00 -1.497877597808837891e+00 -8.553461432456970215e-01 -1.408618807792663574e+00
2.233000000000000000e+03 3.444143295288085938e+01 1.363073635101318359e+01 -1.364826679229736328e+00 -1.541385889053344727e+00 -8.718637824058532715e-01 -1.404672980308532715e+00
2.234000000000000000e+03 3.631608963012695312e+01 1.557906341552734375e+01 -1.284542322158813477e+00 -1.557591795921325684e+00 -8.526402711868286133e-01 -1.400951981544494629e+00
2.235000000000000000e+03 3.658606338500976562e+01 1.586983108520507812e+01 -1.279735088348388672e+00 -1.561097860336303711e+00 -8.522498607635498047e-01 -1.397397279739379883e+00
2.236000000000000000e+03 2.001117515563964844e+01 1.153108596801757812e+01 1.312225162982940674e-01 1.742654740810394287e-01 9.164639562368392944e-02 1.508016437292098999e-01
2.237000000000000000e+03 3.721543121337890625e+01 2.960580825805664062e+01 6.279881298542022705e-02 7.811152189970016479e-02 4.227310046553611755e-02 6.619036197662353516e-02
2.238000000000000000e+03 4.088952636718750000e+01 3.260501861572265625e+01 7.060457766056060791e-02 5.761500075459480286e-02 3.846587240695953369e-02 6.092481687664985657e-02
2.239000000000000000e+03 3.685829544067382812e+01 1.616066932678222656e+01 -1.277991652488708496e+00 -1.565283656120300293e+00 -8.529825806617736816e-01 -1.389790296554565430e+00
2.240000000000000000e+03 5.073549652099609375e+01 2.990126419067382812e+01 -1.358615994453430176e+00 -8.512275815010070801e-01 -6.629530787467956543e-01 -1.107671976089477539e+00
2.241000000000000000e+03 3.643105316162109375e+01 2.788239479064941406e+01 6.525841355323791504e-02 8.374117314815521240e-02 4.469987750053405762e-02 7.010379433631896973e-02
2.242000000000000000e+03 3.567547225952148438e+01 2.779864120483398438e+01 6.218908354640007019e-02 8.317369222640991211e-02 4.360883310437202454e-02 6.952071934938430786e-02
2.243000000000000000e+03 4.796624374389648438e+01 2.720632934570312500e+01 -1.425925016403198242e+00 -1.142684817314147949e+00 -7.705829739570617676e-01 -1.309201002120971680e+00
2.244000000000000000e+03 4.849951934814453125e+01 2.776691436767578125e+01 -1.441007971763610840e+00 -1.119448661804199219e+00 -7.681369781494140625e-01 -1.282208800315856934e+00
2.245000000000000000e+03 4.884296035766601562e+01 2.910416221618652344e+01 -1.507962942123413086e+00 -1.243957638740539551e+00 -8.255761861801147461e-01 -1.350971579551696777e+00
2.246000000000000000e+03 4.963686370849609375e+01 2.937969398498535156e+01 -1.434206843376159668e+00 -1.084305286407470703e+00 -7.555536031723022461e-01 -1.245405435562133789e+00
2.247000000000000000e+03 2.707992362976074219e+01 1.755380058288574219e+01 1.082050651311874390e-01 1.157754957675933838e-01 6.719417124986648560e-02 1.097894310951232910e-01
2.248000000000000000e+03 2.328190612792968750e+01 1.370465874671936035e+00 -2.713531494140625000e+00 -2.919249832630157471e-01 -9.016369581222534180e-01 -1.510797500610351562e+00
2.249000000000000000e+03 2.284640884399414062e+01 1.350951790809631348e+00 -2.996223688125610352e+00 -3.336805701255798340e-01 -9.989712834358215332e-01 -1.769494533538818359e+00
2.250000000000000000e+03 3.470133972167968750e+01 1.389223861694335938e+01 -1.361248254776000977e+00 -1.538233518600463867e+00 -8.698445558547973633e-01 -1.405807375907897949e+00
2.251000000000000000e+03 3.750452423095703125e+01 3.049437904357910156e+01 6.204265728592872620e-02 7.490965723991394043e-02 4.108569398522377014e-02 6.375877559185028076e-02
2.252000000000000000e+03 3.813058471679687500e+01 3.024788475036621094e+01 6.413608044385910034e-02 7.245233654975891113e-02 4.097652435302734375e-02 6.588552147150039673e-02
2.253000000000000000e+03 4.026496887207031250e+01 3.222698974609375000e+01 6.892557442188262939e-02 6.142966821789741516e-02 3.910657390952110291e-02 6.175936385989189148e-02
2.254000000000000000e+03 4.879304122924804688e+01 2.857291984558105469e+01 -1.484352111816406250e+00 -1.168839812278747559e+00 -7.959575653076171875e-01 -1.304177284240722656e+00
2.255000000000000000e+03 4.510504150390625000e+01 2.499319267272949219e+01 -1.552648305892944336e+00 -1.398748636245727539e+00 -8.854190707206726074e-01 -1.437195062637329102e+00
2.256000000000000000e+03 4.566723632812500000e+01 2.498332405090332031e+01 -1.486596822738647461e+00 -1.279456853866577148e+00 -8.298161029815673828e-01 -1.375742793083190918e+00
2.257000000000000000e+03 4.417970657348632812e+01 2.367281150817871094e+01 -1.485543012619018555e+00 -1.376215577125549316e+00 -8.585276007652282715e-01 -1.402659773826599121e+00
2.258000000000000000e+03 4.104061126708984375e+01 2.069750213623046875e+01 -1.243863105773925781e+00 -1.311155557632446289e+00 -7.665055990219116211e-01 -1.357958197593688965e+00
2.259000000000000000e+03 3.774990081787109375e+01 1.761929130554199219e+01 -1.285096168518066406e+00 -1.600012302398681641e+00 -8.655325770378112793e-01 -1.394801020622253418e+00
2.260000000000000000e+03 3.961590576171875000e+01 1.924690055847167969e+01 -1.185987710952758789e+00 -1.330366611480712891e+00 -7.549062967300415039e-01 -1.357480645179748535e+00
2.261000000000000000e+03 2.993021774291992188e+01 2.148267364501953125e+01 7.421234995126724243e-02 9.502916783094406128e-02 5.077245458960533142e-02 8.512384444475173950e-02
2.262000000000000000e+03 5.103878784179687500e+01 3.017486000061035156e+01 -1.335600137710571289e+00 -7.955368161201477051e-01 -6.393410563468933105e-01 -1.067448616027832031e+00
2.263000000000000000e+03 4.992433929443359375e+01 2.964674377441406250e+01 -1.405449509620666504e+00 -1.049197673797607422e+00 -7.363941073417663574e-01 -1.218158602714538574e+00
2.264000000000000000e+03 2.616657829284667969e+01 1.731986618041992188e+01 1.034834310412406921e-01 1.197304949164390564e-01 6.696417927742004395e-02 1.087681204080581665e-01
2.265000000000000000e+03 4.246821212768554688e+01 2.202967262268066406e+01 -1.412290453910827637e+00 -1.320664048194885254e+00 -8.198863863945007324e-01 -1.369467139244079590e+00
2.266000000000000000e+03 4.060186767578125000e+01 3.238728713989257812e+01 6.900584697723388672e-02 5.935186892747879028e-02 3.850731253623962402e-02 6.175554916262626648e-02
2.267000000000000000e+03 3.384731292724609375e+01 2.558997154235839844e+01 6.079434230923652649e-02 8.695635944604873657e-02 4.432521015405654907e-02 7.241012901067733765e-02
2.268000000000000000e+03 3.241630935668945312e+01 1.125804805755615234e+01 -1.423812150955200195e+00 -1.437626004219055176e+00 -8.584314584732055664e-01 -1.360584020614624023e+00
2.269000000000000000e+03 3.516636657714843750e+01 2.703450012207031250e+01 6.024451553821563721e-02 8.501929044723510742e-02 4.357914254069328308e-02 7.174428552389144897e-02
2.270000000000000000e+03 3.713399505615234375e+01 1.645110893249511719e+01 -1.273239731788635254e+00 -1.564609169960021973e+00 -8.513546586036682129e-01 -1.382918119430541992e+00
2.271000000000000000e+03 3.699599456787109375e+01 2.880437278747558594e+01 6.449044495820999146e-02 8.111082017421722412e-02 4.368037730455398560e-02 6.820216774940490723e-02
2.272000000000000000e+03 2.279710578918457031e+01 1.378082942962646484e+01 1.291765719652175903e-01 1.505949944257736206e-01 8.393146842718124390e-02 1.340263932943344116e-01
2.273000000000000000e+03 2.137734603881835938e+01 1.292846393585205078e+01 1.234725937247276306e-01 1.593905538320541382e-01 8.485894650220870972e-02 1.407574862241744995e-01
2.274000000000000000e+03 2.681392669677734375e+01 1.785261726379394531e+01 1.013118401169776917e-01 1.164446100592613220e-01 6.532693654298782349e-02 1.060432419180870056e-01
2.275000000000000000e+03 2.649424362182617188e+01 1.758889961242675781e+01 1.023624464869499207e-01 1.182376816868782043e-01 6.618003547191619873e-02 1.074602827429771423e-01
2.276000000000000000e+03 5.133860397338867188e+01 3.045719528198242188e+01 -1.311714053153991699e+00 -7.327815890312194824e-01 -6.133486628532409668e-01 -1.025607347488403320e+00
2.277000000000000000e+03 2.662871742248535156e+01 1.869793891906738281e+01 8.841355890035629272e-02 1.153933182358741760e-01 6.114206463098526001e-02 1.001096591353416443e-01
2.278000000000000000e+03 2.457616615295410156e+01 1.685943603515625000e+01 9.609618782997131348e-02 1.259880363941192627e-01 6.662526726722717285e-02 1.120356917381286621e-01
2.279000000000000000e+03 3.137498474121093750e+01 9.481102943420410156e+00 -1.366829633712768555e+00 -1.364604115486145020e+00 -8.194301128387451172e-01 -1.268629074096679688e+00
2.280000000000000000e+03 3.131660842895507812e+01 9.868079185485839844e+00 -1.380442261695861816e+00 -1.381210803985595703e+00 -8.284959197044372559e-01 -1.319722890853881836e+00
2.281000000000000000e+03 4.480710220336914062e+01 2.472463607788085938e+01 -1.567167043685913086e+00 -1.427960753440856934e+00 -8.985382914543151855e-01 -1.442374467849731445e+00
2.282000000000000000e+03 4.068777847290039062e+01 3.321294784545898438e+01 7.116171717643737793e-02 5.872756615281105042e-02 3.896678611636161804e-02 5.949908494949340820e-02
2.283000000000000000e+03 3.920554351806640625e+01 1.888728904724121094e+01 -1.200844049453735352e+00 -1.384678006172180176e+00 -7.756566405296325684e-01 -1.359497189521789551e+00
2.284000000000000000e+03 2.715638160705566406e+01 1.866662216186523438e+01 9.214228391647338867e-02 1.124341487884521484e-01 6.137292832136154175e-02 1.012528017163276672e-01
2.285000000000000000e+03 4.230281066894531250e+01 3.396155929565429688e+01 7.686918228864669800e-02 5.279730632901191711e-02 3.889994695782661438e-02 6.023976951837539673e-02
2.286000000000000000e+03 3.741466522216796875e+01 1.674094200134277344e+01 -1.270623564720153809e+00 -1.559618234634399414e+00 -8.490725159645080566e-01 -1.370964884757995605e+00
2.287000000000000000e+03 3.770207214355468750e+01 1.703047943115234375e+01 -1.265246748924255371e+00 -1.544296383857727051e+00 -8.428629636764526367e-01 -1.360668540000915527e+00
2.288000000000000000e+03 1.548099231719970703e+01 6.861588001251220703e+00 1.623765528202056885e-01 3.573217093944549561e-01 1.559094786643981934e-01 2.226220220327377319e-01
2.289000000000000000e+03 2.336717605590820312e+01 1.434059619903564453e+01 1.242767944931983948e-01 1.446577459573745728e-01 8.068036288022994995e-02 1.296640485525131226e-01
2.290000000000000000e+03 3.977971267700195312e+01 3.134547805786132812e+01 6.797517836093902588e-02 6.453840434551239014e-02 3.975407406687736511e-02 6.338012218475341797e-02
2.291000000000000000e+03 5.216717147827148438e+01 3.137392997741699219e+01 -1.221223473548889160e+00 -5.215194821357727051e-01 -5.228229165077209473e-01 -8.916738033294677734e-01
2.292000000000000000e+03 3.246329879760742188e+01 2.413280868530273438e+01 6.203559041023254395e-02 8.689782023429870605e-02 4.468002170324325562e-02 7.559459656476974487e-02
2.293000000000000000e+03 3.799763488769531250e+01 1.732057571411132812e+01 -1.260494470596313477e+00 -1.519542455673217773e+00 -8.340110182762145996e-01 -1.348877310752868652e+00
2.294000000000000000e+03 3.395668029785156250e+01 1.308614826202392578e+01 -1.354827404022216797e+00 -1.538644075393676758e+00 -8.680414557456970215e-01 -1.405349135398864746e+00
2.295000000000000000e+03 3.131775665283203125e+01 2.258142280578613281e+01 6.613297760486602783e-02 8.756900578737258911e-02 4.611059650778770447e-02 8.175084739923477173e-02
2.296000000000000000e+03 4.303858947753906250e+01 2.259046363830566406e+01 -1.445695161819458008e+00 -1.328890442848205566e+00 -8.323757052421569824e-01 -1.398758649826049805e+00
2.297000000000000000e+03 4.130081558227539062e+01 2.097479629516601562e+01 -1.274722456932067871e+00 -1.319531917572021484e+00 -7.782763242721557617e-01 -1.354736447334289551e+00
2.298000000000000000e+03 4.158514785766601562e+01 2.122773551940917969e+01 -1.313734531402587891e+00 -1.326563239097595215e+00 -7.920893430709838867e-01 -1.352150917053222656e+00
2.299000000000000000e+03 3.373619079589843750e+01 1.279010581970214844e+01 -1.356965541839599609e+00 -1.525196433067321777e+00 -8.646485805511474609e-01 -1.405333042144775391e+00
2.300000000000000000e+03 4.446834945678710938e+01 2.393828201293945312e+01 -1.496100306510925293e+00 -1.376831889152526855e+00 -8.618796467781066895e-01 -1.394497513771057129e+00
2.301000000000000000e+03 4.476049804687500000e+01 2.420211601257324219e+01 -1.504255652427673340e+00 -1.367013573646545410e+00 -8.613807559013366699e-01 -1.385763764381408691e+00
2.302000000000000000e+03 2.336025619506835938e+01 1.486090564727783203e+01 1.128571406006813049e-01 1.427692919969558716e-01 7.668793201446533203e-02 1.246855929493904114e-01
2.303000000000000000e+03 2.308355903625488281e+01 1.458415794372558594e+01 1.157467663288116455e-01 1.455516219139099121e-01 7.838951796293258667e-02 1.263112127780914307e-01
2.304000000000000000e+03 3.419160842895507812e+01 1.336518859863281250e+01 -1.366740107536315918e+00 -1.545044064521789551e+00 -8.735352754592895508e-01 -1.399563431739807129e+00
2.305000000000000000e+03 2.085262107849121094e+01 1.239109611511230469e+01 1.243122369050979614e-01 1.657228320837020874e-01 8.701051771640777588e-02 1.439188569784164429e-01
2.306000000000000000e+03 2.054627037048339844e+01 1.214197826385498047e+01 1.258523017168045044e-01 1.699117720127105713e-01 8.872922509908676147e-02 1.448780447244644165e-01
2.307000000000000000e+03 3.405480957031250000e+01 2.587108612060546875e+01 6.013407930731773376e-02 8.705992996692657471e-02 4.415820166468620300e-02 7.190786302089691162e-02
2.308000000000000000e+03 3.420462417602539062e+01 2.618177413940429688e+01 5.964837595820426941e-02 8.699339628219604492e-02 4.399253055453300476e-02 7.138087600469589233e-02
2.309000000000000000e+03 3.193314552307128906e+01 1.125247859954833984e+01 -1.474749326705932617e+00 -1.474628210067749023e+00 -8.848132491111755371e-01 -1.385736942291259766e+00
2.310000000000000000e+03 5.190776443481445312e+01 3.105695533752441406e+01 -1.255797147750854492e+00 -5.952219367027282715e-01 -5.553057193756103516e-01 -9.364022016525268555e-01
2.311000000000000000e+03 3.658977890014648438e+01 2.894410133361816406e+01 6.207555904984474182e-02 8.138020336627960205e-02 4.303672909736633301e-02 6.668553501367568970e-02
2.312000000000000000e+03 3.297390747070312500e+01 1.238893795013427734e+01 -1.405235648155212402e+00 -1.500600814819335938e+00 -8.717509508132934570e-01 -1.462578296661376953e+00
2.313000000000000000e+03 1.867276954650878906e+01 1.018577098846435547e+01 1.364814341068267822e-01 2.015407532453536987e-01 1.014066562056541443e-01 1.677758693695068359e-01
2.314000000000000000e+03 5.527025604248046875e+01 3.153651809692382812e+01 -1.476541042327880859e+00 1.620590835809707642e-01 -3.943445980548858643e-01 -8.165866136550903320e-01
2.315000000000000000e+03 5.261884307861328125e+01 3.206574630737304688e+01 -1.101169943809509277e+00 -4.007752835750579834e-01 -4.505835771560668945e-01 -8.072020411491394043e-01
2.316000000000000000e+03 1.740506935119628906e+01 9.110836029052734375e+00 1.482807546854019165e-01 2.340608537197113037e-01 1.147024780511856079e-01 1.784331798553466797e-01
2.317000000000000000e+03 1.536117744445800781e+01 6.370343208312988281e+00 1.889874488115310669e-01 3.728323876857757568e-01 1.685459613800048828e-01 2.448094636201858521e-01
2.318000000000000000e+03 1.453795051574707031e+01 7.033643722534179688e+00 1.132689863443374634e-01 4.165428578853607178e-01 1.589435487985610962e-01 1.649437248706817627e-01
2.319000000000000000e+03 3.171432685852050781e+01 9.983279228210449219e+00 -1.380753397941589355e+00 -1.393130064010620117e+00 -8.321650624275207520e-01 -1.294022560119628906e+00
2.320000000000000000e+03 1.839228248596191406e+01 9.990597724914550781e+00 1.388213038444519043e-01 2.105302065610885620e-01 1.048054546117782593e-01 1.673646271228790283e-01
2.321000000000000000e+03 1.806913375854492188e+01 9.796952247619628906e+00 1.388294994831085205e-01 2.152208536863327026e-01 1.062151044607162476e-01 1.678269356489181519e-01
2.322000000000000000e+03 3.893166732788085938e+01 3.107727432250976562e+01 6.588937342166900635e-02 6.788031756877899170e-02 4.013090953230857849e-02 6.335452198982238770e-02
2.323000000000000000e+03 1.359230899810791016e+01 5.276916503906250000e+00 9.817056357860565186e-02 7.475935220718383789e-01 2.537292242050170898e-01 1.045437157154083252e-01
2.324000000000000000e+03 1.399153900146484375e+01 5.119115352630615234e+00 1.303822249174118042e-01 7.633044123649597168e-01 2.681059837341308594e-01 2.064826637506484985e-01
2.325000000000000000e+03 1.601524925231933594e+01 7.319519042968750000e+00 1.586329042911529541e-01 3.128750324249267578e-01 1.414523869752883911e-01 2.150215208530426025e-01
2.326000000000000000e+03 1.523590564727783203e+01 6.708272457122802734e+00 1.566082835197448730e-01 3.926113545894622803e-01 1.647658944129943848e-01 2.189145386219024658e-01
2.327000000000000000e+03 7.450273895263671875e+01 3.650146484375000000e+01 -1.366105198860168457e+00 1.659764671325683594e+01 4.569462299346923828e+00 -7.008865475654602051e-02
2.328000000000000000e+03 7.739204406738281250e+01 3.759450531005859375e+01 -4.802429974079132080e-01 1.170333194732666016e+01 3.366926431655883789e+00 2.021517515182495117e+00
2.329000000000000000e+03 9.714782714843750000e+00 3.542220830917358398e+00 2.748994231224060059e-01 -2.505125105381011963e-01 7.316076196730136871e-03 1.386075019836425781e-01
2.330000000000000000e+03 1.320763587951660156e+01 4.094103813171386719e+00 2.407332509756088257e-01 1.094367742538452148e+00 4.005303084850311279e-01 -1.220485493540763855e-01
2.331000000000000000e+03 1.214410781860351562e+01 2.869355440139770508e+00 7.828454971313476562e-01 1.402122378349304199e-01 2.769173085689544678e-01 -2.667186260223388672e-01
2.332000000000000000e+03 3.118297958374023438e+01 5.732967853546142578e+00 -1.670912384986877441e+00 -9.612673521041870117e-01 -7.896539568901062012e-01 -1.042009949684143066e+00
2.333000000000000000e+03 7.273647308349609375e+01 3.591322708129882812e+01 9.964196681976318359e-01 9.587733268737792969e+00 3.175246000289916992e+00 -5.575872898101806641e+00
2.334000000000000000e+03 1.152699851989746094e+01 2.631224632263183594e+00 6.416124701499938965e-01 -2.414806187152862549e-01 1.200395524501800537e-01 1.902606710791587830e-02
2.335000000000000000e+03 1.706169700622558594e+01 -3.241773366928100586e+00 -1.396253705024719238e+00 -1.445267558097839355e+00 -8.524563908576965332e-01 -1.209624886512756348e+00
2.336000000000000000e+03 3.195187759399414062e+01 1.055710887908935547e+01 -1.407682657241821289e+00 -1.440455913543701172e+00 -8.544415831565856934e-01 -1.324332356452941895e+00
2.337000000000000000e+03 3.076580429077148438e+01 9.282052040100097656e+00 -1.405575156211853027e+00 -1.349246144294738770e+00 -8.264464139938354492e-01 -1.271717905998229980e+00
2.338000000000000000e+03 6.830187225341796875e+01 2.974048423767089844e+01 -6.791822910308837891e-01 1.333790898323059082e+00 1.963825970888137817e-01 1.134335994720458984e+00
2.339000000000000000e+03 4.643920898437500000e+01 3.681200408935546875e+01 1.311378180980682373e-01 4.006673768162727356e-02 5.136137083172798157e-02 6.641215831041336060e-02
2.340000000000000000e+03 5.699556350708007812e+01 3.885116577148437500e+01 2.338619083166122437e-01 -1.840441673994064331e-01 1.494532171636819839e-02 1.526948809623718262e-01
2.341000000000000000e+03 6.893982696533203125e+01 3.044977569580078125e+01 -8.583792448043823242e-01 1.292325735092163086e+00 1.301839500665664673e-01 1.312563061714172363e+00
2.342000000000000000e+03 1.033018207550048828e+01 -4.455979347229003906e+00 -4.685990214347839355e-01 -1.371956169605255127e-01 -1.817383915185928345e-01 -3.880240321159362793e-01
2.343000000000000000e+03 1.035917472839355469e+01 -5.237697124481201172e+00 -4.548502266407012939e-01 -1.550460159778594971e-01 -1.829688698053359985e-01 -4.462184309959411621e-01
2.344000000000000000e+03 3.174004936218261719e+01 6.659620285034179688e+00 -1.413528561592102051e+00 -1.086475491523742676e+00 -7.500011920928955078e-01 -1.138600945472717285e+00
2.345000000000000000e+03 2.941123008728027344e+01 5.082383632659912109e+00 -2.200923204421997070e+00 -1.251425027847290039e+00 -1.035704493522644043e+00 -1.072755336761474609e+00
2.346000000000000000e+03 2.888611793518066406e+01 4.633582592010498047e+00 -2.238113164901733398e+00 -1.229797959327697754e+00 -1.040373325347900391e+00 -1.064885616302490234e+00
2.347000000000000000e+03 2.100363159179687500e+01 2.629861608147621155e-02 -1.915617346763610840e+00 -1.273585200309753418e+00 -9.567607641220092773e-01 -3.372895002365112305e+00
2.348000000000000000e+03 2.214529037475585938e+01 -4.450526461005210876e-02 -1.435670375823974609e+00 8.930934071540832520e-01 -1.627731025218963623e-01 -1.880349993705749512e+00
2.349000000000000000e+03 6.828924560546875000e+01 3.037747383117675781e+01 -1.046138763427734375e+00 9.388776421546936035e-01 -3.217835351824760437e-02 9.240353107452392578e-01
2.350000000000000000e+03 5.136947250366210938e+01 3.953963851928710938e+01 2.727583050727844238e-01 2.576017193496227264e-02 8.955553919076919556e-02 2.657330222427845001e-02
2.351000000000000000e+03 5.012718582153320312e+01 3.907861709594726562e+01 2.205638438463211060e-01 1.450625713914632797e-02 7.052103430032730103e-02 4.654128849506378174e-02
2.352000000000000000e+03 7.166452789306640625e+01 3.166964340209960938e+01 -1.103449426591396332e-02 4.211658477783203125e+00 1.260187149047851562e+00 4.041352272033691406e+00
2.353000000000000000e+03 7.022471618652343750e+01 3.061946678161621094e+01 -4.638754427433013916e-01 2.480211019515991211e+00 6.049007177352905273e-01 2.366391420364379883e+00
2.354000000000000000e+03 1.108339977264404297e+01 -4.517755031585693359e+00 -5.442511439323425293e-01 -1.253923326730728149e-01 -2.008930444717407227e-01 -4.410648941993713379e-01
2.355000000000000000e+03 8.845980644226074219e+00 -4.404997348785400391e+00 -3.437626659870147705e-01 -1.056455820798873901e-01 -1.348224729299545288e-01 -2.938479483127593994e-01
2.356000000000000000e+03 7.571072101593017578e+00 3.643562316894531250e+00 4.371321573853492737e-02 -1.862162053585052490e-01 -4.275089502334594727e-02 2.234434634447097778e-01
2.357000000000000000e+03 7.358760356903076172e+00 3.017917394638061523e+00 -5.065903812646865845e-02 -1.466152518987655640e-01 -5.918228626251220703e-02 2.363561540842056274e-01
2.358000000000000000e+03 5.245550155639648438e+01 4.012435531616210938e+01 2.353796064853668213e-01 4.237508028745651245e-02 8.332640677690505981e-02 3.794422745704650879e-02
2.359000000000000000e+03 9.588723182678222656e+00 -4.417902946472167969e+00 -4.110806286334991455e-01 -8.689919859170913696e-02 -1.493939459323883057e-01 -3.304952383041381836e-01
2.360000000000000000e+03 7.014262676239013672e+00 4.449610710144042969e+00 8.270397782325744629e-02 -1.659969538450241089e-01 -2.498789131641387939e-02 1.710789203643798828e-01
2.361000000000000000e+03 6.899489879608154297e+00 3.807848930358886719e+00 2.844309806823730469e-02 -1.513441652059555054e-01 -3.687031939625740051e-02 1.955416649580001831e-01
2.362000000000000000e+03 4.916222572326660156e+00 4.270320415496826172e+00 5.088394973427057266e-03 -1.116719022393226624e-01 -3.197505325078964233e-02 1.442661583423614502e-01
2.363000000000000000e+03 8.376290321350097656e+00 3.195730924606323242e+00 3.752716258168220520e-02 -2.184355854988098145e-01 -5.427252501249313354e-02 2.582789063453674316e-01
2.364000000000000000e+03 3.351939916610717773e+00 6.720720767974853516e+00 3.119844384491443634e-02 -1.383809298276901245e-01 -3.215474635362625122e-02 7.852850854396820068e-02
2.365000000000000000e+03 4.618078708648681641e+00 3.548358917236328125e+00 -3.049729578197002411e-02 -8.438223600387573242e-02 -3.446386009454727173e-02 1.398515850305557251e-01
2.366000000000000000e+03 2.337544679641723633e+00 5.293355464935302734e+00 7.158834021538496017e-03 -1.172232776880264282e-01 -3.301933407783508301e-02 7.681110501289367676e-02
2.367000000000000000e+03 3.948970556259155273e+00 3.757523536682128906e+00 -2.056190744042396545e-02 -8.588668704032897949e-02 -3.193457797169685364e-02 1.212576031684875488e-01
2.368000000000000000e+03 4.594149112701416016e+00 5.180322170257568359e+00 2.888113446533679962e-02 -1.238540261983871460e-01 -2.849186770617961884e-02 1.222414299845695496e-01
2.369000000000000000e+03 3.079125404357910156e+00 5.197008609771728516e+00 1.175821013748645782e-02 -1.170456632971763611e-01 -3.158623725175857544e-02 9.485195577144622803e-02
2.370000000000000000e+03 3.285404920578002930e+00 4.035052299499511719e+00 -1.131564937531948090e-02 -8.649211376905441284e-02 -2.934232912957668304e-02 1.026480719447135925e-01
2.371000000000000000e+03 1.411083459854125977e+00 5.114845275878906250e+00 1.985806971788406372e-03 -1.162524372339248657e-01 -3.427998721599578857e-02 5.219168215990066528e-02
2.372000000000000000e+03 5.445391464233398438e+01 3.235405349731445312e+01 -1.279927372932434082e+00 6.748415529727935791e-02 -3.637329638004302979e-01 -7.138034701347351074e-01
2.373000000000000000e+03 1.203955936431884766e+01 3.659645080566406250e+00 5.571724772453308105e-01 2.679105103015899658e-01 2.475249022245407104e-01 -2.777643501758575439e-01
2.374000000000000000e+03 5.346251678466796875e+01 3.183834266662597656e+01 -1.243649125099182129e+00 -1.151040792465209961e-01 -4.076259732246398926e-01 -7.951807975769042969e-01
2.375000000000000000e+03 5.947529602050781250e+01 3.100089454650878906e+01 -1.899299025535583496e+00 2.173598855733871460e-01 -5.045817494392395020e-01 -7.491404414176940918e-01
2.376000000000000000e+03 6.248201751708984375e+01 2.986733055114746094e+01 -1.634498715400695801e+00 2.472219765186309814e-01 -4.161830246448516846e-01 -5.673979520797729492e-01
2.377000000000000000e+03 6.173591613769531250e+01 3.125869560241699219e+01 -2.265266180038452148e+00 1.234885528683662415e-01 -6.425333023071289062e-01 -5.752798914909362793e-01
2.378000000000000000e+03 6.172485733032226562e+01 3.060452842712402344e+01 -1.961353540420532227e+00 1.695172339677810669e-01 -5.375509262084960938e-01 -6.364036798477172852e-01
2.379000000000000000e+03 6.475518798828125000e+01 3.102463722229003906e+01 -2.283541202545166016e+00 1.275010108947753906e-01 -6.468120217323303223e-01 -3.032983839511871338e-01
2.380000000000000000e+03 6.623336791992187500e+01 3.096562767028808594e+01 -2.090639114379882812e+00 2.139463126659393311e-01 -5.630078315734863281e-01 -2.857579290866851807e-02
2.381000000000000000e+03 1.091360569000244141e+01 2.735449314117431641e+00 4.211744666099548340e-01 -3.683353960514068604e-01 1.585172675549983978e-02 2.025548517704010010e-01
2.382000000000000000e+03 1.092454242706298828e+01 3.461737632751464844e+00 4.813205301761627197e-01 -1.526824086904525757e-01 9.859143197536468506e-02 -3.303503617644309998e-02
2.383000000000000000e+03 3.040194129943847656e+01 9.622783660888671875e+00 -1.503648519515991211e+00 -1.313651680946350098e+00 -8.451900482177734375e-01 -1.307251691818237305e+00
2.384000000000000000e+03 5.826632690429687500e+01 3.109101104736328125e+01 -1.798321366310119629e+00 2.329023927450180054e-01 -4.696256816387176514e-01 -7.935569286346435547e-01
2.385000000000000000e+03 6.324461746215820312e+01 3.046944808959960938e+01 -1.935722947120666504e+00 1.762320697307586670e-01 -5.278472304344177246e-01 -4.859102070331573486e-01
2.386000000000000000e+03 6.473825836181640625e+01 3.037001609802246094e+01 -1.808945894241333008e+00 2.276156991720199585e-01 -4.743990600109100342e-01 -2.657032012939453125e-01
2.387000000000000000e+03 5.714602279663085938e+01 3.025205230712890625e+01 -1.585562467575073242e+00 2.595326602458953857e-01 -3.978089392185211182e-01 -8.998391032218933105e-01
2.388000000000000000e+03 6.017042922973632812e+01 3.079613494873046875e+01 -1.914451599121093750e+00 1.982613950967788696e-01 -5.148570537567138672e-01 -7.308897972106933594e-01
2.389000000000000000e+03 6.095671463012695312e+01 3.069285964965820312e+01 -1.941673636436462402e+00 1.851381510496139526e-01 -5.269606113433837891e-01 -6.844338774681091309e-01
2.390000000000000000e+03 4.880309295654296875e+01 3.930490493774414062e+01 1.863718926906585693e-01 2.708249539136886597e-02 6.403631716966629028e-02 4.344706982374191284e-02
2.391000000000000000e+03 6.548039245605468750e+01 3.033385658264160156e+01 -1.695578932762145996e+00 2.944416999816894531e-01 -4.203411638736724854e-01 -1.087381020188331604e-01
2.392000000000000000e+03 6.621219635009765625e+01 3.030985260009765625e+01 -1.564371109008789062e+00 3.888919055461883545e-01 -3.526437580585479736e-01 8.741050958633422852e-02
2.393000000000000000e+03 5.593573760986328125e+01 3.168671607971191406e+01 -1.547140598297119141e+00 2.038372606039047241e-01 -4.029910266399383545e-01 -7.932201027870178223e-01
2.394000000000000000e+03 5.620223617553710938e+01 3.087869644165039062e+01 -1.573404550552368164e+00 2.236999273300170898e-01 -4.049113690853118896e-01 -8.741248846054077148e-01
2.395000000000000000e+03 5.292479705810546875e+01 3.180547523498535156e+01 -1.188029050827026367e+00 -2.791679501533508301e-01 -4.401591122150421143e-01 -8.139155507087707520e-01
2.396000000000000000e+03 5.459614944458007812e+01 3.194107246398925781e+01 -1.380548596382141113e+00 8.851917833089828491e-02 -3.876088261604309082e-01 -7.890529036521911621e-01
2.397000000000000000e+03 5.016134262084960938e+00 -4.673811912536621094e+00 -1.255821585655212402e-01 -9.082609415054321289e-02 -6.492247432470321655e-02 -1.392782628536224365e-01
2.398000000000000000e+03 5.795726299285888672e+00 -4.584822654724121094e+00 -1.552241295576095581e-01 -9.826017916202545166e-02 -7.604528963565826416e-02 -1.647359728813171387e-01
2.399000000000000000e+03 6.574223995208740234e+00 -4.505526542663574219e+00 -2.006577700376510620e-01 -8.735541999340057373e-02 -8.640395849943161011e-02 -1.938504576683044434e-01
2.400000000000000000e+03 8.014580726623535156e+00 -3.587383270263671875e+00 -2.692747116088867188e-01 -6.296249479055404663e-02 -9.967115521430969238e-02 -1.942896097898483276e-01
2.401000000000000000e+03 7.343906879425048828e+00 -4.447864532470703125e+00 -2.412303835153579712e-01 -9.735745936632156372e-02 -1.015763506293296814e-01 -2.240028530359268188e-01
2.402000000000000000e+03 2.686747312545776367e+00 -4.776481151580810547e+00 -3.835049271583557129e-02 -7.640404999256134033e-02 -3.442636504769325256e-02 -6.514146924018859863e-02
2.403000000000000000e+03 3.513474464416503906e+00 -5.770025730133056641e+00 -6.726037710905075073e-02 -1.249224618077278137e-01 -5.765485018491744995e-02 -1.230616569519042969e-01
2.404000000000000000e+03 2.598832845687866211e+00 -5.682116031646728516e+00 -4.487307742238044739e-02 -9.934920072555541992e-02 -4.326668381690979004e-02 -8.535445481538772583e-02
2.405000000000000000e+03 1.818806266784667969e+01 -3.889028310775756836e+00 -7.892679572105407715e-01 -2.697183609008789062e+00 -1.045935511589050293e+00 -1.133740544319152832e+00
2.406000000000000000e+03 1.659583282470703125e+01 -3.529980897903442383e+00 -1.366235256195068359e+00 -1.174540400505065918e+00 -7.622326612472534180e-01 -1.168106913566589355e+00
2.407000000000000000e+03 4.423226165771484375e+01 3.614468002319335938e+01 9.944981336593627930e-02 4.365913569927215576e-02 4.293268546462059021e-02 5.979766324162483215e-02
2.408000000000000000e+03 4.471127319335937500e+01 3.580844116210937500e+01 9.815306961536407471e-02 4.482233896851539612e-02 4.289262369275093079e-02 6.327199190855026245e-02
2.409000000000000000e+03 8.198431968688964844e+00 3.649327516555786133e+00 9.490823000669479370e-02 -2.136920541524887085e-01 -3.563515096902847290e-02 2.174963951110839844e-01
2.410000000000000000e+03 6.963865661621093750e+01 3.668470001220703125e+01 5.083987712860107422e-01 1.223884701728820801e+00 5.196850299835205078e-01 -8.311917185783386230e-01
2.411000000000000000e+03 6.874468231201171875e+01 3.948010635375976562e+01 9.590047597885131836e-01 2.270320177078247070e+00 9.687975049018859863e-01 -5.225530266761779785e-01
2.412000000000000000e+03 4.780946731567382812e+01 3.805818939208984375e+01 1.561772674322128296e-01 4.319906607270240784e-02 5.981289967894554138e-02 5.709690973162651062e-02
2.413000000000000000e+03 1.539729595184326172e+01 -6.004099845886230469e+00 -5.106485486030578613e-01 -9.147535562515258789e-01 -4.276206195354461670e-01 -9.250693321228027344e-01
2.414000000000000000e+03 4.743076705932617188e+01 3.752065658569335938e+01 1.543288379907608032e-01 4.553483799099922180e-02 5.995910242199897766e-02 6.087872013449668884e-02
2.415000000000000000e+03 4.789937591552734375e+01 3.701330566406250000e+01 1.680217385292053223e-01 5.397444963455200195e-02 6.659885495901107788e-02 8.255695551633834839e-02
2.416000000000000000e+03 1.185929489135742188e+01 -4.603313922882080078e+00 -6.203134059906005859e-01 -2.161629945039749146e-01 -2.509429156780242920e-01 -5.284447669982910156e-01
2.417000000000000000e+03 1.266417694091796875e+01 -4.706967830657958984e+00 -6.853495836257934570e-01 -2.458634823560714722e-01 -2.793639302253723145e-01 -6.123710870742797852e-01
2.418000000000000000e+03 5.090619277954101562e+01 3.911595535278320312e+01 2.527927756309509277e-01 1.304197311401367188e-02 7.975042611360549927e-02 4.538198560476303101e-02
2.419000000000000000e+03 4.982699584960937500e+01 3.995385742187500000e+01 2.212320119142532349e-01 2.356075309216976166e-02 7.343783229589462280e-02 2.347038686275482178e-02
2.420000000000000000e+03 5.841114425659179688e+01 3.872073364257812500e+01 2.042125016450881958e-01 -2.026029676198959351e-01 4.828578094020485878e-04 2.422498017549514771e-01
2.421000000000000000e+03 5.656428909301757812e+01 3.998125076293945312e+01 2.847260832786560059e-01 -2.718874514102935791e-01 3.851589746773242950e-03 7.795300334692001343e-02
2.422000000000000000e+03 1.624469184875488281e+01 -4.667026519775390625e+00 -9.314398765563964844e-01 -1.197483897209167480e+00 -6.386771202087402344e-01 -1.079660058021545410e+00
2.423000000000000000e+03 1.514992904663085938e+01 -3.955236196517944336e+00 -1.087975025177001953e+00 -6.327616572380065918e-01 -5.162209868431091309e-01 -8.753107190132141113e-01
2.424000000000000000e+03 1.699299049377441406e+01 -4.184177875518798828e+00 -9.994792342185974121e-01 -1.644486069679260254e+00 -7.931895852088928223e-01 -1.192995309829711914e+00
2.425000000000000000e+03 2.672990417480468750e+01 -2.592447757720947266e+00 1.005626201629638672e+00 -4.863644763827323914e-02 2.870969176292419434e-01 -5.028913617134094238e-01
2.426000000000000000e+03 7.136744689941406250e+01 3.643212127685546875e+01 1.372326493263244629e+00 3.585985660552978516e+00 1.487493634223937988e+00 -2.785931825637817383e+00
2.427000000000000000e+03 7.687989044189453125e+01 3.406713867187500000e+01 3.182790279388427734e+00 1.187348556518554688e+01 4.516882896423339844e+00 4.272866994142532349e-02
2.428000000000000000e+03 2.612462425231933594e+01 -1.773499727249145508e+00 8.089749217033386230e-01 7.744855433702468872e-02 2.659270465373992920e-01 -5.185528993606567383e-01
2.429000000000000000e+03 7.557156372070312500e+01 3.287073516845703125e+01 3.687577724456787109e+00 1.598410511016845703e+01 5.901504993438720703e+00 -2.487944126129150391e+00
2.430000000000000000e+03 1.969682884216308594e+01 -1.597348499298095703e+01 2.446954399347305298e-01 -1.351179927587509155e-01 3.287323191761970520e-02 -2.598572969436645508e-01
2.431000000000000000e+03 2.101854133605957031e+01 -1.824810600280761719e+01 2.269937396049499512e-01 5.387837812304496765e-02 8.426163345575332642e-02 -2.774683535099029541e-01
2.432000000000000000e+03 2.233641433715820312e+01 -2.037399482727050781e+01 2.199431657791137695e-01 1.985415965318679810e-01 1.255454272031784058e-01 -3.039203584194183350e-01
2.433000000000000000e+03 3.678102111816406250e+01 -1.293334102630615234e+01 3.228692114353179932e-01 -4.179388284683227539e-01 -2.852088399231433868e-02 -5.888780113309621811e-03
2.434000000000000000e+03 3.501260375976562500e+01 -1.073855400085449219e+01 4.548550844192504883e-01 -4.362464249134063721e-01 5.582604091614484787e-03 -8.813760429620742798e-02
2.435000000000000000e+03 3.644144058227539062e+01 -1.497063350677490234e+01 1.473181992769241333e-01 -4.559123814105987549e-01 -9.257826209068298340e-02 8.625533431768417358e-02
2.436000000000000000e+03 3.759569549560546875e+01 -1.413098335266113281e+01 2.376877218484878540e-01 -3.989553451538085938e-01 -4.838028177618980408e-02 2.101112715899944305e-02
2.437000000000000000e+03 3.418392562866210938e+01 -9.673726081848144531e+00 4.956821203231811523e-01 -4.326895773410797119e-01 1.889776811003684998e-02 -1.421111077070236206e-01
2.438000000000000000e+03 2.752210617065429688e+01 -1.901671886444091797e+00 6.326305866241455078e-01 -2.987593710422515869e-01 1.001613587141036987e-01 -3.090724050998687744e-01
2.439000000000000000e+03 3.340946960449218750e+01 -8.611775398254394531e+00 6.294881701469421387e-01 -4.273321628570556641e-01 6.064679846167564392e-02 -1.768911778926849365e-01
2.440000000000000000e+03 3.248450469970703125e+01 -9.330741882324218750e+00 4.837264716625213623e-01 -3.051690161228179932e-01 5.356724187731742859e-02 -2.163734883069992065e-01
2.441000000000000000e+03 2.294872665405273438e+01 -2.132023048400878906e+01 1.993047893047332764e-01 2.410953342914581299e-01 1.321200430393218994e-01 -3.232774734497070312e-01
2.442000000000000000e+03 4.095539474487304688e+01 -2.038879776000976562e+01 -7.588143344037234783e-04 -2.223768383264541626e-01 -6.694069504737854004e-02 1.755856275558471680e-01
2.443000000000000000e+03 2.318245887756347656e+01 -2.229246139526367188e+01 2.354329079389572144e-01 2.679272294044494629e-01 1.510080397129058838e-01 -3.182696402072906494e-01
2.444000000000000000e+03 4.489944076538085938e+01 -2.714425468444824219e+01 -1.542172282934188843e-01 2.569396793842315674e-01 3.081673756241798401e-02 1.878215819597244263e-01
2.445000000000000000e+03 4.226705932617187500e+01 -2.274907302856445312e+01 -6.460098922252655029e-02 -1.118971481919288635e-01 -5.294943973422050476e-02 1.946276873350143433e-01
2.446000000000000000e+03 2.173071098327636719e+01 -2.281373786926269531e+01 2.426386624574661255e-01 1.050994992256164551e-01 1.043214499950408936e-01 -3.177020251750946045e-01
2.447000000000000000e+03 2.451117706298828125e+01 -2.363723182678222656e+01 2.373049855232238770e-01 3.800131976604461670e-01 1.851954460144042969e-01 -3.325952291488647461e-01
2.448000000000000000e+03 4.290415954589843750e+01 -2.390348434448242188e+01 -1.027019768953323364e-01 -6.489122658967971802e-02 -5.027795955538749695e-02 1.949382871389389038e-01
2.449000000000000000e+03 4.183140563964843750e+01 -2.461298751831054688e+01 -1.473197489976882935e-01 -2.617679834365844727e-01 -1.227263212203979492e-01 2.621620297431945801e-01
2.450000000000000000e+03 3.898197937011718750e+01 -1.669062995910644531e+01 1.150167733430862427e-01 -3.392041623592376709e-01 -6.725621223449707031e-02 9.169576317071914673e-02
2.451000000000000000e+03 2.580198478698730469e+01 -2.654211997985839844e+01 2.658649981021881104e-01 4.779384434223175049e-01 2.231410443782806396e-01 -3.684286773204803467e-01
2.452000000000000000e+03 2.751669311523437500e+01 -2.686256885528564453e+00 1.002942442893981934e+00 -6.935285776853561401e-02 2.800768613815307617e-01 -3.762367069721221924e-01
2.453000000000000000e+03 7.551327514648437500e+01 1.278250980377197266e+01 8.603322505950927734e-02 7.475064277648925781e+00 2.268329143524169922e+00 6.779460906982421875e-01
2.454000000000000000e+03 7.531546783447265625e+01 -1.361077547073364258e+00 4.218849912285804749e-02 6.291705131530761719e+00 1.900168061256408691e+00 3.238506317138671875e-01
2.455000000000000000e+03 7.555482482910156250e+01 5.653347015380859375e+00 6.335736811161041260e-02 6.824226379394531250e+00 2.066275119781494141e+00 4.527362883090972900e-01
2.456000000000000000e+03 7.670961761474609375e+01 1.439718961715698242e+00 2.600725740194320679e-02 6.793914794921875000e+00 2.045976638793945312e+00 2.737065255641937256e-01
2.457000000000000000e+03 7.412985992431640625e+01 -2.880751609802246094e+00 6.027127057313919067e-02 5.928628444671630859e+00 1.796669960021972656e+00 3.539677858352661133e-01
2.458000000000000000e+03 7.572551727294921875e+01 -9.385399818420410156e+00 2.084175124764442444e-02 5.970377445220947266e+00 1.797365784645080566e+00 1.927381902933120728e-01
2.459000000000000000e+03 7.458039855957031250e+01 -9.246617317199707031e+00 3.434001281857490540e-02 5.759901046752929688e+00 1.738272309303283691e+00 2.385259568691253662e-01
2.460000000000000000e+03 7.548671722412109375e+01 -1.634685897827148438e+01 1.234081666916608810e-02 5.684781074523925781e+00 1.709136486053466797e+00 1.488601714372634888e-01
2.461000000000000000e+03 7.676131439208984375e+01 8.452763557434082031e+00 4.181253165006637573e-02 7.456127643585205078e+00 2.249382019042968750e+00 4.058558940887451172e-01
2.462000000000000000e+03 7.675368499755859375e+01 2.845069885253906250e+00 2.743311785161495209e-02 6.912166595458984375e+00 2.081880092620849609e+00 2.927936613559722900e-01
2.463000000000000000e+03 7.538394165039062500e+01 1.471817612648010254e+00 4.845151677727699280e-02 6.466803550720214844e+00 1.954576611518859863e+00 3.689234852790832520e-01
2.464000000000000000e+03 7.569645690917968750e+01 -5.456957817077636719e+00 3.126241639256477356e-02 6.142140388488769531e+00 1.852020859718322754e+00 2.393236458301544189e-01
2.465000000000000000e+03 7.690590667724609375e+01 -5.451616287231445312e+00 1.653645560145378113e-02 6.382111072540283203e+00 1.919594287872314453e+00 1.769188344478607178e-01
2.466000000000000000e+03 7.576927947998046875e+01 -6.766199111938476562e+00 2.722162567079067230e-02 6.093862533569335938e+00 1.836325287818908691e+00 2.189440876245498657e-01
2.467000000000000000e+03 7.545203399658203125e+01 9.887487411499023438e+00 8.098581433296203613e-02 7.171497344970703125e+00 2.175745010375976562e+00 5.771152973175048828e-01
2.468000000000000000e+03 7.423463439941406250e+01 -1.640395164489746094e+01 2.159419469535350800e-02 5.473205566406250000e+00 1.648439884185791016e+00 1.799715906381607056e-01
2.469000000000000000e+03 7.566767120361328125e+01 -2.297664642333984375e+01 7.308839820325374603e-03 5.542371273040771484e+00 1.664903998374938965e+00 1.100759953260421753e-01
2.470000000000000000e+03 7.546752166748046875e+01 -1.210962772369384766e+01 1.670629903674125671e-02 5.817266941070556641e+00 1.750191926956176758e+00 1.743849962949752808e-01
2.471000000000000000e+03 7.677944183349609375e+01 -1.225691413879394531e+01 9.666382335126399994e-03 6.049436569213867188e+00 1.817730903625488281e+00 1.265636384487152100e-01
2.472000000000000000e+03 7.535295104980468750e+01 -1.352081584930419922e+01 2.010979130864143372e-02 5.759887218475341797e+00 1.733999133110046387e+00 1.662447899580001831e-01
2.473000000000000000e+03 7.546212768554687500e+01 8.458184242248535156e+00 7.587798684835433960e-02 7.047603607177734375e+00 2.137044429779052734e+00 5.383314490318298340e-01
2.474000000000000000e+03 7.548983764648437500e+01 1.133202171325683594e+01 8.527134358882904053e-02 7.311202526092529297e+00 2.218942165374755859e+00 6.228856444358825684e-01
2.475000000000000000e+03 7.587127685546875000e+01 1.846343994140625000e+01 4.158656671643257141e-02 8.360462188720703125e+00 2.520614624023437500e+00 8.112832903861999512e-01
2.476000000000000000e+03 7.687012481689453125e+01 1.553860569000244141e+01 4.867185652256011963e-02 8.425107002258300781e+00 2.542133569717407227e+00 5.849246382713317871e-01
2.477000000000000000e+03 7.564747619628906250e+01 -1.908882331848144531e+01 8.421632461249828339e-03 5.634267807006835938e+00 1.692806839942932129e+00 1.245412677526473999e-01
2.478000000000000000e+03 7.687415313720703125e+01 -1.917776679992675781e+01 5.198501516133546829e-03 5.831252574920654297e+00 1.750935316085815430e+00 9.230677038431167603e-02
2.479000000000000000e+03 7.563693237304687500e+01 -2.042568397521972656e+01 1.223708875477313995e-02 5.604497909545898438e+00 1.685020565986633301e+00 1.192144006490707397e-01
2.480000000000000000e+03 7.434530639648437500e+01 -2.956958198547363281e+01 1.417153421789407730e-02 5.200585365295410156e+00 1.564427137374877930e+00 1.024311706423759460e-01
2.481000000000000000e+03 7.439305114746093750e+01 -2.398733520507812500e+01 1.337561104446649551e-02 5.327189922332763672e+00 1.602169632911682129e+00 1.315689384937286377e-01
2.482000000000000000e+03 7.487074279785156250e+01 1.994722938537597656e+01 1.031412836164236069e-02 8.013082504272460938e+00 2.407019138336181641e+00 9.812434315681457520e-01
2.483000000000000000e+03 7.560273742675781250e+01 1.565272331237792969e+01 8.562245219945907593e-02 7.857089996337890625e+00 2.382813692092895508e+00 7.568120956420898438e-01
2.484000000000000000e+03 7.597516632080078125e+01 1.984213066101074219e+01 9.678479982540011406e-04 8.622591018676757812e+00 2.587067604064941406e+00 8.219997286796569824e-01
2.485000000000000000e+03 7.745458221435546875e+01 3.490008163452148438e+01 1.749808549880981445e+00 1.079528331756591797e+01 3.763527631759643555e+00 1.298514842987060547e+00
2.486000000000000000e+03 7.723992919921875000e+01 3.656087875366210938e+01 1.354707926511764526e-01 1.188391494750976562e+01 3.605815649032592773e+00 2.161550283432006836e+00
2.487000000000000000e+03 7.380115509033203125e+01 -2.619397163391113281e+01 1.599247194826602936e-02 5.197536945343017578e+00 1.564058899879455566e+00 1.351384967565536499e-01
2.488000000000000000e+03 7.670413208007812500e+01 -2.581651687622070312e+01 5.284730810672044754e-03 5.634467124938964844e+00 1.691925644874572754e+00 7.358345389366149902e-02
2.489000000000000000e+03 7.561186981201171875e+01 -2.421700668334960938e+01 1.031356956809759140e-02 5.509181022644042969e+00 1.655848264694213867e+00 1.043250486254692078e-01
2.490000000000000000e+03 7.661375427246093750e+01 2.640718078613281250e+01 -7.449109554290771484e-01 1.052816390991210938e+01 2.934976100921630859e+00 7.570999115705490112e-02
2.491000000000000000e+03 7.726509094238281250e+01 2.247791290283203125e+01 -1.103034466505050659e-01 9.881732940673828125e+00 2.931428909301757812e+00 5.199376344680786133e-01
2.492000000000000000e+03 7.630976867675781250e+01 2.392451858520507812e+01 -3.263336122035980225e-01 9.627497673034667969e+00 2.790349245071411133e+00 6.061927676200866699e-01
2.493000000000000000e+03 7.473419189453125000e+01 -2.810569000244140625e+01 1.057187095284461975e-02 5.293567180633544922e+00 1.591241717338562012e+00 1.065353304147720337e-01
2.494000000000000000e+03 7.605353546142578125e+01 -3.437426376342773438e+01 1.332112308591604233e-02 5.389750480651855469e+00 1.620921373367309570e+00 4.031705856323242188e-02
2.495000000000000000e+03 7.737521362304687500e+01 3.110740089416503906e+01 -8.898241817951202393e-02 1.155869007110595703e+01 3.440912246704101562e+00 -2.119537353515625000e+00
2.496000000000000000e+03 7.444422149658203125e+01 3.207005310058593750e+01 -1.151465058326721191e+00 1.884049606323242188e+01 5.306709289550781250e+00 1.426406297832727432e-02
2.497000000000000000e+03 7.615126037597656250e+01 2.258953475952148438e+01 -1.780484616756439209e-01 9.255521774291992188e+00 2.723241806030273438e+00 7.396854162216186523e-01
2.498000000000000000e+03 7.650239562988281250e+01 2.519655227661132812e+01 -5.141535401344299316e-01 1.005927467346191406e+01 2.863536357879638672e+00 3.966721892356872559e-01
2.499000000000000000e+03 2.497796249389648438e+01 -2.514621734619140625e+01 2.288962602615356445e-01 4.081763625144958496e-01 1.911217868328094482e-01 -3.582855761051177979e-01
2.500000000000000000e+03 3.852770233154296875e+01 -1.865880584716796875e+01 -2.272770181298255920e-02 -4.409886598587036133e-01 -1.391149163246154785e-01 1.854070872068405151e-01
2.501000000000000000e+03 7.619459533691406250e+01 3.806377029418945312e+01 -1.266019701957702637e+00 1.305975818634033203e+01 3.538121461868286133e+00 1.417334675788879395e+00
2.502000000000000000e+03 7.130885314941406250e+01 3.950336837768554688e+01 1.072178408503532410e-01 5.995611667633056641e+00 1.830848813056945801e+00 -1.704129457473754883e+00
2.503000000000000000e+03 2.662568092346191406e+01 -2.778229713439941406e+01 2.679947912693023682e-01 5.338178277015686035e-01 2.405437976121902466e-01 -3.932532966136932373e-01
2.504000000000000000e+03 4.221279621124267578e+00 -1.586202430725097656e+01 1.841164566576480865e-02 -6.854066848754882812e-01 -2.000985145568847656e-01 -2.949715554714202881e-01
2.505000000000000000e+03 4.402347087860107422e+00 2.292425727844238281e+01 -4.320633132010698318e-03 -1.009055972099304199e-01 -3.156786784529685974e-02 -2.017426304519176483e-02
2.506000000000000000e+03 4.285400390625000000e+00 2.145844650268554688e+01 -2.577761420980095863e-03 -1.047063171863555908e-01 -3.218522295355796814e-02 -2.187276072800159454e-02
2.507000000000000000e+03 4.305264949798583984e+00 -1.721919822692871094e+01 2.678480744361877441e-02 -7.485566735267639160e-01 -2.165315598249435425e-01 -2.840270996093750000e-01
2.508000000000000000e+03 4.498156547546386719e+00 -2.137206268310546875e+01 3.655373305082321167e-02 -9.342332482337951660e-01 -2.693038582801818848e-01 -2.426011115312576294e-01
2.509000000000000000e+03 4.048329353332519531e+00 1.860246658325195312e+01 -5.527428584173321724e-04 -1.163123250007629395e-01 -3.505951911211013794e-02 -2.367826923727989197e-02
2.510000000000000000e+03 4.151258468627929688e+00 2.001377677917480469e+01 -2.772334730252623558e-03 -1.107205301523208618e-01 -3.404786065220832825e-02 -2.275328338146209717e-02
2.511000000000000000e+03 2.833056688308715820e+00 1.597780227661132812e+01 2.313174307346343994e-03 -1.600759774446487427e-01 -4.732884094119071960e-02 -1.787339150905609131e-02
2.512000000000000000e+03 2.805274009704589844e+00 1.459407138824462891e+01 5.771714262664318085e-03 -1.658701002597808838e-01 -4.802951589226722717e-02 -1.507287658751010895e-02
2.513000000000000000e+03 5.113106727600097656e+00 1.433024406433105469e+01 1.619577407836914062e-02 -9.244783967733383179e-02 -2.287562005221843719e-02 -2.032029442489147186e-02
2.514000000000000000e+03 4.471003055572509766e+00 -2.800635910034179688e+01 3.688225522637367249e-02 -1.159566640853881836e+00 -3.368053138256072998e-01 -1.491006314754486084e-01
2.515000000000000000e+03 3.201718330383300781e+00 -2.293787574768066406e+01 2.057126909494400024e-02 -1.072379231452941895e+00 -3.155423998832702637e-01 -1.678379476070404053e-01
2.516000000000000000e+03 4.522383213043212891e+00 -2.276184654235839844e+01 3.654774650931358337e-02 -9.816627502441406250e-01 -2.835344970226287842e-01 -2.193638384342193604e-01
2.517000000000000000e+03 4.295625209808349609e+00 2.584813308715820312e+01 -3.951080143451690674e-03 -9.654948860406875610e-02 -3.015017136931419373e-02 -1.680438593029975891e-02
2.518000000000000000e+03 2.955865621566772461e+00 2.847193145751953125e+01 -1.390801160596311092e-03 -1.122386157512664795e-01 -3.408882394433021545e-02 -1.034827157855033875e-02
2.519000000000000000e+03 4.362711429595947266e+00 2.932940864562988281e+01 -2.933571813628077507e-03 -9.172350168228149414e-02 -2.839712239801883698e-02 -1.196525432169437408e-02
2.520000000000000000e+03 5.564181804656982422e+00 -1.703299331665039062e+01 3.957818076014518738e-02 -7.207219004631042480e-01 -2.043431103229522705e-01 -3.468997180461883545e-01
2.521000000000000000e+03 4.383081912994384766e+00 -1.859181213378906250e+01 3.164946660399436951e-02 -8.182147145271301270e-01 -2.359695881605148315e-01 -2.743259072303771973e-01
2.522000000000000000e+03 5.831215381622314453e+00 -2.537307357788085938e+01 5.330460518598556519e-02 -9.903270006179809570e-01 -2.811067104339599609e-01 -2.307586222887039185e-01
2.523000000000000000e+03 3.200553894042968750e+00 -2.431194305419921875e+01 1.906864158809185028e-02 -1.127247571945190430e+00 -3.324536681175231934e-01 -1.475233435630798340e-01
2.524000000000000000e+03 4.490512847900390625e+00 -2.548093986511230469e+01 3.401404619216918945e-02 -1.081897258758544922e+00 -3.143649697303771973e-01 -1.797559261322021484e-01
2.525000000000000000e+03 3.909022092819213867e+00 -1.054695320129394531e+01 -3.612520918250083923e-02 -3.788649439811706543e-01 -1.244970411062240601e-01 -2.690817415714263916e-01
2.526000000000000000e+03 3.837892055511474609e+00 -9.254231452941894531e+00 -5.096264928579330444e-02 -2.973664402961730957e-01 -1.044987216591835022e-01 -2.385318726301193237e-01
2.527000000000000000e+03 4.132603645324707031e+00 -1.452133655548095703e+01 9.295193478465080261e-03 -6.083851456642150879e-01 -1.797269880771636963e-01 -2.967194318771362305e-01
2.528000000000000000e+03 5.778800487518310547e+00 2.276358795166015625e+01 -5.086994264274835587e-03 -7.157377153635025024e-02 -2.299822866916656494e-02 -2.172172628343105316e-02
2.529000000000000000e+03 4.065770149230957031e+00 2.713681221008300781e+01 -2.674998482689261436e-03 -9.821736812591552734e-02 -3.026770986616611481e-02 -1.423085667192935944e-02
2.530000000000000000e+03 4.398668289184570312e+00 2.438999176025390625e+01 -3.466189838945865631e-03 -9.852045029401779175e-02 -3.059599176049232483e-02 -1.897603832185268402e-02
2.531000000000000000e+03 4.934606552124023438e+00 1.154378414154052734e+01 3.643452376127243042e-02 -1.056208387017250061e-01 -2.075589448213577271e-02 -2.210318343713879585e-03
2.532000000000000000e+03 3.448977231979370117e+00 -2.961690139770507812e+01 2.248869463801383972e-02 -1.286105513572692871e+00 -3.790850639343261719e-01 -1.025412157177925110e-01
2.533000000000000000e+03 4.674760818481445312e+00 -2.919819641113281250e+01 3.280380368232727051e-02 -1.177639842033386230e+00 -3.434508144855499268e-01 -1.424016803503036499e-01
2.534000000000000000e+03 4.125122547149658203e+00 3.531676101684570312e+01 -1.026163809001445770e-03 -8.912387490272521973e-02 -2.704501338303089142e-02 -4.948964342474937439e-03
2.535000000000000000e+03 3.804736852645874023e+00 1.172224521636962891e+01 2.331074699759483337e-02 -1.401840895414352417e-01 -3.506200388073921204e-02 8.532005595043301582e-04
2.536000000000000000e+03 3.972849130630493164e+00 -1.186316204071044922e+01 -1.835180073976516724e-02 -4.543940126895904541e-01 -1.418237388134002686e-01 -2.853417396545410156e-01
2.537000000000000000e+03 4.361775875091552734e+00 -5.723504066467285156e+00 -1.019790098071098328e-01 -1.278835982084274292e-01 -6.895878165960311890e-02 -1.560236066579818726e-01
2.538000000000000000e+03 8.279844284057617188e+00 -3.196841239929199219e+01 8.987157791852951050e-02 -9.173677563667297363e-01 -2.482488453388214111e-01 -1.766374111175537109e-01
2.539000000000000000e+03 6.235787868499755859e+00 -2.965492439270019531e+01 5.608753114938735962e-02 -1.078065633773803711e+00 -3.065934479236602783e-01 -1.770024895668029785e-01
2.540000000000000000e+03 5.542483806610107422e+00 -3.165276145935058594e+01 4.053055495023727417e-02 -1.166828155517578125e+00 -3.378892838954925537e-01 -1.309432238340377808e-01
2.541000000000000000e+03 3.755851745605468750e+00 -3.092339515686035156e+01 1.801202073693275452e-02 -1.299271583557128906e+00 -3.843778669834136963e-01 -9.874887019395828247e-02
2.542000000000000000e+03 5.210091590881347656e+00 3.192756462097167969e+01 -3.340802621096372604e-03 -7.737898826599121094e-02 -2.421593666076660156e-02 -9.706676006317138672e-03
2.543000000000000000e+03 4.771997928619384766e+00 3.056618118286132812e+01 -3.968040924519300461e-03 -8.445288240909576416e-02 -2.652627788484096527e-02 -1.099181454628705978e-02
2.544000000000000000e+03 2.417382717132568359e+00 7.879099369049072266e+00 2.060786262154579163e-02 -1.638302952051162720e-01 -4.296673089265823364e-02 4.810841009020805359e-02
2.545000000000000000e+03 3.516710042953491211e+00 9.103619575500488281e+00 3.568888828158378601e-02 -1.501429975032806396e-01 -3.433623164892196655e-02 3.630974143743515015e-02
2.546000000000000000e+03 2.384353160858154297e+00 6.570782184600830078e+00 1.624012179672718048e-02 -1.433205902576446533e-01 -3.812414035201072693e-02 6.470804661512374878e-02
2.547000000000000000e+03 4.030100345611572266e+00 5.414482116699218750e+00 2.551925927400588989e-02 -1.203822940587997437e-01 -2.845891192555427551e-02 1.103441193699836731e-01
2.548000000000000000e+03 2.583848476409912109e+00 -6.800725460052490234e+00 -3.707672283053398132e-02 -1.483432501554489136e-01 -5.562599375844001770e-02 -1.133554503321647644e-01
2.549000000000000000e+03 7.621086120605468750e+01 3.693165969848632812e+01 -5.233607888221740723e-01 1.394133281707763672e+01 4.025391578674316406e+00 2.077844142913818359e+00
2.550000000000000000e+03 4.566525268554687500e+01 -2.814569854736328125e+01 -1.779436618089675903e-01 3.939711749553680420e-01 6.480825692415237427e-02 1.816106885671615601e-01
2.551000000000000000e+03 2.843386459350585938e+01 -3.420956802368164062e+01 4.708971083164215088e-01 4.998716115951538086e-01 2.912306189537048340e-01 -3.636533915996551514e-01
2.552000000000000000e+03 6.718239593505859375e+01 3.874536514282226562e+01 8.408411741256713867e-01 8.330883383750915527e-01 5.021788477897644043e-01 2.136124968528747559e-01
2.553000000000000000e+03 1.832251358032226562e+01 -1.362481212615966797e+01 2.491506934165954590e-01 -3.957898914813995361e-01 -4.399175569415092468e-02 -2.959117293357849121e-01
2.554000000000000000e+03 3.267493057250976562e+01 -7.537342548370361328e+00 6.788239479064941406e-01 -4.209191501140594482e-01 7.737143337726593018e-02 -2.073148190975189209e-01
2.555000000000000000e+03 2.571356201171875000e+01 -9.437444210052490234e-01 3.329265713691711426e-01 -3.588500618934631348e-02 8.911246806383132935e-02 -4.663799703121185303e-01
2.556000000000000000e+03 2.276430511474609375e+01 9.287222623825073242e-01 -2.391084194183349609e+00 1.975151449441909790e-01 -6.580706834793090820e-01 -1.608795762062072754e+00
2.557000000000000000e+03 4.642260360717773438e+01 -2.924761962890625000e+01 -1.591718643903732300e-01 5.646026134490966797e-01 1.216292232275009155e-01 2.049710005521774292e-01
2.558000000000000000e+03 4.600399780273437500e+01 -3.131158638000488281e+01 -1.740670353174209595e-01 4.345092475414276123e-01 7.813266664743423462e-02 2.738508582115173340e-01
2.559000000000000000e+03 1.736223030090332031e+01 -7.393606185913085938e+00 -5.974903330206871033e-02 -1.426553368568420410e+00 -4.458907246589660645e-01 -6.510394215583801270e-01
2.560000000000000000e+03 1.570597648620605469e+01 -1.008018779754638672e+01 1.179945841431617737e-01 -8.457175493240356445e-01 -2.183168977499008179e-01 -5.958413481712341309e-01
2.561000000000000000e+03 3.097085189819335938e+01 -7.159952163696289062e+00 7.409621477127075195e-01 -2.034107148647308350e-01 1.612654328346252441e-01 -3.264118432998657227e-01
2.562000000000000000e+03 3.196446037292480469e+01 -6.441494941711425781e+00 8.134381175041198730e-01 -4.220262765884399414e-01 1.174235418438911438e-01 -2.185502797365188599e-01
2.563000000000000000e+03 5.396424865722656250e+01 3.965022277832031250e+01 2.586532533168792725e-01 -9.430018067359924316e-02 4.930591955780982971e-02 6.144168227910995483e-02
2.564000000000000000e+03 1.676932334899902344e+01 -1.110979080200195312e+01 1.688617914915084839e-01 -7.301586270332336426e-01 -1.683890521526336670e-01 -4.684091210365295410e-01
2.565000000000000000e+03 3.589232635498046875e+01 -1.181999397277832031e+01 3.584325313568115234e-01 -4.334249198436737061e-01 -2.249770984053611755e-02 -5.201110988855361938e-02
2.566000000000000000e+03 3.209157180786132812e+01 -4.106848526000976562e+01 9.901778697967529297e-01 3.907179534435272217e-01 4.142687320709228516e-01 -1.382069885730743408e-01
2.567000000000000000e+03 3.120781326293945312e+01 -3.846285629272460938e+01 7.672177553176879883e-01 4.651255309581756592e-01 3.697029948234558105e-01 -3.465310335159301758e-01
2.568000000000000000e+03 4.991336441040039062e+01 -3.365258026123046875e+01 9.960430860519409180e-02 1.359305977821350098e+00 4.376730918884277344e-01 4.133587181568145752e-01
2.569000000000000000e+03 4.866370010375976562e+01 -3.550891494750976562e+01 3.337009549140930176e-01 1.133781433105468750e+00 4.402447342872619629e-01 5.191598534584045410e-01
2.570000000000000000e+03 4.711209869384765625e+01 -4.154151535034179688e+01 1.443573355674743652e+00 8.185876607894897461e-01 6.786482930183410645e-01 1.277263909578323364e-01
2.571000000000000000e+03 4.965969848632812500e+01 -3.970806121826171875e+01 1.000203609466552734e+00 1.076557755470275879e+00 6.230283975601196289e-01 2.978878021240234375e-01
2.572000000000000000e+03 6.076778793334960938e+01 3.803589630126953125e+01 7.992258667945861816e-02 -2.282439172267913818e-01 -4.449640214443206787e-02 3.483307063579559326e-01
2.573000000000000000e+03 5.205100250244140625e+01 -3.384988784790039062e+01 1.722392886877059937e-01 1.685741066932678223e+00 5.573940873146057129e-01 4.098525047302246094e-01
2.574000000000000000e+03 4.752268600463867188e+01 -2.833503913879394531e+01 -1.398380100727081299e-01 8.369825482368469238e-01 2.091433554887771606e-01 1.770184040069580078e-01
2.575000000000000000e+03 2.848078155517578125e+01 3.990993738174438477e+00 -2.184580087661743164e+00 -1.063431382179260254e+00 -9.744034409523010254e-01 -9.581596851348876953e-01
2.576000000000000000e+03 2.788234710693359375e+01 3.985579013824462891e+00 -2.447473049163818359e+00 -1.077399253845214844e+00 -1.057461738586425781e+00 -1.148830413818359375e+00
2.577000000000000000e+03 2.776097488403320312e+01 3.834962129592895508e+00 -2.407269954681396484e+00 -1.032981753349304199e+00 -1.032075524330139160e+00 -1.112891554832458496e+00
2.578000000000000000e+03 2.660244369506835938e+01 3.200820684432983398e+00 -2.676765918731689453e+00 -7.841264605522155762e-01 -1.038267731666564941e+00 -1.161508321762084961e+00
2.579000000000000000e+03 2.823061370849609375e+01 4.005897045135498047e+00 -2.335529088973999023e+00 -1.105762362480163574e+00 -1.032387495040893555e+00 -1.088459730148315430e+00
2.580000000000000000e+03 2.520904541015625000e+01 3.121065616607666016e+00 -3.323475599288940430e+00 -7.900876402854919434e-01 -1.234068989753723145e+00 -1.521482944488525391e+00
2.581000000000000000e+03 2.405368804931640625e+01 1.759821534156799316e+00 -2.878951072692871094e+00 -4.111937880516052246e-01 -9.870434403419494629e-01 -1.306501150131225586e+00
2.582000000000000000e+03 2.467078781127929688e+01 -2.878390252590179443e-01 -3.277872502803802490e-01 3.121146857738494873e-01 -4.701772704720497131e-03 -4.661961793899536133e-01
2.583000000000000000e+03 2.582511329650878906e+01 2.835821628570556641e+00 -2.892132282257080078e+00 -6.838473081588745117e-01 -1.072793841361999512e+00 -1.215534090995788574e+00
2.584000000000000000e+03 2.527194404602050781e+01 2.360765695571899414e+00 -2.807140827178955078e+00 -5.478318333625793457e-01 -1.006491780281066895e+00 -1.139611601829528809e+00
2.585000000000000000e+03 2.506286621093750000e+01 2.593624830245971680e+00 -3.022619485855102539e+00 -6.100397109985351562e-01 -1.089797735214233398e+00 -1.288499116897583008e+00
2.586000000000000000e+03 2.598467254638671875e+01 3.292856693267822266e+00 -2.997952222824096680e+00 -8.097445964813232422e-01 -1.142309069633483887e+00 -1.370769500732421875e+00
2.587000000000000000e+03 2.751881027221679688e+01 4.058094978332519531e+00 -2.651960372924804688e+00 -1.076284885406494141e+00 -1.118473649024963379e+00 -1.311166286468505859e+00
2.588000000000000000e+03 2.744656372070312500e+01 3.599151134490966797e+00 -2.504068613052368164e+00 -9.675862789154052734e-01 -1.041496515274047852e+00 -1.136282205581665039e+00
2.589000000000000000e+03 7.317654418945312500e+01 3.216115951538085938e+01 -8.077741265296936035e-01 1.384702014923095703e+01 3.911773681640625000e+00 5.995445251464843750e+00
2.590000000000000000e+03 7.256504058837890625e+01 3.131667327880859375e+01 -7.523098587989807129e-01 8.907622337341308594e+00 2.446593761444091797e+00 4.945762157440185547e+00
2.591000000000000000e+03 7.212429809570312500e+01 3.154888916015625000e+01 -1.715398430824279785e-01 6.467679500579833984e+00 1.888841867446899414e+00 4.842852592468261719e+00
2.592000000000000000e+03 7.135147094726562500e+01 3.166384887695312500e+01 -1.321733146905899048e-01 3.380948781967163086e+00 9.746326804161071777e-01 3.444790840148925781e+00
2.593000000000000000e+03 7.320668792724609375e+01 3.156437110900878906e+01 -1.437102675437927246e+00 1.293920803070068359e+01 3.450631618499755859e+00 4.834506034851074219e+00
2.594000000000000000e+03 7.666722869873046875e+01 2.964361000061035156e+01 -1.180770158767700195e+00 1.217129707336425781e+01 3.297158241271972656e+00 -1.285619974136352539e+00
2.595000000000000000e+03 7.530384826660156250e+01 3.494083786010742188e+01 4.280999660491943359e+00 1.679154586791992188e+01 6.321763515472412109e+00 2.667766094207763672e+00
2.596000000000000000e+03 7.552519989013671875e+01 3.319542312622070312e+01 4.852578639984130859e+00 1.580078125000000000e+01 6.196007728576660156e+00 -2.264348030090332031e+00
2.597000000000000000e+03 7.524635314941406250e+01 3.286138153076171875e+01 3.581076860427856445e+00 1.712932777404785156e+01 6.213121414184570312e+00 -2.734479665756225586e+00
2.598000000000000000e+03 7.655428314208984375e+01 3.369750595092773438e+01 3.513071537017822266e+00 1.243739223480224609e+01 4.785139083862304688e+00 -5.779200196266174316e-01
2.599000000000000000e+03 7.585635375976562500e+01 3.339384078979492188e+01 5.176210880279541016e+00 1.443326663970947266e+01 5.882843017578125000e+00 -1.611270070075988770e+00
2.600000000000000000e+03 7.618154907226562500e+01 3.407265853881835938e+01 4.867386341094970703e+00 1.335598278045654297e+01 5.467010498046875000e+00 5.170767307281494141e-01
2.601000000000000000e+03 7.475527191162109375e+01 3.183837890625000000e+01 -1.111191868782043457e+00 1.764742469787597656e+01 4.960869789123535156e+00 -5.446738600730895996e-01
2.602000000000000000e+03 7.771975708007812500e+01 3.035236740112304688e+01 -3.596511185169219971e-01 1.117806243896484375e+01 3.245523214340209961e+00 -1.847592830657958984e+00
2.603000000000000000e+03 7.616818237304687500e+01 3.360508346557617188e+01 4.414429187774658203e+00 1.336229038238525391e+01 5.333015918731689453e+00 -8.706145882606506348e-01
2.604000000000000000e+03 2.303226852416992188e+01 -3.860711157321929932e-01 2.346615865826606750e-02 7.874891757965087891e-01 2.432866096496582031e-01 -1.016464352607727051e+00
2.605000000000000000e+03 2.957273292541503906e+01 4.744269847869873047e+00 -2.049817323684692383e+00 -1.116942167282104492e+00 -9.500278234481811523e-01 -9.212716221809387207e-01
2.606000000000000000e+03 2.921054649353027344e+01 4.690456390380859375e+00 -2.185958862304687500e+00 -1.221518397331237793e+00 -1.022243142127990723e+00 -1.020875215530395508e+00
2.607000000000000000e+03 2.439647483825683594e+01 -8.159258365631103516e-01 6.846921443939208984e-01 5.528559088706970215e-01 3.712644279003143311e-01 -5.048991441726684570e-01
2.608000000000000000e+03 1.953857612609863281e+01 1.099676513671875000e+01 1.347325891256332397e-01 1.799840480089187622e-01 9.441499412059783936e-02 1.584037095308303833e-01
2.609000000000000000e+03 1.891783142089843750e+01 1.127422332763671875e+01 1.196376308798789978e-01 1.889912635087966919e-01 9.258867055177688599e-02 1.517053991556167603e-01
2.610000000000000000e+03 3.996294784545898438e+01 1.946910667419433594e+01 -1.179843783378601074e+00 -1.307555317878723145e+00 -7.462197542190551758e-01 -1.358729362487792969e+00
2.611000000000000000e+03 1.597065067291259766e+01 7.861209392547607422e+00 1.399592012166976929e-01 3.036061525344848633e-01 1.330696046352386475e-01 1.980122625827789307e-01
2.612000000000000000e+03 2.930468368530273438e+01 2.098608589172363281e+01 7.757035642862319946e-02 9.728582203388214111e-02 5.245685577392578125e-02 8.810406923294067383e-02
2.613000000000000000e+03 3.455937957763671875e+01 2.738166809082031250e+01 5.846812948584556580e-02 8.515886962413787842e-02 4.308810085058212280e-02 6.954359263181686401e-02
2.614000000000000000e+03 3.471095275878906250e+01 2.692015457153320312e+01 5.899230763316154480e-02 8.568838238716125488e-02 4.340420663356781006e-02 7.102946192026138306e-02
2.615000000000000000e+03 3.214919281005859375e+01 1.103659439086914062e+01 -1.435101032257080078e+00 -1.452320575714111328e+00 -8.662264943122863770e-01 -1.354547023773193359e+00
2.616000000000000000e+03 3.889420700073242188e+01 1.821895408630371094e+01 -1.224926829338073730e+00 -1.408128261566162109e+00 -7.899165153503417969e-01 -1.343800187110900879e+00
2.617000000000000000e+03 2.411915969848632812e+01 1.621797752380371094e+01 9.894098341464996338e-02 1.308114081621170044e-01 6.892571598291397095e-02 1.169262304902076721e-01
2.618000000000000000e+03 3.318123626708984375e+01 2.485488700866699219e+01 6.087948009371757507e-02 8.726245164871215820e-02 4.444257915019989014e-02 7.430505007505416870e-02
2.619000000000000000e+03 2.435801696777343750e+01 1.652099609375000000e+01 9.795042127370834351e-02 1.281730383634567261e-01 6.783703714609146118e-02 1.146654039621353149e-01
2.620000000000000000e+03 3.270144271850585938e+01 2.433572006225585938e+01 6.159731373190879822e-02 8.712767809629440308e-02 4.461750015616416931e-02 7.493937015533447266e-02
2.621000000000000000e+03 4.721181869506835938e+01 2.515128707885742188e+01 -1.350583314895629883e+00 -1.044422268867492676e+00 -7.185016870498657227e-01 -1.253624558448791504e+00
2.622000000000000000e+03 4.715895843505859375e+01 2.577280998229980469e+01 -1.388288736343383789e+00 -1.110936164855957031e+00 -7.497674822807312012e-01 -1.308573961257934570e+00
2.623000000000000000e+03 4.188368225097656250e+01 2.147550582885742188e+01 -1.349418163299560547e+00 -1.328526258468627930e+00 -8.033833503723144531e-01 -1.350083947181701660e+00
2.624000000000000000e+03 2.083083534240722656e+01 1.291824626922607422e+01 1.165599673986434937e-01 1.636530011892318726e-01 8.406389504671096802e-02 1.383605748414993286e-01
2.625000000000000000e+03 2.026049804687500000e+01 1.185003948211669922e+01 1.275757104158401489e-01 1.709610819816589355e-01 8.956103771924972534e-02 1.475878506898880005e-01
2.626000000000000000e+03 1.946875572204589844e+01 1.149750232696533203e+01 1.241523176431655884e-01 1.815742105245590210e-01 9.171795845031738281e-02 1.511767059564590454e-01
2.627000000000000000e+03 3.860382080078125000e+01 1.791163063049316406e+01 -1.237622976303100586e+00 -1.445542335510253906e+00 -8.049495816230773926e-01 -1.339761734008789062e+00
2.628000000000000000e+03 3.964715194702148438e+01 1.882311248779296875e+01 -1.186700582504272461e+00 -1.319307327270507812e+00 -7.518023252487182617e-01 -1.345725059509277344e+00
2.629000000000000000e+03 4.624934387207031250e+01 2.494491958618164062e+01 -1.423108935356140137e+00 -1.173272728919982910e+00 -7.789145112037658691e-01 -1.320177912712097168e+00
2.630000000000000000e+03 4.359283828735351562e+01 2.262611007690429688e+01 -1.391804456710815430e+00 -1.306528687477111816e+00 -8.094999790191650391e-01 -1.358289837837219238e+00
2.631000000000000000e+03 7.070594024658203125e+01 3.147842216491699219e+01 -5.349004864692687988e-01 2.167155981063842773e+00 4.896766245365142822e-01 2.541290521621704102e+00
2.632000000000000000e+03 7.018766784667968750e+01 3.121337890625000000e+01 -6.956807971000671387e-01 1.804785013198852539e+00 3.327312767505645752e-01 2.086281299591064453e+00
2.633000000000000000e+03 3.597824096679687500e+01 2.791071891784667969e+01 6.345275044441223145e-02 8.293351531028747559e-02 4.391587898135185242e-02 6.930606067180633545e-02
2.634000000000000000e+03 3.532852172851562500e+01 2.766027259826660156e+01 6.108682602643966675e-02 8.377175778150558472e-02 4.345757514238357544e-02 6.978420168161392212e-02
2.635000000000000000e+03 1.771019744873046875e+01 9.636884689331054688e+00 1.378351151943206787e-01 2.261676043272018433e-01 1.092008128762245178e-01 1.682730913162231445e-01
2.636000000000000000e+03 4.801524353027343750e+01 2.611129760742187500e+01 -1.349206328392028809e+00 -1.019024372100830078e+00 -7.104691863059997559e-01 -1.244929313659667969e+00
2.637000000000000000e+03 2.360712432861328125e+01 1.565344047546386719e+01 1.016594022512435913e-01 1.372976005077362061e-01 7.168710231781005859e-02 1.198767796158790588e-01
2.638000000000000000e+03 3.574149322509765625e+01 1.443255424499511719e+01 -1.282242178916931152e+00 -1.493870139122009277e+00 -8.328336477279663086e-01 -1.366742014884948730e+00
2.639000000000000000e+03 3.496790313720703125e+01 1.415876770019531250e+01 -1.343544721603393555e+00 -1.534376978874206543e+00 -8.633764982223510742e-01 -1.414287805557250977e+00
2.640000000000000000e+03 3.329812622070312500e+01 1.212005996704101562e+01 -1.372458696365356445e+00 -1.466720938682556152e+00 -8.517538905143737793e-01 -1.394985675811767578e+00
2.641000000000000000e+03 4.387268447875976562e+01 2.289686965942382812e+01 -1.401898264884948730e+00 -1.314012169837951660e+00 -8.147731423377990723e-01 -1.359166026115417480e+00
2.642000000000000000e+03 2.223349380493164062e+01 1.375250244140625000e+01 1.225372329354286194e-01 1.524390727281570435e-01 8.249289542436599731e-02 1.322935819625854492e-01
2.643000000000000000e+03 2.136943244934082031e+01 1.347610282897949219e+01 1.155940666794776917e-01 1.573237329721450806e-01 8.187533915042877197e-02 1.335838884115219116e-01
2.644000000000000000e+03 2.475831031799316406e+01 1.725381660461425781e+01 9.319473057985305786e-02 1.243116781115531921e-01 6.525192409753799438e-02 1.084574237465858459e-01
2.645000000000000000e+03 4.303634643554687500e+01 2.207038879394531250e+01 -1.364074230194091797e+00 -1.295012474060058594e+00 -7.977259755134582520e-01 -1.343808531761169434e+00
2.646000000000000000e+03 3.796869277954101562e+01 3.069245529174804688e+01 6.358285993337631226e-02 7.292687892913818359e-02 4.095292091369628906e-02 6.400753557682037354e-02
2.647000000000000000e+03 3.846781921386718750e+01 3.116084671020507812e+01 6.495600938796997070e-02 6.997229903936386108e-02 4.047849401831626892e-02 6.285631656646728516e-02
2.648000000000000000e+03 3.912923812866210938e+01 1.853526496887207031e+01 -1.215842723846435547e+00 -1.385421276092529297e+00 -7.803792357444763184e-01 -1.350841641426086426e+00
2.649000000000000000e+03 4.771361541748046875e+01 2.637011146545410156e+01 -1.382485747337341309e+00 -1.092470288276672363e+00 -7.424868345260620117e-01 -1.290187478065490723e+00
2.650000000000000000e+03 4.823409652709960938e+01 2.748714256286621094e+01 -1.433832406997680664e+00 -1.132937669754028320e+00 -7.700310349464416504e-01 -1.295418262481689453e+00
2.651000000000000000e+03 3.023539352416992188e+01 2.170470809936523438e+01 7.248368859291076660e-02 9.375303983688354492e-02 4.987102001905441284e-02 8.360183984041213989e-02
2.652000000000000000e+03 3.601190567016601562e+01 1.471976089477539062e+01 -1.266940951347351074e+00 -1.498539924621582031e+00 -8.296442627906799316e-01 -1.366845369338989258e+00
2.653000000000000000e+03 1.579719352722167969e+01 7.555652141571044922e+00 1.462110280990600586e-01 3.257204294204711914e-01 1.415794342756271362e-01 2.024920433759689331e-01
2.654000000000000000e+03 1.573489856719970703e+01 7.083306789398193359e+00 1.616684496402740479e-01 3.422192335128784180e-01 1.511663049459457397e-01 2.142872810363769531e-01
2.655000000000000000e+03 3.427314376831054688e+01 2.652846717834472656e+01 5.871206894516944885e-02 8.652544766664505005e-02 4.357125237584114075e-02 7.082573324441909790e-02
2.656000000000000000e+03 3.270249557495117188e+01 1.151441192626953125e+01 -1.421257615089416504e+00 -1.439476370811462402e+00 -8.582202196121215820e-01 -1.369717359542846680e+00
2.657000000000000000e+03 3.353083038330078125e+01 2.579925346374511719e+01 5.933877080678939819e-02 8.704891055822372437e-02 4.391630366444587708e-02 7.204964011907577515e-02
2.658000000000000000e+03 3.667877197265625000e+01 2.973966407775878906e+01 6.020778045058250427e-02 7.943730801343917847e-02 4.189352691173553467e-02 6.461546570062637329e-02
2.659000000000000000e+03 4.930123519897460938e+01 2.858908081054687500e+01 -1.446432232856750488e+00 -1.056572675704956055e+00 -7.509014606475830078e-01 -1.235397458076477051e+00
2.660000000000000000e+03 2.821265029907226562e+01 1.976930046081542969e+01 8.487505465745925903e-02 1.039255484938621521e-01 5.664018169045448303e-02 9.536994248628616333e-02
2.661000000000000000e+03 4.273066711425781250e+01 3.540010070800781250e+01 8.759889751672744751e-02 4.961046576499938965e-02 4.116280749440193176e-02 5.910100042819976807e-02
2.662000000000000000e+03 2.765013122558593750e+01 1.975497055053710938e+01 8.187298476696014404e-02 1.078432425856590271e-01 5.691486969590187073e-02 9.528420865535736084e-02
2.663000000000000000e+03 4.217864990234375000e+01 2.174664688110351562e+01 -1.382063150405883789e+00 -1.323034524917602539e+00 -8.115292787551879883e-01 -1.356849551200866699e+00
2.664000000000000000e+03 2.740349769592285156e+01 1.947827339172363281e+01 8.378764986991882324e-02 1.098557412624359131e-01 5.809301510453224182e-02 9.649331867694854736e-02
2.665000000000000000e+03 2.742831611633300781e+01 1.893160438537597656e+01 9.054661542177200317e-02 1.103243529796600342e-01 6.026129052042961121e-02 9.978932887315750122e-02
2.666000000000000000e+03 4.536020278930664062e+01 2.472410011291503906e+01 -1.501091718673706055e+00 -1.313830018043518066e+00 -8.444765210151672363e-01 -1.375872969627380371e+00
2.667000000000000000e+03 4.592337417602539062e+01 2.469807052612304688e+01 -1.439177751541137695e+00 -1.207726836204528809e+00 -7.940713763236999512e-01 -1.321894645690917969e+00
2.668000000000000000e+03 3.493021774291992188e+01 1.361709022521972656e+01 -1.317778706550598145e+00 -1.493531346321105957e+00 -8.433930277824401855e-01 -1.363471269607543945e+00
2.669000000000000000e+03 3.213598632812500000e+01 2.397303581237792969e+01 6.253578513860702515e-02 8.688452839851379395e-02 4.482609406113624573e-02 7.694122940301895142e-02
2.670000000000000000e+03 5.064634704589843750e+01 2.935101890563964844e+01 -1.385255813598632812e+00 -8.070741891860961914e-01 -6.576989889144897461e-01 -1.106283664703369141e+00
2.671000000000000000e+03 4.051305389404296875e+01 3.279344940185546875e+01 7.070029526948928833e-02 6.022489070892333984e-02 3.927755355834960938e-02 6.114564836025238037e-02
2.672000000000000000e+03 3.654726791381835938e+01 1.529842472076416016e+01 -1.250819087028503418e+00 -1.507437705993652344e+00 -8.274770379066467285e-01 -1.358726501464843750e+00
2.673000000000000000e+03 5.095431900024414062e+01 2.960773849487304688e+01 -1.370943427085876465e+00 -7.499064803123474121e-01 -6.362549662590026855e-01 -1.075692653656005859e+00
2.674000000000000000e+03 3.958238983154296875e+01 3.206377792358398438e+01 6.733734905719757080e-02 6.478977948427200317e-02 3.963813930749893188e-02 6.182789430022239685e-02
2.675000000000000000e+03 4.798738479614257812e+01 2.666065788269042969e+01 -1.385478973388671875e+00 -1.080535650253295898e+00 -7.398043870925903320e-01 -1.277821779251098633e+00
2.676000000000000000e+03 4.957597732543945312e+01 2.885251235961914062e+01 -1.437468171119689941e+00 -1.024185299873352051e+00 -7.384960651397705078e-01 -1.217193603515625000e+00
2.677000000000000000e+03 3.681608963012695312e+01 1.558819866180419922e+01 -1.247854948043823242e+00 -1.510505557060241699e+00 -8.275081515312194824e-01 -1.351591825485229492e+00
2.678000000000000000e+03 3.191355895996093750e+01 2.441285324096679688e+01 5.982099846005439758e-02 8.823595941066741943e-02 4.441708698868751526e-02 7.587381452322006226e-02
2.679000000000000000e+03 3.708789062500000000e+01 1.587733364105224609e+01 -1.243164539337158203e+00 -1.509092807769775391e+00 -8.256771564483642578e-01 -1.346223473548889160e+00
2.680000000000000000e+03 4.275699615478515625e+01 2.178069877624511719e+01 -1.341263413429260254e+00 -1.293968439102172852e+00 -7.905695438385009766e-01 -1.332945346832275391e+00
2.681000000000000000e+03 3.829961776733398438e+01 1.761323928833007812e+01 -1.250327348709106445e+00 -1.484571456909179688e+00 -8.204696774482727051e-01 -1.342624664306640625e+00
2.682000000000000000e+03 4.139123535156250000e+01 3.325790786743164062e+01 7.202479988336563110e-02 5.605455860495567322e-02 3.842380642890930176e-02 6.003184616565704346e-02
2.683000000000000000e+03 4.415354919433593750e+01 2.316424369812011719e+01 -1.412905812263488770e+00 -1.319823503494262695e+00 -8.198188543319702148e-01 -1.355291128158569336e+00
2.684000000000000000e+03 3.736400604248046875e+01 1.616490554809570312e+01 -1.241671085357666016e+00 -1.505519032478332520e+00 -8.241569995880126953e-01 -1.336529850959777832e+00
2.685000000000000000e+03 5.014133453369140625e+01 2.937346458435058594e+01 -1.403731465339660645e+00 -9.481042623519897461e-01 -7.055507302284240723e-01 -1.171401500701904297e+00
2.686000000000000000e+03 2.252025413513183594e+01 1.402951812744140625e+01 1.208076998591423035e-01 1.501418203115463257e-01 8.128485828638076782e-02 1.301785260438919067e-01
2.687000000000000000e+03 2.105899620056152344e+01 1.320888042449951172e+01 1.158467903733253479e-01 1.614410430192947388e-01 8.318635076284408569e-02 1.353587359189987183e-01
2.688000000000000000e+03 4.907164382934570312e+01 2.884453392028808594e+01 -1.474739789962768555e+00 -1.145839929580688477e+00 -7.861739397048950195e-01 -1.287720561027526855e+00
2.689000000000000000e+03 4.192878341674804688e+01 3.376384735107421875e+01 7.603717595338821411e-02 5.302347242832183838e-02 3.871819749474525452e-02 5.909382924437522888e-02
2.690000000000000000e+03 4.876478576660156250e+01 2.804484176635742188e+01 -1.446644663810729980e+00 -1.103881955146789551e+00 -7.651579976081848145e-01 -1.267449498176574707e+00
2.691000000000000000e+03 3.123607063293457031e+01 9.042362213134765625e+00 -1.331894040107727051e+00 -1.350172519683837891e+00 -8.046199679374694824e-01 -1.237572669982910156e+00
2.692000000000000000e+03 4.901917648315429688e+01 2.779898262023925781e+01 -1.413441300392150879e+00 -1.022227644920349121e+00 -7.307006716728210449e-01 -1.223399877548217773e+00
2.693000000000000000e+03 2.686928939819335938e+01 1.840790367126464844e+01 9.382856637239456177e-02 1.148656755685806274e-01 6.260827183723449707e-02 1.021722033619880676e-01
2.694000000000000000e+03 2.712103652954101562e+01 1.811606407165527344e+01 9.961138665676116943e-02 1.138061881065368652e-01 6.402526795864105225e-02 1.050095930695533752e-01
2.695000000000000000e+03 1.690592193603515625e+01 9.129700660705566406e+00 1.349167674779891968e-01 2.461648136377334595e-01 1.143244802951812744e-01 1.735016107559204102e-01
2.696000000000000000e+03 4.145537948608398438e+01 3.368741226196289062e+01 7.539714127779006958e-02 5.588811263442039490e-02 3.938557580113410950e-02 5.958262085914611816e-02
2.697000000000000000e+03 5.127208328247070312e+01 2.987108802795410156e+01 -1.358226776123046875e+00 -6.829198002815246582e-01 -6.123439669609069824e-01 -1.040847659111022949e+00
2.698000000000000000e+03 2.623316001892089844e+01 1.790653419494628906e+01 9.632927924394607544e-02 1.184834018349647522e-01 6.444380432367324829e-02 1.043663024902343750e-01
2.699000000000000000e+03 2.434192085266113281e+01 1.734102821350097656e+01 8.790886402130126953e-02 1.269876211881637573e-01 6.446895003318786621e-02 1.071251705288887024e-01
2.700000000000000000e+03 4.505761718750000000e+01 2.446404266357421875e+01 -1.506327986717224121e+00 -1.344503045082092285e+00 -8.552492856979370117e-01 -1.379365324974060059e+00
2.701000000000000000e+03 4.269468307495117188e+01 3.460327529907226562e+01 8.217459917068481445e-02 4.978245124220848083e-02 3.958711400628089905e-02 5.872645229101181030e-02
2.702000000000000000e+03 3.446897888183593750e+01 1.269388294219970703e+01 -1.293230533599853516e+00 -1.451223373413085938e+00 -8.233361840248107910e-01 -1.325952410697937012e+00
2.703000000000000000e+03 4.100909423828125000e+01 3.355997467041015625e+01 7.407998293638229370e-02 5.660901591181755066e-02 3.920669853687286377e-02 5.956665799021720886e-02
2.704000000000000000e+03 4.687572097778320312e+01 2.547447013854980469e+01 -1.399264454841613770e+00 -1.126833319664001465e+00 -7.578293085098266602e-01 -1.314199686050415039e+00
2.705000000000000000e+03 1.972126770019531250e+01 1.176546001434326172e+01 1.228504031896591187e-01 1.756843179464340210e-01 8.956041932106018066e-02 1.478278189897537231e-01
2.706000000000000000e+03 3.764607238769531250e+01 1.645048713684082031e+01 -1.238142967224121094e+00 -1.494635462760925293e+00 -8.198335170745849609e-01 -1.328821897506713867e+00
2.707000000000000000e+03 4.135979080200195312e+01 2.046160125732421875e+01 -1.208736538887023926e+00 -1.296431541442871094e+00 -7.515504360198974609e-01 -1.339995503425598145e+00
2.708000000000000000e+03 3.621142578125000000e+01 2.900164222717285156e+01 6.135344877839088440e-02 8.162077516317367554e-02 4.289226606488227844e-02 6.576652824878692627e-02
2.709000000000000000e+03 4.219245147705078125e+01 3.438212585449218750e+01 7.977623492479324341e-02 5.132680386304855347e-02 3.933091089129447937e-02 5.816317722201347351e-02
2.710000000000000000e+03 2.280365753173828125e+01 1.430700397491455078e+01 1.188134551048278809e-01 1.484203636646270752e-01 8.017014712095260620e-02 1.277085840702056885e-01
2.711000000000000000e+03 4.178316116333007812e+01 3.434104537963867188e+01 7.914427667856216431e-02 5.436944961547851562e-02 4.005411639809608459e-02 5.939086899161338806e-02
2.712000000000000000e+03 1.852281379699707031e+01 1.048627662658691406e+01 1.274307519197463989e-01 2.041277438402175903e-01 9.946755319833755493e-02 1.614500582218170166e-01
2.713000000000000000e+03 3.924807739257812500e+01 1.791848564147949219e+01 -1.200750946998596191e+00 -1.338565826416015625e+00 -7.617950439453125000e-01 -1.310020685195922852e+00
2.714000000000000000e+03 3.793635940551757812e+01 1.673439788818359375e+01 -1.236616611480712891e+00 -1.477634429931640625e+00 -8.142753243446350098e-01 -1.318180084228515625e+00
2.715000000000000000e+03 4.443558502197265625e+01 2.342839050292968750e+01 -1.424144864082336426e+00 -1.320132851600646973e+00 -8.232833147048950195e-01 -1.348664402961730957e+00
2.716000000000000000e+03 2.588118362426757812e+01 1.765536689758300781e+01 9.687930345535278320e-02 1.196107342839241028e-01 6.494700908660888672e-02 1.058681160211563110e-01
2.717000000000000000e+03 3.664889144897460938e+01 2.931104469299316406e+01 6.175120547413825989e-02 8.048893511295318604e-02 4.267204180359840393e-02 6.558834016323089600e-02
2.718000000000000000e+03 3.247964096069335938e+01 2.486472129821777344e+01 5.965599417686462402e-02 8.779198676347732544e-02 4.423439502716064453e-02 7.464041560888290405e-02
2.719000000000000000e+03 4.184249496459960938e+01 2.094873619079589844e+01 -1.253079891204833984e+00 -1.301803231239318848e+00 -7.664649486541748047e-01 -1.327069520950317383e+00
2.720000000000000000e+03 2.062126350402832031e+01 1.267546558380126953e+01 1.189784854650497437e-01 1.674057990312576294e-01 8.591528236865997314e-02 1.402939110994338989e-01
2.721000000000000000e+03 2.032377815246582031e+01 1.249799060821533203e+01 1.181541830301284790e-01 1.687511354684829712e-01 8.607159554958343506e-02 1.409417241811752319e-01
2.722000000000000000e+03 3.633454132080078125e+01 2.833290100097656250e+01 6.365896761417388916e-02 8.267351239919662476e-02 4.389974474906921387e-02 6.820155680179595947e-02
2.723000000000000000e+03 2.167177772521972656e+01 1.374102783203125000e+01 1.157942190766334534e-01 1.552661806344985962e-01 8.131811767816543579e-02 1.309035867452621460e-01
2.724000000000000000e+03 3.050297164916992188e+01 2.193338775634765625e+01 7.028481364250183105e-02 9.242128580808639526e-02 4.881183058023452759e-02 8.298051357269287109e-02
2.725000000000000000e+03 3.020348167419433594e+01 2.223560142517089844e+01 6.688255816698074341e-02 9.456570446491241455e-02 4.843447729945182800e-02 8.276674896478652954e-02
2.726000000000000000e+03 3.082841873168945312e+01 2.240852546691894531e+01 6.641333550214767456e-02 9.072054177522659302e-02 4.714016243815422058e-02 8.207716792821884155e-02
2.727000000000000000e+03 3.069250297546386719e+01 2.217996788024902344e+01 6.834653019905090332e-02 9.190376102924346924e-02 4.807508736848831177e-02 8.258572965860366821e-02
2.728000000000000000e+03 5.218634033203125000e+01 3.075946807861328125e+01 -1.312060594558715820e+00 -4.695153534412384033e-01 -5.344728231430053711e-01 -9.295697808265686035e-01
2.729000000000000000e+03 3.264064788818359375e+01 1.095038795471191406e+01 -1.381011247634887695e+00 -1.412001132965087891e+00 -8.379037380218505859e-01 -1.316349267959594727e+00
2.730000000000000000e+03 2.334123992919921875e+01 1.537760829925537109e+01 1.038017868995666504e-01 1.408812552690505981e-01 7.340490818023681641e-02 1.206393018364906311e-01
2.731000000000000000e+03 2.280053138732910156e+01 1.482947731018066406e+01 1.087503135204315186e-01 1.466260105371475220e-01 7.661289721727371216e-02 1.228003427386283875e-01
2.732000000000000000e+03 4.471968460083007812e+01 2.368954658508300781e+01 -1.435813784599304199e+00 -1.313550829887390137e+00 -8.248093724250793457e-01 -1.340420126914978027e+00
2.733000000000000000e+03 4.500771713256835938e+01 2.394746971130371094e+01 -1.445078015327453613e+00 -1.297400236129760742e+00 -8.227434754371643066e-01 -1.332963705062866211e+00
2.734000000000000000e+03 3.546936798095703125e+01 1.415089893341064453e+01 -1.294363260269165039e+00 -1.489175796508789062e+00 -8.350617289543151855e-01 -1.368165850639343262e+00
2.735000000000000000e+03 5.323770904541015625e+01 3.150559997558593750e+01 -1.280714392662048340e+00 -1.718357503414154053e-01 -4.357650279998779297e-01 -8.321577310562133789e-01
2.736000000000000000e+03 5.240640640258789062e+01 3.170497322082519531e+01 -1.170857548713684082e+00 -4.521700441837310791e-01 -4.869082570075988770e-01 -8.534221053123474121e-01
2.737000000000000000e+03 3.383510971069335938e+01 1.228249835968017578e+01 -1.332760810852050781e+00 -1.462891340255737305e+00 -8.386956453323364258e-01 -1.358448982238769531e+00
2.738000000000000000e+03 3.402224731445312500e+01 1.259116649627685547e+01 -1.321407794952392578e+00 -1.481979370117187500e+00 -8.410161137580871582e-01 -1.362718939781188965e+00
2.739000000000000000e+03 3.615092849731445312e+01 2.873184394836425781e+01 6.147534772753715515e-02 8.224651217460632324e-02 4.311655834317207336e-02 6.662671267986297607e-02
2.740000000000000000e+03 5.373307037353515625e+01 3.210529327392578125e+01 -1.224751710891723633e+00 -4.369838163256645203e-02 -3.805350363254547119e-01 -7.562881708145141602e-01
2.741000000000000000e+03 1.890761947631835938e+01 1.083239841461181641e+01 1.277945488691329956e-01 1.930229812860488892e-01 9.624525904655456543e-02 1.604161560535430908e-01
2.742000000000000000e+03 1.378739452362060547e+01 5.924600601196289062e+00 9.092637151479721069e-02 6.037870645523071289e-01 2.084140330553054810e-01 1.380949616432189941e-01
2.743000000000000000e+03 3.325266647338867188e+01 2.553689002990722656e+01 5.943492427468299866e-02 8.723589032888412476e-02 4.400124400854110718e-02 7.259661704301834106e-02
2.744000000000000000e+03 5.189529037475585938e+01 3.044344139099121094e+01 -1.329740643501281738e+00 -5.423796176910400391e-01 -5.616360306739807129e-01 -9.666468501091003418e-01
2.745000000000000000e+03 3.496058654785156250e+01 2.749932861328125000e+01 5.962849035859107971e-02 8.419568091630935669e-02 4.314725100994110107e-02 6.959112733602523804e-02
2.746000000000000000e+03 3.214110565185546875e+01 1.013136959075927734e+01 -1.349128484725952148e+00 -1.387575864791870117e+00 -8.210113048553466797e-01 -1.285392403602600098e+00
2.747000000000000000e+03 3.616692352294921875e+01 2.934013938903808594e+01 5.981191247701644897e-02 8.108184486627578735e-02 4.226812720298767090e-02 6.462519615888595581e-02
2.748000000000000000e+03 3.065117645263671875e+01 5.715823650360107422e+00 -1.859192132949829102e+00 -1.022930622100830078e+00 -8.646368384361267090e-01 -1.088207006454467773e+00
2.749000000000000000e+03 7.679380798339843750e+01 3.074542236328125000e+01 -6.499146819114685059e-01 1.258279895782470703e+01 3.579865217208862305e+00 -1.929412722587585449e+00
2.750000000000000000e+03 1.820496177673339844e+01 1.033832454681396484e+01 1.260180920362472534e-01 2.083403021097183228e-01 1.003075167536735535e-01 1.604959517717361450e-01
2.751000000000000000e+03 1.492850017547607422e+01 6.654908657073974609e+00 1.468382030725479126e-01 4.077712297439575195e-01 1.663828343152999878e-01 2.090640068054199219e-01
2.752000000000000000e+03 7.347728729248046875e+01 3.642209243774414062e+01 -8.451728224754333496e-01 1.372590255737304688e+01 3.864218711853027344e+00 -3.583142995834350586e+00
2.753000000000000000e+03 1.756748580932617188e+01 1.001110076904296875e+01 1.237432062625885010e-01 2.243637740612030029e-01 1.044320911169052124e-01 1.607475727796554565e-01
2.754000000000000000e+03 1.730903625488281250e+01 9.551588058471679688e+00 1.320222020149230957e-01 2.316717356443405151e-01 1.091081798076629639e-01 1.664891093969345093e-01
2.755000000000000000e+03 1.421933174133300781e+01 6.235874652862548828e+00 1.113424450159072876e-01 5.173820853233337402e-01 1.886173635721206665e-01 1.894132047891616821e-01
2.756000000000000000e+03 1.556802940368652344e+01 7.377554893493652344e+00 1.428228318691253662e-01 3.401106297969818115e-01 1.448800414800643921e-01 2.029694318771362305e-01
2.757000000000000000e+03 1.489020252227783203e+01 7.025253772735595703e+00 1.265080422163009644e-01 3.988864719867706299e-01 1.576183587312698364e-01 1.891561448574066162e-01
2.758000000000000000e+03 2.211804199218750000e+01 -5.608909726142883301e-01 5.778218507766723633e-01 1.904106259346008301e+00 7.445784211158752441e-01 -1.161115646362304688e+00
2.759000000000000000e+03 1.289112949371337891e+01 3.717167615890502930e+00 4.099045395851135254e-01 1.080306529998779297e+00 4.470633268356323242e-01 -3.545689284801483154e-01
2.760000000000000000e+03 1.311969470977783203e+01 4.669728279113769531e+00 1.699740886688232422e-01 8.646510839462280273e-01 3.103875517845153809e-01 -8.269912749528884888e-02
2.761000000000000000e+03 7.198460388183593750e+01 3.067696189880371094e+01 -5.562787652015686035e-01 6.749980449676513672e+00 1.858110547065734863e+00 4.127479553222656250e+00
2.762000000000000000e+03 1.371998786926269531e+01 5.592000484466552734e+00 1.019705533981323242e-01 6.805852055549621582e-01 2.347667217254638672e-01 1.205703467130661011e-01
2.763000000000000000e+03 1.122642993927001953e+01 4.303028106689453125e+00 4.181589782238006592e-01 8.285047858953475952e-02 1.503028422594070435e-01 -1.618835777044296265e-01
2.764000000000000000e+03 5.425119781494140625e+01 3.185712623596191406e+01 -1.342258214950561523e+00 4.209029674530029297e-02 -3.900503814220428467e-01 -7.987278699874877930e-01
2.765000000000000000e+03 5.395274734497070312e+01 3.175031471252441406e+01 -1.325314521789550781e+00 -4.865635652095079422e-03 -3.990540504455566406e-01 -8.041104078292846680e-01
2.766000000000000000e+03 3.160562515258789062e+01 8.360989570617675781e+00 -1.242621660232543945e+00 -1.324938058853149414e+00 -7.702679634094238281e-01 -1.204277873039245605e+00
2.767000000000000000e+03 3.231932449340820312e+01 1.072071456909179688e+01 -1.387310743331909180e+00 -1.412752747535705566e+00 -8.400190472602844238e-01 -1.319497585296630859e+00
2.768000000000000000e+03 7.188773345947265625e+01 3.619616317749023438e+01 1.378538370132446289e+00 5.408913612365722656e+00 2.036235570907592773e+00 -4.097769737243652344e+00
2.769000000000000000e+03 7.529682922363281250e+01 3.558697509765625000e+01 1.636092066764831543e+00 1.683380126953125000e+01 5.540968418121337891e+00 2.511320114135742188e+00
2.770000000000000000e+03 7.498130798339843750e+01 3.548228073120117188e+01 1.583252191543579102e+00 1.827118301391601562e+01 5.956330776214599609e+00 2.304384946823120117e+00
2.771000000000000000e+03 7.525762176513671875e+01 3.688808822631835938e+01 -1.100005149841308594e+00 1.531143665313720703e+01 4.263429641723632812e+00 1.164732098579406738e+00
2.772000000000000000e+03 1.142661476135253906e+01 3.752701520919799805e+00 5.040674209594726562e-01 5.923387408256530762e-02 1.689903885126113892e-01 -1.830758452415466309e-01
2.773000000000000000e+03 3.222715759277343750e+01 6.103075504302978516e+00 -1.381910800933837891e+00 -9.608014822006225586e-01 -7.028136849403381348e-01 -9.632072448730468750e-01
2.774000000000000000e+03 6.423170089721679688e+00 -8.217480659484863281e+00 -1.492843478918075562e-01 -2.836347222328186035e-01 -1.298757195472717285e-01 -3.610368967056274414e-01
2.775000000000000000e+03 8.279855728149414062e+00 -6.054000854492187500e+00 -2.898666858673095703e-01 -1.687526702880859375e-01 -1.375858038663864136e-01 -3.635003566741943359e-01
2.776000000000000000e+03 1.457663536071777344e+01 6.634394645690917969e+00 1.240041628479957581e-01 4.466121196746826172e-01 1.711848825216293335e-01 1.915373057126998901e-01
2.777000000000000000e+03 6.692746734619140625e+01 3.030355072021484375e+01 -1.399397730827331543e+00 5.163210630416870117e-01 -2.649229764938354492e-01 3.231667280197143555e-01
2.778000000000000000e+03 6.762236022949218750e+01 2.965543174743652344e+01 -8.153941631317138672e-01 1.009735941886901855e+00 5.830252543091773987e-02 7.848191261291503906e-01
2.779000000000000000e+03 3.183486747741699219e+01 7.153296470642089844e+00 -1.337011933326721191e+00 -1.166664361953735352e+00 -7.511029243469238281e-01 -1.163148999214172363e+00
2.780000000000000000e+03 3.170394134521484375e+01 6.176957607269287109e+00 -1.479190111160278320e+00 -1.004763960838317871e+00 -7.451862096786499023e-01 -1.052673459053039551e+00
2.781000000000000000e+03 7.748300933837890625e+01 3.293761825561523438e+01 1.717337250709533691e+00 1.074292659759521484e+01 3.738079071044921875e+00 -1.456899881362915039e+00
2.782000000000000000e+03 2.681869888305664062e+01 -1.872595548629760742e+00 8.572314381599426270e-01 -8.719507604837417603e-03 2.545535862445831299e-01 -3.150649666786193848e-01
2.783000000000000000e+03 7.758049774169921875e+01 3.388422012329101562e+01 1.932577133178710938e+00 1.031400394439697266e+01 3.673974275588989258e+00 -2.925640642642974854e-01
2.784000000000000000e+03 7.726258087158203125e+01 3.219354248046875000e+01 8.606816530227661133e-01 1.133566856384277344e+01 3.658905029296875000e+00 -2.070101022720336914e+00
2.785000000000000000e+03 3.675070762634277344e+00 4.781280040740966797e+00 8.679198101162910461e-03 -1.101853922009468079e-01 -3.045185841619968414e-02 1.107689812779426575e-01
2.786000000000000000e+03 4.509259796142578125e+01 3.746333694458007812e+01 1.275318413972854614e-01 3.744237497448921204e-02 4.949226602911949158e-02 5.304856598377227783e-02
2.787000000000000000e+03 6.203905582427978516e+00 3.931446552276611328e+00 1.019235234707593918e-02 -1.311689466238021851e-01 -3.629297763109207153e-02 1.781501471996307373e-01
2.788000000000000000e+03 4.843564987182617188e+00 5.884673118591308594e+00 5.258918926119804382e-02 -1.313699185848236084e-01 -2.363421954214572906e-02 1.085100993514060974e-01
2.789000000000000000e+03 6.957957458496093750e+01 3.053258895874023438e+01 -6.604749560356140137e-01 1.727847933769226074e+00 3.202118873596191406e-01 1.779608011245727539e+00
2.790000000000000000e+03 4.212016582489013672e+00 6.024413108825683594e+00 4.146682098507881165e-02 -1.324918866157531738e-01 -2.730752155184745789e-02 1.004563421010971069e-01
2.791000000000000000e+03 2.490562438964843750e+01 -1.135937452316284180e+00 6.947066187858581543e-01 2.618432939052581787e-01 2.869649827480316162e-01 -6.667321920394897461e-01
2.792000000000000000e+03 2.545611190795898438e+01 -1.535881876945495605e+00 8.472728133201599121e-01 1.854528337717056274e-01 3.098176717758178711e-01 -5.617275834083557129e-01
2.793000000000000000e+03 6.430604934692382812e+00 4.593524456024169922e+00 6.133928522467613220e-02 -1.440512984991073608e-01 -2.481360547244548798e-02 1.595436632633209229e-01
2.794000000000000000e+03 5.834763050079345703e+00 4.810413360595703125e+00 5.194929242134094238e-02 -1.372358053922653198e-01 -2.558595687150955200e-02 1.476494073867797852e-01
2.795000000000000000e+03 9.030841827392578125e+00 3.377720117568969727e+00 1.636216789484024048e-01 -2.631123065948486328e-01 -2.984718978404998779e-02 2.227207720279693604e-01
2.796000000000000000e+03 7.659570217132568359e+00 4.604142665863037109e+00 1.332334131002426147e-01 -1.792427003383636475e-01 -1.380278542637825012e-02 1.510312855243682861e-01
2.797000000000000000e+03 7.574417114257812500e+01 3.574495697021484375e+01 1.199680447578430176e+00 1.536976528167724609e+01 4.970833778381347656e+00 2.509013652801513672e+00
2.798000000000000000e+03 2.936461830139160156e+01 -3.094166994094848633e+00 7.997428178787231445e-01 -3.943137228488922119e-01 1.216287240386009216e-01 -1.907995343208312988e-01
2.799000000000000000e+03 5.911860656738281250e+01 3.060869979858398438e+01 -1.772023677825927734e+00 2.375607937574386597e-01 -4.603388607501983643e-01 -8.074410557746887207e-01
2.800000000000000000e+03 6.017075729370117188e+01 3.011070823669433594e+01 -1.694524526596069336e+00 2.459989637136459351e-01 -4.345576763153076172e-01 -7.723642587661743164e-01
2.801000000000000000e+03 3.923742294311523438e+01 3.143620300292968750e+01 6.647954881191253662e-02 6.639663875102996826e-02 3.986285626888275146e-02 6.272134929895401001e-02
2.802000000000000000e+03 3.993412399291992188e+01 3.212605667114257812e+01 6.722647696733474731e-02 6.327989697456359863e-02 3.915191441774368286e-02 6.203021109104156494e-02
2.803000000000000000e+03 1.186418533325195312e+01 -5.395025730133056641e+00 -5.571717619895935059e-01 -2.429000139236450195e-01 -2.400215268135070801e-01 -5.855367183685302734e-01
2.804000000000000000e+03 1.234901237487792969e+01 4.044070720672607422e+00 4.483842253684997559e-01 5.461990833282470703e-01 2.983749806880950928e-01 -3.444510698318481445e-01
2.805000000000000000e+03 6.248878097534179688e+01 3.053163909912109375e+01 -1.958958387374877930e+00 1.724529415369033813e-01 -5.359516739845275879e-01 -5.664747357368469238e-01
2.806000000000000000e+03 6.323514175415039062e+01 2.980323982238769531e+01 -1.572887659072875977e+00 2.618080675601959229e-01 -3.933238685131072998e-01 -4.640934467315673828e-01
2.807000000000000000e+03 8.099318504333496094e+00 -4.414952754974365234e+00 -2.958569228649139404e-01 -8.109082281589508057e-02 -1.130843237042427063e-01 -2.541733980178833008e-01
2.808000000000000000e+03 8.914222717285156250e+00 -5.213037490844726562e+00 -3.501471877098083496e-01 -1.255424618721008301e-01 -1.427068859338760376e-01 -3.494333624839782715e-01
2.809000000000000000e+03 5.689468765258789062e+01 3.097074317932128906e+01 -1.634729027748107910e+00 2.419359982013702393e-01 -4.178379178047180176e-01 -8.524188399314880371e-01
2.810000000000000000e+03 5.942943954467773438e+01 3.002338218688964844e+01 -1.643771529197692871e+00 2.631710767745971680e-01 -4.141801595687866211e-01 -8.201288580894470215e-01
2.811000000000000000e+03 5.543536758422851562e+01 3.954032135009765625e+01 2.352776080369949341e-01 -1.573280096054077148e-01 2.338487841188907623e-02 1.578989252448081970e-02
2.812000000000000000e+03 5.282224273681640625e+01 4.090313720703125000e+01 2.323312163352966309e-01 -1.694156788289546967e-02 6.461689621210098267e-02 5.004580691456794739e-02
2.813000000000000000e+03 6.399232482910156250e+01 3.041575050354003906e+01 -1.883950352668762207e+00 1.935205906629562378e-01 -5.071289539337158203e-01 -3.856662511825561523e-01
2.814000000000000000e+03 6.545748901367187500e+01 2.966273689270019531e+01 -1.270526766777038574e+00 4.566770195960998535e-01 -2.441549152135848999e-01 -1.130800228565931320e-02
2.815000000000000000e+03 3.891761398315429688e+01 3.145799255371093750e+01 6.570695340633392334e-02 6.829373538494110107e-02 4.020020738244056702e-02 6.240935623645782471e-02
2.816000000000000000e+03 3.674014663696289062e+01 3.024482917785644531e+01 6.032169982790946960e-02 7.825072109699249268e-02 4.157172515988349915e-02 6.342314183712005615e-02
2.817000000000000000e+03 5.809839630126953125e+01 2.965484428405761719e+01 -1.531036853790283203e+00 2.827609479427337646e-01 -3.744827806949615479e-01 -8.941403031349182129e-01
2.818000000000000000e+03 5.876499938964843750e+01 2.980825042724609375e+01 -1.572292923927307129e+00 2.811369895935058594e-01 -3.873468041419982910e-01 -8.618022203445434570e-01
2.819000000000000000e+03 6.094792175292968750e+01 3.002301025390625000e+01 -1.699916958808898926e+00 2.258721441030502319e-01 -4.422134459018707275e-01 -7.183670997619628906e-01
2.820000000000000000e+03 6.397586059570312500e+01 2.974640846252441406e+01 -1.498584389686584473e+00 2.978765666484832764e-01 -3.602123558521270752e-01 -3.478786349296569824e-01
2.821000000000000000e+03 5.782812118530273438e+01 3.034542655944824219e+01 -1.631593585014343262e+00 2.614959776401519775e-01 -4.110293090343475342e-01 -8.751867413520812988e-01
2.822000000000000000e+03 5.848826980590820312e+01 3.045178604125976562e+01 -1.687940716743469238e+00 2.537245750427246094e-01 -4.302648603916168213e-01 -8.508271574974060059e-01
2.823000000000000000e+03 1.040599632263183594e+01 3.651094436645507812e+00 3.908055722713470459e-01 -2.142686396837234497e-01 5.296107754111289978e-02 3.670210391283035278e-02
2.824000000000000000e+03 7.454342842102050781e+00 5.195334911346435547e+00 1.413479149341583252e-01 -1.559191048145294189e-01 -4.371357150375843048e-03 1.121239513158798218e-01
2.825000000000000000e+03 3.592087030410766602e+00 -6.842643737792968750e+00 -7.082328200340270996e-02 -1.688702404499053955e-01 -7.190805673599243164e-02 -1.621580123901367188e-01
2.826000000000000000e+03 6.691649627685546875e+01 2.961945533752441406e+01 -9.585267305374145508e-01 7.812758088111877441e-01 -5.317527428269386292e-02 4.898984134197235107e-01
2.827000000000000000e+03 5.162366390228271484e+00 -5.605227947235107422e+00 -1.276117861270904541e-01 -1.374086588621139526e-01 -7.950612902641296387e-02 -1.846554875373840332e-01
2.828000000000000000e+03 5.938775062561035156e+00 -5.463277339935302734e+00 -1.702520251274108887e-01 -1.289238631725311279e-01 -8.975276350975036621e-02 -2.157182395458221436e-01
2.829000000000000000e+03 6.113062858581542969e+00 -6.306503772735595703e+00 -1.642056703567504883e-01 -1.816138178110122681e-01 -1.037458479404449463e-01 -2.633532881736755371e-01
2.830000000000000000e+03 5.553223419189453125e+01 3.073446464538574219e+01 -1.520564913749694824e+00 1.904751658439636230e-01 -3.990269303321838379e-01 -8.874231576919555664e-01
2.831000000000000000e+03 7.455576896667480469e+00 -5.273838996887207031e+00 -2.543734014034271240e-01 -1.223553866147994995e-01 -1.130186393857002258e-01 -2.786458432674407959e-01
2.832000000000000000e+03 8.190361022949218750e+00 -5.233588695526123047e+00 -2.961137294769287109e-01 -1.415372788906097412e-01 -1.312952935695648193e-01 -3.179414868354797363e-01
2.833000000000000000e+03 1.192364215850830078e+01 4.474827289581298828e+00 3.890424668788909912e-01 3.327195048332214355e-01 2.165285944938659668e-01 -2.519376277923583984e-01
2.834000000000000000e+03 1.108197021484375000e+01 5.429304122924804688e+00 2.748652696609497070e-01 1.501707881689071655e-01 1.275108158588409424e-01 -1.326669901609420776e-01
2.835000000000000000e+03 5.647160339355468750e+01 3.014609718322753906e+01 -1.538834691047668457e+00 2.453257739543914795e-01 -3.880526721477508545e-01 -9.157207608222961426e-01
2.836000000000000000e+03 5.248587799072265625e+01 3.044411849975585938e+01 -1.355537295341491699e+00 -3.545072674751281738e-01 -5.130133628845214844e-01 -9.287486076354980469e-01
2.837000000000000000e+03 5.583210372924804688e+01 3.000215530395507812e+01 -1.501367330551147461e+00 2.081464827060699463e-01 -3.879662752151489258e-01 -9.266017079353332520e-01
2.838000000000000000e+03 1.767657852172851562e+01 -3.022746086120605469e+00 -1.526578783988952637e+00 -1.872419595718383789e+00 -1.019699573516845703e+00 -1.427381038665771484e+00
2.839000000000000000e+03 1.697654533386230469e+01 -2.843587636947631836e+00 -1.667597055435180664e+00 -1.085356593132019043e+00 -8.258861303329467773e-01 -1.129995822906494141e+00
2.840000000000000000e+03 8.590169906616210938e+00 4.402465820312500000e+00 1.951592415571212769e-01 -1.987185776233673096e-01 -1.067799981683492661e-03 1.304563730955123901e-01
2.841000000000000000e+03 3.198187065124511719e+01 7.661657810211181641e+00 -1.287573695182800293e+00 -1.209116339683532715e+00 -7.490069866180419922e-01 -1.184002876281738281e+00
2.842000000000000000e+03 1.441647911071777344e+01 -5.864186286926269531e+00 -6.181106567382812500e-01 -7.051768302917480469e-01 -3.969862461090087891e-01 -8.776940107345581055e-01
2.843000000000000000e+03 4.360100936889648438e+01 3.783715438842773438e+01 1.165765896439552307e-01 3.941233083605766296e-02 4.679667577147483826e-02 4.586686193943023682e-02
2.844000000000000000e+03 4.749584197998046875e+01 3.873673248291015625e+01 1.616663932800292969e-01 3.824107721447944641e-02 5.997224152088165283e-02 4.313126206398010254e-02
2.845000000000000000e+03 4.341374206542968750e+01 3.552526092529296875e+01 8.990228176116943359e-02 4.680182412266731262e-02 4.101123288273811340e-02 5.800250172615051270e-02
2.846000000000000000e+03 4.788882064819335938e+01 3.977978897094726562e+01 1.771517693996429443e-01 3.078426420688629150e-02 6.238080933690071106e-02 3.304938971996307373e-02
2.847000000000000000e+03 1.440072917938232422e+01 -4.891445636749267578e+00 -7.890190482139587402e-01 -5.479061007499694824e-01 -4.010775387287139893e-01 -8.445303440093994141e-01
2.848000000000000000e+03 7.576086425781250000e+01 3.250331115722656250e+01 1.947900533676147461e+00 1.519347190856933594e+01 5.142411708831787109e+00 -2.460053920745849609e+00
2.849000000000000000e+03 7.686357879638671875e+01 3.569383239746093750e+01 1.228697538375854492e+00 1.243499660491943359e+01 4.099108219146728516e+00 2.220135450363159180e+00
2.850000000000000000e+03 7.712460327148437500e+01 2.883535957336425781e+01 -9.516579508781433105e-01 1.141337680816650391e+01 3.138515710830688477e+00 -1.048866391181945801e+00
2.851000000000000000e+03 7.510632324218750000e+01 3.018178939819335938e+01 -1.967018723487854004e+00 1.360354328155517578e+01 3.490957498550415039e+00 3.619655966758728027e-02
2.852000000000000000e+03 7.579737091064453125e+01 2.743655395507812500e+01 -1.234842538833618164e+00 1.083107662200927734e+01 2.878870010375976562e+00 2.480600178241729736e-01
2.853000000000000000e+03 7.190602874755859375e+01 3.670295333862304688e+01 7.747653126716613770e-01 6.497769832611083984e+00 2.181760549545288086e+00 -3.660716772079467773e+00
2.854000000000000000e+03 7.100646209716796875e+01 3.794052886962890625e+01 7.310198545455932617e-01 4.566582679748535156e+00 1.589280843734741211e+00 -2.415914535522460938e+00
2.855000000000000000e+03 3.884206390380859375e+01 -1.325173282623291016e+01 3.571072518825531006e-01 -3.212310373783111572e-01 1.076286565512418747e-02 8.371226140297949314e-04
2.856000000000000000e+03 3.432107162475585938e+01 -7.904391288757324219e+00 6.336120963096618652e-01 -5.071606636047363281e-01 3.793542459607124329e-02 -1.328779906034469604e-01
2.857000000000000000e+03 3.507453155517578125e+01 -8.912952423095703125e+00 6.015694737434387207e-01 -4.875198006629943848e-01 3.421489521861076355e-02 -1.134250089526176453e-01
2.858000000000000000e+03 2.135915374755859375e+01 -2.105841064453125000e+01 2.271318286657333374e-01 6.424074620008468628e-02 8.741176873445510864e-02 -3.194003403186798096e-01
2.859000000000000000e+03 2.166964340209960938e+01 -1.934138870239257812e+01 2.078872472047805786e-01 1.017287448048591614e-01 9.288480132818222046e-02 -3.054754436016082764e-01
2.860000000000000000e+03 1.634425163269042969e+01 -6.221719741821289062e+00 -4.343706071376800537e-01 -1.274839758872985840e+00 -5.127631425857543945e-01 -9.014781117439270020e-01
2.861000000000000000e+03 1.534125804901123047e+01 -4.910993576049804688e+00 -8.462921380996704102e-01 -8.673229813575744629e-01 -5.140845179557800293e-01 -9.744032025337219238e-01
2.862000000000000000e+03 1.720675468444824219e+01 -6.232626438140869141e+00 -2.645557522773742676e-01 -1.457901120185852051e+00 -5.167370438575744629e-01 -8.019047379493713379e-01
2.863000000000000000e+03 4.587671661376953125e+01 -2.622604370117187500e+01 -1.242265552282333374e-01 4.810894131660461426e-01 1.070588529109954834e-01 1.583535224199295044e-01
2.864000000000000000e+03 4.460873413085937500e+01 -2.435777282714843750e+01 -8.852857351303100586e-02 2.325213402509689331e-01 4.319782927632331848e-02 1.525318175554275513e-01
2.865000000000000000e+03 2.226593399047851562e+01 -2.481991386413574219e+01 2.436061948537826538e-01 1.635105758905410767e-01 1.221350356936454773e-01 -3.336231708526611328e-01
2.866000000000000000e+03 5.797739791870117188e+01 4.171378707885742188e+01 3.924180865287780762e-01 -3.131405711174011230e-01 2.378326095640659332e-02 5.508409440517425537e-02
2.867000000000000000e+03 4.161434173583984375e+01 -2.157588005065917969e+01 -4.511632397770881653e-02 -1.819017678499221802e-01 -6.810542941093444824e-02 1.810811460018157959e-01
2.868000000000000000e+03 4.029657363891601562e+01 -1.918287467956542969e+01 2.102174609899520874e-02 -2.714499235153198242e-01 -7.512845844030380249e-02 1.468151807785034180e-01
2.869000000000000000e+03 4.496813583374023438e+01 -1.952311325073242188e+01 1.225890442728996277e-01 3.763087391853332520e-01 1.496693342924118042e-01 8.280825614929199219e-02
2.870000000000000000e+03 3.305403137207031250e+01 -5.826070308685302734e+00 7.322611212730407715e-01 -5.505847930908203125e-01 5.450290814042091370e-02 -1.140204370021820068e-01
2.871000000000000000e+03 4.401914596557617188e+01 -2.322019577026367188e+01 -4.571071267127990723e-02 1.695332527160644531e-01 3.714676201343536377e-02 1.477880328893661499e-01
2.872000000000000000e+03 4.353127670288085938e+01 -2.503470993041992188e+01 -1.273846030235290527e-01 2.676332183182239532e-02 -3.018638677895069122e-02 1.964216381311416626e-01
2.873000000000000000e+03 2.544459724426269531e+01 -2.869283294677734375e+01 3.102639019489288330e-01 4.089028239250183105e-01 2.157500237226486206e-01 -3.658849895000457764e-01
2.874000000000000000e+03 3.831255340576171875e+01 -1.540702056884765625e+01 1.976345330476760864e-01 -3.680238425731658936e-01 -5.111679434776306152e-02 6.722133606672286987e-02
2.875000000000000000e+03 4.272850418090820312e+01 -2.089005851745605469e+01 2.414526231586933136e-02 1.455203630030155182e-02 1.160918921232223511e-02 1.361660212278366089e-01
2.876000000000000000e+03 4.012365722656250000e+01 -1.601056671142578125e+01 2.112019211053848267e-01 -2.262070924043655396e-01 -4.501550458371639252e-03 5.940251424908638000e-02
2.877000000000000000e+03 7.512322235107421875e+01 -2.675746345520019531e+01 1.260802336037158966e-02 5.373117446899414062e+00 1.615717649459838867e+00 1.016044840216636658e-01
2.878000000000000000e+03 7.262698364257812500e+01 -2.900267219543457031e+01 2.692859619855880737e-02 4.953384399414062500e+00 1.494093894958496094e+00 1.428330540657043457e-01
2.879000000000000000e+03 7.637958526611328125e+01 2.852061080932617188e+01 -1.257206916809082031e+00 1.158959960937500000e+01 3.099717855453491211e+00 -5.277942419052124023e-01
2.880000000000000000e+03 7.524053192138671875e+01 2.411420059204101562e+01 -4.367526769638061523e-01 9.022398948669433594e+00 2.575693845748901367e+00 8.955742120742797852e-01
2.881000000000000000e+03 7.559629058837890625e+01 2.533664512634277344e+01 -6.917282938957214355e-01 9.684447288513183594e+00 2.697815656661987305e+00 6.784551143646240234e-01
2.882000000000000000e+03 7.605892181396484375e+01 2.121776580810546875e+01 -8.543725311756134033e-02 8.915361404418945312e+00 2.648977279663085938e+00 8.132672309875488281e-01
2.883000000000000000e+03 7.379731750488281250e+01 2.003951835632324219e+01 3.683968260884284973e-02 7.397519588470458984e+00 2.230307817459106445e+00 1.116890430450439453e+00
2.884000000000000000e+03 7.442211151123046875e+01 -2.283305168151855469e+01 1.468419563025236130e-02 5.351073741912841797e+00 1.609727382659912109e+00 1.339925229549407959e-01
2.885000000000000000e+03 7.445529174804687500e+01 -1.771787071228027344e+01 2.107028663158416748e-02 5.478623867034912109e+00 1.649908304214477539e+00 1.647692918777465820e-01
2.886000000000000000e+03 7.552767181396484375e+01 1.422481822967529297e+01 9.047417342662811279e-02 7.662471294403076172e+00 2.325883626937866211e+00 7.245651483535766602e-01
2.887000000000000000e+03 7.426437377929687500e+01 1.138986206054687500e+01 1.269378513097763062e-01 6.866454124450683594e+00 2.098017454147338867e+00 7.377259731292724609e-01
2.888000000000000000e+03 7.440422821044921875e+01 -1.053123855590820312e+01 3.377801552414894104e-02 5.681781291961669922e+00 1.714667916297912598e+00 2.302782684564590454e-01
2.889000000000000000e+03 7.391301727294921875e+01 -1.494411563873291016e+01 2.808503434062004089e-02 5.456268310546875000e+00 1.645306110382080078e+00 2.014760971069335938e-01
2.890000000000000000e+03 7.529870605468750000e+01 5.139122903347015381e-02 4.765117913484573364e-02 6.367144107818603516e+00 1.924438595771789551e+00 3.445481061935424805e-01
2.891000000000000000e+03 7.384926605224609375e+01 -1.436742663383483887e+00 7.153511047363281250e-02 5.931131362915039062e+00 1.800799965858459473e+00 4.007394313812255859e-01
2.892000000000000000e+03 7.551942443847656250e+01 7.045956134796142578e+00 6.484981626272201538e-02 6.930541038513183594e+00 2.098617315292358398e+00 4.954788386821746826e-01
2.893000000000000000e+03 7.434485626220703125e+01 4.296608448028564453e+00 8.508443087339401245e-02 6.390830516815185547e+00 1.942774534225463867e+00 5.070250630378723145e-01
2.894000000000000000e+03 7.425147247314453125e+01 2.951094150543212891e+00 8.236394077539443970e-02 6.281300067901611328e+00 1.909099221229553223e+00 4.785360991954803467e-01
2.895000000000000000e+03 7.435671997070312500e+01 -4.229134082794189453e+00 5.374675616621971130e-02 5.924064159393310547e+00 1.793343305587768555e+00 3.201850950717926025e-01
2.896000000000000000e+03 7.452463531494140625e+01 -5.517039299011230469e+00 4.738146439194679260e-02 5.902863979339599609e+00 1.785073637962341309e+00 2.925379574298858643e-01
2.897000000000000000e+03 7.415997314453125000e+01 -1.189053630828857422e+01 3.292597457766532898e-02 5.589735507965087891e+00 1.686798453330993652e+00 2.228501290082931519e-01
2.898000000000000000e+03 7.447777557373046875e+01 -1.900448036193847656e+01 1.285104174166917801e-02 5.445723533630371094e+00 1.637572407722473145e+00 1.560390442609786987e-01
2.899000000000000000e+03 7.474604034423828125e+01 1.860512733459472656e+01 6.980567425489425659e-02 7.770816802978515625e+00 2.352186679840087891e+00 9.658725261688232422e-01
2.900000000000000000e+03 7.428735351562500000e+01 -2.507912063598632812e+01 1.381418760865926743e-02 5.285839080810546875e+00 1.589896082878112793e+00 1.253665089607238770e-01
2.901000000000000000e+03 7.323200225830078125e+01 -2.749887657165527344e+01 1.912595331668853760e-02 5.072425842285156250e+00 1.527465581893920898e+00 1.407809555530548096e-01
2.902000000000000000e+03 7.429673767089843750e+01 6.986784934997558594e+00 1.027502119541168213e-01 6.549756526947021484e+00 1.995751976966857910e+00 5.815920829772949219e-01
2.903000000000000000e+03 7.407826995849609375e+01 1.559968829154968262e+00 7.821300625801086426e-02 6.150416374206542969e+00 1.868588805198669434e+00 4.573636054992675781e-01
2.904000000000000000e+03 7.465612030029296875e+01 -7.999392509460449219e+00 3.696070238947868347e-02 5.824452400207519531e+00 1.758424043655395508e+00 2.520014047622680664e-01
2.905000000000000000e+03 7.413193511962890625e+01 9.918445587158203125e+00 1.249570995569229126e-01 6.697710037231445312e+00 2.046800136566162109e+00 6.933913230895996094e-01
2.906000000000000000e+03 7.438226318359375000e+01 -2.164933967590332031e+01 1.290056481957435608e-02 5.370749950408935547e+00 1.615095138549804688e+00 1.471459269523620605e-01
2.907000000000000000e+03 7.202883911132812500e+01 -3.075239181518554688e+01 2.875704877078533173e-02 4.818895339965820312e+00 1.454295635223388672e+00 1.365247070789337158e-01
2.908000000000000000e+03 7.420864868164062500e+01 1.430355644226074219e+01 1.411053091287612915e-01 7.069451808929443359e+00 2.163166999816894531e+00 8.575838804244995117e-01
2.909000000000000000e+03 7.456456756591796875e+01 1.724019432067871094e+01 1.023260131478309631e-01 7.523726463317871094e+00 2.287815809249877930e+00 9.410293102264404297e-01
2.910000000000000000e+03 6.681172847747802734e+00 3.129388999938964844e+01 -5.805453285574913025e-03 -5.921656638383865356e-02 -1.950660534203052521e-02 -1.099316217005252838e-02
2.911000000000000000e+03 5.127118587493896484e+00 -3.039205741882324219e+01 3.839593008160591125e-02 -1.166097998619079590e+00 -3.383106291294097900e-01 -1.359935849905014038e-01
2.912000000000000000e+03 4.030284881591796875e+00 2.821909141540527344e+01 -3.693602746352553368e-03 -9.811090677976608276e-02 -3.054135292768478394e-02 -1.268199551850557327e-02
2.913000000000000000e+03 5.500425815582275391e+00 2.872114372253417969e+01 -5.262002814561128616e-03 -7.506654411554336548e-02 -2.409856393933296204e-02 -1.389086432754993439e-02
2.914000000000000000e+03 4.453189373016357422e+00 -2.677575874328613281e+01 3.082388266921043396e-02 -1.124571919441223145e+00 -3.281244337558746338e-01 -1.699399203062057495e-01
2.915000000000000000e+03 5.039017200469970703e+00 -1.048449611663818359e+01 -5.193232372403144836e-02 -3.877776861190795898e-01 -1.319130063056945801e-01 -3.314613401889801025e-01
2.916000000000000000e+03 5.780667304992675781e+00 2.436266136169433594e+01 -6.165140774101018906e-03 -7.159917801618576050e-02 -2.332929521799087524e-02 -1.958492398262023926e-02
2.917000000000000000e+03 5.871572971343994141e+00 -2.259878730773925781e+01 5.639368295669555664e-02 -9.084433317184448242e-01 -2.556149065494537354e-01 -2.732886970043182373e-01
2.918000000000000000e+03 7.197891235351562500e+01 -3.516925811767578125e+01 4.381093755364418030e-02 4.796586036682128906e+00 1.452119112014770508e+00 1.019547656178474426e-01
2.919000000000000000e+03 7.421367645263671875e+01 -3.462204742431640625e+01 2.658781409263610840e-02 5.116725921630859375e+00 1.542994141578674316e+00 9.486738592386245728e-02
2.920000000000000000e+03 5.448826313018798828e+00 -1.569078731536865234e+01 3.019324131309986115e-02 -6.571059823036193848e-01 -1.880738139152526855e-01 -3.547753095626831055e-01
2.921000000000000000e+03 5.669029235839843750e+00 -1.840038490295410156e+01 5.011500790715217590e-02 -7.660001516342163086e-01 -2.147655487060546875e-01 -3.285023272037506104e-01
2.922000000000000000e+03 7.495392608642578125e+01 2.130354118347167969e+01 -7.846596837043762207e-02 8.245334625244140625e+00 2.450060606002807617e+00 9.987094998359680176e-01
2.923000000000000000e+03 4.449943542480468750e+00 -1.997765731811523438e+01 3.496072068810462952e-02 -8.722617626190185547e-01 -2.511903047561645508e-01 -2.556341886520385742e-01
2.924000000000000000e+03 5.068956375122070312e+00 1.707320785522460938e+01 2.541799563914537430e-03 -9.028218686580657959e-02 -2.632211521267890930e-02 -2.463669516146183014e-02
2.925000000000000000e+03 5.134398937225341797e+00 1.842461204528808594e+01 -1.210559275932610035e-03 -8.778340369462966919e-02 -2.669818885624408722e-02 -2.464620023965835571e-02
2.926000000000000000e+03 3.987282276153564453e+00 1.721346092224121094e+01 8.222307660616934299e-04 -1.206947639584541321e-01 -3.596175834536552429e-02 -2.299019694328308105e-02
2.927000000000000000e+03 5.070514202117919922e+00 1.571455383300781250e+01 6.869917735457420349e-03 -9.023458510637283325e-02 -2.500940114259719849e-02 -2.300987392663955688e-02
2.928000000000000000e+03 3.963490247726440430e+00 1.583081912994384766e+01 5.788331385701894760e-03 -1.251073926687240601e-01 -3.579571843147277832e-02 -2.203469909727573395e-02
2.929000000000000000e+03 5.587426662445068359e+00 -2.781054306030273438e+01 4.997228085994720459e-02 -1.066353678703308105e+00 -3.049144446849822998e-01 -1.887919157743453979e-01
2.930000000000000000e+03 5.517823696136474609e+00 2.581621742248535156e+01 -4.879189655184745789e-03 -7.675275951623916626e-02 -2.448958344757556915e-02 -1.725214533507823944e-02
2.931000000000000000e+03 4.047701835632324219e+00 -1.318903541564941406e+01 -4.298858810216188431e-03 -5.371987223625183105e-01 -1.624492704868316650e-01 -2.960807979106903076e-01
2.932000000000000000e+03 5.113209247589111328e+00 -1.177307033538818359e+01 -2.923807129263877869e-02 -4.656704664230346680e-01 -1.484725624322891235e-01 -3.517844676971435547e-01
2.933000000000000000e+03 5.491439342498779297e+00 2.122454452514648438e+01 -4.571822006255388260e-03 -7.796585559844970703e-02 -2.476130239665508270e-02 -2.323137596249580383e-02
2.934000000000000000e+03 1.178956222534179688e+01 -3.223191452026367188e+01 1.397499144077301025e-01 -6.646792292594909668e-01 -1.574787944555282593e-01 -1.956057548522949219e-01
2.935000000000000000e+03 7.686312675476074219e+00 -3.371995925903320312e+01 7.393657416105270386e-02 -1.022315502166748047e+00 -2.845136821269989014e-01 -1.337538361549377441e-01
2.936000000000000000e+03 5.830842018127441406e+00 -2.119406890869140625e+01 5.719057470560073853e-02 -8.594677448272705078e-01 -2.406831383705139160e-01 -2.891561686992645264e-01
2.937000000000000000e+03 5.760445117950439453e+00 -1.979117393493652344e+01 5.356232449412345886e-02 -8.219726681709289551e-01 -2.305231094360351562e-01 -3.139731884002685547e-01
2.938000000000000000e+03 3.950033187866210938e+01 -1.467838668823242188e+01 2.570839524269104004e-01 -2.688130140304565430e-01 -3.518715500831604004e-03 2.715516276657581329e-02
2.939000000000000000e+03 5.734713077545166016e+00 -2.874383735656738281e+01 5.049073696136474609e-02 -1.082059025764465332e+00 -3.094705045223236084e-01 -1.740549504756927490e-01
2.940000000000000000e+03 4.916460990905761719e+00 2.765921401977539062e+01 -4.123609047383069992e-03 -8.433895558118820190e-02 -2.653876878321170807e-02 -1.482530590146780014e-02
2.941000000000000000e+03 3.660884857177734375e+00 1.039099597930908203e+01 3.171782568097114563e-02 -1.460001617670059204e-01 -3.428469970822334290e-02 1.534964144229888916e-02
2.942000000000000000e+03 4.719672679901123047e+00 1.022180557250976562e+01 4.733043164014816284e-02 -1.188495755195617676e-01 -2.145574428141117096e-02 1.549168955534696579e-02
2.943000000000000000e+03 5.327723503112792969e+00 -1.436972332000732422e+01 1.176176685839891434e-02 -6.020158529281616211e-01 -1.770762205123901367e-01 -3.621318042278289795e-01
2.944000000000000000e+03 4.533030033111572266e+00 8.974180221557617188e+00 5.526358261704444885e-02 -1.292752623558044434e-01 -2.220350317656993866e-02 3.569352999329566956e-02
2.945000000000000000e+03 4.522777080535888672e+00 -6.761592388153076172e+00 -9.762045741081237793e-02 -1.814006268978118896e-01 -8.370632678270339966e-02 -2.016980499029159546e-01
2.946000000000000000e+03 4.797428131103515625e+00 -7.906059265136718750e+00 -9.960890561342239380e-02 -2.405765354633331299e-01 -1.020556315779685974e-01 -2.581330239772796631e-01
2.947000000000000000e+03 5.710531234741210938e+00 -7.530304431915283203e+00 -1.268077492713928223e-01 -2.363086789846420288e-01 -1.089349314570426941e-01 -2.900061607360839844e-01
2.948000000000000000e+03 5.930444240570068359e+00 3.506667327880859375e+01 -2.697214018553495407e-03 -6.760299205780029297e-02 -2.109006233513355255e-02 -6.320314947515726089e-03
2.949000000000000000e+03 3.792719268798828125e+01 -1.196902561187744141e+01 3.965835273265838623e-01 -3.780821263790130615e-01 5.550415255129337311e-03 -3.333131968975067139e-02
2.950000000000000000e+03 3.685781478881835938e+01 -1.092311763763427734e+01 4.762313365936279297e-01 -4.312551915645599365e-01 1.349284406751394272e-02 -5.421159416437149048e-02
2.951000000000000000e+03 4.607262802124023438e+01 3.990136718750000000e+01 1.514085233211517334e-01 3.393806517124176025e-02 5.560397729277610779e-02 2.745695039629936218e-02
2.952000000000000000e+03 3.115041351318359375e+01 -5.471553325653076172e+00 8.206105828285217285e-01 -4.091698229312896729e-01 1.234322339296340942e-01 -2.226718366146087646e-01
2.953000000000000000e+03 6.200990295410156250e+01 4.159715652465820312e+01 8.423749208450317383e-01 -3.010425269603729248e-01 1.623997241258621216e-01 8.123608678579330444e-02
2.954000000000000000e+03 1.901784706115722656e+01 -1.480802822113037109e+01 2.414897829294204712e-01 -3.061654865741729736e-01 -1.940271444618701935e-02 -2.966838181018829346e-01
2.955000000000000000e+03 1.683269691467285156e+01 -1.612161827087402344e+01 2.483308315277099609e-01 -4.545289278030395508e-01 -6.185942515730857849e-02 -3.848271965980529785e-01
2.956000000000000000e+03 2.571151542663574219e+01 -3.097271156311035156e+01 3.480866551399230957e-01 3.874857127666473389e-01 2.206717133522033691e-01 -3.482438623905181885e-01
2.957000000000000000e+03 2.648551559448242188e+01 -2.968609237670898438e+01 3.332813680171966553e-01 4.663123786449432373e-01 2.398781180381774902e-01 -3.801106214523315430e-01
2.958000000000000000e+03 1.576939487457275391e+01 -1.205496501922607422e+01 1.809650063514709473e-01 -7.057884335517883301e-01 -1.574470251798629761e-01 -5.187048316001892090e-01
2.959000000000000000e+03 1.759129905700683594e+01 -1.239838790893554688e+01 2.418309152126312256e-01 -6.217641830444335938e-01 -1.139799803495407104e-01 -3.706046938896179199e-01
2.960000000000000000e+03 1.620017623901367188e+01 -8.762695312500000000e+00 -1.878323033452033997e-02 -1.007004737854003906e+00 -3.077363967895507812e-01 -6.740034818649291992e-01
2.961000000000000000e+03 7.112261199951171875e+01 3.701705551147460938e+01 1.115085363388061523e+00 3.179767131805419922e+00 1.288455724716186523e+00 -2.880982160568237305e+00
2.962000000000000000e+03 2.036398887634277344e+01 -1.712335205078125000e+01 2.212990522384643555e-01 -7.136633247137069702e-02 4.497981816530227661e-02 -2.878708541393280029e-01
2.963000000000000000e+03 2.808765029907226562e+01 -3.626336669921875000e+01 5.324512720108032227e-01 4.094269573688507080e-01 2.825634777545928955e-01 -3.160832822322845459e-01
2.964000000000000000e+03 3.048158073425292969e+01 -3.397372961044311523e+00 7.333077192306518555e-01 -4.825457036495208740e-01 7.522861659526824951e-02 -1.167521029710769653e-01
2.965000000000000000e+03 2.432766342163085938e+01 -2.990010261535644531e+01 3.151814341545104980e-01 2.861622869968414307e-01 1.804031133651733398e-01 -3.371030688285827637e-01
2.966000000000000000e+03 7.287583923339843750e+01 3.130004882812500000e+01 -1.150413870811462402e+00 1.061962604522705078e+01 2.840763807296752930e+00 4.856665611267089844e+00
2.967000000000000000e+03 2.836640739440917969e+01 4.516494750976562500e+00 -2.385145425796508789e+00 -1.256817936897277832e+00 -1.092589020729064941e+00 -1.210213422775268555e+00
2.968000000000000000e+03 2.889228630065917969e+01 -1.668383836746215820e+00 4.337135851383209229e-01 -4.849482774734497070e-01 -1.537040714174509048e-02 -1.042512208223342896e-01
2.969000000000000000e+03 2.841795349121093750e+01 4.269696712493896484e+00 -2.343083143234252930e+00 -1.197670698165893555e+00 -1.062226176261901855e+00 -1.129954576492309570e+00
2.970000000000000000e+03 2.799295806884765625e+01 3.744336128234863281e+00 -2.322057485580444336e+00 -1.066999435424804688e+00 -1.016717076301574707e+00 -1.072943449020385742e+00
2.971000000000000000e+03 2.696268272399902344e+01 3.615584611892700195e+00 -2.713822126388549805e+00 -9.588939547538757324e-01 -1.101814866065979004e+00 -1.279276371002197266e+00
2.972000000000000000e+03 2.764010620117187500e+01 3.669244289398193359e+00 -2.443562507629394531e+00 -9.754222631454467773e-01 -1.025695443153381348e+00 -1.117053151130676270e+00
2.973000000000000000e+03 2.587928962707519531e+01 2.587273120880126953e+00 -2.631348133087158203e+00 -5.849209427833557129e-01 -9.648807644844055176e-01 -1.040848612785339355e+00
2.974000000000000000e+03 2.610402679443359375e+01 2.616891622543334961e+00 -2.609539985656738281e+00 -6.537700295448303223e-01 -9.789929986000061035e-01 -1.040273070335388184e+00
2.975000000000000000e+03 7.582946777343750000e+01 2.999874687194824219e+01 -1.598051071166992188e+00 1.309204673767089844e+01 3.448198795318603516e+00 -7.970498800277709961e-01
2.976000000000000000e+03 7.425765991210937500e+01 3.171358299255371094e+01 -1.928659558296203613e+00 1.733417510986328125e+01 4.621654510498046875e+00 1.340439438819885254e+00
2.977000000000000000e+03 7.388876342773437500e+01 3.197093009948730469e+01 -1.831396460533142090e+00 1.767385864257812500e+01 4.752738475799560547e+00 2.725871086120605469e+00
2.978000000000000000e+03 2.861605834960937500e+01 4.559047222137451172e+00 -2.340452432632446289e+00 -1.277433156967163086e+00 -1.085365653038024902e+00 -1.160395026206970215e+00
2.979000000000000000e+03 7.598297119140625000e+01 3.274977874755859375e+01 2.775341033935546875e+00 1.443496227264404297e+01 5.163091182708740234e+00 -2.334233522415161133e+00
2.980000000000000000e+03 7.617720794677734375e+01 3.326586532592773438e+01 3.984411478042602539e+00 1.369033622741699219e+01 5.302424430847167969e+00 -1.535295724868774414e+00
2.981000000000000000e+03 7.656480407714843750e+01 3.252925491333007812e+01 1.845090985298156738e+00 1.294051647186279297e+01 4.435682296752929688e+00 -2.171121120452880859e+00
2.982000000000000000e+03 7.681133270263671875e+01 3.464383697509765625e+01 2.875129938125610352e+00 1.220801258087158203e+01 4.524942874908447266e+00 1.233248353004455566e+00
2.983000000000000000e+03 2.323684883117675781e+01 5.963706374168395996e-01 -1.667959213256835938e+00 2.224703431129455566e-01 -4.336466491222381592e-01 -1.233661770820617676e+00
2.984000000000000000e+03 1.923227691650390625e+01 1.179580688476562500e+01 1.155774593353271484e-01 1.821931302547454834e-01 8.933117985725402832e-02 1.458019614219665527e-01
2.985000000000000000e+03 4.085666656494140625e+01 1.986976814270019531e+01 -1.170097351074218750e+00 -1.282727003097534180e+00 -7.358472943305969238e-01 -1.345955967903137207e+00
2.986000000000000000e+03 1.850024032592773438e+01 1.088241672515869141e+01 1.201924830675125122e-01 1.999850422143936157e-01 9.605325758457183838e-02 1.547517925500869751e-01
2.987000000000000000e+03 4.058882141113281250e+01 1.955329704284667969e+01 -1.161870598793029785e+00 -1.277728438377380371e+00 -7.318797111511230469e-01 -1.345162272453308105e+00
2.988000000000000000e+03 1.600676918029785156e+01 8.734344482421875000e+00 1.180232763290405273e-01 2.839783430099487305e-01 1.206004843115806580e-01 1.703166514635086060e-01
2.989000000000000000e+03 4.112165832519531250e+01 2.016274070739746094e+01 -1.184436798095703125e+00 -1.289599299430847168e+00 -7.422108650207519531e-01 -1.343403100967407227e+00
2.990000000000000000e+03 4.157126998901367188e+01 2.074624824523925781e+01 -1.237251281738281250e+00 -1.303691983222961426e+00 -7.622829675674438477e-01 -1.335052251815795898e+00
2.991000000000000000e+03 3.952375030517578125e+01 1.833678436279296875e+01 -1.190684676170349121e+00 -1.320725083351135254e+00 -7.534229159355163574e-01 -1.323866724967956543e+00
2.992000000000000000e+03 4.032662582397460938e+01 1.918051528930664062e+01 -1.165558218955993652e+00 -1.278277754783630371e+00 -7.331507802009582520e-01 -1.340467691421508789e+00
2.993000000000000000e+03 1.380689430236816406e+01 6.287539958953857422e+00 9.623160958290100098e-02 5.416299700736999512e-01 1.913584768772125244e-01 1.212829202413558960e-01
2.994000000000000000e+03 4.217066955566406250e+01 2.117309951782226562e+01 -1.275675296783447266e+00 -1.298887968063354492e+00 -7.723689675331115723e-01 -1.320592522621154785e+00
2.995000000000000000e+03 2.374971580505371094e+01 1.690099716186523438e+01 8.845619112253189087e-02 1.318278163671493530e-01 6.608520448207855225e-02 1.096667200326919556e-01
2.996000000000000000e+03 2.404265594482421875e+01 1.670988273620605469e+01 9.295035153627395630e-02 1.301944106817245483e-01 6.694342941045761108e-02 1.123768389225006104e-01
2.997000000000000000e+03 3.591638565063476562e+01 2.818647575378417969e+01 6.251677870750427246e-02 8.252987265586853027e-02 4.351399838924407959e-02 6.801208853721618652e-02
2.998000000000000000e+03 3.477870941162109375e+01 2.791763687133789062e+01 5.864663049578666687e-02 8.410772681236267090e-02 4.282630607485771179e-02 6.789360940456390381e-02
2.999000000000000000e+03 4.013222885131835938e+01 1.872586250305175781e+01 -1.164509296417236328e+00 -1.276737809181213379e+00 -7.323741316795349121e-01 -1.328016996383666992e+00
3.000000000000000000e+03 1.555060863494873047e+01 7.662620544433593750e+00 1.318311989307403564e-01 3.335179686546325684e-01 1.396047472953796387e-01 1.904707998037338257e-01
3.001000000000000000e+03 3.326018905639648438e+01 1.144833850860595703e+01 -1.346667647361755371e+00 -1.411875128746032715e+00 -8.275628089904785156e-01 -1.324081063270568848e+00
3.002000000000000000e+03 4.688056945800781250e+01 2.485452079772949219e+01 -1.359457254409790039e+00 -1.065466403961181641e+00 -7.274770736694335938e-01 -1.257131338119506836e+00
3.003000000000000000e+03 4.747852325439453125e+01 2.549602508544921875e+01 -1.349618792533874512e+00 -1.036671638488769531e+00 -7.158871293067932129e-01 -1.256132721900939941e+00
3.004000000000000000e+03 3.542842864990234375e+01 1.359083080291748047e+01 -1.270406365394592285e+00 -1.442733049392700195e+00 -8.139418363571166992e-01 -1.318781256675720215e+00
3.005000000000000000e+03 3.421248245239257812e+01 1.287710189819335938e+01 -1.327392816543579102e+00 -1.495913743972778320e+00 -8.469919562339782715e-01 -1.361976027488708496e+00
3.006000000000000000e+03 1.645293235778808594e+01 8.724890708923339844e+00 1.313768327236175537e-01 2.668786644935607910e-01 1.194766536355018616e-01 1.782282143831253052e-01
3.007000000000000000e+03 2.423138427734375000e+01 1.700956726074218750e+01 9.139791131019592285e-02 1.281048804521560669e-01 6.585083901882171631e-02 1.098895594477653503e-01
3.008000000000000000e+03 3.389517593383789062e+01 2.625686454772949219e+01 5.882028862833976746e-02 8.675917237997055054e-02 4.367383942008018494e-02 7.100602239370346069e-02
3.009000000000000000e+03 3.424637985229492188e+01 2.690057373046875000e+01 5.815772339701652527e-02 8.641804754734039307e-02 4.337273165583610535e-02 7.020957022905349731e-02
3.010000000000000000e+03 3.376426315307617188e+01 2.602700996398925781e+01 5.918489769101142883e-02 8.696246892213821411e-02 4.384420812129974365e-02 7.149856537580490112e-02
3.011000000000000000e+03 4.774396514892578125e+01 2.581131935119628906e+01 -1.349579930305480957e+00 -1.031329512596130371e+00 -7.142727971076965332e-01 -1.252044439315795898e+00
3.012000000000000000e+03 2.111431503295898438e+01 1.376189041137695312e+01 1.087746769189834595e-01 1.587459892034530640e-01 8.025620132684707642e-02 1.289503872394561768e-01
3.013000000000000000e+03 3.122785377502441406e+01 2.323070144653320312e+01 6.323939561843872070e-02 8.905103057622909546e-02 4.568712785840034485e-02 8.048401772975921631e-02
3.014000000000000000e+03 2.928608131408691406e+01 2.165516281127929688e+01 7.006274163722991943e-02 9.838300198316574097e-02 5.053372308611869812e-02 8.524491637945175171e-02
3.015000000000000000e+03 3.234784698486328125e+01 2.448901367187500000e+01 6.084746122360229492e-02 8.744515478610992432e-02 4.448778554797172546e-02 7.532567530870437622e-02
3.016000000000000000e+03 4.825460433959960938e+01 2.694738769531250000e+01 -1.391556978225708008e+00 -1.069488644599914551e+00 -7.383136749267578125e-01 -1.263810515403747559e+00
3.017000000000000000e+03 4.331431198120117188e+01 2.235138320922851562e+01 -1.379800319671630859e+00 -1.299247622489929199e+00 -8.037143945693969727e-01 -1.352998375892639160e+00
3.018000000000000000e+03 4.386703109741210938e+01 2.239456176757812500e+01 -1.333110570907592773e+00 -1.267327547073364258e+00 -7.801313996315002441e-01 -1.312005996704101562e+00
3.019000000000000000e+03 4.247212600708007812e+01 2.148126411437988281e+01 -1.310788393020629883e+00 -1.295117020606994629e+00 -7.817716002464294434e-01 -1.324367046356201172e+00
3.020000000000000000e+03 3.597695159912109375e+01 1.415079116821289062e+01 -1.247618675231933594e+00 -1.447515130043029785e+00 -8.085401654243469238e-01 -1.321170568466186523e+00
3.021000000000000000e+03 3.186259269714355469e+01 9.473650932312011719e+00 -1.312786340713500977e+00 -1.349004149436950684e+00 -7.985371351242065430e-01 -1.248852610588073730e+00
3.022000000000000000e+03 4.560704421997070312e+01 2.445129585266113281e+01 -1.448331713676452637e+00 -1.241766452789306641e+00 -8.070294260978698730e-01 -1.324437737464904785e+00
3.023000000000000000e+03 4.650472259521484375e+01 2.462992668151855469e+01 -1.377892613410949707e+00 -1.105987429618835449e+00 -7.451640367507934570e-01 -1.268285274505615234e+00
3.024000000000000000e+03 3.624818420410156250e+01 1.443971252441406250e+01 -1.238912940025329590e+00 -1.451693177223205566e+00 -8.071818351745605469e-01 -1.319476842880249023e+00
3.025000000000000000e+03 3.627991104125976562e+01 1.500878143310546875e+01 -1.259346485137939453e+00 -1.504491686820983887e+00 -8.291513919830322266e-01 -1.362004637718200684e+00
3.026000000000000000e+03 4.414073181152343750e+01 2.266288375854492188e+01 -1.345298409461975098e+00 -1.269646883010864258e+00 -7.844835519790649414e-01 -1.310703158378601074e+00
3.027000000000000000e+03 3.467126464843750000e+01 1.337232685089111328e+01 -1.327303409576416016e+00 -1.498420953750610352e+00 -8.477172851562500000e-01 -1.358292579650878906e+00
3.028000000000000000e+03 3.515757751464843750e+01 1.332601928710937500e+01 -1.281593322753906250e+00 -1.446863651275634766e+00 -8.185370564460754395e-01 -1.316348195075988770e+00
3.029000000000000000e+03 2.867828750610351562e+01 2.099920845031738281e+01 7.418409734964370728e-02 1.012740060687065125e-01 5.263743177056312561e-02 8.870512247085571289e-02
3.030000000000000000e+03 1.992908477783203125e+01 1.207502460479736328e+01 1.205975264310836792e-01 1.734517812728881836e-01 8.821479231119155884e-02 1.438169330358505249e-01
3.031000000000000000e+03 7.186368560791015625e+01 3.102629089355468750e+01 -3.457602858543395996e-01 6.035640716552734375e+00 1.706964135169982910e+00 4.179070949554443359e+00
3.032000000000000000e+03 7.315679168701171875e+01 3.127378845214843750e+01 -1.529178023338317871e+00 1.210447788238525391e+01 3.172590017318725586e+00 4.494619846343994141e+00
3.033000000000000000e+03 2.966250610351562500e+01 2.185143280029296875e+01 6.952112168073654175e-02 9.664508700370788574e-02 4.984986409544944763e-02 8.407367765903472900e-02
3.034000000000000000e+03 4.828959274291992188e+01 2.640369796752929688e+01 -1.353776335716247559e+00 -1.004976272583007812e+00 -7.076258063316345215e-01 -1.233084440231323242e+00
3.035000000000000000e+03 4.851359558105468750e+01 2.723239326477050781e+01 -1.398564219474792480e+00 -1.055841684341430664e+00 -7.363217473030090332e-01 -1.250290989875793457e+00
3.036000000000000000e+03 2.816158103942871094e+01 2.034025764465332031e+01 7.838280498981475830e-02 1.043207496404647827e-01 5.481106787919998169e-02 9.231129288673400879e-02
3.037000000000000000e+03 4.332641601562500000e+01 2.183958053588867188e+01 -1.302646160125732422e+00 -1.262459635734558105e+00 -7.695317268371582031e-01 -1.304239153861999512e+00
3.038000000000000000e+03 2.196333503723144531e+01 1.400904941558837891e+01 1.147613748908042908e-01 1.524263918399810791e-01 8.015633374452590942e-02 1.289100646972656250e-01
3.039000000000000000e+03 2.077926254272460938e+01 1.353010845184326172e+01 1.079265847802162170e-01 1.611080169677734375e-01 8.071038126945495605e-02 1.307294964790344238e-01
3.040000000000000000e+03 2.758820724487304688e+01 2.030522727966308594e+01 7.564234733581542969e-02 1.078101098537445068e-01 5.503573641180992126e-02 9.219981729984283447e-02
3.041000000000000000e+03 2.790317535400390625e+01 2.004058647155761719e+01 8.034946024417877197e-02 1.061226651072502136e-01 5.594163760542869568e-02 9.366440773010253906e-02
3.042000000000000000e+03 2.733411216735839844e+01 2.002689170837402344e+01 7.741199433803558350e-02 1.096243262290954590e-01 5.611089617013931274e-02 9.327208250761032104e-02
3.043000000000000000e+03 2.710108757019042969e+01 1.975043106079101562e+01 7.871880382299423218e-02 1.110771670937538147e-01 5.693878978490829468e-02 9.463460743427276611e-02
3.044000000000000000e+03 2.715642356872558594e+01 1.920844650268554688e+01 8.535903692245483398e-02 1.115455552935600281e-01 5.907137691974639893e-02 9.788640588521957397e-02
3.045000000000000000e+03 2.381638336181640625e+01 1.643233108520507812e+01 9.419333189725875854e-02 1.329103410243988037e-01 6.813110411167144775e-02 1.140585690736770630e-01
3.046000000000000000e+03 2.307217025756835938e+01 1.510339069366455078e+01 1.059822142124176025e-01 1.436531990766525269e-01 7.489062100648880005e-02 1.219064593315124512e-01
3.047000000000000000e+03 3.888620758056640625e+01 1.759703826904296875e+01 -1.214688420295715332e+00 -1.378295063972473145e+00 -7.778950333595275879e-01 -1.306044578552246094e+00
3.048000000000000000e+03 3.803105545043945312e+01 3.200542449951171875e+01 6.293817609548568726e-02 7.063962519168853760e-02 4.007333889603614807e-02 5.951414257287979126e-02
3.049000000000000000e+03 3.928279495239257812e+01 3.191636276245117188e+01 6.611586362123489380e-02 6.594246625900268555e-02 3.961749747395515442e-02 6.162508577108383179e-02
3.050000000000000000e+03 1.789571762084960938e+01 1.014347553253173828e+01 1.261983960866928101e-01 2.191623449325561523e-01 1.036082208156585693e-01 1.608843803405761719e-01
3.051000000000000000e+03 1.644050598144531250e+01 9.164192199707031250e+00 1.208254024386405945e-01 2.611873745918273926e-01 1.146038323640823364e-01 1.677610427141189575e-01
3.052000000000000000e+03 3.600717926025390625e+01 2.846845626831054688e+01 6.253442913293838501e-02 8.232706040143966675e-02 4.345844686031341553e-02 6.739842891693115234e-02
3.053000000000000000e+03 2.000630569458007812e+01 1.241583251953125000e+01 1.159119680523872375e-01 1.723485738039016724e-01 8.647815883159637451e-02 1.410638242959976196e-01
3.054000000000000000e+03 1.947046852111816406e+01 1.196892166137695312e+01 1.166625022888183594e-01 1.790935248136520386e-01 8.872681111097335815e-02 1.442011743783950806e-01
3.055000000000000000e+03 2.632915115356445312e+01 1.846012878417968750e+01 8.968955278396606445e-02 1.172555312514305115e-01 6.208352372050285339e-02 1.008507534861564636e-01
3.056000000000000000e+03 4.979740142822265625e+01 2.859644126892089844e+01 -1.418157100677490234e+00 -9.387434124946594238e-01 -7.070701718330383301e-01 -1.174653172492980957e+00
3.057000000000000000e+03 4.441623687744140625e+01 2.292665863037109375e+01 -1.356727242469787598e+00 -1.268757820129394531e+00 -7.876455187797546387e-01 -1.306629180908203125e+00
3.058000000000000000e+03 3.651480865478515625e+01 1.472912502288818359e+01 -1.227270245552062988e+00 -1.454733371734619141e+00 -8.046010732650756836e-01 -1.318610429763793945e+00
3.059000000000000000e+03 5.007072067260742188e+01 2.884837341308593750e+01 -1.410545468330383301e+00 -8.998610377311706543e-01 -6.931219696998596191e-01 -1.155125617980957031e+00
3.060000000000000000e+03 4.903139877319335938e+01 2.831960105895996094e+01 -1.448618054389953613e+00 -1.082234144210815430e+00 -7.592556476593017578e-01 -1.252807617187500000e+00
3.061000000000000000e+03 5.035263442993164062e+01 2.909895515441894531e+01 -1.400199532508850098e+00 -8.580935001373291016e-01 -6.774879097938537598e-01 -1.132358074188232422e+00
3.062000000000000000e+03 5.116054534912109375e+01 2.930562782287597656e+01 -1.377827405929565430e+00 -6.577264666557312012e-01 -6.106661558151245117e-01 -1.052050232887268066e+00
3.063000000000000000e+03 3.366068649291992188e+01 1.193597030639648438e+01 -1.323421478271484375e+00 -1.434285283088684082e+00 -8.273120522499084473e-01 -1.343318343162536621e+00
3.064000000000000000e+03 3.677961730957031250e+01 1.501867580413818359e+01 -1.221775889396667480e+00 -1.458299517631530762e+00 -8.040226101875305176e-01 -1.313914775848388672e+00
3.065000000000000000e+03 3.704624938964843750e+01 1.530808162689208984e+01 -1.215385317802429199e+00 -1.457234501838684082e+00 -8.017859458923339844e-01 -1.310513019561767578e+00
3.066000000000000000e+03 3.731682205200195312e+01 1.559562873840332031e+01 -1.213237404823303223e+00 -1.455152273178100586e+00 -8.005169034004211426e-01 -1.302536010742187500e+00
3.067000000000000000e+03 4.012372207641601562e+01 3.447844314575195312e+01 7.474514842033386230e-02 5.900362879037857056e-02 4.012463241815567017e-02 5.428072065114974976e-02
3.068000000000000000e+03 4.880878067016601562e+01 2.698334312438964844e+01 -1.367350578308105469e+00 -9.765547513961791992e-01 -7.031716108322143555e-01 -1.205958485603332520e+00
3.069000000000000000e+03 3.317288589477539062e+01 1.089141082763671875e+01 -1.323844313621520996e+00 -1.376650333404541016e+00 -8.101484179496765137e-01 -1.274060010910034180e+00
3.070000000000000000e+03 3.301806640625000000e+01 1.179031753540039062e+01 -1.387625694274902344e+00 -1.442750692367553711e+00 -8.491129279136657715e-01 -1.387765765190124512e+00
3.071000000000000000e+03 3.823793029785156250e+01 1.701769447326660156e+01 -1.231764674186706543e+00 -1.450895071029663086e+00 -8.047979474067687988e-01 -1.311910390853881836e+00
3.072000000000000000e+03 4.953168487548828125e+01 2.833967208862304688e+01 -1.420418143272399902e+00 -9.711607694625854492e-01 -7.174736857414245605e-01 -1.192806363105773926e+00
3.073000000000000000e+03 4.148766326904296875e+01 1.989990425109863281e+01 -1.149621129035949707e+00 -1.258014559745788574e+00 -7.222907543182373047e-01 -1.311194300651550293e+00
3.074000000000000000e+03 4.530249404907226562e+01 2.420146942138671875e+01 -1.450118541717529297e+00 -1.273353815078735352e+00 -8.170416951179504395e-01 -1.327422738075256348e+00
3.075000000000000000e+03 4.469298934936523438e+01 2.318626785278320312e+01 -1.369015336036682129e+00 -1.263535976409912109e+00 -7.897653579711914062e-01 -1.300122261047363281e+00
3.076000000000000000e+03 2.656208419799804688e+01 1.815518379211425781e+01 9.505889564752578735e-02 1.167094781994819641e-01 6.353051215410232544e-02 1.034622415900230408e-01
3.077000000000000000e+03 3.855269622802734375e+01 1.730310821533203125e+01 -1.226732730865478516e+00 -1.418180942535400391e+00 -7.934740781784057617e-01 -1.305921077728271484e+00
3.078000000000000000e+03 3.390539550781250000e+01 2.654021644592285156e+01 5.823015794157981873e-02 8.694858103990554810e-02 4.355362057685852051e-02 7.063640654087066650e-02
3.079000000000000000e+03 3.326758956909179688e+01 2.600576782226562500e+01 5.804419144988059998e-02 8.727040886878967285e-02 4.359437897801399231e-02 7.158444821834564209e-02
3.080000000000000000e+03 4.904706192016601562e+01 2.727658271789550781e+01 -1.375554442405700684e+00 -9.604442715644836426e-01 -7.007996439933776855e-01 -1.195396661758422852e+00
3.081000000000000000e+03 4.876694488525390625e+01 2.751710510253906250e+01 -1.406239867210388184e+00 -1.041635870933532715e+00 -7.343627214431762695e-01 -1.236528158187866211e+00
3.082000000000000000e+03 2.690150642395019531e+01 1.894817161560058594e+01 8.704582601785659790e-02 1.136897131800651550e-01 6.022066250443458557e-02 9.881588071584701538e-02
3.083000000000000000e+03 7.107037353515625000e+01 3.120148849487304688e+01 -2.989151477813720703e-01 3.314873695373535156e+00 9.047876000404357910e-01 3.159446477890014648e+00
3.084000000000000000e+03 4.305805587768554688e+01 2.154642677307128906e+01 -1.280289530754089355e+00 -1.262468338012695312e+00 -7.628273963928222656e-01 -1.297936558723449707e+00
3.085000000000000000e+03 2.224710845947265625e+01 1.428093719482421875e+01 1.134465560317039490e-01 1.509243398904800415e-01 7.931126654148101807e-02 1.262598931789398193e-01
3.086000000000000000e+03 2.170319175720214844e+01 1.426690006256103516e+01 1.078136563301086426e-01 1.535652428865432739e-01 7.841367274522781372e-02 1.249319091439247131e-01
3.087000000000000000e+03 3.146865844726562500e+01 2.418532943725585938e+01 5.970547720789909363e-02 8.920241147279739380e-02 4.467236623167991638e-02 7.739593088626861572e-02
3.088000000000000000e+03 2.563747215270996094e+01 1.801712226867675781e+01 9.095676243305206299e-02 1.202328130602836609e-01 6.335687637329101562e-02 1.031004562973976135e-01
3.089000000000000000e+03 4.014527893066406250e+01 3.342119598388671875e+01 7.141070067882537842e-02 6.101899221539497375e-02 3.972890973091125488e-02 5.925302952527999878e-02
3.090000000000000000e+03 3.759264373779296875e+01 1.587961387634277344e+01 -1.209352731704711914e+00 -1.447623610496520996e+00 -7.970929145812988281e-01 -1.296830058097839355e+00
3.091000000000000000e+03 2.050024414062500000e+01 1.299383544921875000e+01 1.118889525532722473e-01 1.657095849514007568e-01 8.327955752611160278e-02 1.354533433914184570e-01
3.092000000000000000e+03 2.252581024169921875e+01 1.455507278442382812e+01 1.110738441348075867e-01 1.485079526901245117e-01 7.787454128265380859e-02 1.246733292937278748e-01
3.093000000000000000e+03 3.083596611022949219e+01 2.346006011962890625e+01 6.096632033586502075e-02 9.132227301597595215e-02 4.568657651543617249e-02 8.033823221921920776e-02
3.094000000000000000e+03 4.077174377441406250e+01 3.525284194946289062e+01 8.221398293972015381e-02 5.490847676992416382e-02 4.113673791289329529e-02 5.340645834803581238e-02
3.095000000000000000e+03 5.158826828002929688e+01 3.014715576171875000e+01 -1.344835519790649414e+00 -6.143480539321899414e-01 -5.877550840377807617e-01 -1.002709031105041504e+00
3.096000000000000000e+03 2.664622879028320312e+01 1.922333717346191406e+01 8.219245076179504395e-02 1.143794581294059753e-01 5.897157266736030579e-02 9.699905663728713989e-02
3.097000000000000000e+03 2.599958419799804688e+01 1.823453521728515625e+01 9.035483747720718384e-02 1.186343804001808167e-01 6.269676238298416138e-02 1.020842641592025757e-01
3.098000000000000000e+03 3.041373825073242188e+01 2.243706512451171875e+01 6.589568406343460083e-02 9.339667856693267822e-02 4.778770729899406433e-02 8.235982060432434082e-02
3.099000000000000000e+03 2.997793960571289062e+01 2.202201080322265625e+01 6.872891634702682495e-02 9.560044854879379272e-02 4.929880797863006592e-02 8.362326771020889282e-02
3.100000000000000000e+03 5.184125137329101562e+01 2.981298255920410156e+01 -1.369485378265380859e+00 -5.090889930725097656e-01 -5.635722875595092773e-01 -9.895527362823486328e-01
3.101000000000000000e+03 4.001168060302734375e+01 1.820461082458496094e+01 -1.161248922348022461e+00 -1.264780879020690918e+00 -7.278089523315429688e-01 -1.298730969429016113e+00
3.102000000000000000e+03 3.787516021728515625e+01 1.615960693359375000e+01 -1.208322763442993164e+00 -1.436048746109008789e+00 -7.933114171028137207e-01 -1.287905097007751465e+00
3.103000000000000000e+03 3.816640090942382812e+01 1.643616867065429688e+01 -1.205438494682312012e+00 -1.416709423065185547e+00 -7.866443991661071777e-01 -1.282386183738708496e+00
3.104000000000000000e+03 3.181463623046875000e+01 8.914726257324218750e+00 -1.283776402473449707e+00 -1.335653781890869141e+00 -7.858290672302246094e-01 -1.210490822792053223e+00
3.105000000000000000e+03 4.171453094482421875e+01 2.026099586486816406e+01 -1.169863462448120117e+00 -1.269848465919494629e+00 -7.319135665893554688e-01 -1.309907078742980957e+00
3.106000000000000000e+03 4.228645706176757812e+01 2.051078033447265625e+01 -1.179400563240051270e+00 -1.253780603408813477e+00 -7.299543619155883789e-01 -1.286222219467163086e+00
3.107000000000000000e+03 2.141887092590332031e+01 1.400878810882568359e+01 1.084668189287185669e-01 1.552274227142333984e-01 7.910826802253723145e-02 1.273578852415084839e-01
3.108000000000000000e+03 4.359570693969726562e+01 2.212102508544921875e+01 -1.319728136062622070e+00 -1.264851808547973633e+00 -7.753739953041076660e-01 -1.309385299682617188e+00
3.109000000000000000e+03 3.953176879882812500e+01 1.753011322021484375e+01 -1.170504927635192871e+00 -1.287662863731384277e+00 -7.374503612518310547e-01 -1.274154067039489746e+00
3.110000000000000000e+03 3.442723464965820312e+01 1.313455009460449219e+01 -1.324637532234191895e+00 -1.498328685760498047e+00 -8.468899130821228027e-01 -1.363965988159179688e+00
3.111000000000000000e+03 3.621519470214843750e+01 1.386971282958984375e+01 -1.216561317443847656e+00 -1.401102304458618164e+00 -7.852991223335266113e-01 -1.273565053939819336e+00
3.112000000000000000e+03 1.605315780639648438e+01 8.270674705505371094e+00 1.319152563810348511e-01 2.932094633579254150e-01 1.275374144315719604e-01 1.857011318206787109e-01
3.113000000000000000e+03 3.032046508789062500e+01 5.191223144531250000e+00 -1.942186117172241211e+00 -1.003710985183715820e+00 -8.837690949440002441e-01 -9.632107615470886230e-01
3.114000000000000000e+03 3.171329498291015625e+01 5.696570873260498047e+00 -1.512774109840393066e+00 -9.353511333465576172e-01 -7.344375848770141602e-01 -9.521242976188659668e-01
3.115000000000000000e+03 1.524545574188232422e+01 7.346876621246337891e+00 1.314322650432586670e-01 3.631927073001861572e-01 1.483874917030334473e-01 1.929330229759216309e-01
3.116000000000000000e+03 2.523494720458984375e+01 1.780559539794921875e+01 9.057756513357162476e-02 1.217435672879219055e-01 6.369633972644805908e-02 1.045709699392318726e-01
3.117000000000000000e+03 2.327915191650390625e+01 1.639775276184082031e+01 8.981435745954513550e-02 1.371016055345535278e-01 6.807478517293930054e-02 1.122052296996116638e-01
3.118000000000000000e+03 3.440929031372070312e+01 2.782282066345214844e+01 5.705534666776657104e-02 8.465113490819931030e-02 4.251194372773170471e-02 6.775388121604919434e-02
3.119000000000000000e+03 3.514109802246093750e+01 2.812255859375000000e+01 5.974087864160537720e-02 8.317237347364425659e-02 4.287397488951683044e-02 6.749727576971054077e-02
3.120000000000000000e+03 5.245409393310546875e+01 3.109198570251464844e+01 -1.284935235977172852e+00 -4.003073573112487793e-01 -5.055727958679199219e-01 -8.954315185546875000e-01
3.121000000000000000e+03 4.497110748291015625e+01 2.344200325012207031e+01 -1.380554199218750000e+00 -1.251783609390258789e+00 -7.897013425827026367e-01 -1.293262720108032227e+00
3.122000000000000000e+03 4.525205612182617188e+01 2.369331741333007812e+01 -1.390929698944091797e+00 -1.234066009521484375e+00 -7.874987125396728516e-01 -1.287187576293945312e+00
3.123000000000000000e+03 3.258439636230468750e+01 2.529736137390136719e+01 5.853580310940742493e-02 8.785152435302734375e-02 4.391619935631752014e-02 7.326775044202804565e-02
3.124000000000000000e+03 3.168803215026855469e+01 2.488742446899414062e+01 5.771779268980026245e-02 8.912319689989089966e-02 4.405229911208152771e-02 7.510381191968917847e-02
3.125000000000000000e+03 5.217270660400390625e+01 3.011548042297363281e+01 -1.364251852035522461e+00 -4.305292665958404541e-01 -5.384343266487121582e-01 -9.590082168579101562e-01
3.126000000000000000e+03 2.305105590820312500e+01 1.561826896667480469e+01 9.784766286611557007e-02 1.416430473327636719e-01 7.184721529483795166e-02 1.178283318877220154e-01
3.127000000000000000e+03 2.278546333312988281e+01 1.534842586517333984e+01 9.996145218610763550e-02 1.447018533945083618e-01 7.339899241924285889e-02 1.185230314731597900e-01
3.128000000000000000e+03 2.016570281982421875e+01 1.287282943725585938e+01 1.098648458719253540e-01 1.693831831216812134e-01 8.377441018819808960e-02 1.354633420705795288e-01
3.129000000000000000e+03 4.615928649902343750e+01 2.440735435485839844e+01 -1.391489505767822266e+00 -1.144672036170959473e+00 -7.608484625816345215e-01 -1.275266408920288086e+00
3.130000000000000000e+03 3.363467407226562500e+01 2.624085044860839844e+01 5.826053023338317871e-02 8.714067190885543823e-02 4.362035915255546570e-02 7.105340063571929932e-02
3.131000000000000000e+03 3.373694992065429688e+01 2.719429206848144531e+01 5.645587295293807983e-02 8.644571900367736816e-02 4.287047684192657471e-02 6.896811723709106445e-02
3.132000000000000000e+03 3.350918579101562500e+01 2.672156715393066406e+01 5.680707097053527832e-02 8.680225163698196411e-02 4.308279603719711304e-02 6.977578997611999512e-02
3.133000000000000000e+03 3.433137130737304688e+01 1.241382312774658203e+01 -1.298657894134521484e+00 -1.441689372062683105e+00 -8.221041560173034668e-01 -1.318970203399658203e+00
3.134000000000000000e+03 5.338809585571289062e+01 3.083863639831542969e+01 -1.374423027038574219e+00 -1.257439404726028442e-01 -4.500500857830047607e-01 -8.801991939544677734e-01
3.135000000000000000e+03 3.287973785400390625e+01 1.062165069580078125e+01 -1.326275348663330078e+00 -1.370884180068969727e+00 -8.091478347778320312e-01 -1.273981809616088867e+00
3.136000000000000000e+03 3.294060516357421875e+01 1.120380973815917969e+01 -1.365669250488281250e+00 -1.405254840850830078e+00 -8.312772512435913086e-01 -1.325329065322875977e+00
3.137000000000000000e+03 3.241395187377929688e+01 8.722452163696289062e+00 -1.245574474334716797e+00 -1.275059819221496582e+00 -7.561902999877929688e-01 -1.173108339309692383e+00
3.138000000000000000e+03 1.723363304138183594e+01 9.927270889282226562e+00 1.223031356930732727e-01 2.318302989006042480e-01 1.062400341033935547e-01 1.597843319177627563e-01
3.139000000000000000e+03 3.362475967407226562e+01 1.155909252166748047e+01 -1.315418362617492676e+00 -1.395570278167724609e+00 -8.132966160774230957e-01 -1.310039281845092773e+00
3.140000000000000000e+03 3.563685989379882812e+01 2.861579704284667969e+01 6.013187393546104431e-02 8.255419880151748657e-02 4.280582070350646973e-02 6.629465520381927490e-02
3.141000000000000000e+03 1.687836074829101562e+01 9.559771537780761719e+00 1.223641037940979004e-01 2.434619963169097900e-01 1.097478270530700684e-01 1.631452143192291260e-01
3.142000000000000000e+03 1.339188861846923828e+01 6.003096580505371094e+00 9.123733639717102051e-02 5.968964695930480957e-01 2.064401358366012573e-01 5.120144411921501160e-02
3.143000000000000000e+03 1.809735107421875000e+01 1.096065330505371094e+01 1.122683137655258179e-01 2.063290625810623169e-01 9.557921439409255981e-02 1.512670814990997314e-01
3.144000000000000000e+03 1.773972702026367188e+01 1.044146347045898438e+01 1.164173707365989685e-01 2.168974429368972778e-01 9.999444335699081421e-02 1.553004980087280273e-01
3.145000000000000000e+03 1.488905143737792969e+01 7.382339477539062500e+00 1.167185381054878235e-01 3.792087435722351074e-01 1.487781852483749390e-01 1.717246919870376587e-01
3.146000000000000000e+03 1.522191619873046875e+01 7.015332221984863281e+00 1.439446508884429932e-01 3.744529187679290771e-01 1.555192619562149048e-01 2.024405449628829956e-01
3.147000000000000000e+03 2.380801010131835938e+01 1.266404867172241211e+00 -2.304289817810058594e+00 -7.435438781976699829e-02 -7.135932445526123047e-01 -1.085028767585754395e+00
3.148000000000000000e+03 1.419010066986083984e+01 6.647738456726074219e+00 1.083763837814331055e-01 4.682951271533966064e-01 1.730014532804489136e-01 1.550842374563217163e-01
3.149000000000000000e+03 1.276882648468017578e+01 4.368109703063964844e+00 2.618822455406188965e-01 8.347697854042053223e-01 3.289956152439117432e-01 -2.320520281791687012e-01
3.150000000000000000e+03 1.307044315338134766e+01 5.157203674316406250e+00 1.323762834072113037e-01 7.300362586975097656e-01 2.587237656116485596e-01 -5.447716265916824341e-02
3.151000000000000000e+03 6.834778594970703125e+01 2.908818244934082031e+01 -4.028852581977844238e-01 1.745162487030029297e+00 4.026831686496734619e-01 1.313873648643493652e+00
3.152000000000000000e+03 6.895252227783203125e+01 2.983921623229980469e+01 -5.440830588340759277e-01 1.716478943824768066e+00 3.517187833786010742e-01 1.523350358009338379e+00
3.153000000000000000e+03 2.255546760559082031e+01 5.280905961990356445e-02 -1.020369052886962891e+00 1.042479038238525391e+00 6.633004173636436462e-03 -1.383214473724365234e+00
3.154000000000000000e+03 1.324873542785644531e+01 5.419742584228515625e+00 1.065840870141983032e-01 7.229603528976440430e-01 2.488633245229721069e-01 4.178331699222326279e-03
3.155000000000000000e+03 9.563698768615722656e+00 4.155310153961181641e+00 2.822332084178924561e-01 -1.944672316312789917e-01 2.632979117333889008e-02 7.895279675722122192e-02
3.156000000000000000e+03 2.751168823242187500e+01 -1.216234445571899414e+00 3.928780853748321533e-01 -2.653619945049285889e-01 3.825482353568077087e-02 -1.203213334083557129e-01
3.157000000000000000e+03 3.610322189331054688e+01 2.978364753723144531e+01 5.931247025728225708e-02 8.053831011056900024e-02 4.195523634552955627e-02 6.354118883609771729e-02
3.158000000000000000e+03 7.638454437255859375e+01 3.511149215698242188e+01 2.756781816482543945e+00 1.344266605377197266e+01 4.859834194183349609e+00 2.112030982971191406e+00
3.159000000000000000e+03 1.421467685699462891e+01 5.832666397094726562e+00 1.244348511099815369e-01 5.768575072288513184e-01 2.103877067565917969e-01 2.077296823263168335e-01
3.160000000000000000e+03 6.765287780761718750e+01 2.893650436401367188e+01 -4.841436147689819336e-01 1.394255042076110840e+00 2.730334401130676270e-01 9.690719246864318848e-01
3.161000000000000000e+03 6.957853698730468750e+01 2.992978668212890625e+01 -4.145487546920776367e-01 2.253321409225463867e+00 5.516317486763000488e-01 1.976558089256286621e+00
3.162000000000000000e+03 6.690448760986328125e+01 2.888752937316894531e+01 -6.079077720642089844e-01 1.096044063568115234e+00 1.464408934116363525e-01 6.469450592994689941e-01
3.163000000000000000e+03 2.590171241760253906e+01 -4.405265152454376221e-01 3.394811600446701050e-02 -1.038714945316314697e-01 -2.097701281309127808e-02 -2.653921842575073242e-01
3.164000000000000000e+03 7.565327453613281250e+01 2.836551475524902344e+01 -1.532442212104797363e+00 1.155361461639404297e+01 3.006351709365844727e+00 9.697904437780380249e-02
3.165000000000000000e+03 3.042662811279296875e+01 2.372177314758300781e+01 5.857765302062034607e-02 9.329955279827117920e-02 4.556316137313842773e-02 7.922299951314926147e-02
3.166000000000000000e+03 3.086069297790527344e+01 2.282363319396972656e+01 6.430560350418090820e-02 9.067179262638092041e-02 4.649321734905242920e-02 8.160376548767089844e-02
3.167000000000000000e+03 3.949041748046875000e+01 3.157556915283203125e+01 6.693362444639205933e-02 6.592050939798355103e-02 3.985624015331268311e-02 6.279408186674118042e-02
3.168000000000000000e+03 3.976461791992187500e+01 3.408363342285156250e+01 7.075592875480651855e-02 6.240738928318023682e-02 3.994899615645408630e-02 5.563487112522125244e-02
3.169000000000000000e+03 5.127768516540527344e+00 6.675674915313720703e+00 7.444933056831359863e-02 -1.352474838495254517e-01 -1.823944598436355591e-02 8.640022575855255127e-02
3.170000000000000000e+03 7.716661834716796875e+01 3.005341339111328125e+01 -8.022705912590026855e-01 1.190364551544189453e+01 3.330412387847900391e+00 -1.623901605606079102e+00
3.171000000000000000e+03 3.999834060668945312e+01 3.290959167480468750e+01 6.874493509531021118e-02 6.145001202821731567e-02 3.905848413705825806e-02 5.999825149774551392e-02
3.172000000000000000e+03 5.191557407379150391e+00 4.970997333526611328e+00 3.829018771648406982e-02 -1.243725344538688660e-01 -2.582470513880252838e-02 1.330202668905258179e-01
3.173000000000000000e+03 5.476091384887695312e+01 3.145004272460937500e+01 -1.429244756698608398e+00 1.043741106986999512e-01 -3.974612057209014893e-01 -8.458345532417297363e-01
3.174000000000000000e+03 5.358699417114257812e+01 3.121454429626464844e+01 -1.350445747375488281e+00 -8.461819589138031006e-02 -4.305191934108734131e-01 -8.564918637275695801e-01
3.175000000000000000e+03 7.957878589630126953e+00 4.103134632110595703e+00 1.201597824692726135e-01 -1.922432631254196167e-01 -2.162504196166992188e-02 1.750937551259994507e-01
3.176000000000000000e+03 5.978827476501464844e+00 5.544140815734863281e+00 8.646381646394729614e-02 -1.385615020990371704e-01 -1.562930643558502197e-02 1.193400025367736816e-01
3.177000000000000000e+03 7.362739562988281250e+01 3.101756858825683594e+01 -2.018006563186645508e+00 1.357733058929443359e+01 3.467797279357910156e+00 3.295231103897094727e+00
3.178000000000000000e+03 3.119262695312500000e+01 2.466726303100585938e+01 5.682271346449851990e-02 9.063213318586349487e-02 4.423645511269569397e-02 7.602152228355407715e-02
3.179000000000000000e+03 8.856524467468261719e+00 3.898912429809570312e+00 1.846080869436264038e-01 -2.271597087383270264e-01 -1.276548672467470169e-02 1.667089462280273438e-01
3.180000000000000000e+03 6.634265899658203125e+00 5.688711643218994141e+00 1.128795966506004333e-01 -1.438497602939605713e-01 -9.291049093008041382e-03 1.089319735765457153e-01
3.181000000000000000e+03 3.226857376098632812e+01 6.561248779296875000e+00 -1.344466567039489746e+00 -1.028277754783630371e+00 -7.118232846260070801e-01 -1.025431036949157715e+00
3.182000000000000000e+03 8.267384529113769531e+00 4.887063026428222656e+00 1.884416043758392334e-01 -1.695914566516876221e-01 5.655045621097087860e-03 1.032230630517005920e-01
3.183000000000000000e+03 6.022793579101562500e+01 2.948577308654785156e+01 -1.503339886665344238e+00 2.828491032123565674e-01 -3.661472201347351074e-01 -7.824665307998657227e-01
3.184000000000000000e+03 5.965683364868164062e+01 2.941403007507324219e+01 -1.488049507141113281e+00 2.972337901592254639e-01 -3.572447001934051514e-01 -8.206441998481750488e-01
3.185000000000000000e+03 6.247755813598632812e+01 2.920164299011230469e+01 -1.338774919509887695e+00 3.321627378463745117e-01 -3.019836544990539551e-01 -5.397964715957641602e-01
3.186000000000000000e+03 6.171509170532226562e+01 2.993398284912109375e+01 -1.673829555511474609e+00 2.331413179636001587e-01 -4.322064816951751709e-01 -6.546013355255126953e-01
3.187000000000000000e+03 6.170435333251953125e+01 2.923724365234375000e+01 -1.396541833877563477e+00 3.074066936969757080e-01 -3.267405331134796143e-01 -6.397937536239624023e-01
3.188000000000000000e+03 1.037347412109375000e+01 4.269329071044921875e+00 3.649521768093109131e-01 -1.240100562572479248e-01 7.228263467550277710e-02 -3.234855830669403076e-02
3.189000000000000000e+03 7.311707496643066406e+00 5.838588237762451172e+00 1.465900689363479614e-01 -1.383966207504272461e-01 2.458034781739115715e-03 8.500598371028900146e-02
3.190000000000000000e+03 7.693390655517578125e+01 3.168398666381835938e+01 3.116178512573242188e-01 1.215902519226074219e+01 3.741193056106567383e+00 -2.262817621231079102e+00
3.191000000000000000e+03 6.471694183349609375e+01 2.970035362243652344e+01 -1.395082950592041016e+00 3.614388406276702881e-01 -3.100932240486145020e-01 -1.945903450250625610e-01
3.192000000000000000e+03 4.229646682739257812e+01 3.493735122680664062e+01 8.542757481336593628e-02 5.133180320262908936e-02 4.102781414985656738e-02 5.899386852979660034e-02
3.193000000000000000e+03 5.354845523834228516e+00 -6.556509494781494141e+00 -1.360385119915008545e-01 -1.769278198480606079e-01 -9.388989955186843872e-02 -2.347746640443801880e-01
3.194000000000000000e+03 2.628583717346191406e+01 -1.129897952079772949e+00 4.552505910396575928e-01 -4.216539487242698669e-02 1.239255592226982117e-01 -3.125042021274566650e-01
3.195000000000000000e+03 6.619200897216796875e+01 2.963260078430175781e+01 -1.115786075592041016e+00 6.041988730430603027e-01 -1.534761786460876465e-01 2.166922539472579956e-01
3.196000000000000000e+03 5.740111923217773438e+01 2.955168342590332031e+01 -1.491708040237426758e+00 2.833925485610961914e-01 -3.624946475028991699e-01 -9.187681674957275391e-01
3.197000000000000000e+03 8.348202705383300781e+00 -6.902872085571289062e+00 -2.646043300628662109e-01 -2.417015433311462402e-01 -1.518917530775070190e-01 -4.252997934818267822e-01
3.198000000000000000e+03 6.321905136108398438e+01 2.912301445007324219e+01 -1.260604977607727051e+00 3.682679235935211182e-01 -2.677011191844940186e-01 -4.205161035060882568e-01
3.199000000000000000e+03 6.395283508300781250e+01 2.905610847473144531e+01 -1.157768845558166504e+00 4.241936802864074707e-01 -2.200725376605987549e-01 -2.791494131088256836e-01
3.200000000000000000e+03 5.909617614746093750e+01 2.911412239074707031e+01 -1.419442057609558105e+00 3.092263042926788330e-01 -3.330647051334381104e-01 -8.547887802124023438e-01
3.201000000000000000e+03 6.842837333679199219e+00 -6.142329692840576172e+00 -2.118186056613922119e-01 -1.663171201944351196e-01 -1.134407147765159607e-01 -2.973550558090209961e-01
3.202000000000000000e+03 6.705445289611816406e+00 -5.345866203308105469e+00 -2.056994438171386719e-01 -1.367891728878021240e-01 -1.027465835213661194e-01 -2.466460168361663818e-01
3.203000000000000000e+03 3.217493057250976562e+01 8.180857658386230469e+00 -1.244381308555603027e+00 -1.266184806823730469e+00 -7.531698346138000488e-01 -1.176949977874755859e+00
3.204000000000000000e+03 3.253636169433593750e+01 1.035501289367675781e+01 -1.342506051063537598e+00 -1.380848765373229980e+00 -8.170064687728881836e-01 -1.268458485603332520e+00
3.205000000000000000e+03 1.242459964752197266e+01 4.701269626617431641e+00 2.767408192157745361e-01 5.971427559852600098e-01 2.621650695800781250e-01 -2.499013543128967285e-01
3.206000000000000000e+03 6.542596435546875000e+01 2.898374366760253906e+01 -9.202081561088562012e-01 6.436029672622680664e-01 -8.298155665397644043e-02 9.483212232589721680e-02
3.207000000000000000e+03 6.615687561035156250e+01 2.894320297241210938e+01 -7.803667783737182617e-01 8.242264986038208008e-01 1.315791718661785126e-02 3.334127068519592285e-01
3.208000000000000000e+03 2.833588218688964844e+01 -2.585396051406860352e+00 8.202247023582458496e-01 -3.025490343570709229e-01 1.553027033805847168e-01 -2.793727815151214600e-01
3.209000000000000000e+03 5.672346496582031250e+01 2.945330047607421875e+01 -1.467772960662841797e+00 2.604686915874481201e-01 -3.621912896633148193e-01 -9.327068924903869629e-01
3.210000000000000000e+03 3.316835021972656250e+01 1.029998302459716797e+01 -1.283955216407775879e+00 -1.333145022392272949e+00 -7.851300835609436035e-01 -1.219897270202636719e+00
3.211000000000000000e+03 4.345402526855468750e+01 3.645071792602539062e+01 1.023574098944664001e-01 4.423667863011360168e-02 4.397822916507720947e-02 5.792187154293060303e-02
3.212000000000000000e+03 7.991202831268310547e+00 5.352751731872558594e+00 1.745246499776840210e-01 -1.515948921442031860e-01 6.878925487399101257e-03 8.782396465539932251e-02
3.213000000000000000e+03 9.224385261535644531e+00 4.736198902130126953e+00 2.581363022327423096e-01 -1.579961180686950684e-01 3.004205599427223206e-02 5.224080383777618408e-02
3.214000000000000000e+03 2.364501190185546875e+01 5.563927888870239258e-01 -1.738374114036560059e+00 7.600116729736328125e-02 -4.987118840217590332e-01 -1.032645344734191895e+00
3.215000000000000000e+03 2.373757171630859375e+01 -6.448711752891540527e-01 1.097583100199699402e-01 5.150215029716491699e-01 1.874339431524276733e-01 -7.934718728065490723e-01
3.216000000000000000e+03 1.221782588958740234e+01 5.073584556579589844e+00 2.511241734027862549e-01 4.682950675487518311e-01 2.158257663249969482e-01 -2.011262029409408569e-01
3.217000000000000000e+03 1.204281330108642578e+01 6.266014099121093750e+00 1.536830216646194458e-01 3.625311851501464844e-01 1.548642516136169434e-01 -1.039476990699768066e-01
3.218000000000000000e+03 1.182329463958740234e+01 -6.171989440917968750e+00 -4.878672063350677490e-01 -3.592229783535003662e-01 -2.541270554065704346e-01 -6.517422199249267578e-01
3.219000000000000000e+03 5.455371856689453125e+01 3.102890586853027344e+01 -1.438972592353820801e+00 8.449003100395202637e-02 -4.063447713851928711e-01 -8.654701113700866699e-01
3.220000000000000000e+03 5.609424972534179688e+01 2.932783126831054688e+01 -1.446648716926574707e+00 2.326028943061828613e-01 -3.642137348651885986e-01 -9.390850663185119629e-01
3.221000000000000000e+03 7.627316284179687500e+01 3.037322807312011719e+01 -1.155025124549865723e+00 1.304107856750488281e+01 3.565815925598144531e+00 -1.417444467544555664e+00
3.222000000000000000e+03 5.440510940551757812e+01 4.036851882934570312e+01 2.368404269218444824e-01 -7.324451953172683716e-02 4.907877370715141296e-02 4.887152090668678284e-02
3.223000000000000000e+03 3.008025550842285156e+01 -2.737245559692382812e+00 6.151091456413269043e-01 -4.934163987636566162e-01 3.650782629847526550e-02 -9.675141423940658569e-02
3.224000000000000000e+03 1.340925598144531250e+01 -6.595721244812011719e+00 -4.835070073604583740e-01 -5.846285223960876465e-01 -3.204406797885894775e-01 -8.012870550155639648e-01
3.225000000000000000e+03 1.266331291198730469e+01 -5.535043716430664062e+00 -6.047067642211914062e-01 -3.836333453655242920e-01 -2.965020239353179932e-01 -6.902887225151062012e-01
3.226000000000000000e+03 3.103003883361816406e+01 -4.052849769592285156e+00 7.508051395416259766e-01 -5.091395974159240723e-01 7.249964773654937744e-02 -1.325962990522384644e-01
3.227000000000000000e+03 4.687155151367187500e+01 4.163159561157226562e+01 1.699155420064926147e-01 3.269871324300765991e-02 6.078427657485008240e-02 7.871398702263832092e-03
3.228000000000000000e+03 4.622811889648437500e+01 3.839707946777343750e+01 1.436521559953689575e-01 3.639959171414375305e-02 5.401552096009254456e-02 4.667079821228981018e-02
3.229000000000000000e+03 1.350922203063964844e+01 -5.698249340057373047e+00 -6.092469692230224609e-01 -4.605910181999206543e-01 -3.209514021873474121e-01 -7.733383178710937500e-01
3.230000000000000000e+03 7.578968811035156250e+01 2.642852020263671875e+01 -9.436278343200683594e-01 1.026679039001464844e+01 2.796948909759521484e+00 4.393123388290405273e-01
3.231000000000000000e+03 5.274539184570312500e+01 4.192149353027343750e+01 2.256350815296173096e-01 -7.801471743732690811e-03 6.535008549690246582e-02 1.629363000392913818e-02
3.232000000000000000e+03 4.345389175415039062e+01 3.961185455322265625e+01 1.268844008445739746e-01 3.779672831296920776e-02 4.940433800220489502e-02 3.149807453155517578e-02
3.233000000000000000e+03 7.549576568603515625e+01 3.620475769042968750e+01 -8.771076053380966187e-02 1.598010826110839844e+01 4.767719268798828125e+00 2.112087011337280273e+00
3.234000000000000000e+03 5.535902786254882812e+01 4.122998809814453125e+01 2.843351364135742188e-01 -1.808495670557022095e-01 3.104566968977451324e-02 5.163997411727905273e-03
3.235000000000000000e+03 9.633367538452148438e+00 -5.212709903717041016e+00 -3.930716812610626221e-01 -1.699320226907730103e-01 -1.689011156558990479e-01 -4.045616388320922852e-01
3.236000000000000000e+03 3.396385669708251953e+00 7.879423141479492188e+00 3.592408820986747742e-02 -1.470765620470046997e-01 -3.334574028849601746e-02 5.554419383406639099e-02
3.237000000000000000e+03 3.591418838500976562e+01 -9.915448188781738281e+00 5.030947923660278320e-01 -4.661068618297576904e-01 1.109637878835201263e-02 -9.160040318965911865e-02
3.238000000000000000e+03 3.591758728027343750e+01 -8.151298522949218750e+00 6.018846631050109863e-01 -5.189073681831359863e-01 2.489318139851093292e-02 -8.015837520360946655e-02
3.239000000000000000e+03 1.109956455230712891e+01 -5.295348644256591797e+00 -5.064280629158020020e-01 -2.338254600763320923e-01 -2.220760732889175415e-01 -5.248310565948486328e-01
3.240000000000000000e+03 4.024225616455078125e+01 -1.265210437774658203e+01 3.917526304721832275e-01 -2.200399041175842285e-01 5.151382088661193848e-02 4.585549468174576759e-04
3.241000000000000000e+03 3.880826187133789062e+01 -1.075802326202392578e+01 4.900451004505157471e-01 -3.439118862152099609e-01 4.383996874094009399e-02 -2.427163533866405487e-02
3.242000000000000000e+03 3.670718765258789062e+01 -7.398555278778076172e+00 6.300221681594848633e-01 -5.195581912994384766e-01 3.313919529318809509e-02 -4.465098306536674500e-02
3.243000000000000000e+03 3.364401245117187500e+01 -6.879219532012939453e+00 7.308772802352905273e-01 -5.259038805961608887e-01 6.149202212691307068e-02 -1.426168978214263916e-01
3.244000000000000000e+03 2.224189376831054688e+01 -2.189134025573730469e+01 2.201435267925262451e-01 1.888157427310943604e-01 1.226877793669700623e-01 -3.279684185981750488e-01
3.245000000000000000e+03 2.009103202819824219e+01 -2.471246528625488281e+01 2.396408915519714355e-01 -3.912007063627243042e-02 6.015624850988388062e-02 -3.290745615959167480e-01
3.246000000000000000e+03 5.115048599243164062e+01 4.026549530029296875e+01 2.279497385025024414e-01 1.992261968553066254e-02 7.436170428991317749e-02 1.232476625591516495e-02
3.247000000000000000e+03 4.920391082763671875e+01 4.100043869018554688e+01 1.936094164848327637e-01 3.044828400015830994e-02 6.721731275320053101e-02 1.108397543430328369e-02
3.248000000000000000e+03 4.801073455810546875e+01 -2.624490547180175781e+01 -1.026081591844558716e-01 9.014605879783630371e-01 2.396557182073593140e-01 1.545531600713729858e-01
3.249000000000000000e+03 4.576613616943359375e+01 -2.379237174987792969e+01 -3.898731619119644165e-02 4.886394143104553223e-01 1.348956227302551270e-01 1.227113083004951477e-01
3.250000000000000000e+03 1.792837524414062500e+01 -1.543702220916748047e+01 2.546608448028564453e-01 -3.515741825103759766e-01 -2.907399833202362061e-02 -3.274654746055603027e-01
3.251000000000000000e+03 2.206721496582031250e+01 -2.727916145324707031e+01 2.611658275127410889e-01 1.197688654065132141e-01 1.142804026603698730e-01 -3.278821110725402832e-01
3.252000000000000000e+03 4.518817520141601562e+01 -2.257524681091308594e+01 -1.546174567192792892e-02 3.810584247112274170e-01 1.096790060400962830e-01 1.156422123312950134e-01
3.253000000000000000e+03 7.055810546875000000e+01 -2.569582366943359375e+01 3.259380534291267395e-02 4.688745975494384766e+00 1.416401982307434082e+00 1.924719512462615967e-01
3.254000000000000000e+03 4.206027221679687500e+01 -1.970812034606933594e+01 4.877135530114173889e-02 -6.248510256409645081e-02 -4.114123992621898651e-03 1.183144524693489075e-01
3.255000000000000000e+03 4.338855361938476562e+01 -2.206200218200683594e+01 -2.270782366394996643e-02 7.897093892097473145e-02 1.687893457710742950e-02 1.409252882003784180e-01
3.256000000000000000e+03 7.307062625885009766e+00 2.913220405578613281e+01 -7.126984186470508575e-03 -5.059882998466491699e-02 -1.731774397194385529e-02 -1.336354762315750122e-02
3.257000000000000000e+03 1.033468055725097656e+01 3.108565711975097656e+01 -8.938898332417011261e-03 -1.331951934844255447e-02 -6.677525583654642105e-03 -6.997575517743825912e-03
3.258000000000000000e+03 7.337982177734375000e+01 -2.435724639892578125e+01 1.909573934972286224e-02 5.167551040649414062e+00 1.555993914604187012e+00 1.561434715986251831e-01
3.259000000000000000e+03 7.366339874267578125e+01 1.877118873596191406e+01 9.813485294580459595e-02 7.197877407073974609e+00 2.188803672790527344e+00 1.080397486686706543e+00
3.260000000000000000e+03 7.345018005371093750e+01 -1.781461143493652344e+01 2.244206890463829041e-02 5.318754673004150391e+00 1.602359056472778320e+00 1.871192008256912231e-01
3.261000000000000000e+03 7.312014007568359375e+01 1.149400043487548828e+01 1.693155616521835327e-01 6.454944610595703125e+00 1.987278103828430176e+00 8.134468197822570801e-01
3.262000000000000000e+03 7.313145446777343750e+01 1.279068183898925781e+01 1.748363375663757324e-01 6.539525032043457031e+00 2.014308452606201172e+00 8.666092157363891602e-01
3.263000000000000000e+03 7.252001953125000000e+01 -8.825588226318359375e+00 6.188139319419860840e-02 5.369757175445556641e+00 1.629491567611694336e+00 3.112199306488037109e-01
3.264000000000000000e+03 7.324613952636718750e+01 -1.024037361145019531e+01 4.973080754280090332e-02 5.474070549011230469e+00 1.657140493392944336e+00 2.692037522792816162e-01
3.265000000000000000e+03 7.244162750244140625e+01 -1.846326470375061035e+00 9.772358089685440063e-02 5.598587989807128906e+00 1.708893418312072754e+00 4.519539177417755127e-01
3.266000000000000000e+03 7.288677978515625000e+01 -3.162692308425903320e+00 8.520780503749847412e-02 5.655176639556884766e+00 1.722115278244018555e+00 4.025179445743560791e-01
3.267000000000000000e+03 7.414051055908203125e+01 8.420839309692382812e+00 1.162006035447120667e-01 6.598469257354736328e+00 2.014400959014892578e+00 6.433217525482177734e-01
3.268000000000000000e+03 7.196745300292968750e+01 3.221423387527465820e+00 1.394567936658859253e-01 5.683820724487304688e+00 1.746983170509338379e+00 5.952629446983337402e-01
3.269000000000000000e+03 7.319651031494140625e+01 4.325382709503173828e+00 1.164317950606346130e-01 6.076658725738525391e+00 1.857927083969116211e+00 5.729357600212097168e-01
3.270000000000000000e+03 7.436103057861328125e+01 5.629230499267578125e+00 9.172263741493225098e-02 6.486371517181396484e+00 1.973428249359130859e+00 5.390409827232360840e-01
3.271000000000000000e+03 7.321595001220703125e+01 5.571265220642089844e+00 1.218876838684082031e-01 6.145187377929687500e+00 1.880122423171997070e+00 6.094676852226257324e-01
3.272000000000000000e+03 7.318591308593750000e+01 -4.427156448364257812e+00 7.193017750978469849e-02 5.666848659515380859e+00 1.721633672714233398e+00 3.622648119926452637e-01
3.273000000000000000e+03 7.462915039062500000e+01 -6.764708995819091797e+00 4.230847209692001343e-02 5.871198654174804688e+00 1.774052143096923828e+00 2.693468630313873291e-01
3.274000000000000000e+03 7.388054656982421875e+01 -1.337664413452148438e+01 3.023960627615451813e-02 5.492049217224121094e+00 1.656686663627624512e+00 2.147227823734283447e-01
3.275000000000000000e+03 7.313151550292968750e+01 6.831003665924072266e+00 1.351300328969955444e-01 6.204278469085693359e+00 1.901822447776794434e+00 6.521335244178771973e-01
3.276000000000000000e+03 7.302110290527343750e+01 -1.995196723937988281e+01 2.125512436032295227e-02 5.198782920837402344e+00 1.566011428833007812e+00 1.794485002756118774e-01
3.277000000000000000e+03 7.431517028808593750e+01 -2.034445953369140625e+01 1.720712706446647644e-02 5.392914772033691406e+00 1.623036623001098633e+00 1.523959934711456299e-01
3.278000000000000000e+03 7.228135681152343750e+01 9.143821716308593750e+00 1.827388852834701538e-01 6.041813850402832031e+00 1.867365837097167969e+00 7.686870098114013672e-01
3.279000000000000000e+03 7.183257293701171875e+01 -2.669065475463867188e+01 2.882406860589981079e-02 4.876426219940185547e+00 1.471575140953063965e+00 1.706265956163406372e-01
3.280000000000000000e+03 7.098730087280273438e+00 2.227278137207031250e+01 -6.743600592017173767e-03 -4.557953029870986938e-02 -1.569693908095359802e-02 -2.044708654284477234e-02
3.281000000000000000e+03 7.945056438446044922e+00 2.350536918640136719e+01 -7.631976157426834106e-03 -3.121940791606903076e-02 -1.165541540831327438e-02 -1.798239536583423615e-02
3.282000000000000000e+03 7.430136871337890625e+01 1.580598163604736328e+01 1.342549175024032593e-01 7.238854885101318359e+00 2.211932897567749023e+00 9.107871651649475098e-01
3.283000000000000000e+03 1.502322578430175781e+01 -8.318330764770507812e+00 -1.268331557512283325e-01 -8.260831236839294434e-01 -2.858748733997344971e-01 -7.525996565818786621e-01
3.284000000000000000e+03 1.455614757537841797e+01 -9.422605514526367188e+00 -8.597705513238906860e-02 -7.869227528572082520e-01 -2.618699371814727783e-01 -7.291272878646850586e-01
3.285000000000000000e+03 8.903199195861816406e+00 3.206094741821289062e+01 -7.794017437845468521e-03 -3.200506046414375305e-02 -1.193972397595643997e-02 -8.541782386600971222e-03
3.286000000000000000e+03 7.293636322021484375e+01 1.410656833648681641e+01 1.910480856895446777e-01 6.522577285766601562e+00 2.014087438583374023e+00 9.356358647346496582e-01
3.287000000000000000e+03 6.372054100036621094e+00 -1.291980361938476562e+01 -9.954820387065410614e-03 -5.354935526847839355e-01 -1.636345088481903076e-01 -4.188333749771118164e-01
3.288000000000000000e+03 6.143388748168945312e+00 -1.045515918731689453e+01 -7.141901552677154541e-02 -4.071462154388427734e-01 -1.435695737600326538e-01 -3.951994776725769043e-01
3.289000000000000000e+03 6.782833862304687500e+01 2.824053573608398438e+01 -2.621463537216186523e-01 1.825215101242065430e+00 4.689206480979919434e-01 1.151962518692016602e+00
3.290000000000000000e+03 7.500536346435546875e+01 2.272568130493164062e+01 -2.389062792062759399e-01 8.558828353881835938e+00 2.495976686477661133e+00 9.881091713905334473e-01
3.291000000000000000e+03 8.285354614257812500e+00 -1.797070693969726562e+01 9.521974623203277588e-02 -6.892692446708679199e-01 -1.782148629426956177e-01 -4.148445725440979004e-01
3.292000000000000000e+03 6.969491481781005859e+00 -1.819498062133789062e+01 6.748639792203903198e-02 -7.343404889106750488e-01 -2.000562399625778198e-01 -3.804231286048889160e-01
3.293000000000000000e+03 6.588019847869873047e+00 -2.803850555419921875e+01 6.674073636531829834e-02 -9.940822720527648926e-01 -2.782024741172790527e-01 -2.081290036439895630e-01
3.294000000000000000e+03 7.219859123229980469e+00 -2.535244750976562500e+01 7.636061310768127441e-02 -8.923660516738891602e-01 -2.448016405105590820e-01 -2.569028735160827637e-01
3.295000000000000000e+03 6.138834953308105469e+00 -9.240063667297363281e+00 -1.029875949025154114e-01 -3.282750546932220459e-01 -1.293787956237792969e-01 -3.643999397754669189e-01
3.296000000000000000e+03 4.991722106933593750e+00 -9.174942970275878906e+00 -7.926739752292633057e-02 -3.178759217262268066e-01 -1.191429942846298218e-01 -3.058025240898132324e-01
3.297000000000000000e+03 6.121660232543945312e+00 1.566662216186523438e+01 8.906018920242786407e-03 -6.023375689983367920e-02 -1.539832167327404022e-02 -2.306563220918178558e-02
3.298000000000000000e+03 6.091745376586914062e+00 1.696507072448730469e+01 3.070256905630230904e-03 -6.181729584932327271e-02 -1.762411184608936310e-02 -2.407614886760711670e-02
3.299000000000000000e+03 6.281153202056884766e+00 1.428172397613525391e+01 1.837832853198051453e-02 -5.323334038257598877e-02 -1.045650336891412735e-02 -2.074463106691837311e-02
3.300000000000000000e+03 5.092514514923095703e+00 1.292570877075195312e+01 2.370859310030937195e-02 -9.745571762323379517e-02 -2.212413772940635681e-02 -1.168093550950288773e-02
3.301000000000000000e+03 5.274395465850830078e+00 1.979673767089843750e+01 -2.620100975036621094e-03 -8.360949903726577759e-02 -2.586887963116168976e-02 -2.469740435481071472e-02
3.302000000000000000e+03 4.072753906250000000e+01 -1.408869171142578125e+01 3.303029835224151611e-01 -1.669878065586090088e-01 4.899455606937408447e-02 1.685330085456371307e-02
3.303000000000000000e+03 4.075264358520507812e+01 -1.728153419494628906e+01 1.359618604183197021e-01 -1.764110177755355835e-01 -1.213474664837121964e-02 7.944821566343307495e-02
3.304000000000000000e+03 9.963800430297851562e+00 -3.224814224243164062e+01 1.072167307138442993e-01 -7.983113527297973633e-01 -2.073283940553665161e-01 -1.854183822870254517e-01
3.305000000000000000e+03 8.536854743957519531e+00 -3.029470252990722656e+01 9.008622914552688599e-02 -8.834320306777954102e-01 -2.380037456750869751e-01 -2.005561441183090210e-01
3.306000000000000000e+03 6.636432170867919922e+00 2.085801887512207031e+01 -4.740503150969743729e-03 -5.318789556622505188e-02 -1.737852022051811218e-02 -2.319729141891002655e-02
3.307000000000000000e+03 7.085939407348632812e+00 1.572815322875976562e+01 9.337311610579490662e-03 -3.285976871848106384e-02 -7.056736852973699570e-03 -2.220992743968963623e-02
3.308000000000000000e+03 6.342466354370117188e+00 1.953031539916992188e+01 -3.410524455830454826e-03 -5.801236256957054138e-02 -1.842686533927917480e-02 -2.395460940897464752e-02
3.309000000000000000e+03 5.795498371124267578e+00 2.694742965698242188e+01 -5.717969965189695358e-03 -7.211247831583023071e-02 -2.334913425147533417e-02 -1.595455035567283630e-02
3.310000000000000000e+03 7.387146759033203125e+01 2.132465171813964844e+01 -5.587463825941085815e-02 7.610454559326171875e+00 2.266373872756958008e+00 1.150580644607543945e+00
3.311000000000000000e+03 6.676573276519775391e+00 9.658794403076171875e+00 7.935792952775955200e-02 -7.108832895755767822e-02 2.480879426002502441e-03 5.938541144132614136e-03
3.312000000000000000e+03 6.339508533477783203e+00 1.276031780242919922e+01 3.338958323001861572e-02 -5.533227697014808655e-02 -6.582807749509811401e-03 -1.635744236409664154e-02
3.313000000000000000e+03 5.518943786621093750e+00 8.790593147277832031e+00 7.486904412508010864e-02 -1.119142398238182068e-01 -1.111355982720851898e-02 3.310158476233482361e-02
3.314000000000000000e+03 2.106609725952148438e+01 -2.382510375976562500e+01 2.340755015611648560e-01 6.762638688087463379e-02 9.051056951284408569e-02 -3.257360458374023438e-01
3.315000000000000000e+03 9.838176727294921875e+00 3.380346298217773438e+01 -8.142561651766300201e-03 -2.229971997439861298e-02 -9.132684208452701569e-03 -6.318804342299699783e-03
3.316000000000000000e+03 7.899981021881103516e+00 3.459802627563476562e+01 -6.249751430004835129e-03 -4.509251564741134644e-02 -1.540268026292324066e-02 -6.494809873402118683e-03
3.317000000000000000e+03 5.212056636810302734e+00 -1.306523132324218750e+01 -3.987341653555631638e-03 -5.301519036293029785e-01 -1.602417677640914917e-01 -3.580486774444580078e-01
3.318000000000000000e+03 4.249519729614257812e+01 -1.786358261108398438e+01 1.457578837871551514e-01 2.486961707472801208e-02 5.118825286626815796e-02 7.216644287109375000e-02
3.319000000000000000e+03 6.794566345214843750e+01 4.142418670654296875e+01 1.203933596611022949e+00 1.611089825630187988e+00 8.445070385932922363e-01 -4.408144950866699219e-02
3.320000000000000000e+03 1.952004432678222656e+01 -2.158078765869140625e+01 2.512403428554534912e-01 -9.216070175170898438e-02 4.772389307618141174e-02 -3.112920522689819336e-01
3.321000000000000000e+03 1.940137672424316406e+01 -2.053411102294921875e+01 2.279470115900039673e-01 -1.218674555420875549e-01 3.182386606931686401e-02 -3.296536207199096680e-01
3.322000000000000000e+03 4.675319671630859375e+01 -2.712426185607910156e+01 -1.343898177146911621e-01 6.496062874794006348e-01 1.545649319887161255e-01 1.610734015703201294e-01
3.323000000000000000e+03 1.749850463867187500e+01 -1.720376014709472656e+01 2.496560811996459961e-01 -3.270007371902465820e-01 -2.320339903235435486e-02 -3.430241048336029053e-01
3.324000000000000000e+03 3.767963790893554688e+01 -9.939013481140136719e+00 5.109279751777648926e-01 -4.299312531948089600e-01 2.429902553558349609e-02 -5.366399139165878296e-02
3.325000000000000000e+03 7.202895355224609375e+01 4.147465133666992188e+01 -4.338091611862182617e-01 7.665573120117187500e+00 2.169529199600219727e+00 -5.621570348739624023e-01
3.326000000000000000e+03 4.453796768188476562e+01 -2.138597679138183594e+01 3.550865873694419861e-02 2.942350208759307861e-01 9.892310947179794312e-02 1.105167716741561890e-01
3.327000000000000000e+03 4.385076522827148438e+01 -2.020989227294921875e+01 6.393889337778091431e-02 1.891558170318603516e-01 7.592841237783432007e-02 9.923572838306427002e-02
3.328000000000000000e+03 4.286536788940429688e+01 4.152396011352539062e+01 1.232585012912750244e-01 3.765792772173881531e-02 4.827493056654930115e-02 7.584797684103250504e-03
3.329000000000000000e+03 2.313119125366210938e+01 -3.136839866638183594e+01 3.214246630668640137e-01 1.777620017528533936e-01 1.497559994459152222e-01 -2.989370226860046387e-01
3.330000000000000000e+03 1.724164009094238281e+01 -1.430496406555175781e+01 2.529539465904235840e-01 -5.127809047698974609e-01 -7.794810086488723755e-02 -3.759311437606811523e-01
3.331000000000000000e+03 1.653211021423339844e+01 -1.315837669372558594e+01 2.273450493812561035e-01 -5.908005833625793457e-01 -1.090366542339324951e-01 -4.345517456531524658e-01
3.332000000000000000e+03 7.307458496093750000e+01 -1.670284271240234375e+01 3.253497928380966187e-02 5.287568569183349609e+00 1.596031069755554199e+00 2.019034326076507568e-01
3.333000000000000000e+03 7.359249114990234375e+01 -7.943589687347412109e+00 5.192742869257926941e-02 5.617380142211914062e+00 1.700792312622070312e+00 2.924287021160125732e-01
3.334000000000000000e+03 7.383415222167968750e+01 8.218842744827270508e-02 7.760384678840637207e-02 6.001670360565185547e+00 1.823782205581665039e+00 4.346360862255096436e-01
3.335000000000000000e+03 8.538684844970703125e+00 -2.863509368896484375e+01 9.186234325170516968e-02 -8.663331866264343262e-01 -2.323412597179412842e-01 -2.319851815700531006e-01
3.336000000000000000e+03 7.227985382080078125e+00 -2.893757057189941406e+01 7.065109163522720337e-02 -9.484757781028747559e-01 -2.633473873138427734e-01 -2.039555162191390991e-01
3.337000000000000000e+03 2.693824768066406250e+01 -6.331959962844848633e-01 6.994409114122390747e-02 -2.459786683320999146e-01 -5.281037464737892151e-02 -1.565518826246261597e-01
3.338000000000000000e+03 2.733815765380859375e+01 2.936273813247680664e+00 -2.209593534469604492e+00 -7.736592888832092285e-01 -8.949758410453796387e-01 -8.675367832183837891e-01
3.339000000000000000e+03 2.779708862304687500e+01 3.381222963333129883e+00 -2.237627267837524414e+00 -9.637134671211242676e-01 -9.604022502899169922e-01 -9.551277160644531250e-01
3.340000000000000000e+03 2.679909515380859375e+01 3.042727947235107422e+00 -2.497712373733520508e+00 -7.443307638168334961e-01 -9.726129174232482910e-01 -9.944188594818115234e-01
3.341000000000000000e+03 2.630362319946289062e+01 2.680752754211425781e+00 -2.471966028213500977e+00 -6.591726541519165039e-01 -9.393416047096252441e-01 -9.675669670104980469e-01
3.342000000000000000e+03 2.644157409667968750e+01 2.830447912216186523e+00 -2.512192010879516602e+00 -7.301144003868103027e-01 -9.726918935775756836e-01 -1.034886479377746582e+00
3.343000000000000000e+03 2.448109054565429688e+01 1.422359466552734375e+00 -2.231850147247314453e+00 -1.766447424888610840e-01 -7.225484251976013184e-01 -8.717993497848510742e-01
3.344000000000000000e+03 2.436870384216308594e+01 1.664927363395690918e+00 -2.648197174072265625e+00 -3.870891630649566650e-01 -9.105859398841857910e-01 -1.175368309020996094e+00
3.345000000000000000e+03 2.503795242309570312e+01 6.901391744613647461e-01 -1.361420035362243652e+00 -1.258125752210617065e-01 -4.461697936058044434e-01 -5.495665073394775391e-01
3.346000000000000000e+03 7.349671173095703125e+01 3.145938491821289062e+01 -1.879569053649902344e+00 1.414887046813964844e+01 3.680790424346923828e+00 3.913256645202636719e+00
3.347000000000000000e+03 7.445111083984375000e+01 2.951385116577148438e+01 -2.079245328903198242e+00 1.230727100372314453e+01 3.068407535552978516e+00 1.314057826995849609e+00
3.348000000000000000e+03 7.397931671142578125e+01 3.149853897094726562e+01 -2.068832397460937500e+00 1.601966476440429688e+01 4.185249805450439453e+00 2.386290550231933594e+00
3.349000000000000000e+03 7.556110382080078125e+01 2.913621520996093750e+01 -1.712617516517639160e+00 1.220710277557373047e+01 3.148345708847045898e+00 -8.206009119749069214e-02
3.350000000000000000e+03 3.076341056823730469e+01 5.238147258758544922e+00 -1.767345786094665527e+00 -9.463955760002136230e-01 -8.141223788261413574e-01 -9.293604493141174316e-01
3.351000000000000000e+03 2.357615661621093750e+01 9.521340727806091309e-01 -2.048111200332641602e+00 -2.788314782083034515e-02 -6.227983236312866211e-01 -1.096141815185546875e+00
3.352000000000000000e+03 7.148722076416015625e+01 3.101744270324707031e+01 -2.207225263118743896e-01 4.749079227447509766e+00 1.358506917953491211e+00 3.797503709793090820e+00
3.353000000000000000e+03 1.871972274780273438e+01 1.206685829162597656e+01 1.024385914206504822e-01 1.867307722568511963e-01 8.675081282854080200e-02 1.383275538682937622e-01
3.354000000000000000e+03 1.890325355529785156e+01 1.170724201202392578e+01 1.128500625491142273e-01 1.875728666782379150e-01 9.012687951326370239e-02 1.460328698158264160e-01
3.355000000000000000e+03 4.076597213745117188e+01 1.899949645996093750e+01 -1.138777375221252441e+00 -1.244668722152709961e+00 -7.150338292121887207e-01 -1.313998818397521973e+00
3.356000000000000000e+03 4.093573379516601562e+01 1.935171318054199219e+01 -1.145492553710937500e+00 -1.253333687782287598e+00 -7.196478843688964844e-01 -1.322330832481384277e+00
3.357000000000000000e+03 4.189027023315429688e+01 2.061947631835937500e+01 -1.208165764808654785e+00 -1.285127162933349609e+00 -7.479878664016723633e-01 -1.312671184539794922e+00
3.358000000000000000e+03 1.563170909881591797e+01 8.680190086364746094e+00 1.083367019891738892e-01 2.957514524459838867e-01 1.212264448404312134e-01 1.604254841804504395e-01
3.359000000000000000e+03 3.406722640991210938e+01 1.121073913574218750e+01 -1.256052017211914062e+00 -1.341045618057250977e+00 -7.791293263435363770e-01 -1.237243890762329102e+00
3.360000000000000000e+03 3.259039306640625000e+01 2.580215454101562500e+01 5.698065832257270813e-02 8.780042082071304321e-02 4.343432560563087463e-02 7.208008319139480591e-02
3.361000000000000000e+03 3.414105224609375000e+01 2.729675674438476562e+01 5.726241692900657654e-02 8.577567338943481445e-02 4.291142895817756653e-02 6.922069936990737915e-02
3.362000000000000000e+03 4.061540985107421875e+01 1.859179115295410156e+01 -1.133197665214538574e+00 -1.231141924858093262e+00 -7.093018889427185059e-01 -1.296565413475036621e+00
3.363000000000000000e+03 7.457803344726562500e+01 3.138706207275390625e+01 -1.900200605392456055e+00 1.636682701110839844e+01 4.339987754821777344e+00 5.447171330451965332e-01
3.364000000000000000e+03 2.451943206787109375e+01 1.799829483032226562e+00 -2.737257957458496094e+00 -3.260612487792968750e-01 -9.189957380294799805e-01 -1.088170289993286133e+00
3.365000000000000000e+03 4.781568527221679688e+01 2.525749015808105469e+01 -1.314707517623901367e+00 -9.697561264038085938e-01 -6.853390932083129883e-01 -1.209873676300048828e+00
3.366000000000000000e+03 2.357099914550781250e+01 1.616134834289550781e+01 9.500826895236968994e-02 1.355964839458465576e-01 6.918142735958099365e-02 1.156142652034759521e-01
3.367000000000000000e+03 1.797961997985839844e+01 1.062105751037597656e+01 1.171386688947677612e-01 2.121431231498718262e-01 9.878453612327575684e-02 1.539955735206604004e-01
3.368000000000000000e+03 4.251121902465820312e+01 2.089879608154296875e+01 -1.219323873519897461e+00 -1.263028860092163086e+00 -7.447057962417602539e-01 -1.289676308631896973e+00
3.369000000000000000e+03 2.331410980224609375e+01 1.588965034484863281e+01 9.638579934835433960e-02 1.389359384775161743e-01 7.059652358293533325e-02 1.165572181344032288e-01
3.370000000000000000e+03 3.555271530151367188e+01 2.821397018432617188e+01 6.116868555545806885e-02 8.292348682880401611e-02 4.322765022516250610e-02 6.766713410615921021e-02
3.371000000000000000e+03 1.961296653747558594e+01 1.223123550415039062e+01 1.125879883766174316e-01 1.761126071214675903e-01 8.661017566919326782e-02 1.418745219707489014e-01
3.372000000000000000e+03 4.805641555786132812e+01 2.556519317626953125e+01 -1.317200064659118652e+00 -9.595329165458679199e-01 -6.830198764801025391e-01 -1.208442687988281250e+00
3.373000000000000000e+03 2.038733482360839844e+01 1.336642932891845703e+01 1.053554192185401917e-01 1.654702275991439819e-01 8.124769479036331177e-02 1.305652409791946411e-01
3.374000000000000000e+03 3.913392257690429688e+01 1.725554275512695312e+01 -1.189057707786560059e+00 -1.328451395034790039e+00 -7.552527189254760742e-01 -1.272791028022766113e+00
3.375000000000000000e+03 4.051818084716796875e+01 1.814724349975585938e+01 -1.119544625282287598e+00 -1.215028882026672363e+00 -7.003720402717590332e-01 -1.270038723945617676e+00
3.376000000000000000e+03 4.709756851196289062e+01 2.445360183715820312e+01 -1.311342835426330566e+00 -1.002259969711303711e+00 -6.940808296203613281e-01 -1.205954670906066895e+00
3.377000000000000000e+03 2.930615425109863281e+01 4.344959735870361328e+00 -2.028846025466918945e+00 -1.085770726203918457e+00 -9.343850612640380859e-01 -8.663384318351745605e-01
3.378000000000000000e+03 2.400101852416992188e+01 1.738591384887695312e+01 8.492460846900939941e-02 1.288634836673736572e-01 6.413642317056655884e-02 1.061813086271286011e-01
3.379000000000000000e+03 4.414408874511718750e+01 2.217037582397460938e+01 -1.279742598533630371e+00 -1.224592924118041992e+00 -7.513006925582885742e-01 -1.268280029296875000e+00
3.380000000000000000e+03 3.370567321777343750e+01 1.121281719207763672e+01 -1.286007165908813477e+00 -1.366495490074157715e+00 -7.957507371902465820e-01 -1.262380242347717285e+00
3.381000000000000000e+03 2.894371414184570312e+01 2.136660385131835938e+01 7.162592560052871704e-02 1.000445857644081116e-01 5.150115489959716797e-02 8.659829199314117432e-02
3.382000000000000000e+03 3.648867416381835938e+01 1.416022777557373047e+01 -1.204439163208007812e+00 -1.403629422187805176e+00 -7.824205756187438965e-01 -1.274311065673828125e+00
3.383000000000000000e+03 3.570281982421875000e+01 1.386641025543212891e+01 -1.262207031250000000e+00 -1.444499135017395020e+00 -8.120118379592895508e-01 -1.317832469940185547e+00
3.384000000000000000e+03 4.855693817138671875e+01 2.669265556335449219e+01 -1.360062599182128906e+00 -9.894483089447021484e-01 -7.048532366752624512e-01 -1.219191908836364746e+00
3.385000000000000000e+03 2.850160598754882812e+01 2.166636657714843750e+01 6.676498055458068848e-02 1.022741943597793579e-01 5.071175470948219299e-02 8.561889082193374634e-02
3.386000000000000000e+03 3.489175033569335938e+01 1.308903408050537109e+01 -1.286739230155944824e+00 -1.455675959587097168e+00 -8.227245211601257324e-01 -1.320652484893798828e+00
3.387000000000000000e+03 3.565857315063476562e+01 1.330348873138427734e+01 -1.234156131744384766e+00 -1.398779034614562988e+00 -7.898805141448974609e-01 -1.269577622413635254e+00
3.388000000000000000e+03 1.597539901733398438e+01 9.196826934814453125e+00 1.080895736813545227e-01 2.739448547363281250e-01 1.146103218197822571e-01 1.564943194389343262e-01
3.389000000000000000e+03 3.400300979614257812e+01 1.183713912963867188e+01 -1.289639711380004883e+00 -1.404922008514404297e+00 -8.083685040473937988e-01 -1.295755982398986816e+00
3.390000000000000000e+03 3.464291381835937500e+01 1.290314102172851562e+01 -1.295487761497497559e+00 -1.458614826202392578e+00 -8.262307643890380859e-01 -1.322483420372009277e+00
3.391000000000000000e+03 7.515890502929687500e+01 3.154801750183105469e+01 -1.061919093132019043e+00 1.609659385681152344e+01 4.510402202606201172e+00 -1.169061541557312012e+00
3.392000000000000000e+03 7.553146362304687500e+01 3.199913024902343750e+01 2.465796917676925659e-01 1.591107940673828125e+01 4.847297668457031250e+00 -2.126550674438476562e+00
3.393000000000000000e+03 4.362366485595703125e+01 2.162062263488769531e+01 -1.247937798500061035e+00 -1.225691080093383789e+00 -7.420886754989624023e-01 -1.265609383583068848e+00
3.394000000000000000e+03 4.000549697875976562e+01 1.768583679199218750e+01 -1.143289685249328613e+00 -1.243073105812072754e+00 -7.159088253974914551e-01 -1.262804508209228516e+00
3.395000000000000000e+03 4.837306213378906250e+01 2.532322502136230469e+01 -1.281559824943542480e+00 -8.848924636840820312e-01 -6.499357223510742188e-01 -1.162042975425720215e+00
3.396000000000000000e+03 3.338471221923828125e+01 2.649566078186035156e+01 5.692065879702568054e-02 8.723128587007522583e-02 4.324558377265930176e-02 7.027651369571685791e-02
3.397000000000000000e+03 2.809102249145507812e+01 2.091096878051757812e+01 7.236154377460479736e-02 1.045658588409423828e-01 5.307821929454803467e-02 8.926569670438766479e-02
3.398000000000000000e+03 2.842023849487304688e+01 2.065745925903320312e+01 7.653801143169403076e-02 1.028408184647560120e-01 5.381364747881889343e-02 9.036584198474884033e-02
3.399000000000000000e+03 3.362088012695312500e+01 2.649554252624511719e+01 5.772968381643295288e-02 8.659742772579193115e-02 4.329813271760940552e-02 7.043721526861190796e-02
3.400000000000000000e+03 3.382529067993164062e+01 2.685472297668457031e+01 5.719794705510139465e-02 8.646541833877563477e-02 4.309901222586631775e-02 6.982808560132980347e-02
3.401000000000000000e+03 2.754117202758789062e+01 2.084534454345703125e+01 7.029137760400772095e-02 1.073102355003356934e-01 5.328048393130302429e-02 8.905845880508422852e-02
3.402000000000000000e+03 4.441091918945312500e+01 2.243428230285644531e+01 -1.292373895645141602e+00 -1.221911668777465820e+00 -7.542856931686401367e-01 -1.266346335411071777e+00
3.403000000000000000e+03 2.728141784667968750e+01 2.056951141357421875e+01 7.123728096485137939e-02 1.091503798961639404e-01 5.411629751324653625e-02 8.996820449829101562e-02
3.404000000000000000e+03 5.076450347900390625e+01 2.853777313232421875e+01 -1.380606293678283691e+00 -6.996955275535583496e-01 -6.240905523300170898e-01 -1.074579119682312012e+00
3.405000000000000000e+03 5.055884170532226562e+01 2.882135009765625000e+01 -1.392523646354675293e+00 -7.732201814651489258e-01 -6.497231721878051758e-01 -1.100154042243957520e+00
3.406000000000000000e+03 2.687508583068847656e+01 1.948002052307128906e+01 8.068339526653289795e-02 1.130084991455078125e-01 5.810756981372833252e-02 9.571281075477600098e-02
3.407000000000000000e+03 2.544214439392089844e+01 1.839776802062988281e+01 8.452975004911422729e-02 1.204910427331924438e-01 6.150623783469200134e-02 1.004096493124961853e-01
3.408000000000000000e+03 4.278812789916992188e+01 2.123642921447753906e+01 -1.253446221351623535e+00 -1.263028502464294434e+00 -7.549424171447753906e-01 -1.292549729347229004e+00
3.409000000000000000e+03 4.859651947021484375e+01 2.614858436584472656e+01 -1.319201827049255371e+00 -9.255610108375549316e-01 -6.734288334846496582e-01 -1.187563538551330566e+00
3.410000000000000000e+03 3.675369262695312500e+01 1.445024204254150391e+01 -1.197889804840087891e+00 -1.407935976982116699e+00 -7.817476987838745117e-01 -1.273050189018249512e+00
3.411000000000000000e+03 3.056119918823242188e+01 2.310122871398925781e+01 6.235328689217567444e-02 9.280583262443542480e-02 4.654773697257041931e-02 8.140716701745986938e-02
3.412000000000000000e+03 3.184151840209960938e+01 2.556950950622558594e+01 5.579463392496109009e-02 8.902194350957870483e-02 4.344497621059417725e-02 7.309190183877944946e-02
3.413000000000000000e+03 3.212660980224609375e+01 2.517197418212890625e+01 5.765882134437561035e-02 8.838377892971038818e-02 4.381277784705162048e-02 7.377585023641586304e-02
3.414000000000000000e+03 4.583956527709960938e+01 2.417709541320800781e+01 -1.397349715232849121e+00 -1.179846405982971191e+00 -7.731588482856750488e-01 -1.279127001762390137e+00
3.415000000000000000e+03 4.636407470703125000e+01 2.411555862426757812e+01 -1.344137191772460938e+00 -1.090772867202758789e+00 -7.304730415344238281e-01 -1.234238862991333008e+00
3.416000000000000000e+03 3.238040161132812500e+01 9.650259017944335938e+00 -1.300474643707275391e+00 -1.341527819633483887e+00 -7.926007509231567383e-01 -1.224341392517089844e+00
3.417000000000000000e+03 3.538343429565429688e+01 1.302832126617431641e+01 -1.239206552505493164e+00 -1.396445512771606445e+00 -7.906956672668457031e-01 -1.271461963653564453e+00
3.418000000000000000e+03 2.505787086486816406e+01 1.825196456909179688e+01 8.338741958141326904e-02 1.223848462104797363e-01 6.173168122768402100e-02 1.008129641413688660e-01
3.419000000000000000e+03 2.391615295410156250e+01 1.804851913452148438e+01 7.714239507913589478e-02 1.278776228427886963e-01 6.150600686669349670e-02 1.005841493606567383e-01
3.420000000000000000e+03 1.562322902679443359e+01 7.965564727783203125e+00 1.241533532738685608e-01 3.222255408763885498e-01 1.339136660099029541e-01 1.814408600330352783e-01
3.421000000000000000e+03 1.524584770202636719e+01 7.692134857177734375e+00 1.198354810476303101e-01 3.468686938285827637e-01 1.400112509727478027e-01 1.773290336132049561e-01
3.422000000000000000e+03 2.908434867858886719e+01 2.211800765991210938e+01 6.518406420946121216e-02 9.981545060873031616e-02 4.949985444545745850e-02 8.385459333658218384e-02
3.423000000000000000e+03 3.701388931274414062e+01 1.474202060699462891e+01 -1.189952731132507324e+00 -1.406762123107910156e+00 -7.790144681930541992e-01 -1.273098826408386230e+00
3.424000000000000000e+03 2.637264442443847656e+01 1.948467445373535156e+01 7.758522033691406250e-02 1.153534352779388428e-01 5.788159742951393127e-02 9.484967589378356934e-02
3.425000000000000000e+03 3.727617645263671875e+01 1.503298282623291016e+01 -1.186818361282348633e+00 -1.406194806098937988e+00 -7.779039740562438965e-01 -1.267569303512573242e+00
3.426000000000000000e+03 2.197841453552246094e+01 1.453382587432861328e+01 1.060942634940147400e-01 1.509411185979843140e-01 7.711061090230941772e-02 1.233113631606101990e-01
3.427000000000000000e+03 2.090127563476562500e+01 1.404926872253417969e+01 1.017671674489974976e-01 1.582140773534774780e-01 7.799437642097473145e-02 1.249611750245094299e-01
3.428000000000000000e+03 4.927326202392578125e+01 2.807401084899902344e+01 -1.418825984001159668e+00 -9.994990229606628418e-01 -7.254974842071533203e-01 -1.208270549774169922e+00
3.429000000000000000e+03 5.238811492919921875e+01 2.908098793029785156e+01 -1.384886622428894043e+00 -3.254362642765045166e-01 -5.130968689918518066e-01 -9.720231890678405762e-01
3.430000000000000000e+03 3.754408264160156250e+01 1.531874847412109375e+01 -1.181824088096618652e+00 -1.401837110519409180e+00 -7.750983834266662598e-01 -1.264029502868652344e+00
3.431000000000000000e+03 3.878856658935546875e+01 1.698279190063476562e+01 -1.196896791458129883e+00 -1.361321687698364258e+00 -7.674655318260192871e-01 -1.273735404014587402e+00
3.432000000000000000e+03 4.337157440185546875e+01 2.132908248901367188e+01 -1.227178096771240234e+00 -1.224687933921813965e+00 -7.355598211288452148e-01 -1.262220144271850586e+00
3.433000000000000000e+03 4.468094635009765625e+01 2.269237518310546875e+01 -1.304924368858337402e+00 -1.216521978378295898e+00 -7.564339041709899902e-01 -1.261572003364562988e+00
3.434000000000000000e+03 2.251854133605957031e+01 1.507785129547119141e+01 1.019036397337913513e-01 1.468118727207183838e-01 7.461465895175933838e-02 1.199874430894851685e-01
3.435000000000000000e+03 3.781885147094726562e+01 1.559701538085937500e+01 -1.180093765258789062e+00 -1.394261002540588379e+00 -7.723064422607421875e-01 -1.256633758544921875e+00
3.436000000000000000e+03 5.001812362670898438e+01 2.834203529357910156e+01 -1.398318409919738770e+00 -8.569827675819396973e-01 -6.765903830528259277e-01 -1.139468193054199219e+00
3.437000000000000000e+03 5.149860000610351562e+01 2.954854583740234375e+01 -1.372402310371398926e+00 -5.833652615547180176e-01 -5.867303013801574707e-01 -1.019915103912353516e+00
3.438000000000000000e+03 3.569749450683593750e+01 2.921382904052734375e+01 5.919392034411430359e-02 8.182683587074279785e-02 4.230622574687004089e-02 6.453476101160049438e-02
3.439000000000000000e+03 3.449571228027343750e+01 2.822430992126464844e+01 5.714582279324531555e-02 8.415035903453826904e-02 4.238885641098022461e-02 6.643494963645935059e-02
3.440000000000000000e+03 2.478720092773437500e+01 1.769822502136230469e+01 8.843650668859481812e-02 1.240500584244728088e-01 6.374596804380416870e-02 1.048840358853340149e-01
3.441000000000000000e+03 5.386295700073242188e+01 3.052255630493164062e+01 -1.423002123832702637e+00 -1.998483948409557343e-02 -4.328960776329040527e-01 -9.017782807350158691e-01
3.442000000000000000e+03 4.912934875488281250e+01 2.673830032348632812e+01 -1.338238596916198730e+00 -8.918805718421936035e-01 -6.690357327461242676e-01 -1.165721893310546875e+00
3.443000000000000000e+03 4.928158569335937500e+01 2.756513023376464844e+01 -1.385065555572509766e+00 -9.413601160049438477e-01 -6.979277133941650391e-01 -1.183480262756347656e+00
3.444000000000000000e+03 4.951956939697265625e+01 2.783886528015136719e+01 -1.392930150032043457e+00 -9.181002378463745117e-01 -6.933091282844543457e-01 -1.170037508010864258e+00
3.445000000000000000e+03 2.640033149719238281e+01 1.898225593566894531e+01 8.362421393394470215e-02 1.161200925707817078e-01 5.992329120635986328e-02 9.775636345148086548e-02
3.446000000000000000e+03 3.846971511840820312e+01 1.671010780334472656e+01 -1.203211545944213867e+00 -1.392532825469970703e+00 -7.787232995033264160e-01 -1.275362849235534668e+00
3.447000000000000000e+03 5.134275054931640625e+01 2.900144386291503906e+01 -1.380719661712646484e+00 -5.869383811950683594e-01 -5.902974009513854980e-01 -1.034521579742431641e+00
3.448000000000000000e+03 1.742700386047363281e+01 1.035192108154296875e+01 1.138930842280387878e-01 2.238042801618576050e-01 1.013092100620269775e-01 1.523278206586837769e-01
3.449000000000000000e+03 1.923431587219238281e+01 1.209390640258789062e+01 1.093270182609558105e-01 1.826608926057815552e-01 8.759637176990509033e-02 1.420971900224685669e-01
3.450000000000000000e+03 3.397599029541015625e+01 1.155472278594970703e+01 -1.273306012153625488e+00 -1.385689139366149902e+00 -7.976985573768615723e-01 -1.274582624435424805e+00
3.451000000000000000e+03 4.553957366943359375e+01 2.393880653381347656e+01 -1.397105932235717773e+00 -1.209439039230346680e+00 -7.819635272026062012e-01 -1.282496690750122070e+00
3.452000000000000000e+03 2.611807823181152344e+01 1.876613426208496094e+01 8.447936177253723145e-02 1.175727695226669312e-01 6.061564013361930847e-02 9.893230348825454712e-02
3.453000000000000000e+03 2.224976348876953125e+01 1.480557727813720703e+01 1.042446419596672058e-01 1.493904441595077515e-01 7.609052211046218872e-02 1.211614236235618591e-01
3.454000000000000000e+03 2.171234893798828125e+01 1.478657722473144531e+01 9.936073422431945801e-02 1.519272029399871826e-01 7.538638263940811157e-02 1.196366846561431885e-01
3.455000000000000000e+03 3.617926788330078125e+01 1.328337001800537109e+01 -1.189817547798156738e+00 -1.354358911514282227e+00 -7.632529139518737793e-01 -1.224665045738220215e+00
3.456000000000000000e+03 4.388147354125976562e+01 2.189986038208007812e+01 -1.265130877494812012e+00 -1.225012540817260742e+00 -7.470430135726928711e-01 -1.268361091613769531e+00
3.457000000000000000e+03 3.810141372680664062e+01 1.586841201782226562e+01 -1.176452040672302246e+00 -1.380359172821044922e+00 -7.670433521270751953e-01 -1.252062559127807617e+00
3.458000000000000000e+03 2.579858016967773438e+01 1.857143402099609375e+01 8.500888198614120483e-02 1.190528646111488342e-01 6.121852621436119080e-02 9.955818206071853638e-02
3.459000000000000000e+03 1.852539062500000000e+01 1.131524848937988281e+01 1.119464859366416931e-01 1.963497847318649292e-01 9.248887747526168823e-02 1.490169465541839600e-01
3.460000000000000000e+03 1.708203697204589844e+01 1.024748992919921875e+01 1.078052297234535217e-01 2.306267023086547852e-01 1.015295758843421936e-01 1.507843583822250366e-01
3.461000000000000000e+03 3.345561218261718750e+01 1.061793136596679688e+01 -1.271091103553771973e+00 -1.336100816726684570e+00 -7.821575999259948730e-01 -1.230963706970214844e+00
3.462000000000000000e+03 3.342840576171875000e+01 1.112044525146484375e+01 -1.306738257408142090e+00 -1.369848370552062988e+00 -8.029759526252746582e-01 -1.277814865112304688e+00
3.463000000000000000e+03 3.337800598144531250e+01 2.623465728759765625e+01 5.772030726075172424e-02 8.693075180053710938e-02 4.339531809091567993e-02 7.098270207643508911e-02
3.464000000000000000e+03 2.352243995666503906e+01 1.665598678588867188e+01 8.896091580390930176e-02 1.340389102697372437e-01 6.689994782209396362e-02 1.110647693276405334e-01
3.465000000000000000e+03 4.011174774169921875e+01 1.721855354309082031e+01 -1.115653514862060547e+00 -1.206863999366760254e+00 -6.967552304267883301e-01 -1.221758842468261719e+00
3.466000000000000000e+03 3.359083557128906250e+01 2.751556968688964844e+01 5.508659780025482178e-02 8.626569062471389771e-02 4.240568727254867554e-02 6.778752058744430542e-02
3.467000000000000000e+03 3.839279174804687500e+01 1.613440704345703125e+01 -1.174700975418090820e+00 -1.362371444702148438e+00 -7.611216902732849121e-01 -1.245397329330444336e+00
3.468000000000000000e+03 3.869483184814453125e+01 1.639532089233398438e+01 -1.170934438705444336e+00 -1.338162899017333984e+00 -7.527292370796203613e-01 -1.242414951324462891e+00
3.469000000000000000e+03 4.211044692993164062e+01 2.010188674926757812e+01 -1.143372297286987305e+00 -1.238607287406921387e+00 -7.145938873291015625e-01 -1.279978632926940918e+00
3.470000000000000000e+03 4.269808578491210938e+01 2.034148406982421875e+01 -1.142601966857910156e+00 -1.212810635566711426e+00 -7.066237926483154297e-01 -1.251211881637573242e+00
3.471000000000000000e+03 1.989115524291992188e+01 1.272698974609375000e+01 1.091617569327354431e-01 1.707876324653625488e-01 8.398481458425521851e-02 1.360609829425811768e-01
3.472000000000000000e+03 3.068143653869628906e+01 2.410319519042968750e+01 5.768590420484542847e-02 9.210878610610961914e-02 4.493840783834457397e-02 7.823815196752548218e-02
3.473000000000000000e+03 4.495262527465820312e+01 2.294592666625976562e+01 -1.316627383232116699e+00 -1.206731557846069336e+00 -7.570077180862426758e-01 -1.256031632423400879e+00
3.474000000000000000e+03 3.444366455078125000e+01 2.897776603698730469e+01 5.564557388424873352e-02 8.329194039106369019e-02 4.168125241994857788e-02 6.366375833749771118e-02
3.475000000000000000e+03 2.118477821350097656e+01 1.427440929412841797e+01 1.019737124443054199e-01 1.564350724220275879e-01 7.752263545989990234e-02 1.232959255576133728e-01
3.476000000000000000e+03 4.653834152221679688e+01 2.383216857910156250e+01 -1.299816370010375977e+00 -1.044786810874938965e+00 -7.033810019493103027e-01 -1.197775602340698242e+00
3.477000000000000000e+03 5.301623153686523438e+01 3.114742088317871094e+01 -1.314273595809936523e+00 -2.291472554206848145e-01 -4.630262553691864014e-01 -8.673439025878906250e-01
3.478000000000000000e+03 2.302548599243164062e+01 1.612957382202148438e+01 9.084565937519073486e-02 1.395361274480819702e-01 6.911453604698181152e-02 1.136299148201942444e-01
3.479000000000000000e+03 2.249997329711914062e+01 1.559989452362060547e+01 9.373071044683456421e-02 1.449012011289596558e-01 7.158957421779632568e-02 1.155889406800270081e-01
3.480000000000000000e+03 5.280659866333007812e+01 3.010737991333007812e+01 -1.387594461441040039e+00 -2.541179060935974121e-01 -4.925137162208557129e-01 -9.309751391410827637e-01
3.481000000000000000e+03 4.522450637817382812e+01 2.319544219970703125e+01 -1.328896760940551758e+00 -1.192691564559936523e+00 -7.564765214920043945e-01 -1.250389695167541504e+00
3.482000000000000000e+03 4.549632644653320312e+01 2.344014930725097656e+01 -1.339188694953918457e+00 -1.173823475837707520e+00 -7.539036273956298828e-01 -1.245548248291015625e+00
3.483000000000000000e+03 1.643837165832519531e+01 9.614265441894531250e+00 1.111999750137329102e-01 2.530640959739685059e-01 1.092792227864265442e-01 1.554807424545288086e-01
3.484000000000000000e+03 3.485828018188476562e+01 2.856813430786132812e+01 5.774049833416938782e-02 8.334930986166000366e-02 4.232694208621978760e-02 6.569666415452957153e-02
3.485000000000000000e+03 2.996763420104980469e+01 4.779456615447998047e+00 -1.975045204162597656e+00 -1.043981552124023438e+00 -9.057080149650573730e-01 -8.850789070129394531e-01
3.486000000000000000e+03 5.438162994384765625e+01 3.144551849365234375e+01 -1.394399166107177734e+00 4.398906230926513672e-02 -4.051230251789093018e-01 -8.400256633758544922e-01
3.487000000000000000e+03 1.767773246765136719e+01 1.072036933898925781e+01 1.098334044218063354e-01 2.147668600082397461e-01 9.738007932901382446e-02 1.490851640701293945e-01
3.488000000000000000e+03 1.732832527160644531e+01 1.069948863983154297e+01 1.043985560536384583e-01 2.198705971240997314e-01 9.728074818849563599e-02 1.454709321260452271e-01
3.489000000000000000e+03 1.688448905944824219e+01 9.979206085205078125e+00 1.125924214720726013e-01 2.371311634778976440e-01 1.049170717597007751e-01 1.527593284845352173e-01
3.490000000000000000e+03 1.528447151184082031e+01 8.018049240112304688e+00 1.131851896643638611e-01 3.332126140594482422e-01 1.339193433523178101e-01 1.692519783973693848e-01
3.491000000000000000e+03 1.490461730957031250e+01 7.735012531280517578e+00 1.071385741233825684e-01 3.608510792255401611e-01 1.403969079256057739e-01 1.627237349748611450e-01
3.492000000000000000e+03 1.452762985229492188e+01 7.418152809143066406e+00 1.006167903542518616e-01 3.943749070167541504e-01 1.484975069761276245e-01 1.522277444601058960e-01
3.493000000000000000e+03 1.415834236145019531e+01 7.056874752044677734e+00 9.398739039897918701e-02 4.363014101982116699e-01 1.590866446495056152e-01 1.386508792638778687e-01
3.494000000000000000e+03 1.340974903106689453e+01 6.334976196289062500e+00 8.375500887632369995e-02 5.404243469238281250e-01 1.872538030147552490e-01 6.552551686763763428e-02
3.495000000000000000e+03 1.454474067687988281e+01 7.794694900512695312e+00 9.572315216064453125e-02 3.704254329204559326e-01 1.398445665836334229e-01 1.378712356090545654e-01
3.496000000000000000e+03 7.081620788574218750e+01 3.060214805603027344e+01 -3.211109340190887451e-01 3.450743675231933594e+00 9.388898611068725586e-01 2.994158983230590820e+00
3.497000000000000000e+03 3.271596527099609375e+01 6.034964084625244141e+00 -1.289355039596557617e+00 -9.226612448692321777e-01 -6.636048555374145508e-01 -8.757396936416625977e-01
3.498000000000000000e+03 2.977345085144042969e+01 2.365948486328125000e+01 5.699294060468673706e-02 9.647302329540252686e-02 4.603978991508483887e-02 7.945161312818527222e-02
3.499000000000000000e+03 3.034976196289062500e+01 2.276009368896484375e+01 6.391596794128417969e-02 9.374353289604187012e-02 4.729785025119781494e-02 8.206864446401596069e-02
3.500000000000000000e+03 3.236485290527343750e+01 7.021459102630615234e+00 -1.308321118354797363e+00 -1.079969882965087891e+00 -7.164873480796813965e-01 -1.079726219177246094e+00
3.501000000000000000e+03 1.280271434783935547e+01 4.919783115386962891e+00 1.755811572074890137e-01 7.386447191238403320e-01 2.742677628993988037e-01 -1.360587328672409058e-01
3.502000000000000000e+03 3.039753341674804688e+01 4.778942584991455078e+00 -1.809861183166503906e+00 -9.448214769363403320e-01 -8.264048099517822266e-01 -8.216574192047119141e-01
3.503000000000000000e+03 7.469853210449218750e+01 2.894654655456542969e+01 -1.878473997116088867e+00 1.170429039001464844e+01 2.947745084762573242e+00 9.587711691856384277e-01
3.504000000000000000e+03 7.612434387207031250e+01 2.932541275024414062e+01 -1.466076374053955078e+00 1.225542449951171875e+01 3.236804246902465820e+00 -7.154791951179504395e-01
3.505000000000000000e+03 3.124527359008789062e+01 5.244914531707763672e+00 -1.652828216552734375e+00 -9.094900488853454590e-01 -7.686954736709594727e-01 -8.740303516387939453e-01
3.506000000000000000e+03 3.223094558715820312e+01 5.642693519592285156e+00 -1.392669200897216797e+00 -8.923909068107604980e-01 -6.855180263519287109e-01 -8.621760010719299316e-01
3.507000000000000000e+03 3.070483398437500000e+01 2.452595329284667969e+01 5.599891766905784607e-02 9.198809415102005005e-02 4.439610615372657776e-02 7.665117830038070679e-02
3.508000000000000000e+03 3.271189880371093750e+01 7.965837001800537109e+00 -1.234606027603149414e+00 -1.171950697898864746e+00 -7.219669818878173828e-01 -1.108842253684997559e+00
3.509000000000000000e+03 4.078895187377929688e+01 3.405007934570312500e+01 7.472795993089675903e-02 5.844889953732490540e-02 3.995305672287940979e-02 5.792342871427536011e-02
3.510000000000000000e+03 2.375283050537109375e+01 2.835620939731597900e-02 -5.866755247116088867e-01 3.765245676040649414e-01 -6.304529309272766113e-02 -7.664081454277038574e-01
3.511000000000000000e+03 3.693081665039062500e+01 3.082096099853515625e+01 5.945717543363571167e-02 7.656489312648773193e-02 4.080662131309509277e-02 6.220696121454238892e-02
3.512000000000000000e+03 3.550862121582031250e+01 2.965762710571289062e+01 5.768631026148796082e-02 8.112766593694686890e-02 4.164419323205947876e-02 6.280183047056198120e-02
3.513000000000000000e+03 6.898559570312500000e+01 2.921884727478027344e+01 -3.384173512458801270e-01 2.159072399139404297e+00 5.461965203285217285e-01 1.678384900093078613e+00
3.514000000000000000e+03 3.786275482177734375e+01 3.131093406677246094e+01 6.210827827453613281e-02 7.220301032066345215e-02 4.029338806867599487e-02 6.187258288264274597e-02
3.515000000000000000e+03 2.518616867065429688e+01 -6.513218283653259277e-01 3.878247737884521484e-01 1.048316732048988342e-01 1.477969288825988770e-01 -3.584175705909729004e-01
3.516000000000000000e+03 2.501936149597167969e+01 8.751994371414184570e-02 -6.371444463729858398e-01 2.394821494817733765e-02 -1.839588731527328491e-01 -4.654934704303741455e-01
3.517000000000000000e+03 6.732071685791015625e+01 2.789312171936035156e+01 -2.501451969146728516e-01 1.690160393714904785e+00 4.320045709609985352e-01 9.721819758415222168e-01
3.518000000000000000e+03 6.806719207763671875e+01 2.759552001953125000e+01 -1.049526259303092957e-01 2.332545757293701172e+00 6.682779788970947266e-01 1.339759349822998047e+00
3.519000000000000000e+03 6.958767700195312500e+01 2.932399940490722656e+01 -3.044857680797576904e-01 2.745944023132324219e+00 7.324374914169311523e-01 2.072514295578002930e+00
3.520000000000000000e+03 3.251302337646484375e+01 7.489619731903076172e+00 -1.256693959236145020e+00 -1.145808339118957520e+00 -7.207506895065307617e-01 -1.096708416938781738e+00
3.521000000000000000e+03 7.507630920410156250e+01 2.652822685241699219e+01 -1.074935913085937500e+00 9.952260971069335938e+00 2.663197517395019531e+00 8.060967326164245605e-01
3.522000000000000000e+03 5.367573738098144531e+00 7.657275676727294922e+00 8.134664595127105713e-02 -1.244414299726486206e-01 -1.292843557894229889e-02 5.877129733562469482e-02
3.523000000000000000e+03 2.748791885375976562e+01 -6.029485464096069336e-01 -7.127245515584945679e-02 -3.921120762825012207e-01 -1.390153616666793823e-01 -1.869168579578399658e-01
3.524000000000000000e+03 2.689206314086914062e+01 -1.214936852455139160e+00 3.339928984642028809e-01 -2.200278043746948242e-01 3.418952599167823792e-02 -2.810788452625274658e-01
3.525000000000000000e+03 6.851089954376220703e+00 5.018413543701171875e+00 1.108441725373268127e-01 -1.577620804309844971e-01 -1.407537050545215607e-02 1.350510120391845703e-01
3.526000000000000000e+03 4.265740871429443359e+00 6.820144176483154297e+00 5.358284339308738708e-02 -1.355335116386413574e-01 -2.458520047366619110e-02 8.203988522291183472e-02
3.527000000000000000e+03 3.013081169128417969e+01 2.333931350708007812e+01 5.931351706385612488e-02 9.493601322174072266e-02 4.627485945820808411e-02 8.045759052038192749e-02
3.528000000000000000e+03 5.275993347167968750e+01 2.940687942504882812e+01 -1.395319461822509766e+00 -2.489725649356842041e-01 -4.932876229286193848e-01 -9.537103772163391113e-01
3.529000000000000000e+03 5.488656997680664062e+01 3.047148513793945312e+01 -1.476211547851562500e+00 1.260487735271453857e-01 -4.050488471984863281e-01 -9.018744230270385742e-01
3.530000000000000000e+03 3.108695411682128906e+01 -2.933760881423950195e+00 5.740554332733154297e-01 -5.832470655441284180e-01 -2.757488982751965523e-03 -4.008905962109565735e-02
3.531000000000000000e+03 7.393878173828125000e+01 3.024075317382812500e+01 -2.142607688903808594e+00 1.270218276977539062e+01 3.167872428894042969e+00 2.230651855468750000e+00
3.532000000000000000e+03 6.450651645660400391e+00 6.545249462127685547e+00 1.131467893719673157e-01 -1.271844655275344849e-01 -4.211300984025001526e-03 7.568531483411788940e-02
3.533000000000000000e+03 2.543684768676757812e+01 -2.189830094575881958e-01 -3.565049171447753906e-01 9.165639989078044891e-03 -1.042017862200737000e-01 -3.210464715957641602e-01
3.534000000000000000e+03 3.556629943847656250e+01 3.141206932067871094e+01 5.514807999134063721e-02 7.884320616722106934e-02 4.019738733768463135e-02 5.795209854841232300e-02
3.535000000000000000e+03 3.604935455322265625e+01 3.035905456542968750e+01 5.757134407758712769e-02 7.937721908092498779e-02 4.108456894755363464e-02 6.167191639542579651e-02
3.536000000000000000e+03 6.677233123779296875e+01 2.816151428222656250e+01 -3.727118670940399170e-01 1.348396658897399902e+00 2.927054464817047119e-01 7.203485369682312012e-01
3.537000000000000000e+03 5.965163421630859375e+01 2.851932334899902344e+01 -1.255225658416748047e+00 3.547034859657287598e-01 -2.701566517353057861e-01 -8.038904666900634766e-01
3.538000000000000000e+03 6.181796264648437500e+01 2.800148391723632812e+01 -9.423784613609313965e-01 4.939365386962890625e-01 -1.345325857400894165e-01 -5.307881236076354980e-01
3.539000000000000000e+03 6.240348052978515625e+01 2.792888450622558594e+01 -8.830682635307312012e-01 5.095607042312622070e-01 -1.120522692799568176e-01 -4.513507187366485596e-01
3.540000000000000000e+03 6.092325592041015625e+01 2.933324623107910156e+01 -1.447969198226928711e+00 2.903884649276733398e-01 -3.472742140293121338e-01 -7.216082811355590820e-01
3.541000000000000000e+03 4.130415344238281250e+01 3.422003936767578125e+01 7.781150937080383301e-02 5.413703992962837219e-02 3.958456590771675110e-02 5.791369825601577759e-02
3.542000000000000000e+03 4.171530914306640625e+01 3.501539611816406250e+01 8.430641889572143555e-02 5.097570270299911499e-02 4.058463498950004578e-02 5.636928230524063110e-02
3.543000000000000000e+03 6.317378616333007812e+01 2.842042922973632812e+01 -9.649448990821838379e-01 4.958224594593048096e-01 -1.407367289066314697e-01 -3.496107757091522217e-01
3.544000000000000000e+03 8.769408226013183594e+00 5.222848415374755859e+00 2.208421528339385986e-01 -1.368480324745178223e-01 2.519823983311653137e-02 5.122480541467666626e-02
3.545000000000000000e+03 5.838962554931640625e+01 2.891300010681152344e+01 -1.378473997116088867e+00 3.207442164421081543e-01 -3.173189163208007812e-01 -8.836510181427001953e-01
3.546000000000000000e+03 2.416841316223144531e+01 9.845501780509948730e-01 -1.846076607704162598e+00 5.488094687461853027e-02 -5.373587012290954590e-01 -8.376998305320739746e-01
3.547000000000000000e+03 6.365104198455810547e+00 -7.047412872314453125e+00 -1.763347983360290527e-01 -2.141302376985549927e-01 -1.171395108103752136e-01 -3.156641125679016113e-01
3.548000000000000000e+03 6.071050643920898438e+01 2.868135070800781250e+01 -1.253815174102783203e+00 3.520636856555938721e-01 -2.705254554748535156e-01 -7.154687643051147461e-01
3.549000000000000000e+03 4.062873077392578125e+01 3.464963912963867188e+01 7.711532711982727051e-02 5.627629905939102173e-02 4.001748934388160706e-02 5.486547946929931641e-02
3.550000000000000000e+03 5.707947158813476562e+01 2.814098739624023438e+01 -1.274396538734436035e+00 3.024960756301879883e-01 -2.915701568126678467e-01 -9.121989011764526367e-01
3.551000000000000000e+03 6.956767082214355469e+00 -6.859292984008789062e+00 -2.026732265949249268e-01 -2.121313661336898804e-01 -1.244413778185844421e-01 -3.362683951854705811e-01
3.552000000000000000e+03 7.563596725463867188e+00 -6.080538272857666016e+00 -2.489914149045944214e-01 -1.785796433687210083e-01 -1.282713115215301514e-01 -3.335217535495758057e-01
3.553000000000000000e+03 7.549786567687988281e+00 -7.684277534484863281e+00 -1.987275779247283936e-01 -2.743181288242340088e-01 -1.419137120246887207e-01 -4.068605601787567139e-01
3.554000000000000000e+03 8.982763290405273438e+00 -6.027592182159423828e+00 -3.247801065444946289e-01 -2.055586874485015869e-01 -1.591016501188278198e-01 -4.170784354209899902e-01
3.555000000000000000e+03 6.469012451171875000e+01 2.901747131347656250e+01 -1.048480868339538574e+00 5.185688138008117676e-01 -1.589736193418502808e-01 -1.137993857264518738e-01
3.556000000000000000e+03 6.608324432373046875e+01 2.825406455993652344e+01 -5.185741782188415527e-01 1.036060929298400879e+00 1.552460193634033203e-01 4.263956844806671143e-01
3.557000000000000000e+03 5.693239212036132812e+01 2.878466796875000000e+01 -1.376094937324523926e+00 2.826479375362396240e-01 -3.280341029167175293e-01 -9.274240732192993164e-01
3.558000000000000000e+03 3.951205444335937500e+01 3.358872985839843750e+01 6.865710020065307617e-02 6.294447928667068481e-02 3.948047384619712830e-02 5.736367031931877136e-02
3.559000000000000000e+03 3.900669860839843750e+01 3.227420806884765625e+01 6.586721539497375488e-02 6.656720489263534546e-02 3.973032534122467041e-02 5.990137532353401184e-02
3.560000000000000000e+03 7.512742614746093750e+01 2.737820434570312500e+01 -1.320782661437988281e+00 1.053836917877197266e+01 2.765276193618774414e+00 6.824899911880493164e-01
3.561000000000000000e+03 1.037136936187744141e+01 4.931570053100585938e+00 3.230894804000854492e-01 -2.269617654383182526e-02 9.011799097061157227e-02 -7.502973079681396484e-02
3.562000000000000000e+03 7.509562683105468750e+01 3.595556640625000000e+01 5.749209970235824585e-02 1.695986175537109375e+01 5.105206489562988281e+00 1.798007965087890625e+00
3.563000000000000000e+03 1.163410758972167969e+01 5.429943561553955078e+00 2.508953213691711426e-01 2.719331085681915283e-01 1.568485349416732788e-01 -1.613644510507583618e-01
3.564000000000000000e+03 1.302742958068847656e+01 6.374345302581787109e+00 9.356192499399185181e-02 5.143777728080749512e-01 1.823818981647491455e-01 -5.160352520761080086e-05
3.565000000000000000e+03 7.207947254180908203e+00 -1.042899417877197266e+01 -7.941064983606338501e-02 -4.153794646263122559e-01 -1.484370380640029907e-01 -4.453363716602325439e-01
3.566000000000000000e+03 7.610918426513671875e+01 3.613582992553710938e+01 4.775575697422027588e-01 1.444163990020751953e+01 4.475759506225585938e+00 2.377099752426147461e+00
3.567000000000000000e+03 5.630762481689453125e+01 2.868686103820800781e+01 -1.369889020919799805e+00 2.489587217569351196e-01 -3.362790942192077637e-01 -9.373749494552612305e-01
3.568000000000000000e+03 1.062722682952880859e+01 6.047719478607177734e+00 2.339878678321838379e-01 1.042204126715660095e-01 1.014624834060668945e-01 -9.805202484130859375e-02
3.569000000000000000e+03 9.687929153442382812e+00 5.211603164672851562e+00 2.808135747909545898e-01 -9.450072795152664185e-02 5.589385330677032471e-02 -1.850448921322822571e-02
3.570000000000000000e+03 4.193484115600585938e+01 3.744482803344726562e+01 1.020936891436576843e-01 4.640759155154228210e-02 4.455038532614707947e-02 4.505155235528945923e-02
3.571000000000000000e+03 4.143110275268554688e+01 3.580100250244140625e+01 8.764605224132537842e-02 5.198960378766059875e-02 4.189069941639900208e-02 5.292032659053802490e-02
3.572000000000000000e+03 7.337875843048095703e+00 -8.493441581726074219e+00 -1.553885191679000854e-01 -3.085399866104125977e-01 -1.391785442829132080e-01 -4.091058671474456787e-01
3.573000000000000000e+03 9.678765296936035156e+00 -6.003777980804443359e+00 -3.754806816577911377e-01 -1.907895505428314209e-01 -1.698810756206512451e-01 -4.486066401004791260e-01
3.574000000000000000e+03 7.650166320800781250e+01 3.140562248229980469e+01 -2.186716496944427490e-01 1.325331687927246094e+01 3.910393476486206055e+00 -2.198488712310791016e+00
3.575000000000000000e+03 8.202682495117187500e+00 2.150907516479492188e+01 -6.465290673077106476e-03 -1.872027479112148285e-02 -7.555669639259576797e-03 -1.870258338749408722e-02
3.576000000000000000e+03 7.170381927490234375e+01 2.019206809997558594e+01 1.367680132389068604e-01 6.130408287048339844e+00 1.880152821540832520e+00 1.280667304992675781e+00
3.577000000000000000e+03 4.165468978881835938e+01 -1.236416625976562500e+01 4.255988001823425293e-01 -8.752825856208801270e-02 1.014211699366569519e-01 1.481195911765098572e-02
3.578000000000000000e+03 7.692168712615966797e+00 2.037523841857910156e+01 -5.403465125709772110e-03 -2.834611386060714722e-02 -1.012487336993217468e-02 -2.009735628962516785e-02
3.579000000000000000e+03 2.977197456359863281e+01 -2.087257862091064453e+00 5.021850466728210449e-01 -5.340346097946166992e-01 -9.554879739880561829e-03 -5.528224259614944458e-02
3.580000000000000000e+03 2.909212875366210938e+01 -2.365066289901733398e+00 6.222844719886779785e-01 -3.789670467376708984e-01 7.299522310495376587e-02 -1.362973004579544067e-01
3.581000000000000000e+03 1.243418884277343750e+01 -7.136174678802490234e+00 -4.003564417362213135e-01 -4.981124103069305420e-01 -2.695406675338745117e-01 -7.371309995651245117e-01
3.582000000000000000e+03 1.038178539276123047e+01 -6.007739543914794922e+00 -4.118520617485046387e-01 -2.555686533451080322e-01 -2.002262175083160400e-01 -5.181784033775329590e-01
3.583000000000000000e+03 6.840727329254150391e+00 -7.498421669006347656e+00 -1.721268296241760254e-01 -2.376674115657806396e-01 -1.229382753372192383e-01 -3.467155396938323975e-01
3.584000000000000000e+03 1.109130954742431641e+01 -6.059162139892578125e+00 -4.537929296493530273e-01 -2.514917552471160889e-01 -2.115854024887084961e-01 -5.584235191345214844e-01
3.585000000000000000e+03 3.812165451049804688e+01 -7.372293472290039062e+00 5.996339321136474609e-01 -4.548532068729400635e-01 4.343421757221221924e-02 -1.322697289288043976e-02
3.586000000000000000e+03 2.848634147644042969e+01 3.704610347747802734e+00 -2.112201690673828125e+00 -1.024287939071655273e+00 -9.409468173980712891e-01 -8.912608623504638672e-01
3.587000000000000000e+03 2.821918869018554688e+01 -1.830054402351379395e+00 5.534761548042297363e-01 -2.940912842750549316e-01 7.781545817852020264e-02 -1.448481529951095581e-01
3.588000000000000000e+03 7.320442962646484375e+01 2.725582695007324219e+01 -1.142092704772949219e+00 8.631057739257812500e+00 2.246689558029174805e+00 1.986060500144958496e+00
3.589000000000000000e+03 3.278617095947265625e+01 -4.788560390472412109e+00 7.203323841094970703e-01 -5.919888615608215332e-01 3.850306198000907898e-02 -8.965414762496948242e-02
3.590000000000000000e+03 3.211369323730468750e+01 -3.876048326492309570e+00 6.397156119346618652e-01 -6.077578067779541016e-01 9.587350301444530487e-03 -4.740267992019653320e-02
3.591000000000000000e+03 7.329631805419921875e+00 1.454774856567382812e+01 1.869769021868705750e-02 -2.430684678256511688e-02 -1.682746806181967258e-03 -2.083119750022888184e-02
3.592000000000000000e+03 1.613301658630371094e+01 -1.506059455871582031e+01 2.440045177936553955e-01 -5.113373398780822754e-01 -8.019984513521194458e-02 -4.186839163303375244e-01
3.593000000000000000e+03 1.859676361083984375e+01 -1.657720565795898438e+01 2.461847364902496338e-01 -2.809030711650848389e-01 -1.041549909859895706e-02 -3.233871459960937500e-01
3.594000000000000000e+03 8.103219985961914062e+00 1.782635116577148438e+01 8.218715083785355091e-04 -9.122788906097412109e-03 -2.490275073796510696e-03 -2.043410576879978180e-02
3.595000000000000000e+03 6.556908130645751953e+00 2.794530868530273438e+01 -5.935070104897022247e-03 -6.033099070191383362e-02 -1.987981796264648438e-02 -1.465061120688915253e-02
3.596000000000000000e+03 1.545904636383056641e+01 -1.394864845275878906e+01 2.120497077703475952e-01 -6.122726798057556152e-01 -1.200668886303901672e-01 -4.774418771266937256e-01
3.597000000000000000e+03 7.430596160888671875e+01 2.462504577636718750e+01 -5.627828240394592285e-01 8.585275650024414062e+00 2.406747817993164062e+00 1.163598895072937012e+00
3.598000000000000000e+03 6.915947723388671875e+01 2.798542785644531250e+01 -1.546599268913269043e-01 3.033997535705566406e+00 8.638012409210205078e-01 1.826957583427429199e+00
3.599000000000000000e+03 4.380671024322509766e+00 7.826591014862060547e+00 5.516064912080764771e-02 -1.359964758157730103e-01 -2.425074577331542969e-02 6.148876249790191650e-02
3.600000000000000000e+03 2.064980697631835938e+01 -2.201366996765136719e+01 2.236244231462478638e-01 2.717320993542671204e-02 7.523929327726364136e-02 -3.276586830615997314e-01
3.601000000000000000e+03 2.014169502258300781e+01 -2.299358558654785156e+01 2.459976226091384888e-01 -4.025472328066825867e-02 6.172286719083786011e-02 -3.231074512004852295e-01
3.602000000000000000e+03 2.313572502136230469e+01 -2.864228057861328125e+01 2.912713289260864258e-01 2.142426520586013794e-01 1.516541987657546997e-01 -3.278980255126953125e-01
3.603000000000000000e+03 2.103734970092773438e+01 -2.594003295898437500e+01 2.549473345279693604e-01 5.814010649919509888e-02 9.392622858285903931e-02 -3.250029385089874268e-01
3.604000000000000000e+03 1.921267318725585938e+01 -2.261005592346191406e+01 2.278608828783035278e-01 -9.852530807256698608e-02 3.880067169666290283e-02 -3.366220593452453613e-01
3.605000000000000000e+03 4.015629577636718750e+01 -1.115214443206787109e+01 4.674891233444213867e-01 -2.524273693561553955e-01 6.451852619647979736e-02 -1.272950042039155960e-02
3.606000000000000000e+03 3.933241653442382812e+01 -9.486117362976074219e+00 5.290817618370056152e-01 -3.343508541584014893e-01 5.841926857829093933e-02 -1.738790608942508698e-02
3.607000000000000000e+03 4.197074508666992188e+01 -1.363917255401611328e+01 3.544171452522277832e-01 -4.098786786198616028e-02 9.402877837419509888e-02 2.168671786785125732e-02
3.608000000000000000e+03 4.154604339599609375e+01 -1.108616352081298828e+01 4.608553349971771240e-01 -1.106065884232521057e-01 1.050746291875839233e-01 1.546943932771682739e-02
3.609000000000000000e+03 3.673227691650390625e+01 -9.063627243041992188e+00 5.810081362724304199e-01 -4.742732048034667969e-01 3.202047571539878845e-02 -6.598011404275894165e-02
3.610000000000000000e+03 3.746440505981445312e+01 -8.200978279113769531e+00 5.800202488899230957e-01 -4.773418307304382324e-01 3.080353140830993652e-02 -3.926986083388328552e-02
3.611000000000000000e+03 4.703798294067382812e+01 -2.326533126831054688e+01 -2.200056612491607666e-02 7.100043892860412598e-01 2.064011394977569580e-01 1.158483102917671204e-01
3.612000000000000000e+03 4.641688537597656250e+01 -2.193636322021484375e+01 3.191640973091125488e-02 6.140975952148437500e-01 1.938041895627975464e-01 1.047157347202301025e-01
3.613000000000000000e+03 7.229148101806640625e+01 -2.113821792602539062e+01 2.496408484876155853e-02 5.050909519195556641e+00 1.522762179374694824e+00 1.882603764533996582e-01
3.614000000000000000e+03 6.529183864593505859e+00 -1.418797206878662109e+01 2.146153338253498077e-02 -5.861002802848815918e-01 -1.693916171789169312e-01 -4.158633649349212646e-01
3.615000000000000000e+03 4.570620346069335938e+01 -2.070104789733886719e+01 6.781896948814392090e-02 4.850891530513763428e-01 1.658724397420883179e-01 9.342369437217712402e-02
3.616000000000000000e+03 7.070481872558593750e+01 -3.995316743850708008e+00 1.250530928373336792e-01 5.122452735900878906e+00 1.574251770973205566e+00 4.655385017395019531e-01
3.617000000000000000e+03 7.308196258544921875e+01 3.068325996398925781e+00 1.098702102899551392e-01 5.979737758636474609e+00 1.826882362365722656e+00 5.473914742469787598e-01
3.618000000000000000e+03 7.243955993652343750e+01 4.157620668411254883e-01 1.097729727625846863e-01 5.683794498443603516e+00 1.738070249557495117e+00 5.033463835716247559e-01
3.619000000000000000e+03 8.345582962036132812e+00 2.568998336791992188e+01 -8.262593299150466919e-03 -2.730854600667953491e-02 -1.067134179174900055e-02 -1.521743461489677429e-02
3.620000000000000000e+03 7.260797882080078125e+01 1.895095062255859375e+01 1.439526528120040894e-01 6.616006374359130859e+00 2.027987718582153320e+00 1.163458466529846191e+00
3.621000000000000000e+03 3.744104385375976562e+01 -6.672753334045410156e+00 5.931221246719360352e-01 -5.124983191490173340e-01 2.418715879321098328e-02 -4.738865420222282410e-03
3.622000000000000000e+03 3.460204696655273438e+01 -6.267004966735839844e+00 6.721056103706359863e-01 -5.863542556762695312e-01 2.572540566325187683e-02 -6.759774684906005859e-02
3.623000000000000000e+03 7.246324920654296875e+01 -2.330952453613281250e+01 1.968908868730068207e-02 5.034329891204833984e+00 1.516205668449401855e+00 1.758451312780380249e-01
3.624000000000000000e+03 7.260500335693359375e+01 -2.541079139709472656e+01 2.143224328756332397e-02 5.012409210205078125e+00 1.510152459144592285e+00 1.671575903892517090e-01
3.625000000000000000e+03 1.414095401763916016e+01 -1.197175693511962891e+01 1.208784505724906921e-01 -6.899411082267761230e-01 -1.707188040018081665e-01 -5.886141657829284668e-01
3.626000000000000000e+03 4.139948272705078125e+01 -1.850993728637695312e+01 1.048596799373626709e-01 -1.194711104035377502e-01 -4.383428953588008881e-03 1.069796606898307800e-01
3.627000000000000000e+03 7.146186065673828125e+01 8.505195617675781250e+00 2.047107368707656860e-01 5.721511363983154297e+00 1.777866601943969727e+00 7.746461629867553711e-01
3.628000000000000000e+03 7.203691101074218750e+01 -1.730970764160156250e+01 3.977286815643310547e-02 5.078792095184326172e+00 1.535569548606872559e+00 2.245310842990875244e-01
3.629000000000000000e+03 7.350246429443359375e+01 -9.072547912597656250e+00 4.811081662774085999e-02 5.559494972229003906e+00 1.682281732559204102e+00 2.799375057220458984e-01
3.630000000000000000e+03 7.001902008056640625e+01 -1.136568927764892578e+01 9.201754629611968994e-02 4.810949802398681641e+00 1.470890283584594727e+00 3.324636816978454590e-01
3.631000000000000000e+03 7.089620971679687500e+01 3.365653991699218750e+00 1.731386929750442505e-01 5.376568794250488281e+00 1.664912223815917969e+00 6.420854330062866211e-01
3.632000000000000000e+03 6.235000133514404297e+00 -1.167790889739990234e+01 -3.348860889673233032e-02 -4.671205878257751465e-01 -1.501827538013458252e-01 -4.063574969768524170e-01
3.633000000000000000e+03 7.207055664062500000e+01 -4.702345848083496094e+00 8.875026553869247437e-02 5.415413856506347656e+00 1.651249170303344727e+00 4.024533629417419434e-01
3.634000000000000000e+03 7.239642333984375000e+01 1.782338333129882812e+01 1.851698011159896851e-01 6.427349090576171875e+00 1.983755588531494141e+00 1.117003321647644043e+00
3.635000000000000000e+03 7.308840942382812500e+01 1.621941375732421875e+01 1.730754822492599487e-01 6.703977108001708984e+00 2.063115835189819336e+00 1.015406012535095215e+00
3.636000000000000000e+03 7.289508056640625000e+01 8.116485595703125000e+00 1.533122062683105469e-01 6.185043811798095703e+00 1.901506781578063965e+00 7.080394625663757324e-01
3.637000000000000000e+03 5.875370025634765625e+00 -2.399958992004394531e+01 5.611647665500640869e-02 -9.433597922325134277e-01 -2.661729753017425537e-01 -2.455396652221679688e-01
3.638000000000000000e+03 7.137205505371093750e+01 1.457526779174804688e+01 2.680587172508239746e-01 5.846599578857421875e+00 1.834397435188293457e+00 1.008218407630920410e+00
3.639000000000000000e+03 7.236238861083984375e+01 1.520161533355712891e+01 2.208070904016494751e-01 6.333730697631835938e+00 1.966361284255981445e+00 1.007709741592407227e+00
3.640000000000000000e+03 7.554538249969482422e+00 2.697386932373046875e+01 -8.015161380171775818e-03 -4.394232854247093201e-02 -1.558724697679281235e-02 -1.562920771539211273e-02
3.641000000000000000e+03 7.242957305908203125e+01 -1.289309883117675781e+01 4.706766828894615173e-02 5.250163078308105469e+00 1.589169263839721680e+00 2.580033242702484131e-01
3.642000000000000000e+03 7.137705993652343750e+01 -1.621130180358886719e+01 4.932886734604835510e-02 4.971876621246337891e+00 1.506361603736877441e+00 2.461908459663391113e-01
3.643000000000000000e+03 7.360376834869384766e+00 1.921270751953125000e+01 -2.877141116186976433e-03 -3.262880817055702209e-02 -1.065178494900465012e-02 -2.258240990340709686e-02
3.644000000000000000e+03 1.489749717712402344e+01 -1.112360382080078125e+01 9.204252064228057861e-02 -7.178047895431518555e-01 -1.877286881208419800e-01 -5.942851901054382324e-01
3.645000000000000000e+03 1.429994201660156250e+01 -6.874419212341308594e+00 -3.961676359176635742e-01 -6.991506814956665039e-01 -3.285954892635345459e-01 -8.382210135459899902e-01
3.646000000000000000e+03 1.357817077636718750e+01 -8.861392021179199219e+00 -1.356240063905715942e-01 -6.804236173629760742e-01 -2.448142915964126587e-01 -7.335355877876281738e-01
3.647000000000000000e+03 7.905748367309570312e+00 5.839818000793457031e+00 1.669267416000366211e-01 -1.303907632827758789e-01 1.096079312264919281e-02 6.595014780759811401e-02
3.648000000000000000e+03 7.187250137329101562e+00 -2.101502799987792969e+01 7.884890586137771606e-02 -8.049741983413696289e-01 -2.178375869989395142e-01 -3.364148139953613281e-01
3.649000000000000000e+03 7.115067291259765625e+01 -1.210688495635986328e+01 6.801083683967590332e-02 5.008599758148193359e+00 1.522983074188232422e+00 2.996501624584197998e-01
3.650000000000000000e+03 7.081070423126220703e+00 1.074217605590820312e+01 6.440681219100952148e-02 -4.127513244748115540e-02 6.939502898603677750e-03 -1.088778860867023468e-02
3.651000000000000000e+03 6.833833312988281250e+01 -2.869199562072753906e+01 5.344679951667785645e-02 4.307210922241210938e+00 1.308197379112243652e+00 1.931742131710052490e-01
3.652000000000000000e+03 7.281061553955078125e+01 2.129094505310058594e+01 -7.300029974430799484e-03 6.911742687225341797e+00 2.071332931518554688e+00 1.284985423088073730e+00
3.653000000000000000e+03 7.194769287109375000e+01 -1.912298011779785156e+01 3.161735460162162781e-02 5.019848823547363281e+00 1.515439867973327637e+00 2.115454375743865967e-01
3.654000000000000000e+03 7.202297973632812500e+01 6.613860130310058594e+00 1.690594702959060669e-01 5.820658206939697266e+00 1.796915292739868164e+00 7.084129452705383301e-01
3.655000000000000000e+03 7.352999114990234375e+01 -6.811426162719726562e+00 6.010096892714500427e-02 5.649920463562011719e+00 1.713006496429443359e+00 3.148942291736602783e-01
3.656000000000000000e+03 7.254796600341796875e+01 3.666995620727539062e+01 2.384498864412307739e-01 8.981378555297851562e+00 2.765948534011840820e+00 -4.466291427612304688e+00
3.657000000000000000e+03 7.099476623535156250e+01 -2.818931770324707031e+01 3.394016996026039124e-02 4.716936588287353516e+00 1.425263047218322754e+00 1.752024143934249878e-01
3.658000000000000000e+03 4.514031982421875000e+01 -2.542565536499023438e+01 -1.191245988011360168e-01 3.222892880439758301e-01 6.094941124320030212e-02 1.585393249988555908e-01
3.659000000000000000e+03 7.162072753906250000e+01 -7.476078867912292480e-01 1.251269429922103882e-01 5.444912433624267578e+00 1.671011805534362793e+00 5.061283707618713379e-01
3.660000000000000000e+03 7.172409820556640625e+01 2.083878755569458008e+00 1.448125690221786499e-01 5.566125869750976562e+00 1.713281631469726562e+00 5.762925744056701660e-01
3.661000000000000000e+03 6.970987701416015625e+01 7.884815335273742676e-01 1.819977313280105591e-01 4.996809959411621094e+00 1.553642272949218750e+00 6.097655892372131348e-01
3.662000000000000000e+03 7.228370666503906250e+01 -5.841557502746582031e+00 7.941578328609466553e-02 5.420842170715332031e+00 1.650077342987060547e+00 3.719648420810699463e-01
3.663000000000000000e+03 1.171891784667968750e+01 -2.357078361511230469e+01 1.663667857646942139e-01 -6.171319484710693359e-01 -1.352295428514480591e-01 -3.426756262779235840e-01
3.664000000000000000e+03 8.654458045959472656e+00 -2.534095001220703125e+01 9.647813439369201660e-02 -8.119658827781677246e-01 -2.146463245153427124e-01 -2.878400683403015137e-01
3.665000000000000000e+03 3.411523437500000000e+01 -5.323002338409423828e+00 6.763535141944885254e-01 -6.096920967102050781e-01 1.999841444194316864e-02 -5.109976232051849365e-02
3.666000000000000000e+03 7.047339630126953125e+01 -1.319889736175537109e+01 7.177138328552246094e-02 4.873307228088378906e+00 1.483523607254028320e+00 2.974315881729125977e-01
3.667000000000000000e+03 7.162854003906250000e+01 -1.414645385742187500e+01 5.147127434611320496e-02 5.079267978668212891e+00 1.539221763610839844e+00 2.602431476116180420e-01
3.668000000000000000e+03 6.899999237060546875e+01 -3.214212036132812500e+01 6.344003975391387939e-02 4.346049785614013672e+00 1.322846889495849609e+00 1.601095199584960938e-01
3.669000000000000000e+03 7.113922882080078125e+01 -2.012368392944335938e+01 3.390235081315040588e-02 4.866229534149169922e+00 1.470039486885070801e+00 2.219353169202804565e-01
3.670000000000000000e+03 7.334983062744140625e+01 -2.220636940002441406e+01 2.170486561954021454e-02 5.204447746276855469e+00 1.567845702171325684e+00 1.629575788974761963e-01
3.671000000000000000e+03 2.474095344543457031e+01 -3.260717010498046875e+01 3.758627176284790039e-01 2.752972543239593506e-01 1.953479945659637451e-01 -3.062169551849365234e-01
3.672000000000000000e+03 2.175106430053710938e+01 -2.997787284851074219e+01 2.878882288932800293e-01 7.150192558765411377e-02 1.078170463442802429e-01 -3.042698800563812256e-01
3.673000000000000000e+03 1.048495674133300781e+01 2.873652267456054688e+01 -9.677367284893989563e-03 -6.264798808842897415e-03 -4.782649688422679901e-03 -7.826406508684158325e-03
3.674000000000000000e+03 9.610261917114257812e+00 2.751889801025390625e+01 -9.543892927467823029e-03 -1.523348502814769745e-02 -7.433213293552398682e-03 -1.109685748815536499e-02
3.675000000000000000e+03 6.952670288085937500e+01 -2.711016654968261719e+01 4.010397940874099731e-02 4.514966011047363281e+00 1.366520881652832031e+00 2.001165598630905151e-01
3.676000000000000000e+03 9.004546165466308594e+00 -3.676503372192382812e+01 8.326216042041778564e-02 -9.289427995681762695e-01 -2.537041902542114258e-01 -9.861848503351211548e-02
3.677000000000000000e+03 9.720595359802246094e+00 -3.437496185302734375e+01 1.176894530653953552e-01 -8.277625441551208496e-01 -2.130219340324401855e-01 -1.518675833940505981e-01
3.678000000000000000e+03 1.001928615570068359e+01 -3.033393859863281250e+01 1.155660524964332581e-01 -7.741274833679199219e-01 -1.975684165954589844e-01 -2.146055847406387329e-01
3.679000000000000000e+03 7.168650627136230469e+00 -3.020005989074707031e+01 6.921283900737762451e-02 -9.872587919235229492e-01 -2.754137814044952393e-01 -1.853344738483428955e-01
3.680000000000000000e+03 6.575535583496093750e+01 3.900562667846679688e+01 8.868515491485595703e-01 2.010261267423629761e-01 3.263632953166961670e-01 3.826476633548736572e-01
3.681000000000000000e+03 4.186200332641601562e+01 -1.665907669067382812e+01 2.104632705450057983e-01 -4.348193109035491943e-02 5.009440332651138306e-02 5.876280367374420166e-02
3.682000000000000000e+03 1.016412258148193359e+01 -2.528808784484863281e+01 1.267055124044418335e-01 -7.191997766494750977e-01 -1.777482777833938599e-01 -2.984338700771331787e-01
3.683000000000000000e+03 7.344928741455078125e+01 3.078103256225585938e+01 -1.933232426643371582e+00 1.245659828186035156e+01 3.157009601593017578e+00 3.467903375625610352e+00
3.684000000000000000e+03 2.577159690856933594e+01 2.057468175888061523e+00 -2.344238996505737305e+00 -5.163962244987487793e-01 -8.581905364990234375e-01 -8.714969754219055176e-01
3.685000000000000000e+03 2.657561874389648438e+01 2.177152395248413086e+00 -2.082703590393066406e+00 -5.560324788093566895e-01 -7.916208505630493164e-01 -7.190068364143371582e-01
3.686000000000000000e+03 2.549107360839843750e+01 2.286315441131591797e+00 -2.707751750946044922e+00 -5.187874436378479004e-01 -9.679617285728454590e-01 -1.045895099639892578e+00
3.687000000000000000e+03 2.404828643798828125e+01 1.354963183403015137e+00 -2.397018432617187500e+00 -2.415772825479507446e-01 -7.915787100791931152e-01 -1.146212697029113770e+00
3.688000000000000000e+03 7.477697753906250000e+01 2.981179428100585938e+01 -2.067548036575317383e+00 1.286115360260009766e+01 3.238081693649291992e+00 7.826635241508483887e-01
3.689000000000000000e+03 7.509727478027343750e+01 2.933278083801269531e+01 -1.881523609161376953e+00 1.235877227783203125e+01 3.143174648284912109e+00 4.021664857864379883e-01
3.690000000000000000e+03 7.119431304931640625e+01 2.992824554443359375e+01 -4.348030090332031250e-01 4.925687313079833984e+00 1.347265243530273438e+00 3.256344795227050781e+00
3.691000000000000000e+03 1.816066932678222656e+01 1.181736278533935547e+01 9.858962148427963257e-02 1.970031410455703735e-01 8.867783099412918091e-02 1.382469981908798218e-01
3.692000000000000000e+03 7.071350860595703125e+01 2.998397827148437500e+01 -3.500455021858215332e-01 3.898035049438476562e+00 1.064396858215332031e+00 2.891759872436523438e+00
3.693000000000000000e+03 4.119145584106445312e+01 1.961420631408691406e+01 -1.141389966011047363e+00 -1.253394365310668945e+00 -7.184352874755859375e-01 -1.318735241889953613e+00
3.694000000000000000e+03 4.107421112060546875e+01 1.848851966857910156e+01 -1.095293998718261719e+00 -1.194639921188354492e+00 -6.869801282882690430e-01 -1.260870933532714844e+00
3.695000000000000000e+03 4.168541336059570312e+01 1.877100181579589844e+01 -1.071455121040344238e+00 -1.166800737380981445e+00 -6.714767217636108398e-01 -1.240043759346008301e+00
3.696000000000000000e+03 4.192490386962890625e+01 1.969042778015136719e+01 -1.115901112556457520e+00 -1.221329331398010254e+00 -7.011691331863403320e-01 -1.274588227272033691e+00
3.697000000000000000e+03 1.496035480499267578e+01 9.011208534240722656e+00 8.550473302602767944e-02 3.017197549343109131e-01 1.161673441529273987e-01 1.288134157657623291e-01
3.698000000000000000e+03 1.972080993652343750e+01 1.251182937622070312e+01 1.104958280920982361e-01 1.742865890264511108e-01 8.543472737073898315e-02 1.375129073858261108e-01
3.699000000000000000e+03 3.366267776489257812e+01 1.091561031341552734e+01 -1.283136010169982910e+00 -1.344358086585998535e+00 -7.882482409477233887e-01 -1.242057323455810547e+00
3.700000000000000000e+03 3.402638626098632812e+01 1.079953575134277344e+01 -1.232667326927185059e+00 -1.314633131027221680e+00 -7.641901373863220215e-01 -1.200504899024963379e+00
3.701000000000000000e+03 4.760574722290039062e+01 2.490560913085937500e+01 -1.304605603218078613e+00 -9.653232693672180176e-01 -6.809786558151245117e-01 -1.200050950050354004e+00
3.702000000000000000e+03 3.970708465576171875e+01 1.709295272827148438e+01 -1.136500000953674316e+00 -1.243332028388977051e+00 -7.139496207237243652e-01 -1.231701731681823730e+00
3.703000000000000000e+03 4.097607803344726562e+01 1.808455467224121094e+01 -1.086084604263305664e+00 -1.174814224243164062e+00 -6.782696843147277832e-01 -1.240293860435485840e+00
3.704000000000000000e+03 3.209949111938476562e+01 2.601739883422851562e+01 5.510997772216796875e-02 8.877781033515930176e-02 4.316633567214012146e-02 7.163114100694656372e-02
3.705000000000000000e+03 4.831684494018554688e+01 2.586103630065917969e+01 -1.318276166915893555e+00 -9.440092444419860840e-01 -6.786856055259704590e-01 -1.199513077735900879e+00
3.706000000000000000e+03 1.550655078887939453e+01 9.275127410888671875e+00 9.443192183971405029e-02 2.825315296649932861e-01 1.130890324711799622e-01 1.425839960575103760e-01
3.707000000000000000e+03 3.398326110839843750e+01 2.772425270080566406e+01 5.612613260746002197e-02 8.552105724811553955e-02 4.249415546655654907e-02 6.766477972269058228e-02
3.708000000000000000e+03 2.373695755004882812e+01 1.731277847290039062e+01 8.322743326425552368e-02 1.307976096868515015e-01 6.420751661062240601e-02 1.059393286705017090e-01
3.709000000000000000e+03 1.531824207305908203e+01 8.647140502929687500e+00 9.873124212026596069e-02 3.111635446548461914e-01 1.229684427380561829e-01 1.524087637662887573e-01
3.710000000000000000e+03 2.471093559265136719e+01 1.614447712898254395e+00 -2.357446670532226562e+00 -3.013200759887695312e-01 -7.976300716400146484e-01 -9.568153619766235352e-01
3.711000000000000000e+03 2.349464988708496094e+01 1.713130950927734375e+01 8.301274478435516357e-02 1.327501237392425537e-01 6.472886353731155396e-02 1.069095283746719360e-01
3.712000000000000000e+03 2.221336936950683594e+01 1.586555004119873047e+01 8.797204494476318359e-02 1.454936563968658447e-01 7.003971189260482788e-02 1.119654029607772827e-01
3.713000000000000000e+03 2.072264862060546875e+01 1.431411457061767578e+01 9.612488001585006714e-02 1.589704304933547974e-01 7.652859389781951904e-02 1.211054474115371704e-01
3.714000000000000000e+03 3.389398193359375000e+01 2.930484199523925781e+01 5.277957022190093994e-02 8.377952873706817627e-02 4.096772894263267517e-02 6.207475811243057251e-02
3.715000000000000000e+03 4.050019073486328125e+01 1.769679832458496094e+01 -1.106221079826354980e+00 -1.193511247634887695e+00 -6.899197101593017578e-01 -1.238406658172607422e+00
3.716000000000000000e+03 4.121303939819335938e+01 1.888408088684082031e+01 -1.105787277221679688e+00 -1.211265921592712402e+00 -6.951159834861755371e-01 -1.279717087745666504e+00
3.717000000000000000e+03 3.673536300659179688e+01 1.387899208068847656e+01 -1.174505829811096191e+00 -1.360237479209899902e+00 -7.604230046272277832e-01 -1.229391574859619141e+00
3.718000000000000000e+03 3.593826293945312500e+01 1.357971858978271484e+01 -1.223463892936706543e+00 -1.401043176651000977e+00 -7.873521447181701660e-01 -1.273672103881835938e+00
3.719000000000000000e+03 2.796748352050781250e+01 2.144182205200195312e+01 6.679070740938186646e-02 1.049014180898666382e-01 5.150763690471649170e-02 8.649072796106338501e-02
3.720000000000000000e+03 2.831521797180175781e+01 2.125986099243164062e+01 7.034069299697875977e-02 1.034232452511787415e-01 5.212918296456336975e-02 8.748140931129455566e-02
3.721000000000000000e+03 4.416855239868164062e+01 2.168836593627929688e+01 -1.215968728065490723e+00 -1.182485699653625488e+00 -7.195363640785217285e-01 -1.228800415992736816e+00
3.722000000000000000e+03 2.875687217712402344e+01 3.978083133697509766e+00 -2.126133441925048828e+00 -1.096792459487915039e+00 -9.668777585029602051e-01 -9.208671450614929199e-01
3.723000000000000000e+03 2.834365463256835938e+01 3.513470888137817383e+00 -2.082471132278442383e+00 -9.935261011123657227e-01 -9.227991700172424316e-01 -8.647436499595642090e-01
3.724000000000000000e+03 4.312714004516601562e+01 2.102153205871582031e+01 -1.202279686927795410e+00 -1.223946571350097656e+00 -7.278679013252258301e-01 -1.257782578468322754e+00
3.725000000000000000e+03 2.952656173706054688e+01 -1.449589848518371582e+00 2.858507037162780762e-01 -4.980483055114746094e-01 -6.365928798913955688e-02 -2.569926530122756958e-02
3.726000000000000000e+03 3.700053405761718750e+01 1.417258739471435547e+01 -1.164793968200683594e+00 -1.356768250465393066e+00 -7.564686536788940430e-01 -1.231268405914306641e+00
3.727000000000000000e+03 4.814798355102539062e+01 2.504831886291503906e+01 -1.278552770614624023e+00 -8.922493457794189453e-01 -6.512406468391418457e-01 -1.163526535034179688e+00
3.728000000000000000e+03 4.605597686767578125e+01 2.390483665466308594e+01 -1.348993062973022461e+00 -1.124200224876403809e+00 -7.419579625129699707e-01 -1.238574743270874023e+00
3.729000000000000000e+03 4.684856414794921875e+01 2.397145271301269531e+01 -1.285543441772460938e+00 -1.004248142242431641e+00 -6.869374513626098633e-01 -1.184480905532836914e+00
3.730000000000000000e+03 2.465807723999023438e+01 1.814234733581542969e+01 8.228652924299240112e-02 1.238926723599433899e-01 6.185376271605491638e-02 1.013191044330596924e-01
3.731000000000000000e+03 2.898864936828613281e+01 4.313956260681152344e+00 -2.144267559051513672e+00 -1.159912228584289551e+00 -9.912539720535278320e-01 -9.655717611312866211e-01
3.732000000000000000e+03 4.442116928100585938e+01 2.195347785949707031e+01 -1.230525612831115723e+00 -1.178579449653625488e+00 -7.227315306663513184e-01 -1.228258252143859863e+00
3.733000000000000000e+03 3.476228713989257812e+01 1.261745071411132812e+01 -1.267500162124633789e+00 -1.417471885681152344e+00 -8.054916262626647949e-01 -1.289717078208923340e+00
3.734000000000000000e+03 3.596356582641601562e+01 1.266338920593261719e+01 -1.172428011894226074e+00 -1.321572661399841309e+00 -7.482001781463623047e-01 -1.192106485366821289e+00
3.735000000000000000e+03 1.996787452697753906e+01 1.324562072753906250e+01 1.015589088201522827e-01 1.681657880544662476e-01 8.091741055250167847e-02 1.300431191921234131e-01
3.736000000000000000e+03 2.145079803466796875e+01 1.452327251434326172e+01 1.008298918604850769e-01 1.535397768020629883e-01 7.631090283393859863e-02 1.218294948339462280e-01
3.737000000000000000e+03 2.748186302185058594e+01 2.135920524597167969e+01 6.469041854143142700e-02 1.073455885052680969e-01 5.161080136895179749e-02 8.639085292816162109e-02
3.738000000000000000e+03 2.784575462341308594e+01 2.059816741943359375e+01 7.416898012161254883e-02 1.061378121376037598e-01 5.409203842282295227e-02 9.054341167211532593e-02
3.739000000000000000e+03 5.123667144775390625e+01 2.849536895751953125e+01 -1.371000647544860840e+00 -5.729188323020935059e-01 -5.831758379936218262e-01 -1.034687042236328125e+00
3.740000000000000000e+03 5.028379440307617188e+01 2.858173561096191406e+01 -1.397500991821289062e+00 -8.179302215576171875e-01 -6.646293997764587402e-01 -1.121016025543212891e+00
3.741000000000000000e+03 2.223633003234863281e+01 1.533155918121337891e+01 9.565853327512741089e-02 1.476007103919982910e-01 7.297777384519577026e-02 1.165102422237396240e-01
3.742000000000000000e+03 2.276426315307617188e+01 1.586335372924804688e+01 9.236363321542739868e-02 1.425762772560119629e-01 7.048197090625762939e-02 1.143180951476097107e-01
3.743000000000000000e+03 1.902930259704589844e+01 1.230123996734619141e+01 1.038204357028007507e-01 1.831438839435577393e-01 8.608929812908172607e-02 1.370449811220169067e-01
3.744000000000000000e+03 4.976358413696289062e+01 2.809606552124023438e+01 -1.396897196769714355e+00 -8.913133144378662109e-01 -6.864631772041320801e-01 -1.155222177505493164e+00
3.745000000000000000e+03 4.887749481201171875e+01 2.643546104431152344e+01 -1.327461004257202148e+00 -9.095200896263122559e-01 -6.710943579673767090e-01 -1.175118207931518555e+00
3.746000000000000000e+03 2.702281761169433594e+01 2.083443832397460938e+01 6.809640675783157349e-02 1.096898540854454041e-01 5.333587899804115295e-02 8.864930272102355957e-02
3.747000000000000000e+03 2.698849105834960938e+01 2.031120681762695312e+01 7.226758450269699097e-02 1.110130473971366882e-01 5.498418956995010376e-02 9.139010310173034668e-02
3.748000000000000000e+03 2.490046882629394531e+01 1.866995811462402344e+01 7.750274240970611572e-02 1.219604536890983582e-01 5.983895808458328247e-02 9.764558076858520508e-02
3.749000000000000000e+03 4.289700317382812500e+01 2.069374084472656250e+01 -1.170750141143798828e+00 -1.219045758247375488e+00 -7.169387936592102051e-01 -1.254435420036315918e+00
3.750000000000000000e+03 4.369235610961914062e+01 2.112770652770996094e+01 -1.179340600967407227e+00 -1.184036254882812500e+00 -7.090130448341369629e-01 -1.225371479988098145e+00
3.751000000000000000e+03 3.934318161010742188e+01 1.688911056518554688e+01 -1.153714299201965332e+00 -1.281390786170959473e+00 -7.305315136909484863e-01 -1.236914277076721191e+00
3.752000000000000000e+03 1.598972892761230469e+01 9.664738655090332031e+00 9.848433732986450195e-02 2.620967030525207520e-01 1.081743091344833374e-01 1.447691172361373901e-01
3.753000000000000000e+03 1.770244598388671875e+01 1.105411720275878906e+01 1.039351969957351685e-01 2.112513780593872070e-01 9.455597400665283203e-02 1.440759897232055664e-01
3.754000000000000000e+03 3.725154113769531250e+01 1.447433662414550781e+01 -1.160851955413818359e+00 -1.356968641281127930e+00 -7.553461790084838867e-01 -1.229385018348693848e+00
3.755000000000000000e+03 4.468108367919921875e+01 2.221001625061035156e+01 -1.243752121925354004e+00 -1.172703385353088379e+00 -7.249366641044616699e-01 -1.224539637565612793e+00
3.756000000000000000e+03 3.281389236450195312e+01 9.975016593933105469e+00 -1.281456589698791504e+00 -1.332298278808593750e+00 -7.841264605522155762e-01 -1.223326802253723145e+00
3.757000000000000000e+03 3.463236999511718750e+01 9.946224212646484375e+00 -1.144229054450988770e+00 -1.198293805122375488e+00 -7.027568221092224121e-01 -1.080600500106811523e+00
3.758000000000000000e+03 3.750498580932617188e+01 1.476913547515869141e+01 -1.155708432197570801e+00 -1.356535553932189941e+00 -7.536731958389282227e-01 -1.229427337646484375e+00
3.759000000000000000e+03 3.444426345825195312e+01 1.136631298065185547e+01 -1.228781104087829590e+00 -1.332933783531188965e+00 -7.685144543647766113e-01 -1.213815450668334961e+00
3.760000000000000000e+03 3.508837127685546875e+01 1.275468540191650391e+01 -1.252804040908813477e+00 -1.404713630676269531e+00 -7.972552776336669922e-01 -1.271803617477416992e+00
3.761000000000000000e+03 1.414496707916259766e+01 7.462471961975097656e+00 9.064045548439025879e-02 4.021825194358825684e-01 1.478468924760818481e-01 1.206845790147781372e-01
3.762000000000000000e+03 3.776780700683593750e+01 1.505000114440917969e+01 -1.153711915016174316e+00 -1.352764129638671875e+00 -7.519428133964538574e-01 -1.224533319473266602e+00
3.763000000000000000e+03 2.428422927856445312e+01 1.805193519592285156e+01 8.092444390058517456e-02 1.257953941822052002e-01 6.201595440506935120e-02 1.015402153134346008e-01
3.764000000000000000e+03 5.209601593017578125e+01 2.944131278991699219e+01 -1.382517814636230469e+00 -4.125160574913024902e-01 -5.385101437568664551e-01 -9.796247482299804688e-01
3.765000000000000000e+03 5.388902282714843750e+01 2.969649314880371094e+01 -1.426618218421936035e+00 -2.004188299179077148e-02 -4.339980483055114746e-01 -9.335030913352966309e-01
3.766000000000000000e+03 5.023816299438476562e+01 2.808491134643554688e+01 -1.380194783210754395e+00 -7.761773467063903809e-01 -6.469116210937500000e-01 -1.108842372894287109e+00
3.767000000000000000e+03 5.104028701782226562e+01 2.877397727966308594e+01 -1.381949186325073242e+00 -6.455072164535522461e-01 -6.082369089126586914e-01 -1.056763291358947754e+00
3.768000000000000000e+03 3.804072570800781250e+01 1.531707382202148438e+01 -1.149065732955932617e+00 -1.342924952507019043e+00 -7.475972175598144531e-01 -1.221204757690429688e+00
3.769000000000000000e+03 5.170669174194335938e+01 2.919613075256347656e+01 -1.379805445671081543e+00 -4.962269663810729980e-01 -5.628097057342529297e-01 -1.007022380828857422e+00
3.770000000000000000e+03 3.335771179199218750e+01 2.723570632934570312e+01 5.516987293958663940e-02 8.658851683139801025e-02 4.252751916646957397e-02 6.852902472019195557e-02
3.771000000000000000e+03 3.309455871582031250e+01 2.654477119445800781e+01 5.612298473715782166e-02 8.722164481878280640e-02 4.300338774919509888e-02 7.020440697669982910e-02
3.772000000000000000e+03 4.132157135009765625e+01 1.927953529357910156e+01 -1.120429754257202148e+00 -1.229012131690979004e+00 -7.048325538635253906e-01 -1.295007467269897461e+00
3.773000000000000000e+03 2.197402000427246094e+01 1.505848789215087891e+01 9.741105139255523682e-02 1.493374705314636230e-01 7.402455806732177734e-02 1.182436421513557434e-01
3.774000000000000000e+03 2.119930267333984375e+01 1.477453041076660156e+01 9.424735605716705322e-02 1.545361578464508057e-01 7.463505119085311890e-02 1.180805861949920654e-01
3.775000000000000000e+03 4.577098464965820312e+01 2.367770576477050781e+01 -1.346835732460021973e+00 -1.151381850242614746e+00 -7.494652867317199707e-01 -1.241955161094665527e+00
3.776000000000000000e+03 4.753443145751953125e+01 2.448610877990722656e+01 -1.282980680465698242e+00 -9.433984756469726562e-01 -6.679137349128723145e-01 -1.176657080650329590e+00
3.777000000000000000e+03 2.915314865112304688e+01 2.255744171142578125e+01 6.193469464778900146e-02 9.933162480592727661e-02 4.837989434599876404e-02 8.233767747879028320e-02
3.778000000000000000e+03 3.699142456054687500e+01 1.357859325408935547e+01 -1.137765407562255859e+00 -1.305841207504272461e+00 -7.330819368362426758e-01 -1.183574438095092773e+00
3.779000000000000000e+03 3.832357406616210938e+01 1.557462978363037109e+01 -1.146305561065673828e+00 -1.329138994216918945e+00 -7.426333427429199219e-01 -1.214397549629211426e+00
3.780000000000000000e+03 3.900968933105468750e+01 1.664925193786621094e+01 -1.165740489959716797e+00 -1.311896681785583496e+00 -7.432911396026611328e-01 -1.238285303115844727e+00
3.781000000000000000e+03 4.494661331176757812e+01 2.246005249023437500e+01 -1.255071640014648438e+00 -1.163478732109069824e+00 -7.255651354789733887e-01 -1.220162987709045410e+00
3.782000000000000000e+03 2.593118858337402344e+01 1.907405662536621094e+01 8.003947883844375610e-02 1.176798939704895020e-01 5.931581184267997742e-02 9.665881097316741943e-02
3.783000000000000000e+03 4.999830245971679688e+01 2.785490798950195312e+01 -1.374860405921936035e+00 -8.151556849479675293e-01 -6.570048332214355469e-01 -1.124787926673889160e+00
3.784000000000000000e+03 2.989865303039550781e+01 2.287608146667480469e+01 6.193540617823600769e-02 9.614155441522598267e-02 4.742308706045150757e-02 8.164124190807342529e-02
3.785000000000000000e+03 3.144501876831054688e+01 2.534260559082031250e+01 5.494336411356925964e-02 9.015109390020370483e-02 4.352833703160285950e-02 7.373627275228500366e-02
3.786000000000000000e+03 4.347439956665039062e+01 2.082942199707031250e+01 -1.155532240867614746e+00 -1.180821180343627930e+00 -7.009060382843017578e-01 -1.222186326980590820e+00
3.787000000000000000e+03 4.977177047729492188e+01 2.761411285400390625e+01 -1.368012189865112305e+00 -8.421874642372131348e-01 -6.630598902702331543e-01 -1.134771704673767090e+00
3.788000000000000000e+03 3.276470947265625000e+01 9.216692924499511719e+00 -1.243095397949218750e+00 -1.288170814514160156e+00 -7.593798637390136719e-01 -1.174897313117980957e+00
3.789000000000000000e+03 1.981826400756835938e+01 1.365993690490722656e+01 9.462765604257583618e-02 1.678338348865509033e-01 7.873845100402832031e-02 1.243827715516090393e-01
3.790000000000000000e+03 1.932669448852539062e+01 1.236201572418212891e+01 1.064112558960914612e-01 1.786461025476455688e-01 8.551720529794692993e-02 1.373028010129928589e-01
3.791000000000000000e+03 2.446723365783691406e+01 1.856922912597656250e+01 7.534881681203842163e-02 1.243693009018898010e-01 5.991543456912040710e-02 9.746907651424407959e-02
3.792000000000000000e+03 2.965842247009277344e+01 4.368795871734619141e+00 -1.962145328521728516e+00 -1.047284245491027832e+00 -9.028288722038269043e-01 -8.185328245162963867e-01
3.793000000000000000e+03 4.054666900634765625e+01 1.726156616210937500e+01 -1.085319638252258301e+00 -1.167192220687866211e+00 -6.757535934448242188e-01 -1.202383041381835938e+00
3.794000000000000000e+03 5.312140274047851562e+01 3.046554565429687500e+01 -1.385438442230224609e+00 -1.814869940280914307e-01 -4.700776338577270508e-01 -9.075351953506469727e-01
3.795000000000000000e+03 2.563364028930664062e+01 1.890698623657226562e+01 7.971040904521942139e-02 1.189825907349586487e-01 5.960790067911148071e-02 9.716845303773880005e-02
3.796000000000000000e+03 4.253240585327148438e+01 1.996872329711914062e+01 -1.113130092620849609e+00 -1.199534177780151367e+00 -6.937993168830871582e-01 -1.245503783226013184e+00
3.797000000000000000e+03 2.095687675476074219e+01 1.452948379516601562e+01 9.545016288757324219e-02 1.562633812427520752e-01 7.551406323909759521e-02 1.199689060449600220e-01
3.798000000000000000e+03 3.861588287353515625e+01 1.582610321044921875e+01 -1.141218662261962891e+00 -1.310055851936340332e+00 -7.353823184967041016e-01 -1.210942983627319336e+00
3.799000000000000000e+03 3.891671371459960938e+01 1.607169914245605469e+01 -1.137199640274047852e+00 -1.288005471229553223e+00 -7.275615334510803223e-01 -1.206263899803161621e+00
3.800000000000000000e+03 5.084782791137695312e+01 2.906306076049804688e+01 -1.385991454124450684e+00 -7.242698073387145996e-01 -6.330783963203430176e-01 -1.078089356422424316e+00
3.801000000000000000e+03 4.021177291870117188e+01 1.680994606018066406e+01 -1.085593223571777344e+00 -1.174247145652770996e+00 -6.779521107673645020e-01 -1.185882925987243652e+00
3.802000000000000000e+03 3.475695419311523438e+01 1.169340133666992188e+01 -1.214395523071289062e+00 -1.336064815521240234e+00 -7.651380896568298340e-01 -1.217064142227172852e+00
3.803000000000000000e+03 4.693389892578125000e+01 2.367103767395019531e+01 -1.249566078186035156e+00 -9.674417376518249512e-01 -6.651023626327514648e-01 -1.154699802398681641e+00
3.804000000000000000e+03 3.028567123413085938e+01 2.435043334960937500e+01 5.491280183196067810e-02 9.412369877099990845e-02 4.471094906330108643e-02 7.715751975774765015e-02
3.805000000000000000e+03 2.298911285400390625e+01 1.664671134948730469e+01 8.451244980096817017e-02 1.373670846223831177e-01 6.656385958194732666e-02 1.089986041188240051e-01
3.806000000000000000e+03 1.692501640319824219e+01 1.062878894805908203e+01 9.965166449546813965e-02 2.282375097274780273e-01 9.836675226688385010e-02 1.413154006004333496e-01
3.807000000000000000e+03 1.539010620117187500e+01 8.929177284240722656e+00 9.969604015350341797e-02 2.969833612442016602e-01 1.190038248896598816e-01 1.475246846675872803e-01
3.808000000000000000e+03 5.351048660278320312e+01 3.010969734191894531e+01 -1.416753768920898438e+00 -8.826022595167160034e-02 -4.515042006969451904e-01 -9.216306805610656738e-01
3.809000000000000000e+03 4.521511459350585938e+01 2.270590591430664062e+01 -1.267170667648315430e+00 -1.150554060935974121e+00 -7.253174781799316406e-01 -1.214798212051391602e+00
3.810000000000000000e+03 4.548299407958984375e+01 2.294863510131835938e+01 -1.278051733970642090e+00 -1.134194612503051758e+00 -7.236738801002502441e-01 -1.209846854209899902e+00
3.811000000000000000e+03 3.311365509033203125e+01 2.623655700683593750e+01 5.687851086258888245e-02 8.754809945821762085e-02 4.332798346877098083e-02 7.086634635925292969e-02
3.812000000000000000e+03 3.320687103271484375e+01 2.688815307617187500e+01 5.563877522945404053e-02 8.715006709098815918e-02 4.283665493130683899e-02 6.930481642484664917e-02
3.813000000000000000e+03 2.169608688354492188e+01 1.531200027465820312e+01 9.103247523307800293e-02 1.500382870435714722e-01 7.232122868299484253e-02 1.145105063915252686e-01
3.814000000000000000e+03 3.380383682250976562e+01 1.038939571380615234e+01 -1.235439896583557129e+00 -1.292198419570922852e+00 -7.582914829254150391e-01 -1.182078003883361816e+00
3.815000000000000000e+03 2.248292160034179688e+01 1.611655807495117188e+01 8.652967214584350586e-02 1.428153514862060547e-01 6.880350410938262939e-02 1.113762557506561279e-01
3.816000000000000000e+03 1.494211959838867188e+01 8.072715759277343750e+00 1.008354723453521729e-01 3.440555632114410400e-01 1.334673166275024414e-01 1.519987285137176514e-01
3.817000000000000000e+03 3.502903747558593750e+01 1.206503200531005859e+01 -1.217637181282043457e+00 -1.350893259048461914e+00 -7.705591320991516113e-01 -1.222217917442321777e+00
3.818000000000000000e+03 2.434762573242187500e+01 1.769566345214843750e+01 8.464465290307998657e-02 1.259026378393173218e-01 6.316418945789337158e-02 1.043197512626647949e-01
3.819000000000000000e+03 3.327230834960937500e+01 8.891691207885742188e+00 -1.202281951904296875e+00 -1.214440941810607910e+00 -7.250168323516845703e-01 -1.112033486366271973e+00
3.820000000000000000e+03 1.378834915161132812e+01 6.680144309997558594e+00 8.575817942619323730e-02 4.889974296092987061e-01 1.724266856908798218e-01 1.148774325847625732e-01
3.821000000000000000e+03 1.646293449401855469e+01 1.009400367736816406e+01 1.003871709108352661e-01 2.440817356109619141e-01 1.033406704664230347e-01 1.445763856172561646e-01
3.822000000000000000e+03 1.301424980163574219e+01 5.769319057464599609e+00 1.080298945307731628e-01 6.030089855194091797e-01 2.133116722106933594e-01 -3.170469775795936584e-02
3.823000000000000000e+03 9.947275161743164062e+00 5.756180763244628906e+00 2.566364407539367676e-01 1.102087087929248810e-03 7.732155919075012207e-02 -6.513541936874389648e-02
3.824000000000000000e+03 1.729936790466308594e+01 1.108362102508544922e+01 9.732089936733245850e-02 2.165273576974868774e-01 9.415447711944580078e-02 1.394527554512023926e-01
3.825000000000000000e+03 3.174646759033203125e+01 5.219089508056640625e+00 -1.506149649620056152e+00 -8.607675433158874512e-01 -7.100751996040344238e-01 -8.213984370231628418e-01
3.826000000000000000e+03 3.097342491149902344e+01 2.518370056152343750e+01 5.433514341711997986e-02 9.114816784858703613e-02 4.364499449729919434e-02 7.430725544691085815e-02
3.827000000000000000e+03 3.003153991699218750e+01 2.399811935424804688e+01 5.565898865461349487e-02 9.486376494169235229e-02 4.515682905912399292e-02 7.831425219774246216e-02
3.828000000000000000e+03 2.401715469360351562e+01 6.650252938270568848e-01 -1.653478026390075684e+00 1.393408477306365967e-01 -4.542411565780639648e-01 -8.112611174583435059e-01
3.829000000000000000e+03 2.453817558288574219e+01 1.011749148368835449e+00 -1.856289863586425781e+00 -1.325569003820419312e-01 -5.966540575027465820e-01 -8.196237087249755859e-01
3.830000000000000000e+03 1.459630012512207031e+01 8.160802841186523438e+00 8.877525478601455688e-02 3.470475077629089355e-01 1.307468265295028687e-01 1.332160383462905884e-01
3.831000000000000000e+03 6.598838806152343750e+01 2.756268119812011719e+01 -3.027656972408294678e-01 1.269021272659301758e+00 2.898766696453094482e-01 5.131887793540954590e-01
3.832000000000000000e+03 3.004026412963867188e+01 4.376065731048583984e+00 -1.833561778068542480e+00 -9.579981565475463867e-01 -8.374680280685424805e-01 -7.478356957435607910e-01
3.833000000000000000e+03 3.296326065063476562e+01 8.439323425292968750e+00 -1.205464720726013184e+00 -1.207383394241333008e+00 -7.238544225692749023e-01 -1.113622069358825684e+00
3.834000000000000000e+03 3.509804534912109375e+01 1.081997776031494141e+01 -1.150297999382019043e+00 -1.237125515937805176e+00 -7.162270545959472656e-01 -1.113960742950439453e+00
3.835000000000000000e+03 3.316474914550781250e+01 6.002254486083984375e+00 -1.216207027435302734e+00 -8.981710672378540039e-01 -6.343134045600891113e-01 -8.204507827758789062e-01
3.836000000000000000e+03 3.275181961059570312e+01 6.457255363464355469e+00 -1.284636855125427246e+00 -9.734137654304504395e-01 -6.774151921272277832e-01 -9.498836398124694824e-01
3.837000000000000000e+03 1.281360149383544922e+01 5.336201667785644531e+00 1.333916187286376953e-01 6.783322691917419434e-01 2.435171604156494141e-01 -8.619465678930282593e-02
3.838000000000000000e+03 5.374090194702148438e+01 3.154650497436523438e+01 -1.329572081565856934e+00 -4.080544784665107727e-02 -4.111132621765136719e-01 -8.280803561210632324e-01
3.839000000000000000e+03 7.017378997802734375e+01 2.998795700073242188e+01 -3.404700160026550293e-01 3.025316476821899414e+00 8.054538965225219727e-01 2.462291955947875977e+00
3.840000000000000000e+03 7.500502014160156250e+01 3.103599548339843750e+01 -1.739456892013549805e+00 1.522330760955810547e+01 4.045155048370361328e+00 -3.370717167854309082e-01
3.841000000000000000e+03 3.301203536987304688e+01 7.298480510711669922e+00 -1.229705214500427246e+00 -1.063353180885314941e+00 -6.879175305366516113e-01 -1.017856717109680176e+00
3.842000000000000000e+03 6.845474243164062500e+01 2.844040107727050781e+01 -2.423496246337890625e-01 2.153618335723876953e+00 5.733805894851684570e-01 1.459611058235168457e+00
3.843000000000000000e+03 2.640493392944335938e+01 -5.811962485313415527e-01 -4.850743338465690613e-02 -2.226128131151199341e-01 -8.133607357740402222e-02 -2.883799970149993896e-01
3.844000000000000000e+03 7.131794738769531250e+01 3.048414039611816406e+01 -3.685316145420074463e-01 4.832223892211914062e+00 1.339107751846313477e+00 3.530097007751464844e+00
3.845000000000000000e+03 6.351727485656738281e+00 7.530657768249511719e+00 1.046575903892517090e-01 -1.140465885400772095e-01 -2.816700609400868416e-03 5.097828432917594910e-02
3.846000000000000000e+03 5.763298034667968750e+00 6.228587627410888672e+00 8.969851583242416382e-02 -1.344856917858123779e-01 -1.343615166842937469e-02 9.414734691381454468e-02
3.847000000000000000e+03 1.338885402679443359e+01 6.705487251281738281e+00 8.605290204286575317e-02 4.801407158374786377e-01 1.698580831289291382e-01 5.614921823143959045e-02
3.848000000000000000e+03 3.048871994018554688e+01 2.498783493041992188e+01 5.312726646661758423e-02 9.276398271322250366e-02 4.376737400889396667e-02 7.480644434690475464e-02
3.849000000000000000e+03 2.520721435546875000e+01 1.087528944015502930e+00 -1.660963654518127441e+00 -2.556474208831787109e-01 -5.749832987785339355e-01 -6.072522401809692383e-01
3.850000000000000000e+03 7.411617279052734375e+01 2.608923339843750000e+01 -9.359014034271240234e-01 8.985734939575195312e+00 2.414950132369995117e+00 1.313028812408447266e+00
3.851000000000000000e+03 7.415715026855468750e+01 2.707190704345703125e+01 -1.234123706817626953e+00 9.577918052673339844e+00 2.503138065338134766e+00 1.358070492744445801e+00
3.852000000000000000e+03 7.297183990478515625e+01 2.473515129089355469e+01 -4.896151125431060791e-01 7.531050205230712891e+00 2.112430572509765625e+00 1.552944064140319824e+00
3.853000000000000000e+03 1.259001255035400391e+01 5.182504177093505859e+00 1.854837983846664429e-01 6.001050472259521484e-01 2.356766611337661743e-01 -1.583448052406311035e-01
3.854000000000000000e+03 5.403932571411132812e+01 3.098566818237304688e+01 -1.413697481155395508e+00 1.489587035030126572e-02 -4.196404814720153809e-01 -8.746533989906311035e-01
3.855000000000000000e+03 3.711249542236328125e+01 3.152537155151367188e+01 6.012125685811042786e-02 7.479357719421386719e-02 4.047444835305213928e-02 5.988459661602973938e-02
3.856000000000000000e+03 3.875660324096679688e+01 3.198519897460937500e+01 6.414515525102615356e-02 6.888129562139511108e-02 3.990793600678443909e-02 6.068467721343040466e-02
3.857000000000000000e+03 7.393309020996093750e+01 2.756485366821289062e+01 -1.333627581596374512e+00 9.517502784729003906e+00 2.455162525177001953e+00 1.613571047782897949e+00
3.858000000000000000e+03 3.627923965454101562e+01 3.170009231567382812e+01 5.641327798366546631e-02 7.675309479236602783e-02 3.994991257786750793e-02 5.797265470027923584e-02
3.859000000000000000e+03 5.523921966552734375e+01 2.979636192321777344e+01 -1.471171259880065918e+00 1.667650938034057617e-01 -3.913218379020690918e-01 -9.333779811859130859e-01
3.860000000000000000e+03 7.339490509033203125e+01 3.119744873046875000e+01 -1.831051826477050781e+00 1.318674659729003906e+01 3.406708478927612305e+00 3.940408706665039062e+00
3.861000000000000000e+03 3.270138549804687500e+01 2.652782058715820312e+01 5.528006702661514282e-02 8.782436698675155640e-02 4.293132945895195007e-02 7.010715454816818237e-02
3.862000000000000000e+03 6.658821105957031250e+01 2.747987747192382812e+01 -2.248646914958953857e-01 1.556874394416809082e+00 3.996029198169708252e-01 7.273678183555603027e-01
3.863000000000000000e+03 6.757491302490234375e+01 2.740742874145507812e+01 -1.050526648759841919e-01 2.081570148468017578e+00 5.929552316665649414e-01 1.162048816680908203e+00
3.864000000000000000e+03 7.295474529266357422e+00 6.601007938385009766e+00 1.410400569438934326e-01 -1.148671358823776245e-01 7.851876318454742432e-03 5.441403388977050781e-02
3.865000000000000000e+03 3.321640014648437500e+01 7.734797000885009766e+00 -1.191729426383972168e+00 -1.108260512351989746e+00 -6.899970173835754395e-01 -1.033336639404296875e+00
3.866000000000000000e+03 2.427095985412597656e+01 2.077997624874114990e-01 -8.832212090492248535e-01 1.390664279460906982e-01 -2.232464253902435303e-01 -6.972611546516418457e-01
3.867000000000000000e+03 2.469326210021972656e+01 5.031462311744689941e-01 -1.190551400184631348e+00 8.583651483058929443e-02 -3.314144611358642578e-01 -5.727996826171875000e-01
3.868000000000000000e+03 3.853506851196289062e+01 3.313426589965820312e+01 6.503973156213760376e-02 6.684609502553939819e-02 3.956574574112892151e-02 5.728793516755104065e-02
3.869000000000000000e+03 6.179223632812500000e+01 2.858784866333007812e+01 -1.172224044799804688e+00 3.898681104183197021e-01 -2.347067743539810181e-01 -5.877721309661865234e-01
3.870000000000000000e+03 6.209330749511718750e+01 2.697106361389160156e+01 -6.578899025917053223e-01 6.560952663421630859e-01 -5.383981042541563511e-04 -3.889314830303192139e-01
3.871000000000000000e+03 6.129928970336914062e+01 2.831654930114746094e+01 -1.113193154335021973e+00 4.003787636756896973e-01 -2.138443291187286377e-01 -6.432332992553710938e-01
3.872000000000000000e+03 4.025529861450195312e+01 3.394830703735351562e+01 7.273451983928680420e-02 5.881943553686141968e-02 3.946618735790252686e-02 5.711183324456214905e-02
3.873000000000000000e+03 3.163090324401855469e+01 -2.503306865692138672e+00 4.713316559791564941e-01 -6.226465106010437012e-01 -4.539445787668228149e-02 1.311419438570737839e-02
3.874000000000000000e+03 3.155379867553710938e+01 -3.466455221176147461e+00 6.563722491264343262e-01 -5.711709856986999512e-01 2.556038089096546173e-02 -5.848849192261695862e-02
3.875000000000000000e+03 8.366247177124023438e+00 5.624835491180419922e+00 1.930318772792816162e-01 -1.260010749101638794e-01 2.010923996567726135e-02 5.362582579255104065e-02
3.876000000000000000e+03 8.223914146423339844e+00 8.257173538208007812e+00 1.281606554985046387e-01 -3.111845441162586212e-02 2.911266312003135681e-02 -8.804265409708023071e-03
3.877000000000000000e+03 6.006211090087890625e+01 2.898379516601562500e+01 -1.372058033943176270e+00 3.200821280479431152e-01 -3.155927658081054688e-01 -7.879341840744018555e-01
3.878000000000000000e+03 6.037052536010742188e+01 2.808429336547851562e+01 -1.088599920272827148e+00 4.162228405475616455e-01 -2.017131447792053223e-01 -7.101988792419433594e-01
3.879000000000000000e+03 7.544938659667968750e+01 3.057851219177246094e+01 -1.662219405174255371e+00 1.409197807312011719e+01 3.728927612304687500e+00 -7.441241741180419922e-01
3.880000000000000000e+03 6.106737899780273438e+01 2.721629142761230469e+01 -8.085030913352966309e-01 5.295874476432800293e-01 -8.367469161748886108e-02 -5.698880553245544434e-01
3.881000000000000000e+03 6.297298431396484375e+01 2.780536270141601562e+01 -7.756605148315429688e-01 5.873981714248657227e-01 -5.647870525717735291e-02 -3.175786733627319336e-01
3.882000000000000000e+03 6.392136001586914062e+01 2.832596015930175781e+01 -8.527306318283081055e-01 5.731149315834045410e-01 -8.388471603393554688e-02 -2.022833228111267090e-01
3.883000000000000000e+03 5.775526428222656250e+01 2.817592620849609375e+01 -1.260537266731262207e+00 3.299815356731414795e-01 -2.791667282581329346e-01 -8.933151960372924805e-01
3.884000000000000000e+03 5.646967315673828125e+01 2.806906318664550781e+01 -1.281857252120971680e+00 2.696136832237243652e-01 -3.036730885505676270e-01 -9.211816787719726562e-01
3.885000000000000000e+03 3.939026641845703125e+01 3.248583602905273438e+01 6.643684953451156616e-02 6.473413854837417603e-02 3.935129567980766296e-02 6.021558493375778198e-02
3.886000000000000000e+03 7.624374389648437500e+00 -6.881431579589843750e+00 -2.290775924921035767e-01 -2.125208675861358643e-01 -1.324795335531234741e-01 -3.681549727916717529e-01
3.887000000000000000e+03 7.479641723632812500e+01 2.562288665771484375e+01 -8.080974817276000977e-01 9.330169677734375000e+00 2.556621789932250977e+00 9.667207002639770508e-01
3.888000000000000000e+03 7.438466644287109375e+01 2.790783309936523438e+01 -1.538773775100708008e+00 1.039521312713623047e+01 2.656931638717651367e+00 1.267380714416503906e+00
3.889000000000000000e+03 6.467597198486328125e+01 2.762446403503417969e+01 -5.253745913505554199e-01 8.799278736114501953e-01 1.063659861683845520e-01 8.225895464420318604e-02
3.890000000000000000e+03 6.538502502441406250e+01 2.830174255371093750e+01 -6.447973251342773438e-01 8.431932330131530762e-01 5.951877683401107788e-02 1.883046925067901611e-01
3.891000000000000000e+03 2.812797737121582031e+01 -1.146903753280639648e+00 2.374822050333023071e-01 -4.524889290332794189e-01 -6.450202316045761108e-02 -1.592077910900115967e-01
3.892000000000000000e+03 8.759622573852539062e+00 7.368890285491943359e+00 1.631924659013748169e-01 -2.541952393949031830e-02 4.133188351988792419e-02 -1.732913404703140259e-02
3.893000000000000000e+03 7.185385227203369141e+00 -9.394168853759765625e+00 -1.304108053445816040e-01 -3.678109049797058105e-01 -1.494665145874023438e-01 -4.429938197135925293e-01
3.894000000000000000e+03 9.060539245605468750e+00 -6.866281032562255859e+00 -3.017959892749786377e-01 -2.318618893623352051e-01 -1.600973606109619141e-01 -4.498484730720520020e-01
3.895000000000000000e+03 6.398769760131835938e+01 2.758064460754394531e+01 -6.039563417434692383e-01 7.499204277992248535e-01 4.378923028707504272e-02 -9.995117038488388062e-02
3.896000000000000000e+03 1.228654384613037109e+01 -1.096221637725830078e+01 5.295297130942344666e-03 -6.187115311622619629e-01 -1.840248703956604004e-01 -6.457799077033996582e-01
3.897000000000000000e+03 3.467433166503906250e+01 2.990176010131835938e+01 5.458319187164306641e-02 8.191338926553726196e-02 4.094897210597991943e-02 6.093908846378326416e-02
3.898000000000000000e+03 3.492222595214843750e+01 2.937775993347167969e+01 5.635984987020492554e-02 8.249918371438980103e-02 4.165770858526229858e-02 6.299821287393569946e-02
3.899000000000000000e+03 1.106102371215820312e+01 -6.810267448425292969e+00 -3.998400866985321045e-01 -3.506304919719696045e-01 -2.251411676406860352e-01 -6.231415867805480957e-01
3.900000000000000000e+03 1.111852550506591797e+01 5.924524307250976562e+00 2.234963029623031616e-01 1.791725307703018188e-01 1.208006516098976135e-01 -1.170919686555862427e-01
3.901000000000000000e+03 8.638226509094238281e+00 6.047363281250000000e+00 2.023311406373977661e-01 -1.000642552971839905e-01 3.068006783723831177e-02 2.081283368170261383e-02
3.902000000000000000e+03 7.458049011230468750e+01 2.730570602416992188e+01 -1.343614459037780762e+00 1.015667438507080078e+01 2.643917798995971680e+00 1.078758597373962402e+00
3.903000000000000000e+03 7.496342468261718750e+01 2.820374488830566406e+01 -1.626922369003295898e+00 1.112519359588623047e+01 2.849481344223022461e+00 7.483941912651062012e-01
3.904000000000000000e+03 3.128634834289550781e+01 -1.997586846351623535e+00 3.670355081558227539e-01 -6.319449543952941895e-01 -7.947283238172531128e-02 2.216816134750843048e-02
3.905000000000000000e+03 3.070854949951171875e+01 -2.364404678344726562e+00 4.993029534816741943e-01 -5.770282149314880371e-01 -2.331758104264736176e-02 -1.616377010941505432e-02
3.906000000000000000e+03 1.040228080749511719e+01 -6.763072490692138672e+00 -3.658904433250427246e-01 -2.789172530174255371e-01 -1.934423148632049561e-01 -5.457243323326110840e-01
3.907000000000000000e+03 7.103047943115234375e+01 -4.999459743499755859e+00 1.126566827297210693e-01 5.161045551300048828e+00 1.582110643386840820e+00 4.359728395938873291e-01
3.908000000000000000e+03 7.128712463378906250e+01 9.841413497924804688e-01 1.477550119161605835e-01 5.391888618469238281e+00 1.661893129348754883e+00 5.670231580734252930e-01
3.909000000000000000e+03 3.180533981323242188e+01 -4.643967151641845703e+00 7.843726873397827148e-01 -5.217810869216918945e-01 7.877747714519500732e-02 -1.204616650938987732e-01
3.910000000000000000e+03 3.276134490966796875e+01 -3.917290687561035156e+00 6.339707374572753906e-01 -6.172647476196289062e-01 5.011787638068199158e-03 -1.309284940361976624e-02
3.911000000000000000e+03 7.929975986480712891e+00 -1.526399898529052734e+01 5.822021514177322388e-02 -6.234321594238281250e-01 -1.695635765790939331e-01 -4.542543292045593262e-01
3.912000000000000000e+03 1.331711387634277344e+01 -1.142533969879150391e+01 2.491063810884952545e-02 -6.621016860008239746e-01 -1.911573112010955811e-01 -6.341087222099304199e-01
3.913000000000000000e+03 1.162237834930419922e+01 -7.617303848266601562e+00 -3.388307094573974609e-01 -4.459241330623626709e-01 -2.354264557361602783e-01 -6.902279853820800781e-01
3.914000000000000000e+03 1.173432064056396484e+01 -6.918763160705566406e+00 -4.000033736228942871e-01 -3.651976883411407471e-01 -2.295603156089782715e-01 -6.408182382583618164e-01
3.915000000000000000e+03 1.433863067626953125e+01 -1.468840408325195312e+01 1.968304067850112915e-01 -5.890301465988159180e-01 -1.176599264144897461e-01 -4.951158761978149414e-01
3.916000000000000000e+03 3.502746200561523438e+01 -4.778500080108642578e+00 5.988245606422424316e-01 -6.257238984107971191e-01 -8.069792762398719788e-03 -2.650196664035320282e-03
3.917000000000000000e+03 1.378390979766845703e+01 -1.353847789764404297e+01 1.477406769990921021e-01 -6.410106420516967773e-01 -1.479809880256652832e-01 -5.465967655181884766e-01
3.918000000000000000e+03 7.213197326660156250e+01 -9.793898582458496094e+00 6.783721596002578735e-02 5.283112525939941406e+00 1.605284810066223145e+00 3.053306937217712402e-01
3.919000000000000000e+03 6.939009857177734375e+01 -1.237164497375488281e+01 9.176597744226455688e-02 4.673174858093261719e+00 1.429482340812683105e+00 3.248101174831390381e-01
3.920000000000000000e+03 7.174568939208984375e+01 -3.572200298309326172e+00 1.109901964664459229e-01 5.377320766448974609e+00 1.646493196487426758e+00 4.408890604972839355e-01
3.921000000000000000e+03 7.029936218261718750e+01 -3.091358661651611328e+00 1.434570848941802979e-01 5.072294235229492188e+00 1.564725399017333984e+00 4.809601306915283203e-01
3.922000000000000000e+03 7.261125183105468750e+01 -7.939749240875244141e+00 6.939006596803665161e-02 5.426436424255371094e+00 1.648748040199279785e+00 3.279532790184020996e-01
3.923000000000000000e+03 7.057454681396484375e+01 -1.028756237030029297e+01 9.133759886026382446e-02 4.931049823760986328e+00 1.506716132164001465e+00 3.425223827362060547e-01
3.924000000000000000e+03 7.210588073730468750e+01 5.490207672119140625e+00 1.578207910060882568e-01 5.813696384429931641e+00 1.791455149650573730e+00 6.632986664772033691e-01
3.925000000000000000e+03 7.098170471191406250e+01 4.383713722229003906e+00 1.837832927703857422e-01 5.445022106170654297e+00 1.688641667366027832e+00 6.663275361061096191e-01
3.926000000000000000e+03 7.041348266601562500e+01 -2.336924362182617188e+01 3.187378868460655212e-02 4.706264495849609375e+00 1.421441555023193359e+00 2.057052105665206909e-01
3.927000000000000000e+03 7.034290313720703125e+01 -1.707802391052246094e+01 5.442784726619720459e-02 4.780941963195800781e+00 1.450610995292663574e+00 2.525843083858489990e-01
3.928000000000000000e+03 7.109140777587890625e+01 -1.813458442687988281e+01 4.397349432110786438e-02 4.888670921325683594e+00 1.479793310165405273e+00 2.360654175281524658e-01
3.929000000000000000e+03 1.212164592742919922e+01 -9.069015502929687500e+00 -1.576211452484130859e-01 -5.724559426307678223e-01 -2.190231382846832275e-01 -6.964778900146484375e-01
3.930000000000000000e+03 9.194736480712890625e+00 -7.772440910339355469e+00 -2.432466149330139160e-01 -3.295277059078216553e-01 -1.718322932720184326e-01 -5.148527622222900391e-01
3.931000000000000000e+03 7.053776264190673828e+00 1.688636207580566406e+01 4.560246132314205170e-03 -3.539366275072097778e-02 -9.250025264918804169e-03 -2.362388744950294495e-02
3.932000000000000000e+03 7.804783344268798828e+00 1.146770191192626953e+01 5.350607633590698242e-02 -1.420705672353506088e-02 1.178970653563737869e-02 -1.622162014245986938e-02
3.933000000000000000e+03 8.604710578918457031e+00 1.442492103576660156e+01 1.889290101826190948e-02 1.803798601031303406e-02 1.107926573604345322e-02 -1.762042380869388580e-02
3.934000000000000000e+03 7.156824493408203125e+01 1.911828804016113281e+01 1.951938718557357788e-01 6.020216464996337891e+00 1.864623069763183594e+00 1.223078370094299316e+00
3.935000000000000000e+03 7.206121826171875000e+01 1.678494453430175781e+01 2.083597779273986816e-01 6.195965290069580078e+00 1.921297550201416016e+00 1.098204493522644043e+00
3.936000000000000000e+03 7.206525421142578125e+01 1.267917728424072266e+01 2.213186770677566528e-01 6.075231552124023438e+00 1.888965010643005371e+00 9.235060214996337891e-01
3.937000000000000000e+03 3.888956069946289062e+01 -7.974941253662109375e+00 5.627487897872924805e-01 -3.966431915760040283e-01 4.983167350292205811e-02 -4.727914929389953613e-03
3.938000000000000000e+03 7.180509948730468750e+01 7.660024642944335938e+00 1.839748024940490723e-01 5.786734580993652344e+00 1.791212797164916992e+00 7.459589838981628418e-01
3.939000000000000000e+03 3.833907699584960938e+01 -8.921411514282226562e+00 5.696141719818115234e-01 -4.092815816402435303e-01 4.809978231787681580e-02 -3.019167296588420868e-02
3.940000000000000000e+03 9.046933174133300781e+00 2.439598464965820312e+01 -8.954519405961036682e-03 -1.414401456713676453e-02 -6.929560098797082901e-03 -1.396838296204805374e-02
3.941000000000000000e+03 1.811011886596679688e+01 -1.835884284973144531e+01 2.487689405679702759e-01 -2.751273214817047119e-01 -7.907511666417121887e-03 -3.411540687084197998e-01
3.942000000000000000e+03 1.839869880676269531e+01 -2.124507331848144531e+01 2.259408533573150635e-01 -1.875544488430023193e-01 1.151592284440994263e-02 -3.368099927902221680e-01
3.943000000000000000e+03 7.138835906982421875e+01 1.810218620300292969e+01 2.302862554788589478e-01 5.891053199768066406e+00 1.836401939392089844e+00 1.177910327911376953e+00
3.944000000000000000e+03 9.826156616210937500e+00 2.334353637695312500e+01 -8.857053704559803009e-03 2.259849570691585541e-03 -1.979161053895950317e-03 -1.191880553960800171e-02
3.945000000000000000e+03 1.117740535736083984e+01 2.582587432861328125e+01 -9.734943509101867676e-03 1.261293608695268631e-02 8.633979596197605133e-04 -5.634723231196403503e-03
3.946000000000000000e+03 7.114982604980468750e+01 1.251456737518310547e+01 2.542528212070465088e-01 5.665704727172851562e+00 1.775987267494201660e+00 9.351725578308105469e-01
3.947000000000000000e+03 1.496539592742919922e+01 -1.593081665039062500e+01 2.214716672897338867e-01 -5.556373596191406250e-01 -1.002497076988220215e-01 -4.498338103294372559e-01
3.948000000000000000e+03 1.157100391387939453e+01 2.997806167602539062e+01 -9.648970328271389008e-03 3.412053454667329788e-03 -1.871075015515089035e-03 -4.424872808158397675e-03
3.949000000000000000e+03 9.342555046081542969e+00 2.964538955688476562e+01 -8.729823864996433258e-03 -2.301482670009136200e-02 -9.523395448923110962e-03 -9.765439666807651520e-03
3.950000000000000000e+03 7.338757514953613281e+00 -1.155403423309326172e+01 -4.880197718739509583e-02 -4.812161624431610107e-01 -1.590054333209991455e-01 -4.658229649066925049e-01
3.951000000000000000e+03 8.203619003295898438e+00 -8.655169486999511719e+00 -1.951754838228225708e-01 -3.437916040420532227e-01 -1.616901308298110962e-01 -4.904939830303192139e-01
3.952000000000000000e+03 7.180258178710937500e+01 1.368681907653808594e+01 2.327119857072830200e-01 5.975878238677978516e+00 1.862576961517333984e+00 9.669570922851562500e-01
3.953000000000000000e+03 4.316242980957031250e+01 -1.904078102111816406e+01 1.170205399394035339e-01 1.078279465436935425e-01 6.745454668998718262e-02 8.999216556549072266e-02
3.954000000000000000e+03 6.685795783996582031e+00 -1.549314785003662109e+01 3.828256949782371521e-02 -6.461775302886962891e-01 -1.823684871196746826e-01 -4.116345345973968506e-01
3.955000000000000000e+03 9.769674301147460938e+00 1.727586746215820312e+01 2.669770736247301102e-03 3.438843041658401489e-02 1.111746113747358322e-02 -1.110172178596258163e-02
3.956000000000000000e+03 4.069095230102539062e+01 -8.674178123474121094e+00 5.365660786628723145e-01 -2.445087283849716187e-01 8.761721104383468628e-02 1.527224387973546982e-02
3.957000000000000000e+03 8.655600547790527344e+00 -2.230103874206542969e+01 1.050356104969978333e-01 -7.679840922355651855e-01 -1.988845467567443848e-01 -3.425402045249938965e-01
3.958000000000000000e+03 8.440177917480468750e+00 -1.938057327270507812e+01 9.904609620571136475e-02 -7.247526049613952637e-01 -1.877119541168212891e-01 -3.953067660331726074e-01
3.959000000000000000e+03 8.113286018371582031e+00 -1.660215377807617188e+01 7.368161529302597046e-02 -6.698825955390930176e-01 -1.788602918386459351e-01 -4.407628476619720459e-01
3.960000000000000000e+03 1.496985149383544922e+01 8.671668052673339844e+00 9.134298563003540039e-02 3.149794340133666992e-01 1.218967214226722717e-01 1.378880590200424194e-01
3.961000000000000000e+03 7.135808563232421875e+01 -2.224604606628417969e+01 3.116864711046218872e-02 4.875178337097167969e+00 1.471904039382934570e+00 2.008387148380279541e-01
3.962000000000000000e+03 1.650762939453125000e+01 -2.267623138427734375e+01 2.185612469911575317e-01 -3.307395279407501221e-01 -3.365349024534225464e-02 -3.552490174770355225e-01
3.963000000000000000e+03 1.938806724548339844e+01 -2.361609458923339844e+01 2.405594140291213989e-01 -8.042804151773452759e-02 4.803941026329994202e-02 -3.213388323783874512e-01
3.964000000000000000e+03 1.463567256927490234e+01 9.514847755432128906e+00 7.173926383256912231e-02 2.835615575313568115e-01 1.065902486443519592e-01 1.054182648658752441e-01
3.965000000000000000e+03 7.544956207275390625e+00 1.261745262145996094e+01 3.897522017359733582e-02 -1.650251261889934540e-02 6.741811521351337433e-03 -1.842164248228073120e-02
3.966000000000000000e+03 8.931110382080078125e+00 2.251319694519042969e+01 -8.366970345377922058e-03 -9.585068561136722565e-03 -5.385611671954393387e-03 -1.577982306480407715e-02
3.967000000000000000e+03 1.479821491241455078e+01 -1.288217926025390625e+01 1.674194484949111938e-01 -6.435949802398681641e-01 -1.428526639938354492e-01 -5.357639789581298828e-01
3.968000000000000000e+03 4.293788909912109375e+01 -1.209186553955078125e+01 4.235480725765228271e-01 5.237416923046112061e-02 1.427766680717468262e-01 3.212729096412658691e-02
3.969000000000000000e+03 4.942864990234375000e+01 -2.571967124938964844e+01 -5.267357826232910156e-02 1.189759016036987305e+00 3.411256372928619385e-01 1.660431474447250366e-01
3.970000000000000000e+03 4.242160034179687500e+01 -1.488273811340332031e+01 3.071985840797424316e-01 2.064343169331550598e-02 9.835260361433029175e-02 3.389434888958930969e-02
3.971000000000000000e+03 4.282030487060546875e+01 -1.092162036895751953e+01 4.692155420780181885e-01 1.563718914985656738e-02 1.454558223485946655e-01 3.644271939992904663e-02
3.972000000000000000e+03 8.688405036926269531e+00 -2.380149269104003906e+01 1.051715463399887085e-01 -7.808318734169006348e-01 -2.026980966329574585e-01 -3.082559704780578613e-01
3.973000000000000000e+03 8.124119758605957031e+00 1.497402191162109375e+01 1.617960818111896515e-02 3.558092750608921051e-03 5.921310279518365860e-03 -2.023507095873355865e-02
3.974000000000000000e+03 7.963975429534912109e+00 1.583325386047363281e+01 1.030475366860628128e-02 -5.881472025066614151e-03 1.326984609477221966e-03 -2.168472297489643097e-02
3.975000000000000000e+03 3.347175216674804688e+01 -3.680621623992919922e+00 5.885637998580932617e-01 -6.456046104431152344e-01 -1.711224578320980072e-02 -1.104767993092536926e-02
3.976000000000000000e+03 9.866984367370605469e+00 2.022767066955566406e+01 -5.142583511769771576e-03 1.884587109088897705e-02 4.110986366868019104e-03 -1.140363421291112900e-02
3.977000000000000000e+03 8.335285186767578125e+00 1.886537170410156250e+01 -2.975194249302148819e-03 -8.478265255689620972e-03 -3.436037804931402206e-03 -1.854562014341354370e-02
3.978000000000000000e+03 1.824511146545410156e+01 -2.398985671997070312e+01 2.262732088565826416e-01 -1.887284964323043823e-01 1.126341521739959717e-02 -3.318018019199371338e-01
3.979000000000000000e+03 2.062973785400390625e+01 -2.846331214904785156e+01 2.698981761932373047e-01 8.844660595059394836e-03 8.362285047769546509e-02 -3.078827559947967529e-01
3.980000000000000000e+03 1.011746025085449219e+01 2.511227226257324219e+01 -9.358171373605728149e-03 1.139756277552805841e-04 -2.773258835077285767e-03 -1.022088248282670975e-02
3.981000000000000000e+03 7.006461334228515625e+01 -2.995497894287109375e+01 4.773556068539619446e-02 4.561593055725097656e+00 1.382798552513122559e+00 1.770751923322677612e-01
3.982000000000000000e+03 1.968597602844238281e+01 -2.689824485778808594e+01 2.428468018770217896e-01 -8.235749602317810059e-02 4.814679175615310669e-02 -3.192557096481323242e-01
3.983000000000000000e+03 7.259011077880859375e+01 2.345212745666503906e+01 -2.117524892091751099e-01 6.953644752502441406e+00 2.022567749023437500e+00 1.467531323432922363e+00
3.984000000000000000e+03 7.178610229492187500e+01 2.126890373229980469e+01 6.156680732965469360e-02 6.204158306121826172e+00 1.879717469215393066e+00 1.350205421447753906e+00
3.985000000000000000e+03 6.967271423339843750e+01 -1.418322086334228516e+01 7.745394110679626465e-02 4.708049297332763672e+00 1.435650944709777832e+00 2.951034307479858398e-01
3.986000000000000000e+03 4.899138641357421875e+01 -2.417554092407226562e+01 -2.600846439599990845e-02 1.082031607627868652e+00 3.168069422245025635e-01 1.363437622785568237e-01
3.987000000000000000e+03 4.844066238403320312e+01 -2.263691902160644531e+01 2.041556499898433685e-02 9.609218239784240723e-01 2.944012284278869629e-01 1.135388240218162537e-01
3.988000000000000000e+03 6.933050537109375000e+01 6.440216064453125000e+00 2.522161602973937988e-01 4.959650516510009766e+00 1.563559889793395996e+00 7.686517834663391113e-01
3.989000000000000000e+03 2.179295730590820312e+01 -3.303322601318359375e+01 3.246131241321563721e-01 4.379691928625106812e-02 1.105230078101158142e-01 -2.534399330615997314e-01
3.990000000000000000e+03 2.015040016174316406e+01 -3.145404052734375000e+01 2.732964158058166504e-01 -6.159543991088867188e-02 6.351029127836227417e-02 -2.672054767608642578e-01
3.991000000000000000e+03 7.108515167236328125e+01 -9.139069557189941406e+00 8.852058649063110352e-02 5.072742938995361328e+00 1.548379063606262207e+00 3.479333817958831787e-01
3.992000000000000000e+03 6.939237213134765625e+01 -2.456088829040527344e+01 3.722668439149856567e-02 4.521816730499267578e+00 1.367713093757629395e+00 2.161623537540435791e-01
3.993000000000000000e+03 7.138304901123046875e+01 9.757102012634277344e+00 2.217914462089538574e-01 5.734118938446044922e+00 1.786773085594177246e+00 8.369212150573730469e-01
3.994000000000000000e+03 7.088533782958984375e+01 9.025986671447753906e+00 2.399725168943405151e-01 5.541446208953857422e+00 1.734425663948059082e+00 8.215762972831726074e-01
3.995000000000000000e+03 1.003372001647949219e+01 -2.857259941101074219e+01 1.159437820315361023e-01 -7.551204562187194824e-01 -1.917530000209808350e-01 -2.441304028034210205e-01
3.996000000000000000e+03 2.359485244750976562e+01 -3.448894882202148438e+01 3.929035067558288574e-01 1.665096282958984375e-01 1.678239405155181885e-01 -2.427107542753219604e-01
3.997000000000000000e+03 8.568727493286132812e+00 -2.082808876037597656e+01 1.088458448648452759e-01 -7.372621297836303711e-01 -1.885248869657516479e-01 -3.643489778041839600e-01
3.998000000000000000e+03 7.249466419219970703e+00 -2.244943046569824219e+01 8.150014281272888184e-02 -8.283435702323913574e-01 -2.240530252456665039e-01 -3.065200746059417725e-01
3.999000000000000000e+03 2.497631072998046875e+01 1.447315931320190430e+00 -2.165601015090942383e+00 -2.320276051759719849e-01 -7.192885875701904297e-01 -7.895799875259399414e-01
4.000000000000000000e+03 2.712620925903320312e+01 2.452375173568725586e+00 -2.047473907470703125e+00 -6.442227959632873535e-01 -8.075090050697326660e-01 -7.133098244667053223e-01
4.001000000000000000e+03 2.791958999633789062e+01 3.047865390777587891e+00 -2.058753013610839844e+00 -8.172243833541870117e-01 -8.627932667732238770e-01 -7.703640460968017578e-01
4.002000000000000000e+03 2.743122291564941406e+01 -5.239579826593399048e-02 -3.270417153835296631e-01 -3.674663603305816650e-01 -2.083524316549301147e-01 -9.887772053480148315e-02
4.003000000000000000e+03 2.684677314758300781e+01 2.309959888458251953e+00 -2.077728986740112305e+00 -6.614656448364257812e-01 -8.217583298683166504e-01 -7.429562807083129883e-01
4.004000000000000000e+03 7.259958648681640625e+01 3.095828819274902344e+01 -9.894018173217773438e-01 9.106091499328613281e+00 2.435006856918334961e+00 4.538634777069091797e+00
4.005000000000000000e+03 2.791105842590332031e+01 2.266097068786621094e+00 -1.689166545867919922e+00 -7.280480265617370605e-01 -7.251643538475036621e-01 -5.357007980346679688e-01
4.006000000000000000e+03 3.039296722412109375e+01 -1.782955408096313477e+00 3.480626344680786133e-01 -5.710453987121582031e-01 -6.689482927322387695e-02 -6.584057584404945374e-03
4.007000000000000000e+03 1.776249504089355469e+01 1.228217506408691406e+01 8.576531708240509033e-02 1.966276168823242188e-01 8.471788465976715088e-02 1.265211552381515503e-01
4.008000000000000000e+03 4.150106430053710938e+01 1.837380790710449219e+01 -1.064618229866027832e+00 -1.153473258018493652e+00 -6.654274463653564453e-01 -1.228014945983886719e+00
4.009000000000000000e+03 4.181115722656250000e+01 1.922877883911132812e+01 -1.091627717018127441e+00 -1.193182826042175293e+00 -6.854431629180908203e-01 -1.258816599845886230e+00
4.010000000000000000e+03 3.444444274902343750e+01 1.062660408020019531e+01 -1.196503281593322754e+00 -1.269077062606811523e+00 -7.396740913391113281e-01 -1.153785467147827148e+00
4.011000000000000000e+03 4.137133026123046875e+01 1.801792144775390625e+01 -1.058371543884277344e+00 -1.144281268119812012e+00 -6.607958674430847168e-01 -1.212924361228942871e+00
4.012000000000000000e+03 8.457906723022460938e+00 1.254271984100341797e+01 4.269709438085556030e-02 1.936605945229530334e-02 1.861894689500331879e-02 -2.037794329226016998e-02
4.013000000000000000e+03 4.295436477661132812e+01 1.985052871704101562e+01 -1.081354379653930664e+00 -1.153677940368652344e+00 -6.705096960067749023e-01 -1.207215189933776855e+00
4.014000000000000000e+03 4.240099716186523438e+01 1.958382034301757812e+01 -1.087124943733215332e+00 -1.179074287414550781e+00 -6.798597574234008789e-01 -1.235386133193969727e+00
4.015000000000000000e+03 3.409320449829101562e+01 2.851189613342285156e+01 5.518614500761032104e-02 8.429224789142608643e-02 4.184351861476898193e-02 6.511011719703674316e-02
4.016000000000000000e+03 4.187752532958984375e+01 1.819455337524414062e+01 -1.028631210327148438e+00 -1.114553332328796387e+00 -6.429553627967834473e-01 -1.190233111381530762e+00
4.017000000000000000e+03 1.499482154846191406e+01 8.377426147460937500e+00 9.664177149534225464e-02 3.310601413249969482e-01 1.283105760812759399e-01 1.480237394571304321e-01
4.018000000000000000e+03 1.505952453613281250e+01 9.382411956787109375e+00 8.202350139617919922e-02 2.891998589038848877e-01 1.113670021295547485e-01 1.237988546490669250e-01
4.019000000000000000e+03 4.796726989746093750e+01 2.442190933227539062e+01 -1.241959571838378906e+00 -8.731073737144470215e-01 -6.345200538635253906e-01 -1.135542631149291992e+00
4.020000000000000000e+03 2.769556999206542969e+01 2.166053390502929688e+01 6.329691410064697266e-02 1.060037612915039062e-01 5.079020187258720398e-02 8.498021215200424194e-02
4.021000000000000000e+03 2.857734107971191406e+01 2.216789436340332031e+01 6.334292143583297729e-02 1.015776768326759338e-01 4.947618022561073303e-02 8.346933126449584961e-02
4.022000000000000000e+03 1.964458847045898438e+01 1.301740360260009766e+01 1.011569127440452576e-01 1.725972443819046021e-01 8.212624490261077881e-02 1.306589543819427490e-01
4.023000000000000000e+03 1.914660835266113281e+01 1.287140560150146484e+01 9.746684879064559937e-02 1.786000728607177734e-01 8.282007277011871338e-02 1.306033432483673096e-01
4.024000000000000000e+03 4.392476272583007812e+01 2.141348648071289062e+01 -1.198876261711120605e+00 -1.183564066886901855e+00 -7.147321105003356934e-01 -1.228389382362365723e+00
4.025000000000000000e+03 4.799328613281250000e+01 2.477420806884765625e+01 -1.267452478408813477e+00 -8.937909007072448730e-01 -6.483730077743530273e-01 -1.157064557075500488e+00
4.026000000000000000e+03 4.860513687133789062e+01 2.562092399597167969e+01 -1.286893963813781738e+00 -8.742739558219909668e-01 -6.483503580093383789e-01 -1.158486723899841309e+00
4.027000000000000000e+03 4.095684814453125000e+01 1.767688369750976562e+01 -1.068898797035217285e+00 -1.152487277984619141e+00 -6.664158105850219727e-01 -1.211799621582031250e+00
4.028000000000000000e+03 2.023035049438476562e+01 1.375127887725830078e+01 9.845130890607833862e-02 1.634501814842224121e-01 7.857044786214828491e-02 1.253271847963333130e-01
4.029000000000000000e+03 2.328170013427734375e+01 1.742178344726562500e+01 7.791412621736526489e-02 1.336054056882858276e-01 6.345585733652114868e-02 1.036089360713958740e-01
4.030000000000000000e+03 4.626357269287109375e+01 2.363874244689941406e+01 -1.302736759185791016e+00 -1.072708725929260254e+00 -7.126336693763732910e-01 -1.201227784156799316e+00
4.031000000000000000e+03 4.724070739746093750e+01 2.366389656066894531e+01 -1.227087736129760742e+00 -9.206264019012451172e-01 -6.443142294883728027e-01 -1.133076190948486328e+00
4.032000000000000000e+03 4.889089965820312500e+01 2.588624572753906250e+01 -1.289695978164672852e+00 -8.515780568122863770e-01 -6.423822045326232910e-01 -1.146969199180603027e+00
4.033000000000000000e+03 2.324275779724121094e+01 1.875448226928710938e+01 6.418844312429428101e-02 1.287872940301895142e-01 5.789272114634513855e-02 9.277913719415664673e-02
4.034000000000000000e+03 2.013100433349609375e+01 1.413315200805664062e+01 9.152955561876296997e-02 1.634409278631210327e-01 7.649114727973937988e-02 1.205788552761077881e-01
4.035000000000000000e+03 3.645457077026367188e+01 1.359552192687988281e+01 -1.176916360855102539e+00 -1.356336236000061035e+00 -7.599757909774780273e-01 -1.230070710182189941e+00
4.036000000000000000e+03 2.295517921447753906e+01 1.721266174316406250e+01 7.769551873207092285e-02 1.356509029865264893e-01 6.400392204523086548e-02 1.043597012758255005e-01
4.037000000000000000e+03 3.562934494018554688e+01 1.275428771972656250e+01 -1.206932783126831055e+00 -1.355161309242248535e+00 -7.686282396316528320e-01 -1.226376891136169434e+00
4.038000000000000000e+03 3.644829940795898438e+01 1.306443023681640625e+01 -1.158144354820251465e+00 -1.313311576843261719e+00 -7.414367794990539551e-01 -1.189231514930725098e+00
4.039000000000000000e+03 4.445224761962890625e+01 2.148660087585449219e+01 -1.171182751655578613e+00 -1.136995196342468262e+00 -6.924533843994140625e-01 -1.192706942558288574e+00
4.040000000000000000e+03 2.117548942565917969e+01 1.527912902832031250e+01 8.658273518085479736e-02 1.524009704589843750e-01 7.169511169195175171e-02 1.128281429409980774e-01
4.041000000000000000e+03 2.274338531494140625e+01 1.637229919433593750e+01 8.539886027574539185e-02 1.403585225343704224e-01 6.772721558809280396e-02 1.099080294370651245e-01
4.042000000000000000e+03 3.161663818359375000e+01 2.622231101989746094e+01 5.226300656795501709e-02 8.959502726793289185e-02 4.255741089582443237e-02 7.086236774921417236e-02
4.043000000000000000e+03 2.725662040710449219e+01 2.108717536926269531e+01 6.669689714908599854e-02 1.088340654969215393e-01 5.265928804874420166e-02 8.771780878305435181e-02
4.044000000000000000e+03 2.777183723449707031e+01 2.113696289062500000e+01 6.885834038257598877e-02 1.059606522321701050e-01 5.244569852948188782e-02 8.782208710908889771e-02
4.045000000000000000e+03 5.003274154663085938e+01 2.738891029357910156e+01 -1.348016142845153809e+00 -7.629417777061462402e-01 -6.332873702049255371e-01 -1.103734731674194336e+00
4.046000000000000000e+03 2.359252738952636719e+01 1.758145713806152344e+01 7.928068935871124268e-02 1.303652822971343994e-01 6.289379298686981201e-02 1.033683717250823975e-01
4.047000000000000000e+03 7.417162322998046875e+01 3.056243133544921875e+01 -2.251101016998291016e+00 1.374886226654052734e+01 3.449328422546386719e+00 1.817614436149597168e+00
4.048000000000000000e+03 3.468204116821289062e+01 1.226586723327636719e+01 -1.251148700714111328e+00 -1.393750905990600586e+00 -7.934698462486267090e-01 -1.268598556518554688e+00
4.049000000000000000e+03 2.618776130676269531e+01 1.925137710571289062e+01 7.950622588396072388e-02 1.167555823922157288e-01 5.887854471802711487e-02 9.634789079427719116e-02
4.050000000000000000e+03 2.528718948364257812e+01 1.877591705322265625e+01 7.892924547195434570e-02 1.208374053239822388e-01 5.992999672889709473e-02 9.741962701082229614e-02
4.051000000000000000e+03 1.554949474334716797e+01 9.712852478027343750e+00 8.859641849994659424e-02 2.685814499855041504e-01 1.071533635258674622e-01 1.328770965337753296e-01
4.052000000000000000e+03 3.012366294860839844e+01 -1.198981642723083496e+00 1.906494051218032837e-01 -6.108456850051879883e-01 -1.260588914155960083e-01 1.064705662429332733e-02
4.053000000000000000e+03 3.985779953002929688e+01 1.670422744750976562e+01 -1.107371449470520020e+00 -1.208306908607482910e+00 -6.947035193443298340e-01 -1.197573781013488770e+00
4.054000000000000000e+03 3.726621627807617188e+01 1.390172195434570312e+01 -1.131597399711608887e+00 -1.305058360099792480e+00 -7.309967279434204102e-01 -1.183949470520019531e+00
4.055000000000000000e+03 3.328713989257812500e+01 2.781761741638183594e+01 5.368001386523246765e-02 8.629024028778076172e-02 4.199107736349105835e-02 6.681621074676513672e-02
4.056000000000000000e+03 4.309989547729492188e+01 2.018947792053222656e+01 -1.105972647666931152e+00 -1.166218519210815430e+00 -6.816573739051818848e-01 -1.214387655258178711e+00
4.057000000000000000e+03 4.401456832885742188e+01 2.094139671325683594e+01 -1.135656118392944336e+00 -1.139349937438964844e+00 -6.825018525123596191e-01 -1.189707279205322266e+00
4.058000000000000000e+03 4.934633255004882812e+01 2.705152893066406250e+01 -1.349800467491149902e+00 -8.750798106193542480e-01 -6.674640774726867676e-01 -1.156183958053588867e+00
4.059000000000000000e+03 2.529103279113769531e+01 8.286790251731872559e-01 -1.415131688117980957e+00 -1.412207037210464478e-01 -4.669057428836822510e-01 -5.842845439910888672e-01
4.060000000000000000e+03 3.338822174072265625e+01 2.842774963378906250e+01 5.309553071856498718e-02 8.550116419792175293e-02 4.157900810241699219e-02 6.475801020860671997e-02
4.061000000000000000e+03 5.167217636108398438e+01 2.852093315124511719e+01 -1.366847276687622070e+00 -4.575292766094207764e-01 -5.473129749298095703e-01 -1.006770133972167969e+00
4.062000000000000000e+03 5.049783325195312500e+01 2.830736923217773438e+01 -1.381178736686706543e+00 -7.388216853141784668e-01 -6.360000967979431152e-01 -1.088718771934509277e+00
4.063000000000000000e+03 2.674743843078613281e+01 2.103292274475097656e+01 6.411799788475036621e-02 1.114017888903617859e-01 5.265593528747558594e-02 8.722075819969177246e-02
4.064000000000000000e+03 2.639363670349121094e+01 2.008564758300781250e+01 7.167465239763259888e-02 1.141575500369071960e-01 5.574966222047805786e-02 9.158715605735778809e-02
4.065000000000000000e+03 2.656966590881347656e+01 1.974141311645507812e+01 7.594174891710281372e-02 1.141382902860641479e-01 5.702400952577590942e-02 9.400268644094467163e-02
4.066000000000000000e+03 2.393492317199707031e+01 1.769404220581054688e+01 8.090965449810028076e-02 1.288157254457473755e-01 6.291761249303817749e-02 1.033889576792716980e-01
4.067000000000000000e+03 4.469410324096679688e+01 2.174282455444335938e+01 -1.185961365699768066e+00 -1.131334543228149414e+00 -6.951887607574462891e-01 -1.189887642860412598e+00
4.068000000000000000e+03 4.327486038208007812e+01 2.051691246032714844e+01 -1.131814956665039062e+00 -1.176495790481567383e+00 -6.924932003021240234e-01 -1.219530820846557617e+00
4.069000000000000000e+03 4.955322265625000000e+01 2.735004425048828125e+01 -1.359820008277893066e+00 -8.599345684051513672e-01 -6.659263968467712402e-01 -1.145763754844665527e+00
4.070000000000000000e+03 3.749412536621093750e+01 1.423000717163085938e+01 -1.128258705139160156e+00 -1.310451626777648926e+00 -7.316130995750427246e-01 -1.191091179847717285e+00
4.071000000000000000e+03 2.613102912902832031e+01 1.575326442718505859e+00 -1.856631398200988770e+00 -4.236344695091247559e-01 -6.840797662734985352e-01 -6.178290843963623047e-01
4.072000000000000000e+03 2.071809387207031250e+01 1.475934982299804688e+01 8.902520686388015747e-02 1.570290476083755493e-01 7.381627708673477173e-02 1.161262691020965576e-01
4.073000000000000000e+03 2.144543647766113281e+01 1.503646659851074219e+01 9.262174367904663086e-02 1.519481837749481201e-01 7.337097823619842529e-02 1.165118664503097534e-01
4.074000000000000000e+03 4.600512695312500000e+01 2.341939353942871094e+01 -1.297793745994567871e+00 -1.095037817955017090e+00 -7.178494334220886230e-01 -1.203639268875122070e+00
4.075000000000000000e+03 4.669388961791992188e+01 2.357910346984863281e+01 -1.259855031967163086e+00 -1.003164172172546387e+00 -6.789057850837707520e-01 -1.163846850395202637e+00
4.076000000000000000e+03 3.773023986816406250e+01 1.452420520782470703e+01 -1.128732562065124512e+00 -1.311733365058898926e+00 -7.321397662162780762e-01 -1.191263198852539062e+00
4.077000000000000000e+03 5.071519088745117188e+01 2.801131439208984375e+01 -1.364579677581787109e+00 -6.708728075027465820e-01 -6.106357574462890625e-01 -1.065779924392700195e+00
4.078000000000000000e+03 5.305622482299804688e+01 2.902344131469726562e+01 -1.391876578330993652e+00 -1.751981675624847412e-01 -4.701224267482757568e-01 -9.552883505821228027e-01
4.079000000000000000e+03 2.195118713378906250e+01 1.559321212768554688e+01 8.918172121047973633e-02 1.473507136106491089e-01 7.095973193645477295e-02 1.133394390344619751e-01
4.080000000000000000e+03 3.798477172851562500e+01 1.478965663909912109e+01 -1.124066352844238281e+00 -1.305682182312011719e+00 -7.289245724678039551e-01 -1.190277814865112305e+00
4.081000000000000000e+03 1.943244552612304688e+01 1.268529987335205078e+01 1.033860966563224792e-01 1.758350878953933716e-01 8.376635611057281494e-02 1.346233040094375610e-01
4.082000000000000000e+03 3.953611373901367188e+01 1.652523803710937500e+01 -1.122524619102478027e+00 -1.235650420188903809e+00 -7.074524760246276855e-01 -1.199274301528930664e+00
4.083000000000000000e+03 3.825534057617187500e+01 1.503549766540527344e+01 -1.120393753051757812e+00 -1.295446753501892090e+00 -7.247521281242370605e-01 -1.183712601661682129e+00
4.084000000000000000e+03 2.551101875305175781e+01 1.922274208068847656e+01 7.547193020582199097e-02 1.193564236164093018e-01 5.844850465655326843e-02 9.499458223581314087e-02
4.085000000000000000e+03 4.382222366333007812e+01 2.065550804138183594e+01 -1.115911126136779785e+00 -1.137456417083740234e+00 -6.760102510452270508e-01 -1.186872005462646484e+00
4.086000000000000000e+03 4.494757461547851562e+01 2.198829078674316406e+01 -1.197494029998779297e+00 -1.122901797294616699e+00 -6.961187124252319336e-01 -1.186204671859741211e+00
4.087000000000000000e+03 5.313793182373046875e+01 2.974506187438964844e+01 -1.406093955039978027e+00 -1.673769950866699219e-01 -4.720412790775299072e-01 -9.386986494064331055e-01
4.088000000000000000e+03 4.922043991088867188e+01 2.615579986572265625e+01 -1.291553735733032227e+00 -8.144593834877014160e-01 -6.318039298057556152e-01 -1.129034757614135742e+00
4.089000000000000000e+03 1.422290325164794922e+01 8.272521972656250000e+00 8.108668029308319092e-02 3.494992554187774658e-01 1.291757822036743164e-01 1.080109626054763794e-01
4.090000000000000000e+03 1.470846748352050781e+01 8.504802703857421875e+00 8.887048065662384033e-02 3.290328979492187500e-01 1.253710091114044189e-01 1.285575777292251587e-01
4.091000000000000000e+03 3.883453369140625000e+01 1.550785350799560547e+01 -1.108806371688842773e+00 -1.260234117507934570e+00 -7.107121348381042480e-01 -1.173361659049987793e+00
4.092000000000000000e+03 7.437379455566406250e+01 3.095712089538574219e+01 -2.164669036865234375e+00 1.500295352935791016e+01 3.851485490798950195e+00 1.284225225448608398e+00
4.093000000000000000e+03 1.936834716796875000e+01 1.367544460296630859e+01 8.908930420875549316e-02 1.700592339038848877e-01 7.774455845355987549e-02 1.213097944855690002e-01
4.094000000000000000e+03 7.172525024414062500e+01 3.033065795898437500e+01 -5.366445779800415039e-01 6.082038879394531250e+00 1.663618326187133789e+00 3.808552980422973633e+00
4.095000000000000000e+03 5.044934082031250000e+01 2.782285118103027344e+01 -1.359395980834960938e+00 -7.037034630775451660e-01 -6.189298629760742188e-01 -1.079653143882751465e+00
4.096000000000000000e+03 4.967635726928710938e+01 2.686058998107910156e+01 -1.323913812637329102e+00 -7.932934761047363281e-01 -6.351621747016906738e-01 -1.118041992187500000e+00
4.097000000000000000e+03 3.922447967529296875e+01 1.630764770507812500e+01 -1.131140828132629395e+00 -1.263226270675659180e+00 -7.183101177215576172e-01 -1.203877568244934082e+00
4.098000000000000000e+03 4.982770538330078125e+01 2.716781234741210938e+01 -1.341288805007934570e+00 -7.916046380996704102e-01 -6.398680806159973145e-01 -1.116110086441040039e+00
4.099000000000000000e+03 2.094291496276855469e+01 1.501564693450927734e+01 8.776185661554336548e-02 1.543842703104019165e-01 7.264383882284164429e-02 1.145044714212417603e-01
4.100000000000000000e+03 7.344316864013671875e+01 2.966801643371582031e+01 -1.779950618743896484e+00 1.072037220001220703e+01 2.682126522064208984e+00 2.630861997604370117e+00
4.101000000000000000e+03 7.266865539550781250e+01 3.064909362792968750e+01 -1.178900003433227539e+00 9.345991134643554688e+00 2.450127363204956055e+00 4.127444744110107422e+00
4.102000000000000000e+03 3.504959869384765625e+01 1.143726158142089844e+01 -1.179654955863952637e+00 -1.297484636306762695e+00 -7.431418895721435547e-01 -1.169588565826416016e+00
4.103000000000000000e+03 3.534545898437500000e+01 1.242327594757080078e+01 -1.208615303039550781e+00 -1.354009985923767090e+00 -7.687875628471374512e-01 -1.226713418960571289e+00
4.104000000000000000e+03 2.479551696777343750e+01 1.907751274108886719e+01 7.239270210266113281e-02 1.219563558697700500e-01 5.830471590161323547e-02 9.460627287626266479e-02
4.105000000000000000e+03 3.351596450805664062e+01 1.000733375549316406e+01 -1.230537891387939453e+00 -1.288044810295104980e+00 -7.555748224258422852e-01 -1.174366354942321777e+00
4.106000000000000000e+03 3.360956954956054688e+01 9.319598197937011719e+00 -1.192949891090393066e+00 -1.228160142898559570e+00 -7.263330221176147461e-01 -1.114938497543334961e+00
4.107000000000000000e+03 4.233582687377929688e+01 1.917877578735351562e+01 -1.058853149414062500e+00 -1.154048681259155273e+00 -6.638705730438232422e-01 -1.217166066169738770e+00
4.108000000000000000e+03 4.138261795043945312e+01 1.767205429077148438e+01 -1.037644505500793457e+00 -1.117116808891296387e+00 -6.464284062385559082e-01 -1.185806632041931152e+00
4.109000000000000000e+03 4.574665069580078125e+01 2.318743324279785156e+01 -1.289190053939819336e+00 -1.115836739540100098e+00 -7.215080857276916504e-01 -1.206282377243041992e+00
4.110000000000000000e+03 2.932636260986328125e+01 2.302228164672851562e+01 5.920146778225898743e-02 9.836924076080322266e-02 4.727121442556381226e-02 8.111091703176498413e-02
4.111000000000000000e+03 2.862882804870605469e+01 2.269839477539062500e+01 5.891767144203186035e-02 1.011088863015174866e-01 4.800796881318092346e-02 8.151207119226455688e-02
4.112000000000000000e+03 2.576441001892089844e+01 1.938327026367187500e+01 7.501441985368728638e-02 1.174570173025131226e-01 5.774143338203430176e-02 9.425439685583114624e-02
4.113000000000000000e+03 4.364704132080078125e+01 2.035889434814453125e+01 -1.093539714813232422e+00 -1.129786849021911621e+00 -6.669979691505432129e-01 -1.182194232940673828e+00
4.114000000000000000e+03 3.588768005371093750e+01 1.301815032958984375e+01 -1.195692420005798340e+00 -1.356328487396240234e+00 -7.656062245368957520e-01 -1.229452013969421387e+00
4.115000000000000000e+03 3.223364257812500000e+01 2.657124519348144531e+01 5.352565273642539978e-02 8.837139606475830078e-02 4.256911575794219971e-02 6.993532180786132812e-02
4.116000000000000000e+03 2.247607994079589844e+01 1.660361862182617188e+01 8.087317645549774170e-02 1.402938216924667358e-01 6.635010242462158203e-02 1.072136685252189636e-01
4.117000000000000000e+03 2.875765037536621094e+01 2.318642234802246094e+01 5.603278800845146179e-02 1.005751416087150574e-01 4.698237776756286621e-02 7.999590039253234863e-02
4.118000000000000000e+03 3.913846206665039062e+01 1.573838233947753906e+01 -1.100833535194396973e+00 -1.238156199455261230e+00 -7.016969323158264160e-01 -1.170141935348510742e+00
4.119000000000000000e+03 3.303213119506835938e+01 2.818180465698242188e+01 5.192293226718902588e-02 8.632816374301910400e-02 4.147532582283020020e-02 6.527705490589141846e-02
4.120000000000000000e+03 3.249597930908203125e+01 2.761025047302246094e+01 5.146430805325508118e-02 8.754394203424453735e-02 4.170247539877891541e-02 6.690994650125503540e-02
4.121000000000000000e+03 2.999267196655273438e+01 2.477946281433105469e+01 5.237506702542304993e-02 9.464743733406066895e-02 4.410674795508384705e-02 7.557518780231475830e-02
4.122000000000000000e+03 1.688000488281250000e+01 1.108444499969482422e+01 8.937780559062957764e-02 2.216172665357589722e-01 9.329852461814880371e-02 1.327790319919586182e-01
4.123000000000000000e+03 1.772498893737792969e+01 1.144531059265136719e+01 9.801449626684188843e-02 2.065820246934890747e-01 9.137895703315734863e-02 1.392363160848617554e-01
4.124000000000000000e+03 5.332813262939453125e+01 2.861106872558593750e+01 -1.373840928077697754e+00 -1.077557578682899475e-01 -4.444789886474609375e-01 -9.526258707046508789e-01
4.125000000000000000e+03 4.284691619873046875e+01 1.951054191589355469e+01 -1.055291771888732910e+00 -1.137825012207031250e+00 -6.579350233078002930e-01 -1.196477174758911133e+00
4.126000000000000000e+03 4.210582351684570312e+01 1.854576110839843750e+01 -1.034925103187561035e+00 -1.126317143440246582e+00 -6.483727097511291504e-01 -1.198220372200012207e+00
4.127000000000000000e+03 4.060604476928710938e+01 1.684311103820800781e+01 -1.058966875076293945e+00 -1.139086008071899414e+00 -6.594159007072448730e-01 -1.166953802108764648e+00
4.128000000000000000e+03 3.045164489746093750e+01 4.363467216491699219e+00 -1.752143263816833496e+00 -9.104309678077697754e-01 -7.987722754478454590e-01 -7.081400156021118164e-01
4.129000000000000000e+03 3.944549560546875000e+01 1.596196365356445312e+01 -1.094298720359802246e+00 -1.214056611061096191e+00 -6.925066113471984863e-01 -1.166086077690124512e+00
4.130000000000000000e+03 7.388207244873046875e+01 3.080909538269042969e+01 -2.216009378433227539e+00 1.391391754150390625e+01 3.509372472763061523e+00 2.512741088867187500e+00
4.131000000000000000e+03 1.813129806518554688e+01 1.138181591033935547e+01 1.056352183222770691e-01 2.012858092784881592e-01 9.207630902528762817e-02 1.439064294099807739e-01
4.132000000000000000e+03 3.317181777954101562e+01 9.625249862670898438e+00 -1.245312333106994629e+00 -1.283992052078247070e+00 -7.587913274765014648e-01 -1.170475125312805176e+00
4.133000000000000000e+03 4.547902679443359375e+01 2.246364974975585938e+01 -1.217912197113037109e+00 -1.094485759735107422e+00 -6.937193870544433594e-01 -1.175846934318542480e+00
4.134000000000000000e+03 2.797033309936523438e+01 2.228413772583007812e+01 5.939313396811485291e-02 1.044020503759384155e-01 4.913855716586112976e-02 8.262161910533905029e-02
4.135000000000000000e+03 1.929368019104003906e+01 1.324584007263183594e+01 9.342477470636367798e-02 1.734373867511749268e-01 8.005864918231964111e-02 1.263739764690399170e-01
4.136000000000000000e+03 1.374414825439453125e+01 7.939753532409667969e+00 7.727692276239395142e-02 3.707219660282135010e-01 1.343996673822402954e-01 8.299542218446731567e-02
4.137000000000000000e+03 2.141413879394531250e+01 1.555929565429687500e+01 8.467602729797363281e-02 1.501055061817169189e-01 7.043446600437164307e-02 1.113954409956932068e-01
4.138000000000000000e+03 4.689938735961914062e+01 2.340970039367675781e+01 -1.225256323814392090e+00 -9.565242528915405273e-01 -6.545341610908508301e-01 -1.136697769165039062e+00
4.139000000000000000e+03 3.534086608886718750e+01 1.179359245300292969e+01 -1.171649217605590820e+00 -1.305697679519653320e+00 -7.432040572166442871e-01 -1.176124095916748047e+00
4.140000000000000000e+03 3.562300872802734375e+01 1.211691474914550781e+01 -1.169484138488769531e+00 -1.307363152503967285e+00 -7.430541515350341797e-01 -1.177432417869567871e+00
4.141000000000000000e+03 3.668156433105468750e+01 1.333420848846435547e+01 -1.155177354812622070e+00 -1.315163016319274902e+00 -7.411020994186401367e-01 -1.190122961997985840e+00
4.142000000000000000e+03 2.222186851501464844e+01 1.639686012268066406e+01 8.094885945320129395e-02 1.429619938135147095e-01 6.717325747013092041e-02 1.074584349989891052e-01
4.143000000000000000e+03 3.279184722900390625e+01 2.700081825256347656e+01 5.380045250058174133e-02 8.751293271780014038e-02 4.239401593804359436e-02 6.883435696363449097e-02
4.144000000000000000e+03 4.574821090698242188e+01 2.269924163818359375e+01 -1.229190707206726074e+00 -1.075906634330749512e+00 -6.915292143821716309e-01 -1.170904278755187988e+00
4.145000000000000000e+03 4.648276519775390625e+01 2.338675880432128906e+01 -1.257146239280700684e+00 -1.020957946777343750e+00 -6.834312677383422852e-01 -1.166018605232238770e+00
4.146000000000000000e+03 2.192287445068359375e+01 1.616851043701171875e+01 8.125092089176177979e-02 1.449463367462158203e-01 6.785918027162551880e-02 1.081846654415130615e-01
4.147000000000000000e+03 3.531782913208007812e+01 3.022938537597656250e+01 5.628602579236030579e-02 8.095374703407287598e-02 4.117193073034286499e-02 6.113914772868156433e-02
4.148000000000000000e+03 3.331633758544921875e+01 6.695284843444824219e+00 -1.210092663764953613e+00 -9.665275216102600098e-01 -6.529860496520996094e-01 -9.106548428535461426e-01
4.149000000000000000e+03 3.318315124511718750e+01 6.346107006072998047e+00 -1.213004589080810547e+00 -9.490426778793334961e-01 -6.486142277717590332e-01 -8.765317201614379883e-01
4.150000000000000000e+03 3.419818878173828125e+01 1.016885185241699219e+01 -1.185858845710754395e+00 -1.252156734466552734e+00 -7.314047217369079590e-01 -1.135414361953735352e+00
4.151000000000000000e+03 1.646302413940429688e+01 1.060048007965087891e+01 9.171755611896514893e-02 2.341773062944412231e-01 9.776845574378967285e-02 1.349472254514694214e-01
4.152000000000000000e+03 1.598981857299804688e+01 1.014899063110351562e+01 9.001825004816055298e-02 2.500036358833312988e-01 1.020065620541572571e-01 1.336738914251327515e-01
4.153000000000000000e+03 1.254272079467773438e+01 5.466164112091064453e+00 1.690992116928100586e-01 5.277578234672546387e-01 2.090571075677871704e-01 -1.307282298803329468e-01
4.154000000000000000e+03 1.271495914459228516e+01 5.703328132629394531e+00 1.350185275077819824e-01 5.611696243286132812e-01 2.088564485311508179e-01 -8.060073107481002808e-02
4.155000000000000000e+03 8.044684410095214844e+00 6.416883468627929688e+00 1.709819585084915161e-01 -1.015185639262199402e-01 2.083901502192020416e-02 3.574062138795852661e-02
4.156000000000000000e+03 3.071505355834960938e+01 2.565211677551269531e+01 5.159066617488861084e-02 9.174741804599761963e-02 4.300142452120780945e-02 7.248212397098541260e-02
4.157000000000000000e+03 1.299163913726806641e+01 6.058192253112792969e+00 9.709046781063079834e-02 5.508575439453125000e-01 1.943843960762023926e-01 -4.716425668448209763e-03
4.158000000000000000e+03 2.604808998107910156e+01 7.243856787681579590e-03 -5.632187724113464355e-01 -1.802793890237808228e-01 -2.230494618415832520e-01 -2.596682608127593994e-01
4.159000000000000000e+03 1.730627059936523438e+01 1.149316310882568359e+01 9.000448137521743774e-02 2.109556794166564941e-01 9.028805047273635864e-02 1.322788745164871216e-01
4.160000000000000000e+03 1.514186954498291016e+01 9.763592720031738281e+00 7.792290300130844116e-02 2.734466791152954102e-01 1.054108738899230957e-01 1.187061145901679993e-01
4.161000000000000000e+03 7.217687988281250000e+01 3.042453193664550781e+01 -8.465825319290161133e-01 7.566678047180175781e+00 2.016028642654418945e+00 3.965246915817260742e+00
4.162000000000000000e+03 1.434852409362792969e+01 8.687774658203125000e+00 7.564566284418106079e-02 3.240890204906463623e-01 1.199204027652740479e-01 1.089090406894683838e-01
4.163000000000000000e+03 3.083751487731933594e+01 4.784103870391845703e+00 -1.721939921379089355e+00 -9.000316858291625977e-01 -7.865914702415466309e-01 -7.842835187911987305e-01
4.164000000000000000e+03 3.225844955444335938e+01 5.180133819580078125e+00 -1.380813121795654297e+00 -8.478378057479858398e-01 -6.685953140258789062e-01 -7.626821994781494141e-01
4.165000000000000000e+03 6.962506103515625000e+01 2.872936439514160156e+01 -2.418220490217208862e-01 3.157285213470458984e+00 8.746389150619506836e-01 2.097058057785034180e+00
4.166000000000000000e+03 7.162152099609375000e+01 2.985580635070800781e+01 -6.200360655784606934e-01 6.028028488159179688e+00 1.622397661209106445e+00 3.488881587982177734e+00
4.167000000000000000e+03 3.280194473266601562e+01 2.612679672241210938e+01 5.612059310078620911e-02 8.783507347106933594e-02 4.318669810891151428e-02 7.116031646728515625e-02
4.168000000000000000e+03 1.375362873077392578e+01 7.091005802154541016e+00 8.636186271905899048e-02 4.397662878036499023e-01 1.578384488821029663e-01 9.552733600139617920e-02
4.169000000000000000e+03 3.129971694946289062e+01 4.773365974426269531e+00 -1.573596477508544922e+00 -8.486433625221252441e-01 -7.266719341278076172e-01 -7.439660429954528809e-01
4.170000000000000000e+03 3.886016464233398438e+01 3.389808273315429688e+01 6.768454611301422119e-02 6.521660834550857544e-02 3.987034782767295837e-02 5.531768128275871277e-02
4.171000000000000000e+03 2.804393768310546875e+01 -5.184189677238464355e-01 -4.088514298200607300e-02 -3.973151445388793945e-01 -1.314600855112075806e-01 -4.705777764320373535e-02
4.172000000000000000e+03 3.144380569458007812e+01 2.577331352233886719e+01 5.374651774764060974e-02 9.008309990167617798e-02 4.314888641238212585e-02 7.224497199058532715e-02
4.173000000000000000e+03 3.027088737487792969e+01 2.545427703857421875e+01 5.096708238124847412e-02 9.314849227666854858e-02 4.323467239737510681e-02 7.319945842027664185e-02
4.174000000000000000e+03 7.016044616699218750e+01 2.881593513488769531e+01 -2.880807518959045410e-01 3.809814929962158203e+00 1.056520223617553711e+00 2.405353307723999023e+00
4.175000000000000000e+03 6.905354309082031250e+01 2.860111427307128906e+01 -2.247455567121505737e-01 2.617443084716796875e+00 7.178092598915100098e-01 1.773016333580017090e+00
4.176000000000000000e+03 7.015084838867187500e+01 2.938946533203125000e+01 -3.116056621074676514e-01 3.435467243194580078e+00 9.371584653854370117e-01 2.445301532745361328e+00
4.177000000000000000e+03 2.831504249572753906e+01 2.801680803298950195e+00 -1.839172124862670898e+00 -7.933793067932128906e-01 -7.897654175758361816e-01 -6.197950839996337891e-01
4.178000000000000000e+03 3.367971801757812500e+01 7.497405529022216797e+00 -1.157197713851928711e+00 -1.034499049186706543e+00 -6.575090289115905762e-01 -9.570937156677246094e-01
4.179000000000000000e+03 3.392279434204101562e+01 9.739006996154785156e+00 -1.193736910820007324e+00 -1.234971642494201660e+00 -7.286126017570495605e-01 -1.122273087501525879e+00
4.180000000000000000e+03 7.558350372314453125e+01 3.145961189270019531e+01 -8.012449741363525391e-01 1.513158893585205078e+01 4.299103260040283203e+00 -1.563745379447937012e+00
4.181000000000000000e+03 7.583040618896484375e+01 3.094624137878417969e+01 -1.160082221031188965e+00 1.411918067932128906e+01 3.887729406356811523e+00 -1.512090206146240234e+00
4.182000000000000000e+03 3.405409622192382812e+01 2.985887718200683594e+01 5.307517200708389282e-02 8.322006464004516602e-02 4.088857024908065796e-02 6.060019135475158691e-02
4.183000000000000000e+03 2.961467742919921875e+01 2.408373069763183594e+01 5.375535413622856140e-02 9.678669273853302002e-02 4.516261443495750427e-02 7.764910906553268433e-02
4.184000000000000000e+03 7.087308502197265625e+01 2.225968551635742188e+01 6.629256904125213623e-02 5.593694686889648438e+00 1.697996139526367188e+00 1.454560756683349609e+00
4.185000000000000000e+03 7.357938385009765625e+01 2.538250350952148438e+01 -7.124991416931152344e-01 8.202385902404785156e+00 2.246966123580932617e+00 1.489541769027709961e+00
4.186000000000000000e+03 7.019916534423828125e+01 2.825771141052246094e+01 -2.760497033596038818e-01 4.137156009674072266e+00 1.158331990242004395e+00 2.348269701004028320e+00
4.187000000000000000e+03 5.433965682983398438e+01 3.008743667602539062e+01 -1.445980787277221680e+00 5.454237386584281921e-02 -4.174315333366394043e-01 -9.192153811454772949e-01
4.188000000000000000e+03 3.371787643432617188e+01 2.811973953247070312e+01 5.450464785099029541e-02 8.542226254940032959e-02 4.197807237505912781e-02 6.587154418230056763e-02
4.189000000000000000e+03 3.649242782592773438e+01 3.384339523315429688e+01 5.801612511277198792e-02 7.190461456775665283e-02 3.897622227668762207e-02 5.058663710951805115e-02
4.190000000000000000e+03 3.968293762207031250e+01 3.490508651733398438e+01 7.387157529592514038e-02 6.079273670911788940e-02 4.039929434657096863e-02 5.151244997978210449e-02
4.191000000000000000e+03 6.993811035156250000e+01 2.700777053833007812e+01 -1.692332774400711060e-01 4.287517070770263672e+00 1.235485076904296875e+00 2.053036451339721680e+00
4.192000000000000000e+03 5.573966979980468750e+01 2.855683898925781250e+01 -1.361296176910400391e+00 2.118079811334609985e-01 -3.448464572429656982e-01 -9.394136071205139160e-01
4.193000000000000000e+03 5.551791381835937500e+01 2.916265487670898438e+01 -1.425095915794372559e+00 1.879893243312835693e-01 -3.711319565773010254e-01 -9.430277943611145020e-01
4.194000000000000000e+03 2.873431587219238281e+01 -1.015169739723205566e+00 1.574687659740447998e-01 -4.355359077453613281e-01 -8.342014253139495850e-02 -4.016749188303947449e-02
4.195000000000000000e+03 3.931024169921875000e+01 3.441147232055664062e+01 6.972654908895492554e-02 6.264081597328186035e-02 3.971021249890327454e-02 5.451560020446777344e-02
4.196000000000000000e+03 3.434142684936523438e+01 3.037448883056640625e+01 5.266990885138511658e-02 8.228228241205215454e-02 4.048565775156021118e-02 5.942695215344429016e-02
4.197000000000000000e+03 6.860790252685546875e+01 2.779414939880371094e+01 -1.175732687115669250e-01 2.619158983230590820e+00 7.504757046699523926e-01 1.571984529495239258e+00
4.198000000000000000e+03 5.930977249145507812e+01 2.794449806213378906e+01 -1.139510273933410645e+00 3.868049383163452148e-01 -2.258115857839584351e-01 -7.991963624954223633e-01
4.199000000000000000e+03 3.617832946777343750e+01 3.100025749206542969e+01 5.788558721542358398e-02 7.811422646045684814e-02 4.079994559288024902e-02 6.028266251087188721e-02
4.200000000000000000e+03 1.050377559661865234e+01 5.525111198425292969e+00 2.688335478305816650e-01 5.138369649648666382e-02 9.606517106294631958e-02 -9.468033909797668457e-02
4.201000000000000000e+03 1.161078357696533203e+01 5.873068332672119141e+00 2.092496305704116821e-01 2.819537520408630371e-01 1.473610103130340576e-01 -1.357002854347229004e-01
4.202000000000000000e+03 7.448090362548828125e+01 3.022933197021484375e+01 -2.198588132858276367e+00 1.344461441040039062e+01 3.373807907104492188e+00 1.211599826812744141e+00
4.203000000000000000e+03 7.397473144531250000e+01 2.972430038452148438e+01 -2.083069324493408203e+00 1.200329971313476562e+01 2.976068973541259766e+00 1.992231249809265137e+00
4.204000000000000000e+03 7.365145111083984375e+01 2.797657203674316406e+01 -1.400109529495239258e+00 9.518184661865234375e+00 2.435422420501708984e+00 1.856929540634155273e+00
4.205000000000000000e+03 3.347168731689453125e+01 8.170448303222656250e+00 -1.176454901695251465e+00 -1.125261664390563965e+00 -6.905149817466735840e-01 -1.040317893028259277e+00
4.206000000000000000e+03 8.956565856933593750e+00 6.505365371704101562e+00 1.976465433835983276e-01 -5.823390930891036987e-02 4.182378947734832764e-02 -7.068097125738859177e-03
4.207000000000000000e+03 6.711019134521484375e+01 2.737420082092285156e+01 -1.557409167289733887e-01 1.784309387207031250e+00 4.885705411434173584e-01 9.159963130950927734e-01
4.208000000000000000e+03 7.088591766357421875e+01 2.315556526184082031e+01 4.122656901017762721e-05 5.603090286254882812e+00 1.680939435958862305e+00 1.540755867958068848e+00
4.209000000000000000e+03 8.376251220703125000e+00 -7.816999435424804688e+00 -2.188809216022491455e-01 -2.876222729682922363e-01 -1.519509553909301758e-01 -4.501104652881622314e-01
4.210000000000000000e+03 6.022842788696289062e+01 2.672817230224609375e+01 -7.909216880798339844e-01 5.406250357627868652e-01 -7.508898526430130005e-02 -6.245399117469787598e-01
4.211000000000000000e+03 6.102066421508789062e+01 2.778407096862792969e+01 -9.963569045066833496e-01 4.391303062438964844e-01 -1.671679913997650146e-01 -6.358295083045959473e-01
4.212000000000000000e+03 6.256253814697265625e+01 2.739525032043457031e+01 -6.960613131523132324e-01 6.317365765571594238e-01 -1.929741911590099335e-02 -3.522954285144805908e-01
4.213000000000000000e+03 6.339436340332031250e+01 2.737444877624511719e+01 -6.317279338836669922e-01 6.948420405387878418e-01 1.893423870205879211e-02 -1.976137459278106689e-01
4.214000000000000000e+03 3.347491073608398438e+01 7.089063167572021484e+00 -1.171989560127258301e+00 -1.011289477348327637e+00 -6.549836993217468262e-01 -9.347656369209289551e-01
4.215000000000000000e+03 7.411029052734375000e+01 2.935350227355957031e+01 -1.958328127861022949e+00 1.166488552093505859e+01 2.911967039108276367e+00 1.683191299438476562e+00
4.216000000000000000e+03 7.419272613525390625e+01 2.884821128845214844e+01 -1.791288375854492188e+00 1.105271339416503906e+01 2.778427362442016602e+00 1.524244666099548340e+00
4.217000000000000000e+03 5.722018814086914062e+01 2.691037750244140625e+01 -1.059007406234741211e+00 3.462299406528472900e-01 -2.138332575559616089e-01 -8.490545749664306641e-01
4.218000000000000000e+03 6.534516143798828125e+01 2.761328315734863281e+01 -4.207624197006225586e-01 1.045752286911010742e+00 1.874969750642776489e-01 2.800947129726409912e-01
4.219000000000000000e+03 5.591380691528320312e+01 2.796863746643066406e+01 -1.283520221710205078e+00 2.289890944957733154e-01 -3.163593411445617676e-01 -9.272841811180114746e-01
4.220000000000000000e+03 1.073289299011230469e+01 6.535354137420654297e+00 1.895623505115509033e-01 1.383843570947647095e-01 9.838401526212692261e-02 -8.625948429107666016e-02
4.221000000000000000e+03 7.534521579742431641e+00 9.294350624084472656e+00 9.752582013607025146e-02 -4.199911653995513916e-02 1.665801182389259338e-02 -4.852426704019308090e-03
4.222000000000000000e+03 8.116532325744628906e+00 7.492546081542968750e+00 1.497437804937362671e-01 -6.410265713930130005e-02 2.569233626127243042e-02 6.139355711638927460e-03
4.223000000000000000e+03 5.658631896972656250e+01 2.746561431884765625e+01 -1.185965180397033691e+00 2.876103222370147705e-01 -2.695064544677734375e-01 -8.976153731346130371e-01
4.224000000000000000e+03 3.202434539794921875e+01 -2.972143888473510742e+00 5.087249279022216797e-01 -6.424610018730163574e-01 -4.012081399559974670e-02 6.725774146616458893e-03
4.225000000000000000e+03 2.941213226318359375e+01 3.647528171539306641e+00 -1.798147916793823242e+00 -9.245689511299133301e-01 -8.168150782585144043e-01 -6.469769477844238281e-01
4.226000000000000000e+03 6.985926055908203125e+01 3.417797565460205078e+00 2.044864296913146973e-01 5.068656921386718750e+00 1.581943035125732422e+00 6.740005612373352051e-01
4.227000000000000000e+03 7.054702758789062500e+01 -1.606179356575012207e+00 1.433092057704925537e-01 5.140399456024169922e+00 1.585112571716308594e+00 5.132024884223937988e-01
4.228000000000000000e+03 1.118341255187988281e+01 6.374448776245117188e+00 1.925856471061706543e-01 2.069733589887619019e-01 1.198676973581314087e-01 -1.053512245416641235e-01
4.229000000000000000e+03 9.702268600463867188e+00 7.561739444732666016e+00 1.597720682621002197e-01 5.569167435169219971e-02 6.463912129402160645e-02 -5.163280665874481201e-02
4.230000000000000000e+03 5.972793197631835938e+01 2.702553749084472656e+01 -8.959079980850219727e-01 4.838404357433319092e-01 -1.236202791333198547e-01 -6.915826797485351562e-01
4.231000000000000000e+03 3.248541641235351562e+01 -3.371211767196655273e+00 5.969005823135375977e-01 -6.461828947067260742e-01 -1.478470489382743835e-02 -1.997256278991699219e-02
4.232000000000000000e+03 3.549500656127929688e+01 -5.673013210296630859e+00 6.401687264442443848e-01 -5.926454663276672363e-01 1.425698958337306976e-02 -2.498360164463520050e-02
4.233000000000000000e+03 1.278440570831298828e+01 -8.315037727355957031e+00 -2.629624009132385254e-01 -5.972254276275634766e-01 -2.580563426017761230e-01 -7.507427334785461426e-01
4.234000000000000000e+03 7.011002349853515625e+01 -5.261260032653808594e+00 1.289293020963668823e-01 4.959311008453369141e+00 1.526472210884094238e+00 4.541688859462738037e-01
4.235000000000000000e+03 7.134309387207031250e+01 -7.224302768707275391e+00 9.810397028923034668e-02 5.176012039184570312e+00 1.582234859466552734e+00 3.754632472991943359e-01
4.236000000000000000e+03 1.290999412536621094e+01 -9.828131675720214844e+00 -1.173151060938835144e-01 -6.341222524642944336e-01 -2.254312038421630859e-01 -6.988390088081359863e-01
4.237000000000000000e+03 1.041637134552001953e+01 -7.491681098937988281e+00 -3.252967000007629395e-01 -3.622303903102874756e-01 -2.062581330537796021e-01 -5.970378518104553223e-01
4.238000000000000000e+03 5.716873168945312500e+01 2.751851463317871094e+01 -1.167943835258483887e+00 3.246317505836486816e-01 -2.529936134815216064e-01 -8.847788572311401367e-01
4.239000000000000000e+03 5.779737091064453125e+01 2.752953338623046875e+01 -1.134887456893920898e+00 3.547772169113159180e-01 -2.340330630540847778e-01 -8.636295795440673828e-01
4.240000000000000000e+03 3.730015563964843750e+01 3.240793609619140625e+01 5.997999757528305054e-02 7.238307595252990723e-02 3.970892354846000671e-02 5.750768259167671204e-02
4.241000000000000000e+03 8.082931518554687500e+00 -9.418962478637695312e+00 -1.298955380916595459e-01 -3.836610019207000732e-01 -1.540669649839401245e-01 -4.768239259719848633e-01
4.242000000000000000e+03 7.078292846679687500e+01 1.329043579101562500e+01 2.721615135669708252e-01 5.553437232971191406e+00 1.747679591178894043e+00 9.695827960968017578e-01
4.243000000000000000e+03 7.277956390380859375e+01 2.242880821228027344e+01 -1.286693066358566284e-01 6.970218658447265625e+00 2.052464723587036133e+00 1.370216965675354004e+00
4.244000000000000000e+03 7.317276000976562500e+01 2.665232086181640625e+01 -9.539542794227600098e-01 8.279761314392089844e+00 2.197741985321044922e+00 1.833818674087524414e+00
4.245000000000000000e+03 6.897952270507812500e+01 -1.067064666748046875e+01 1.157365664839744568e-01 4.619799137115478516e+00 1.420660734176635742e+00 3.585927784442901611e-01
4.246000000000000000e+03 3.211768341064453125e+01 4.110739898681640625e+01 4.253248125314712524e-02 7.157125324010848999e-02 3.423112258315086365e-02 6.624877452850341797e-03
4.247000000000000000e+03 6.457536220550537109e+00 8.591731071472167969e+00 9.571992605924606323e-02 -9.074027091264724731e-02 1.493896823376417160e-03 2.260516583919525146e-02
4.248000000000000000e+03 7.355383396148681641e+00 8.409576416015625000e+00 1.115415394306182861e-01 -6.854647397994995117e-02 1.289851963520050049e-02 1.227471884340047836e-02
4.249000000000000000e+03 3.872978210449218750e+01 -6.609088897705078125e+00 5.645607113838195801e-01 -4.342209100723266602e-01 3.910193964838981628e-02 2.150775492191314697e-02
4.250000000000000000e+03 3.813150405883789062e+01 -5.989262580871582031e+00 5.810393095016479492e-01 -4.789853096008300781e-01 3.061619773507118225e-02 1.530596800148487091e-02
4.251000000000000000e+03 1.096597290039062500e+01 -8.424184799194335938e+00 -2.588514983654022217e-01 -4.522255063056945801e-01 -2.133231014013290405e-01 -6.580597162246704102e-01
4.252000000000000000e+03 7.991901397705078125e+00 1.370240592956542969e+01 2.483545243740081787e-02 -6.731342873536050320e-04 7.248695474117994308e-03 -1.947068795561790466e-02
4.253000000000000000e+03 1.576609897613525391e+01 -1.691446685791015625e+01 2.328886240720748901e-01 -4.688739776611328125e-01 -7.079561054706573486e-02 -4.059972763061523438e-01
4.254000000000000000e+03 3.937919998168945312e+01 -7.140017032623291016e+00 5.756995677947998047e-01 -3.751764893531799316e-01 6.015691161155700684e-02 1.665930636227130890e-02
4.255000000000000000e+03 6.930854797363281250e+01 -1.794668197631835938e+01 5.769130215048789978e-02 4.588475227355957031e+00 1.393849968910217285e+00 2.618295252323150635e-01
4.256000000000000000e+03 7.014048004150390625e+01 -1.906355094909667969e+01 4.378923401236534119e-02 4.713941097259521484e+00 1.427319049835205078e+00 2.419294118881225586e-01
4.257000000000000000e+03 7.876211643218994141e+00 1.008584785461425781e+01 8.224868029356002808e-02 -1.595440506935119629e-02 1.988828368484973907e-02 -1.456196606159210205e-02
4.258000000000000000e+03 7.734076976776123047e+00 -1.396902275085449219e+01 2.279119752347469330e-02 -5.893924236297607422e-01 -1.699803620576858521e-01 -4.697073996067047119e-01
4.259000000000000000e+03 8.943999290466308594e+00 -1.369981575012207031e+01 3.985732793807983398e-02 -5.797012448310852051e-01 -1.619531661272048950e-01 -5.078733563423156738e-01
4.260000000000000000e+03 1.328664016723632812e+01 -1.246303653717041016e+01 1.123108491301536560e-01 -6.417279839515686035e-01 -1.588251441717147827e-01 -5.839015841484069824e-01
4.261000000000000000e+03 6.967247009277343750e+01 -8.121283054351806641e-01 1.786947101354598999e-01 4.974267959594726562e+00 1.545888900756835938e+00 5.585405230522155762e-01
4.262000000000000000e+03 7.090653228759765625e+01 1.529557037353515625e+01 2.874906063079833984e-01 5.678989410400390625e+00 1.789943933486938477e+00 1.040860414505004883e+00
4.263000000000000000e+03 7.527252197265625000e+00 -1.273707294464111328e+01 -4.210486076772212982e-03 -5.307967066764831543e-01 -1.605021655559539795e-01 -4.677075743675231934e-01
4.264000000000000000e+03 7.103107452392578125e+01 5.415761947631835938e+00 1.943141520023345947e-01 5.474076747894287109e+00 1.700517296791076660e+00 6.966586709022521973e-01
4.265000000000000000e+03 7.099081420898437500e+01 6.426727294921875000e+00 2.020699828863143921e-01 5.477608680725097656e+00 1.703903675079345703e+00 7.264111042022705078e-01
4.266000000000000000e+03 7.070247650146484375e+01 2.379203557968139648e+00 1.694792658090591431e-01 5.280672550201416016e+00 1.635045647621154785e+00 6.208989620208740234e-01
4.267000000000000000e+03 7.036130523681640625e+01 1.465702533721923828e+00 1.788552552461624146e-01 5.203209877014160156e+00 1.614619612693786621e+00 6.020214557647705078e-01
4.268000000000000000e+03 7.117874145507812500e+01 1.176331901550292969e+01 2.519233822822570801e-01 5.682815074920654297e+00 1.780421614646911621e+00 9.189219474792480469e-01
4.269000000000000000e+03 6.961952209472656250e+01 -2.441154718399047852e+00 1.613806188106536865e-01 4.898253440856933594e+00 1.517890214920043945e+00 5.141715407371520996e-01
4.270000000000000000e+03 4.160882568359375000e+01 -9.857439994812011719e+00 5.045737028121948242e-01 -1.391624063253402710e-01 1.096233949065208435e-01 1.743794418871402740e-02
4.271000000000000000e+03 3.896303939819335938e+01 3.597381973266601562e+01 7.479961216449737549e-02 6.089107692241668701e-02 4.070720821619033813e-02 4.505644366145133972e-02
4.272000000000000000e+03 4.073045730590820312e+01 3.661424255371093750e+01 9.086798131465911865e-02 5.062025412917137146e-02 4.244647175073623657e-02 4.706230014562606812e-02
4.273000000000000000e+03 6.935360717773437500e+01 -2.226550292968750000e+01 4.169384762644767761e-02 4.550330638885498047e+00 1.377607345581054688e+00 2.320753931999206543e-01
4.274000000000000000e+03 4.317814636230468750e+01 -1.325766563415527344e+01 3.884629607200622559e-01 9.548372775316238403e-02 1.451839953660964966e-01 3.364111483097076416e-02
4.275000000000000000e+03 7.059248352050781250e+01 -1.514129638671875000e+01 5.993203073740005493e-02 4.860439300537109375e+00 1.476111412048339844e+00 2.673864066600799561e-01
4.276000000000000000e+03 3.758591461181640625e+01 -5.302831172943115234e+00 5.553176999092102051e-01 -5.280072093009948730e-01 8.193147368729114532e-03 3.038395754992961884e-02
4.277000000000000000e+03 9.118596076965332031e+00 2.082519149780273438e+01 -6.470563821494579315e-03 1.498656463809311390e-03 -1.491572125814855099e-03 -1.534968893975019455e-02
4.278000000000000000e+03 9.780045509338378906e+00 2.166296768188476562e+01 -6.904727313667535782e-03 9.727364405989646912e-03 8.467911975458264351e-04 -1.201840955764055252e-02
4.279000000000000000e+03 7.173954772949218750e+01 -8.255450248718261719e+00 8.357579261064529419e-02 5.221372604370117188e+00 1.591484546661376953e+00 3.476890027523040771e-01
4.280000000000000000e+03 4.009107208251953125e+01 -7.533088684082031250e+00 5.486800074577331543e-01 -3.153732120990753174e-01 6.999203562736511230e-02 2.373066544532775879e-02
4.281000000000000000e+03 3.974646377563476562e+01 -8.422380447387695312e+00 5.622223019599914551e-01 -3.234944343566894531e-01 7.161836326122283936e-02 8.021617308259010315e-03
4.282000000000000000e+03 6.910953521728515625e+01 -2.006994056701660156e+01 5.281057581305503845e-02 4.516410827636718750e+00 1.370766401290893555e+00 2.469951361417770386e-01
4.283000000000000000e+03 8.220758438110351562e+00 -1.031427478790283203e+01 -1.026353463530540466e-01 -4.375256597995758057e-01 -1.620483100414276123e-01 -5.041143298149108887e-01
4.284000000000000000e+03 9.161719322204589844e+00 -1.005172061920166016e+01 -1.298656761646270752e-01 -4.334017634391784668e-01 -1.689802259206771851e-01 -5.444988012313842773e-01
4.285000000000000000e+03 6.972371673583984375e+01 2.038837242126464844e+01 2.540404796600341797e-01 4.922554016113281250e+00 1.552978396415710449e+00 1.275309205055236816e+00
4.286000000000000000e+03 7.053824615478515625e+01 1.925300979614257812e+01 2.403461188077926636e-01 5.431770801544189453e+00 1.701635122299194336e+00 1.236862301826477051e+00
4.287000000000000000e+03 7.179534149169921875e+01 2.229712867736816406e+01 -2.417369745671749115e-02 6.261768341064453125e+00 1.871278405189514160e+00 1.431647062301635742e+00
4.288000000000000000e+03 7.063491058349609375e+01 8.270321846008300781e+00 2.279009073972702026e-01 5.419741630554199219e+00 1.694292783737182617e+00 8.036928772926330566e-01
4.289000000000000000e+03 3.375762557983398438e+01 -4.435025215148925781e+00 6.335473656654357910e-01 -6.242935061454772949e-01 2.776155481114983559e-03 -1.886753551661968231e-02
4.290000000000000000e+03 1.259959125518798828e+01 -1.856416511535644531e+01 1.904231756925582886e-01 -5.767264366149902344e-01 -1.158909797668457031e-01 -4.343580901622772217e-01
4.291000000000000000e+03 9.612503051757812500e+00 -1.772064208984375000e+01 1.128193959593772888e-01 -6.681763529777526855e-01 -1.666070967912673950e-01 -4.480133652687072754e-01
4.292000000000000000e+03 9.397128105163574219e+00 -1.634400177001953125e+01 1.040079519152641296e-01 -6.392709016799926758e-01 -1.605788916349411011e-01 -4.683994352817535400e-01
4.293000000000000000e+03 1.644065093994140625e+01 -1.781093406677246094e+01 2.509034872055053711e-01 -4.228848218917846680e-01 -5.159440264105796814e-02 -3.819503784179687500e-01
4.294000000000000000e+03 1.874234390258789062e+01 -1.948040390014648438e+01 2.466473430395126343e-01 -1.587377935647964478e-01 2.637286297976970673e-02 -3.201435506343841553e-01
4.295000000000000000e+03 8.993719100952148438e+00 1.757587242126464844e+01 1.273887115530669689e-03 1.492340117692947388e-02 4.859186243265867233e-03 -1.558772381395101547e-02
4.296000000000000000e+03 7.968953609466552734e+00 1.680464744567871094e+01 4.250270314514636993e-03 -8.891015313565731049e-03 -1.392223406583070755e-03 -2.072065137326717377e-02
4.297000000000000000e+03 6.863447570800781250e+01 -1.682659149169921875e+01 7.108810544013977051e-02 4.483455181121826172e+00 1.366362929344177246e+00 2.736516296863555908e-01
4.298000000000000000e+03 7.080783843994140625e+01 2.129336929321289062e+01 1.365943104028701782e-01 5.563682556152343750e+00 1.710083007812500000e+00 1.369171500205993652e+00
4.299000000000000000e+03 7.069186401367187500e+01 2.027739715576171875e+01 1.972142010927200317e-01 5.495879650115966797e+00 1.707928180694580078e+00 1.293696880340576172e+00
4.300000000000000000e+03 7.244597625732421875e+01 -6.944348812103271484e+00 7.743954658508300781e-02 5.431552886962890625e+00 1.652697682380676270e+00 3.480893969535827637e-01
4.301000000000000000e+03 4.771398162841796875e+01 -2.122409439086914062e+01 6.248606741428375244e-02 8.291323781013488770e-01 2.674855291843414307e-01 1.013788506388664246e-01
4.302000000000000000e+03 4.357340621948242188e+01 -1.723440170288085938e+01 2.055760622024536133e-01 1.740256994962692261e-01 1.138805299997329712e-01 6.029688939452171326e-02
4.303000000000000000e+03 6.961921691894531250e+01 -1.603578567504882812e+01 6.782813370227813721e-02 4.667991161346435547e+00 1.420745849609375000e+00 2.747703790664672852e-01
4.304000000000000000e+03 7.121578979492187500e+01 -6.068593025207519531e+00 9.952913969755172729e-02 5.175040721893310547e+00 1.582370996475219727e+00 4.009799063205718994e-01
4.305000000000000000e+03 7.002893066406250000e+01 1.139807319641113281e+01 2.801791429519653320e-01 5.258019924163818359e+00 1.661459803581237793e+00 9.201648235321044922e-01
4.306000000000000000e+03 7.008654022216796875e+01 9.369953155517578125e+00 2.655425667762756348e-01 5.282754421234130859e+00 1.664489030838012695e+00 8.541023731231689453e-01
4.307000000000000000e+03 8.420711517333984375e+00 -1.135495376586914062e+01 -5.308086052536964417e-02 -4.835034608840942383e-01 -1.609752923250198364e-01 -5.116347074508666992e-01
4.308000000000000000e+03 8.648874282836914062e+00 1.987832450866699219e+01 -4.658442921936511993e-03 -3.936721477657556534e-03 -2.578549319878220558e-03 -1.807684265077114105e-02
4.309000000000000000e+03 9.299069404602050781e+00 1.851893997192382812e+01 -1.885759760625660419e-03 1.725533790886402130e-02 4.610873758792877197e-03 -1.444500871002674103e-02
4.310000000000000000e+03 1.146211624145507812e+01 2.774401473999023438e+01 -9.914689697325229645e-03 9.461178444325923920e-03 -1.360534079140052199e-04 -4.656728822737932205e-03
4.311000000000000000e+03 9.503119468688964844e+00 2.627316474914550781e+01 -9.046232327818870544e-03 -1.372817158699035645e-02 -6.832321174442768097e-03 -1.126673445105552673e-02
4.312000000000000000e+03 8.797066688537597656e+00 1.509384536743164062e+01 1.610128767788410187e-02 2.200017683207988739e-02 1.143043860793113708e-02 -1.726797223091125488e-02
4.313000000000000000e+03 9.548768997192382812e+00 1.501386451721191406e+01 1.428316906094551086e-02 4.588761925697326660e-02 1.805123686790466309e-02 -1.304028462618589401e-02
4.314000000000000000e+03 1.752404594421386719e+01 -2.028541374206542969e+01 2.398196160793304443e-01 -2.905480265617370605e-01 -1.521852798759937286e-02 -3.473559916019439697e-01
4.315000000000000000e+03 4.999483871459960938e+01 -2.190459632873535156e+01 5.300226435065269470e-02 1.241336584091186523e+00 3.883016705513000488e-01 1.223869696259498596e-01
4.316000000000000000e+03 1.050269508361816406e+01 2.682516288757324219e+01 -9.097908623516559601e-03 1.815406372770667076e-03 -2.184750745072960854e-03 -7.951398380100727081e-03
4.317000000000000000e+03 4.296220397949218750e+01 -1.607858657836914062e+01 2.401828467845916748e-01 8.994708210229873657e-02 9.903898090124130249e-02 4.599687829613685608e-02
4.318000000000000000e+03 5.253810501098632812e+01 -2.524719429016113281e+01 9.612814523279666901e-03 1.749698281288146973e+00 5.277933478355407715e-01 1.922395527362823486e-01
4.319000000000000000e+03 4.750622558593750000e+01 -2.475464057922363281e+01 -5.568189918994903564e-02 7.992432713508605957e-01 2.230684161186218262e-01 1.340142488479614258e-01
4.320000000000000000e+03 6.824204254150390625e+01 -2.582041549682617188e+01 4.599113017320632935e-02 4.318779945373535156e+00 1.309431314468383789e+00 2.126845568418502808e-01
4.321000000000000000e+03 1.732945823669433594e+01 -2.999266815185546875e+01 2.497914731502532959e-01 -2.529671788215637207e-01 -9.527108632028102875e-04 -2.683207988739013672e-01
4.322000000000000000e+03 1.854659271240234375e+01 -3.345608901977539062e+01 2.652287483215332031e-01 -2.201084792613983154e-01 1.353608164936304092e-02 -2.256040275096893311e-01
4.323000000000000000e+03 2.728685760498046875e+01 2.094693422317504883e+00 -1.799168348312377930e+00 -6.667017340660095215e-01 -7.397610545158386230e-01 -6.045731306076049805e-01
4.324000000000000000e+03 2.675757026672363281e+01 1.139431595802307129e+00 -1.262508392333984375e+00 -4.556583166122436523e-01 -5.154500007629394531e-01 -3.780070543289184570e-01
4.325000000000000000e+03 2.819838905334472656e+01 3.125352621078491211e+00 -1.994815826416015625e+00 -8.957657814025878906e-01 -8.671745061874389648e-01 -7.585461139678955078e-01
4.326000000000000000e+03 2.744130325317382812e+01 2.554295301437377930e+00 -2.030070066452026367e+00 -7.506619095802307129e-01 -8.342196345329284668e-01 -7.349129915237426758e-01
4.327000000000000000e+03 7.323647308349609375e+01 2.984452247619628906e+01 -1.669525146484375000e+00 1.045832443237304688e+01 2.636639833450317383e+00 3.045515298843383789e+00
4.328000000000000000e+03 4.244451141357421875e+01 1.879377746582031250e+01 -1.029810667037963867e+00 -1.119868159294128418e+00 -6.449036598205566406e-01 -1.189742445945739746e+00
4.329000000000000000e+03 4.168424224853515625e+01 1.785023689270019531e+01 -1.027040958404541016e+00 -1.104232668876647949e+00 -6.393820643424987793e-01 -1.178765654563903809e+00
4.330000000000000000e+03 1.708586311340332031e+01 1.334920692443847656e+01 6.273135542869567871e-02 1.868073791265487671e-01 7.486161589622497559e-02 1.026893407106399536e-01
4.331000000000000000e+03 1.844863700866699219e+01 1.235569858551025391e+01 9.561517834663391113e-02 1.886916160583496094e-01 8.529204130172729492e-02 1.326233744621276855e-01
4.332000000000000000e+03 2.859891128540039062e+01 -4.041120409965515137e-01 -1.491536349058151245e-01 -5.471314191818237305e-01 -2.088855206966400146e-01 -8.755782246589660645e-02
4.333000000000000000e+03 1.397862720489501953e+01 9.262669563293457031e+00 6.424385309219360352e-02 2.950071096420288086e-01 1.077752932906150818e-01 8.153919875621795654e-02
4.334000000000000000e+03 2.802167892456054688e+01 2.285780715942382812e+01 5.564658343791961670e-02 1.036552265286445618e-01 4.779054224491119385e-02 8.040131628513336182e-02
4.335000000000000000e+03 4.401289749145507812e+01 2.021365928649902344e+01 -1.059252142906188965e+00 -1.084940791130065918e+00 -6.432578563690185547e-01 -1.147428035736083984e+00
4.336000000000000000e+03 2.564636611938476562e+01 1.686788499355316162e-01 -6.143838167190551758e-01 -1.242395266890525818e-01 -2.215870022773742676e-01 -3.618999719619750977e-01
4.337000000000000000e+03 4.099225616455078125e+01 1.726380920410156250e+01 -1.052274584770202637e+00 -1.126844286918640137e+00 -6.537356376647949219e-01 -1.179112195968627930e+00
4.338000000000000000e+03 2.491742515563964844e+01 1.073511123657226562e+00 -1.710536360740661621e+00 -9.371204674243927002e-02 -5.412744879722595215e-01 -6.803131699562072754e-01
4.339000000000000000e+03 4.757901382446289062e+01 2.404988861083984375e+01 -1.238710641860961914e+00 -9.020981788635253906e-01 -6.422426700592041016e-01 -1.138548731803894043e+00
4.340000000000000000e+03 2.905281448364257812e+01 3.982665300369262695e+00 -2.002003669738769531e+00 -1.032700896263122559e+00 -9.104114174842834473e-01 -8.148833513259887695e-01
4.341000000000000000e+03 2.370302581787109375e+01 1.860169792175292969e+01 6.977950781583786011e-02 1.270965635776519775e-01 5.906281992793083191e-02 9.541720896959304810e-02
4.342000000000000000e+03 4.191898727416992188e+01 1.723235321044921875e+01 -9.783977866172790527e-01 -1.047335743904113770e+00 -6.077200770378112793e-01 -1.120184659957885742e+00
4.343000000000000000e+03 2.877399444580078125e+01 3.638652563095092773e+00 -1.971138358116149902e+00 -9.778117537498474121e-01 -8.846850395202636719e-01 -7.749083042144775391e-01
4.344000000000000000e+03 2.604899597167968750e+01 1.955740356445312500e+01 7.512759417295455933e-02 1.164521276950836182e-01 5.747392028570175171e-02 9.384937584400177002e-02
4.345000000000000000e+03 2.596683883666992188e+01 1.997171401977539062e+01 7.022173702716827393e-02 1.159631758928298950e-01 5.585547536611557007e-02 9.142248332500457764e-02
4.346000000000000000e+03 4.422470855712890625e+01 2.121859359741210938e+01 -1.154481053352355957e+00 -1.140361309051513672e+00 -6.884527206420898438e-01 -1.191459655761718750e+00
4.347000000000000000e+03 1.205716896057128906e+01 6.852025985717773438e+00 1.288032233715057373e-01 3.339290022850036621e-01 1.388196647167205811e-01 -6.597670912742614746e-02
4.348000000000000000e+03 1.302454471588134766e+01 6.695568084716796875e+00 8.534264564514160156e-02 4.683982431888580322e-01 1.661222726106643677e-01 1.728525012731552124e-02
4.349000000000000000e+03 4.451980590820312500e+01 2.103690147399902344e+01 -1.113908171653747559e+00 -1.094661712646484375e+00 -6.625710129737854004e-01 -1.158285498619079590e+00
4.350000000000000000e+03 2.721117401123046875e+01 2.156808662414550781e+01 6.222563236951828003e-02 1.084736436605453491e-01 5.120978131890296936e-02 8.518128097057342529e-02
4.351000000000000000e+03 5.024437332153320312e+01 2.760897636413574219e+01 -1.350558161735534668e+00 -7.347782254219055176e-01 -6.256009340286254883e-01 -1.095316886901855469e+00
4.352000000000000000e+03 5.357997512817382812e+01 2.819112396240234375e+01 -1.345538616180419922e+00 -5.987539887428283691e-02 -4.216242134571075439e-01 -9.472678899765014648e-01
4.353000000000000000e+03 2.665687561035156250e+01 2.631378650665283203e+00 -2.351702451705932617e+00 -6.483122110366821289e-01 -9.000044465065002441e-01 -8.922116160392761230e-01
4.354000000000000000e+03 7.323838043212890625e+01 3.059578704833984375e+01 -1.753452897071838379e+00 1.146139144897460938e+01 2.912381649017333984e+00 3.624089241027832031e+00
4.355000000000000000e+03 4.472697830200195312e+01 2.129479598999023438e+01 -1.131086230278015137e+00 -1.090749859809875488e+00 -6.665508151054382324e-01 -1.157466769218444824e+00
4.356000000000000000e+03 2.067782592773437500e+01 1.525308990478515625e+01 8.219533413648605347e-02 1.545084565877914429e-01 7.101113349199295044e-02 1.107938364148139954e-01
4.357000000000000000e+03 2.284909629821777344e+01 1.790345573425292969e+01 6.989929825067520142e-02 1.333416700363159180e-01 6.097229197621345520e-02 9.835302084684371948e-02
4.358000000000000000e+03 2.259745597839355469e+01 1.748795700073242188e+01 7.240114361047744751e-02 1.361972689628601074e-01 6.257952004671096802e-02 1.005413383245468140e-01
4.359000000000000000e+03 3.675230407714843750e+01 1.302505397796630859e+01 -1.128544688224792480e+00 -1.281854867935180664e+00 -7.231198549270629883e-01 -1.157689809799194336e+00
4.360000000000000000e+03 2.165899085998535156e+01 1.585719394683837891e+01 8.294609934091567993e-02 1.478922814130783081e-01 6.925151497125625610e-02 1.093491017818450928e-01
4.361000000000000000e+03 2.671745300292968750e+01 2.066972732543945312e+01 6.747262179851531982e-02 1.118149086833000183e-01 5.378625914454460144e-02 8.881161361932754517e-02
4.362000000000000000e+03 5.146443557739257812e+01 2.825033760070800781e+01 -1.359855175018310547e+00 -4.995139241218566895e-01 -5.578107237815856934e-01 -1.014864325523376465e+00
4.363000000000000000e+03 5.098107910156250000e+01 2.824798965454101562e+01 -1.368048906326293945e+00 -6.167603135108947754e-01 -5.954427719116210938e-01 -1.052005290985107422e+00
4.364000000000000000e+03 4.949456024169921875e+01 2.649397277832031250e+01 -1.302720904350280762e+00 -7.951892614364624023e-01 -6.293730139732360840e-01 -1.119191288948059082e+00
4.365000000000000000e+03 2.690066528320312500e+01 2.784964323043823242e+00 -2.336768388748168945e+00 -7.586339116096496582e-01 -9.286206960678100586e-01 -9.381972551345825195e-01
4.366000000000000000e+03 2.654199790954589844e+01 9.994710087776184082e-01 -1.258013486862182617e+00 -4.006171822547912598e-01 -4.975892007350921631e-01 -4.109892547130584717e-01
4.367000000000000000e+03 5.192401504516601562e+01 2.837247657775878906e+01 -1.360689043998718262e+00 -4.042887389659881592e-01 -5.294933319091796875e-01 -9.976038336753845215e-01
4.368000000000000000e+03 4.000612640380859375e+01 1.636481475830078125e+01 -1.079923391342163086e+00 -1.174286961555480957e+00 -6.762630939483642578e-01 -1.163657069206237793e+00
4.369000000000000000e+03 4.417067718505859375e+01 2.049520874023437500e+01 -1.078558802604675293e+00 -1.089320898056030273e+00 -6.503639221191406250e-01 -1.150090694427490234e+00
4.370000000000000000e+03 2.518335723876953125e+01 1.914594459533691406e+01 7.438974082469940186e-02 1.201673001050949097e-01 5.836711451411247253e-02 9.495432674884796143e-02
4.371000000000000000e+03 3.774370956420898438e+01 1.403074359893798828e+01 -1.103870630264282227e+00 -1.269152402877807617e+00 -7.119069099426269531e-01 -1.155077219009399414e+00
4.372000000000000000e+03 4.520553970336914062e+01 2.176590156555175781e+01 -1.154601812362670898e+00 -1.073557853698730469e+00 -6.684479117393493652e-01 -1.150028109550476074e+00
4.373000000000000000e+03 3.185433769226074219e+01 2.723598289489746094e+01 5.058632418513298035e-02 8.867222070693969727e-02 4.177756235003471375e-02 6.767597794532775879e-02
4.374000000000000000e+03 3.104721450805664062e+01 2.595166015625000000e+01 5.178652331233024597e-02 9.087851643562316895e-02 4.279951378703117371e-02 7.176332920789718628e-02
4.375000000000000000e+03 3.794695663452148438e+01 1.430159282684326172e+01 -1.099899649620056152e+00 -1.269228816032409668e+00 -7.107385396957397461e-01 -1.159291505813598633e+00
4.376000000000000000e+03 3.473057556152343750e+01 1.105857658386230469e+01 -1.187119603157043457e+00 -1.286860346794128418e+00 -7.421939969062805176e-01 -1.166819334030151367e+00
4.377000000000000000e+03 3.845756149291992188e+01 1.474370670318603516e+01 -1.089955925941467285e+00 -1.249613046646118164e+00 -7.018706798553466797e-01 -1.150336861610412598e+00
4.378000000000000000e+03 3.853927993774414062e+01 1.527321338653564453e+01 -1.113919258117675781e+00 -1.279622793197631836e+00 -7.180626392364501953e-01 -1.179970145225524902e+00
4.379000000000000000e+03 2.046649169921875000e+01 1.497811985015869141e+01 8.331471681594848633e-02 1.564008295536041260e-01 7.191466540098190308e-02 1.123740002512931824e-01
4.380000000000000000e+03 1.554119110107421875e+01 1.017801761627197266e+01 7.974590361118316650e-02 2.570508420467376709e-01 1.010390222072601318e-01 1.223855614662170410e-01
4.381000000000000000e+03 1.468041801452636719e+01 1.049227714538574219e+01 6.181520223617553711e-02 2.503294944763183594e-01 9.364341199398040771e-02 9.220758080482482910e-02
4.382000000000000000e+03 3.296474838256835938e+01 2.744965171813964844e+01 5.349046364426612854e-02 8.714988827705383301e-02 4.219210520386695862e-02 6.743891537189483643e-02
4.383000000000000000e+03 3.201387786865234375e+01 2.769824218750000000e+01 4.998747259378433228e-02 8.822059631347656250e-02 4.146242141723632812e-02 6.604279577732086182e-02
4.384000000000000000e+03 3.874403762817382812e+01 1.495883178710937500e+01 -1.083196401596069336e+00 -1.232141971588134766e+00 -6.946014761924743652e-01 -1.142278432846069336e+00
4.385000000000000000e+03 4.349222183227539062e+01 2.005086326599121094e+01 -1.071258425712585449e+00 -1.121324062347412109e+00 -6.577747464179992676e-01 -1.177264690399169922e+00
4.386000000000000000e+03 5.093121719360351562e+01 2.767430877685546875e+01 -1.341671109199523926e+00 -5.822120308876037598e-01 -5.771649479866027832e-01 -1.043379426002502441e+00
4.387000000000000000e+03 2.529539489746093750e+01 3.858195543289184570e-01 -9.976824522018432617e-01 -8.137647807598114014e-02 -3.237176835536956787e-01 -4.334493875503540039e-01
4.388000000000000000e+03 3.330764389038085938e+01 3.009256553649902344e+01 4.950709268450737000e-02 8.390713483095169067e-02 4.002426937222480774e-02 5.897149816155433655e-02
4.389000000000000000e+03 4.600986862182617188e+01 2.293419837951660156e+01 -1.238775968551635742e+00 -1.056327939033508301e+00 -6.885311603546142578e-01 -1.166917324066162109e+00
4.390000000000000000e+03 4.798663330078125000e+01 2.401993370056152344e+01 -1.207875847816467285e+00 -8.400636315345764160e-01 -6.143818497657775879e-01 -1.105158686637878418e+00
4.391000000000000000e+03 3.635679244995117188e+01 1.267319679260253906e+01 -1.139960169792175293e+00 -1.289923429489135742e+00 -7.289650440216064453e-01 -1.163134932518005371e+00
4.392000000000000000e+03 3.974193954467773438e+01 1.617466735839843750e+01 -1.088221430778503418e+00 -1.194831371307373047e+00 -6.849158406257629395e-01 -1.166008353233337402e+00
4.393000000000000000e+03 2.434333419799804688e+01 1.902243804931640625e+01 6.980201601982116699e-02 1.236040517687797546e-01 5.802182108163833618e-02 9.410423785448074341e-02
4.394000000000000000e+03 2.409390640258789062e+01 1.837413024902343750e+01 7.439317554235458374e-02 1.262702494859695435e-01 6.019902974367141724e-02 9.820682555437088013e-02
4.395000000000000000e+03 3.904512023925781250e+01 1.517810916900634766e+01 -1.074288964271545410e+00 -1.212032556533813477e+00 -6.858964562416076660e-01 -1.137788772583007812e+00
4.396000000000000000e+03 2.192787742614746094e+01 1.728176689147949219e+01 6.912649422883987427e-02 1.395643204450607300e-01 6.260724365711212158e-02 9.902323782444000244e-02
4.397000000000000000e+03 4.546732330322265625e+01 2.199059104919433594e+01 -1.163102746009826660e+00 -1.057807087898254395e+00 -6.662729978561401367e-01 -1.144432783126831055e+00
4.398000000000000000e+03 4.521030044555664062e+01 2.222738838195800781e+01 -1.208368301391601562e+00 -1.110576868057250977e+00 -6.956835389137268066e-01 -1.180887103080749512e+00
4.399000000000000000e+03 5.346113204956054688e+01 2.934762382507324219e+01 -1.408824324607849121e+00 -9.402205049991607666e-02 -4.508539140224456787e-01 -9.437761306762695312e-01
4.400000000000000000e+03 4.948618698120117188e+01 2.579942703247070312e+01 -1.257529377937316895e+00 -7.371985316276550293e-01 -5.984183549880981445e-01 -1.090964436531066895e+00
4.401000000000000000e+03 2.552755546569824219e+01 1.991096496582031250e+01 6.818556040525436401e-02 1.179453507065773010e-01 5.583927407860755920e-02 9.102905541658401489e-02
4.402000000000000000e+03 4.336320495605468750e+01 1.973562812805175781e+01 -1.046961188316345215e+00 -1.108231663703918457e+00 -6.465578675270080566e-01 -1.169238090515136719e+00
4.403000000000000000e+03 2.676894760131835938e+01 2.001796913146972656e+01 7.405774295330047607e-02 1.125395521521568298e-01 5.597918853163719177e-02 9.233712404966354370e-02
4.404000000000000000e+03 4.991980361938476562e+01 2.634887313842773438e+01 -1.278169035911560059e+00 -6.997714638710021973e-01 -5.933821201324462891e-01 -1.077326655387878418e+00
4.405000000000000000e+03 5.004349517822265625e+01 2.674713134765625000e+01 -1.301366448402404785e+00 -7.109052538871765137e-01 -6.036815047264099121e-01 -1.081529855728149414e+00
4.406000000000000000e+03 1.860761833190917969e+01 1.295454502105712891e+01 8.846116811037063599e-02 1.797813922166824341e-01 8.047276735305786133e-02 1.245457381010055542e-01
4.407000000000000000e+03 2.654188346862792969e+01 2.862634956836700439e-01 -7.496562600135803223e-01 -3.024272918701171875e-01 -3.156250417232513428e-01 -2.489155232906341553e-01
4.408000000000000000e+03 4.326418304443359375e+01 1.942239379882812500e+01 -1.025111913681030273e+00 -1.093162298202514648e+00 -6.354822516441345215e-01 -1.159763336181640625e+00
4.409000000000000000e+03 4.103059768676757812e+01 1.683995628356933594e+01 -1.025045275688171387e+00 -1.101334691047668457e+00 -6.379140019416809082e-01 -1.144323706626892090e+00
4.410000000000000000e+03 4.028722000122070312e+01 1.644618988037109375e+01 -1.059117913246154785e+00 -1.146044492721557617e+00 -6.615487337112426758e-01 -1.153766870498657227e+00
4.411000000000000000e+03 2.090069770812988281e+01 1.551545047760009766e+01 8.036334812641143799e-02 1.523265391588211060e-01 6.980697065591812134e-02 1.095128208398818970e-01
4.412000000000000000e+03 2.514278411865234375e+01 1.951168632507324219e+01 6.981560587882995605e-02 1.198319420218467712e-01 5.689426511526107788e-02 9.234952181577682495e-02
4.413000000000000000e+03 4.433745193481445312e+01 2.076885223388671875e+01 -1.096199274063110352e+00 -1.095494270324707031e+00 -6.575080156326293945e-01 -1.154095411300659180e+00
4.414000000000000000e+03 2.349673271179199219e+01 1.817157173156738281e+01 7.231923192739486694e-02 1.299175769090652466e-01 6.067104265093803406e-02 9.866755455732345581e-02
4.415000000000000000e+03 3.935754013061523438e+01 1.539677333831787109e+01 -1.066294670104980469e+00 -1.189166426658630371e+00 -6.766383051872253418e-01 -1.130973219871520996e+00
4.416000000000000000e+03 3.967815780639648438e+01 1.561364364624023438e+01 -1.055218338966369629e+00 -1.165266156196594238e+00 -6.661453247070312500e-01 -1.127929210662841797e+00
4.417000000000000000e+03 7.066854095458984375e+01 2.940719985961914062e+01 -3.596535921096801758e-01 4.243598937988281250e+00 1.165183663368225098e+00 2.784534454345703125e+00
4.418000000000000000e+03 7.202285003662109375e+01 3.018456840515136719e+01 -7.748431563377380371e-01 7.175885677337646484e+00 1.920312643051147461e+00 3.812060356140136719e+00
4.419000000000000000e+03 3.567597961425781250e+01 1.153463363647460938e+01 -1.132454633712768555e+00 -1.250138878822326660e+00 -7.147780656814575195e-01 -1.122360825538635254e+00
4.420000000000000000e+03 3.596036148071289062e+01 1.226011943817138672e+01 -1.148770451545715332e+00 -1.285794258117675781e+00 -7.303694486618041992e-01 -1.161775827407836914e+00
4.421000000000000000e+03 7.114964294433593750e+01 2.938951873779296875e+01 -4.838400185108184814e-01 5.144674301147460938e+00 1.398250341415405273e+00 3.055013179779052734e+00
4.422000000000000000e+03 4.760411834716796875e+01 2.362734413146972656e+01 -1.196933746337890625e+00 -8.656590580940246582e-01 -6.187778115272521973e-01 -1.103732228279113770e+00
4.423000000000000000e+03 4.064321899414062500e+01 1.643176841735839844e+01 -1.033163309097290039e+00 -1.115096688270568848e+00 -6.444779634475708008e-01 -1.135451197624206543e+00
4.424000000000000000e+03 2.935546302795410156e+01 2.351077461242675781e+01 5.659866705536842346e-02 9.787085652351379395e-02 4.634085670113563538e-02 7.961881905794143677e-02
4.425000000000000000e+03 2.820311355590820312e+01 2.340719032287597656e+01 5.231690779328346252e-02 1.021396741271018982e-01 4.633697494864463806e-02 7.849261164665222168e-02
4.426000000000000000e+03 1.888208198547363281e+01 1.334717369079589844e+01 8.626179397106170654e-02 1.758601963520050049e-01 7.863659411668777466e-02 1.212165579199790955e-01
4.427000000000000000e+03 2.050832939147949219e+01 1.449922752380371094e+01 9.061042219400405884e-02 1.588874906301498413e-01 7.484937459230422974e-02 1.180433481931686401e-01
4.428000000000000000e+03 3.438692092895507812e+01 9.483599662780761719e+00 -1.139942765235900879e+00 -1.181300520896911621e+00 -6.963729858398437500e-01 -1.063843250274658203e+00
4.429000000000000000e+03 3.254019165039062500e+01 2.813184547424316406e+01 5.071172118186950684e-02 8.702272176742553711e-02 4.132033511996269226e-02 6.485384702682495117e-02
4.430000000000000000e+03 5.178578567504882812e+01 2.883152770996093750e+01 -1.375867486000061035e+00 -4.522789120674133301e-01 -5.484439134597778320e-01 -1.001448035240173340e+00
4.431000000000000000e+03 4.574002456665039062e+01 2.221556282043457031e+01 -1.171185135841369629e+00 -1.038753032684326172e+00 -6.629814505577087402e-01 -1.137771129608154297e+00
4.432000000000000000e+03 4.601763153076171875e+01 2.244415855407714844e+01 -1.178523421287536621e+00 -1.016874790191650391e+00 -6.586194634437561035e-01 -1.132558107376098633e+00
4.433000000000000000e+03 2.112639999389648438e+01 1.579126834869384766e+01 7.887586951255798340e-02 1.501025557518005371e-01 6.869352608919143677e-02 1.075622960925102234e-01
4.434000000000000000e+03 1.643338584899902344e+01 1.109931850433349609e+01 8.205051720142364502e-02 2.262073159217834473e-01 9.247735142707824707e-02 1.248803511261940002e-01
4.435000000000000000e+03 1.596881294250488281e+01 1.064682674407958984e+01 8.071861416101455688e-02 2.402992099523544312e-01 9.630534797906875610e-02 1.236759498715400696e-01
4.436000000000000000e+03 3.592126846313476562e+01 1.188056945800781250e+01 -1.124611854553222656e+00 -1.255882740020751953e+00 -7.141484022140502930e-01 -1.129080414772033691e+00
4.437000000000000000e+03 4.720043945312500000e+01 2.330204391479492188e+01 -1.191017746925354004e+00 -9.010149836540222168e-01 -6.276098489761352539e-01 -1.108349084854125977e+00
4.438000000000000000e+03 4.625588226318359375e+01 2.316563034057617188e+01 -1.248664855957031250e+00 -1.038765788078308105e+00 -6.862291693687438965e-01 -1.165602445602416992e+00
4.439000000000000000e+03 5.421675491333007812e+01 2.922268486022949219e+01 -1.415610313415527344e+00 3.716990351676940918e-02 -4.135321378707885742e-01 -9.400388598442077637e-01
4.440000000000000000e+03 8.953034400939941406e+00 1.009935283660888672e+01 8.225259184837341309e-02 3.122859634459018707e-02 3.404435515403747559e-02 -2.358636818826198578e-02
4.441000000000000000e+03 1.448129463195800781e+01 9.121523857116699219e+00 7.551602274179458618e-02 3.032880723476409912e-01 1.136412322521209717e-01 1.056151986122131348e-01
4.442000000000000000e+03 1.416266632080078125e+01 7.866491794586181641e+00 8.218872547149658203e-02 3.737328648567199707e-01 1.367764770984649658e-01 1.149375587701797485e-01
4.443000000000000000e+03 1.332812309265136719e+01 7.114130020141601562e+00 7.763424515724182129e-02 4.325278401374816895e-01 1.530486345291137695e-01 5.714119970798492432e-02
4.444000000000000000e+03 3.409720611572265625e+01 9.036178588867187500e+00 -1.148554205894470215e+00 -1.163575410842895508e+00 -6.936388611793518066e-01 -1.052491307258605957e+00
4.445000000000000000e+03 3.425712966918945312e+01 8.311326026916503906e+00 -1.112086534500122070e+00 -1.077827572822570801e+00 -6.569742560386657715e-01 -9.735158681869506836e-01
4.446000000000000000e+03 1.774404335021972656e+01 1.186054420471191406e+01 9.145549684762954712e-02 2.011466771364212036e-01 8.778065443038940430e-02 1.321816742420196533e-01
4.447000000000000000e+03 2.579200172424316406e+01 9.267165660858154297e-01 -1.328402876853942871e+00 -2.439062744379043579e-01 -4.716927409172058105e-01 -4.740644395351409912e-01
4.448000000000000000e+03 3.326261901855468750e+01 5.595847606658935547e+00 -1.190965652465820312e+00 -8.434430360794067383e-01 -6.103225946426391602e-01 -7.370589971542358398e-01
4.449000000000000000e+03 3.460114288330078125e+01 6.722364902496337891e+00 -1.039565086364746094e+00 -9.026629924774169922e-01 -5.826684236526489258e-01 -7.799084782600402832e-01
4.450000000000000000e+03 5.470434188842773438e+01 2.952547264099121094e+01 -1.441801667213439941e+00 1.064515784382820129e-01 -4.006050229072570801e-01 -9.347791671752929688e-01
4.451000000000000000e+03 1.514276599884033203e+01 1.016940689086914062e+01 7.416608929634094238e-02 2.573160231113433838e-01 9.944463521242141724e-02 1.119895204901695251e-01
4.452000000000000000e+03 3.229126739501953125e+01 4.714766979217529297e+00 -1.329734444618225098e+00 -7.930998802185058594e-01 -6.368502974510192871e-01 -6.483737826347351074e-01
4.453000000000000000e+03 3.278827667236328125e+01 5.146919727325439453e+00 -1.260403752326965332e+00 -8.152923583984375000e-01 -6.227088570594787598e-01 -6.978434324264526367e-01
4.454000000000000000e+03 1.643720245361328125e+01 1.157749462127685547e+01 7.568272948265075684e-02 2.173497527837753296e-01 8.790974318981170654e-02 1.176839470863342285e-01
4.455000000000000000e+03 1.546505641937255859e+01 1.067992782592773438e+01 7.235282659530639648e-02 2.425381094217300415e-01 9.446728229522705078e-02 1.114008650183677673e-01
4.456000000000000000e+03 2.891154479980468750e+01 2.362564277648925781e+01 5.409231036901473999e-02 9.955493360757827759e-02 4.609417170286178589e-02 7.868418097496032715e-02
4.457000000000000000e+03 3.048423957824707031e+01 3.949505090713500977e+00 -1.615235567092895508e+00 -8.542383313179016113e-01 -7.408421635627746582e-01 -5.948936343193054199e-01
4.458000000000000000e+03 2.937136077880859375e+01 3.994720458984375000e+00 -1.940661907196044922e+00 -1.022771835327148438e+00 -8.890300989151000977e-01 -7.751714587211608887e-01
4.459000000000000000e+03 1.328224277496337891e+01 7.551274776458740234e+00 7.752563059329986572e-02 3.925606012344360352e-01 1.410258710384368896e-01 4.946225881576538086e-02
4.460000000000000000e+03 1.373244667053222656e+01 7.511188030242919922e+00 7.810145616531372070e-02 4.026394784450531006e-01 1.442222744226455688e-01 9.052881598472595215e-02
4.461000000000000000e+03 3.008596992492675781e+01 3.984028816223144531e+00 -1.749414324760437012e+00 -9.201506972312927246e-01 -8.008695244789123535e-01 -6.525957584381103516e-01
4.462000000000000000e+03 3.090764427185058594e+01 3.901591300964355469e+00 -1.529537320137023926e+00 -8.242725133895874023e-01 -7.061429619789123535e-01 -5.526146888732910156e-01
4.463000000000000000e+03 2.648534393310546875e+01 -1.054521128535270691e-01 -3.090740442276000977e-01 -2.425507754087448120e-01 -1.654874533414840698e-01 -2.042523324489593506e-01
4.464000000000000000e+03 3.079212760925292969e+01 2.630149078369140625e+01 4.978516325354576111e-02 9.139633178710937500e-02 4.235444962978363037e-02 7.041187584400177002e-02
4.465000000000000000e+03 2.945265388488769531e+01 2.457683563232421875e+01 5.094973742961883545e-02 9.667589515447616577e-02 4.428768903017044067e-02 7.568607479333877563e-02
4.466000000000000000e+03 3.095866394042968750e+01 -1.530558317899703979e-01 -1.873942762613296509e-01 -6.405463218688964844e-01 -2.483821809291839600e-01 3.270942345261573792e-02
4.467000000000000000e+03 3.088470840454101562e+01 4.341609954833984375e+00 -1.604706525802612305e+00 -8.469867110252380371e-01 -7.355079650878906250e-01 -6.625745892524719238e-01
4.468000000000000000e+03 3.377464675903320312e+01 8.602532386779785156e+00 -1.150897979736328125e+00 -1.152125597000122070e+00 -6.909070611000061035e-01 -1.046940445899963379e+00
4.469000000000000000e+03 3.462448120117187500e+01 8.742219924926757812e+00 -1.086137533187866211e+00 -1.096402287483215332e+00 -6.547619700431823730e-01 -9.788758754730224609e-01
4.470000000000000000e+03 3.172805404663085938e+01 2.672276115417480469e+01 5.173131451010704041e-02 8.920147269964218140e-02 4.227983579039573669e-02 6.917310506105422974e-02
4.471000000000000000e+03 2.848397445678710938e+01 1.723627299070358276e-01 -4.180913567543029785e-01 -5.055991411209106445e-01 -2.771071493625640869e-01 -6.245766952633857727e-02
4.472000000000000000e+03 2.816482353210449219e+01 9.522615075111389160e-01 -8.834015130996704102e-01 -5.936355590820312500e-01 -4.431111216545104980e-01 -2.111506313085556030e-01
4.473000000000000000e+03 1.256874561309814453e+01 5.996191024780273438e+00 1.292591691017150879e-01 4.905088841915130615e-01 1.859304159879684448e-01 -8.658149093389511108e-02
4.474000000000000000e+03 1.214161968231201172e+01 5.479897975921630859e+00 2.030863463878631592e-01 4.303215742111206055e-01 1.900223791599273682e-01 -1.568551361560821533e-01
4.475000000000000000e+03 6.409799194335937500e+01 2.687578201293945312e+01 -3.879910409450531006e-01 9.696251749992370605e-01 1.744902431964874268e-01 4.371007904410362244e-02
4.476000000000000000e+03 2.921371269226074219e+01 2.514884567260742188e+01 4.797709360718727112e-02 9.664248675107955933e-02 4.338587448000907898e-02 7.335553318262100220e-02
4.477000000000000000e+03 2.919103240966796875e+01 2.392043113708496094e+01 5.319704860448837280e-02 9.812862426042556763e-02 4.539770260453224182e-02 7.766862958669662476e-02
4.478000000000000000e+03 3.376153182983398438e+01 6.460276126861572266e+00 -1.130967140197753906e+00 -9.211566448211669922e-01 -6.156371235847473145e-01 -8.162047863006591797e-01
4.479000000000000000e+03 3.046567916870117188e+01 2.607127571105957031e+01 4.923572018742561340e-02 9.209868311882019043e-02 4.240031912922859192e-02 7.076851278543472290e-02
4.480000000000000000e+03 2.977837181091308594e+01 2.529933357238769531e+01 4.919713735580444336e-02 9.492421150207519531e-02 4.323640465736389160e-02 7.315824180841445923e-02
4.481000000000000000e+03 7.066110229492187500e+01 2.885936546325683594e+01 -3.751879930496215820e-01 4.529204845428466797e+00 1.246205091476440430e+00 2.674041271209716797e+00
4.482000000000000000e+03 3.394054794311523438e+01 7.902288913726806641e+00 -1.127652406692504883e+00 -1.068314790725708008e+00 -6.587901711463928223e-01 -9.705051779747009277e-01
4.483000000000000000e+03 3.069033432006835938e+01 -9.320335984230041504e-01 7.249175757169723511e-02 -6.143261194229125977e-01 -1.625503003597259521e-01 3.281100466847419739e-02
4.484000000000000000e+03 6.877208709716796875e+01 2.713620376586914062e+01 -5.092445388436317444e-02 3.035607576370239258e+00 8.954049348831176758e-01 1.627885580062866211e+00
4.485000000000000000e+03 7.246085357666015625e+01 2.541291809082031250e+01 -5.313839316368103027e-01 7.162469387054443359e+00 1.989325761795043945e+00 1.755064249038696289e+00
4.486000000000000000e+03 1.814073181152343750e+01 1.222865009307861328e+01 9.275082498788833618e-02 1.918480247259140015e-01 8.537966012954711914e-02 1.312210112810134888e-01
4.487000000000000000e+03 3.097377395629882812e+01 -1.470529913902282715e+00 2.451316416263580322e-01 -6.352376341819763184e-01 -1.170317977666854858e-01 3.452618792653083801e-02
4.488000000000000000e+03 2.932266235351562500e+01 -8.343316316604614258e-01 6.980595737695693970e-02 -5.819813609123229980e-01 -1.536526232957839966e-01 -2.796923741698265076e-02
4.489000000000000000e+03 7.186829376220703125e+01 2.731643295288085938e+01 -6.952177286148071289e-01 6.678665161132812500e+00 1.795034170150756836e+00 2.369466304779052734e+00
4.490000000000000000e+03 3.389774322509765625e+01 6.879277706146240234e+00 -1.126343607902526855e+00 -9.517832398414611816e-01 -6.234380602836608887e-01 -8.614850640296936035e-01
4.491000000000000000e+03 3.547756958007812500e+01 1.063115215301513672e+01 -1.102173089981079102e+00 -1.196164727210998535e+00 -6.895013451576232910e-01 -1.067438602447509766e+00
4.492000000000000000e+03 3.497786331176757812e+01 3.198824882507324219e+01 5.337045341730117798e-02 7.868257164955139160e-02 3.961590677499771118e-02 5.500082299113273621e-02
4.493000000000000000e+03 3.631571960449218750e+01 3.263345718383789062e+01 5.760825052857398987e-02 7.491204142570495605e-02 3.975608572363853455e-02 5.515806749463081360e-02
4.494000000000000000e+03 3.760921096801757812e+01 3.350099945068359375e+01 6.280209869146347046e-02 6.974801421165466309e-02 3.976503387093544006e-02 5.385601893067359924e-02
4.495000000000000000e+03 6.590695190429687500e+01 2.686186599731445312e+01 -1.710326522588729858e-01 1.476837992668151855e+00 3.917416036128997803e-01 5.637496709823608398e-01
4.496000000000000000e+03 6.649832916259765625e+01 2.680809020996093750e+01 -1.034327968955039978e-01 1.731060147285461426e+00 4.882881939411163330e-01 7.535023093223571777e-01
4.497000000000000000e+03 3.202546310424804688e+01 2.814451599121093750e+01 4.842073097825050354e-02 8.794325590133666992e-02 4.090919718146324158e-02 6.462872028350830078e-02
4.498000000000000000e+03 3.510525512695312500e+01 9.755108833312988281e+00 -1.088026404380798340e+00 -1.150322914123535156e+00 -6.715047955513000488e-01 -1.023059368133544922e+00
4.499000000000000000e+03 9.343599319458007812e+00 6.993876934051513672e+00 1.823124140501022339e-01 -4.556265193969011307e-03 5.332684516906738281e-02 -3.642407804727554321e-02
4.500000000000000000e+03 9.375476837158203125e+00 1.054929542541503906e+01 7.210087776184082031e-02 5.660515278577804565e-02 3.861181065440177917e-02 -2.455982752144336700e-02
4.501000000000000000e+03 3.531304931640625000e+01 3.276126480102539062e+01 5.348158255219459534e-02 7.684777677059173584e-02 3.909880667924880981e-02 5.299050733447074890e-02
4.502000000000000000e+03 1.401317024230957031e+01 9.677534103393554688e+00 6.335067749023437500e-02 2.773286402225494385e-01 1.022037938237190247e-01 7.770693302154541016e-02
4.503000000000000000e+03 1.015939712524414062e+01 6.225257396697998047e+00 2.247199416160583496e-01 4.553164541721343994e-02 8.107547461986541748e-02 -7.458643615245819092e-02
4.504000000000000000e+03 8.389295578002929688e+00 1.067670249938964844e+01 7.057006657123565674e-02 9.477706626057624817e-03 2.401433326303958893e-02 -1.719341613352298737e-02
4.505000000000000000e+03 7.363862609863281250e+01 2.860265541076660156e+01 -1.627089977264404297e+00 1.010208129882812500e+01 2.542497396469116211e+00 2.098723411560058594e+00
4.506000000000000000e+03 7.117508697509765625e+01 2.650804519653320312e+01 -4.178135991096496582e-01 5.845118045806884766e+00 1.628191232681274414e+00 2.123066902160644531e+00
4.507000000000000000e+03 7.293833160400390625e+01 2.596927452087402344e+01 -7.635261416435241699e-01 7.802300930023193359e+00 2.111632585525512695e+00 1.778438925743103027e+00
4.508000000000000000e+03 1.210457515716552734e+01 5.889627933502197266e+00 1.746872663497924805e-01 3.876353800296783447e-01 1.686967909336090088e-01 -1.213523522019386292e-01
4.509000000000000000e+03 4.004230880737304688e+01 3.566728973388671875e+01 7.988058775663375854e-02 5.545099079608917236e-02 4.059947282075881958e-02 4.856363683938980103e-02
4.510000000000000000e+03 7.402143859863281250e+01 2.834661865234375000e+01 -1.626814007759094238e+00 1.035809040069580078e+01 2.619382858276367188e+00 1.643897175788879395e+00
4.511000000000000000e+03 6.822124481201171875e+01 2.693001747131347656e+01 -2.359217964112758636e-02 2.717965841293334961e+00 8.083121180534362793e-01 1.427636146545410156e+00
4.512000000000000000e+03 5.911941146850585938e+01 2.730027580261230469e+01 -9.989643692970275879e-01 4.355194866657257080e-01 -1.690334677696228027e-01 -7.658220529556274414e-01
4.513000000000000000e+03 6.230491638183593750e+01 2.599249649047851562e+01 -4.038933813571929932e-01 8.489515781402587891e-01 1.335174590349197388e-01 -2.369749248027801514e-01
4.514000000000000000e+03 6.156983947753906250e+01 2.745969963073730469e+01 -8.255142569541931152e-01 5.360551476478576660e-01 -8.683773130178451538e-02 -5.146285891532897949e-01
4.515000000000000000e+03 6.262547683715820312e+01 2.651052856445312500e+01 -4.811780154705047607e-01 7.986917495727539062e-01 9.525411576032638550e-02 -2.383906394243240356e-01
4.516000000000000000e+03 3.184083366394042969e+01 -1.653243780136108398e+00 2.688189744949340820e-01 -6.566770672798156738e-01 -1.163574233651161194e-01 4.761670157313346863e-02
4.517000000000000000e+03 7.334698486328125000e+01 2.765975952148437500e+01 -1.278507113456726074e+00 9.019375801086425781e+00 2.322260618209838867e+00 1.994042992591857910e+00
4.518000000000000000e+03 6.531130218505859375e+01 2.692168045043945312e+01 -2.389083802700042725e-01 1.266626358032226562e+00 3.083153963088989258e-01 3.760394454002380371e-01
4.519000000000000000e+03 6.351164245605468750e+01 2.678383255004882812e+01 -4.390047490596771240e-01 8.670012950897216797e-01 1.283989548683166504e-01 -8.377829939126968384e-02
4.520000000000000000e+03 8.672801971435546875e+00 1.176572990417480469e+01 4.858322441577911377e-02 2.863938547670841217e-02 2.316678315401077271e-02 -1.943133585155010223e-02
4.521000000000000000e+03 6.003070068359375000e+01 2.754440879821777344e+01 -9.872751235961914062e-01 4.539009928703308105e-01 -1.600122302770614624e-01 -7.059173583984375000e-01
4.522000000000000000e+03 5.845816421508789062e+01 2.747142410278320312e+01 -1.076399564743041992e+00 3.939006328582763672e-01 -2.047496885061264038e-01 -8.220032453536987305e-01
4.523000000000000000e+03 1.023497200012207031e+01 6.697298526763916016e+00 1.956054270267486572e-01 7.885778695344924927e-02 8.233896642923355103e-02 -7.595641911029815674e-02
4.524000000000000000e+03 5.673388290405273438e+01 2.626606178283691406e+01 -9.892793297767639160e-01 3.360414803028106689e-01 -1.959713548421859741e-01 -8.234559893608093262e-01
4.525000000000000000e+03 5.666892623901367188e+01 2.686668586730957031e+01 -1.088430404663085938e+00 3.097059130668640137e-01 -2.336173504590988159e-01 -8.628221750259399414e-01
4.526000000000000000e+03 1.034252166748046875e+01 7.243453502655029297e+00 1.636487543582916260e-01 1.039459109306335449e-01 8.027839660644531250e-02 -6.697649508714675903e-02
4.527000000000000000e+03 3.215583419799804688e+01 -2.128763675689697266e+00 3.661900162696838379e-01 -6.677052974700927734e-01 -9.045458585023880005e-02 4.410828649997711182e-02
4.528000000000000000e+03 3.122845077514648438e+01 -6.585164070129394531e-01 -1.121371891349554062e-02 -6.657288670539855957e-01 -2.030827850103378296e-01 4.394393414258956909e-02
4.529000000000000000e+03 1.114421272277832031e+01 -9.446565628051757812e+00 -1.464869081974029541e-01 -5.007026791572570801e-01 -1.941568702459335327e-01 -6.345974206924438477e-01
4.530000000000000000e+03 9.608857154846191406e+00 -8.701374053955078125e+00 -2.195355445146560669e-01 -3.815370500087738037e-01 -1.803217679262161255e-01 -5.585036873817443848e-01
4.531000000000000000e+03 6.877909088134765625e+01 4.534621238708496094e+00 2.480508089065551758e-01 4.791567325592041016e+00 1.511885404586791992e+00 7.190263867378234863e-01
4.532000000000000000e+03 6.947150421142578125e+01 1.674805879592895508e+00 1.967948377132415771e-01 4.949201583862304688e+00 1.543799042701721191e+00 6.274344921112060547e-01
4.533000000000000000e+03 7.305027008056640625e+00 7.484749794006347656e+00 1.328084468841552734e-01 -8.876910805702209473e-02 1.321180257946252823e-02 2.867087349295616150e-02
4.534000000000000000e+03 1.023771381378173828e+01 -8.173975944519042969e+00 -2.331226766109466553e-01 -3.914194405078887939e-01 -1.873626410961151123e-01 -5.868853330612182617e-01
4.535000000000000000e+03 6.470428466796875000e+01 2.693745422363281250e+01 -3.195691406726837158e-01 1.075233697891235352e+00 2.266993522644042969e-01 1.826935559511184692e-01
4.536000000000000000e+03 1.057624435424804688e+01 2.240293502807617188e+01 -8.216283284127712250e-03 1.918649300932884216e-02 3.291063010692596436e-03 -8.253973908722400665e-03
4.537000000000000000e+03 9.534863471984863281e+00 1.945413780212402344e+01 -3.680809168145060539e-03 1.680558733642101288e-02 3.937433473765850067e-03 -1.291003543883562088e-02
4.538000000000000000e+03 1.049511241912841797e+01 2.087294578552246094e+01 -6.470755208283662796e-03 2.629905194044113159e-02 5.948489066213369370e-03 -8.740041404962539673e-03
4.539000000000000000e+03 6.836764526367187500e+01 -1.161453437805175781e+01 1.155569106340408325e-01 4.494480609893798828e+00 1.383011221885681152e+00 3.568456172943115234e-01
4.540000000000000000e+03 6.868927764892578125e+01 -1.333231163024902344e+01 9.550552815198898315e-02 4.528423786163330078e+00 1.387178778648376465e+00 3.206278085708618164e-01
4.541000000000000000e+03 3.436144638061523438e+01 -2.366077899932861328e+00 3.677785694599151611e-01 -6.555556654930114746e-01 -8.633311837911605835e-02 6.024849414825439453e-02
4.542000000000000000e+03 6.068303298950195312e+01 2.658395576477050781e+01 -6.988131403923034668e-01 5.842267274856567383e-01 -3.437592089176177979e-02 -5.463104248046875000e-01
4.543000000000000000e+03 7.077846527099609375e+01 7.387761592864990234e+00 2.173072397708892822e-01 5.434779167175292969e+00 1.695625901222229004e+00 7.683099508285522461e-01
4.544000000000000000e+03 6.754478454589843750e+01 -1.743558311462402344e+01 7.707834988832473755e-02 4.256037235260009766e+00 1.299934625625610352e+00 2.864978611469268799e-01
4.545000000000000000e+03 6.936418151855468750e+01 -3.397673606872558594e+00 1.591940969228744507e-01 4.813662052154541016e+00 1.491856813430786133e+00 5.074848532676696777e-01
4.546000000000000000e+03 3.819728088378906250e+01 3.448679733276367188e+01 6.643299758434295654e-02 6.571465730667114258e-02 3.964429348707199097e-02 5.164774134755134583e-02
4.547000000000000000e+03 6.987918853759765625e+01 2.137355804443359375e+01 2.020866274833679199e-01 4.959365844726562500e+00 1.548435807228088379e+00 1.344719767570495605e+00
4.548000000000000000e+03 3.986985015869140625e+01 -6.425185680389404297e+00 5.425190329551696777e-01 -3.509082794189453125e-01 5.748322606086730957e-02 4.341126233339309692e-02
4.549000000000000000e+03 7.156835174560546875e+01 2.407448005676269531e+01 -1.636345088481903076e-01 6.165385723114013672e+00 1.800525307655334473e+00 1.643040537834167480e+00
4.550000000000000000e+03 6.879811859130859375e+01 2.431018638610839844e+01 1.356495916843414307e-01 3.883092164993286133e+00 1.205622553825378418e+00 1.441322922706604004e+00
4.551000000000000000e+03 9.825521469116210938e+00 -1.212941646575927734e+01 -3.146591363474726677e-03 -5.515269041061401367e-01 -1.664020419120788574e-01 -5.569437742233276367e-01
4.552000000000000000e+03 1.029950332641601562e+01 1.531524181365966797e+01 1.201429497450590134e-02 6.113361194729804993e-02 2.194437198340892792e-02 -7.323809899389743805e-03
4.553000000000000000e+03 6.858833312988281250e+01 1.952193260192871094e+01 3.290562331676483154e-01 4.377386569976806641e+00 1.411932826042175293e+00 1.160988926887512207e+00
4.554000000000000000e+03 3.684128570556640625e+01 -5.911659240722656250e+00 6.088148951530456543e-01 -5.476129651069641113e-01 1.836057566106319427e-02 -4.074568860232830048e-03
4.555000000000000000e+03 4.414499664306640625e+01 -1.183469867706298828e+01 4.331183135509490967e-01 1.916338354349136353e-01 1.874256432056427002e-01 5.188396945595741272e-02
4.556000000000000000e+03 7.002297210693359375e+01 -8.588512420654296875e+00 1.101368516683578491e-01 4.873257637023925781e+00 1.495018362998962402e+00 3.832814097404479980e-01
4.557000000000000000e+03 7.076950836181640625e+01 1.642099952697753906e+01 2.738158702850341797e-01 5.563982486724853516e+00 1.751339554786682129e+00 1.100050210952758789e+00
4.558000000000000000e+03 9.379673957824707031e+00 1.358931064605712891e+01 2.442016452550888062e-02 4.641690105199813843e-02 2.125111967325210571e-02 -1.552782300859689713e-02
4.559000000000000000e+03 9.668517112731933594e+00 1.652457618713378906e+01 6.060765124857425690e-03 3.739946335554122925e-02 1.303806807845830917e-02 -1.065196376293897629e-02
4.560000000000000000e+03 6.900598144531250000e+01 -8.353507995605468750e+00 1.337859779596328735e-01 4.669822216033935547e+00 1.441082358360290527e+00 4.124118983745574951e-01
4.561000000000000000e+03 6.985268402099609375e+01 4.382678985595703125e+00 2.191987037658691406e-01 5.093692302703857422e+00 1.593867301940917969e+00 7.018842101097106934e-01
4.562000000000000000e+03 4.171355056762695312e+01 -8.731967926025390625e+00 5.258792638778686523e-01 -1.406996548175811768e-01 1.155538931488990784e-01 3.954662010073661804e-02
4.563000000000000000e+03 4.088692855834960938e+01 -7.729259014129638672e+00 5.469154119491577148e-01 -2.369296103715896606e-01 9.299574792385101318e-02 3.964824602007865906e-02
4.564000000000000000e+03 6.961715698242187500e+01 1.058540439605712891e+01 2.869535386562347412e-01 5.103922367095947266e+00 1.617262840270996094e+00 8.999572396278381348e-01
4.565000000000000000e+03 6.715250396728515625e+01 -2.440756797790527344e+01 5.332946404814720154e-02 4.144156932830810547e+00 1.259245872497558594e+00 2.291030883789062500e-01
4.566000000000000000e+03 1.193162536621093750e+01 -1.572063827514648438e+01 1.578598767518997192e-01 -6.081091761589050293e-01 -1.350747793912887573e-01 -5.016548633575439453e-01
4.567000000000000000e+03 1.691477966308593750e+01 -1.899647521972656250e+01 2.436796724796295166e-01 -3.323026001453399658e-01 -2.658687904477119446e-02 -3.573448657989501953e-01
4.568000000000000000e+03 1.080486488342285156e+01 2.407479286193847656e+01 -9.354799985885620117e-03 1.443958748131990433e-02 1.525436411611735821e-03 -7.302699144929647446e-03
4.569000000000000000e+03 7.228309631347656250e+01 2.431060600280761719e+01 -3.032221496105194092e-01 6.855589389801025391e+00 1.965710282325744629e+00 1.595965504646301270e+00
4.570000000000000000e+03 4.039757156372070312e+01 -6.824849128723144531e+00 5.552805066108703613e-01 -2.979896962642669678e-01 7.718725502490997314e-02 4.050552845001220703e-02
4.571000000000000000e+03 6.956082153320312500e+01 -9.699845314025878906e+00 1.113770827651023865e-01 4.746899127960205078e+00 1.457482814788818359e+00 3.677003383636474609e-01
4.572000000000000000e+03 1.259145927429199219e+01 -6.354286670684814453e+00 -4.877212643623352051e-01 -3.998855352401733398e-01 -2.662820219993591309e-01 -7.018306255340576172e-01
4.573000000000000000e+03 1.318370723724365234e+01 -7.475050926208496094e+00 -3.317686319351196289e-01 -5.677487850189208984e-01 -2.698552310466766357e-01 -7.585509419441223145e-01
4.574000000000000000e+03 9.175026893615722656e+00 -1.499934482574462891e+01 6.739955395460128784e-02 -6.254851222038269043e-01 -1.674256771802902222e-01 -4.973664879798889160e-01
4.575000000000000000e+03 9.810197830200195312e+00 -1.914610290527343750e+01 1.323725432157516479e-01 -6.688670516014099121e-01 -1.609483510255813599e-01 -4.159413874149322510e-01
4.576000000000000000e+03 1.091602802276611328e+01 1.607553100585937500e+01 8.657064288854598999e-03 7.487078756093978882e-02 2.505835704505443573e-02 -2.654269337654113770e-03
4.577000000000000000e+03 1.033369636535644531e+01 1.675833320617675781e+01 5.642444361001253128e-03 5.012116953730583191e-02 1.672908477485179901e-02 -7.743915542960166931e-03
4.578000000000000000e+03 1.170118331909179688e+01 -8.287519454956054688e+00 -2.698444128036499023e-01 -4.679904580116271973e-01 -2.213504612445831299e-01 -6.665065884590148926e-01
4.579000000000000000e+03 6.953661346435546875e+01 1.936332702636718750e+01 2.879425883293151855e-01 4.860496520996093750e+00 1.544531702995300293e+00 1.206802248954772949e+00
4.580000000000000000e+03 1.612359619140625000e+01 -2.099881553649902344e+01 2.347821444272994995e-01 -3.565290272235870361e-01 -3.652406483888626099e-02 -3.551635444164276123e-01
4.581000000000000000e+03 1.245909976959228516e+01 2.373952865600585938e+01 -8.373456075787544250e-03 4.060177877545356750e-02 9.668497368693351746e-03 1.515850424766540527e-03
4.582000000000000000e+03 1.226173686981201172e+01 2.663833808898925781e+01 -9.015484713017940521e-03 2.457842603325843811e-02 4.668882582336664200e-03 -1.273679197765886784e-03
4.583000000000000000e+03 3.959145355224609375e+01 3.737805557250976562e+01 8.399057388305664062e-02 5.356624722480773926e-02 4.126704484224319458e-02 3.782961517572402954e-02
4.584000000000000000e+03 3.666270446777343750e+01 4.119041442871093750e+01 7.523861527442932129e-02 5.906853824853897095e-02 4.029214754700660706e-02 8.964262902736663818e-03
4.585000000000000000e+03 1.010139656066894531e+01 -2.214029312133789062e+01 1.390652209520339966e-01 -6.897081136703491211e-01 -1.651928573846817017e-01 -3.586440086364746094e-01
4.586000000000000000e+03 4.404385375976562500e+01 -1.552621650695800781e+01 2.856104075908660889e-01 2.317007929086685181e-01 1.551933586597442627e-01 4.746521636843681335e-02
4.587000000000000000e+03 7.034164428710937500e+01 1.414051437377929688e+01 2.936837971210479736e-01 5.389746189117431641e+00 1.705029010772705078e+00 1.005014061927795410e+00
4.588000000000000000e+03 6.692073059082031250e+01 -2.713317489624023438e+01 5.877585709095001221e-02 4.084959030151367188e+00 1.243120431900024414e+00 2.181396931409835815e-01
4.589000000000000000e+03 4.793960571289062500e+01 -3.164277076721191406e+01 -1.113618984818458557e-01 9.885880351066589355e-01 2.631678581237792969e-01 3.209399580955505371e-01
4.590000000000000000e+03 4.941659927368164062e+01 -2.852631187438964844e+01 -8.837480843067169189e-02 1.240161061286926270e+00 3.455358445644378662e-01 2.192663997411727905e-01
4.591000000000000000e+03 5.109348297119140625e+01 -2.707295417785644531e+01 -4.974796250462532043e-02 1.493357062339782715e+00 4.330827295780181885e-01 2.252030521631240845e-01
4.592000000000000000e+03 8.680633544921875000e+00 -1.248576068878173828e+01 -9.869488887488842010e-03 -5.467837452888488770e-01 -1.669959723949432373e-01 -5.227442979812622070e-01
4.593000000000000000e+03 1.260644626617431641e+01 2.876399230957031250e+01 -9.516750462353229523e-03 1.981931366026401520e-02 3.090769052505493164e-03 -6.921986932866275311e-04
4.594000000000000000e+03 6.782911682128906250e+01 -8.586694598197937012e-01 2.201522737741470337e-01 4.491554737091064453e+00 1.413511991500854492e+00 5.862432122230529785e-01
4.595000000000000000e+03 6.978453063964843750e+01 2.576287031173706055e+00 1.981296390295028687e-01 5.039048194885253906e+00 1.571153283119201660e+00 6.409154534339904785e-01
4.596000000000000000e+03 6.851338195800781250e+01 1.975230455398559570e+00 2.288493961095809937e-01 4.696658611297607422e+00 1.477652430534362793e+00 6.568744778633117676e-01
4.597000000000000000e+03 1.067208385467529297e+01 -1.605579757690429688e+01 1.156898066401481628e-01 -6.343556642532348633e-01 -1.555997580289840698e-01 -4.955256581306457520e-01
4.598000000000000000e+03 1.158854579925537109e+01 -1.442057228088378906e+01 1.012627705931663513e-01 -6.214294433593750000e-01 -1.560499966144561768e-01 -5.408627986907958984e-01
4.599000000000000000e+03 6.884632873535156250e+01 -1.507757854461669922e+01 8.028611540794372559e-02 4.541862010955810547e+00 1.386644482612609863e+00 2.939659655094146729e-01
4.600000000000000000e+03 2.820495414733886719e+01 2.364962339401245117e+00 -1.616792201995849609e+00 -7.250370979309082031e-01 -7.025487422943115234e-01 -5.138371586799621582e-01
4.601000000000000000e+03 2.548235702514648438e+01 6.435387730598449707e-01 -1.186977624893188477e+00 -1.451608091592788696e-01 -3.996415436267852783e-01 -4.572570025920867920e-01
4.602000000000000000e+03 7.251697540283203125e+01 3.025314331054687500e+01 -1.145384192466735840e+00 8.684327125549316406e+00 2.261682987213134766e+00 3.802623987197875977e+00
4.603000000000000000e+03 7.376050567626953125e+01 2.930579566955566406e+01 -1.809103608131408691e+00 1.094951534271240234e+01 2.742123603820800781e+00 2.124337673187255859e+00
4.604000000000000000e+03 2.542634391784667969e+01 1.146312952041625977e+00 -1.638944268226623535e+00 -2.309757471084594727e-01 -5.609760284423828125e-01 -6.342173218727111816e-01
4.605000000000000000e+03 4.243292999267578125e+01 1.827338790893554688e+01 -9.915217757225036621e-01 -1.076972961425781250e+00 -6.205484271049499512e-01 -1.152790188789367676e+00
4.606000000000000000e+03 2.694641494750976562e+01 -1.259009093046188354e-01 -3.963516354560852051e-01 -3.587429821491241455e-01 -2.265283912420272827e-01 -2.351213395595550537e-01
4.607000000000000000e+03 4.145386886596679688e+01 1.726883506774902344e+01 -1.014259099960327148e+00 -1.088616132736206055e+00 -6.308625936508178711e-01 -1.152517676353454590e+00
4.608000000000000000e+03 4.839990997314453125e+01 2.400195884704589844e+01 -1.178758144378662109e+00 -7.721850872039794922e-01 -5.852829813957214355e-01 -1.071845173835754395e+00
4.609000000000000000e+03 4.836405944824218750e+01 2.440048408508300781e+01 -1.209927558898925781e+00 -8.094234466552734375e-01 -6.058053374290466309e-01 -1.100825548171997070e+00
4.610000000000000000e+03 1.736487007141113281e+01 1.235514545440673828e+01 7.895020395517349243e-02 1.984689533710479736e-01 8.322574198246002197e-02 1.201358288526535034e-01
4.611000000000000000e+03 1.817002487182617188e+01 1.258911991119384766e+01 8.618101477622985840e-02 1.878933012485504150e-01 8.222229778766632080e-02 1.250777393579483032e-01
4.612000000000000000e+03 1.029001522064208984e+01 1.321372509002685547e+01 2.910461835563182831e-02 8.095341920852661133e-02 3.301741182804107666e-02 -6.156020797789096832e-03
4.613000000000000000e+03 4.466695785522460938e+01 2.061084747314453125e+01 -1.060517191886901855e+00 -1.045580744743347168e+00 -6.318293809890747070e-01 -1.120994448661804199e+00
4.614000000000000000e+03 4.279249572753906250e+01 1.918530845642089844e+01 -1.032545566558837891e+00 -1.118141174316406250e+00 -6.452060341835021973e-01 -1.182880282402038574e+00
4.615000000000000000e+03 4.832760238647460938e+01 2.476776885986328125e+01 -1.241604208946228027e+00 -8.444077372550964355e-01 -6.258035898208618164e-01 -1.128200173377990723e+00
4.616000000000000000e+03 4.674489974975585938e+01 2.316473960876464844e+01 -1.210745096206665039e+00 -9.635197520256042480e-01 -6.522794365882873535e-01 -1.128226041793823242e+00
4.617000000000000000e+03 4.800930023193359375e+01 2.358623123168945312e+01 -1.162863850593566895e+00 -8.047572970390319824e-01 -5.902863144874572754e-01 -1.072295546531677246e+00
4.618000000000000000e+03 2.645162582397460938e+01 2.129326438903808594e+01 6.016223877668380737e-02 1.119934618473052979e-01 5.164670944213867188e-02 8.526694029569625854e-02
4.619000000000000000e+03 4.868356323242187500e+01 2.480820655822753906e+01 -1.223966479301452637e+00 -7.944225072860717773e-01 -6.055167317390441895e-01 -1.105402946472167969e+00
4.620000000000000000e+03 5.251830673217773438e+01 2.815847396850585938e+01 -1.347777962684631348e+00 -2.578206062316894531e-01 -4.816795885562896729e-01 -9.685081243515014648e-01
4.621000000000000000e+03 2.607886505126953125e+01 1.057659626007080078e+00 -1.420588731765747070e+00 -3.618699312210083008e-01 -5.347375869750976562e-01 -4.910063147544860840e-01
4.622000000000000000e+03 2.617074394226074219e+01 4.249641001224517822e-01 -8.122738003730773926e-01 -2.531644999980926514e-01 -3.196314871311187744e-01 -3.396553993225097656e-01
4.623000000000000000e+03 3.703839492797851562e+01 1.269098186492919922e+01 -1.087826848030090332e+00 -1.231336712837219238e+00 -6.957490444183349609e-01 -1.111408114433288574e+00
4.624000000000000000e+03 4.480714797973632812e+01 2.087307167053222656e+01 -1.077563881874084473e+00 -1.047508478164672852e+00 -6.375216841697692871e-01 -1.124630212783813477e+00
4.625000000000000000e+03 7.366949462890625000e+01 3.051391792297363281e+01 -2.086959123611450195e+00 1.262977027893066406e+01 3.162843465805053711e+00 2.848526954650878906e+00
4.626000000000000000e+03 4.868924713134765625e+01 2.515387344360351562e+01 -1.252367973327636719e+00 -8.202913403511047363e-01 -6.217978000640869141e-01 -1.125348329544067383e+00
4.627000000000000000e+03 3.721728515625000000e+01 1.328980731964111328e+01 -1.108901500701904297e+00 -1.261967539787292480e+00 -7.112607359886169434e-01 -1.143879055976867676e+00
4.628000000000000000e+03 3.757811355590820312e+01 1.370798873901367188e+01 -1.097578287124633789e+00 -1.258666634559631348e+00 -7.068734765052795410e-01 -1.145381569862365723e+00
4.629000000000000000e+03 4.498505401611328125e+01 2.111419296264648438e+01 -1.094382286071777344e+00 -1.047944307327270508e+00 -6.426979899406433105e-01 -1.125827312469482422e+00
4.630000000000000000e+03 4.495758819580078125e+01 2.153647613525390625e+01 -1.144124984741210938e+00 -1.084717035293579102e+00 -6.686525940895080566e-01 -1.154839634895324707e+00
4.631000000000000000e+03 2.703209877014160156e+01 1.228329896926879883e+00 -1.389734745025634766e+00 -4.959298670291900635e-01 -5.656993985176086426e-01 -4.297471344470977783e-01
4.632000000000000000e+03 4.147515106201171875e+01 1.682209587097167969e+01 -9.901273846626281738e-01 -1.056239962577819824e+00 -6.139101982116699219e-01 -1.114897847175598145e+00
4.633000000000000000e+03 2.158447647094726562e+01 1.644348907470703125e+01 7.555407285690307617e-02 1.451385766267776489e-01 6.620779633522033691e-02 1.042411997914314270e-01
4.634000000000000000e+03 5.122203445434570312e+01 2.796561050415039062e+01 -1.352079629898071289e+00 -5.337785482406616211e-01 -5.657574534416198730e-01 -1.026241421699523926e+00
4.635000000000000000e+03 2.550641822814941406e+01 1.953597068786621094e+01 7.198129594326019287e-02 1.184893250465393066e-01 5.714118480682373047e-02 9.289944171905517578e-02
4.636000000000000000e+03 1.480774593353271484e+01 1.014095973968505859e+01 6.748021394014358521e-02 2.638719975948333740e-01 9.940566122531890869e-02 1.005583480000495911e-01
4.637000000000000000e+03 4.437168502807617188e+01 2.007224464416503906e+01 -1.023902654647827148e+00 -1.036925077438354492e+00 -6.182483434677124023e-01 -1.110555291175842285e+00
4.638000000000000000e+03 2.239656066894531250e+01 1.810650444030761719e+01 6.419472396373748779e-02 1.343462616205215454e-01 5.956229567527770996e-02 9.451305121183395386e-02
4.639000000000000000e+03 2.641795349121093750e+01 1.738984704017639160e+00 -1.833399176597595215e+00 -4.758642017841339111e-01 -6.927790045738220215e-01 -5.992119312286376953e-01
4.640000000000000000e+03 5.426069641113281250e+01 2.800338172912597656e+01 -1.322613954544067383e+00 4.966568574309349060e-02 -3.818844556808471680e-01 -9.387530088424682617e-01
4.641000000000000000e+03 5.375859069824218750e+01 2.891579437255859375e+01 -1.394054889678955078e+00 -3.785671666264533997e-02 -4.295734763145446777e-01 -9.458057880401611328e-01
4.642000000000000000e+03 2.062140274047851562e+01 1.576615333557128906e+01 7.446051388978958130e-02 1.517801433801651001e-01 6.787219643592834473e-02 1.049970984458923340e-01
4.643000000000000000e+03 1.788267707824707031e+01 1.318789386749267578e+01 7.542139291763305664e-02 1.850218623876571655e-01 7.813297957181930542e-02 1.149243488907814026e-01
4.644000000000000000e+03 4.520529556274414062e+01 2.133071708679199219e+01 -1.105582118034362793e+00 -1.039484262466430664e+00 -6.435198783874511719e-01 -1.122307538986206055e+00
4.645000000000000000e+03 2.215285301208496094e+01 1.769690704345703125e+01 6.613332778215408325e-02 1.369949281215667725e-01 6.093847751617431641e-02 9.676219522953033447e-02
4.646000000000000000e+03 5.057126998901367188e+01 2.750615692138671875e+01 -1.338193058967590332e+00 -6.518836617469787598e-01 -5.970230102539062500e-01 -1.063176870346069336e+00
4.647000000000000000e+03 7.160743713378906250e+01 2.936007118225097656e+01 -6.616814136505126953e-01 6.144457817077636719e+00 1.644832968711853027e+00 3.231390476226806641e+00
4.648000000000000000e+03 4.653683853149414062e+01 2.291951370239257812e+01 -1.199937343597412109e+00 -9.762963652610778809e-01 -6.528701186180114746e-01 -1.126291036605834961e+00
4.649000000000000000e+03 3.798866271972656250e+01 1.388683700561523438e+01 -1.075398802757263184e+00 -1.230178713798522949e+00 -6.916732788085937500e-01 -1.124498963356018066e+00
4.650000000000000000e+03 3.818976211547851562e+01 1.453072738647460938e+01 -1.097530603408813477e+00 -1.262976408004760742e+00 -7.081521153450012207e-01 -1.154305100440979004e+00
4.651000000000000000e+03 3.672215270996093750e+01 1.265587329864501953e+01 -1.103168487548828125e+00 -1.254507064819335938e+00 -7.073026299476623535e-01 -1.129558205604553223e+00
4.652000000000000000e+03 4.906112670898437500e+01 2.483145523071289062e+01 -1.201073765754699707e+00 -7.304369211196899414e-01 -5.794532299041748047e-01 -1.074809074401855469e+00
4.653000000000000000e+03 5.013632965087890625e+01 2.710256767272949219e+01 -1.325327038764953613e+00 -7.228567600250244141e-01 -6.144551634788513184e-01 -1.085675477981567383e+00
4.654000000000000000e+03 2.134867286682128906e+01 1.609970092773437500e+01 7.756079733371734619e-02 1.478812098503112793e-01 6.763260066509246826e-02 1.061104610562324524e-01
4.655000000000000000e+03 3.837108993530273438e+01 1.425365352630615234e+01 -1.070015192031860352e+00 -1.220817089080810547e+00 -6.872497200965881348e-01 -1.122143626213073730e+00
4.656000000000000000e+03 5.402432250976562500e+01 2.846430206298828125e+01 -1.364297270774841309e+00 1.152733061462640762e-02 -4.058309793472290039e-01 -9.445465207099914551e-01
4.657000000000000000e+03 2.475583267211914062e+01 1.947651672363281250e+01 6.777029484510421753e-02 1.212897598743438721e-01 5.671801418066024780e-02 9.194611757993698120e-02
4.658000000000000000e+03 2.384971046447753906e+01 1.906313896179199219e+01 6.578416377305984497e-02 1.254661679267883301e-01 5.737509950995445251e-02 9.250251948833465576e-02
4.659000000000000000e+03 1.888011932373046875e+01 1.297192955017089844e+01 9.184456616640090942e-02 1.788645237684249878e-01 8.121272921562194824e-02 1.265068650245666504e-01
4.660000000000000000e+03 3.864098358154296875e+01 1.442921829223632812e+01 -1.060394883155822754e+00 -1.204969406127929688e+00 -6.796092987060546875e-01 -1.112548351287841797e+00
4.661000000000000000e+03 5.242176818847656250e+01 2.775750732421875000e+01 -1.327038764953613281e+00 -2.694521248340606689e-01 -4.789472520351409912e-01 -9.686036705970764160e-01
4.662000000000000000e+03 2.585339736938476562e+01 2.044194030761718750e+01 6.461805105209350586e-02 1.157279759645462036e-01 5.410380661487579346e-02 8.861520886421203613e-02
4.663000000000000000e+03 2.544536972045898438e+01 2.033235740661621094e+01 6.373995542526245117e-02 1.170093268156051636e-01 5.422478541731834412e-02 8.836410939693450928e-02
4.664000000000000000e+03 1.274606895446777344e+01 6.557630062103271484e+00 1.004460826516151428e-01 4.539771378040313721e-01 1.663269549608230591e-01 -2.939692325890064240e-02
4.665000000000000000e+03 4.545029067993164062e+01 2.153759193420410156e+01 -1.113512754440307617e+00 -1.025072336196899414e+00 -6.415755152702331543e-01 -1.116908550262451172e+00
4.666000000000000000e+03 3.893404006958007812e+01 1.462804985046386719e+01 -1.050275087356567383e+00 -1.187018156051635742e+00 -6.711879968643188477e-01 -1.107212066650390625e+00
4.667000000000000000e+03 4.930219268798828125e+01 2.526944541931152344e+01 -1.225139617919921875e+00 -7.259150147438049316e-01 -5.853164196014404297e-01 -1.076523423194885254e+00
4.668000000000000000e+03 2.909167289733886719e+01 3.639681816101074219e+00 -1.911533832550048828e+00 -9.824260473251342773e-01 -8.681879639625549316e-01 -7.368145585060119629e-01
4.669000000000000000e+03 5.221067810058593750e+01 2.736076545715332031e+01 -1.296259880065917969e+00 -2.980110347270965576e-01 -4.782812595367431641e-01 -9.703841209411621094e-01
4.670000000000000000e+03 2.551670074462890625e+01 8.967313170433044434e-01 -1.434217095375061035e+00 -2.696369886398315430e-01 -5.111562013626098633e-01 -4.893553555011749268e-01
4.671000000000000000e+03 3.566421890258789062e+01 1.098735809326171875e+01 -1.112563848495483398e+00 -1.211525440216064453e+00 -6.972268223762512207e-01 -1.082660913467407227e+00
4.672000000000000000e+03 4.319044113159179688e+01 1.912311363220214844e+01 -1.005782604217529297e+00 -1.079638242721557617e+00 -6.256262660026550293e-01 -1.150258779525756836e+00
4.673000000000000000e+03 4.386965942382812500e+01 1.992205047607421875e+01 -1.036140322685241699e+00 -1.075536370277404785e+00 -6.335030198097229004e-01 -1.140793919563293457e+00
4.674000000000000000e+03 3.924337768554687500e+01 1.483862972259521484e+01 -1.041249394416809082e+00 -1.165150642395019531e+00 -6.619200110435485840e-01 -1.099345207214355469e+00
4.675000000000000000e+03 5.034416580200195312e+01 2.631079483032226562e+01 -1.260748624801635742e+00 -6.060673594474792480e-01 -5.600448250770568848e-01 -1.041104793548583984e+00
4.676000000000000000e+03 2.629755592346191406e+01 2.056551361083984375e+01 6.607843190431594849e-02 1.138611957430839539e-01 5.398188903927803040e-02 8.888424187898635864e-02
4.677000000000000000e+03 4.000555801391601562e+01 1.583779716491699219e+01 -1.046601057052612305e+00 -1.141829729080200195e+00 -6.565292477607727051e-01 -1.122711181640625000e+00
4.678000000000000000e+03 5.043636703491210938e+01 2.668752670288085938e+01 -1.282977938652038574e+00 -6.179903149604797363e-01 -5.702905058860778809e-01 -1.051439881324768066e+00
4.679000000000000000e+03 7.113837432861328125e+01 2.886688423156738281e+01 -5.033378601074218750e-01 5.347568988800048828e+00 1.453269243240356445e+00 2.873857259750366211e+00
4.680000000000000000e+03 4.571287918090820312e+01 2.174492835998535156e+01 -1.120309233665466309e+00 -1.005612373352050781e+00 -6.377764940261840820e-01 -1.109904408454895020e+00
4.681000000000000000e+03 4.628887176513671875e+01 2.267879676818847656e+01 -1.190010666847229004e+00 -9.958513379096984863e-01 -6.557586193084716797e-01 -1.128404617309570312e+00
4.682000000000000000e+03 4.502450180053710938e+01 2.048087882995605469e+01 -1.025362491607666016e+00 -9.936470985412597656e-01 -6.057028770446777344e-01 -1.084108710289001465e+00
4.683000000000000000e+03 2.525162696838378906e+01 1.328901171684265137e+00 -1.863438010215759277e+00 -2.375842630863189697e-01 -6.303066611289978027e-01 -6.748131513595581055e-01
4.684000000000000000e+03 2.433781242370605469e+01 1.947864913940429688e+01 6.456667184829711914e-02 1.226526945829391479e-01 5.616581067442893982e-02 9.070462733507156372e-02
4.685000000000000000e+03 3.635688781738281250e+01 1.224935340881347656e+01 -1.117100954055786133e+00 -1.257719039916992188e+00 -7.124460339546203613e-01 -1.125377178192138672e+00
4.686000000000000000e+03 2.002516365051269531e+01 1.446333408355712891e+01 8.568292856216430664e-02 1.613535583019256592e-01 7.411094754934310913e-02 1.157838627696037292e-01
4.687000000000000000e+03 1.890695953369140625e+01 1.378383827209472656e+01 8.111672103404998779e-02 1.729318499565124512e-01 7.621457427740097046e-02 1.167596578598022461e-01
4.688000000000000000e+03 1.595431995391845703e+01 1.114442825317382812e+01 7.469036430120468140e-02 2.292040884494781494e-01 9.116833657026290894e-02 1.156312450766563416e-01
4.689000000000000000e+03 2.436766052246093750e+01 1.988865280151367188e+01 6.119778379797935486e-02 1.213460117578506470e-01 5.476313829421997070e-02 8.819252252578735352e-02
4.690000000000000000e+03 4.365700149536132812e+01 1.931608772277832031e+01 -9.946622252464294434e-01 -1.048646092414855957e+00 -6.129925251007080078e-01 -1.123125195503234863e+00
4.691000000000000000e+03 1.835693550109863281e+01 1.284936428070068359e+01 8.599887043237686157e-02 1.856429278850555420e-01 8.149253576993942261e-02 1.235571503639221191e-01
4.692000000000000000e+03 4.105455780029296875e+01 1.640859413146972656e+01 -1.002376675605773926e+00 -1.070308804512023926e+00 -6.218056082725524902e-01 -1.107599735260009766e+00
4.693000000000000000e+03 4.024348449707031250e+01 1.611432266235351562e+01 -1.043194890022277832e+00 -1.134059309959411621e+00 -6.531762480735778809e-01 -1.129436016082763672e+00
4.694000000000000000e+03 2.512700843811035156e+01 1.987760925292968750e+01 6.612103432416915894e-02 1.192488744854927063e-01 5.561097338795661926e-02 9.031862765550613403e-02
4.695000000000000000e+03 2.475056266784667969e+01 1.985143280029296875e+01 6.376147270202636719e-02 1.205480620265007019e-01 5.529285967350006104e-02 8.938299119472503662e-02
4.696000000000000000e+03 3.956567001342773438e+01 1.504808902740478516e+01 -1.030218958854675293e+00 -1.143005013465881348e+00 -6.519671678543090820e-01 -1.094024658203125000e+00
4.697000000000000000e+03 3.990005111694335938e+01 1.525414848327636719e+01 -1.018709778785705566e+00 -1.120892286300659180e+00 -6.418806314468383789e-01 -1.087601184844970703e+00
4.698000000000000000e+03 7.330079650878906250e+01 2.833588218688964844e+01 -1.421939730644226074e+00 9.352034568786621094e+00 2.379028558731079102e+00 2.241518259048461914e+00
4.699000000000000000e+03 7.372543334960937500e+01 2.964783287048339844e+01 -1.894832372665405273e+00 1.122028827667236328e+01 2.797636747360229492e+00 2.306754350662231445e+00
4.700000000000000000e+03 2.762149810791015625e+01 2.365666770935058594e+01 4.909472540020942688e-02 1.036052182316780090e-01 4.580998420715332031e-02 7.656889408826828003e-02
4.701000000000000000e+03 2.083569526672363281e+01 1.600084114074707031e+01 7.409639656543731689e-02 1.493315100669860840e-01 6.702837347984313965e-02 1.042437404394149780e-01
4.702000000000000000e+03 5.238248825073242188e+01 2.848446083068847656e+01 -1.365102529525756836e+00 -2.976781129837036133e-01 -4.988341927528381348e-01 -9.749215841293334961e-01
4.703000000000000000e+03 5.210961914062500000e+01 2.872799491882324219e+01 -1.374790310859680176e+00 -3.767531812191009521e-01 -5.254630446434020996e-01 -9.863635301589965820e-01
4.704000000000000000e+03 4.757445144653320312e+01 2.319876861572265625e+01 -1.153491497039794922e+00 -8.379673361778259277e-01 -5.974376797676086426e-01 -1.074379801750183105e+00
4.705000000000000000e+03 3.634899902343750000e+01 1.181032276153564453e+01 -1.094392776489257812e+00 -1.217394232749938965e+00 -6.935361027717590332e-01 -1.094593882560729980e+00
4.706000000000000000e+03 2.860090827941894531e+01 1.830684304237365723e+00 -1.272354602813720703e+00 -6.813111305236816406e-01 -5.860996842384338379e-01 -3.270031213760375977e-01
4.707000000000000000e+03 2.988927459716796875e+01 -6.217289566993713379e-01 -4.062796011567115784e-02 -5.656332969665527344e-01 -1.818783730268478394e-01 1.541621424257755280e-02
4.708000000000000000e+03 3.727112197875976562e+01 1.283804130554199219e+01 -1.077909827232360840e+00 -1.217007279396057129e+00 -6.884751319885253906e-01 -1.101177930831909180e+00
4.709000000000000000e+03 2.216621017456054688e+01 1.673529052734375000e+01 7.657238841056823730e-02 1.416697353124618530e-01 6.547264009714126587e-02 1.046533584594726562e-01
4.710000000000000000e+03 2.849540519714355469e+01 3.207725048065185547e+00 -1.923928737640380859e+00 -8.783444166183471680e-01 -8.406819701194763184e-01 -7.137194871902465820e-01
4.711000000000000000e+03 4.599172973632812500e+01 2.195721626281738281e+01 -1.126271843910217285e+00 -9.825621247291564941e-01 -6.326501965522766113e-01 -1.101424574851989746e+00
4.712000000000000000e+03 4.628361129760742188e+01 2.217790603637695312e+01 -1.130537986755371094e+00 -9.585103392601013184e-01 -6.267145276069641113e-01 -1.093376398086547852e+00
4.713000000000000000e+03 2.131472587585449219e+01 1.700139999389648438e+01 6.616524606943130493e-02 1.431044191122055054e-01 6.278090178966522217e-02 9.818969666957855225e-02
4.714000000000000000e+03 3.436127090454101562e+01 7.623716831207275391e+00 -1.089765191078186035e+00 -1.003589391708374023e+00 -6.280063986778259277e-01 -9.000421762466430664e-01
4.715000000000000000e+03 3.463628387451171875e+01 6.344136238098144531e+00 -1.010303854942321777e+00 -8.560796380043029785e-01 -5.599150657653808594e-01 -7.089709043502807617e-01
4.716000000000000000e+03 1.379494667053222656e+01 8.378171920776367188e+00 7.064618915319442749e-02 3.414565622806549072e-01 1.236308217048645020e-01 8.295972645282745361e-02
4.717000000000000000e+03 2.888795852661132812e+01 2.435195922851562500e+01 4.998751729726791382e-02 9.867609292268753052e-02 4.459908232092857361e-02 7.594852894544601440e-02
4.718000000000000000e+03 2.845845031738281250e+01 2.394241333007812500e+01 5.046927183866500854e-02 1.005376055836677551e-01 4.530206322669982910e-02 7.658983021974563599e-02
4.719000000000000000e+03 1.129104232788085938e+01 6.774655818939208984e+00 1.586543619632720947e-01 2.225028425455093384e-01 1.143471598625183105e-01 -8.466625958681106567e-02
4.720000000000000000e+03 1.732879257202148438e+01 1.191829681396484375e+01 8.426116406917572021e-02 2.052018195390701294e-01 8.683889359235763550e-02 1.264824867248535156e-01
4.721000000000000000e+03 2.689772033691406250e+01 3.031533360481262207e-01 -6.232200860977172852e-01 -3.256663680076599121e-01 -2.846659421920776367e-01 -1.579683274030685425e-01
4.722000000000000000e+03 2.795477104187011719e+01 8.734067529439926147e-02 -4.650529921054840088e-01 -4.999238848686218262e-01 -2.894930541515350342e-01 -1.571315228939056396e-01
4.723000000000000000e+03 1.543426799774169922e+01 1.120504283905029297e+01 6.422436237335205078e-02 2.318621575832366943e-01 8.882595598697662354e-02 1.025888249278068542e-01
4.724000000000000000e+03 7.421660614013671875e+01 2.993100357055664062e+01 -2.140014171600341797e+00 1.257223320007324219e+01 3.129665613174438477e+00 1.647164821624755859e+00
4.725000000000000000e+03 7.344687652587890625e+01 2.891055107116699219e+01 -1.634412407875061035e+00 1.002115154266357422e+01 2.516021728515625000e+00 2.352772712707519531e+00
4.726000000000000000e+03 7.230888366699218750e+01 2.985057258605957031e+01 -1.042091608047485352e+00 7.972213268280029297e+00 2.079036474227905273e+00 3.544272184371948242e+00
4.727000000000000000e+03 1.200277709960937500e+01 6.582314968109130859e+00 1.357116550207138062e-01 3.408918976783752441e-01 1.429810672998428345e-01 -8.189060539007186890e-02
4.728000000000000000e+03 3.178465843200683594e+01 4.746829509735107422e+00 -1.462536454200744629e+00 -8.295094966888427734e-01 -6.876137852668762207e-01 -6.969126462936401367e-01
4.729000000000000000e+03 3.505728149414062500e+01 7.642744064331054688e+00 -1.013827919960021973e+00 -9.594556689262390137e-01 -5.919851064682006836e-01 -8.331071734428405762e-01
4.730000000000000000e+03 1.926521110534667969e+01 1.502758598327636719e+01 6.994274258613586426e-02 1.609780490398406982e-01 6.927623599767684937e-02 1.042842715978622437e-01
4.731000000000000000e+03 9.906885147094726562e+00 1.233121204376220703e+01 4.020248726010322571e-02 8.051739633083343506e-02 3.621596470475196838e-02 -1.426029764115810394e-02
4.732000000000000000e+03 1.328127288818359375e+01 8.009002685546875000e+00 7.048616558313369751e-02 3.560519516468048096e-01 1.279614418745040894e-01 5.073843523859977722e-02
4.733000000000000000e+03 3.371428680419921875e+01 3.079119682312011719e+01 5.038738995790481567e-02 8.244858682155609131e-02 3.985079377889633179e-02 5.698368325829505920e-02
4.734000000000000000e+03 3.252012252807617188e+01 2.868023490905761719e+01 4.902795702219009399e-02 8.609263598918914795e-02 4.053618013858795166e-02 6.265509873628616333e-02
4.735000000000000000e+03 1.472126007080078125e+01 1.087886619567871094e+01 5.744239315390586853e-02 2.406965643167495728e-01 8.944168686866760254e-02 8.895929902791976929e-02
4.736000000000000000e+03 2.668115997314453125e+01 5.725533366203308105e-01 -8.239941596984863281e-01 -4.042794406414031982e-01 -3.684820830821990967e-01 -3.273338079452514648e-01
4.737000000000000000e+03 3.083754348754882812e+01 2.779410552978515625e+01 4.516054689884185791e-02 8.988093584775924683e-02 4.051244631409645081e-02 6.484036892652511597e-02
4.738000000000000000e+03 3.536441040039062500e+01 1.119734287261962891e+01 -1.141553282737731934e+00 -1.248321413993835449e+00 -7.169623970985412598e-01 -1.122777700424194336e+00
4.739000000000000000e+03 3.594303894042968750e+01 1.124200344085693359e+01 -1.096972227096557617e+00 -1.205167293548583984e+00 -6.906418204307556152e-01 -1.081264734268188477e+00
4.740000000000000000e+03 5.498876571655273438e+01 2.895713043212890625e+01 -1.405898094177246094e+00 1.399887651205062866e-01 -3.797728121280670166e-01 -9.437972903251647949e-01
4.741000000000000000e+03 2.788542747497558594e+01 2.424608612060546875e+01 4.643269628286361694e-02 1.016816347837448120e-01 4.443430155515670776e-02 7.475928217172622681e-02
4.742000000000000000e+03 6.969515228271484375e+01 2.814488601684570312e+01 -2.040209919214248657e-01 3.567579269409179688e+00 1.009067535400390625e+00 2.093154907226562500e+00
4.743000000000000000e+03 7.298961639404296875e+01 2.794945907592773438e+01 -1.228355407714843750e+00 8.653850555419921875e+00 2.227648496627807617e+00 2.290870666503906250e+00
4.744000000000000000e+03 2.025794029235839844e+01 1.468838214874267578e+01 8.532013744115829468e-02 1.598982512950897217e-01 7.356551289558410645e-02 1.147392839193344116e-01
4.745000000000000000e+03 2.020528602600097656e+01 1.519783020019531250e+01 7.779855281114578247e-02 1.573438197374343872e-01 7.054270803928375244e-02 1.088399291038513184e-01
4.746000000000000000e+03 3.015832901000976562e+01 2.641720390319824219e+01 4.652290791273117065e-02 9.272903949022293091e-02 4.177558422088623047e-02 6.890436261892318726e-02
4.747000000000000000e+03 3.010926246643066406e+01 2.592931556701660156e+01 4.771538823843002319e-02 9.344433993101119995e-02 4.234791919589042664e-02 7.097999006509780884e-02
4.748000000000000000e+03 3.409378051757812500e+01 7.262186050415039062e+00 -1.101676106452941895e+00 -9.932699203491210938e-01 -6.284838318824768066e-01 -8.890588879585266113e-01
4.749000000000000000e+03 5.838805007934570312e+01 2.684009361267089844e+01 -9.626201391220092773e-01 4.306031465530395508e-01 -1.596051007509231567e-01 -7.797851562500000000e-01
4.750000000000000000e+03 3.486042022705078125e+01 1.040084075927734375e+01 -1.141095161437988281e+00 -1.222061634063720703e+00 -7.089470624923706055e-01 -1.098645687103271484e+00
4.751000000000000000e+03 3.508118438720703125e+01 8.357599258422851562e+00 -1.037833333015441895e+00 -1.025227785110473633e+00 -6.189183592796325684e-01 -9.025130867958068848e-01
4.752000000000000000e+03 6.707758331298828125e+01 2.613169670104980469e+01 5.349122732877731323e-02 2.245358228683471680e+00 6.896548271179199219e-01 1.016429543495178223e+00
4.753000000000000000e+03 6.708229827880859375e+01 2.677375030517578125e+01 -3.055595979094505310e-02 2.018344879150390625e+00 5.963366627693176270e-01 9.783652424812316895e-01
4.754000000000000000e+03 7.376566314697265625e+01 2.994714355468750000e+01 -2.020786046981811523e+00 1.183446693420410156e+01 2.944104433059692383e+00 2.427393198013305664e+00
4.755000000000000000e+03 2.858755874633789062e+01 2.587743377685546875e+01 4.235599189996719360e-02 9.718349575996398926e-02 4.186184704303741455e-02 6.919974833726882935e-02
4.756000000000000000e+03 7.224735260009765625e+01 2.714790534973144531e+01 -8.128849864006042480e-01 7.217379093170166016e+00 1.921348214149475098e+00 2.246829986572265625e+00
4.757000000000000000e+03 2.974600219726562500e+01 3.640239953994750977e+00 -1.736200571060180664e+00 -9.162899851799011230e-01 -7.957471609115600586e-01 -6.145928502082824707e-01
4.758000000000000000e+03 6.064562988281250000e+01 2.602026748657226562e+01 -5.838209390640258789e-01 6.586861610412597656e-01 2.245957218110561371e-02 -4.888574779033660889e-01
4.759000000000000000e+03 2.896506309509277344e+01 3.081367909908294678e-01 -4.677354395389556885e-01 -6.256249547004699707e-01 -3.280081152915954590e-01 -8.367481827735900879e-02
4.760000000000000000e+03 3.364826583862304688e+01 2.881824302673339844e+01 5.321452766656875610e-02 8.490131795406341553e-02 4.143475368618965149e-02 6.360059976577758789e-02
4.761000000000000000e+03 7.340066528320312500e+01 2.930603790283203125e+01 -1.686639785766601562e+00 1.023776531219482422e+01 2.565337657928466797e+00 2.556835889816284180e+00
4.762000000000000000e+03 8.527411460876464844e+00 9.618752479553222656e+00 9.405753761529922485e-02 9.236028417944908142e-03 3.098807111382484436e-02 -1.961072348058223724e-02
4.763000000000000000e+03 8.967143058776855469e+00 9.124583244323730469e+00 1.093287318944931030e-01 2.207650989294052124e-02 3.942157328128814697e-02 -2.822212874889373779e-02
4.764000000000000000e+03 3.181549644470214844e+01 4.275739669799804688e+00 -1.373173594474792480e+00 -7.815142273902893066e-01 -6.464063525199890137e-01 -5.803481936454772949e-01
4.765000000000000000e+03 3.133798599243164062e+01 4.311324119567871094e+00 -1.510048866271972656e+00 -8.217804431915283203e-01 -6.995487809181213379e-01 -6.216134428977966309e-01
4.766000000000000000e+03 3.379111480712890625e+01 5.697065830230712891e+00 -1.103618860244750977e+00 -8.506317734718322754e-01 -5.862751603126525879e-01 -7.119957208633422852e-01
4.767000000000000000e+03 4.281187057495117188e+01 1.889295768737792969e+01 -1.014696717262268066e+00 -1.099259018898010254e+00 -6.341867446899414062e-01 -1.167039036750793457e+00
4.768000000000000000e+03 3.094892120361328125e+01 2.984575653076171875e+01 4.129600152373313904e-02 8.757135272026062012e-02 3.866020590066909790e-02 5.658214911818504333e-02
4.769000000000000000e+03 7.195252990722656250e+01 2.500252151489257812e+01 -3.786212205886840820e-01 6.680838584899902344e+00 1.890665173530578613e+00 1.756311297416687012e+00
4.770000000000000000e+03 6.300019836425781250e+01 2.695432662963867188e+01 -5.550780892372131348e-01 7.516003251075744629e-01 5.895668268203735352e-02 -2.363634258508682251e-01
4.771000000000000000e+03 1.479768085479736328e+01 9.832936286926269531e+00 7.283836603164672852e-02 2.724024653434753418e-01 1.035722494125366211e-01 1.058580279350280762e-01
4.772000000000000000e+03 1.278275489807128906e+01 7.566779613494873047e+00 7.957240194082260132e-02 3.629021048545837402e-01 1.327423453330993652e-01 8.874170482158660889e-03
4.773000000000000000e+03 2.697861862182617188e+01 2.131986236572265625e+01 6.242705881595611572e-02 1.095517948269844055e-01 5.159365758299827576e-02 8.595015853643417358e-02
4.774000000000000000e+03 2.967909049987792969e+01 -5.545705929398536682e-02 -2.590602040290832520e-01 -6.357873082160949707e-01 -2.684542536735534668e-01 -2.637454122304916382e-02
4.775000000000000000e+03 5.449326705932617188e+01 2.872092247009277344e+01 -1.385080933570861816e+00 7.800114154815673828e-02 -3.921239376068115234e-01 -9.427458643913269043e-01
4.776000000000000000e+03 5.604783630371093750e+01 2.738804435729980469e+01 -1.198786973953247070e+00 2.500914335250854492e-01 -2.846086621284484863e-01 -9.031420350074768066e-01
4.777000000000000000e+03 1.742240905761718750e+01 1.280442523956298828e+01 7.354748249053955078e-02 1.923998743295669556e-01 7.978420704603195190e-02 1.144368499517440796e-01
4.778000000000000000e+03 7.196604919433593750e+01 2.594923782348632812e+01 -5.349034667015075684e-01 6.686284542083740234e+00 1.845414280891418457e+00 1.971148371696472168e+00
4.779000000000000000e+03 7.266287994384765625e+01 2.690147209167480469e+01 -8.700327873229980469e-01 7.694802284240722656e+00 2.047430753707885742e+00 2.067880630493164062e+00
4.780000000000000000e+03 2.701696586608886719e+01 2.390211868286132812e+01 4.478297382593154907e-02 1.046473681926727295e-01 4.482910037040710449e-02 7.438566535711288452e-02
4.781000000000000000e+03 7.240055084228515625e+01 2.947530174255371094e+01 -1.132144331932067871e+00 8.154985427856445312e+00 2.106852531433105469e+00 3.294269800186157227e+00
4.782000000000000000e+03 3.291828536987304688e+01 3.129448127746582031e+01 4.674689099192619324e-02 8.286171406507492065e-02 3.888257965445518494e-02 5.414278060197830200e-02
4.783000000000000000e+03 3.285555267333984375e+01 3.288181304931640625e+01 4.536363482475280762e-02 8.075793832540512085e-02 3.783647343516349792e-02 4.848446324467658997e-02
4.784000000000000000e+03 2.921353721618652344e+01 2.945190668106079102e+00 -1.640903472900390625e+00 -8.605889678001403809e-01 -7.504477500915527344e-01 -5.293701887130737305e-01
4.785000000000000000e+03 2.914320373535156250e+01 -2.469970583915710449e-01 -2.166773974895477295e-01 -5.257011055946350098e-01 -2.227135449647903442e-01 -1.586461439728736877e-02
4.786000000000000000e+03 2.975393867492675781e+01 3.303294658660888672e+00 -1.602795720100402832e+00 -8.488624095916748047e-01 -7.354974150657653809e-01 -5.186851620674133301e-01
4.787000000000000000e+03 7.171519470214843750e+01 2.323720359802246094e+01 -1.052500531077384949e-01 6.250928401947021484e+00 1.843703508377075195e+00 1.534013986587524414e+00
4.788000000000000000e+03 3.245629882812500000e+01 -2.573480129241943359e+00 4.489580392837524414e-01 -6.519486308097839355e-01 -6.089717149734497070e-02 2.927842177450656891e-02
4.789000000000000000e+03 3.152534484863281250e+01 -1.162671446800231934e+00 1.405318677425384521e-01 -6.561214327812194824e-01 -1.546768546104431152e-01 4.822165146470069885e-02
4.790000000000000000e+03 1.175178623199462891e+01 6.934605121612548828e+00 1.310681700706481934e-01 2.901048362255096436e-01 1.263519078493118286e-01 -7.316914200782775879e-02
4.791000000000000000e+03 7.240415954589843750e+01 2.638086318969726562e+01 -7.252321839332580566e-01 7.272202014923095703e+00 1.964090943336486816e+00 2.027916431427001953e+00
4.792000000000000000e+03 7.281198883056640625e+01 2.743786430358886719e+01 -1.035047292709350586e+00 8.114464759826660156e+00 2.123825311660766602e+00 2.162011146545410156e+00
4.793000000000000000e+03 3.442039108276367188e+01 3.261278915405273438e+01 5.079359561204910278e-02 7.890176773071289062e-02 3.890860825777053833e-02 5.183530971407890320e-02
4.794000000000000000e+03 3.493268585205078125e+01 3.084297943115234375e+01 5.394842475652694702e-02 8.057669550180435181e-02 4.035753756761550903e-02 5.843652039766311646e-02
4.795000000000000000e+03 6.120735931396484375e+01 2.660523986816406250e+01 -6.695996522903442383e-01 6.114695072174072266e-01 -1.743905618786811829e-02 -4.904026091098785400e-01
4.796000000000000000e+03 6.369200897216796875e+01 2.536899566650390625e+01 -1.132671982049942017e-01 1.241327881813049316e+00 3.384181857109069824e-01 1.230024099349975586e-01
4.797000000000000000e+03 5.952874374389648438e+01 2.647232437133789062e+01 -8.043484687805175781e-01 5.234381556510925293e-01 -8.427308499813079834e-02 -6.655205488204956055e-01
4.798000000000000000e+03 6.052899932861328125e+01 2.709025001525878906e+01 -8.480594754219055176e-01 5.141937136650085449e-01 -1.001597344875335693e-01 -6.188629269599914551e-01
4.799000000000000000e+03 6.417362976074218750e+01 2.619737625122070312e+01 -2.230359464883804321e-01 1.146442651748657227e+00 2.770220041275024414e-01 1.455394178628921509e-01
4.800000000000000000e+03 6.354583740234375000e+01 2.610384941101074219e+01 -2.787983417510986328e-01 1.031708002090454102e+00 2.258729040622711182e-01 -2.287832321599125862e-04
4.801000000000000000e+03 3.162152671813964844e+01 2.792438316345214844e+01 4.799399152398109436e-02 8.848188072443008423e-02 4.094276204705238342e-02 6.500632315874099731e-02
4.802000000000000000e+03 5.725593185424804688e+01 2.632132720947265625e+01 -9.589021205902099609e-01 3.752124905586242676e-01 -1.751068830490112305e-01 -8.013226985931396484e-01
4.803000000000000000e+03 5.539904022216796875e+01 2.784595680236816406e+01 -1.282072305679321289e+00 1.857871860265731812e-01 -3.288855254650115967e-01 -9.275585412979125977e-01
4.804000000000000000e+03 5.184783554077148438e+01 2.749398803710937500e+01 -1.315113425254821777e+00 -3.790934979915618896e-01 -5.082620382308959961e-01 -9.863853454589843750e-01
4.805000000000000000e+03 6.433007812500000000e+01 2.551888084411621094e+01 -7.755141705274581909e-02 1.364972949028015137e+00 3.862264454364776611e-01 2.570218443870544434e-01
4.806000000000000000e+03 6.581997680664062500e+01 2.612659454345703125e+01 -3.773392364382743835e-02 1.672035098075866699e+00 4.902903735637664795e-01 6.044768095016479492e-01
4.807000000000000000e+03 9.014277458190917969e+00 7.979723453521728516e+00 1.443655937910079956e-01 1.777706784196197987e-03 4.384298995137214661e-02 -2.745436318218708038e-02
4.808000000000000000e+03 3.586624526977539062e+01 -4.265778541564941406e+00 5.487596988677978516e-01 -6.126927733421325684e-01 -1.917993463575839996e-02 2.590585313737392426e-02
4.809000000000000000e+03 3.460275650024414062e+01 -3.879922151565551758e+00 5.495240688323974609e-01 -6.458472609519958496e-01 -2.889696508646011353e-02 2.248053997755050659e-02
4.810000000000000000e+03 6.128398132324218750e+01 2.597884941101074219e+01 -5.030511021614074707e-01 7.433238625526428223e-01 7.208181917667388916e-02 -3.948087692260742188e-01
4.811000000000000000e+03 1.403370475769042969e+01 -7.881803989410400391e+00 -2.788450717926025391e-01 -7.455625534057617188e-01 -3.073222935199737549e-01 -8.091006875038146973e-01
4.812000000000000000e+03 6.829201507568359375e+01 -3.800239562988281250e+00 1.851608008146286011e-01 4.579748153686523438e+00 1.429472684860229492e+00 5.096303820610046387e-01
4.813000000000000000e+03 6.882179260253906250e+01 -4.826144218444824219e+00 1.587151885032653809e-01 4.657693862915039062e+00 1.444922685623168945e+00 4.709265530109405518e-01
4.814000000000000000e+03 1.034793281555175781e+01 -1.068263721466064453e+01 -9.443192929029464722e-02 -4.996534287929534912e-01 -1.782256066799163818e-01 -5.937365889549255371e-01
4.815000000000000000e+03 6.646044158935546875e+01 2.548481369018554688e+01 9.795023500919342041e-02 2.113840103149414062e+00 6.635371446609497070e-01 8.456934094429016113e-01
4.816000000000000000e+03 1.105383205413818359e+01 2.008866691589355469e+01 -4.557433072477579117e-03 4.439267143607139587e-02 1.195057202130556107e-02 -4.052005242556333542e-03
4.817000000000000000e+03 6.863952636718750000e+01 -6.274791717529296875e+00 1.559134125709533691e-01 4.637601375579833984e+00 1.438054323196411133e+00 4.407632946968078613e-01
4.818000000000000000e+03 6.973200225830078125e+01 -4.370016098022460938e+00 1.400684416294097900e-01 4.886039257049560547e+00 1.507832288742065430e+00 4.715375006198883057e-01
4.819000000000000000e+03 3.408704376220703125e+01 -3.211941480636596680e+00 4.780645668506622314e-01 -6.617714166641235352e-01 -5.511205643415451050e-02 3.522312641143798828e-02
4.820000000000000000e+03 1.176554298400878906e+01 -2.523744964599609375e+01 1.494155377149581909e-01 -6.339484453201293945e-01 -1.453598737716674805e-01 -3.190180361270904541e-01
4.821000000000000000e+03 1.800038528442382812e+01 -2.251567459106445312e+01 2.446274310350418091e-01 -2.094758301973342896e-01 1.054548099637031555e-02 -3.236784934997558594e-01
4.822000000000000000e+03 4.432046890258789062e+01 -1.292159271240234375e+01 3.926816284656524658e-01 2.339088767766952515e-01 1.879771500825881958e-01 5.126969516277313232e-02
4.823000000000000000e+03 6.880860137939453125e+01 2.054186439514160156e+01 2.946608364582061768e-01 4.396269321441650391e+00 1.407279133796691895e+00 1.217480540275573730e+00
4.824000000000000000e+03 6.875321960449218750e+01 1.098623275756835938e+01 3.164477050304412842e-01 4.766079425811767578e+00 1.524758100509643555e+00 8.895284533500671387e-01
4.825000000000000000e+03 6.922770690917968750e+01 9.738362312316894531e+00 2.991384565830230713e-01 4.962587356567382812e+00 1.578517675399780273e+00 8.575760126113891602e-01
4.826000000000000000e+03 3.631880569458007812e+01 -5.107511520385742188e+00 5.782035589218139648e-01 -5.896314978599548340e-01 -3.428380936384201050e-03 1.353990379720926285e-02
4.827000000000000000e+03 6.827621459960937500e+01 3.543299674987792969e+00 2.449159175157546997e-01 4.653811931610107422e+00 1.469618320465087891e+00 6.910655498504638672e-01
4.828000000000000000e+03 3.522781753540039062e+01 3.386116409301757812e+01 5.367254093289375305e-02 7.530441880226135254e-02 3.869308903813362122e-02 4.840349406003952026e-02
4.829000000000000000e+03 9.415627479553222656e+00 8.574460983276367188e+00 1.228310540318489075e-01 4.683714732527732849e-02 5.090045928955078125e-02 -3.585859388113021851e-02
4.830000000000000000e+03 1.002949714660644531e+01 8.139412879943847656e+00 1.314701139926910400e-01 8.795725554227828979e-02 6.582821160554885864e-02 -4.735517129302024841e-02
4.831000000000000000e+03 7.033142852783203125e+01 1.575124835968017578e+01 3.081256747245788574e-01 5.368496894836425781e+00 1.702986836433410645e+00 1.059282541275024414e+00
4.832000000000000000e+03 7.039092254638671875e+01 1.827804374694824219e+01 2.769113481044769287e-01 5.387083530426025391e+00 1.699198484420776367e+00 1.188922882080078125e+00
4.833000000000000000e+03 1.017020797729492188e+01 -1.336360645294189453e+01 4.149978607892990112e-02 -5.982598662376403809e-01 -1.670280247926712036e-01 -5.539941191673278809e-01
4.834000000000000000e+03 6.923517608642578125e+01 1.524287319183349609e+01 3.411687016487121582e-01 4.929425239562988281e+00 1.581178188323974609e+00 1.036206960678100586e+00
4.835000000000000000e+03 4.177314758300781250e+01 -7.723823547363281250e+00 5.328582525253295898e-01 -1.579107195138931274e-01 1.124842613935470581e-01 4.521368443965911865e-02
4.836000000000000000e+03 7.086298370361328125e+01 2.397545051574707031e+01 -6.406297534704208374e-02 5.590510845184326172e+00 1.657934308052062988e+00 1.638303279876708984e+00
4.837000000000000000e+03 6.878461456298828125e+01 7.504720985889434814e-02 2.056850194931030273e-01 4.758912086486816406e+00 1.489379167556762695e+00 5.958337783813476562e-01
4.838000000000000000e+03 1.232693481445312500e+01 -1.287708091735839844e+01 8.326817303895950317e-02 -6.348100304603576660e-01 -1.654625684022903442e-01 -5.884033441543579102e-01
4.839000000000000000e+03 1.163776302337646484e+01 -1.209064960479736328e+01 1.333549525588750839e-02 -5.977351069450378418e-01 -1.753198802471160889e-01 -5.925567746162414551e-01
4.840000000000000000e+03 6.985562133789062500e+01 1.274039173126220703e+01 3.024941384792327881e-01 5.167720317840576172e+00 1.641064286231994629e+00 9.561997056007385254e-01
4.841000000000000000e+03 6.919459533691406250e+01 1.190897369384765625e+01 3.055524230003356934e-01 4.926999092102050781e+00 1.569765448570251465e+00 9.321417212486267090e-01
4.842000000000000000e+03 4.226193618774414062e+01 -5.693992137908935547e+00 4.996595084667205811e-01 -1.337664425373077393e-01 1.097679212689399719e-01 8.628115803003311157e-02
4.843000000000000000e+03 4.098559570312500000e+01 -6.959008693695068359e+00 5.388753414154052734e-01 -2.437139302492141724e-01 8.854841440916061401e-02 4.359877854585647583e-02
4.844000000000000000e+03 9.939011573791503906e+00 1.014237594604492188e+01 7.510007172822952271e-02 8.691184967756271362e-02 4.860357567667961121e-02 -2.509825676679611206e-02
4.845000000000000000e+03 8.724741935729980469e+00 1.322066688537597656e+01 3.255826234817504883e-02 2.728297747671604156e-02 1.795237138867378235e-02 -1.862232759594917297e-02
4.846000000000000000e+03 1.147665405273437500e+01 2.308931159973144531e+01 -8.472548797726631165e-03 3.064582124352455139e-02 6.651981733739376068e-03 -3.593228058889508247e-03
4.847000000000000000e+03 6.829012298583984375e+01 -2.121135139465332031e+01 5.228390544652938843e-02 4.371130943298339844e+00 1.327024459838867188e+00 2.432916760444641113e-01
4.848000000000000000e+03 6.805686950683593750e+01 -1.584078502655029297e+01 9.163545072078704834e-02 4.378376960754394531e+00 1.341003775596618652e+00 2.961068451404571533e-01
4.849000000000000000e+03 9.978184700012207031e+00 -2.062359046936035156e+01 1.309578567743301392e-01 -6.897171735763549805e-01 -1.676277965307235718e-01 -3.931893706321716309e-01
4.850000000000000000e+03 1.533842182159423828e+01 -1.805316925048828125e+01 2.394359558820724487e-01 -4.646348357200622559e-01 -6.755966693162918091e-02 -4.022103846073150635e-01
4.851000000000000000e+03 6.904992675781250000e+01 2.963378667831420898e+00 2.271201759576797485e-01 4.852002143859863281e+00 1.523736715316772461e+00 6.839923262596130371e-01
4.852000000000000000e+03 1.124291038513183594e+01 2.151642608642578125e+01 -6.747535895556211472e-03 3.671925142407417297e-02 8.991515263915061951e-03 -4.043743014335632324e-03
4.853000000000000000e+03 1.183877182006835938e+01 2.478161430358886719e+01 -9.180521592497825623e-03 2.717192657291889191e-02 5.397421307861804962e-03 -2.468838822096586227e-03
4.854000000000000000e+03 1.563610649108886719e+01 -1.948279953002929688e+01 2.240515947341918945e-01 -4.386400878429412842e-01 -6.437655538320541382e-02 -3.851766884326934814e-01
4.855000000000000000e+03 4.629817581176757812e+01 -1.699591445922851562e+01 2.255192995071411133e-01 5.566717982292175293e-01 2.346573323011398315e-01 7.066933065652847290e-02
4.856000000000000000e+03 4.355237197875976562e+01 -1.440975093841552734e+01 3.252090513706207275e-01 1.544965505599975586e-01 1.439116746187210083e-01 3.987798094749450684e-02
4.857000000000000000e+03 3.652920913696289062e+01 3.518619155883789062e+01 5.968071892857551575e-02 6.994964182376861572e-02 3.888911008834838867e-02 4.499494284391403198e-02
4.858000000000000000e+03 1.126398086547851562e+01 -1.056401920318603516e+01 -8.877014368772506714e-02 -5.674429535865783691e-01 -1.968639343976974487e-01 -6.475210785865783691e-01
4.859000000000000000e+03 1.016882038116455078e+01 -2.369563674926757812e+01 1.293323040008544922e-01 -7.117896676063537598e-01 -1.747372001409530640e-01 -3.346074223518371582e-01
4.860000000000000000e+03 1.402546310424804688e+01 -1.819967269897460938e+01 2.035860419273376465e-01 -5.397227406501770020e-01 -1.008410155773162842e-01 -4.321827888488769531e-01
4.861000000000000000e+03 1.033077335357666016e+01 1.953459167480468750e+01 -3.900943556800484657e-03 3.239279612898826599e-02 8.547555655241012573e-03 -9.356457740068435669e-03
4.862000000000000000e+03 1.077703189849853516e+01 1.874724006652832031e+01 -1.623941818252205849e-03 4.789697751402854919e-02 1.388191059231758118e-02 -5.346369929611682892e-03
4.863000000000000000e+03 6.870947265625000000e+01 -1.765026330947875977e+00 1.901213228702545166e-01 4.711519241333007812e+00 1.470492124557495117e+00 5.566048622131347656e-01
4.864000000000000000e+03 6.902258300781250000e+01 5.559921741485595703e+00 2.562450468540191650e-01 4.879003524780273438e+00 1.540574550628662109e+00 7.480328083038330078e-01
4.865000000000000000e+03 1.287708282470703125e+01 3.130012321472167969e+01 -9.013408794999122620e-03 1.381962839514017105e-02 1.441865810193121433e-03 -3.766760637518018484e-04
4.866000000000000000e+03 1.151664447784423828e+01 3.266484069824218750e+01 -8.909347467124462128e-03 -3.740628482773900032e-03 -3.794992808252573013e-03 -4.253065679222345352e-03
4.867000000000000000e+03 7.015236663818359375e+01 -7.322690963745117188e+00 1.207530573010444641e-01 4.930298805236816406e+00 1.515315651893615723e+00 4.011757671833038330e-01
4.868000000000000000e+03 6.627359008789062500e+01 -2.291606903076171875e+01 5.859089642763137817e-02 4.019487857818603516e+00 1.223423719406127930e+00 2.467918097972869873e-01
4.869000000000000000e+03 6.492227935791015625e+01 -2.370043945312500000e+01 6.874006986618041992e-02 3.770586967468261719e+00 1.151798129081726074e+00 2.479232400655746460e-01
4.870000000000000000e+03 5.055281829833984375e+01 -2.966378593444824219e+01 -6.481646746397018433e-02 1.466685533523559570e+00 4.205607175827026367e-01 2.802007794380187988e-01
4.871000000000000000e+03 4.859818649291992188e+01 -2.754779052734375000e+01 -1.188521310687065125e-01 1.035340428352355957e+00 2.749464809894561768e-01 1.836705356836318970e-01
4.872000000000000000e+03 5.294978332519531250e+01 -2.036903762817382812e+01 1.124979779124259949e-01 1.743287563323974609e+00 5.567356944084167480e-01 1.689160466194152832e-01
4.873000000000000000e+03 4.895875930786132812e+01 -1.813755989074707031e+01 1.835019886493682861e-01 1.001829504966735840e+00 3.555994331836700439e-01 1.008793637156486511e-01
4.874000000000000000e+03 7.018757629394531250e+01 -6.175429821014404297e+00 1.249742433428764343e-01 4.951457023620605469e+00 1.522929430007934570e+00 4.295620620250701904e-01
4.875000000000000000e+03 5.233563995361328125e+01 -2.323951530456542969e+01 3.019453398883342743e-02 1.671144008636474609e+00 5.104015469551086426e-01 1.679979562759399414e-01
4.876000000000000000e+03 5.057176208496093750e+01 -2.365917015075683594e+01 1.568443700671195984e-02 1.363967418670654297e+00 4.138955771923065186e-01 1.503206789493560791e-01
4.877000000000000000e+03 6.796180725097656250e+01 -1.426815223693847656e+01 1.004452407360076904e-01 4.365341186523437500e+00 1.339735984802246094e+00 3.176392316818237305e-01
4.878000000000000000e+03 6.999942779541015625e+01 5.402518272399902344e+00 2.233928442001342773e-01 5.167296409606933594e+00 1.617206692695617676e+00 7.265262603759765625e-01
4.879000000000000000e+03 6.990348052978515625e+01 7.062369823455810547e+00 2.403691112995147705e-01 5.169832706451416016e+00 1.623060584068298340e+00 7.776024937629699707e-01
4.880000000000000000e+03 1.094604682922363281e+01 -1.743498229980468750e+01 1.496484577655792236e-01 -6.254594326019287109e-01 -1.427432894706726074e-01 -4.609211087226867676e-01
4.881000000000000000e+03 1.271530342102050781e+01 -1.404212570190429688e+01 1.426645666360855103e-01 -6.147945523262023926e-01 -1.416389942169189453e-01 -5.414813756942749023e-01
4.882000000000000000e+03 7.025325775146484375e+01 -2.117227554321289062e+01 4.059889540076255798e-02 4.714044094085693359e+00 1.426392912864685059e+00 2.196548283100128174e-01
4.883000000000000000e+03 2.881446456909179688e+01 3.263245582580566406e+00 -1.879196763038635254e+00 -9.259002208709716797e-01 -8.415291309356689453e-01 -6.876436471939086914e-01
4.884000000000000000e+03 2.739844703674316406e+01 1.781365275382995605e+00 -1.607796072959899902e+00 -5.442902445793151855e-01 -6.456258893013000488e-01 -4.410399496555328369e-01
4.885000000000000000e+03 7.286162567138671875e+01 3.003219795227050781e+01 -1.424174189567565918e+00 9.650944709777832031e+00 2.468030929565429688e+00 3.540708780288696289e+00
4.886000000000000000e+03 7.227133941650390625e+01 3.017204666137695312e+01 -9.405410289764404297e-01 7.905921936035156250e+00 2.089614391326904297e+00 3.792387962341308594e+00
4.887000000000000000e+03 2.659590148925781250e+01 1.424272179603576660e+00 -1.610421419143676758e+00 -4.588619470596313477e-01 -6.207849979400634766e-01 -5.037290453910827637e-01
4.888000000000000000e+03 2.633447456359863281e+01 1.262417078018188477e+00 -1.481827616691589355e+00 -3.899464905261993408e-01 -5.615322589874267578e-01 -4.613293707370758057e-01
4.889000000000000000e+03 4.271887588500976562e+01 1.806186676025390625e+01 -9.706639647483825684e-01 -1.040034413337707520e+00 -6.032094955444335938e-01 -1.123462677001953125e+00
4.890000000000000000e+03 4.874906158447265625e+01 2.441867256164550781e+01 -1.186070799827575684e+00 -7.516908645629882812e-01 -5.813285112380981445e-01 -1.073921442031860352e+00
4.891000000000000000e+03 3.749737548828125000e+01 1.259170150756835938e+01 -1.042781591415405273e+00 -1.172130107879638672e+00 -6.644734740257263184e-01 -1.063167333602905273e+00
4.892000000000000000e+03 3.743809127807617188e+01 1.308629798889160156e+01 -1.072554230690002441e+00 -1.213993072509765625e+00 -6.859641671180725098e-01 -1.105271697044372559e+00
4.893000000000000000e+03 5.314639663696289062e+01 2.789900970458984375e+01 -1.326787590980529785e+00 -1.329500824213027954e-01 -4.379212856292724609e-01 -9.529351592063903809e-01
4.894000000000000000e+03 5.173340988159179688e+01 2.804631042480468750e+01 -1.349410057067871094e+00 -4.262298047542572021e-01 -5.326919555664062500e-01 -1.000689506530761719e+00
4.895000000000000000e+03 4.490821838378906250e+01 2.018504905700683594e+01 -1.005449414253234863e+00 -9.845300316810607910e-01 -5.969938635826110840e-01 -1.077397942543029785e+00
4.896000000000000000e+03 2.608786201477050781e+01 2.107595062255859375e+01 6.063452363014221191e-02 1.134778037667274475e-01 5.223369970917701721e-02 8.561403304338455200e-02
4.897000000000000000e+03 2.568002510070800781e+01 2.089720344543457031e+01 5.982511490583419800e-02 1.149542555212974548e-01 5.243381112813949585e-02 8.561753481626510620e-02
4.898000000000000000e+03 4.913909530639648438e+01 2.445561027526855469e+01 -1.166345477104187012e+00 -6.899216771125793457e-01 -5.568801164627075195e-01 -1.047504067420959473e+00
4.899000000000000000e+03 4.452631378173828125e+01 2.034218978881835938e+01 -1.043512344360351562e+00 -1.045153975486755371e+00 -6.265999078750610352e-01 -1.115721106529235840e+00
4.900000000000000000e+03 5.446613693237304688e+01 2.753916358947753906e+01 -1.269722104072570801e+00 8.300600945949554443e-02 -3.560148477554321289e-01 -9.272757768630981445e-01
4.901000000000000000e+03 1.549201869964599609e+01 1.172362518310546875e+01 6.015080958604812622e-02 2.182568460702896118e-01 8.352229744195938110e-02 9.623295068740844727e-02
4.902000000000000000e+03 1.823499870300292969e+01 1.317968654632568359e+01 7.957612723112106323e-02 1.829290986061096191e-01 7.875157147645950317e-02 1.182369291782379150e-01
4.903000000000000000e+03 4.706892395019531250e+01 2.296716308593750000e+01 -1.167828559875488281e+00 -9.009715318679809570e-01 -6.206400394439697266e-01 -1.093862652778625488e+00
4.904000000000000000e+03 4.800519180297851562e+01 2.312631988525390625e+01 -1.120121240615844727e+00 -7.740691304206848145e-01 -5.682571530342102051e-01 -1.040956616401672363e+00
4.905000000000000000e+03 7.348979187011718750e+01 2.998432922363281250e+01 -1.902637481689453125e+00 1.141929531097412109e+01 2.854997396469116211e+00 2.798932790756225586e+00
4.906000000000000000e+03 3.783381271362304688e+01 1.327159404754638672e+01 -1.056018590927124023e+00 -1.197278738021850586e+00 -6.759892106056213379e-01 -1.087864160537719727e+00
4.907000000000000000e+03 3.790907669067382812e+01 1.359849357604980469e+01 -1.067941665649414062e+00 -1.214397192001342773e+00 -6.847016215324401855e-01 -1.107483267784118652e+00
4.908000000000000000e+03 4.520855712890625000e+01 2.094608116149902344e+01 -1.062255144119262695e+00 -1.009399890899658203e+00 -6.214964985847473145e-01 -1.098932862281799316e+00
4.909000000000000000e+03 1.433747863769531250e+01 9.765364646911621094e+00 6.464175879955291748e-02 2.800464630126953125e-01 1.034064665436744690e-01 9.084895998239517212e-02
4.910000000000000000e+03 3.638582611083984375e+01 1.134856319427490234e+01 -1.066935420036315918e+00 -1.178470849990844727e+00 -6.736218929290771484e-01 -1.052427291870117188e+00
4.911000000000000000e+03 3.716171646118164062e+01 1.236224651336669922e+01 -1.057084441184997559e+00 -1.188281893730163574e+00 -6.736099123954772949e-01 -1.069733500480651855e+00
4.912000000000000000e+03 4.149522781372070312e+01 1.637798881530761719e+01 -9.631042480468750000e-01 -1.027535796165466309e+00 -5.971920490264892578e-01 -1.077501058578491211e+00
4.913000000000000000e+03 1.803183555603027344e+01 1.410489559173583984e+01 6.570211052894592285e-02 1.743801534175872803e-01 7.202467322349548340e-02 1.038854494690895081e-01
4.914000000000000000e+03 2.039241218566894531e+01 1.551123905181884766e+01 7.503347843885421753e-02 1.540143042802810669e-01 6.871433556079864502e-02 1.063574478030204773e-01
4.915000000000000000e+03 2.168667602539062500e+01 1.791407966613769531e+01 6.029901280999183655e-02 1.371753215789794922e-01 5.924229696393013000e-02 9.248961508274078369e-02
4.916000000000000000e+03 7.260682678222656250e+01 2.876239013671875000e+01 -1.207974791526794434e+00 8.375602722167968750e+00 2.150288343429565430e+00 2.817687511444091797e+00
4.917000000000000000e+03 7.067461395263671875e+01 2.832643890380859375e+01 -3.724308609962463379e-01 4.778809547424316406e+00 1.321913599967956543e+00 2.551188945770263672e+00
4.918000000000000000e+03 3.813761520385742188e+01 1.409493255615234375e+01 -1.079017162322998047e+00 -1.231890916824340820e+00 -6.932724714279174805e-01 -1.128417491912841797e+00
4.919000000000000000e+03 4.375088500976562500e+01 1.962173271179199219e+01 -1.015317916870117188e+00 -1.063817977905273438e+00 -6.237407922744750977e-01 -1.132610082626342773e+00
4.920000000000000000e+03 4.472272109985351562e+01 1.991033363342285156e+01 -9.909559488296508789e-01 -9.890390038490295410e-01 -5.939984917640686035e-01 -1.076918959617614746e+00
4.921000000000000000e+03 2.195597839355468750e+01 1.833415222167968750e+01 5.850581079721450806e-02 1.344032436609268188e-01 5.787271633744239807e-02 9.063570946455001831e-02
4.922000000000000000e+03 3.823420715332031250e+01 1.385357570648193359e+01 -1.053903579711914062e+00 -1.199336647987365723e+00 -6.759721040725708008e-01 -1.100497722625732422e+00
4.923000000000000000e+03 4.542860794067382812e+01 2.111373710632324219e+01 -1.069419860839843750e+00 -9.955934882164001465e-01 -6.195040345191955566e-01 -1.093392848968505859e+00
4.924000000000000000e+03 5.317343139648437500e+01 2.622558021545410156e+01 -1.163452744483947754e+00 -8.435364812612533569e-02 -3.743419349193572998e-01 -9.110631942749023438e-01
4.925000000000000000e+03 5.204718780517578125e+01 2.787750244140625000e+01 -1.337108016014099121e+00 -3.580639660358428955e-01 -5.085515975952148438e-01 -9.851597547531127930e-01
4.926000000000000000e+03 7.198997497558593750e+01 2.981275939941406250e+01 -8.353376984596252441e-01 7.060856819152832031e+00 1.867655754089355469e+00 3.619666576385498047e+00
4.927000000000000000e+03 3.879932022094726562e+01 1.408434104919433594e+01 -1.029772043228149414e+00 -1.163384437561035156e+00 -6.579469442367553711e-01 -1.077616095542907715e+00
4.928000000000000000e+03 2.297815895080566406e+01 1.929899215698242188e+01 5.754151567816734314e-02 1.277389377355575562e-01 5.558413639664649963e-02 8.800941705703735352e-02
4.929000000000000000e+03 3.910865402221679688e+01 1.428565502166748047e+01 -1.018435478210449219e+00 -1.140745520591735840e+00 -6.477543115615844727e-01 -1.068612575531005859e+00
4.930000000000000000e+03 5.054531860351562500e+01 2.709750556945800781e+01 -1.314528107643127441e+00 -6.301267743110656738e-01 -5.833964943885803223e-01 -1.057673692703247070e+00
4.931000000000000000e+03 1.423387050628662109e+01 1.105394172668457031e+01 5.308403819799423218e-02 2.314250618219375610e-01 8.535273373126983643e-02 7.161305099725723267e-02
4.932000000000000000e+03 4.747021484375000000e+01 2.276116371154785156e+01 -1.115359187126159668e+00 -8.239930868148803711e-01 -5.818056464195251465e-01 -1.050420045852661133e+00
4.933000000000000000e+03 4.025382614135742188e+01 1.546201610565185547e+01 -1.005522012710571289e+00 -1.095539808273315430e+00 -6.303185224533081055e-01 -1.084303259849548340e+00
4.934000000000000000e+03 4.062238693237304688e+01 1.601260757446289062e+01 -1.012288689613342285e+00 -1.090796828269958496e+00 -6.309256553649902344e-01 -1.102141022682189941e+00
4.935000000000000000e+03 2.100841903686523438e+01 1.631229782104492188e+01 7.250253111124038696e-02 1.476113647222518921e-01 6.603416800498962402e-02 1.025719568133354187e-01
4.936000000000000000e+03 5.404245376586914062e+01 2.734707069396972656e+01 -1.257282018661499023e+00 2.581060491502285004e-02 -3.694414198398590088e-01 -9.277103543281555176e-01
4.937000000000000000e+03 3.675748443603515625e+01 1.227258014678955078e+01 -1.090739846229553223e+00 -1.220518231391906738e+00 -6.933774352073669434e-01 -1.099365234375000000e+00
4.938000000000000000e+03 3.942740631103515625e+01 1.449699974060058594e+01 -1.006525278091430664e+00 -1.121779561042785645e+00 -6.384914517402648926e-01 -1.062310934066772461e+00
4.939000000000000000e+03 4.594392013549804688e+01 2.148443412780761719e+01 -1.077990889549255371e+00 -9.536954164505004883e-01 -6.095058917999267578e-01 -1.075491547584533691e+00
4.940000000000000000e+03 4.422466278076171875e+01 1.979989624023437500e+01 -1.005523324012756348e+00 -1.030637502670288086e+00 -6.108482480049133301e-01 -1.107640624046325684e+00
4.941000000000000000e+03 5.472447204589843750e+01 2.821261978149414062e+01 -1.336959242820739746e+00 1.103465259075164795e-01 -3.679838180541992188e-01 -9.392541646957397461e-01
4.942000000000000000e+03 2.244165420532226562e+01 1.909790039062500000e+01 5.471573024988174438e-02 1.295757740736007690e-01 5.528745055198669434e-02 8.701679855585098267e-02
4.943000000000000000e+03 5.033311843872070312e+01 2.592719650268554688e+01 -1.235179185867309570e+00 -5.837522149085998535e-01 -5.456794500350952148e-01 -1.032789707183837891e+00
4.944000000000000000e+03 5.100201034545898438e+01 2.695532417297363281e+01 -1.289257526397705078e+00 -5.207337141036987305e-01 -5.429973602294921875e-01 -1.019700527191162109e+00
4.945000000000000000e+03 1.920343780517578125e+01 1.566695785522460938e+01 6.174157187342643738e-02 1.564295589923858643e-01 6.545133888721466064e-02 9.670215100049972534e-02
4.946000000000000000e+03 1.898957061767578125e+01 1.422271442413330078e+01 7.677584141492843628e-02 1.684615164995193481e-01 7.357120513916015625e-02 1.115475222468376160e-01
4.947000000000000000e+03 1.726215553283691406e+01 1.421852684020996094e+01 5.513978004455566406e-02 1.756219118833541870e-01 6.922850757837295532e-02 9.424358606338500977e-02
4.948000000000000000e+03 4.899306869506835938e+01 2.515570449829101562e+01 -1.233088135719299316e+00 -7.656219005584716797e-01 -5.996130108833312988e-01 -1.097013831138610840e+00
4.949000000000000000e+03 5.122910690307617188e+01 2.736895751953125000e+01 -1.315076708793640137e+00 -5.001881718635559082e-01 -5.445795059204101562e-01 -1.017819285392761230e+00
4.950000000000000000e+03 5.069590759277343750e+01 2.594204521179199219e+01 -1.226985454559326172e+00 -5.301196575164794922e-01 -5.271314978599548340e-01 -1.010357618331909180e+00
4.951000000000000000e+03 5.082151412963867188e+01 2.657657051086425781e+01 -1.265005111694335938e+00 -5.310066938400268555e-01 -5.388035178184509277e-01 -1.023065686225891113e+00
4.952000000000000000e+03 2.262266731262207031e+01 1.850996780395507812e+01 6.191669031977653503e-02 1.316528767347335815e-01 5.807086825370788574e-02 9.239125996828079224e-02
4.953000000000000000e+03 2.006729507446289062e+01 1.614754676818847656e+01 6.459984183311462402e-02 1.513382941484451294e-01 6.478144228458404541e-02 9.804591536521911621e-02
4.954000000000000000e+03 4.357079696655273438e+01 1.900591659545898438e+01 -9.763658046722412109e-01 -1.030823469161987305e+00 -6.021568179130554199e-01 -1.112753987312316895e+00
4.955000000000000000e+03 4.403621292114257812e+01 1.921674537658691406e+01 -9.671376943588256836e-01 -1.005252242088317871e+00 -5.917169451713562012e-01 -1.087224721908569336e+00
4.956000000000000000e+03 7.259490966796875000e+01 2.993667030334472656e+01 -1.244651675224304199e+00 8.864806175231933594e+00 2.286046266555786133e+00 3.517478942871093750e+00
4.957000000000000000e+03 3.117499923706054688e+01 2.635405540466308594e+01 5.101951956748962402e-02 9.047452360391616821e-02 4.244821146130561829e-02 7.032113522291183472e-02
4.958000000000000000e+03 4.657918930053710938e+01 2.241371726989746094e+01 -1.136189699172973633e+00 -9.319332838058471680e-01 -6.204369068145751953e-01 -1.088897347450256348e+00
4.959000000000000000e+03 3.599085235595703125e+01 1.089291477203369141e+01 -1.072124600410461426e+00 -1.171103119850158691e+00 -6.729683279991149902e-01 -1.043034791946411133e+00
4.960000000000000000e+03 3.681545639038085938e+01 1.185772323608398438e+01 -1.059788823127746582e+00 -1.183924436569213867e+00 -6.731139421463012695e-01 -1.057922124862670898e+00
4.961000000000000000e+03 2.474253654479980469e+01 2.018677902221679688e+01 6.100773066282272339e-02 1.197225600481033325e-01 5.421908944845199585e-02 8.767650276422500610e-02
4.962000000000000000e+03 3.975645446777343750e+01 1.469716072082519531e+01 -9.943465590476989746e-01 -1.100434899330139160e+00 -6.284344196319580078e-01 -1.055273175239562988e+00
4.963000000000000000e+03 4.009724807739257812e+01 1.488432121276855469e+01 -9.806295037269592285e-01 -1.076647996902465820e+00 -6.171832680702209473e-01 -1.048145294189453125e+00
4.964000000000000000e+03 4.843916702270507812e+01 2.356632423400878906e+01 -1.133176684379577637e+00 -7.352090477943420410e-01 -5.605157613754272461e-01 -1.042534470558166504e+00
4.965000000000000000e+03 4.105669021606445312e+01 1.597673797607421875e+01 -9.716224670410156250e-01 -1.041257858276367188e+00 -6.038640737533569336e-01 -1.072349905967712402e+00
4.966000000000000000e+03 3.771207427978515625e+01 1.292984008789062500e+01 -1.046098113059997559e+00 -1.181044220924377441e+00 -6.681426763534545898e-01 -1.072400093078613281e+00
4.967000000000000000e+03 2.444103240966796875e+01 2.023963928222656250e+01 5.827304720878601074e-02 1.204056367278099060e-01 5.360360443592071533e-02 8.632764220237731934e-02
4.968000000000000000e+03 2.389690589904785156e+01 1.954403305053710938e+01 6.140846759080886841e-02 1.235770210623741150e-01 5.549564585089683533e-02 8.914674073457717896e-02
4.969000000000000000e+03 5.291017913818359375e+01 2.831780815124511719e+01 -1.355573177337646484e+00 -1.881852746009826660e-01 -4.631275236606597900e-01 -9.600881934165954590e-01
4.970000000000000000e+03 4.622679519653320312e+01 2.168464279174804688e+01 -1.081631422042846680e+00 -9.302493333816528320e-01 -6.035642623901367188e-01 -1.067373633384704590e+00
4.971000000000000000e+03 4.653277206420898438e+01 2.189459800720214844e+01 -1.086579918861389160e+00 -9.008969664573669434e-01 -5.962430238723754883e-01 -1.057475686073303223e+00
4.972000000000000000e+03 2.050854110717773438e+01 1.610331344604492188e+01 6.977161765098571777e-02 1.498362421989440918e-01 6.588235497474670410e-02 1.012163832783699036e-01
4.973000000000000000e+03 1.974799919128417969e+01 1.513063716888427734e+01 7.411178946495056152e-02 1.590368300676345825e-01 6.994458287954330444e-02 1.070550605654716492e-01
4.974000000000000000e+03 4.685485839843750000e+01 2.267295455932617188e+01 -1.151654005050659180e+00 -9.130207300186157227e-01 -6.194024085998535156e-01 -1.087498664855957031e+00
4.975000000000000000e+03 3.048418617248535156e+01 3.544512510299682617e+00 -1.532285928726196289e+00 -8.316340446472167969e-01 -7.091760039329528809e-01 -5.062007904052734375e-01
4.976000000000000000e+03 2.091176795959472656e+01 1.688249015808105469e+01 6.458126008510589600e-02 1.450499147176742554e-01 6.288935244083404541e-02 9.684040397405624390e-02
4.977000000000000000e+03 1.228256225585937500e+01 6.670621395111083984e+00 1.216967180371284485e-01 3.672330975532531738e-01 1.466789394617080688e-01 -6.492873281240463257e-02
4.978000000000000000e+03 1.597428894042968750e+01 1.163876438140869141e+01 6.684427708387374878e-02 2.200156450271606445e-01 8.605797588825225830e-02 1.079464778304100037e-01
4.979000000000000000e+03 1.489992046356201172e+01 1.133307075500488281e+01 5.722186341881752014e-02 2.276061475276947021e-01 8.544839918613433838e-02 8.740620315074920654e-02
4.980000000000000000e+03 2.634263038635253906e+01 7.620704770088195801e-01 -1.180069327354431152e+00 -3.057067394256591797e-01 -4.457328021526336670e-01 -3.251916468143463135e-01
4.981000000000000000e+03 2.687218856811523438e+01 1.549455761909484863e+00 -1.559635996818542480e+00 -5.083138346672058105e-01 -6.203849911689758301e-01 -4.525151550769805908e-01
4.982000000000000000e+03 1.388122749328613281e+01 8.820494651794433594e+00 7.002608478069305420e-02 3.168588578701019287e-01 1.160654798150062561e-01 8.049405366182327271e-02
4.983000000000000000e+03 3.491525268554687500e+01 9.238416671752929688e+00 -1.086020231246948242e+00 -1.115320444107055664e+00 -6.604021787643432617e-01 -9.943497180938720703e-01
4.984000000000000000e+03 3.692244338989257812e+01 1.139568901062011719e+01 -1.021698236465454102e+00 -1.132341384887695312e+00 -6.462118625640869141e-01 -1.011129617691040039e+00
4.985000000000000000e+03 2.782196998596191406e+01 1.283882021903991699e+00 -1.204443931579589844e+00 -5.219392776489257812e-01 -5.179149508476257324e-01 -2.594609856605529785e-01
4.986000000000000000e+03 3.574782562255859375e+01 1.009434032440185547e+01 -1.051798820495605469e+00 -1.129186391830444336e+00 -6.542955636978149414e-01 -9.984562397003173828e-01
4.987000000000000000e+03 2.863524627685546875e+01 2.490512657165527344e+01 4.648452624678611755e-02 9.858871996402740479e-02 4.352197423577308655e-02 7.337136566638946533e-02
4.988000000000000000e+03 2.725077438354492188e+01 2.448510169982910156e+01 4.289112612605094910e-02 1.028594374656677246e-01 4.372517019510269165e-02 7.234250009059906006e-02
4.989000000000000000e+03 3.282492828369140625e+01 4.687416553497314453e+00 -1.218726515769958496e+00 -7.884994745254516602e-01 -6.021677851676940918e-01 -6.099103093147277832e-01
4.990000000000000000e+03 4.202159881591796875e+01 1.763938713073730469e+01 -9.907468557357788086e-01 -1.069227576255798340e+00 -6.179923415184020996e-01 -1.143826007843017578e+00
4.991000000000000000e+03 4.237729263305664062e+01 1.676735305786132812e+01 -9.168310165405273438e-01 -9.728581905364990234e-01 -5.669067502021789551e-01 -1.051748394966125488e+00
4.992000000000000000e+03 1.288575553894042969e+01 7.087313175201416016e+00 8.628437668085098267e-02 4.104681015014648438e-01 1.490257382392883301e-01 5.880625918507575989e-03
4.993000000000000000e+03 1.332157707214355469e+01 8.476135253906250000e+00 6.960658729076385498e-02 3.256538510322570801e-01 1.185781359672546387e-01 5.075697973370552063e-02
4.994000000000000000e+03 1.690440750122070312e+01 1.198086261749267578e+01 7.707271724939346313e-02 2.073945701122283936e-01 8.534018695354461670e-02 1.190570220351219177e-01
4.995000000000000000e+03 2.881256675720214844e+01 2.232369899749755859e+00 -1.476240515708923340e+00 -7.190406918525695801e-01 -6.585843563079833984e-01 -3.885571658611297607e-01
4.996000000000000000e+03 2.305423545837402344e+01 1.833374404907226562e+01 6.734453886747360229e-02 1.307150274515151978e-01 5.941786989569664001e-02 9.546957910060882568e-02
4.997000000000000000e+03 1.455585098266601562e+01 1.001431369781494141e+01 6.496466696262359619e-02 2.677683234214782715e-01 9.981989860534667969e-02 9.591722488403320312e-02
4.998000000000000000e+03 3.335355758666992188e+01 5.138862609863281250e+00 -1.151090860366821289e+00 -8.125131726264953613e-01 -5.890812277793884277e-01 -6.538212299346923828e-01
4.999000000000000000e+03 3.057522201538085938e+01 2.679466247558593750e+01 4.708161205053329468e-02 9.157345443964004517e-02 4.159652069211006165e-02 6.827062368392944336e-02
5.000000000000000000e+03 2.960047531127929688e+01 2.732208442687988281e+01 4.206732288002967834e-02 9.298511594533920288e-02 4.051573202013969421e-02 6.521164625883102417e-02
5.001000000000000000e+03 1.694930648803710938e+01 1.243438816070556641e+01 7.144962996244430542e-02 2.006507962942123413e-01 8.163012564182281494e-02 1.131368055939674377e-01
5.002000000000000000e+03 3.642007827758789062e+01 1.089319610595703125e+01 -1.042856574058532715e+00 -1.137382388114929199e+00 -6.540716886520385742e-01 -1.014115929603576660e+00
5.003000000000000000e+03 7.300637054443359375e+01 3.045430755615234375e+01 -1.521539092063903809e+00 1.041161537170410156e+01 2.667022705078125000e+00 3.763370037078857422e+00
5.004000000000000000e+03 7.312178039550781250e+01 3.015819358825683594e+01 -1.624475002288818359e+00 1.040803527832031250e+01 2.635068178176879883e+00 3.387027978897094727e+00
5.005000000000000000e+03 2.681357192993164062e+01 8.466365337371826172e-01 -1.171572208404541016e+00 -3.790644407272338867e-01 -4.651910066604614258e-01 -3.148950934410095215e-01
5.006000000000000000e+03 2.730471229553222656e+01 4.354948401451110840e-01 -7.439917922019958496e-01 -4.398832917213439941e-01 -3.551625311374664307e-01 -2.504586577415466309e-01
5.007000000000000000e+03 3.033539199829101562e+01 2.740281867980957031e+01 4.404484480619430542e-02 9.160131216049194336e-02 4.069384932518005371e-02 6.576059013605117798e-02
5.008000000000000000e+03 2.964418601989746094e+01 2.587045860290527344e+01 4.703887179493904114e-02 9.490782767534255981e-02 4.258400946855545044e-02 7.132323831319808960e-02
5.009000000000000000e+03 2.747550392150878906e+01 2.508174324035644531e+01 4.092478379607200623e-02 1.010063290596008301e-01 4.257933422923088074e-02 7.065276801586151123e-02
5.010000000000000000e+03 1.440056419372558594e+01 1.151895141601562500e+01 4.762268811464309692e-02 2.201208323240280151e-01 8.032305538654327393e-02 7.263610512018203735e-02
5.011000000000000000e+03 5.521582794189453125e+01 2.839762496948242188e+01 -1.349439859390258789e+00 1.625119000673294067e-01 -3.560783863067626953e-01 -9.400953650474548340e-01
5.012000000000000000e+03 3.135559082031250000e+01 3.849013805389404297e+00 -1.390394806861877441e+00 -7.789349555969238281e-01 -6.507989168167114258e-01 -5.103590488433837891e-01
5.013000000000000000e+03 2.910807991027832031e+01 2.575713157653808594e+01 4.499749094247817993e-02 9.627205878496170044e-02 4.238086566329002380e-02 7.084366679191589355e-02
5.014000000000000000e+03 1.116656017303466797e+01 7.436094284057617188e+00 1.337968409061431885e-01 1.976973265409469604e-01 9.944825619459152222e-02 -6.470683217048645020e-02
5.015000000000000000e+03 1.348770713806152344e+01 9.384739875793457031e+00 6.143046170473098755e-02 2.827365398406982422e-01 1.032501012086868286e-01 5.606230348348617554e-02
5.016000000000000000e+03 2.670103454589843750e+01 2.159240341186523438e+01 5.872996523976325989e-02 1.099987104535102844e-01 5.061860382556915283e-02 8.359074592590332031e-02
5.017000000000000000e+03 2.699425315856933594e+01 2.183056068420410156e+01 5.822129920125007629e-02 1.085550263524055481e-01 5.003289878368377686e-02 8.293526619672775269e-02
5.018000000000000000e+03 2.841995811462402344e+01 1.392567753791809082e+00 -1.145374655723571777e+00 -6.091156005859375000e-01 -5.263471007347106934e-01 -2.483797371387481689e-01
5.019000000000000000e+03 3.473559951782226562e+01 7.319736480712890625e+00 -1.034909725189208984e+00 -9.572288990020751953e-01 -5.976415872573852539e-01 -8.318261504173278809e-01
5.020000000000000000e+03 3.444636917114257812e+01 7.027756690979003906e+00 -1.065660357475280762e+00 -9.361160993576049805e-01 -6.005329489707946777e-01 -8.231794834136962891e-01
5.021000000000000000e+03 3.588885116577148438e+01 1.051249408721923828e+01 -1.066187977790832520e+00 -1.151451230049133301e+00 -6.652917861938476562e-01 -1.024368882179260254e+00
5.022000000000000000e+03 3.529267883300781250e+01 1.021820545196533203e+01 -1.101978778839111328e+00 -1.174448966979980469e+00 -6.829283237457275391e-01 -1.049046516418457031e+00
5.023000000000000000e+03 2.678317070007324219e+01 2.334949684143066406e+01 4.722234606742858887e-02 1.065687909722328186e-01 4.613734036684036255e-02 7.610026746988296509e-02
5.024000000000000000e+03 2.655780029296875000e+01 2.282841682434082031e+01 4.912120103836059570e-02 1.080924943089485168e-01 4.716410860419273376e-02 7.780332118272781372e-02
5.025000000000000000e+03 2.828997993469238281e+01 2.536351203918457031e+01 4.292017221450805664e-02 9.850750863552093506e-02 4.242830350995063782e-02 7.088144123554229736e-02
5.026000000000000000e+03 1.253161811828613281e+01 6.910614967346191406e+00 1.008335202932357788e-01 3.924763500690460205e-01 1.479929685592651367e-01 -3.075974062085151672e-02
5.027000000000000000e+03 1.277533912658691406e+01 8.075863838195800781e+00 7.687957584857940674e-02 3.255401551723480225e-01 1.207259222865104675e-01 1.503704581409692764e-02
5.028000000000000000e+03 6.980097961425781250e+01 2.757254791259765625e+01 -1.779691576957702637e-01 3.939742803573608398e+00 1.128532171249389648e+00 2.088450193405151367e+00
5.029000000000000000e+03 3.198703193664550781e+01 2.952903175354003906e+01 4.555633291602134705e-02 8.631268143653869629e-02 3.956070542335510254e-02 5.935448035597801208e-02
5.030000000000000000e+03 3.602018356323242188e+01 9.151000976562500000e+00 -9.824731945991516113e-01 -1.022451758384704590e+00 -6.014775037765502930e-01 -8.924733996391296387e-01
5.031000000000000000e+03 3.233772277832031250e+01 3.258822441101074219e+00 -1.073731422424316406e+00 -7.245504856109619141e-01 -5.394845604896545410e-01 -3.456363081932067871e-01
5.032000000000000000e+03 3.131817817687988281e+01 2.743438720703125000e+01 4.809047654271125793e-02 8.942476660013198853e-02 4.125457257032394409e-02 6.624159961938858032e-02
5.033000000000000000e+03 7.197667694091796875e+01 2.778203392028808594e+01 -7.849915623664855957e-01 6.960319042205810547e+00 1.852598190307617188e+00 2.536511659622192383e+00
5.034000000000000000e+03 7.150782775878906250e+01 2.547423934936523438e+01 -3.576314449310302734e-01 6.179879665374755859e+00 1.746674537658691406e+00 1.878432512283325195e+00
5.035000000000000000e+03 4.192715454101562500e+01 1.679144287109375000e+01 -9.519204497337341309e-01 -1.016455769538879395e+00 -5.905128717422485352e-01 -1.083169460296630859e+00
5.036000000000000000e+03 4.221614074707031250e+01 1.798383140563964844e+01 -9.974598288536071777e-01 -1.078515648841857910e+00 -6.227926611900329590e-01 -1.151921510696411133e+00
5.037000000000000000e+03 1.975216293334960938e+01 1.562949371337890625e+01 6.857620179653167725e-02 1.554800271987915039e-01 6.721686571836471558e-02 1.014891117811203003e-01
5.038000000000000000e+03 1.701217651367187500e+01 1.289205837249755859e+01 6.709672510623931885e-02 1.932878643274307251e-01 7.811537384986877441e-02 1.075540781021118164e-01
5.039000000000000000e+03 1.748979949951171875e+01 1.326171016693115234e+01 6.919901072978973389e-02 1.861461102962493896e-01 7.660353183746337891e-02 1.091146320104598999e-01
5.040000000000000000e+03 5.896869277954101562e+01 2.668840217590332031e+01 -8.886477351188659668e-01 4.770556390285491943e-01 -1.234776377677917480e-01 -7.263240814208984375e-01
5.041000000000000000e+03 5.779893493652343750e+01 2.691013717651367188e+01 -1.016634225845336914e+00 3.879891932010650635e-01 -1.885935068130493164e-01 -8.196352720260620117e-01
5.042000000000000000e+03 3.117741775512695312e+01 2.686283683776855469e+01 4.869693517684936523e-02 9.006484597921371460e-02 4.162853583693504333e-02 6.840671598911285400e-02
5.043000000000000000e+03 7.253925323486328125e+01 2.817778587341308594e+01 -1.085731506347656250e+00 8.016887664794921875e+00 2.079346895217895508e+00 2.551516056060791016e+00
5.044000000000000000e+03 2.906741333007812500e+01 2.509098052978515625e+00 -1.515136122703552246e+00 -7.992054820060729980e-01 -6.943024992942810059e-01 -4.453969001770019531e-01
5.045000000000000000e+03 3.468689346313476562e+01 7.988921165466308594e+00 -1.061285376548767090e+00 -1.023897767066955566e+00 -6.255549192428588867e-01 -9.075778126716613770e-01
5.046000000000000000e+03 5.491751861572265625e+01 2.770343589782714844e+01 -1.277151226997375488e+00 1.349941939115524292e-01 -3.426471352577209473e-01 -9.281734824180603027e-01
5.047000000000000000e+03 7.239708709716796875e+01 2.764028167724609375e+01 -9.180434346199035645e-01 7.559569358825683594e+00 1.992457866668701172e+00 2.358405113220214844e+00
5.048000000000000000e+03 5.554501342773437500e+01 2.729563331604003906e+01 -1.206172108650207520e+00 2.056748121976852417e-01 -3.001491725444793701e-01 -9.094697237014770508e-01
5.049000000000000000e+03 3.008048629760742188e+01 3.250437498092651367e+00 -1.545934557914733887e+00 -8.374233841896057129e-01 -7.150073647499084473e-01 -4.809500277042388916e-01
5.050000000000000000e+03 7.167890930175781250e+01 2.645010185241699219e+01 -5.354903340339660645e-01 6.403187274932861328e+00 1.760309100151062012e+00 2.115117549896240234e+00
5.051000000000000000e+03 7.203816223144531250e+01 2.672009658813476562e+01 -6.800430417060852051e-01 6.891800880432128906e+00 1.863527297973632812e+00 2.144594430923461914e+00
5.052000000000000000e+03 6.770580291748046875e+01 2.613703155517578125e+01 6.617850065231323242e-02 2.636626005172729492e+00 8.108413219451904297e-01 1.228245854377746582e+00
5.053000000000000000e+03 6.291695404052734375e+01 2.597007560729980469e+01 -3.331236243247985840e-01 9.454020857810974121e-01 1.836835443973541260e-01 -1.230831518769264221e-01
5.054000000000000000e+03 3.477953338623046875e+01 5.954936504364013672e+00 -9.696646928787231445e-01 -8.288489580154418945e-01 -5.395541191101074219e-01 -6.578133702278137207e-01
5.055000000000000000e+03 6.584552764892578125e+01 2.538799095153808594e+01 6.628394126892089844e-02 1.890756487846374512e+00 5.871121287345886230e-01 6.801350116729736328e-01
5.056000000000000000e+03 6.472980499267578125e+01 2.629787826538085938e+01 -1.853524595499038696e-01 1.243101835250854492e+00 3.173248171806335449e-01 2.691746950149536133e-01
5.057000000000000000e+03 3.034245109558105469e+01 2.823537826538085938e+00 -1.389732599258422852e+00 -7.606112360954284668e-01 -6.451031565666198730e-01 -3.767865002155303955e-01
5.058000000000000000e+03 8.989938735961914062e+00 1.106394004821777344e+01 6.073993444442749023e-02 3.604545816779136658e-02 2.903561852872371674e-02 -2.083857730031013489e-02
5.059000000000000000e+03 1.066275978088378906e+01 7.801514625549316406e+00 1.339785158634185791e-01 1.492662280797958374e-01 8.497342467308044434e-02 -5.988269299268722534e-02
5.060000000000000000e+03 1.087958145141601562e+01 7.000514984130859375e+00 1.656897962093353271e-01 1.698679476976394653e-01 1.006673276424407959e-01 -8.344160765409469604e-02
5.061000000000000000e+03 3.270771408081054688e+01 -1.828362822532653809e+00 2.842915058135986328e-01 -6.663388013839721680e-01 -1.146141812205314636e-01 5.329772830009460449e-02
5.062000000000000000e+03 3.204419708251953125e+01 -8.638680577278137207e-01 5.412155389785766602e-02 -6.742553114891052246e-01 -1.860401183366775513e-01 5.277124419808387756e-02
5.063000000000000000e+03 3.546163558959960938e+01 -3.374422550201416016e+00 4.656301438808441162e-01 -6.370984315872192383e-01 -5.144048482179641724e-02 4.800161346793174744e-02
5.064000000000000000e+03 3.193428611755371094e+01 3.395743942260742188e+01 4.132852330803871155e-02 8.018527179956436157e-02 3.645413741469383240e-02 4.244650527834892273e-02
5.065000000000000000e+03 3.361578369140625000e+01 3.204919815063476562e+01 4.874911904335021973e-02 8.067677170038223267e-02 3.882776945829391479e-02 5.241968482732772827e-02
5.066000000000000000e+03 6.174173355102539062e+01 2.636795425415039062e+01 -5.493040680885314941e-01 7.299188375473022461e-01 5.418443307280540466e-02 -3.753889501094818115e-01
5.067000000000000000e+03 6.215324783325195312e+01 2.445331382751464844e+01 -1.648140251636505127e-01 1.106382012367248535e+00 2.824703752994537354e-01 -8.712720870971679688e-02
5.068000000000000000e+03 3.355930709838867188e+01 -2.258221387863159180e+00 3.365195691585540771e-01 -6.801109910011291504e-01 -1.030774265527725220e-01 5.123112723231315613e-02
5.069000000000000000e+03 3.030751419067382812e+01 2.483009099960327148e+00 -1.194707989692687988e+00 -7.230490446090698242e-01 -5.753270983695983887e-01 -2.649140059947967529e-01
5.070000000000000000e+03 3.043584251403808594e+01 -3.928864002227783203e-01 -1.062180921435356140e-01 -6.524532437324523926e-01 -2.276013940572738647e-01 2.020322903990745544e-02
5.071000000000000000e+03 1.177838325500488281e+01 7.235513210296630859e+00 1.242700666189193726e-01 2.764967978000640869e-01 1.202300637960433960e-01 -5.756759271025657654e-02
5.072000000000000000e+03 5.628382873535156250e+01 2.555834960937500000e+01 -9.100215435028076172e-01 3.216760158538818359e-01 -1.765036582946777344e-01 -7.891615629196166992e-01
5.073000000000000000e+03 3.709881210327148438e+01 -4.568387508392333984e+00 5.378830432891845703e-01 -5.577020645141601562e-01 -5.945694167166948318e-03 3.377141803503036499e-02
5.074000000000000000e+03 3.524749374389648438e+01 -2.440503120422363281e+00 3.572106063365936279e-01 -6.545445919036865234e-01 -8.920019119977951050e-02 5.806693434715270996e-02
5.075000000000000000e+03 9.501860618591308594e+00 9.586888313293457031e+00 9.370971471071243286e-02 6.584191322326660156e-02 4.786548763513565063e-02 -3.195128589868545532e-02
5.076000000000000000e+03 6.645465087890625000e+01 2.613576889038085938e+01 1.977512985467910767e-02 1.939521670341491699e+00 5.877890586853027344e-01 8.068783283233642578e-01
5.077000000000000000e+03 6.899802398681640625e+01 2.150747489929199219e+01 2.571797966957092285e-01 4.413746356964111328e+00 1.401277899742126465e+00 1.286879181861877441e+00
5.078000000000000000e+03 3.187307357788085938e+01 2.873350524902343750e+01 4.678706079721450806e-02 8.759737759828567505e-02 4.031533002853393555e-02 6.191710755228996277e-02
5.079000000000000000e+03 6.046067810058593750e+01 2.549743843078613281e+01 -5.129013657569885254e-01 7.026455402374267578e-01 5.692324414849281311e-02 -4.557170867919921875e-01
5.080000000000000000e+03 6.144179916381835938e+01 2.525158882141113281e+01 -3.832112848758697510e-01 8.604552745819091797e-01 1.431731879711151123e-01 -3.026357889175415039e-01
5.081000000000000000e+03 9.405068397521972656e+00 1.426454353332519531e+01 1.947141066193580627e-02 4.419550299644470215e-02 1.910007372498512268e-02 -1.548704132437705994e-02
5.082000000000000000e+03 1.078576946258544922e+01 1.444731903076171875e+01 1.784260571002960205e-02 8.665436506271362305e-02 3.134908899664878845e-02 -2.133125206455588341e-03
5.083000000000000000e+03 1.152470970153808594e+01 1.932456970214843750e+01 -2.090286230668425560e-03 5.651897564530372620e-02 1.632860675454139709e-02 6.568972021341323853e-04
5.084000000000000000e+03 6.759764099121093750e+01 2.619486808776855469e+00 2.571696937084197998e-01 4.455878734588623047e+00 1.413914561271667480e+00 6.676869392395019531e-01
5.085000000000000000e+03 3.397530746459960938e+01 3.356929397583007812e+01 4.862384498119354248e-02 7.816233485937118530e-02 3.803585469722747803e-02 4.769137874245643616e-02
5.086000000000000000e+03 1.082605743408203125e+01 1.741520500183105469e+01 2.525836694985628128e-03 6.253789365291595459e-02 1.951911859214305878e-02 -4.037401638925075531e-03
5.087000000000000000e+03 5.936966705322265625e+01 2.591080284118652344e+01 -7.101976275444030762e-01 5.655947923660278320e-01 -4.338085278868675232e-02 -6.259468197822570801e-01
5.088000000000000000e+03 6.007014083862304688e+01 2.623532485961914062e+01 -7.041079998016357422e-01 5.709419250488281250e-01 -3.994981572031974792e-02 -5.892884135246276855e-01
5.089000000000000000e+03 1.399835109710693359e+01 1.062289619445800781e+01 5.247490853071212769e-02 2.417022585868835449e-01 8.825315535068511963e-02 6.952499598264694214e-02
5.090000000000000000e+03 9.340065956115722656e+00 1.208288574218750000e+01 4.745506495237350464e-02 5.160436779260635376e-02 2.971783094108104706e-02 -2.099935710430145264e-02
5.091000000000000000e+03 1.132612705230712891e+01 -1.317794895172119141e+01 8.254566788673400879e-02 -6.022925972938537598e-01 -1.559240818023681641e-01 -5.657376646995544434e-01
5.092000000000000000e+03 1.040194034576416016e+01 -1.471293735504150391e+01 1.010992899537086487e-01 -6.113132238388061523e-01 -1.530641913414001465e-01 -5.172206163406372070e-01
5.093000000000000000e+03 9.855000495910644531e+00 1.170357131958007812e+01 4.929278790950775146e-02 7.970807701349258423e-02 3.870026022195816040e-02 -1.843652315437793732e-02
5.094000000000000000e+03 1.126093578338623047e+01 1.365233135223388672e+01 2.418043091893196106e-02 1.084526628255844116e-01 3.978992998600006104e-02 2.464470686390995979e-03
5.095000000000000000e+03 3.829833984375000000e+01 -4.722335338592529297e+00 5.241420865058898926e-01 -4.855759441852569580e-01 1.156984735280275345e-02 4.340568557381629944e-02
5.096000000000000000e+03 3.933262634277343750e+01 -5.918173313140869141e+00 5.563563704490661621e-01 -3.963331878185272217e-01 4.800696298480033875e-02 3.458236157894134521e-02
5.097000000000000000e+03 6.787870025634765625e+01 1.136641120910644531e+01 3.365184962749481201e-01 4.464819431304931641e+00 1.440401315689086914e+00 8.830672502517700195e-01
5.098000000000000000e+03 6.742900848388671875e+01 1.048130989074707031e+01 3.505213856697082520e-01 4.345856189727783203e+00 1.408913254737854004e+00 8.508067131042480469e-01
5.099000000000000000e+03 6.768056488037109375e+01 -6.429039478302001953e+00 1.728216111660003662e-01 4.391267299652099609e+00 1.369226694107055664e+00 4.650117158889770508e-01
5.100000000000000000e+03 4.402767181396484375e+01 -1.071854305267333984e+01 4.585768878459930420e-01 1.644915938377380371e-01 1.869205385446548462e-01 5.762327462434768677e-02
5.101000000000000000e+03 4.279012298583984375e+01 -9.760427474975585938e+00 4.901284277439117432e-01 -5.719804903492331505e-04 1.468669325113296509e-01 4.492036998271942139e-02
5.102000000000000000e+03 9.437664985656738281e+00 -1.105488014221191406e+01 -6.618971377611160278e-02 -5.117747187614440918e-01 -1.733893305063247681e-01 -5.721067190170288086e-01
5.103000000000000000e+03 3.880266189575195312e+01 -5.346909523010253906e+00 5.318655371665954590e-01 -4.475112855434417725e-01 2.530628442764282227e-02 4.791542515158653259e-02
5.104000000000000000e+03 6.787404632568359375e+01 4.834426879882812500e+00 2.788982689380645752e-01 4.550813674926757812e+00 1.448913574218750000e+00 7.267612218856811523e-01
5.105000000000000000e+03 7.009012603759765625e+01 6.298525810241699219e+00 2.276549041271209717e-01 5.222013950347900391e+00 1.634900569915771484e+00 7.512509822845458984e-01
5.106000000000000000e+03 1.135642814636230469e+01 1.806130218505859375e+01 1.013002474792301655e-03 6.430608779191970825e-02 1.959572732448577881e-02 7.631812477484345436e-04
5.107000000000000000e+03 6.935910797119140625e+01 1.828912353515625000e+01 3.200451731681823730e-01 4.830617904663085938e+00 1.545198917388916016e+00 1.152254939079284668e+00
5.108000000000000000e+03 3.794009399414062500e+01 3.820329666137695312e+01 7.455826550722122192e-02 6.074671074748039246e-02 4.059149324893951416e-02 3.023192845284938812e-02
5.109000000000000000e+03 3.506938552856445312e+01 3.520798110961914062e+01 5.304354801774024963e-02 7.331782579421997070e-02 3.790841251611709595e-02 4.328398779034614563e-02
5.110000000000000000e+03 1.078572559356689453e+01 -1.151769542694091797e+01 1.985228154808282852e-03 -5.828299522399902344e-01 -1.742534190416336060e-01 -6.115407347679138184e-01
5.111000000000000000e+03 6.832901000976562500e+01 1.841935157775878906e+01 3.545976281166076660e-01 4.342337131500244141e+00 1.409080386161804199e+00 1.092027068138122559e+00
5.112000000000000000e+03 1.208993911743164062e+01 2.213307952880859375e+01 -6.964613683521747589e-03 4.522337391972541809e-02 1.147762779146432877e-02 1.074081170372664928e-03
5.113000000000000000e+03 1.009349727630615234e+01 -9.678895950317382812e+00 -1.330613493919372559e-01 -4.807878732681274414e-01 -1.841547638177871704e-01 -5.988381505012512207e-01
5.114000000000000000e+03 6.768430328369140625e+01 1.976272964477539062e+01 3.558427691459655762e-01 3.902583360671997070e+00 1.277527809143066406e+00 1.069721102714538574e+00
5.115000000000000000e+03 1.508019733428955078e+01 2.378347206115722656e+01 -3.750640666112303734e-03 7.177668809890747070e-02 2.040781266987323761e-02 1.770267076790332794e-02
5.116000000000000000e+03 1.285467433929443359e+01 -2.012062835693359375e+01 1.854329705238342285e-01 -5.709730386734008789e-01 -1.156620234251022339e-01 -4.088570177555084229e-01
5.117000000000000000e+03 1.459828090667724609e+01 -2.140940284729003906e+01 2.054730802774429321e-01 -4.716898798942565918e-01 -7.986504584550857544e-02 -3.789743483066558838e-01
5.118000000000000000e+03 6.930555725097656250e+01 1.360877704620361328e+01 3.283153474330902100e-01 4.964258193969726562e+00 1.587772130966186523e+00 9.896542429924011230e-01
5.119000000000000000e+03 7.011985778808593750e+01 1.500897121429443359e+01 3.198416531085968018e-01 5.292870521545410156e+00 1.683813691139221191e+00 1.027189373970031738e+00
5.120000000000000000e+03 6.784537506103515625e+01 9.504620432853698730e-01 2.350978404283523560e-01 4.526598930358886719e+00 1.428508996963500977e+00 6.307345032691955566e-01
5.121000000000000000e+03 6.695758056640625000e+01 2.439118176698684692e-02 2.504877150058746338e-01 4.288270473480224609e+00 1.361627340316772461e+00 6.150624155998229980e-01
5.122000000000000000e+03 6.814403533935546875e+01 -8.483434677124023438e+00 1.517426520586013794e-01 4.484616279602050781e+00 1.390907764434814453e+00 4.211552739143371582e-01
5.123000000000000000e+03 6.896048736572265625e+01 -7.319627285003662109e+00 1.366905421018600464e-01 4.678334712982177734e+00 1.444507598876953125e+00 4.288707375526428223e-01
5.124000000000000000e+03 4.148553085327148438e+01 -6.057398319244384766e+00 5.235861539840698242e-01 -2.086632698774337769e-01 9.447686374187469482e-02 6.381218880414962769e-02
5.125000000000000000e+03 6.850688934326171875e+01 8.070315361022949219e+00 2.971421480178833008e-01 4.723367691040039062e+00 1.506152868270874023e+00 8.136337995529174805e-01
5.126000000000000000e+03 6.874954986572265625e+01 6.926007270812988281e+00 2.664248347282409668e-01 4.807443618774414062e+00 1.522160530090332031e+00 7.710570096969604492e-01
5.127000000000000000e+03 1.293080902099609375e+01 2.549711799621582031e+01 -8.923472836613655090e-03 3.731623664498329163e-02 8.517828769981861115e-03 2.504166215658187866e-03
5.128000000000000000e+03 4.529710769653320312e+01 -1.769517517089843750e+01 2.001313865184783936e-01 4.211975932121276855e-01 1.863986849784851074e-01 6.750848889350891113e-02
5.129000000000000000e+03 4.565300750732421875e+01 -1.597876930236816406e+01 2.710094153881072998e-01 4.559135138988494873e-01 2.180768698453903198e-01 6.013606488704681396e-02
5.130000000000000000e+03 4.278717041015625000e+01 -8.637313842773437500e+00 5.153931379318237305e-01 -3.114842996001243591e-02 1.452734023332595825e-01 5.322045460343360901e-02
5.131000000000000000e+03 1.901644706726074219e+01 -2.959707260131835938e+01 2.494912743568420410e-01 -1.507137417793273926e-01 2.963325567543506622e-02 -2.886101007461547852e-01
5.132000000000000000e+03 1.316073894500732422e+01 -1.528503990173339844e+01 1.642077267169952393e-01 -6.121246218681335449e-01 -1.343750655651092529e-01 -5.086860656738281250e-01
5.133000000000000000e+03 6.631605529785156250e+01 -1.782900619506835938e+01 8.706288784742355347e-02 4.044083118438720703e+00 1.239343762397766113e+00 2.889991104602813721e-01
5.134000000000000000e+03 1.344162082672119141e+01 2.748051643371582031e+01 -8.966988883912563324e-03 3.395863249897956848e-02 7.497492711991071701e-03 3.675575600937008858e-03
5.135000000000000000e+03 6.678252410888671875e+01 -1.939806556701660156e+01 7.209520041942596436e-02 4.118596553802490234e+00 1.257207512855529785e+00 2.693628966808319092e-01
5.136000000000000000e+03 6.815739440917968750e+01 -1.879795074462890625e+01 6.097963452339172363e-02 4.368532657623291016e+00 1.328853607177734375e+00 2.636558711528778076e-01
5.137000000000000000e+03 3.775662612915039062e+01 3.557403564453125000e+01 6.741936504840850830e-02 6.480573862791061401e-02 3.966753184795379639e-02 4.531571641564369202e-02
5.138000000000000000e+03 6.717626953125000000e+01 -1.622545623779296875e+01 9.559236466884613037e-02 4.222026348114013672e+00 1.295285582542419434e+00 3.030965328216552734e-01
5.139000000000000000e+03 6.796396636962890625e+01 -9.942786216735839844e+00 1.428351402282714844e-01 4.428244590759277344e+00 1.371323823928833008e+00 3.931932151317596436e-01
5.140000000000000000e+03 1.119678688049316406e+01 -1.887852096557617188e+01 1.515634208917617798e-01 -6.368485093116760254e-01 -1.455855369567871094e-01 -4.362200200557708740e-01
5.141000000000000000e+03 6.763829803466796875e+01 -2.729511976242065430e+00 2.063530832529067993e-01 4.440471172332763672e+00 1.394047260284423828e+00 5.420004725456237793e-01
5.142000000000000000e+03 6.825469207763671875e+01 1.222024154663085938e+01 3.444628715515136719e-01 4.599795341491699219e+00 1.483277559280395508e+00 9.267387390136718750e-01
5.143000000000000000e+03 1.330686950683593750e+01 -2.707599830627441406e+01 1.701748818159103394e-01 -5.351533889770507812e-01 -1.094935461878776550e-01 -2.940391600131988525e-01
5.144000000000000000e+03 6.799654388427734375e+01 9.229818344116210938e+00 3.244317173957824707e-01 4.548331737518310547e+00 1.461828947067260742e+00 8.390249013900756836e-01
5.145000000000000000e+03 6.886825561523437500e+01 8.885547637939453125e+00 2.975741624832153320e-01 4.841794967651367188e+00 1.541810750961303711e+00 8.328832983970642090e-01
5.146000000000000000e+03 1.427433490753173828e+01 -1.981488227844238281e+01 2.217744439840316772e-01 -4.864789843559265137e-01 -7.941136509180068970e-02 -3.940906524658203125e-01
5.147000000000000000e+03 6.690229034423828125e+01 1.712414383888244629e+00 2.646890878677368164e-01 4.273010253906250000e+00 1.361309885978698730e+00 6.572403311729431152e-01
5.148000000000000000e+03 4.906374740600585938e+01 -2.035705947875976562e+01 1.157043427228927612e-01 1.071761608123779297e+00 3.562397956848144531e-01 1.078236624598503113e-01
5.149000000000000000e+03 5.171048355102539062e+01 -2.136100769042968750e+01 9.278706461191177368e-02 1.537835836410522461e+00 4.891868531703948975e-01 1.531673222780227661e-01
5.150000000000000000e+03 6.939161682128906250e+01 -5.724066257476806641e+00 1.451221108436584473e-01 4.784375667572021484e+00 1.478849291801452637e+00 4.437880218029022217e-01
5.151000000000000000e+03 6.721709442138671875e+01 -4.631544589996337891e+00 2.004294246435165405e-01 4.308315277099609375e+00 1.352623462677001953e+00 5.086683034896850586e-01
5.152000000000000000e+03 4.540479278564453125e+01 -1.267272281646728516e+01 4.025187790393829346e-01 3.795270025730133057e-01 2.346137315034866333e-01 6.956589221954345703e-02
5.153000000000000000e+03 6.746460723876953125e+01 -2.218426895141601562e+01 5.440210178494453430e-02 4.212990283966064453e+00 1.280217766761779785e+00 2.397429198026657104e-01
5.154000000000000000e+03 2.699922180175781250e+01 1.985821962356567383e+00 -1.829888343811035156e+00 -5.594879388809204102e-01 -7.168128490447998047e-01 -5.700623393058776855e-01
5.155000000000000000e+03 2.777142333984375000e+01 6.153299212455749512e-01 -7.550628781318664551e-01 -4.690965116024017334e-01 -3.672478199005126953e-01 -1.351074874401092529e-01
5.156000000000000000e+03 2.755466651916503906e+01 1.534861803054809570e+00 -1.343482136726379395e+00 -6.217653155326843262e-01 -5.895742177963256836e-01 -4.168220460414886475e-01
5.157000000000000000e+03 2.802633857727050781e+01 1.645144224166870117e+00 -1.299654126167297363e+00 -6.273691654205322266e-01 -5.781069993972778320e-01 -3.501515090465545654e-01
5.158000000000000000e+03 2.767849159240722656e+01 1.800968766212463379e+00 -1.558514714241027832e+00 -6.300210952758789062e-01 -6.565607190132141113e-01 -4.643552005290985107e-01
5.159000000000000000e+03 2.944316482543945312e+01 3.314488410949707031e+00 -1.703895092010498047e+00 -8.993344902992248535e-01 -7.809688448905944824e-01 -5.857695937156677246e-01
5.160000000000000000e+03 2.859142684936523438e+01 2.831412553787231445e+00 -1.747255921363830566e+00 -8.354697823524475098e-01 -7.748177051544189453e-01 -5.824939012527465820e-01
5.161000000000000000e+03 4.255115509033203125e+01 1.780606460571289062e+01 -9.647753834724426270e-01 -1.036880016326904297e+00 -6.004965901374816895e-01 -1.117148637771606445e+00
5.162000000000000000e+03 4.886957550048828125e+01 2.358561134338378906e+01 -1.113829135894775391e+00 -6.694970130920410156e-01 -5.349978208541870117e-01 -1.012456297874450684e+00
5.163000000000000000e+03 4.880659866333007812e+01 2.401638412475585938e+01 -1.152263641357421875e+00 -7.142689824104309082e-01 -5.599597692489624023e-01 -1.042045354843139648e+00
5.164000000000000000e+03 3.803663253784179688e+01 1.277779006958007812e+01 -1.009242415428161621e+00 -1.141559720039367676e+00 -6.452406644821166992e-01 -1.035213470458984375e+00
5.165000000000000000e+03 4.796155548095703125e+01 2.263884735107421875e+01 -1.072459459304809570e+00 -7.454780340194702148e-01 -5.453812479972839355e-01 -1.010788083076477051e+00
5.166000000000000000e+03 7.267527008056640625e+01 2.960492324829101562e+01 -1.307030558586120605e+00 8.954992294311523438e+00 2.294388532638549805e+00 3.321259498596191406e+00
5.167000000000000000e+03 4.921286010742187500e+01 2.405567359924316406e+01 -1.126569747924804688e+00 -6.509785652160644531e-01 -5.332645177841186523e-01 -1.018506407737731934e+00
5.168000000000000000e+03 3.782529067993164062e+01 1.236873912811279297e+01 -1.005802631378173828e+00 -1.127307415008544922e+00 -6.399330496788024902e-01 -1.018889546394348145e+00
5.169000000000000000e+03 5.001178741455078125e+01 2.549122428894042969e+01 -1.209492921829223633e+00 -6.156267523765563965e-01 -5.475358963012695312e-01 -1.037678956985473633e+00
5.170000000000000000e+03 4.941980361938476562e+01 2.490727233886718750e+01 -1.190825939178466797e+00 -6.729871630668640137e-01 -5.591439008712768555e-01 -1.049690842628479004e+00
5.171000000000000000e+03 4.539424514770507812e+01 2.048275566101074219e+01 -1.005277991294860840e+00 -9.483998417854309082e-01 -5.861033797264099121e-01 -1.056240439414978027e+00
5.172000000000000000e+03 4.507926177978515625e+01 2.074832534790039062e+01 -1.049244523048400879e+00 -1.009451985359191895e+00 -6.176089644432067871e-01 -1.095911026000976562e+00
5.173000000000000000e+03 2.529690742492675781e+01 2.073748779296875000e+01 5.850891023874282837e-02 1.168855428695678711e-01 5.261833593249320984e-02 8.556146174669265747e-02
5.174000000000000000e+03 3.817445755004882812e+01 1.317315387725830078e+01 -1.025901436805725098e+00 -1.157905578613281250e+00 -6.551420688629150391e-01 -1.055305480957031250e+00
5.175000000000000000e+03 3.823487472534179688e+01 1.353985214233398438e+01 -1.036684751510620117e+00 -1.177277922630310059e+00 -6.641888022422790527e-01 -1.076830387115478516e+00
5.176000000000000000e+03 4.297003555297851562e+01 1.865408706665039062e+01 -9.922469854354858398e-01 -1.066615104675292969e+00 -6.176586151123046875e-01 -1.140522122383117676e+00
5.177000000000000000e+03 4.411358261108398438e+01 1.951690483093261719e+01 -9.843095541000366211e-01 -1.020644903182983398e+00 -6.014863252639770508e-01 -1.099114775657653809e+00
5.178000000000000000e+03 4.962882995605468750e+01 2.409448623657226562e+01 -1.102871775627136230e+00 -5.763205289840698242e-01 -5.037577152252197266e-01 -9.922828674316406250e-01
5.179000000000000000e+03 4.561075973510742188e+01 2.086646652221679688e+01 -1.030006647109985352e+00 -9.472586512565612793e-01 -5.931795835494995117e-01 -1.063358664512634277e+00
5.180000000000000000e+03 4.721572875976562500e+01 2.239277839660644531e+01 -1.093193650245666504e+00 -8.353009223937988281e-01 -5.785483717918395996e-01 -1.043132781982421875e+00
5.181000000000000000e+03 4.847321701049804688e+01 2.310165786743164062e+01 -1.084977507591247559e+00 -6.989266872406005859e-01 -5.351712703704833984e-01 -1.008110046386718750e+00
5.182000000000000000e+03 2.153111267089843750e+01 1.862526130676269531e+01 5.303665250539779663e-02 1.339376270771026611e-01 5.609228461980819702e-02 8.628192543983459473e-02
5.183000000000000000e+03 3.850427246093750000e+01 1.393451118469238281e+01 -1.040616035461425781e+00 -1.180835008621215820e+00 -6.664353013038635254e-01 -1.086112141609191895e+00
5.184000000000000000e+03 1.652175903320312500e+01 1.251981067657470703e+01 6.485865265130996704e-02 2.009355127811431885e-01 7.973825186491012573e-02 1.050497442483901978e-01
5.185000000000000000e+03 3.183157920837402344e+01 3.799079418182373047e+00 -1.296628475189208984e+00 -7.647912502288818359e-01 -6.184259057044982910e-01 -4.766208827495574951e-01
5.186000000000000000e+03 4.063623428344726562e+01 1.559777927398681641e+01 -9.897051453590393066e-01 -1.069043874740600586e+00 -6.176247000694274902e-01 -1.072076439857482910e+00
5.187000000000000000e+03 4.103284072875976562e+01 1.554683113098144531e+01 -9.520501494407653809e-01 -1.019353985786437988e+00 -5.914212465286254883e-01 -1.041482806205749512e+00
5.188000000000000000e+03 3.763663864135742188e+01 1.194942665100097656e+01 -9.956930875778198242e-01 -1.108001112937927246e+00 -6.311082839965820312e-01 -9.995047450065612793e-01
5.189000000000000000e+03 3.894583129882812500e+01 1.370385169982910156e+01 -9.950188398361206055e-01 -1.117118000984191895e+00 -6.336410045623779297e-01 -1.035989999771118164e+00
5.190000000000000000e+03 2.064069366455078125e+01 1.650619316101074219e+01 6.618706881999969482e-02 1.474335938692092896e-01 6.408619880676269531e-02 9.862254559993743896e-02
5.191000000000000000e+03 5.070460510253906250e+01 2.626957893371582031e+01 -1.245897054672241211e+00 -5.421764254570007324e-01 -5.364220738410949707e-01 -1.022006750106811523e+00
5.192000000000000000e+03 2.007004928588867188e+01 1.569088363647460938e+01 7.055176049470901489e-02 1.542815417051315308e-01 6.744999438524246216e-02 1.030927300453186035e-01
5.193000000000000000e+03 3.927719116210937500e+01 1.394984149932861328e+01 -9.826655387878417969e-01 -1.100268959999084473e+00 -6.248803734779357910e-01 -1.031306982040405273e+00
5.194000000000000000e+03 1.219112873077392578e+01 7.169281959533691406e+00 1.054507866501808167e-01 3.275341391563415527e-01 1.298954784870147705e-01 -4.234748706221580505e-02
5.195000000000000000e+03 4.477298355102539062e+01 1.946826744079589844e+01 -9.447703361511230469e-01 -9.433054327964782715e-01 -5.664227604866027832e-01 -1.045238018035888672e+00
5.196000000000000000e+03 4.616162490844726562e+01 2.120440483093261719e+01 -1.034872770309448242e+00 -9.049965739250183105e-01 -5.819607973098754883e-01 -1.045067906379699707e+00
5.197000000000000000e+03 4.567931747436523438e+01 2.129344367980957031e+01 -1.074185848236083984e+00 -9.749080538749694824e-01 -6.147281527519226074e-01 -1.085068225860595703e+00
5.198000000000000000e+03 7.307623291015625000e+01 2.878142929077148438e+01 -1.442139983177185059e+00 9.274160385131835938e+00 2.349606037139892578e+00 2.566374540328979492e+00
5.199000000000000000e+03 1.846040153503417969e+01 1.393566989898681641e+01 7.375256717205047607e-02 1.738559007644653320e-01 7.428254187107086182e-02 1.105711907148361206e-01
5.200000000000000000e+03 5.382285308837890625e+01 2.776951408386230469e+01 -1.306924462318420410e+00 -1.354270707815885544e-02 -3.961401581764221191e-01 -9.391813874244689941e-01
5.201000000000000000e+03 5.341849899291992188e+01 2.750924301147460938e+01 -1.286823153495788574e+00 -7.579392939805984497e-02 -4.087851345539093018e-01 -9.410309791564941406e-01
5.202000000000000000e+03 5.565460205078125000e+01 2.673839569091796875e+01 -1.123459935188293457e+00 2.283213585615158081e-01 -2.685415744781494141e-01 -8.802371621131896973e-01
5.203000000000000000e+03 3.959894943237304688e+01 1.416626167297363281e+01 -9.733862280845642090e-01 -1.082993626594543457e+00 -6.169139742851257324e-01 -1.026511430740356445e+00
5.204000000000000000e+03 4.312275314331054688e+01 1.885513877868652344e+01 -9.932801127433776855e-01 -1.066867351531982422e+00 -6.180442571640014648e-01 -1.141395926475524902e+00
5.205000000000000000e+03 5.011624145507812500e+01 2.510100364685058594e+01 -1.169591188430786133e+00 -5.711911916732788086e-01 -5.222346782684326172e-01 -1.013211846351623535e+00
5.206000000000000000e+03 4.007894134521484375e+01 1.400478553771972656e+01 -9.279580116271972656e-01 -1.021062731742858887e+00 -5.847061872482299805e-01 -9.851063489913940430e-01
5.207000000000000000e+03 5.524466705322265625e+01 2.614646720886230469e+01 -1.056748509407043457e+00 2.010885477066040039e-01 -2.566979825496673584e-01 -8.593781590461730957e-01
5.208000000000000000e+03 5.159780883789062500e+01 2.714273834228515625e+01 -1.290675163269042969e+00 -4.059482216835021973e-01 -5.089870095252990723e-01 -9.929947853088378906e-01
5.209000000000000000e+03 4.045301055908203125e+01 1.506147575378417969e+01 -9.616671204566955566e-01 -1.047046184539794922e+00 -6.026139855384826660e-01 -1.037436246871948242e+00
5.210000000000000000e+03 4.150291442871093750e+01 1.592935276031494141e+01 -9.389162063598632812e-01 -1.001802563667297363e+00 -5.822156071662902832e-01 -1.043751239776611328e+00
5.211000000000000000e+03 4.686229705810546875e+01 2.212384223937988281e+01 -1.087247490882873535e+00 -8.694568872451782227e-01 -5.870112776756286621e-01 -1.048077464103698730e+00
5.212000000000000000e+03 4.848766326904296875e+01 2.262116050720214844e+01 -1.035820841789245605e+00 -6.637822985649108887e-01 -5.098809003829956055e-01 -9.739396572113037109e-01
5.213000000000000000e+03 5.040404510498046875e+01 2.554901885986328125e+01 -1.194620609283447266e+00 -5.496138334274291992e-01 -5.232703089714050293e-01 -1.013083696365356445e+00
5.214000000000000000e+03 1.994649887084960938e+01 1.538922023773193359e+01 7.277625054121017456e-02 1.568542569875717163e-01 6.888914853334426880e-02 1.052165627479553223e-01
5.215000000000000000e+03 4.643991851806640625e+01 2.139767646789550781e+01 -1.040131330490112305e+00 -8.760735988616943359e-01 -5.748614668846130371e-01 -1.033515095710754395e+00
5.216000000000000000e+03 4.454384994506835938e+01 1.967330932617187500e+01 -9.757527709007263184e-01 -9.878473281860351562e-01 -5.890800356864929199e-01 -1.076191425323486328e+00
5.217000000000000000e+03 5.103041839599609375e+01 2.629210853576660156e+01 -1.236953496932983398e+00 -4.753687381744384766e-01 -5.136966705322265625e-01 -9.990934729576110840e-01
5.218000000000000000e+03 7.205783081054687500e+01 2.828635215759277344e+01 -8.765887022018432617e-01 7.164793014526367188e+00 1.886461377143859863e+00 2.745331525802612305e+00
5.219000000000000000e+03 1.794353675842285156e+01 1.364282512664794922e+01 7.057430595159530640e-02 1.793126761913299561e-01 7.496609538793563843e-02 1.090308204293251038e-01
5.220000000000000000e+03 2.886454010009765625e+01 1.149026632308959961e+00 -8.767270445823669434e-01 -6.308248043060302734e-01 -4.522655606269836426e-01 -1.578574329614639282e-01
5.221000000000000000e+03 2.947514343261718750e+01 5.105664134025573730e-01 -5.335113406181335449e-01 -5.869054794311523438e-01 -3.361250460147857666e-01 -4.107890650629997253e-02
5.222000000000000000e+03 7.204921722412109375e+01 2.935729217529296875e+01 -9.254802465438842773e-01 7.261106491088867188e+00 1.900687932968139648e+00 3.293119668960571289e+00
5.223000000000000000e+03 7.113358306884765625e+01 2.835478782653808594e+01 -5.089815258979797363e-01 5.497155189514160156e+00 1.496452093124389648e+00 2.708178281784057617e+00
5.224000000000000000e+03 2.395821571350097656e+01 2.000203132629394531e+01 5.718791112303733826e-02 1.222245618700981140e-01 5.382374301552772522e-02 8.630722761154174805e-02
5.225000000000000000e+03 4.505410385131835938e+01 1.967870330810546875e+01 -9.483748674392700195e-01 -9.284784197807312012e-01 -5.630559921264648438e-01 -1.037818908691406250e+00
5.226000000000000000e+03 4.082453155517578125e+01 1.523952484130859375e+01 -9.466781616210937500e-01 -1.023052692413330078e+00 -5.909192562103271484e-01 -1.030425071716308594e+00
5.227000000000000000e+03 1.394250202178955078e+01 1.169809246063232422e+01 4.496895894408226013e-02 2.100075930356979370e-01 7.649296522140502930e-02 5.850984156131744385e-02
5.228000000000000000e+03 4.027324676513671875e+01 1.451315402984619141e+01 -9.453865885734558105e-01 -1.033454060554504395e+00 -5.936521887779235840e-01 -1.008453726768493652e+00
5.229000000000000000e+03 2.019123268127441406e+01 1.669165611267089844e+01 6.029470264911651611e-02 1.477155983448028564e-01 6.240309029817581177e-02 9.407519549131393433e-02
5.230000000000000000e+03 2.265341567993164062e+01 1.950153732299804688e+01 5.346417054533958435e-02 1.272066533565521240e-01 5.420124903321266174e-02 8.488292992115020752e-02
5.231000000000000000e+03 1.166056728363037109e+01 6.634506702423095703e+00 1.544291228055953979e-01 2.900715768337249756e-01 1.333502084016799927e-01 -9.156512469053268433e-02
5.232000000000000000e+03 2.631364059448242188e+01 2.173666954040527344e+01 5.557832121849060059e-02 1.116662472486495972e-01 5.017336830496788025e-02 8.253662288188934326e-02
5.233000000000000000e+03 2.462655639648437500e+01 2.047780036926269531e+01 5.771515890955924988e-02 1.192454546689987183e-01 5.308818444609642029e-02 8.520912379026412964e-02
5.234000000000000000e+03 3.549106597900390625e+01 9.128615379333496094e+00 -1.029517412185668945e+00 -1.064049601554870605e+00 -6.280701160430908203e-01 -9.347260594367980957e-01
5.235000000000000000e+03 3.695812606811523438e+01 1.088645076751708984e+01 -9.941500425338745117e-01 -1.090209364891052246e+00 -6.253077983856201172e-01 -9.661072492599487305e-01
5.236000000000000000e+03 1.334015941619873047e+01 1.043285846710205078e+01 4.987122491002082825e-02 2.376073747873306274e-01 8.624357730150222778e-02 4.866464808583259583e-02
5.237000000000000000e+03 1.339484214782714844e+01 8.938712120056152344e+00 6.283245235681533813e-02 3.010762035846710205e-01 1.091725975275039673e-01 5.555897578597068787e-02
5.238000000000000000e+03 3.724862289428710938e+01 1.197310829162597656e+01 -1.034649133682250977e+00 -1.153241276741027832e+00 -6.563671231269836426e-01 -1.037870287895202637e+00
5.239000000000000000e+03 2.091822624206542969e+01 1.768228149414062500e+01 5.668498203158378601e-02 1.402958929538726807e-01 5.909426510334014893e-02 9.016764163970947266e-02
5.240000000000000000e+03 4.240773010253906250e+01 1.750607109069824219e+01 -9.550385475158691406e-01 -1.024322032928466797e+00 -5.938081741333007812e-01 -1.102828502655029297e+00
5.241000000000000000e+03 4.675046539306640625e+01 2.159070205688476562e+01 -1.039397954940795898e+00 -8.527926206588745117e-01 -5.676571726799011230e-01 -1.022356271743774414e+00
5.242000000000000000e+03 4.798125839233398438e+01 2.213586807250976562e+01 -1.021084070205688477e+00 -7.118872404098510742e-01 -5.198913812637329102e-01 -9.787915349006652832e-01
5.243000000000000000e+03 2.055260276794433594e+01 1.719269561767578125e+01 5.768253281712532043e-02 1.437350064516067505e-01 6.042526289820671082e-02 9.218595921993255615e-02
5.244000000000000000e+03 5.278027343750000000e+01 2.755523681640625000e+01 -1.303608775138854980e+00 -1.922990977764129639e-01 -4.487723708152770996e-01 -9.537107944488525391e-01
5.245000000000000000e+03 5.220046997070312500e+01 2.697527503967285156e+01 -1.262676596641540527e+00 -2.874195873737335205e-01 -4.650288522243499756e-01 -9.619926810264587402e-01
5.246000000000000000e+03 1.255015087127685547e+01 1.208858966827392578e+01 3.636408224701881409e-02 1.730633378028869629e-01 6.282822787761688232e-02 2.333373576402664185e-02
5.247000000000000000e+03 4.234589767456054688e+01 1.716075897216796875e+01 -9.395253062248229980e-01 -1.004372000694274902e+00 -5.831692218780517578e-01 -1.082274794578552246e+00
5.248000000000000000e+03 4.195750045776367188e+01 1.634852600097656250e+01 -9.272069334983825684e-01 -9.848852157592773438e-01 -5.736276507377624512e-01 -1.047532200813293457e+00
5.249000000000000000e+03 2.640969657897949219e+01 2.413013648986816406e+01 4.126274213194847107e-02 1.054487004876136780e-01 4.401343315839767456e-02 7.180116325616836548e-02
5.250000000000000000e+03 3.021074295043945312e+01 1.395031511783599854e-01 -3.278591036796569824e-01 -6.146414279937744141e-01 -2.827501595020294189e-01 8.589318953454494476e-03
5.251000000000000000e+03 3.089884567260742188e+01 3.460089683532714844e+00 -1.392689228057861328e+00 -7.808195948600769043e-01 -6.520526409149169922e-01 -4.511830508708953857e-01
5.252000000000000000e+03 3.621803665161132812e+01 1.001571750640869141e+01 -1.013557076454162598e+00 -1.081406712532043457e+00 -6.284891366958618164e-01 -9.552273750305175781e-01
5.253000000000000000e+03 3.231852340698242188e+01 4.241457939147949219e+00 -1.269424319267272949e+00 -7.724661231040954590e-01 -6.125671267509460449e-01 -5.461321473121643066e-01
5.254000000000000000e+03 2.603378868103027344e+01 2.495513725280761719e+01 3.567352145910263062e-02 1.037113815546035767e-01 4.181547090411186218e-02 6.719738990068435669e-02
5.255000000000000000e+03 2.492390060424804688e+01 2.401226806640625000e+01 3.497070074081420898e-02 1.082166880369186401e-01 4.295621439814567566e-02 6.806227564811706543e-02
5.256000000000000000e+03 1.140960121154785156e+01 1.019099998474121094e+01 6.176244840025901794e-02 1.706646680831909180e-01 6.972813606262207031e-02 -9.162249043583869934e-03
5.257000000000000000e+03 2.890497016906738281e+01 2.861056089401245117e+00 -1.650201678276062012e+00 -8.161193728446960449e-01 -7.398962974548339844e-01 -5.254263877868652344e-01
5.258000000000000000e+03 2.338227081298828125e+01 1.918806266784667969e+01 6.134302169084548950e-02 1.267091184854507446e-01 5.641564354300498962e-02 9.020911902189254761e-02
5.259000000000000000e+03 2.344734382629394531e+01 1.964569664001464844e+01 5.711029842495918274e-02 1.250377893447875977e-01 5.464442819356918335e-02 8.703639358282089233e-02
5.260000000000000000e+03 3.182875823974609375e+01 3.312651634216308594e+00 -1.167917609214782715e+00 -7.294576168060302734e-01 -5.692125558853149414e-01 -3.691099882125854492e-01
5.261000000000000000e+03 1.601972770690917969e+01 1.213035964965820312e+01 6.257651001214981079e-02 2.092510163784027100e-01 8.154825866222381592e-02 1.015031635761260986e-01
5.262000000000000000e+03 1.500363349914550781e+01 1.184605312347412109e+01 5.161200836300849915e-02 2.156062871217727661e-01 8.016549050807952881e-02 8.427466452121734619e-02
5.263000000000000000e+03 1.858548545837402344e+01 1.438948059082031250e+01 6.967920064926147461e-02 1.691589057445526123e-01 7.165142893791198730e-02 1.063423007726669312e-01
5.264000000000000000e+03 3.634463500976562500e+01 1.045058059692382812e+01 -1.020440459251403809e+00 -1.106803536415100098e+00 -6.381731629371643066e-01 -9.794126749038696289e-01
5.265000000000000000e+03 3.684961700439453125e+01 1.038490009307861328e+01 -9.772821664810180664e-01 -1.057225584983825684e+00 -6.103523373603820801e-01 -9.342597126960754395e-01
5.266000000000000000e+03 1.409839057922363281e+01 1.002309989929199219e+01 5.792473629117012024e-02 2.616873383522033691e-01 9.588362276554107666e-02 7.638787478208541870e-02
5.267000000000000000e+03 1.434033489227294922e+01 1.032763290405273438e+01 5.928987637162208557e-02 2.586511671543121338e-01 9.538231045007705688e-02 8.233827352523803711e-02
5.268000000000000000e+03 2.618220520019531250e+01 2.356326103210449219e+01 4.305373132228851318e-02 1.073148101568222046e-01 4.511056095361709595e-02 7.377638667821884155e-02
5.269000000000000000e+03 2.711429786682128906e+01 2.262787055969238281e+01 5.353485047817230225e-02 1.071844696998596191e-01 4.821579530835151672e-02 8.009084314107894897e-02
5.270000000000000000e+03 2.221606636047363281e+01 1.871619606018066406e+01 5.713491141796112061e-02 1.320398151874542236e-01 5.675241723656654358e-02 8.899774402379989624e-02
5.271000000000000000e+03 7.077665710449218750e+01 2.727117347717285156e+01 -3.646310269832611084e-01 5.289294719696044922e+00 1.477399110794067383e+00 2.301747322082519531e+00
5.272000000000000000e+03 3.655280685424804688e+01 9.520298957824707031e+00 -9.574878811836242676e-01 -1.013029217720031738e+00 -5.911551117897033691e-01 -8.837762475013732910e-01
5.273000000000000000e+03 7.297059631347656250e+01 2.968170166015625000e+01 -1.494696497917175293e+00 9.657776832580566406e+00 2.448924064636230469e+00 3.184242248535156250e+00
5.274000000000000000e+03 3.560187149047851562e+01 9.637277603149414062e+00 -1.049108266830444336e+00 -1.101780652999877930e+00 -6.452666521072387695e-01 -9.756047725677490234e-01
5.275000000000000000e+03 3.628248214721679688e+01 8.338501930236816406e+00 -9.266028404235839844e-01 -9.405391216278076172e-01 -5.601425766944885254e-01 -7.997673749923706055e-01
5.276000000000000000e+03 2.959111785888671875e+01 2.654233932495117188e+01 4.348719120025634766e-02 9.430709481239318848e-02 4.133828729391098022e-02 6.808030605316162109e-02
5.277000000000000000e+03 3.032584381103515625e+01 2.808666419982910156e+01 4.210174083709716797e-02 9.082747995853424072e-02 3.987876698374748230e-02 6.288324296474456787e-02
5.278000000000000000e+03 3.421672821044921875e+01 6.315287590026855469e+00 -1.074949264526367188e+00 -8.846526741981506348e-01 -5.878805518150329590e-01 -7.634068727493286133e-01
5.279000000000000000e+03 2.687387657165527344e+01 2.535104942321777344e+01 3.740375488996505737e-02 1.014019474387168884e-01 4.164170846343040466e-02 6.770721077919006348e-02
5.280000000000000000e+03 7.161122894287109375e+01 2.885122108459472656e+01 -6.973090767860412598e-01 6.256806373596191406e+00 1.667849183082580566e+00 3.005699396133422852e+00
5.281000000000000000e+03 7.113338470458984375e+01 2.785388755798339844e+01 -4.898417592048645020e-01 5.606007099151611328e+00 1.534849524497985840e+00 2.550536155700683594e+00
5.282000000000000000e+03 2.773423004150390625e+01 2.567379188537597656e+01 3.963871672749519348e-02 9.914540499448776245e-02 4.163523763418197632e-02 6.838157027959823608e-02
5.283000000000000000e+03 5.250649642944335938e+01 2.720992660522460938e+01 -1.274373292922973633e+00 -2.322997599840164185e-01 -4.520018994808197021e-01 -9.550139904022216797e-01
5.284000000000000000e+03 1.223826789855957031e+01 7.620133876800537109e+00 9.515056759119033813e-02 3.134612143039703369e-01 1.225835382938385010e-01 -2.536136098206043243e-02
5.285000000000000000e+03 1.281292724609375000e+01 8.577444076538085938e+00 6.752034276723861694e-02 2.996568977832794189e-01 1.101531758904457092e-01 2.454750798642635345e-02
5.286000000000000000e+03 2.896551322937011719e+01 2.634557914733886719e+01 4.222944378852844238e-02 9.538302570581436157e-02 4.128374159336090088e-02 6.796141713857650757e-02
5.287000000000000000e+03 2.580134773254394531e+01 2.434957695007324219e+01 3.717045113444328308e-02 1.059617176651954651e-01 4.293965175747871399e-02 6.934989988803863525e-02
5.288000000000000000e+03 3.524258804321289062e+01 -1.601708650588989258e+00 2.351873815059661865e-01 -6.375883817672729492e-01 -1.207202970981597900e-01 7.169375568628311157e-02
5.289000000000000000e+03 3.387718582153320312e+01 -1.080042362213134766e+00 1.303693205118179321e-01 -6.643921136856079102e-01 -1.602068245410919189e-01 5.815086886286735535e-02
5.290000000000000000e+03 7.026740264892578125e+01 2.770648384094238281e+01 -2.571744024753570557e-01 4.431582450866699219e+00 1.252322435379028320e+00 2.261148691177368164e+00
5.291000000000000000e+03 6.949330902099609375e+01 2.682863426208496094e+01 -8.870980143547058105e-02 3.861282348632812500e+00 1.131771802902221680e+00 1.870253801345825195e+00
5.292000000000000000e+03 3.431435775756835938e+01 5.830992698669433594e+00 -1.035543084144592285e+00 -8.305773138999938965e-01 -5.598360896110534668e-01 -6.760382056236267090e-01
5.293000000000000000e+03 3.284691238403320312e+01 4.212986469268798828e+00 -1.142969250679016113e+00 -7.464540004730224609e-01 -5.668269991874694824e-01 -5.035535097122192383e-01
5.294000000000000000e+03 3.456834030151367188e+01 5.323638439178466797e+00 -9.597506523132324219e-01 -7.866028547286987305e-01 -5.239060521125793457e-01 -5.820347666740417480e-01
5.295000000000000000e+03 2.861312484741210938e+01 6.723544597625732422e-01 -7.629117965698242188e-01 -5.400519967079162598e-01 -3.908891379833221436e-01 -1.219623982906341553e-01
5.296000000000000000e+03 3.060908889770507812e+01 2.887810897827148438e+01 4.126571118831634521e-02 8.904855698347091675e-02 3.909428045153617859e-02 6.032714620232582092e-02
5.297000000000000000e+03 1.874189567565917969e+01 1.483084392547607422e+01 6.635744869709014893e-02 1.645529121160507202e-01 6.927310675382614136e-02 1.022562161087989807e-01
5.298000000000000000e+03 3.542837905883789062e+01 7.925174713134765625e+00 -9.821882843971252441e-01 -9.604957103729248047e-01 -5.828052163124084473e-01 -8.285030722618103027e-01
5.299000000000000000e+03 3.557721710205078125e+01 8.611528396606445312e+00 -1.002349257469177246e+00 -1.015358209609985352e+00 -6.053122282028198242e-01 -8.866043686866760254e-01
5.300000000000000000e+03 6.931764984130859375e+01 2.329538536071777344e+01 1.559098213911056519e-01 4.411580562591552734e+00 1.370247125625610352e+00 1.444497108459472656e+00
5.301000000000000000e+03 3.173066139221191406e+01 -3.866497874259948730e-01 -9.040869772434234619e-02 -6.658952832221984863e-01 -2.268912047147750854e-01 4.559332504868507385e-02
5.302000000000000000e+03 3.119932937622070312e+01 5.598912239074707031e-01 -4.086023867130279541e-01 -6.599166393280029297e-01 -3.205556869506835938e-01 2.721716191445011646e-05
5.303000000000000000e+03 2.973471260070800781e+01 2.993915796279907227e+00 -1.521189928054809570e+00 -8.226236104965209961e-01 -7.031440138816833496e-01 -4.592471122741699219e-01
5.304000000000000000e+03 5.622361373901367188e+01 2.620392990112304688e+01 -1.014509677886962891e+00 2.931170463562011719e-01 -2.164177745580673218e-01 -8.358682990074157715e-01
5.305000000000000000e+03 5.831230926513671875e+01 2.625662803649902344e+01 -8.600301146507263184e-01 4.675436913967132568e-01 -1.177459284663200378e-01 -7.369297742843627930e-01
5.306000000000000000e+03 5.365403366088867188e+01 2.711915588378906250e+01 -1.242634296417236328e+00 -2.896287478506565094e-02 -3.814791440963745117e-01 -9.284746646881103516e-01
5.307000000000000000e+03 5.614839172363281250e+01 2.680428695678710938e+01 -1.107433080673217773e+00 2.697168290615081787e-01 -2.513148784637451172e-01 -8.745577335357666016e-01
5.308000000000000000e+03 7.172097015380859375e+01 2.689899635314941406e+01 -6.179655790328979492e-01 6.411940574645996094e+00 1.738192558288574219e+00 2.249934673309326172e+00
5.309000000000000000e+03 3.290344238281250000e+01 -9.994454979896545410e-01 9.121251851320266724e-02 -6.749433875083923340e-01 -1.751192659139633179e-01 5.547585338354110718e-02
5.310000000000000000e+03 3.238396453857421875e+01 -1.334144592285156250e+00 1.829311251640319824e-01 -6.783781051635742188e-01 -1.486340910196304321e-01 6.102164834737777710e-02
5.311000000000000000e+03 6.491547393798828125e+01 2.574272346496582031e+01 -5.931259319186210632e-02 1.479336261749267578e+00 4.260071218013763428e-01 3.867817223072052002e-01
5.312000000000000000e+03 3.233455657958984375e+01 3.755915641784667969e+00 -1.166769623756408691e+00 -7.337758541107177734e-01 -5.701636672019958496e-01 -4.366898238658905029e-01
5.313000000000000000e+03 6.223089218139648438e+01 2.523945045471191406e+01 -2.811059355735778809e-01 9.644799828529357910e-01 2.050122171640396118e-01 -1.672600805759429932e-01
5.314000000000000000e+03 6.299779510498046875e+01 2.523225402832031250e+01 -1.705374568700790405e-01 1.115577697753906250e+00 2.835120558738708496e-01 -5.547319538891315460e-03
5.315000000000000000e+03 3.134607696533203125e+01 3.377692461013793945e+00 -1.305490732192993164e+00 -7.648876309394836426e-01 -6.211135387420654297e-01 -4.114664793014526367e-01
5.316000000000000000e+03 5.778575897216796875e+01 2.633206748962402344e+01 -9.183889031410217285e-01 4.173702895641326904e-01 -1.503055840730667114e-01 -7.782503962516784668e-01
5.317000000000000000e+03 5.883652114868164062e+01 2.610235595703125000e+01 -7.938872575759887695e-01 5.112873315811157227e-01 -8.477997779846191406e-02 -6.889747381210327148e-01
5.318000000000000000e+03 1.186228179931640625e+01 1.749591445922851562e+01 4.290333949029445648e-03 8.013956248760223389e-02 2.532896958291530609e-02 5.936793517321348190e-03
5.319000000000000000e+03 1.180245876312255859e+01 2.066609001159667969e+01 -4.991407971829175949e-03 5.113334581255912781e-02 1.384258083999156952e-02 8.813189342617988586e-04
5.320000000000000000e+03 3.667767333984375000e+01 -3.801178693771362305e+00 4.817311763763427734e-01 -5.918021798133850098e-01 -3.302128985524177551e-02 5.090717971324920654e-02
5.321000000000000000e+03 3.633693313598632812e+01 -3.010784387588500977e+00 4.089971482753753662e-01 -6.079437732696533203e-01 -5.968398600816726685e-02 5.750372633337974548e-02
5.322000000000000000e+03 9.917493820190429688e+00 9.054132461547851562e+00 1.036755368113517761e-01 8.415328711271286011e-02 5.634864419698715210e-02 -3.589126840233802795e-02
5.323000000000000000e+03 3.333189392089843750e+01 -1.550430178642272949e+00 2.228988260030746460e-01 -6.818840503692626953e-01 -1.376955658197402954e-01 6.705856323242187500e-02
5.324000000000000000e+03 3.451232147216796875e+01 -1.493690371513366699e+00 1.886390745639801025e-01 -6.713674068450927734e-01 -1.448184996843338013e-01 6.394731998443603516e-02
5.325000000000000000e+03 5.974773025512695312e+01 2.514317512512207031e+01 -5.249474048614501953e-01 6.763474345207214355e-01 4.542000591754913330e-02 -5.035006403923034668e-01
5.326000000000000000e+03 6.145695114135742188e+01 2.380744743347167969e+01 -1.445558816194534302e-01 1.089347004890441895e+00 2.834373414516448975e-01 -1.286034435033798218e-01
5.327000000000000000e+03 1.164310741424560547e+01 1.475029373168945312e+01 1.634692773222923279e-02 1.039426177740097046e-01 3.608686476945877075e-02 6.466166581958532333e-03
5.328000000000000000e+03 1.034412765502929688e+01 8.648267745971679688e+00 1.114782318472862244e-01 1.181065887212753296e-01 6.887544691562652588e-02 -4.420138895511627197e-02
5.329000000000000000e+03 7.139928436279296875e+01 2.482674789428710938e+01 -2.279355078935623169e-01 6.032625198364257812e+00 1.741406917572021484e+00 1.758749008178710938e+00
5.330000000000000000e+03 3.197003173828125000e+01 3.194049644470214844e+01 4.300101473927497864e-02 8.313900232315063477e-02 3.784200549125671387e-02 5.033309012651443481e-02
5.331000000000000000e+03 6.765708923339843750e+01 2.680731964111328125e+01 -8.921912871301174164e-03 2.375862598419189453e+00 7.100821733474731445e-01 1.208161830902099609e+00
5.332000000000000000e+03 6.705854034423828125e+01 2.548450851440429688e+01 1.098720878362655640e-01 2.452126026153564453e+00 7.685993909835815430e-01 1.023137450218200684e+00
5.333000000000000000e+03 1.140913772583007812e+01 1.685078430175781250e+01 5.765220150351524353e-03 7.679378986358642578e-02 2.476770430803298950e-02 3.766283392906188965e-03
5.334000000000000000e+03 9.610009193420410156e+00 1.576013183593750000e+01 1.059692353010177612e-02 4.099271073937416077e-02 1.547688990831375122e-02 -1.133134402334690094e-02
5.335000000000000000e+03 5.731137847900390625e+01 2.575208663940429688e+01 -8.634468913078308105e-01 4.090245962142944336e-01 -1.363266855478286743e-01 -7.590630650520324707e-01
5.336000000000000000e+03 1.837273788452148438e+01 1.504821968078613281e+01 5.909090116620063782e-02 1.636039763689041138e-01 6.680846214294433594e-02 9.641397744417190552e-02
5.337000000000000000e+03 3.239587020874023438e+01 3.042542457580566406e+01 4.616844281554222107e-02 8.484658598899841309e-02 3.930450975894927979e-02 5.652368068695068359e-02
5.338000000000000000e+03 3.610525512695312500e+01 -2.221870660781860352e+00 3.233068585395812988e-01 -6.126417517662048340e-01 -8.680047094821929932e-02 6.135302037000656128e-02
5.339000000000000000e+03 6.619179534912109375e+01 5.917266368865966797e+00 3.205068707466125488e-01 4.054836750030517578e+00 1.312602996826171875e+00 7.465853095054626465e-01
5.340000000000000000e+03 6.671620941162109375e+01 3.327573776245117188e+00 2.888342142105102539e-01 4.227718353271484375e+00 1.354965806007385254e+00 6.901618242263793945e-01
5.341000000000000000e+03 1.047397804260253906e+01 1.257524776458740234e+01 3.703057020902633667e-02 9.308940172195434570e-02 3.903599083423614502e-02 -8.126748725771903992e-03
5.342000000000000000e+03 1.176029777526855469e+01 1.565558719635009766e+01 1.144209504127502441e-02 9.654085338115692139e-02 3.239488601684570312e-02 8.108381181955337524e-03
5.343000000000000000e+03 1.204236412048339844e+01 1.646638488769531250e+01 8.052670396864414215e-03 9.196887165307998657e-02 3.000646270811557770e-02 9.090341627597808838e-03
5.344000000000000000e+03 6.930274963378906250e+01 7.655171871185302734e+00 2.619605362415313721e-01 5.009924888610839844e+00 1.581565618515014648e+00 7.961637973785400391e-01
5.345000000000000000e+03 6.999810028076171875e+01 2.230762672424316406e+01 1.478785872459411621e-01 4.983518600463867188e+00 1.539419174194335938e+00 1.424594640731811523e+00
5.346000000000000000e+03 7.008717346191406250e+01 2.318344688415527344e+01 8.313129842281341553e-02 4.988545417785644531e+00 1.521502971649169922e+00 1.518738389015197754e+00
5.347000000000000000e+03 3.996919250488281250e+01 -5.295486927032470703e+00 5.119307041168212891e-01 -3.580681383609771729e-01 4.615877568721771240e-02 6.490649282932281494e-02
5.348000000000000000e+03 3.946882629394531250e+01 -4.739746570587158203e+00 5.099188685417175293e-01 -3.998391926288604736e-01 3.302389755845069885e-02 5.427592992782592773e-02
5.349000000000000000e+03 1.046975040435791016e+01 9.189548492431640625e+00 9.040544927120208740e-02 1.262796372175216675e-01 6.500552594661712646e-02 -3.309577703475952148e-02
5.350000000000000000e+03 1.164499568939208984e+01 1.075124740600585938e+01 4.979614540934562683e-02 1.686841100454330444e-01 6.554407626390457153e-02 1.630060491152107716e-03
5.351000000000000000e+03 6.916463470458984375e+01 2.242426300048828125e+01 2.062297463417053223e-01 4.419106960296630859e+00 1.387601017951965332e+00 1.362621545791625977e+00
5.352000000000000000e+03 6.793016815185546875e+01 2.074490928649902344e+01 3.261784315109252930e-01 3.910135984420776367e+00 1.270894408226013184e+00 1.138582110404968262e+00
5.353000000000000000e+03 6.601519012451171875e+01 -8.326014876365661621e-01 2.616836428642272949e-01 4.055510997772216797e+00 1.295158386230468750e+00 5.955458879470825195e-01
5.354000000000000000e+03 6.503248596191406250e+01 -1.626985788345336914e+00 2.772889435291290283e-01 3.825323581695556641e+00 1.230783820152282715e+00 5.748648643493652344e-01
5.355000000000000000e+03 7.016439819335937500e+01 2.399395942687988281e+01 2.276014164090156555e-02 4.990157604217529297e+00 1.503875255584716797e+00 1.607192158699035645e+00
5.356000000000000000e+03 6.941413116455078125e+01 2.590656852722167969e+01 -1.498681958764791489e-02 4.047496318817138672e+00 1.209752917289733887e+00 1.728909730911254883e+00
5.357000000000000000e+03 4.379211425781250000e+01 -7.329454898834228516e+00 5.089109539985656738e-01 6.775832921266555786e-02 1.730007827281951904e-01 8.810020238161087036e-02
5.358000000000000000e+03 6.805559539794921875e+01 5.737510681152343750e+00 2.731397747993469238e-01 4.599121093750000000e+00 1.461678266525268555e+00 7.447886466979980469e-01
5.359000000000000000e+03 2.967972564697265625e+01 2.908953666687011719e+01 3.743387758731842041e-02 8.975289762020111084e-02 3.815603256225585938e-02 5.771596357226371765e-02
5.360000000000000000e+03 6.957892608642578125e+01 1.612070274353027344e+01 3.377037346363067627e-01 5.086735248565673828e+00 1.627331733703613281e+00 1.063683986663818359e+00
5.361000000000000000e+03 4.043912506103515625e+01 -5.846380710601806641e+00 5.353814363479614258e-01 -3.047147095203399658e-01 6.920001655817031860e-02 5.286313965916633606e-02
5.362000000000000000e+03 6.725449371337890625e+01 1.203676414489746094e+01 3.699996173381805420e-01 4.203956127166748047e+00 1.372186779975891113e+00 8.854266405105590820e-01
5.363000000000000000e+03 6.675655364990234375e+01 -1.179192447662353516e+01 1.414982527494430542e-01 4.160492897033691406e+00 1.290597319602966309e+00 3.697997331619262695e-01
5.364000000000000000e+03 4.463064575195312500e+01 -1.397248744964599609e+01 3.551876842975616455e-01 2.976522445678710938e-01 1.958519816398620605e-01 5.281860381364822388e-02
5.365000000000000000e+03 4.560896682739257812e+01 -1.355664730072021484e+01 3.597180247306823730e-01 4.225007891654968262e-01 2.346656471490859985e-01 6.510027498006820679e-02
5.366000000000000000e+03 6.797907257080078125e+01 -5.486350536346435547e+00 1.753380298614501953e-01 4.475385665893554688e+00 1.395217180252075195e+00 4.731617569923400879e-01
5.367000000000000000e+03 6.867434692382812500e+01 -9.182222366333007812e+00 1.348853558301925659e-01 4.587180614471435547e+00 1.416619777679443359e+00 3.994365632534027100e-01
5.368000000000000000e+03 6.602766418457031250e+01 1.314417076110839844e+01 3.931774795055389404e-01 3.760625123977661133e+00 1.246140718460083008e+00 8.546982407569885254e-01
5.369000000000000000e+03 6.651321411132812500e+01 1.066755771636962891e+01 3.696432709693908691e-01 4.055612087249755859e+00 1.327576518058776855e+00 8.486282229423522949e-01
5.370000000000000000e+03 4.388934707641601562e+01 -8.456369400024414062e+00 4.979803562164306641e-01 1.039214879274368286e-01 1.805705428123474121e-01 7.884237170219421387e-02
5.371000000000000000e+03 6.723426818847656250e+01 -8.960902214050292969e+00 1.637690663337707520e-01 4.285607814788818359e+00 1.334812998771667480e+00 4.117392301559448242e-01
5.372000000000000000e+03 3.343061447143554688e+01 3.483834838867187500e+01 4.745751246809959412e-02 7.667230069637298584e-02 3.723894432187080383e-02 4.179346561431884766e-02
5.373000000000000000e+03 1.229097080230712891e+01 -1.709344100952148438e+01 1.640949398279190063e-01 -6.095244288444519043e-01 -1.336288452148437500e-01 -4.720938801765441895e-01
5.374000000000000000e+03 6.790017700195312500e+01 -7.517732143402099609e+00 1.512571722269058228e-01 4.419061660766601562e+00 1.371095657348632812e+00 4.340449273586273193e-01
5.375000000000000000e+03 4.534157943725585938e+01 -1.162764930725097656e+01 4.244530498981475830e-01 3.516348004341125488e-01 2.328263521194458008e-01 7.446839660406112671e-02
5.376000000000000000e+03 4.519496536254882812e+01 -1.051062488555908203e+01 4.595995247364044189e-01 3.057270944118499756e-01 2.295979857444763184e-01 8.268002420663833618e-02
5.377000000000000000e+03 4.612643432617187500e+01 -1.439978694915771484e+01 3.305307030677795410e-01 5.031310915946960449e-01 2.500985264778137207e-01 6.669171154499053955e-02
5.378000000000000000e+03 3.689292144775390625e+01 3.654468917846679688e+01 6.404037773609161377e-02 6.551430374383926392e-02 3.886640444397926331e-02 3.894126415252685547e-02
5.379000000000000000e+03 4.688219833374023438e+01 -1.996888160705566406e+01 1.221340149641036987e-01 6.921609640121459961e-01 2.442885041236877441e-01 8.968127518892288208e-02
5.380000000000000000e+03 4.707616424560546875e+01 -1.804375839233398438e+01 1.906283050775527954e-01 7.024493217468261719e-01 2.679232954978942871e-01 8.411109447479248047e-02
5.381000000000000000e+03 6.834699249267578125e+01 1.010763740539550781e+01 3.275323510169982910e-01 4.660038948059082031e+00 1.496271371841430664e+00 8.621748089790344238e-01
5.382000000000000000e+03 6.345304107666015625e+01 -2.452439498901367188e+01 6.865634024143218994e-02 3.539094448089599609e+00 1.082325220108032227e+00 2.652302682399749756e-01
5.383000000000000000e+03 6.664269256591796875e+01 -6.595831394195556641e+00 1.941998451948165894e-01 4.165571689605712891e+00 1.307931423187255859e+00 4.669991135597229004e-01
5.384000000000000000e+03 1.309468078613281250e+01 -2.172097396850585938e+01 1.950354129076004028e-01 -5.381107926368713379e-01 -1.029226183891296387e-01 -3.732644617557525635e-01
5.385000000000000000e+03 1.366464233398437500e+01 -1.665456581115722656e+01 2.085654437541961670e-01 -5.598356723785400391e-01 -1.053810641169548035e-01 -4.601108431816101074e-01
5.386000000000000000e+03 1.149964332580566406e+01 -2.855220603942871094e+01 1.375842094421386719e-01 -6.584457755088806152e-01 -1.562584787607192993e-01 -2.539426684379577637e-01
5.387000000000000000e+03 1.491221714019775391e+01 -2.309780693054199219e+01 2.161822319030761719e-01 -4.300760328769683838e-01 -6.416814029216766357e-02 -3.453721404075622559e-01
5.388000000000000000e+03 1.331504154205322266e+01 -2.340027046203613281e+01 1.830647289752960205e-01 -5.325294733047485352e-01 -1.048394292593002319e-01 -3.560006916522979736e-01
5.389000000000000000e+03 1.463638019561767578e+01 2.496522521972656250e+01 -6.343587301671504974e-03 5.973849073052406311e-02 1.601847074925899506e-02 1.247167494148015976e-02
5.390000000000000000e+03 6.335911178588867188e+01 -1.688469505310058594e+01 1.325467228889465332e-01 3.518781423568725586e+00 1.095398426055908203e+00 3.126821815967559814e-01
5.391000000000000000e+03 4.799121475219726562e+01 -1.723049163818359375e+01 2.170468717813491821e-01 8.349192142486572266e-01 3.155898451805114746e-01 9.340769797563552856e-02
5.392000000000000000e+03 6.807012176513671875e+01 6.592349052429199219e+00 2.856807410717010498e-01 4.603801250457763672e+00 1.466844558715820312e+00 7.667821049690246582e-01
5.393000000000000000e+03 5.155836105346679688e+01 -1.972297477722167969e+01 1.224452853202819824e-01 1.453469634056091309e+00 4.727744758129119873e-01 1.423963606357574463e-01
5.394000000000000000e+03 6.039074707031250000e+01 -2.800143814086914062e+01 6.869670003652572632e-02 3.018597602844238281e+00 9.261882901191711426e-01 2.771840691566467285e-01
5.395000000000000000e+03 3.969741439819335938e+01 4.028015518188476562e+01 9.371393918991088867e-02 4.810632392764091492e-02 4.254607856273651123e-02 1.706096529960632324e-02
5.396000000000000000e+03 3.280870056152343750e+01 3.646842193603515625e+01 4.491119086742401123e-02 7.501702010631561279e-02 3.597846254706382751e-02 3.357299417257308960e-02
5.397000000000000000e+03 2.714260292053222656e+01 1.668631315231323242e+00 -1.613530993461608887e+00 -5.971916317939758301e-01 -6.632167696952819824e-01 -5.315938591957092285e-01
5.398000000000000000e+03 4.896360778808593750e+01 2.312234687805175781e+01 -1.050844430923461914e+00 -6.176301240921020508e-01 -5.005423426628112793e-01 -9.759338498115539551e-01
5.399000000000000000e+03 2.819616889953613281e+01 2.018829822540283203e+00 -1.528615236282348633e+00 -6.702218055725097656e-01 -6.596511006355285645e-01 -4.188512563705444336e-01
5.400000000000000000e+03 3.840382385253906250e+01 1.264943981170654297e+01 -9.773198962211608887e-01 -1.094185233116149902e+00 -6.214515566825866699e-01 -9.968118667602539062e-01
5.401000000000000000e+03 3.738579940795898438e+01 1.158295631408691406e+01 -9.973708391189575195e-01 -1.102555871009826660e+00 -6.299780011177062988e-01 -9.879917502403259277e-01
5.402000000000000000e+03 4.976492309570312500e+01 2.500530052185058594e+01 -1.182456135749816895e+00 -6.244366765022277832e-01 -5.420678853988647461e-01 -1.029496192932128906e+00
5.403000000000000000e+03 4.952700042724609375e+01 2.451487922668457031e+01 -1.150600194931030273e+00 -6.236161589622497559e-01 -5.322648882865905762e-01 -1.024321079254150391e+00
5.404000000000000000e+03 4.749869918823242188e+01 2.201504898071289062e+01 -1.039935111999511719e+00 -7.707144021987915039e-01 -5.431948304176330566e-01 -1.001936554908752441e+00
5.405000000000000000e+03 4.441924285888671875e+01 1.915453147888183594e+01 -9.431953430175781250e-01 -9.642585515975952148e-01 -5.722361803054809570e-01 -1.057805538177490234e+00
5.406000000000000000e+03 4.563959503173828125e+01 1.975240325927734375e+01 -9.207857251167297363e-01 -8.680299520492553711e-01 -5.366446971893310547e-01 -9.970210194587707520e-01
5.407000000000000000e+03 4.574638748168945312e+01 2.059078216552734375e+01 -9.910569190979003906e-01 -9.081680178642272949e-01 -5.697674751281738281e-01 -1.034680485725402832e+00
5.408000000000000000e+03 4.533946609497070312e+01 2.074800872802734375e+01 -1.034649968147277832e+00 -9.776581525802612305e-01 -6.036924719810485840e-01 -1.077201962471008301e+00
5.409000000000000000e+03 3.822444534301757812e+01 1.220793914794921875e+01 -9.614627361297607422e-01 -1.077846169471740723e+00 -6.117926836013793945e-01 -9.749654531478881836e-01
5.410000000000000000e+03 5.049634552001953125e+01 2.516809463500976562e+01 -1.161050796508789062e+00 -5.073656439781188965e-01 -5.005249381065368652e-01 -9.894292950630187988e-01
5.411000000000000000e+03 4.148339843750000000e+01 1.545728874206542969e+01 -9.120660424232482910e-01 -9.736930131912231445e-01 -5.657277107238769531e-01 -1.008101940155029297e+00
5.412000000000000000e+03 3.858816909790039062e+01 1.355161857604980469e+01 -1.011308193206787109e+00 -1.141532182693481445e+00 -6.458521485328674316e-01 -1.051781773567199707e+00
5.413000000000000000e+03 4.288271713256835938e+01 1.766408729553222656e+01 -9.293047785758972168e-01 -9.934527873992919922e-01 -5.768272876739501953e-01 -1.079121470451354980e+00
5.414000000000000000e+03 2.475081062316894531e+01 2.098277091979980469e+01 5.301509052515029907e-02 1.175796836614608765e-01 5.117843300104141235e-02 8.259589225053787231e-02
5.415000000000000000e+03 2.544315910339355469e+01 2.132124328613281250e+01 5.479361489415168762e-02 1.151116713881492615e-01 5.097158625721931458e-02 8.265758305788040161e-02
5.416000000000000000e+03 4.396208953857421875e+01 1.888951301574707031e+01 -9.462769031524658203e-01 -9.875208735466003418e-01 -5.801393389701843262e-01 -1.075926184654235840e+00
5.417000000000000000e+03 4.580171966552734375e+01 2.003518867492675781e+01 -9.385365843772888184e-01 -8.680220246315002441e-01 -5.419675707817077637e-01 -1.002886176109313965e+00
5.418000000000000000e+03 3.855498504638671875e+01 1.310644912719726562e+01 -9.885989427566528320e-01 -1.114695191383361816e+00 -6.309882402420043945e-01 -1.020802736282348633e+00
5.419000000000000000e+03 4.366280746459960938e+01 1.814986801147460938e+01 -9.100139141082763672e-01 -9.582681059837341309e-01 -5.604845881462097168e-01 -1.054000258445739746e+00
5.420000000000000000e+03 4.325956726074218750e+01 1.841491889953613281e+01 -9.574726819992065430e-01 -1.019938468933105469e+00 -5.932233333587646484e-01 -1.104073166847229004e+00
5.421000000000000000e+03 4.589213562011718750e+01 2.102102851867675781e+01 -1.031028032302856445e+00 -9.265891909599304199e-01 -5.872851610183715820e-01 -1.050675511360168457e+00
5.422000000000000000e+03 5.142158889770507812e+01 2.632572746276855469e+01 -1.230325222015380859e+00 -4.057967960834503174e-01 -4.908365905284881592e-01 -9.802286624908447266e-01
5.423000000000000000e+03 5.079629516601562500e+01 2.562788009643554688e+01 -1.183698058128356934e+00 -4.794881045818328857e-01 -4.989558458328247070e-01 -9.885393977165222168e-01
5.424000000000000000e+03 2.077636146545410156e+01 1.846457862854003906e+01 4.905380308628082275e-02 1.357545107603073120e-01 5.544249340891838074e-02 8.336649090051651001e-02
5.425000000000000000e+03 3.975963211059570312e+01 1.385594844818115234e+01 -9.426980614662170410e-01 -1.048106431961059570e+00 -5.972413420677185059e-01 -9.941225051879882812e-01
5.426000000000000000e+03 1.289175796508789062e+01 9.069005012512207031e+00 6.426628679037094116e-02 2.792012989521026611e-01 1.030402779579162598e-01 2.900776080787181854e-02
5.427000000000000000e+03 1.359426116943359375e+01 9.810674667358398438e+00 5.556243285536766052e-02 2.673460543155670166e-01 9.687254577875137329e-02 6.053746864199638367e-02
5.428000000000000000e+03 5.182403945922851562e+01 2.681678009033203125e+01 -1.258361458778381348e+00 -3.423855304718017578e-01 -4.802241027355194092e-01 -9.722466468811035156e-01
5.429000000000000000e+03 5.187798309326171875e+01 2.633403205871582031e+01 -1.217104315757751465e+00 -3.148264586925506592e-01 -4.595792293548583984e-01 -9.590725302696228027e-01
5.430000000000000000e+03 4.709749984741210938e+01 2.179657363891601562e+01 -1.042066812515258789e+00 -8.204319477081298828e-01 -5.587496161460876465e-01 -1.016599059104919434e+00
5.431000000000000000e+03 4.764599990844726562e+01 2.158970069885253906e+01 -9.798117280006408691e-01 -7.184455990791320801e-01 -5.094771981239318848e-01 -9.634239077568054199e-01
5.432000000000000000e+03 7.303202819824218750e+01 2.926675415039062500e+01 -1.517859935760498047e+00 9.479709625244140625e+00 2.388555049896240234e+00 2.859623432159423828e+00
5.433000000000000000e+03 1.451725864410400391e+01 1.476460361480712891e+01 2.657029591500759125e-02 1.552217155694961548e-01 5.453760549426078796e-02 4.910302907228469849e-02
5.434000000000000000e+03 4.104528808593750000e+01 1.485219192504882812e+01 -9.102374911308288574e-01 -9.782392978668212891e-01 -5.665430426597595215e-01 -9.890115857124328613e-01
5.435000000000000000e+03 4.989345169067382812e+01 2.460307312011718750e+01 -1.143746137619018555e+00 -5.755669474601745605e-01 -5.157939195632934570e-01 -1.001306533813476562e+00
5.436000000000000000e+03 1.716727256774902344e+01 1.379564857482910156e+01 5.893736332654953003e-02 1.804663985967636108e-01 7.182113081216812134e-02 9.776662290096282959e-02
5.437000000000000000e+03 1.756080245971679688e+01 1.371192550659179688e+01 6.515514850616455078e-02 1.802674233913421631e-01 7.362677156925201416e-02 1.040895432233810425e-01
5.438000000000000000e+03 2.008567619323730469e+01 1.750082778930664062e+01 5.134838074445724487e-02 1.421131640672683716e-01 5.803846567869186401e-02 8.619831502437591553e-02
5.439000000000000000e+03 3.802732086181640625e+01 1.176079750061035156e+01 -9.551587104797363281e-01 -1.067903757095336914e+00 -6.069187521934509277e-01 -9.567388296127319336e-01
5.440000000000000000e+03 4.477424621582031250e+01 1.880836296081542969e+01 -8.906203508377075195e-01 -8.919339776039123535e-01 -5.347663164138793945e-01 -1.004895091056823730e+00
5.441000000000000000e+03 1.750042343139648438e+01 1.506176090240478516e+01 5.059855431318283081e-02 1.657077074050903320e-01 6.489187479019165039e-02 8.791308850049972534e-02
5.442000000000000000e+03 1.958217048645019531e+01 1.602464675903320312e+01 6.122522428631782532e-02 1.528651267290115356e-01 6.422710418701171875e-02 9.617875516414642334e-02
5.443000000000000000e+03 2.493741416931152344e+01 2.061164283752441406e+01 5.814080685377120972e-02 1.180599629878997803e-01 5.286023020744323730e-02 8.573592454195022583e-02
5.444000000000000000e+03 1.910264587402343750e+01 1.463879394531250000e+01 7.270570099353790283e-02 1.645778715610504150e-01 7.118506729602813721e-02 1.076004430651664734e-01
5.445000000000000000e+03 1.968450355529785156e+01 1.697441864013671875e+01 5.303978919982910156e-02 1.465282589197158813e-01 5.987041443586349487e-02 8.878810703754425049e-02
5.446000000000000000e+03 1.885738563537597656e+01 1.598713779449462891e+01 5.450045689940452576e-02 1.546918302774429321e-01 6.275768578052520752e-02 9.144791215658187866e-02
5.447000000000000000e+03 3.992863845825195312e+01 1.435054683685302734e+01 -9.612215757369995117e-01 -1.060139417648315430e+00 -6.064082980155944824e-01 -1.019844532012939453e+00
5.448000000000000000e+03 4.064019012451171875e+01 1.467355251312255859e+01 -9.307696223258972168e-01 -1.008016228675842285e+00 -5.816357135772705078e-01 -1.001289010047912598e+00
5.449000000000000000e+03 4.432851409912109375e+01 1.845607948303222656e+01 -8.917902112007141113e-01 -9.158134460449218750e-01 -5.422810912132263184e-01 -1.021781802177429199e+00
5.450000000000000000e+03 5.190178298950195312e+01 2.581142234802246094e+01 -1.161803364753723145e+00 -2.872941195964813232e-01 -4.347292482852935791e-01 -9.410721063613891602e-01
5.451000000000000000e+03 5.092768096923828125e+01 2.523624229431152344e+01 -1.149559497833251953e+00 -4.348748624324798584e-01 -4.753302931785583496e-01 -9.641578197479248047e-01
5.452000000000000000e+03 5.142402648925781250e+01 2.581100463867187500e+01 -1.177961468696594238e+00 -3.781549632549285889e-01 -4.668349325656890869e-01 -9.615285992622375488e-01
5.453000000000000000e+03 5.330069732666015625e+01 2.686328125000000000e+01 -1.229321241378784180e+00 -8.112650364637374878e-02 -3.931343257427215576e-01 -9.282611012458801270e-01
5.454000000000000000e+03 4.444942474365234375e+01 1.943668365478515625e+01 -9.590165615081787109e-01 -9.778006076812744141e-01 -5.810451507568359375e-01 -1.069346666336059570e+00
5.455000000000000000e+03 2.935314750671386719e+01 2.618720531463623047e+00 -1.449753403663635254e+00 -7.912343740463256836e-01 -6.722963452339172363e-01 -4.103434979915618896e-01
5.456000000000000000e+03 4.693426132202148438e+01 2.125924110412597656e+01 -9.993459582328796387e-01 -8.118627667427062988e-01 -5.433626174926757812e-01 -9.950254559516906738e-01
5.457000000000000000e+03 4.727132797241210938e+01 2.144446563720703125e+01 -9.926438927650451660e-01 -7.681661844253540039e-01 -5.282430052757263184e-01 -9.809124469757080078e-01
5.458000000000000000e+03 4.198067474365234375e+01 1.589931964874267578e+01 -9.006505012512207031e-01 -9.528525471687316895e-01 -5.560508966445922852e-01 -1.011557102203369141e+00
5.459000000000000000e+03 4.296765518188476562e+01 1.823106002807617188e+01 -9.572844505310058594e-01 -1.028448820114135742e+00 -5.957199931144714355e-01 -1.113615155220031738e+00
5.460000000000000000e+03 2.409491348266601562e+01 2.043578338623046875e+01 5.499334633350372314e-02 1.204986274242401123e-01 5.264759436249732971e-02 8.407621085643768311e-02
5.461000000000000000e+03 3.129776191711425781e+01 2.887018918991088867e+00 -1.152854442596435547e+00 -7.316642999649047852e-01 -5.653556585311889648e-01 -3.083139955997467041e-01
5.462000000000000000e+03 2.731228828430175781e+01 1.357579350471496582e+00 -1.336979746818542480e+00 -4.948363602161407471e-01 -5.495448112487792969e-01 -3.136264383792877197e-01
5.463000000000000000e+03 1.180010986328125000e+01 1.213581466674804688e+01 3.598847612738609314e-02 1.484659612178802490e-01 5.533633381128311157e-02 7.665445562452077866e-03
5.464000000000000000e+03 4.638563156127929688e+01 2.090522003173828125e+01 -9.852665066719055176e-01 -8.486480712890625000e-01 -5.501743555068969727e-01 -1.009842395782470703e+00
5.465000000000000000e+03 5.274108123779296875e+01 2.693602752685546875e+01 -1.253621816635131836e+00 -1.878024041652679443e-01 -4.324272871017456055e-01 -9.431055784225463867e-01
5.466000000000000000e+03 2.227994155883789062e+01 1.971972846984863281e+01 4.907738417387008667e-02 1.275605410337448120e-01 5.299137905240058899e-02 8.253856003284454346e-02
5.467000000000000000e+03 3.777287292480468750e+01 1.129625511169433594e+01 -9.506245255470275879e-01 -1.053824901580810547e+00 -6.013348102569580078e-01 -9.396274089813232422e-01
5.468000000000000000e+03 1.329766273498535156e+01 1.770973587036132812e+01 6.407427135854959488e-03 1.002063751220703125e-01 3.198413923382759094e-02 2.030108310282230377e-02
5.469000000000000000e+03 1.023701000213623047e+01 1.077723026275634766e+01 6.054351106286048889e-02 1.045638620853424072e-01 4.953221231698989868e-02 -2.062244340777397156e-02
5.470000000000000000e+03 1.375424194335937500e+01 1.022091388702392578e+01 5.635932832956314087e-02 2.540900409221649170e-01 9.313481301069259644e-02 6.350525468587875366e-02
5.471000000000000000e+03 1.222477340698242188e+01 8.153410911560058594e+00 8.123248815536499023e-02 2.870058119297027588e-01 1.104714870452880859e-01 -1.088077016174793243e-02
5.472000000000000000e+03 7.265752410888671875e+01 2.925050926208496094e+01 -1.304681539535522461e+00 8.638440132141113281e+00 2.200127601623535156e+00 3.101073265075683594e+00
5.473000000000000000e+03 1.226965999603271484e+01 8.690431594848632812e+00 7.505625486373901367e-02 2.642336189746856689e-01 1.017869636416435242e-01 -2.623263280838727951e-03
5.474000000000000000e+03 3.145274353027343750e+01 9.747722744941711426e-02 -2.553567290306091309e-01 -6.811316609382629395e-01 -2.809465229511260986e-01 2.609937451779842377e-02
5.475000000000000000e+03 7.155355834960937500e+01 2.785362625122070312e+01 -6.352059245109558105e-01 6.278429508209228516e+00 1.692967057228088379e+00 2.592217683792114258e+00
5.476000000000000000e+03 2.045251846313476562e+01 1.798956489562988281e+01 4.980604723095893860e-02 1.386852115392684937e-01 5.654737725853919983e-02 8.492438495159149170e-02
5.477000000000000000e+03 4.273761367797851562e+01 1.740766334533691406e+01 -9.264407157897949219e-01 -9.891384243965148926e-01 -5.746737122535705566e-01 -1.072642922401428223e+00
5.478000000000000000e+03 3.739957427978515625e+01 1.025872802734375000e+01 -9.249886870384216309e-01 -1.004313707351684570e+00 -5.787907242774963379e-01 -8.802249431610107422e-01
5.479000000000000000e+03 3.597694778442382812e+01 6.724280357360839844e+00 -8.590168952941894531e-01 -8.300909996032714844e-01 -5.067324042320251465e-01 -6.486702561378479004e-01
5.480000000000000000e+03 2.637704086303710938e+01 2.227968597412109375e+01 5.266791209578514099e-02 1.099942773580551147e-01 4.879865422844886780e-02 8.020877838134765625e-02
5.481000000000000000e+03 1.555803966522216797e+01 1.223058509826660156e+01 5.458786711096763611e-02 2.082554548978805542e-01 7.885299623012542725e-02 9.138944000005722046e-02
5.482000000000000000e+03 1.377004051208496094e+01 1.126832294464111328e+01 4.477490857243537903e-02 2.189815193414688110e-01 7.912693172693252563e-02 5.707118660211563110e-02
5.483000000000000000e+03 5.306200408935546875e+01 2.722341537475585938e+01 -1.266781210899353027e+00 -1.304823607206344604e-01 -4.191790819168090820e-01 -9.428004026412963867e-01
5.484000000000000000e+03 1.407140254974365234e+01 1.215142536163330078e+01 3.969484940171241760e-02 2.008282244205474854e-01 7.215692102909088135e-02 5.937198922038078308e-02
5.485000000000000000e+03 7.159181213378906250e+01 2.834212112426757812e+01 -6.740817427635192871e-01 6.303889274597167969e+00 1.688942313194274902e+00 2.782866477966308594e+00
5.486000000000000000e+03 3.644388961791992188e+01 9.158922195434570312e+00 -9.423353672027587891e-01 -9.945202469825744629e-01 -5.810566544532775879e-01 -8.569408059120178223e-01
5.487000000000000000e+03 3.584761810302734375e+01 8.150756835937500000e+00 -9.566207528114318848e-01 -9.488510489463806152e-01 -5.716415643692016602e-01 -8.123547434806823730e-01
5.488000000000000000e+03 7.209810638427734375e+01 2.882974433898925781e+01 -9.399374127388000488e-01 7.294586181640625000e+00 1.906394600868225098e+00 3.001763343811035156e+00
5.489000000000000000e+03 1.236595153808593750e+01 9.219007492065429688e+00 6.341910362243652344e-02 2.471074610948562622e-01 9.315796941518783569e-02 9.896721690893173218e-03
5.490000000000000000e+03 3.609046936035156250e+01 9.581678390502929688e+00 -1.000375628471374512e+00 -1.053420901298522949e+00 -6.161389946937561035e-01 -9.237441420555114746e-01
5.491000000000000000e+03 2.350001335144042969e+01 2.014330673217773438e+01 5.359960347414016724e-02 1.228319555521011353e-01 5.292946845293045044e-02 8.404617756605148315e-02
5.492000000000000000e+03 1.608188438415527344e+01 1.261675453186035156e+01 5.732617527246475220e-02 2.007793486118316650e-01 7.743165642023086548e-02 9.644858539104461670e-02
5.493000000000000000e+03 1.452709102630615234e+01 1.199741744995117188e+01 4.707817360758781433e-02 2.088263481855392456e-01 7.677135616540908813e-02 7.088632881641387939e-02
5.494000000000000000e+03 2.663925170898437500e+01 2.472767829895019531e+01 3.888038545846939087e-02 1.034646630287170410e-01 4.270351305603981018e-02 7.005649805068969727e-02
5.495000000000000000e+03 2.501963615417480469e+01 2.212909889221191406e+01 4.637801274657249451e-02 1.135393530130386353e-01 4.797520861029624939e-02 7.710354030132293701e-02
5.496000000000000000e+03 3.670351028442382812e+01 9.932976722717285156e+00 -9.657839536666870117e-01 -1.032109141349792480e+00 -5.993679165840148926e-01 -9.053637385368347168e-01
5.497000000000000000e+03 2.917381477355957031e+01 1.999034762382507324e+00 -1.204802513122558594e+00 -7.429549694061279297e-01 -5.843272209167480469e-01 -3.078296184539794922e-01
5.498000000000000000e+03 2.900426673889160156e+01 1.619059324264526367e+00 -1.147219300270080566e+00 -6.751626133918762207e-01 -5.467146039009094238e-01 -2.407910525798797607e-01
5.499000000000000000e+03 2.185531616210937500e+01 1.896868324279785156e+01 5.180791392922401428e-02 1.315039396286010742e-01 5.499355867505073547e-02 8.551474660634994507e-02
5.500000000000000000e+03 2.282047080993652344e+01 1.891017341613769531e+01 5.984409525990486145e-02 1.292673498392105103e-01 5.673343315720558167e-02 9.015657007694244385e-02
5.501000000000000000e+03 2.551817893981933594e+01 2.197920036315917969e+01 5.039352923631668091e-02 1.128259897232055664e-01 4.896585643291473389e-02 7.936156541109085083e-02
5.502000000000000000e+03 2.596670722961425781e+01 2.301333236694335938e+01 4.581623896956443787e-02 1.092703044414520264e-01 4.652596265077590942e-02 7.571537047624588013e-02
5.503000000000000000e+03 3.574191665649414062e+01 7.530904293060302734e+00 -9.361028075218200684e-01 -9.016566276550292969e-01 -5.513278245925903320e-01 -7.604402899742126465e-01
5.504000000000000000e+03 1.762795257568359375e+01 1.415416049957275391e+01 6.070448458194732666e-02 1.749528348445892334e-01 7.069719582796096802e-02 9.946272522211074829e-02
5.505000000000000000e+03 2.752213096618652344e+01 1.021767139434814453e+00 -1.085909008979797363e+00 -5.387616157531738281e-01 -4.874012172222137451e-01 -3.177026510238647461e-01
5.506000000000000000e+03 2.806083106994628906e+01 2.626272392272949219e+01 3.868405148386955261e-02 9.750445187091827393e-02 4.085655137896537781e-02 6.703542172908782959e-02
5.507000000000000000e+03 2.487283134460449219e+01 2.538579750061035156e+01 2.913835830986499786e-02 1.035815849900245667e-01 3.981598094105720520e-02 6.185681000351905823e-02
5.508000000000000000e+03 3.002214050292968750e+01 2.902637958526611328e+00 -1.411602258682250977e+00 -8.090055584907531738e-01 -6.661823391914367676e-01 -4.188657701015472412e-01
5.509000000000000000e+03 2.832236671447753906e+01 2.789150047302246094e+01 3.505963459610939026e-02 9.398296475410461426e-02 3.871278092265129089e-02 6.043911725282669067e-02
5.510000000000000000e+03 7.070932006835937500e+01 2.780147933959960938e+01 -3.772603869438171387e-01 5.023673057556152344e+00 1.393923759460449219e+00 2.431907415390014648e+00
5.511000000000000000e+03 7.136593627929687500e+01 2.701844024658203125e+01 -5.326694846153259277e-01 6.005296230316162109e+00 1.641788005828857422e+00 2.325434684753417969e+00
5.512000000000000000e+03 5.867926025390625000e+01 2.552241325378417969e+01 -7.018631100654602051e-01 5.441280603408813477e-01 -4.732051491737365723e-02 -6.453632712364196777e-01
5.513000000000000000e+03 2.963694953918457031e+01 2.816623306274414062e+01 3.917411714792251587e-02 9.159922599792480469e-02 3.923200443387031555e-02 6.172148510813713074e-02
5.514000000000000000e+03 2.887335395812988281e+01 2.746067810058593750e+01 3.854073584079742432e-02 9.409826248884201050e-02 3.979169949889183044e-02 6.386104971170425415e-02
5.515000000000000000e+03 2.935803222656250000e+01 2.314708709716796875e+00 -1.413549184799194336e+00 -7.287482023239135742e-01 -6.426892280578613281e-01 -3.356417715549468994e-01
5.516000000000000000e+03 3.002131462097167969e+01 6.607724428176879883e-01 -5.527470707893371582e-01 -6.848691105842590332e-01 -3.712848424911499023e-01 -6.132662296295166016e-02
5.517000000000000000e+03 2.891154289245605469e+01 2.816479492187500000e+01 3.732121735811233521e-02 9.240904450416564941e-02 3.891907632350921631e-02 6.058362871408462524e-02
5.518000000000000000e+03 2.849535751342773438e+01 2.684628677368164062e+01 3.904972225427627563e-02 9.554290771484375000e-02 4.037778824567794800e-02 6.513891369104385376e-02
5.519000000000000000e+03 2.713620758056640625e+01 2.599634361267089844e+01 3.560281917452812195e-02 9.933652728796005249e-02 4.048180207610130310e-02 6.596481800079345703e-02
5.520000000000000000e+03 2.625517845153808594e+01 2.560541152954101562e+01 3.313557058572769165e-02 1.016651540994644165e-01 4.044021666049957275e-02 6.524321436882019043e-02
5.521000000000000000e+03 3.538586807250976562e+01 7.308569431304931641e+00 -9.620298743247985840e-01 -9.087426662445068359e-01 -5.612317323684692383e-01 -7.656506299972534180e-01
5.522000000000000000e+03 3.509067535400390625e+01 7.039398193359375000e+00 -9.995929002761840820e-01 -8.944827318191528320e-01 -5.682227015495300293e-01 -7.634089589118957520e-01
5.523000000000000000e+03 3.180917739868164062e+01 2.819797039031982422e+00 -1.060504555702209473e+00 -7.236903309822082520e-01 -5.352584719657897949e-01 -2.835573256015777588e-01
5.524000000000000000e+03 6.998220825195312500e+01 2.557035827636718750e+01 -7.427832484245300293e-02 4.675796508789062500e+00 1.380455493927001953e+00 1.796067476272583008e+00
5.525000000000000000e+03 3.192871665954589844e+01 3.611475527286529541e-01 -3.071818947792053223e-01 -6.683189272880554199e-01 -2.926502525806427002e-01 1.467900630086660385e-02
5.526000000000000000e+03 3.255969619750976562e+01 9.032581001520156860e-02 -1.911661177873611450e-01 -6.770990490913391113e-01 -2.604795396327972412e-01 3.595844656229019165e-02
5.527000000000000000e+03 3.339074325561523438e+01 3.686446428298950195e+00 -9.536076784133911133e-01 -7.084437012672424316e-01 -4.986154139041900635e-01 -3.753125965595245361e-01
5.528000000000000000e+03 3.339630126953125000e+01 4.669291973114013672e+00 -1.096959590911865234e+00 -7.660215497016906738e-01 -5.588943362236022949e-01 -5.557324290275573730e-01
5.529000000000000000e+03 1.160122108459472656e+01 8.224686622619628906e+00 9.864578396081924438e-02 2.295219600200653076e-01 9.845032542943954468e-02 -3.650140389800071716e-02
5.530000000000000000e+03 1.165578460693359375e+01 7.659382820129394531e+00 1.093057766556739807e-01 2.488229572772979736e-01 1.074386164546012878e-01 -4.807985946536064148e-02
5.531000000000000000e+03 5.507249069213867188e+01 2.719182395935058594e+01 -1.209293603897094727e+00 1.580753028392791748e-01 -3.153654932975769043e-01 -9.103631377220153809e-01
5.532000000000000000e+03 5.463101196289062500e+01 2.707649803161621094e+01 -1.209580421447753906e+00 1.083336547017097473e-01 -3.303740322589874268e-01 -9.118282198905944824e-01
5.533000000000000000e+03 7.116008758544921875e+01 2.735551643371582031e+01 -4.763420820236206055e-01 5.736255168914794922e+00 1.577973961830139160e+00 2.401327610015869141e+00
5.534000000000000000e+03 5.694679260253906250e+01 2.505209732055664062e+01 -7.889847159385681152e-01 4.113557636737823486e-01 -1.132886782288551331e-01 -7.192143797874450684e-01
5.535000000000000000e+03 5.681118774414062500e+01 2.565922164916992188e+01 -8.838367462158203125e-01 3.696710169315338135e-01 -1.542497277259826660e-01 -7.738720774650573730e-01
5.536000000000000000e+03 6.651222991943359375e+01 2.489317131042480469e+01 1.357548087835311890e-01 2.276306152343750000e+00 7.236182689666748047e-01 8.704825639724731445e-01
5.537000000000000000e+03 3.430171203613281250e+01 -4.711605906486511230e-01 4.387986846268177032e-04 -6.734813451766967773e-01 -2.019127756357192993e-01 4.901609569787979126e-02
5.538000000000000000e+03 7.091998291015625000e+01 2.582975196838378906e+01 -2.825361490249633789e-01 5.590282917022705078e+00 1.592324018478393555e+00 1.964265704154968262e+00
5.539000000000000000e+03 3.072035598754882812e+01 3.430292904376983643e-01 -3.728653192520141602e-01 -6.787729263305664062e-01 -3.154914677143096924e-01 -5.104244221001863480e-03
5.540000000000000000e+03 2.992203712463378906e+01 2.527767896652221680e+00 -1.341813445091247559e+00 -7.544110417366027832e-01 -6.288673281669616699e-01 -3.277361392974853516e-01
5.541000000000000000e+03 3.784080886840820312e+01 -4.054020881652832031e+00 4.806694984436035156e-01 -5.266526341438293457e-01 -1.379494275897741318e-02 5.693966150283813477e-02
5.542000000000000000e+03 3.713315582275390625e+01 -2.634214401245117188e+00 3.652382791042327881e-01 -5.722641944885253906e-01 -6.210777163505554199e-02 6.176014244556427002e-02
5.543000000000000000e+03 2.478220176696777344e+01 2.139196586608886719e+01 5.060475319623947144e-02 1.162370741367340088e-01 5.005254969000816345e-02 8.031416684389114380e-02
5.544000000000000000e+03 6.387402343750000000e+01 2.462341117858886719e+01 -1.067776605486869812e-02 1.437679290771484375e+00 4.281004667282104492e-01 2.398824989795684814e-01
5.545000000000000000e+03 6.603005981445312500e+01 2.476342010498046875e+01 1.307757794857025146e-01 2.133910894393920898e+00 6.794059872627258301e-01 7.766249775886535645e-01
5.546000000000000000e+03 6.027398681640625000e+01 2.500168037414550781e+01 -4.718977808952331543e-01 7.524860501289367676e-01 8.417647331953048706e-02 -4.348775148391723633e-01
5.547000000000000000e+03 6.084261322021484375e+01 2.441839218139648438e+01 -3.022771775722503662e-01 8.978212475776672363e-01 1.786632239818572998e-01 -2.900423705577850342e-01
5.548000000000000000e+03 7.025625610351562500e+01 2.470452308654785156e+01 -4.508832469582557678e-02 4.989028930664062500e+00 1.483182191848754883e+00 1.694041371345520020e+00
5.549000000000000000e+03 6.767568206787109375e+01 2.542146301269531250e+01 1.235477626323699951e-01 2.829770088195800781e+00 8.859953284263610840e-01 1.228855490684509277e+00
5.550000000000000000e+03 6.836354827880859375e+01 2.618965911865234375e+01 4.995322972536087036e-02 3.111217737197875977e+00 9.483512639999389648e-01 1.460271477699279785e+00
5.551000000000000000e+03 1.147259521484375000e+01 7.096427440643310547e+00 1.404517441987991333e-01 2.511963844299316406e-01 1.174944415688514709e-01 -7.405002415180206299e-02
5.552000000000000000e+03 1.180980682373046875e+01 9.395998001098632812e+00 7.029169797897338867e-02 2.110812366008758545e-01 8.441188186407089233e-02 -8.266057819128036499e-03
5.553000000000000000e+03 1.239844894409179688e+01 1.800617980957031250e+01 3.096727887168526649e-03 8.330031484365463257e-02 2.591911330819129944e-02 1.083150506019592285e-02
5.554000000000000000e+03 6.456634521484375000e+01 2.478950119018554688e+01 4.447446018457412720e-02 1.626852750778198242e+00 5.013981461524963379e-01 3.815201818943023682e-01
5.555000000000000000e+03 5.820396804809570312e+01 2.572380065917968750e+01 -7.810491323471069336e-01 4.967714548110961914e-01 -8.528330922126770020e-02 -6.982448697090148926e-01
5.556000000000000000e+03 6.147914123535156250e+01 2.449081611633300781e+01 -2.390438616275787354e-01 9.712368249893188477e-01 2.196578979492187500e-01 -2.035103738307952881e-01
5.557000000000000000e+03 7.034226989746093750e+01 2.618776512145996094e+01 -1.940172910690307617e-01 4.877604961395263672e+00 1.405076265335083008e+00 1.971597671508789062e+00
5.558000000000000000e+03 1.261989212036132812e+01 2.121387100219726562e+01 -4.595048259943723679e-03 6.041170284152030945e-02 1.674499548971652985e-02 6.047151051461696625e-03
5.559000000000000000e+03 1.227035236358642578e+01 1.986172103881835938e+01 -2.201725263148546219e-03 6.581296026706695557e-02 1.908337138593196869e-02 5.652307532727718353e-03
5.560000000000000000e+03 6.786724090576171875e+01 1.732275199890136719e+01 3.747856020927429199e-01 4.204301834106445312e+00 1.373726248741149902e+00 1.037160754203796387e+00
5.561000000000000000e+03 6.810097503662109375e+01 1.480217742919921875e+01 3.758890628814697266e-01 4.436859130859375000e+00 1.443824529647827148e+00 9.870896935462951660e-01
5.562000000000000000e+03 1.177968692779541016e+01 1.399999809265136719e+01 2.011109329760074615e-02 1.180371046066284180e-01 4.144445806741714478e-02 8.241572417318820953e-03
5.563000000000000000e+03 1.264574146270751953e+01 1.560113525390625000e+01 1.411255076527595520e-02 1.163659095764160156e-01 3.914353623986244202e-02 1.850891485810279846e-02
5.564000000000000000e+03 1.086117267608642578e+01 1.309206390380859375e+01 2.822604402899742126e-02 1.060330644249916077e-01 4.027773439884185791e-02 -3.010137472301721573e-03
5.565000000000000000e+03 1.051636505126953125e+01 1.143684959411621094e+01 4.753100126981735229e-02 1.081691309809684753e-01 4.671004042029380798e-02 -1.258926000446081161e-02
5.566000000000000000e+03 6.899116516113281250e+01 2.644802665710449219e+01 -5.892164539545774460e-03 3.510140419006347656e+00 1.051274538040161133e+00 1.671301960945129395e+00
5.567000000000000000e+03 6.484836578369140625e+01 -9.592357635498046875e+00 1.974195092916488647e-01 3.800031423568725586e+00 1.199235320091247559e+00 4.170827865600585938e-01
5.568000000000000000e+03 1.178375911712646484e+01 1.308269786834716797e+01 2.859727852046489716e-02 1.346222460269927979e-01 4.896586015820503235e-02 8.925262838602066040e-03
5.569000000000000000e+03 1.226755332946777344e+01 1.403366279602050781e+01 2.163528278470039368e-02 1.265202611684799194e-01 4.444666206836700439e-02 1.727489568293094635e-02
5.570000000000000000e+03 1.750035858154296875e+01 1.451865768432617188e+01 5.648116394877433777e-02 1.715582609176635742e-01 6.841182708740234375e-02 9.348511695861816406e-02
5.571000000000000000e+03 6.610189819335937500e+01 8.506354093551635742e-01 2.764349281787872314e-01 4.072353363037109375e+00 1.304636478424072266e+00 6.327723860740661621e-01
5.572000000000000000e+03 1.300530815124511719e+01 9.542469024658203125e+00 5.667472630739212036e-02 2.618781626224517822e-01 9.556586295366287231e-02 3.721453621983528137e-02
5.573000000000000000e+03 3.124949455261230469e+01 2.841272544860839844e+01 4.513239860534667969e-02 8.877904713153839111e-02 4.017343372106552124e-02 6.264048069715499878e-02
5.574000000000000000e+03 1.273759651184082031e+01 1.496774673461914062e+01 1.679212227463722229e-02 1.264427006244659424e-01 4.297044873237609863e-02 2.146560139954090118e-02
5.575000000000000000e+03 6.529914093017578125e+01 1.625071883201599121e+00 2.988964021205902100e-01 3.864268302917480469e+00 1.248949408531188965e+00 6.432459354400634766e-01
5.576000000000000000e+03 3.853127670288085938e+01 -3.569422006607055664e+00 4.399251043796539307e-01 -4.787459373474121094e-01 -1.164625398814678192e-02 6.211728975176811218e-02
5.577000000000000000e+03 6.702287292480468750e+01 4.877109050750732422e+00 2.955294549465179443e-01 4.287544727325439453e+00 1.374922275543212891e+00 7.263401746749877930e-01
5.578000000000000000e+03 6.482032775878906250e+01 4.304143905639648438e+00 3.338677287101745605e-01 3.706772327423095703e+00 1.212192058563232422e+00 6.889331936836242676e-01
5.579000000000000000e+03 4.065362167358398438e+01 -4.717382907867431641e+00 4.934137463569641113e-01 -2.982982397079467773e-01 5.853464826941490173e-02 6.812229007482528687e-02
5.580000000000000000e+03 6.836510467529296875e+01 2.259570884704589844e+01 2.509083449840545654e-01 3.896419763565063477e+00 1.244198441505432129e+00 1.266054391860961914e+00
5.581000000000000000e+03 6.681976318359375000e+01 2.003497123718261719e+01 3.703673779964447021e-01 3.449867248535156250e+00 1.146070361137390137e+00 9.818387627601623535e-01
5.582000000000000000e+03 1.402265453338623047e+01 2.326423454284667969e+01 -5.540756043046712875e-03 6.345182657241821289e-02 1.737332157790660858e-02 1.194221898913383484e-02
5.583000000000000000e+03 6.651261138916015625e+01 1.910329437255859375e+01 3.830868005752563477e-01 3.425076246261596680e+00 1.142448902130126953e+00 9.360846877098083496e-01
5.584000000000000000e+03 4.395230102539062500e+01 -9.586598396301269531e+00 4.890504181385040283e-01 1.273661702871322632e-01 1.849249750375747681e-01 6.654889136552810669e-02
5.585000000000000000e+03 6.578318023681640625e+01 -2.585644721984863281e+00 2.522081136703491211e-01 4.003013134002685547e+00 1.276566386222839355e+00 5.563601255416870117e-01
5.586000000000000000e+03 6.710575103759765625e+01 5.806608200073242188e+00 2.968221008777618408e-01 4.294131278991699219e+00 1.377286076545715332e+00 7.447214722633361816e-01
5.587000000000000000e+03 6.823280334472656250e+01 1.317819309234619141e+01 3.520543575286865234e-01 4.566434860229492188e+00 1.475546717643737793e+00 9.412204623222351074e-01
5.588000000000000000e+03 6.634752655029296875e+01 1.154539012908935547e+01 3.736299574375152588e-01 3.949209690093994141e+00 1.296851873397827148e+00 8.407270312309265137e-01
5.589000000000000000e+03 1.292079448699951172e+01 1.174034214019775391e+01 3.801643475890159607e-02 1.892065703868865967e-01 6.816690415143966675e-02 3.329674899578094482e-02
5.590000000000000000e+03 1.090857315063476562e+01 1.205788230895996094e+01 3.999666869640350342e-02 1.169291585683822632e-01 4.707774892449378967e-02 -6.824411451816558838e-03
5.591000000000000000e+03 3.080282974243164062e+01 3.273318099975585938e+01 3.736556693911552429e-02 8.333041518926620483e-02 3.620879352092742920e-02 4.553771764039993286e-02
5.592000000000000000e+03 6.737588500976562500e+01 1.876934051513671875e+01 3.763729035854339600e-01 3.838654041290283203e+00 1.264508128166198730e+00 1.019282817840576172e+00
5.593000000000000000e+03 6.739859771728515625e+01 7.535206794738769531e+00 3.161753416061401367e-01 4.398190021514892578e+00 1.414309620857238770e+00 7.905699014663696289e-01
5.594000000000000000e+03 6.767649078369140625e+01 8.376494407653808594e+00 3.195647299289703369e-01 4.459816455841064453e+00 1.433814287185668945e+00 8.161134719848632812e-01
5.595000000000000000e+03 6.834595489501953125e+01 1.568741130828857422e+01 3.717736601829528809e-01 4.461493015289306641e+00 1.449979901313781738e+00 1.020125031471252441e+00
5.596000000000000000e+03 6.879121398925781250e+01 1.442241954803466797e+01 3.442306518554687500e-01 4.745403289794921875e+00 1.526890158653259277e+00 1.000762104988098145e+00
5.597000000000000000e+03 6.544482421875000000e+01 -4.357166767120361328e+00 2.390779405832290649e-01 3.926157236099243164e+00 1.249570488929748535e+00 5.203082561492919922e-01
5.598000000000000000e+03 6.614123535156250000e+01 -5.414998054504394531e+00 2.162934094667434692e-01 4.080279350280761719e+00 1.288971781730651855e+00 4.954074323177337646e-01
5.599000000000000000e+03 6.628343200683593750e+01 -1.070955467224121094e+01 1.616418659687042236e-01 4.088459491729736328e+00 1.275030493736267090e+00 3.898577392101287842e-01
5.600000000000000000e+03 1.351171016693115234e+01 2.172342681884765625e+01 -3.978505264967679977e-03 6.793076545000076294e-02 1.918567717075347900e-02 1.173479482531547546e-02
5.601000000000000000e+03 6.566685485839843750e+01 -2.137206840515136719e+01 7.480559498071670532e-02 3.908090114593505859e+00 1.194868683815002441e+00 2.652803659439086914e-01
5.602000000000000000e+03 6.705965423583984375e+01 -2.090422058105468750e+01 6.576748937368392944e-02 4.168264865875244141e+00 1.270209789276123047e+00 2.571866512298583984e-01
5.603000000000000000e+03 6.721880340576171875e+01 6.684421539306640625e+00 3.129248321056365967e-01 4.338847637176513672e+00 1.395531654357910156e+00 7.653174996376037598e-01
5.604000000000000000e+03 4.258910369873046875e+01 -6.569931507110595703e+00 5.165213942527770996e-01 -9.252937138080596924e-02 1.271976083517074585e-01 7.472131401300430298e-02
5.605000000000000000e+03 4.135731124877929688e+01 -4.312994480133056641e+00 4.590127468109130859e-01 -2.482111155986785889e-01 6.324049085378646851e-02 9.627119451761245728e-02
5.606000000000000000e+03 3.506395339965820312e+01 3.683432388305664062e+01 5.555312708020210266e-02 7.009640336036682129e-02 3.769485652446746826e-02 3.480067476630210876e-02
5.607000000000000000e+03 4.667113113403320312e+01 -1.532370376586914062e+01 2.887727320194244385e-01 5.858400464057922363e-01 2.623838484287261963e-01 7.453501969575881958e-02
5.608000000000000000e+03 1.525783348083496094e+01 -2.495471382141113281e+01 2.040432095527648926e-01 -4.110471606254577637e-01 -6.210118532180786133e-02 -3.339290320873260498e-01
5.609000000000000000e+03 1.009155654907226562e+01 -2.690492057800292969e+01 1.179744899272918701e-01 -7.409429550170898438e-01 -1.868905425071716309e-01 -2.778377830982208252e-01
5.610000000000000000e+03 4.424705505371093750e+01 -1.837471389770507812e+01 1.490644365549087524e-01 2.631742954254150391e-01 1.236716210842132568e-01 6.894625723361968994e-02
5.611000000000000000e+03 4.274431610107421875e+01 -7.568757534027099609e+00 5.183311700820922852e-01 -5.199658125638961792e-02 1.399003714323043823e-01 7.200916856527328491e-02
5.612000000000000000e+03 1.539901065826416016e+01 2.687322616577148438e+01 -6.497284863144159317e-03 5.714977532625198364e-02 1.519574783742427826e-02 1.337695959955453873e-02
5.613000000000000000e+03 1.410459232330322266e+01 2.620321464538574219e+01 -7.703599054366350174e-03 4.794934019446372986e-02 1.207372173666954041e-02 7.847691886126995087e-03
5.614000000000000000e+03 1.747618484497070312e+01 -2.602752685546875000e+01 2.211244106292724609e-01 -2.408760488033294678e-01 -5.925491917878389359e-03 -3.190739154815673828e-01
5.615000000000000000e+03 1.595657825469970703e+01 -2.920438003540039062e+01 2.185550332069396973e-01 -3.561930954456329346e-01 -4.129141569137573242e-02 -2.816710174083709717e-01
5.616000000000000000e+03 1.158967685699462891e+01 -2.195832633972167969e+01 1.599888801574707031e-01 -6.266753673553466797e-01 -1.400059461593627930e-01 -3.774928748607635498e-01
5.617000000000000000e+03 6.602540588378906250e+01 -1.624799919128417969e+01 1.079620122909545898e-01 3.991999626159667969e+00 1.229988574981689453e+00 3.093737959861755371e-01
5.618000000000000000e+03 5.536552429199218750e+01 -1.753713226318359375e+01 1.793011277914047241e-01 2.103184461593627930e+00 6.847457289695739746e-01 2.192383110523223877e-01
5.619000000000000000e+03 6.438405609130859375e+01 -5.103363037109375000e+00 2.553303241729736328e-01 3.696619749069213867e+00 1.185585021972656250e+00 4.989863634109497070e-01
5.620000000000000000e+03 6.589601135253906250e+01 -8.056885719299316406e+00 1.956520676612854004e-01 4.016088962554931641e+00 1.263522267341613770e+00 4.441398680210113525e-01
5.621000000000000000e+03 4.605709075927734375e+01 -1.880737113952636719e+01 1.476754099130630493e-01 5.403918027877807617e-01 2.064201682806015015e-01 7.537305355072021484e-02
5.622000000000000000e+03 5.216158676147460938e+01 -1.814472961425781250e+01 1.776099652051925659e-01 1.533663988113403320e+00 5.133821964263916016e-01 1.498608291149139404e-01
5.623000000000000000e+03 5.018141555786132812e+01 -1.569033527374267578e+01 2.684857249259948730e-01 1.176152944564819336e+00 4.333916008472442627e-01 1.369223594665527344e-01
5.624000000000000000e+03 6.446266174316406250e+01 -1.306873703002929688e+01 1.633578538894653320e-01 3.719183206558227539e+00 1.164762258529663086e+00 3.598673343658447266e-01
5.625000000000000000e+03 6.699404907226562500e+01 -1.356652355194091797e+01 1.216519251465797424e-01 4.199331283569335938e+00 1.296294927597045898e+00 3.388654887676239014e-01
5.626000000000000000e+03 5.427395629882812500e+01 -2.318219757080078125e+01 5.427438020706176758e-02 2.002352237701416016e+00 6.169879436492919922e-01 2.027034163475036621e-01
5.627000000000000000e+03 1.447119712829589844e+01 3.270394515991210938e+01 -8.510185405611991882e-03 2.580029331147670746e-02 5.187032278627157211e-03 4.342955071479082108e-03
5.628000000000000000e+03 1.478427600860595703e+01 2.832901573181152344e+01 -7.981865666806697845e-03 4.516517370939254761e-02 1.115499250590801239e-02 8.683975785970687866e-03
5.629000000000000000e+03 3.846752548217773438e+01 1.160418796539306641e+01 -9.132528305053710938e-01 -1.013682484626770020e+00 -5.780805945396423340e-01 -9.130632877349853516e-01
5.630000000000000000e+03 4.761781692504882812e+01 2.089051055908203125e+01 -9.169675707817077637e-01 -6.815381050109863281e-01 -4.795517027378082275e-01 -9.225595593452453613e-01
5.631000000000000000e+03 4.927142715454101562e+01 2.365472602844238281e+01 -1.096563935279846191e+00 -6.195090413093566895e-01 -5.148218870162963867e-01 -9.881806969642639160e-01
5.632000000000000000e+03 4.482954025268554688e+01 1.915130233764648438e+01 -9.164851903915405273e-01 -9.174986481666564941e-01 -5.501951575279235840e-01 -1.025430679321289062e+00
5.633000000000000000e+03 4.583663177490234375e+01 2.030963516235351562e+01 -9.658629894256591797e-01 -8.837407231330871582e-01 -5.548810958862304688e-01 -1.016518712043762207e+00
5.634000000000000000e+03 4.318828582763671875e+01 1.695970153808593750e+01 -8.724029660224914551e-01 -9.144603013992309570e-01 -5.360589623451232910e-01 -1.011023521423339844e+00
5.635000000000000000e+03 4.340852737426757812e+01 1.780293083190917969e+01 -9.063693284988403320e-01 -9.532749056816101074e-01 -5.578932762145996094e-01 -1.052656173706054688e+00
5.636000000000000000e+03 3.879372406005859375e+01 1.252637195587158203e+01 -9.392446875572204590e-01 -1.050777673721313477e+00 -5.970067381858825684e-01 -9.600682854652404785e-01
5.637000000000000000e+03 3.916616821289062500e+01 1.338115692138671875e+01 -9.595003724098205566e-01 -1.075007438659667969e+00 -6.103523373603820801e-01 -1.001027941703796387e+00
5.638000000000000000e+03 5.021836090087890625e+01 2.472708511352539062e+01 -1.138587832450866699e+00 -5.341366529464721680e-01 -5.018173456192016602e-01 -9.888183474540710449e-01
5.639000000000000000e+03 3.083522415161132812e+01 3.015513420104980469e+00 -1.300098776817321777e+00 -7.628238797187805176e-01 -6.188768148422241211e-01 -3.619735538959503174e-01
5.640000000000000000e+03 4.386964416503906250e+01 1.851789093017578125e+01 -9.224131703376770020e-01 -9.662514925003051758e-01 -5.665994286537170410e-01 -1.059995889663696289e+00
5.641000000000000000e+03 4.583017730712890625e+01 1.924684906005859375e+01 -8.607808351516723633e-01 -7.980808019638061523e-01 -4.976584911346435547e-01 -9.499209523200988770e-01
5.642000000000000000e+03 4.622086334228515625e+01 2.033896827697753906e+01 -9.451377987861633301e-01 -8.381038904190063477e-01 -5.349724888801574707e-01 -9.887592196464538574e-01
5.643000000000000000e+03 4.610390853881835938e+01 2.070740509033203125e+01 -9.843514561653137207e-01 -8.751435279846191406e-01 -5.578485131263732910e-01 -1.015477061271667480e+00
5.644000000000000000e+03 4.900849151611328125e+01 2.261649894714355469e+01 -1.003279209136962891e+00 -5.821225047111511230e-01 -4.756205081939697266e-01 -9.421513080596923828e-01
5.645000000000000000e+03 4.019825744628906250e+01 1.267687129974365234e+01 -8.418092727661132812e-01 -9.260790348052978516e-01 -5.303664803504943848e-01 -8.773576021194458008e-01
5.646000000000000000e+03 5.007234954833984375e+01 2.416561317443847656e+01 -1.086297512054443359e+00 -5.109453201293945312e-01 -4.791728556156158447e-01 -9.646461009979248047e-01
5.647000000000000000e+03 5.242898178100585938e+01 2.667530822753906250e+01 -1.237854599952697754e+00 -2.365903109312057495e-01 -4.423334896564483643e-01 -9.474284052848815918e-01
5.648000000000000000e+03 5.229043197631835938e+01 2.632859611511230469e+01 -1.202383995056152344e+00 -2.442062944173812866e-01 -4.339770972728729248e-01 -9.430435299873352051e-01
5.649000000000000000e+03 4.199043273925781250e+01 1.544202995300292969e+01 -8.719819784164428711e-01 -9.227527379989624023e-01 -5.384204387664794922e-01 -9.753917455673217773e-01
5.650000000000000000e+03 3.977569580078125000e+01 1.313280010223388672e+01 -8.941290378570556641e-01 -9.915568828582763672e-01 -5.657057762145996094e-01 -9.346102476119995117e-01
5.651000000000000000e+03 3.945792388916015625e+01 1.365318584442138672e+01 -9.583078622817993164e-01 -1.064051866531372070e+00 -6.067079305648803711e-01 -9.983621239662170410e-01
5.652000000000000000e+03 4.302950668334960938e+01 1.794947624206542969e+01 -9.363427758216857910e-01 -1.004310250282287598e+00 -5.821959376335144043e-01 -1.088890433311462402e+00
5.653000000000000000e+03 3.932318878173828125e+01 1.093613910675048828e+01 -8.070658445358276367e-01 -8.888342976570129395e-01 -5.087700486183166504e-01 -7.990270853042602539e-01
5.654000000000000000e+03 3.964665985107421875e+01 1.340408802032470703e+01 -9.300492405891418457e-01 -1.028993606567382812e+00 -5.877128839492797852e-01 -9.707008600234985352e-01
5.655000000000000000e+03 4.525911712646484375e+01 1.909662055969238281e+01 -8.839122653007507324e-01 -8.577094674110412598e-01 -5.224865078926086426e-01 -9.859669208526611328e-01
5.656000000000000000e+03 4.542499542236328125e+01 1.944603347778320312e+01 -9.060862660408020020e-01 -8.714364171028137207e-01 -5.332568287849426270e-01 -9.956141710281372070e-01
5.657000000000000000e+03 5.102297592163085938e+01 2.588592147827148438e+01 -1.200064897537231445e+00 -4.518126845359802246e-01 -4.955632984638214111e-01 -9.848227500915527344e-01
5.658000000000000000e+03 1.817486763000488281e+01 1.458408641815185547e+01 6.270149350166320801e-02 1.689868420362472534e-01 6.950650364160537720e-02 9.987130016088485718e-02
5.659000000000000000e+03 2.397491455078125000e+01 2.116025161743164062e+01 4.819286987185478210e-02 1.186036169528961182e-01 5.003894492983818054e-02 7.946860790252685547e-02
5.660000000000000000e+03 2.509951972961425781e+01 2.110754585266113281e+01 5.495600029826164246e-02 1.161070242524147034e-01 5.131890624761581421e-02 8.312658965587615967e-02
5.661000000000000000e+03 1.447056102752685547e+01 2.219945716857910156e+01 -2.276176586747169495e-03 7.651264220476150513e-02 2.227093838155269623e-02 1.753183826804161072e-02
5.662000000000000000e+03 1.924908638000488281e+01 1.646105003356933594e+01 5.475183203816413879e-02 1.507219821214675903e-01 6.164214387536048889e-02 8.985895663499832153e-02
5.663000000000000000e+03 5.487379455566406250e+01 2.522693061828613281e+01 -9.690444469451904297e-01 1.707111299037933350e-01 -2.394999861717224121e-01 -8.181129097938537598e-01
5.664000000000000000e+03 5.263633346557617188e+01 2.639085006713867188e+01 -1.195490121841430664e+00 -1.839678287506103516e-01 -4.138373732566833496e-01 -9.307985305786132812e-01
5.665000000000000000e+03 4.407230377197265625e+01 1.784024810791015625e+01 -8.621416091918945312e-01 -8.926184773445129395e-01 -5.264280438423156738e-01 -1.001149415969848633e+00
5.666000000000000000e+03 4.473019409179687500e+01 1.849869728088378906e+01 -8.730010986328125000e-01 -8.698783516883850098e-01 -5.228638052940368652e-01 -9.904655218124389648e-01
5.667000000000000000e+03 3.011256027221679688e+01 1.812060356140136719e+00 -1.029726386070251465e+00 -6.718221306800842285e-01 -5.104645490646362305e-01 -1.697829961776733398e-01
5.668000000000000000e+03 4.151077270507812500e+01 1.496640777587890625e+01 -8.827983736991882324e-01 -9.411802887916564941e-01 -5.471935868263244629e-01 -9.704983830451965332e-01
5.669000000000000000e+03 5.042726135253906250e+01 2.439964294433593750e+01 -1.088812828063964844e+00 -4.719525873661041260e-01 -4.682296216487884521e-01 -9.548151493072509766e-01
5.670000000000000000e+03 4.806646347045898438e+01 2.165808868408203125e+01 -9.647704958915710449e-01 -6.648764610290527344e-01 -4.888940751552581787e-01 -9.414364099502563477e-01
5.671000000000000000e+03 5.376795196533203125e+01 2.613217353820800781e+01 -1.132363200187683105e+00 5.832712166011333466e-03 -3.379591405391693115e-01 -8.906269073486328125e-01
5.672000000000000000e+03 4.516648483276367188e+01 1.873833274841308594e+01 -8.656644225120544434e-01 -8.418090343475341797e-01 -5.122420191764831543e-01 -9.726799726486206055e-01
5.673000000000000000e+03 5.094437026977539062e+01 2.474391174316406250e+01 -1.099343180656433105e+00 -4.071063697338104248e-01 -4.519348740577697754e-01 -9.428950548171997070e-01
5.674000000000000000e+03 5.141872024536132812e+01 2.527549934387207031e+01 -1.131886124610900879e+00 -3.537795841693878174e-01 -4.456997215747833252e-01 -9.419284462928771973e-01
5.675000000000000000e+03 5.236136245727539062e+01 2.585235023498535156e+01 -1.155203461647033691e+00 -2.146596610546112061e-01 -4.109589159488677979e-01 -9.239025115966796875e-01
5.676000000000000000e+03 4.444772338867187500e+01 1.807682037353515625e+01 -8.563265800476074219e-01 -8.727437853813171387e-01 -5.187211036682128906e-01 -9.897184967994689941e-01
5.677000000000000000e+03 3.990128707885742188e+01 1.356551551818847656e+01 -9.253610372543334961e-01 -1.018619418144226074e+00 -5.831941366195678711e-01 -9.642715454101562500e-01
5.678000000000000000e+03 2.032925987243652344e+01 1.877934646606445312e+01 4.276494681835174561e-02 1.337613612413406372e-01 5.295789241790771484e-02 7.835885882377624512e-02
5.679000000000000000e+03 4.281093215942382812e+01 1.680491828918457031e+01 -8.886641860008239746e-01 -9.381470680236816406e-01 -5.480433702468872070e-01 -1.024652719497680664e+00
5.680000000000000000e+03 3.754971694946289062e+01 1.078291416168212891e+01 -9.422842860221862793e-01 -1.030875563621520996e+00 -5.919479727745056152e-01 -9.148954749107360840e-01
5.681000000000000000e+03 3.829037857055664062e+01 1.111985683441162109e+01 -8.999176621437072754e-01 -9.912884831428527832e-01 -5.673618316650390625e-01 -8.835769295692443848e-01
5.682000000000000000e+03 2.429510307312011719e+01 2.160476112365722656e+01 4.645286872982978821e-02 1.163379177451133728e-01 4.883723706007003784e-02 7.804427295923233032e-02
5.683000000000000000e+03 2.437123489379882812e+01 2.080311775207519531e+01 5.313407629728317261e-02 1.191359534859657288e-01 5.168100818991661072e-02 8.313783258199691772e-02
5.684000000000000000e+03 1.919956398010253906e+01 1.737448501586914062e+01 4.492542892694473267e-02 1.439069658517837524e-01 5.664971843361854553e-02 8.090728521347045898e-02
5.685000000000000000e+03 4.200774383544921875e+01 1.498265552520751953e+01 -8.417272567749023438e-01 -8.932083249092102051e-01 -5.204806923866271973e-01 -9.382844567298889160e-01
5.686000000000000000e+03 4.159878158569335938e+01 1.449706172943115234e+01 -8.436431884765625000e-01 -9.008069038391113281e-01 -5.233350396156311035e-01 -9.262315630912780762e-01
5.687000000000000000e+03 3.034871482849121094e+01 1.338092803955078125e+00 -7.824878096580505371e-01 -7.191017270088195801e-01 -4.504768550395965576e-01 -1.270750761032104492e-01
5.688000000000000000e+03 4.852038574218750000e+01 2.166095542907714844e+01 -9.389603137969970703e-01 -5.996367335319519043e-01 -4.615791141986846924e-01 -9.131408929824829102e-01
5.689000000000000000e+03 4.772542572021484375e+01 2.120715522766113281e+01 -9.387953281402587891e-01 -6.835038661956787109e-01 -4.866897463798522949e-01 -9.352812170982360840e-01
5.690000000000000000e+03 3.813202285766601562e+01 1.060929870605468750e+01 -8.769497275352478027e-01 -9.682607650756835938e-01 -5.535631775856018066e-01 -8.528863191604614258e-01
5.691000000000000000e+03 1.965546035766601562e+01 1.783732032775878906e+01 4.492447525262832642e-02 1.398563534021377563e-01 5.543424561619758606e-02 8.100762218236923218e-02
5.692000000000000000e+03 1.957518386840820312e+01 1.863901710510253906e+01 3.814683854579925537e-02 1.348659992218017578e-01 5.190385505557060242e-02 7.444677501916885376e-02
5.693000000000000000e+03 1.356019592285156250e+01 1.085328674316406250e+01 4.985915496945381165e-02 2.280884683132171631e-01 8.338428288698196411e-02 5.281656235456466675e-02
5.694000000000000000e+03 2.210044288635253906e+01 1.928596305847167969e+01 5.181954428553581238e-02 1.293956637382507324e-01 5.436455830931663513e-02 8.444316685199737549e-02
5.695000000000000000e+03 1.322426414489746094e+01 1.281449699401855469e+01 3.286219015717506409e-02 1.706635802984237671e-01 6.105772778391838074e-02 3.697491809725761414e-02
5.696000000000000000e+03 2.001325607299804688e+01 1.831201362609863281e+01 4.453951120376586914e-02 1.369765102863311768e-01 5.445480719208717346e-02 7.960709929466247559e-02
5.697000000000000000e+03 3.648699569702148438e+01 8.847297668457031250e+00 -9.274031519889831543e-01 -9.641180634498596191e-01 -5.674563646316528320e-01 -8.282078504562377930e-01
5.698000000000000000e+03 3.699051284790039062e+01 9.381105422973632812e+00 -9.040223956108093262e-01 -9.673661589622497559e-01 -5.614165663719177246e-01 -8.332065939903259277e-01
5.699000000000000000e+03 2.299386978149414062e+01 1.970117378234863281e+01 5.387745797634124756e-02 1.257834881544113159e-01 5.389828234910964966e-02 8.537507802248001099e-02
5.700000000000000000e+03 3.492949295043945312e+01 6.732071876525878906e+00 -9.904999732971191406e-01 -8.869268298149108887e-01 -5.632280111312866211e-01 -7.420776486396789551e-01
5.701000000000000000e+03 3.677165985107421875e+01 9.048708915710449219e+00 -9.118040204048156738e-01 -9.554348587989807129e-01 -5.601716637611389160e-01 -8.203560709953308105e-01
5.702000000000000000e+03 3.669078445434570312e+01 8.538040161132812500e+00 -8.970442414283752441e-01 -9.233704805374145508e-01 -5.461244583129882812e-01 -7.839320302009582520e-01
5.703000000000000000e+03 3.608340454101562500e+01 8.735076904296875000e+00 -9.569102525711059570e-01 -9.854664802551269531e-01 -5.827130079269409180e-01 -8.476313948631286621e-01
5.704000000000000000e+03 1.250219535827636719e+01 9.728467941284179688e+00 5.966711044311523438e-02 2.357372790575027466e-01 8.862131834030151367e-02 1.700480282306671143e-02
5.705000000000000000e+03 1.509040737152099609e+01 1.235290241241455078e+01 4.951788857579231262e-02 2.037751972675323486e-01 7.598792761564254761e-02 8.009834587574005127e-02
5.706000000000000000e+03 1.563032913208007812e+01 1.272965908050537109e+01 5.182514712214469910e-02 1.978679746389389038e-01 7.490793615579605103e-02 8.660176396369934082e-02
5.707000000000000000e+03 1.667052459716796875e+01 1.345303916931152344e+01 5.673276633024215698e-02 1.861768513917922974e-01 7.287288457155227661e-02 9.527534246444702148e-02
5.708000000000000000e+03 1.351873683929443359e+01 1.187411403656005859e+01 3.863066062331199646e-02 1.985129714012145996e-01 7.114309072494506836e-02 4.722485691308975220e-02
5.709000000000000000e+03 2.951495742797851562e+01 1.826889395713806152e+00 -1.150337338447570801e+00 -6.777068972587585449e-01 -5.484132766723632812e-01 -2.193342298269271851e-01
5.710000000000000000e+03 1.687446594238281250e+01 1.435230445861816406e+01 5.069134011864662170e-02 1.740369051694869995e-01 6.741847097873687744e-02 8.848183602094650269e-02
5.711000000000000000e+03 2.297155189514160156e+01 2.022148895263671875e+01 4.958522319793701172e-02 1.242611557245254517e-01 5.215391144156455994e-02 8.185120671987533569e-02
5.712000000000000000e+03 1.615651321411132812e+01 1.309842872619628906e+01 5.424525216221809387e-02 1.919692009687423706e-01 7.386433333158493042e-02 9.154690802097320557e-02
5.713000000000000000e+03 1.592361068725585938e+01 1.419109821319580078e+01 4.123741760849952698e-02 1.746798157691955566e-01 6.477516889572143555e-02 7.623455673456192017e-02
5.714000000000000000e+03 2.937522697448730469e+01 1.052941799163818359e+00 -8.216514587402343750e-01 -6.546396017074584961e-01 -4.428873062133789062e-01 -1.420935690402984619e-01
5.715000000000000000e+03 2.988093757629394531e+01 1.151507377624511719e+00 -7.710711359977722168e-01 -6.323831677436828613e-01 -4.210363030433654785e-01 -8.564827591180801392e-02
5.716000000000000000e+03 4.740921020507812500e+01 2.111594390869140625e+01 -9.516272544860839844e-01 -7.249696850776672363e-01 -5.029790997505187988e-01 -9.479038715362548828e-01
5.717000000000000000e+03 2.513642883300781250e+01 2.169852066040039062e+01 4.990538209676742554e-02 1.146953031420707703e-01 4.938020557165145874e-02 8.013710379600524902e-02
5.718000000000000000e+03 2.469625282287597656e+01 2.342439651489257812e+01 3.735699132084846497e-02 1.102326661348342896e-01 4.427689686417579651e-02 7.000494003295898438e-02
5.719000000000000000e+03 1.094116592407226562e+01 8.384063720703125000e+00 1.061636582016944885e-01 1.663879156112670898e-01 8.176547288894653320e-02 -4.247134923934936523e-02
5.720000000000000000e+03 1.168922901153564453e+01 8.823273658752441406e+00 7.860697805881500244e-02 2.175898551940917969e-01 8.885905146598815918e-02 -1.787539944052696228e-02
5.721000000000000000e+03 5.386183547973632812e+01 2.674062347412109375e+01 -1.195021271705627441e+00 8.500112220644950867e-03 -3.559563457965850830e-01 -9.122566580772399902e-01
5.722000000000000000e+03 3.614022064208984375e+01 7.730585575103759766e+00 -9.080445766448974609e-01 -8.991684913635253906e-01 -5.421639084815979004e-01 -7.516390681266784668e-01
5.723000000000000000e+03 3.566304016113281250e+01 6.992731571197509766e+00 -9.328931570053100586e-01 -8.610654473304748535e-01 -5.381875634193420410e-01 -7.083324790000915527e-01
5.724000000000000000e+03 7.150947570800781250e+01 2.740786361694335938e+01 -5.842075943946838379e-01 6.231830120086669922e+00 1.694286704063415527e+00 2.457873821258544922e+00
5.725000000000000000e+03 3.218261337280273438e+01 -1.299022883176803589e-01 -1.521023213863372803e-01 -6.841253042221069336e-01 -2.508682906627655029e-01 3.913129493594169617e-02
5.726000000000000000e+03 3.339510726928710938e+01 3.176750183105468750e+00 -8.773363828659057617e-01 -7.017563581466674805e-01 -4.737278223037719727e-01 -2.982588112354278564e-01
5.727000000000000000e+03 6.834885406494140625e+01 2.535404396057128906e+01 1.107692196965217590e-01 3.328576564788818359e+00 1.031803727149963379e+00 1.422620058059692383e+00
5.728000000000000000e+03 5.518248748779296875e+01 2.667131233215332031e+01 -1.137680530548095703e+00 1.795558035373687744e-01 -2.874374091625213623e-01 -8.891179561614990234e-01
5.729000000000000000e+03 5.473978805541992188e+01 2.660603713989257812e+01 -1.147165417671203613e+00 1.266914606094360352e-01 -3.061422109603881836e-01 -8.929333090782165527e-01
5.730000000000000000e+03 3.285802078247070312e+01 3.719666242599487305e+00 -1.069327354431152344e+00 -7.321525216102600098e-01 -5.404440164566040039e-01 -4.118298888206481934e-01
5.731000000000000000e+03 2.745687294006347656e+01 2.666268348693847656e+01 3.513495624065399170e-02 9.725216031074523926e-02 3.971613571047782898e-02 6.362851709127426147e-02
5.732000000000000000e+03 2.563108253479003906e+01 2.580570983886718750e+01 3.026165813207626343e-02 1.013602167367935181e-01 3.948656097054481506e-02 6.226593255996704102e-02
5.733000000000000000e+03 3.397761535644531250e+01 5.172674655914306641e+00 -1.032297372817993164e+00 -7.832986712455749512e-01 -5.446788072586059570e-01 -5.947117209434509277e-01
5.734000000000000000e+03 3.541011428833007812e+01 6.781435489654541016e+00 -9.280231595039367676e-01 -8.656085133552551270e-01 -5.380895137786865234e-01 -7.058699727058410645e-01
5.735000000000000000e+03 7.036903381347656250e+01 2.714690971374511719e+01 -2.430292069911956787e-01 4.693890094757080078e+00 1.335258364677429199e+00 2.169529676437377930e+00
5.736000000000000000e+03 7.066741180419921875e+01 2.675378799438476562e+01 -3.041908740997314453e-01 5.160349369049072266e+00 1.456847548484802246e+00 2.148972511291503906e+00
5.737000000000000000e+03 3.236768722534179688e+01 5.102716684341430664e-01 -3.360137045383453369e-01 -6.987256407737731934e-01 -3.104217946529388428e-01 1.053076609969139099e-02
5.738000000000000000e+03 3.476215362548828125e+01 -8.591438531875610352e-01 9.766680747270584106e-02 -6.535407900810241699e-01 -1.667622029781341553e-01 5.187389999628067017e-02
5.739000000000000000e+03 3.402574157714843750e+01 4.647249221801757812e+00 -9.869057536125183105e-01 -7.548012137413024902e-01 -5.225120782852172852e-01 -5.188565850257873535e-01
5.740000000000000000e+03 3.178473663330078125e+01 2.328546762466430664e+00 -9.110956192016601562e-01 -6.910954713821411133e-01 -4.806573390960693359e-01 -1.932944506406784058e-01
5.741000000000000000e+03 3.232849502563476562e+01 2.753482341766357422e+00 -9.368482828140258789e-01 -6.974366307258605957e-01 -4.902854859828948975e-01 -2.498728632926940918e-01
5.742000000000000000e+03 2.648383331298828125e+01 2.630389595031738281e+01 3.207518532872200012e-02 9.921617805957794189e-02 3.938740864396095276e-02 6.243663281202316284e-02
5.743000000000000000e+03 2.173116111755371094e+01 1.933856964111328125e+01 4.848440736532211304e-02 1.301939487457275391e-01 5.360350757837295532e-02 8.238058537244796753e-02
5.744000000000000000e+03 1.858359336853027344e+01 1.551350498199462891e+01 5.738655477762222290e-02 1.589001268148422241e-01 6.488600373268127441e-02 9.340669214725494385e-02
5.745000000000000000e+03 1.893947219848632812e+01 1.526074409484863281e+01 6.305219233036041260e-02 1.600584983825683594e-01 6.693320721387863159e-02 9.904137253761291504e-02
5.746000000000000000e+03 2.501115226745605469e+01 2.592311859130859375e+01 2.654639631509780884e-02 1.017498522996902466e-01 3.848887234926223755e-02 5.993098765611648560e-02
5.747000000000000000e+03 3.051744079589843750e+01 8.346133232116699219e-01 -5.675567388534545898e-01 -6.432042121887207031e-01 -3.632282912731170654e-01 -3.266962617635726929e-02
5.748000000000000000e+03 3.286130142211914062e+01 2.695834875106811523e+00 -8.553127050399780273e-01 -6.990720033645629883e-01 -4.663154184818267822e-01 -2.373142838478088379e-01
5.749000000000000000e+03 2.181471633911132812e+01 1.980112075805664062e+01 4.490889236330986023e-02 1.271963566541671753e-01 5.163157358765602112e-02 7.924985140562057495e-02
5.750000000000000000e+03 5.296355438232421875e+01 2.660639381408691406e+01 -1.212828040122985840e+00 -1.342469006776809692e-01 -4.041225016117095947e-01 -9.269026517868041992e-01
5.751000000000000000e+03 5.016989135742187500e+01 2.362772750854492188e+01 -1.033293485641479492e+00 -4.683058559894561768e-01 -4.504798054695129395e-01 -9.304890632629394531e-01
5.752000000000000000e+03 5.572874069213867188e+01 2.616666221618652344e+01 -1.036518692970275879e+00 2.501001060009002686e-01 -2.359255850315093994e-01 -8.494261503219604492e-01
5.753000000000000000e+03 5.643245697021484375e+01 2.490361785888671875e+01 -8.098188638687133789e-01 3.657012283802032471e-01 -1.332352906465530396e-01 -7.331410646438598633e-01
5.754000000000000000e+03 6.410758209228515625e+01 2.393592643737792969e+01 7.508511841297149658e-02 1.617456078529357910e+00 5.077623724937438965e-01 3.363783657550811768e-01
5.755000000000000000e+03 6.681201171875000000e+01 2.312555694580078125e+01 2.653362452983856201e-01 2.930392980575561523e+00 9.587187767028808594e-01 9.898672103881835938e-01
5.756000000000000000e+03 4.898830032348632812e+01 2.210251235961914062e+01 -9.527767896652221680e-01 -5.551665425300598145e-01 -4.523830115795135498e-01 -9.121748805046081543e-01
5.757000000000000000e+03 1.762645721435546875e+01 1.544549751281738281e+01 4.779420047998428345e-02 1.616800874471664429e-01 6.284228712320327759e-02 8.511683344841003418e-02
5.758000000000000000e+03 5.855375671386718750e+01 2.497060585021972656e+01 -6.319156885147094727e-01 5.760153532028198242e-01 -1.677010022103786469e-02 -6.022137403488159180e-01
5.759000000000000000e+03 3.512058258056640625e+01 -4.812647104263305664e-01 2.806766144931316376e-02 -6.485663056373596191e-01 -1.861495822668075562e-01 5.102460458874702454e-02
5.760000000000000000e+03 3.395054626464843750e+01 4.144116878509521484e+00 -9.300421476364135742e-01 -7.193403840065002441e-01 -4.948147535324096680e-01 -4.245153665542602539e-01
5.761000000000000000e+03 3.335518264770507812e+01 -5.543918013572692871e-01 -7.562131155282258987e-03 -6.844832897186279297e-01 -2.076136320829391479e-01 5.722945928573608398e-02
5.762000000000000000e+03 2.576882362365722656e+01 2.245429611206054688e+01 4.827061668038368225e-02 1.111888810992240906e-01 4.783784970641136169e-02 7.798326015472412109e-02
5.763000000000000000e+03 6.021638107299804688e+01 2.364818382263183594e+01 -2.656415402889251709e-01 9.140439629554748535e-01 1.945207118988037109e-01 -2.917765378952026367e-01
5.764000000000000000e+03 5.958415222167968750e+01 2.450514793395996094e+01 -4.597522914409637451e-01 7.313497662544250488e-01 8.147923648357391357e-02 -4.559875726699829102e-01
5.765000000000000000e+03 6.698366546630859375e+01 2.486778640747070312e+01 1.557727754116058350e-01 2.613038063049316406e+00 8.306432366371154785e-01 1.023342728614807129e+00
5.766000000000000000e+03 6.967439270019531250e+01 2.489980888366699219e+01 2.309504523873329163e-02 4.512485504150390625e+00 1.360674142837524414e+00 1.655681133270263672e+00
5.767000000000000000e+03 3.282696151733398438e+01 1.161960244178771973e+00 -4.690051972866058350e-01 -6.703435182571411133e-01 -3.418046236038208008e-01 -4.086091741919517517e-02
5.768000000000000000e+03 6.623820495605468750e+01 2.123748970031738281e+01 3.412042558193206787e-01 3.017008066177368164e+00 1.007463693618774414e+00 8.995442390441894531e-01
5.769000000000000000e+03 5.809712600708007812e+01 2.492358398437500000e+01 -6.672851443290710449e-01 5.425196290016174316e-01 -3.742964938282966614e-02 -6.362099051475524902e-01
5.770000000000000000e+03 5.790516662597656250e+01 2.537719345092773438e+01 -7.489812374114990234e-01 4.886410832405090332e-01 -7.810203731060028076e-02 -6.888395547866821289e-01
5.771000000000000000e+03 6.199897384643554688e+01 2.380985832214355469e+01 -1.090533286333084106e-01 1.182112216949462891e+00 3.219176828861236572e-01 -5.811470746994018555e-02
5.772000000000000000e+03 6.271482467651367188e+01 2.416127014160156250e+01 -7.819005101919174194e-02 1.251305937767028809e+00 3.519347906112670898e-01 3.981554508209228516e-02
5.773000000000000000e+03 7.052194976806640625e+01 2.525488853454589844e+01 -1.248459517955780029e-01 5.240433692932128906e+00 1.534676313400268555e+00 1.799531698226928711e+00
5.774000000000000000e+03 6.244208908081054688e+01 2.358817291259765625e+01 -2.250793203711509705e-02 1.305759668350219727e+00 3.849755227565765381e-01 4.681294411420822144e-02
5.775000000000000000e+03 6.319432449340820312e+01 2.449198532104492188e+01 -7.362387329339981079e-02 1.308566689491271973e+00 3.704828321933746338e-01 1.142612993717193604e-01
5.776000000000000000e+03 1.214178657531738281e+01 1.353402519226074219e+01 2.515390329062938690e-02 1.331042647361755371e-01 4.747745022177696228e-02 1.642540656030178070e-02
5.777000000000000000e+03 5.560238647460937500e+01 2.499049568176269531e+01 -8.728656768798828125e-01 2.784698903560638428e-01 -1.783187389373779297e-01 -7.722034454345703125e-01
5.778000000000000000e+03 6.020276641845703125e+01 2.436756515502929688e+01 -3.765223324298858643e-01 8.137302994728088379e-01 1.311623752117156982e-01 -3.795334696769714355e-01
5.779000000000000000e+03 1.135230159759521484e+01 1.260021972656250000e+01 3.214818239212036133e-02 1.253189295530319214e-01 4.724013432860374451e-02 4.490615800023078918e-03
5.780000000000000000e+03 1.109918785095214844e+01 1.107469272613525391e+01 5.137945339083671570e-02 1.405875235795974731e-01 5.759009346365928650e-02 -8.173814974725246429e-03
5.781000000000000000e+03 1.283062362670898438e+01 1.445116043090820312e+01 2.101250737905502319e-02 1.366362720727920532e-01 4.729463532567024231e-02 2.465436235070228577e-02
5.782000000000000000e+03 1.233353614807128906e+01 1.460995769500732422e+01 1.805883646011352539e-02 1.214024722576141357e-01 4.183839261531829834e-02 1.882065087556838989e-02
5.783000000000000000e+03 1.306183242797851562e+01 2.034746932983398438e+01 -2.099740784615278244e-03 7.249985635280609131e-02 2.112003415822982788e-02 1.123574003577232361e-02
5.784000000000000000e+03 1.283211517333984375e+01 1.694044303894042969e+01 8.172378875315189362e-03 1.018672585487365723e-01 3.301189094781875610e-02 1.693986542522907257e-02
5.785000000000000000e+03 6.732246398925781250e+01 2.192328453063964844e+01 3.111542761325836182e-01 3.421805620193481445e+00 1.119887948036193848e+00 1.081665396690368652e+00
5.786000000000000000e+03 1.057920265197753906e+01 9.822721481323242188e+00 7.769366353750228882e-02 1.290037035942077637e-01 6.200920790433883667e-02 -2.640730701386928558e-02
5.787000000000000000e+03 6.457942199707031250e+01 2.344143390655517578e+00 3.151753544807434082e-01 3.674080848693847656e+00 1.196776866912841797e+00 6.505310535430908203e-01
5.788000000000000000e+03 6.331352615356445312e+01 -1.413486242294311523e+00 3.131037056446075439e-01 3.426301717758178711e+00 1.121821641921997070e+00 5.642529726028442383e-01
5.789000000000000000e+03 2.556706809997558594e+01 2.377645492553710938e+01 3.955020755529403687e-02 1.080000847578048706e-01 4.426508769392967224e-02 7.109221071004867554e-02
5.790000000000000000e+03 3.688351821899414062e+01 -1.916381120681762695e+00 2.858259379863739014e-01 -5.893582701683044434e-01 -9.105969965457916260e-02 6.178001314401626587e-02
5.791000000000000000e+03 6.606840515136718750e+01 4.915510177612304688e+00 3.129572272300720215e-01 4.037743568420410156e+00 1.305210232734680176e+00 7.205075621604919434e-01
5.792000000000000000e+03 1.108606338500976562e+01 9.000492095947265625e+00 8.739750832319259644e-02 1.737149357795715332e-01 7.833373546600341797e-02 -2.977509424090385437e-02
5.793000000000000000e+03 1.676280021667480469e+01 1.390774154663085938e+01 5.282675102353096008e-02 1.801183521747589111e-01 6.988353282213211060e-02 9.168683737516403198e-02
5.794000000000000000e+03 6.947363281250000000e+01 2.412466049194335938e+01 8.164415508508682251e-02 4.414011001586914062e+00 1.348696589469909668e+00 1.546136498451232910e+00
5.795000000000000000e+03 1.800178337097167969e+01 1.526912403106689453e+01 5.419589951634407043e-02 1.623667180538177490e-01 6.496878713369369507e-02 9.078481048345565796e-02
5.796000000000000000e+03 1.273790550231933594e+01 1.631680679321289062e+01 9.727220982313156128e-03 1.079653948545455933e-01 3.530778363347053528e-02 1.790967211127281189e-02
5.797000000000000000e+03 1.342866325378417969e+01 1.951661872863769531e+01 1.206293934956192970e-03 8.522353321313858032e-02 2.592894621193408966e-02 1.617503166198730469e-02
5.798000000000000000e+03 6.707479095458984375e+01 2.098512077331542969e+01 3.396361470222473145e-01 3.449966192245483398e+00 1.136880755424499512e+00 1.020518779754638672e+00
5.799000000000000000e+03 6.815064239501953125e+01 2.169157409667968750e+01 2.905009090900421143e-01 3.907969951629638672e+00 1.259541273117065430e+00 1.195740938186645508e+00
5.800000000000000000e+03 4.012544250488281250e+01 -4.140861034393310547e+00 4.569895863533020020e-01 -3.526888787746429443e-01 3.129021078348159790e-02 7.652566581964492798e-02
5.801000000000000000e+03 3.897480773925781250e+01 -4.174913883209228516e+00 4.720329344272613525e-01 -4.460453987121582031e-01 7.796253077685832977e-03 6.557060033082962036e-02
5.802000000000000000e+03 6.525159454345703125e+01 3.063420295715332031e+00 3.161220550537109375e-01 3.845160484313964844e+00 1.248384714126586914e+00 6.730164289474487305e-01
5.803000000000000000e+03 6.716442871093750000e+01 1.401567363739013672e+01 3.950466811656951904e-01 4.120952129364013672e+00 1.354799628257751465e+00 9.231136441230773926e-01
5.804000000000000000e+03 6.748760986328125000e+01 1.580485343933105469e+01 3.890011608600616455e-01 4.145746231079101562e+00 1.360424280166625977e+00 9.840108156204223633e-01
5.805000000000000000e+03 6.876339721679687500e+01 1.668678283691406250e+01 3.619804382324218750e-01 4.633651256561279297e+00 1.498689532279968262e+00 1.058501839637756348e+00
5.806000000000000000e+03 2.934629631042480469e+01 3.363611602783203125e+01 3.041213005781173706e-02 8.273068070411682129e-02 3.394284471869468689e-02 3.864705935120582581e-02
5.807000000000000000e+03 2.976772689819335938e+01 3.017170143127441406e+01 3.527962043881416321e-02 8.780492842197418213e-02 3.692536428570747375e-02 5.367783829569816589e-02
5.808000000000000000e+03 6.740171051025390625e+01 4.099110603332519531e+00 2.770001292228698730e-01 4.392799377441406250e+00 1.400939822196960449e+00 7.140994668006896973e-01
5.809000000000000000e+03 2.785810852050781250e+01 2.732224082946777344e+01 3.458294644951820374e-02 9.541860222816467285e-02 3.900046274065971375e-02 6.195865198969841003e-02
5.810000000000000000e+03 2.676701927185058594e+01 2.706554985046386719e+01 3.042940981686115265e-02 9.670388698577880859e-02 3.813999146223068237e-02 6.027866154909133911e-02
5.811000000000000000e+03 6.521784210205078125e+01 4.963200539350509644e-02 2.887448370456695557e-01 3.858140468597412109e+00 1.244065523147583008e+00 6.123179793357849121e-01
5.812000000000000000e+03 6.600132751464843750e+01 2.029194831848144531e+01 3.567886054515838623e-01 3.057093620300292969e+00 1.024164676666259766e+00 8.677667975425720215e-01
5.813000000000000000e+03 6.709958648681640625e+01 1.303792285919189453e+01 3.697070479393005371e-01 4.124336242675781250e+00 1.348213076591491699e+00 8.940463662147521973e-01
5.814000000000000000e+03 6.402667999267578125e+01 -2.376722812652587891e+00 2.904979288578033447e-01 3.598158597946166992e+00 1.166596889495849609e+00 5.520319342613220215e-01
5.815000000000000000e+03 6.473931884765625000e+01 -3.355669021606445312e+00 2.640117406845092773e-01 3.765570163726806641e+00 1.208874583244323730e+00 5.377387404441833496e-01
5.816000000000000000e+03 1.619453239440917969e+01 2.425177955627441406e+01 -1.853914465755224228e-03 7.870004326105117798e-02 2.305383980274200439e-02 2.332429401576519012e-02
5.817000000000000000e+03 4.633045196533203125e+01 -1.293023014068603516e+01 3.850676417350769043e-01 5.198515057563781738e-01 2.714757323265075684e-01 8.334886282682418823e-02
5.818000000000000000e+03 4.791977691650390625e+01 -1.271850872039794922e+01 3.754727542400360107e-01 7.550334334373474121e-01 3.391518592834472656e-01 1.043003574013710022e-01
5.819000000000000000e+03 2.868818283081054688e+01 2.904207611083984375e+01 3.339727222919464111e-02 9.155116230249404907e-02 3.748453035950660706e-02 5.672304704785346985e-02
5.820000000000000000e+03 3.134299659729003906e+01 3.090610122680664062e+01 4.118955507874488831e-02 8.521425724029541016e-02 3.792114183306694031e-02 5.313968285918235779e-02
5.821000000000000000e+03 6.532514190673828125e+01 1.001568794250488281e+01 3.841038644313812256e-01 3.673913717269897461e+00 1.217405200004577637e+00 7.811127305030822754e-01
5.822000000000000000e+03 6.682232666015625000e+01 8.628268241882324219e+00 3.413616120815277100e-01 4.198569297790527344e+00 1.361979246139526367e+00 8.063701391220092773e-01
5.823000000000000000e+03 4.724681854248046875e+01 -1.629148292541503906e+01 2.604122459888458252e-01 7.013154029846191406e-01 2.885183095932006836e-01 8.391541987657546997e-02
5.824000000000000000e+03 6.434881591796875000e+01 -8.483966827392578125e+00 2.188930511474609375e-01 3.712929248809814453e+00 1.179546713829040527e+00 4.375402033329010010e-01
5.825000000000000000e+03 6.690689849853515625e+01 -7.797879695892333984e+00 1.726095825433731079e-01 4.216605663299560547e+00 1.316764593124389648e+00 4.334321618080139160e-01
5.826000000000000000e+03 4.180912399291992188e+01 -4.965102672576904297e+00 4.919196963310241699e-01 -1.873392760753631592e-01 9.137412160634994507e-02 8.080531656742095947e-02
5.827000000000000000e+03 4.110112380981445312e+01 -5.385060310363769531e+00 5.029982924461364746e-01 -2.518424689769744873e-01 7.534675300121307373e-02 7.850904762744903564e-02
5.828000000000000000e+03 4.510419845581054688e+01 -9.389989852905273438e+00 4.748055934906005859e-01 2.757468223571777344e-01 2.251657247543334961e-01 9.027555584907531738e-02
5.829000000000000000e+03 1.198320960998535156e+01 1.862549018859863281e+01 1.416478335158899426e-04 7.136398553848266602e-02 2.145169116556644440e-02 5.106475669890642166e-03
5.830000000000000000e+03 4.359423065185546875e+01 -6.188143730163574219e+00 4.952233731746673584e-01 2.419863827526569366e-02 1.558265984058380127e-01 1.018512696027755737e-01
5.831000000000000000e+03 1.484149551391601562e+01 2.116841697692871094e+01 6.523933843709528446e-04 8.787798881530761719e-02 2.655911445617675781e-02 2.331659384071826935e-02
5.832000000000000000e+03 4.970766448974609375e+01 -1.696933746337890625e+01 2.203370928764343262e-01 1.116918921470642090e+00 4.011768102645874023e-01 1.120789349079132080e-01
5.833000000000000000e+03 4.814205551147460938e+01 -1.566727924346923828e+01 2.776619195938110352e-01 8.242943286895751953e-01 3.305868506431579590e-01 9.571429342031478882e-02
5.834000000000000000e+03 1.585164070129394531e+01 2.551090621948242188e+01 -4.246012773364782333e-03 6.874264031648635864e-02 1.934898830950260162e-02 1.829523593187332153e-02
5.835000000000000000e+03 6.353326797485351562e+01 -1.364719200134277344e+01 1.723899841308593750e-01 3.548046588897705078e+00 1.116130948066711426e+00 3.525888025760650635e-01
5.836000000000000000e+03 6.628865051269531250e+01 -1.477085399627685547e+01 1.209301948547363281e-01 4.048538684844970703e+00 1.250840663909912109e+00 3.275857269763946533e-01
5.837000000000000000e+03 6.607389068603515625e+01 -9.319229125976562500e+00 1.791639477014541626e-01 4.050219535827636719e+00 1.268815040588378906e+00 4.161745905876159668e-01
5.838000000000000000e+03 4.312994384765625000e+01 -5.189769744873046875e+00 4.847653210163116455e-01 -4.470310360193252563e-02 1.320186704397201538e-01 9.959624707698822021e-02
5.839000000000000000e+03 6.417536163330078125e+01 -1.492552375793457031e+01 1.436990648508071899e-01 3.676122426986694336e+00 1.145946383476257324e+00 3.318541347980499268e-01
5.840000000000000000e+03 6.733108520507812500e+01 -1.519859218597412109e+01 9.907669574022293091e-02 4.254454612731933594e+00 1.306059360504150391e+00 3.076159656047821045e-01
5.841000000000000000e+03 3.076882743835449219e+01 3.529880905151367188e+01 3.715885803103446960e-02 7.884333282709121704e-02 3.480065613985061646e-02 3.485374525189399719e-02
5.842000000000000000e+03 1.153199672698974609e+01 -3.027796745300292969e+01 1.352670490741729736e-01 -6.696715354919433594e-01 -1.603213399648666382e-01 -2.315293103456497192e-01
5.843000000000000000e+03 1.350047588348388672e+01 -2.524273300170898438e+01 1.915287226438522339e-01 -5.160886049270629883e-01 -9.736796468496322632e-02 -3.191497921943664551e-01
5.844000000000000000e+03 5.086554718017578125e+01 -1.757317352294921875e+01 2.052812874317169189e-01 1.320251107215881348e+00 4.576596915721893311e-01 1.423254311084747314e-01
5.845000000000000000e+03 5.178388214111328125e+01 -2.849885559082031250e+01 -4.426874220371246338e-02 1.619593858718872070e+00 4.725975394248962402e-01 2.605574429035186768e-01
5.846000000000000000e+03 4.998518371582031250e+01 -3.205600357055664062e+01 1.949204318225383759e-02 1.373351573944091797e+00 4.178530871868133545e-01 3.648298084735870361e-01
5.847000000000000000e+03 6.333136749267578125e+01 -5.886335849761962891e+00 2.648918926715850830e-01 3.459387063980102539e+00 1.117283701896667480e+00 4.818864166736602783e-01
5.848000000000000000e+03 6.506944274902343750e+01 -6.089803695678710938e+00 2.273126691579818726e-01 3.838939905166625977e+00 1.219875812530517578e+00 4.833900034427642822e-01
5.849000000000000000e+03 5.654054260253906250e+01 -1.953812026977539062e+01 1.292010694742202759e-01 2.328115701675415039e+00 7.371950149536132812e-01 2.297567725181579590e-01
5.850000000000000000e+03 5.091862869262695312e+01 -2.538234710693359375e+01 -2.837094478309154510e-02 1.435832381248474121e+00 4.222384095191955566e-01 1.769520938396453857e-01
5.851000000000000000e+03 4.977220916748046875e+01 -2.724854660034179688e+01 -9.642867743968963623e-02 1.281052350997924805e+00 3.553870916366577148e-01 2.023585438728332520e-01
5.852000000000000000e+03 6.424228668212890625e+01 -2.646814727783203125e+01 6.915958970785140991e-02 3.634060859680175781e+00 1.110966086387634277e+00 2.436788231134414673e-01
5.853000000000000000e+03 6.277340316772460938e+01 -2.275184059143066406e+01 7.928034663200378418e-02 3.418726921081542969e+00 1.049402236938476562e+00 2.693713903427124023e-01
5.854000000000000000e+03 6.393323135375976562e+01 -1.104618549346923828e+01 1.974888741970062256e-01 3.594325542449951172e+00 1.137544393539428711e+00 3.899461328983306885e-01
5.855000000000000000e+03 4.297756958007812500e+01 1.637627220153808594e+01 -8.496879935264587402e-01 -8.888832926750183105e-01 -5.215713977813720703e-01 -9.790667891502380371e-01
5.856000000000000000e+03 4.652317428588867188e+01 1.941176414489746094e+01 -8.406031131744384766e-01 -7.285161018371582031e-01 -4.707357585430145264e-01 -9.128136634826660156e-01
5.857000000000000000e+03 4.605287551879882812e+01 1.956008338928222656e+01 -8.780105113983154297e-01 -7.973448634147644043e-01 -5.026066303253173828e-01 -9.533361196517944336e-01
5.858000000000000000e+03 4.668862533569335938e+01 2.032716178894042969e+01 -9.139326214790344238e-01 -7.719844579696655273e-01 -5.057751536369323730e-01 -9.553639292716979980e-01
5.859000000000000000e+03 4.118080902099609375e+01 1.440205478668212891e+01 -8.682355880737304688e-01 -9.358293414115905762e-01 -5.412194728851318359e-01 -9.457018375396728516e-01
5.860000000000000000e+03 3.975914382934570312e+01 1.275624370574951172e+01 -8.793597817420959473e-01 -9.701756834983825684e-01 -5.548606514930725098e-01 -9.117361903190612793e-01
5.861000000000000000e+03 5.054263687133789062e+01 2.477500343322753906e+01 -1.120013952255249023e+00 -4.700616300106048584e-01 -4.770226776599884033e-01 -9.686579704284667969e-01
5.862000000000000000e+03 5.278772354125976562e+01 2.598834037780761719e+01 -1.155275464057922363e+00 -1.459307521581649780e-01 -3.903618752956390381e-01 -9.152485728263854980e-01
5.863000000000000000e+03 4.565268707275390625e+01 1.895998382568359375e+01 -8.541839718818664551e-01 -8.051881194114685059e-01 -4.978116154670715332e-01 -9.468832015991210938e-01
5.864000000000000000e+03 4.042329788208007812e+01 1.413010215759277344e+01 -9.143070578575134277e-01 -9.956249594688415527e-01 -5.729796290397644043e-01 -9.738277792930603027e-01
5.865000000000000000e+03 4.897838973999023438e+01 2.161926078796386719e+01 -9.048675894737243652e-01 -5.256056189537048340e-01 -4.291419684886932373e-01 -8.810794353485107422e-01
5.866000000000000000e+03 4.079133987426757812e+01 1.426688861846923828e+01 -8.917789459228515625e-01 -9.686013460159301758e-01 -5.581141114234924316e-01 -9.587333798408508301e-01
5.867000000000000000e+03 4.482099914550781250e+01 1.822620391845703125e+01 -8.405414223670959473e-01 -8.454177975654602051e-01 -5.057877302169799805e-01 -9.683945775032043457e-01
5.868000000000000000e+03 4.270730590820312500e+01 1.714070892333984375e+01 -9.141887426376342773e-01 -9.707480669021606445e-01 -5.654810667037963867e-01 -1.055189132690429688e+00
5.869000000000000000e+03 5.194173812866210938e+01 2.527395629882812500e+01 -1.108969211578369141e+00 -2.610676586627960205e-01 -4.110110700130462646e-01 -9.186323285102844238e-01
5.870000000000000000e+03 1.267593669891357422e+01 1.021369171142578125e+01 5.147941410541534424e-02 2.252562642097473145e-01 8.302070200443267822e-02 2.666477486491203308e-02
5.871000000000000000e+03 1.874323654174804688e+01 1.685642623901367188e+01 4.541670531034469604e-02 1.476338058710098267e-01 5.791515111923217773e-02 8.232270926237106323e-02
5.872000000000000000e+03 3.907523345947265625e+01 1.195419597625732422e+01 -8.842530250549316406e-01 -9.832763075828552246e-01 -5.602588057518005371e-01 -8.965578079223632812e-01
5.873000000000000000e+03 1.937129402160644531e+01 1.947488403320312500e+01 3.101498074829578400e-02 1.289710551500320435e-01 4.799581319093704224e-02 6.724061071872711182e-02
5.874000000000000000e+03 5.476176452636718750e+01 2.611466217041015625e+01 -1.081873059272766113e+00 1.383061856031417847e-01 -2.830700576305389404e-01 -8.686380386352539062e-01
5.875000000000000000e+03 4.472233200073242188e+01 1.773969841003417969e+01 -8.112292289733886719e-01 -8.147497177124023438e-01 -4.877936840057373047e-01 -9.442087411880493164e-01
5.876000000000000000e+03 4.602232360839843750e+01 1.893832969665527344e+01 -8.321281075477600098e-01 -7.614349126815795898e-01 -4.780688881874084473e-01 -9.230508804321289062e-01
5.877000000000000000e+03 4.244711685180664062e+01 1.633618545532226562e+01 -8.884620666503906250e-01 -9.371705651283264160e-01 -5.476897954940795898e-01 -1.013854146003723145e+00
5.878000000000000000e+03 2.373494529724121094e+01 2.230045700073242188e+01 3.823106363415718079e-02 1.151774227619171143e-01 4.602254554629325867e-02 7.230117917060852051e-02
5.879000000000000000e+03 5.085143280029296875e+01 2.422752761840820312e+01 -1.058809399604797363e+00 -3.947856724262237549e-01 -4.360785186290740967e-01 -9.255484938621520996e-01
5.880000000000000000e+03 5.248536300659179688e+01 2.530714797973632812e+01 -1.087979912757873535e+00 -1.668054163455963135e-01 -3.764356076717376709e-01 -8.956164121627807617e-01
5.881000000000000000e+03 4.943210983276367188e+01 2.328364372253417969e+01 -1.043841361999511719e+00 -5.630833506584167480e-01 -4.820774197578430176e-01 -9.540570378303527832e-01
5.882000000000000000e+03 4.250264739990234375e+01 1.496163940429687500e+01 -8.029248118400573730e-01 -8.425858020782470703e-01 -4.936531782150268555e-01 -9.035052061080932617e-01
5.883000000000000000e+03 4.504951858520507812e+01 1.843426322937011719e+01 -8.467459082603454590e-01 -8.386919498443603516e-01 -5.056313872337341309e-01 -9.664292335510253906e-01
5.884000000000000000e+03 5.402635574340820312e+01 2.516103744506835938e+01 -1.004966974258422852e+00 6.917460262775421143e-02 -2.807377278804779053e-01 -8.403378129005432129e-01
5.885000000000000000e+03 5.142476272583007812e+01 2.473013114929199219e+01 -1.081389546394348145e+00 -3.244103789329528809e-01 -4.217399954795837402e-01 -9.195294380187988281e-01
5.886000000000000000e+03 4.709553527832031250e+01 2.089395332336425781e+01 -9.468515515327453613e-01 -7.527196407318115234e-01 -5.098713636398315430e-01 -9.596192836761474609e-01
5.887000000000000000e+03 4.810808944702148438e+01 2.121484375000000000e+01 -9.171908497810363770e-01 -6.296005845069885254e-01 -4.640374481678009033e-01 -9.131421446800231934e-01
5.888000000000000000e+03 3.721129608154296875e+01 9.790710449218750000e+00 -9.154948592185974121e-01 -9.842677116394042969e-01 -5.699287652969360352e-01 -8.567603230476379395e-01
5.889000000000000000e+03 3.870175552368164062e+01 1.050158977508544922e+01 -8.315066695213317871e-01 -9.147425889968872070e-01 -5.238747596740722656e-01 -8.071154356002807617e-01
5.890000000000000000e+03 1.333322048187255859e+01 1.148394012451171875e+01 4.367933049798011780e-02 2.056039273738861084e-01 7.478497922420501709e-02 4.340228065848350525e-02
5.891000000000000000e+03 1.477154827117919922e+01 1.733118438720703125e+01 1.396905537694692612e-02 1.245905160903930664e-01 4.156786948442459106e-02 3.813811764121055603e-02
5.892000000000000000e+03 2.240949821472167969e+01 2.026441192626953125e+01 4.593231156468391418e-02 1.244775727391242981e-01 5.112296715378761292e-02 7.931905984878540039e-02
5.893000000000000000e+03 3.127915191650390625e+01 2.385070800781250000e+00 -1.038815379142761230e+00 -7.267355918884277344e-01 -5.296652913093566895e-01 -2.329665869474411011e-01
5.894000000000000000e+03 3.083088111877441406e+01 2.324252843856811523e+00 -1.082316517829895020e+00 -7.245317697525024414e-01 -5.420544743537902832e-01 -2.419604063034057617e-01
5.895000000000000000e+03 3.799455642700195312e+01 1.006472587585449219e+01 -8.613900542259216309e-01 -9.398207068443298340e-01 -5.403632521629333496e-01 -8.176994323730468750e-01
5.896000000000000000e+03 1.363903617858886719e+01 1.229037666320800781e+01 3.829517588019371033e-02 1.898065358400344849e-01 6.843051314353942871e-02 4.764333367347717285e-02
5.897000000000000000e+03 1.323760509490966797e+01 1.238960361480712891e+01 3.362318128347396851e-02 1.812226921319961548e-01 6.445376574993133545e-02 3.879535943269729614e-02
5.898000000000000000e+03 4.618172073364257812e+01 1.994629478454589844e+01 -9.038823246955871582e-01 -8.101628422737121582e-01 -5.142135620117187500e-01 -9.657696485519409180e-01
5.899000000000000000e+03 3.643395614624023438e+01 7.281969070434570312e+00 -8.505833745002746582e-01 -8.409550189971923828e-01 -5.074614882469177246e-01 -6.761432886123657227e-01
5.900000000000000000e+03 1.702458381652832031e+01 1.716688728332519531e+01 3.016046062111854553e-02 1.419399976730346680e-01 5.163013562560081482e-02 6.405149400234222412e-02
5.901000000000000000e+03 1.928677940368652344e+01 1.818024253845214844e+01 3.978824615478515625e-02 1.384717673063278198e-01 5.347800254821777344e-02 7.582797855138778687e-02
5.902000000000000000e+03 3.774187088012695312e+01 9.557042121887207031e+00 -8.500718474388122559e-01 -9.224497079849243164e-01 -5.317564606666564941e-01 -7.925475835800170898e-01
5.903000000000000000e+03 3.739254379272460938e+01 9.141779899597167969e+00 -8.614219427108764648e-01 -9.161348938941955566e-01 -5.332670211791992188e-01 -7.816160321235656738e-01
5.904000000000000000e+03 1.818502235412597656e+01 1.575334358215332031e+01 5.003143846988677979e-02 1.576926112174987793e-01 6.231721490621566772e-02 8.773573487997055054e-02
5.905000000000000000e+03 1.780082702636718750e+01 1.482716846466064453e+01 5.520934984087944031e-02 1.673087030649185181e-01 6.675542145967483521e-02 9.349489957094192505e-02
5.906000000000000000e+03 4.319952011108398438e+01 1.748586273193359375e+01 -8.995325565338134766e-01 -9.487876296043395996e-01 -5.544960498809814453e-01 -1.044748187065124512e+00
5.907000000000000000e+03 2.363721275329589844e+01 2.070046997070312500e+01 4.954430088400840759e-02 1.208944693207740784e-01 5.113163217902183533e-02 8.118212968111038208e-02
5.908000000000000000e+03 3.655314254760742188e+01 7.950258255004882812e+00 -8.800886273384094238e-01 -8.857460618019104004e-01 -5.297504067420959473e-01 -7.365586161613464355e-01
5.909000000000000000e+03 4.671521759033203125e+01 2.076004600524902344e+01 -9.545494914054870605e-01 -7.988162040710449219e-01 -5.260097384452819824e-01 -9.765932559967041016e-01
5.910000000000000000e+03 2.939194297790527344e+01 1.498464345932006836e+00 -9.683606028556823730e-01 -6.679988503456115723e-01 -4.909078478813171387e-01 -1.717534512281417847e-01
5.911000000000000000e+03 1.462348079681396484e+01 1.248991012573242188e+01 4.186591506004333496e-02 1.989981383085250854e-01 7.225921750068664551e-02 6.922020018100738525e-02
5.912000000000000000e+03 1.323917770385742188e+01 1.330748367309570312e+01 2.775930799543857574e-02 1.642333418130874634e-01 5.759779363870620728e-02 3.641774877905845642e-02
5.913000000000000000e+03 3.244527435302734375e+01 9.273602366447448730e-01 -4.291025996208190918e-01 -6.807330250740051270e-01 -3.329506814479827881e-01 -2.384237945079803467e-02
5.914000000000000000e+03 1.659013557434082031e+01 1.298883628845214844e+01 6.004254892468452454e-02 1.936387717723846436e-01 7.610439509153366089e-02 1.001077368855476379e-01
5.915000000000000000e+03 1.634767723083496094e+01 1.403696727752685547e+01 4.799053072929382324e-02 1.774982810020446777e-01 6.764664500951766968e-02 8.397116512060165405e-02
5.916000000000000000e+03 2.063461685180664062e+01 1.923258209228515625e+01 4.143028333783149719e-02 1.311346590518951416e-01 5.176948383450508118e-02 7.672758400440216064e-02
5.917000000000000000e+03 2.020087242126464844e+01 1.959060096740722656e+01 3.574231639504432678e-02 1.288277059793472290e-01 4.937100410461425781e-02 7.206139713525772095e-02
5.918000000000000000e+03 2.305124092102050781e+01 2.087467765808105469e+01 4.498676210641860962e-02 1.208925023674964905e-01 4.976378008723258972e-02 7.785666733980178833e-02
5.919000000000000000e+03 4.814794921875000000e+01 2.083050727844238281e+01 -8.836777806282043457e-01 -5.981333255767822266e-01 -4.445433616638183594e-01 -8.850557804107666016e-01
5.920000000000000000e+03 1.470495986938476562e+01 1.299016666412353516e+01 4.057874158024787903e-02 1.881801486015319824e-01 6.862767040729522705e-02 6.586858630180358887e-02
5.921000000000000000e+03 1.416173839569091797e+01 1.262521266937255859e+01 3.907923400402069092e-02 1.903318613767623901e-01 6.882333010435104370e-02 5.725308135151863098e-02
5.922000000000000000e+03 3.496456909179687500e+01 6.423017024993896484e+00 -9.784811139106750488e-01 -8.556755781173706055e-01 -5.502470135688781738e-01 -6.993154883384704590e-01
5.923000000000000000e+03 3.705671691894531250e+01 8.799936294555664062e+00 -8.750498294830322266e-01 -9.189183712005615234e-01 -5.381904840469360352e-01 -7.789713144302368164e-01
5.924000000000000000e+03 5.422512054443359375e+01 2.693661117553710938e+01 -1.205437183380126953e+00 5.975760519504547119e-02 -3.437038660049438477e-01 -9.139009118080139160e-01
5.925000000000000000e+03 5.352350234985351562e+01 2.649139595031738281e+01 -1.181143283843994141e+00 -3.567742928862571716e-02 -3.650462329387664795e-01 -9.079899191856384277e-01
5.926000000000000000e+03 1.311370086669921875e+01 1.109038066864013672e+01 4.340336471796035767e-02 2.113433331251144409e-01 7.642401009798049927e-02 3.954303264617919922e-02
5.927000000000000000e+03 3.165882682800292969e+01 8.185306191444396973e-01 -4.596933126449584961e-01 -6.866088509559631348e-01 -3.438906371593475342e-01 -2.237986773252487183e-02
5.928000000000000000e+03 3.567589569091796875e+01 6.489701747894287109e+00 -8.760261535644531250e-01 -8.178401589393615723e-01 -5.081598758697509766e-01 -6.449712514877319336e-01
5.929000000000000000e+03 3.293858337402343750e+01 2.075215131044387817e-01 -2.225598841905593872e-01 -6.754458546638488770e-01 -2.694017291069030762e-01 3.261816129088401794e-02
5.930000000000000000e+03 5.435808944702148438e+01 2.654859542846679688e+01 -1.153890371322631836e+00 8.466309309005737305e-02 -3.207681775093078613e-01 -8.966643810272216797e-01
5.931000000000000000e+03 1.142578697204589844e+01 1.163684654235839844e+01 4.122209548950195312e-02 1.429834216833114624e-01 5.526165664196014404e-02 1.716461731120944023e-03
5.932000000000000000e+03 2.094718360900878906e+01 1.964822387695312500e+01 4.046767577528953552e-02 1.284919083118438721e-01 5.068787559866905212e-02 7.598774135112762451e-02
5.933000000000000000e+03 2.108385086059570312e+01 1.892762756347656250e+01 4.712834954261779785e-02 1.325597018003463745e-01 5.390641465783119202e-02 8.193124830722808838e-02
5.934000000000000000e+03 1.196943092346191406e+01 9.944949150085449219e+00 5.835199728608131409e-02 2.034010589122772217e-01 7.852591574192047119e-02 4.039607010781764984e-03
5.935000000000000000e+03 1.082760334014892578e+01 1.046621322631835938e+01 5.942901223897933960e-02 1.332692503929138184e-01 5.780947953462600708e-02 -1.393512450158596039e-02
5.936000000000000000e+03 2.318101119995117188e+01 2.394597053527832031e+01 2.748478390276432037e-02 1.088408082723617554e-01 4.089767858386039734e-02 6.191527098417282104e-02
5.937000000000000000e+03 2.518347167968750000e+01 2.458445549011230469e+01 3.392811492085456848e-02 1.060173362493515015e-01 4.198363423347473145e-02 6.632176041603088379e-02
5.938000000000000000e+03 4.008540344238281250e+01 1.331409835815429688e+01 -8.873564004898071289e-01 -9.758242368698120117e-01 -5.589541792869567871e-01 -9.292947649955749512e-01
5.939000000000000000e+03 5.341401672363281250e+01 2.582873535156250000e+01 -1.106637358665466309e+00 -3.234581649303436279e-02 -3.416949510574340820e-01 -8.891737461090087891e-01
5.940000000000000000e+03 3.339652252197265625e+01 4.187436580657958984e+00 -1.042861342430114746e+00 -7.436999678611755371e-01 -5.359683632850646973e-01 -4.752759337425231934e-01
5.941000000000000000e+03 3.447324371337890625e+01 4.032094001770019531e+00 -8.546084761619567871e-01 -7.065417766571044922e-01 -4.683450758457183838e-01 -3.959044516086578369e-01
5.942000000000000000e+03 3.504174041748046875e+01 5.569270610809326172e+00 -9.088973999023437500e-01 -7.799783945083618164e-01 -5.066627264022827148e-01 -5.799834132194519043e-01
5.943000000000000000e+03 5.371025085449218750e+01 2.546915054321289062e+01 -1.055152058601379395e+00 1.703615859150886536e-02 -3.114347755908966064e-01 -8.639545440673828125e-01
5.944000000000000000e+03 2.187504386901855469e+01 2.029797363281250000e+01 4.181081056594848633e-02 1.252406388521194458e-01 5.011543259024620056e-02 7.637366652488708496e-02
5.945000000000000000e+03 3.272668457031250000e+01 6.130248904228210449e-01 -3.176565468311309814e-01 -6.701091527938842773e-01 -2.963297069072723389e-01 -1.312836539000272751e-02
5.946000000000000000e+03 3.082121467590332031e+01 1.471636414527893066e+00 -7.729365229606628418e-01 -6.718990206718444824e-01 -4.334506690502166748e-01 -8.932572603225708008e-02
5.947000000000000000e+03 2.781052017211914062e+01 2.860759925842285156e+01 3.174337372183799744e-02 9.279017895460128784e-02 3.736006468534469604e-02 5.686605721712112427e-02
5.948000000000000000e+03 2.497339248657226562e+01 2.665200424194335938e+01 2.443997189402580261e-02 9.883498400449752808e-02 3.698248788714408875e-02 5.671533942222595215e-02
5.949000000000000000e+03 2.543931961059570312e+01 2.516413688659667969e+01 3.167841210961341858e-02 1.040492057800292969e-01 4.071828350424766541e-02 6.476471573114395142e-02
5.950000000000000000e+03 6.983757781982421875e+01 2.646613502502441406e+01 -1.203530877828598022e-01 4.326824188232421875e+00 1.261941313743591309e+00 1.942394971847534180e+00
5.951000000000000000e+03 2.441285896301269531e+01 2.219760894775390625e+01 4.344418272376060486e-02 1.143398210406303406e-01 4.733520001173019409e-02 7.532660663127899170e-02
5.952000000000000000e+03 2.534961509704589844e+01 2.321555328369140625e+01 4.124006628990173340e-02 1.100501716136932373e-01 4.538707062602043152e-02 7.304123044013977051e-02
5.953000000000000000e+03 3.920899200439453125e+01 1.240721988677978516e+01 -9.018752574920654297e-01 -1.003772497177124023e+00 -5.716943144798278809e-01 -9.233582615852355957e-01
5.954000000000000000e+03 3.863656997680664062e+01 1.206989955902099609e+01 -9.252491593360900879e-01 -1.033665895462036133e+00 -5.876745581626892090e-01 -9.376413822174072266e-01
5.955000000000000000e+03 2.577172279357910156e+01 2.654591369628906250e+01 2.743969485163688660e-02 9.925355762243270874e-02 3.800797462463378906e-02 5.960887670516967773e-02
5.956000000000000000e+03 3.334244155883789062e+01 4.097920060157775879e-01 -2.316079884767532349e-01 -6.797928810119628906e-01 -2.734202742576599121e-01 9.801463223993778229e-03
5.957000000000000000e+03 3.390879821777343750e+01 3.652354240417480469e+00 -8.824337124824523926e-01 -7.060454487800598145e-01 -4.765437543392181396e-01 -3.613359332084655762e-01
5.958000000000000000e+03 3.880945205688476562e+01 1.100590419769287109e+01 -8.477576971054077148e-01 -9.400627017021179199e-01 -5.363461375236511230e-01 -8.385345935821533203e-01
5.959000000000000000e+03 3.526012802124023438e+01 -9.650723934173583984e-01 1.161188483238220215e-01 -6.496800780296325684e-01 -1.600683629512786865e-01 4.906276240944862366e-02
5.960000000000000000e+03 3.596361923217773438e+01 -1.481527686119079590e+00 2.231421768665313721e-01 -6.297067403793334961e-01 -1.219693720340728760e-01 5.908296629786491394e-02
5.961000000000000000e+03 3.097482681274414062e+01 1.004174113273620605e+00 -5.876703262329101562e-01 -6.964312791824340820e-01 -3.852304816246032715e-01 -6.140323728322982788e-02
5.962000000000000000e+03 3.163216781616210938e+01 1.451737761497497559e+00 -6.679896712303161621e-01 -6.825525760650634766e-01 -4.051626622676849365e-01 -7.485140115022659302e-02
5.963000000000000000e+03 3.286235809326171875e+01 3.213603973388671875e+00 -9.568698406219482422e-01 -7.012193202972412109e-01 -4.974267482757568359e-01 -3.126220405101776123e-01
5.964000000000000000e+03 3.230308914184570312e+01 2.242233276367187500e+00 -8.255748748779296875e-01 -7.057651877403259277e-01 -4.594020247459411621e-01 -1.789850145578384399e-01
5.965000000000000000e+03 1.315169239044189453e+01 9.996379852294921875e+00 5.575643107295036316e-02 2.491889595985412598e-01 9.148361533880233765e-02 4.152169451117515564e-02
5.966000000000000000e+03 1.288560009002685547e+01 1.066877651214599609e+01 4.945033788681030273e-02 2.183622121810913086e-01 8.034376800060272217e-02 3.234622254967689514e-02
5.967000000000000000e+03 1.841441535949707031e+01 1.628478622436523438e+01 4.848356544971466064e-02 1.523080766201019287e-01 6.023748964071273804e-02 8.459563553333282471e-02
5.968000000000000000e+03 1.785564613342285156e+01 1.651938438415527344e+01 4.036568105220794678e-02 1.504624783992767334e-01 5.724844709038734436e-02 7.713741064071655273e-02
5.969000000000000000e+03 5.877704238891601562e+01 2.421994590759277344e+01 -4.988476336002349854e-01 6.624544262886047363e-01 4.908203333616256714e-02 -5.129425525665283203e-01
5.970000000000000000e+03 5.743635940551757812e+01 2.520421600341796875e+01 -7.633627653121948242e-01 4.540096521377563477e-01 -9.280593693256378174e-02 -7.028713822364807129e-01
5.971000000000000000e+03 6.215299224853515625e+01 2.269260597229003906e+01 3.359329700469970703e-02 1.389455676078796387e+00 4.269146919250488281e-01 8.462496846914291382e-02
5.972000000000000000e+03 5.575436782836914062e+01 2.556153297424316406e+01 -9.453319311141967773e-01 2.739868462085723877e-01 -2.014035284519195557e-01 -8.057237863540649414e-01
5.973000000000000000e+03 5.737965011596679688e+01 2.376771354675292969e+01 -5.559594035148620605e-01 5.457410216331481934e-01 -3.065526951104402542e-03 -5.764687061309814453e-01
5.974000000000000000e+03 5.904130172729492188e+01 2.476362419128417969e+01 -5.493679642677307129e-01 6.364411711692810059e-01 2.612196654081344604e-02 -5.377426743507385254e-01
5.975000000000000000e+03 6.085993194580078125e+01 2.374043273925781250e+01 -1.994102299213409424e-01 9.861593842506408691e-01 2.360247522592544556e-01 -2.118902951478958130e-01
5.976000000000000000e+03 1.277164363861083984e+01 1.391771030426025391e+01 2.193265408277511597e-02 1.418216526508331299e-01 4.912628978490829468e-02 2.627067267894744873e-02
5.977000000000000000e+03 3.600318527221679688e+01 7.124639034271240234e+00 -8.838797211647033691e-01 -8.520489335060119629e-01 -5.207785964012145996e-01 -6.929637789726257324e-01
5.978000000000000000e+03 6.568213653564453125e+01 2.248671531677246094e+01 2.824634015560150146e-01 2.542901277542114258e+00 8.476094007492065430e-01 7.716791033744812012e-01
5.979000000000000000e+03 6.530635833740234375e+01 2.376532936096191406e+01 1.866076439619064331e-01 2.105009794235229492e+00 6.874852776527404785e-01 6.377711296081542969e-01
5.980000000000000000e+03 5.928163909912109375e+01 2.393641662597656250e+01 -4.056547284126281738e-01 7.532966136932373047e-01 1.042925715446472168e-01 -4.328794181346893311e-01
5.981000000000000000e+03 6.813658142089843750e+01 2.449977111816406250e+01 1.712222546339035034e-01 3.397875308990478516e+00 1.070729255676269531e+00 1.318897485733032227e+00
5.982000000000000000e+03 6.376284408569335938e+01 3.715446233749389648e+00 3.468914926052093506e-01 3.447401523590087891e+00 1.138287901878356934e+00 6.594825387001037598e-01
5.983000000000000000e+03 6.578039550781250000e+01 3.923461914062500000e+00 3.137122690677642822e-01 3.977037906646728516e+00 1.287225008010864258e+00 6.972620487213134766e-01
5.984000000000000000e+03 6.560007476806640625e+01 2.444161415100097656e+01 1.561328172683715820e-01 2.077024221420288086e+00 6.699470877647399902e-01 6.605770587921142578e-01
5.985000000000000000e+03 6.602899932861328125e+01 2.341888046264648438e+01 2.429647892713546753e-01 2.504637241363525391e+00 8.242806196212768555e-01 8.278413414955139160e-01
5.986000000000000000e+03 1.266534423828125000e+01 1.137175464630126953e+01 4.306255653500556946e-02 1.925436854362487793e-01 7.068186998367309570e-02 2.613667212426662445e-02
5.987000000000000000e+03 1.221262645721435547e+01 1.256176280975341797e+01 3.192185983061790466e-02 1.509640216827392578e-01 5.486576259136199951e-02 1.747480779886245728e-02
5.988000000000000000e+03 6.149514389038085938e+01 2.315929985046386719e+01 -7.709006965160369873e-02 1.198348283767700195e+00 3.363774716854095459e-01 -6.267841160297393799e-02
5.989000000000000000e+03 6.344553375244140625e+01 2.298099899291992188e+01 1.364943087100982666e-01 1.690789937973022461e+00 5.481852889060974121e-01 2.970130145549774170e-01
5.990000000000000000e+03 1.272759342193603516e+01 1.746994400024414062e+01 6.105973385274410248e-03 9.470138698816299438e-02 3.024220839142799377e-02 1.472785696387290955e-02
5.991000000000000000e+03 1.344914817810058594e+01 1.632280349731445312e+01 1.279453933238983154e-02 1.206456869840621948e-01 4.003207013010978699e-02 2.680598758161067963e-02
5.992000000000000000e+03 3.816556549072265625e+01 -2.927643537521362305e+00 3.894099295139312744e-01 -5.122997760772705078e-01 -3.686694800853729248e-02 6.710606813430786133e-02
5.993000000000000000e+03 3.762103271484375000e+01 -1.572757363319396973e+00 2.491052746772766113e-01 -5.466744303703308105e-01 -8.927074074745178223e-02 5.881785228848457336e-02
5.994000000000000000e+03 2.847358703613281250e+01 3.185226249694824219e+01 2.774399891495704651e-02 8.575892448425292969e-02 3.405087441205978394e-02 4.496923461556434631e-02
5.995000000000000000e+03 2.718087768554687500e+01 2.786870574951171875e+01 3.041873499751091003e-02 9.455268085002899170e-02 3.749142587184906006e-02 5.780023708939552307e-02
5.996000000000000000e+03 5.714194488525390625e+01 2.443287277221679688e+01 -6.814185976982116699e-01 4.690198004245758057e-01 -6.371963024139404297e-02 -6.520959138870239258e-01
5.997000000000000000e+03 5.834736251831054688e+01 2.451453781127929688e+01 -5.672038793563842773e-01 6.013927459716796875e-01 1.025665644556283951e-02 -5.717944502830505371e-01
5.998000000000000000e+03 4.473974990844726562e+01 -5.893830299377441406e+00 4.829580485820770264e-01 1.597443222999572754e-01 1.928107142448425293e-01 1.190145015716552734e-01
5.999000000000000000e+03 3.546530151367187500e+01 4.484339714050292969e+00 -7.448501586914062500e-01 -7.023493051528930664e-01 -4.341598153114318848e-01 -4.036282002925872803e-01
6.000000000000000000e+03 6.232036972045898438e+01 -2.116910457611083984e+00 3.227087855339050293e-01 3.216295480728149414e+00 1.061701297760009766e+00 5.426001548767089844e-01
6.001000000000000000e+03 6.448767089843750000e+01 2.059917831420898438e+01 3.239230215549468994e-01 2.456215143203735352e+00 8.340414762496948242e-01 6.317595839500427246e-01
6.002000000000000000e+03 1.341250896453857422e+01 1.563633346557617188e+01 1.603726297616958618e-02 1.284171938896179199e-01 4.333633929491043091e-02 2.963972650468349457e-02
6.003000000000000000e+03 1.335455894470214844e+01 1.440510749816894531e+01 2.186784707009792328e-02 1.457401812076568604e-01 5.028240755200386047e-02 3.284811973571777344e-02
6.004000000000000000e+03 3.915276718139648438e+01 -3.121694087982177734e+00 4.013437330722808838e-01 -4.414297044277191162e-01 -1.202578563243150711e-02 7.590696215629577637e-02
6.005000000000000000e+03 1.268010711669921875e+01 1.910622024536132812e+01 2.607646747492253780e-04 7.743582129478454590e-02 2.330897562205791473e-02 1.071782410144805908e-02
6.006000000000000000e+03 6.903648376464843750e+01 2.517033576965332031e+01 7.532701641321182251e-02 3.888888835906982422e+00 1.189264774322509766e+00 1.569029808044433594e+00
6.007000000000000000e+03 6.498509979248046875e+01 -7.718949317932128906e+00 2.197003066539764404e-01 3.826561689376831055e+00 1.213878631591796875e+00 4.445380866527557373e-01
6.008000000000000000e+03 6.624887847900390625e+01 1.414545059204101562e+01 4.087195694446563721e-01 3.783058881759643555e+00 1.257533550262451172e+00 8.773159384727478027e-01
6.009000000000000000e+03 6.445495605468750000e+01 8.964331150054931641e-01 3.078395426273345947e-01 3.663147449493408203e+00 1.191296100616455078e+00 6.203653216361999512e-01
6.010000000000000000e+03 6.644647216796875000e+01 1.699669647216796875e+01 4.106471836566925049e-01 3.651217460632324219e+00 1.218559384346008301e+00 9.155069589614868164e-01
6.011000000000000000e+03 6.526226806640625000e+01 6.105465412139892578e+00 3.406075537204742432e-01 3.790102481842041016e+00 1.239212989807128906e+00 7.237826585769653320e-01
6.012000000000000000e+03 6.656132507324218750e+01 7.743086814880371094e+00 3.388531804084777832e-01 4.129065513610839844e+00 1.340375542640686035e+00 7.814697027206420898e-01
6.013000000000000000e+03 4.746216964721679688e+01 -1.023136329650878906e+01 4.351901710033416748e-01 6.355081200599670410e-01 3.212094902992248535e-01 1.236235797405242920e-01
6.014000000000000000e+03 4.626181793212890625e+01 -9.207739830017089844e+00 4.699041843414306641e-01 4.277984797954559326e-01 2.693108022212982178e-01 1.124145016074180603e-01
6.015000000000000000e+03 6.858067321777343750e+01 2.346114730834960938e+01 1.951557397842407227e-01 3.893676757812500000e+00 1.226649761199951172e+00 1.347081065177917480e+00
6.016000000000000000e+03 6.758638763427734375e+01 2.282368469238281250e+01 2.708664834499359131e-01 3.417137861251831055e+00 1.106401324272155762e+00 1.147004365921020508e+00
6.017000000000000000e+03 4.007353591918945312e+01 -3.164139032363891602e+00 4.012728333473205566e-01 -3.809683918952941895e-01 6.091335322707891464e-03 8.059260994195938110e-02
6.018000000000000000e+03 1.655961227416992188e+01 1.632007408142089844e+01 3.141578286886215210e-02 1.487519443035125732e-01 5.405031889677047729e-02 6.471606343984603882e-02
6.019000000000000000e+03 6.720666503906250000e+01 1.653295707702636719e+01 4.004030525684356689e-01 3.993449687957763672e+00 1.318155765533447266e+00 9.644107222557067871e-01
6.020000000000000000e+03 6.611593627929687500e+01 1.821558189392089844e+01 3.903149366378784180e-01 3.379729747772216797e+00 1.131013393402099609e+00 8.839092254638671875e-01
6.021000000000000000e+03 6.342200469970703125e+01 6.547791481018066406e+00 3.693849742412567139e-01 3.273733854293823242e+00 1.092935681343078613e+00 6.778964400291442871e-01
6.022000000000000000e+03 1.391578960418701172e+01 2.078048515319824219e+01 -8.820993243716657162e-04 8.083952963352203369e-02 2.398722805082798004e-02 1.699289306998252869e-02
6.023000000000000000e+03 1.423054122924804688e+01 1.987212371826171875e+01 2.272596582770347595e-03 9.168088436126708984e-02 2.818604558706283569e-02 2.234694175422191620e-02
6.024000000000000000e+03 6.506391906738281250e+01 5.177599430084228516e+00 3.331395089626312256e-01 3.751045227050781250e+00 1.225255489349365234e+00 7.056746482849121094e-01
6.025000000000000000e+03 6.622949218750000000e+01 9.755599975585937500e+00 3.677256107330322266e-01 3.986885070800781250e+00 1.306383252143859863e+00 8.191919922828674316e-01
6.026000000000000000e+03 3.008115386962890625e+01 3.142075920104980469e+01 3.600754216313362122e-02 8.608776330947875977e-02 3.662859275937080383e-02 4.930083081126213074e-02
6.027000000000000000e+03 6.300149536132812500e+01 -3.105291604995727539e+00 3.024658262729644775e-01 3.370878458023071289e+00 1.102003216743469238e+00 5.320226550102233887e-01
6.028000000000000000e+03 6.369256210327148438e+01 -4.098607540130615234e+00 2.778915762901306152e-01 3.532454013824462891e+00 1.143103718757629395e+00 5.145038366317749023e-01
6.029000000000000000e+03 4.501771926879882812e+01 -8.251157760620117188e+00 4.926013648509979248e-01 2.379824668169021606e-01 2.191751450300216675e-01 9.922436624765396118e-02
6.030000000000000000e+03 4.490499114990234375e+01 -7.093132019042968750e+00 4.908862709999084473e-01 2.051917165517807007e-01 2.088233977556228638e-01 1.112663224339485168e-01
6.031000000000000000e+03 1.547271060943603516e+01 2.264694595336914062e+01 -8.272937266156077385e-04 8.273931592702865601e-02 2.457360737025737762e-02 2.336676232516765594e-02
6.032000000000000000e+03 1.738474845886230469e+01 2.461769294738769531e+01 1.162559725344181061e-03 8.591586351394653320e-02 2.612352743744850159e-02 2.936301194131374359e-02
6.033000000000000000e+03 4.874369812011718750e+01 -1.639331817626953125e+01 2.521561980247497559e-01 9.432926774024963379e-01 3.586346507072448730e-01 1.047096475958824158e-01
6.034000000000000000e+03 4.908148956298828125e+01 -1.545904159545898438e+01 2.834325730800628662e-01 9.838688373565673828e-01 3.801904320716857910e-01 1.102193519473075867e-01
6.035000000000000000e+03 6.399863433837890625e+01 3.009135961532592773e+00 3.349446952342987061e-01 3.520829677581787109e+00 1.156732320785522461e+00 6.543421745300292969e-01
6.036000000000000000e+03 6.376192855834960938e+01 1.735264182090759277e+00 3.289371132850646973e-01 3.484845638275146484e+00 1.144134759902954102e+00 6.237940788269042969e-01
6.037000000000000000e+03 1.685092735290527344e+01 2.747195053100585938e+01 -4.117469768971204758e-03 6.696598231792449951e-02 1.885455287992954254e-02 1.940266042947769165e-02
6.038000000000000000e+03 6.730921173095703125e+01 1.491164970397949219e+01 3.980236053466796875e-01 4.145261764526367188e+00 1.362985610961914062e+00 9.536894559860229492e-01
6.039000000000000000e+03 1.585130023956298828e+01 2.151678276062011719e+01 3.680251073092222214e-03 9.543327987194061279e-02 2.973406016826629639e-02 3.015360236167907715e-02
6.040000000000000000e+03 6.407923126220703125e+01 -1.214228916168212891e+01 1.847051531076431274e-01 3.632880449295043945e+00 1.145275592803955078e+00 3.812314271926879883e-01
6.041000000000000000e+03 4.775762557983398438e+01 -1.465840053558349609e+01 3.139551281929016113e-01 7.550704479217529297e-01 3.207076787948608398e-01 8.900595456361770630e-02
6.042000000000000000e+03 6.371807479858398438e+01 -9.898591041564941406e+00 2.156860679388046265e-01 3.554203510284423828e+00 1.130966901779174805e+00 4.091124236583709717e-01
6.043000000000000000e+03 4.169480514526367188e+01 -2.931326627731323242e+00 3.927128314971923828e-01 -2.301560044288635254e-01 4.876704886555671692e-02 9.102968126535415649e-02
6.044000000000000000e+03 6.469036865234375000e+01 -1.645970344543457031e+01 1.252762824296951294e-01 3.757633447647094727e+00 1.164872884750366211e+00 3.123643398284912109e-01
6.045000000000000000e+03 6.524444580078125000e+01 -1.401041030883789062e+01 1.411759406328201294e-01 3.861515522003173828e+00 1.200807452201843262e+00 3.418330550193786621e-01
6.046000000000000000e+03 6.417059326171875000e+01 -2.194576263427734375e+01 8.161666989326477051e-02 3.654052734375000000e+00 1.120700836181640625e+00 2.652500271797180176e-01
6.047000000000000000e+03 6.529480743408203125e+01 -1.978729248046875000e+01 7.835156470537185669e-02 3.858461618423461914e+00 1.181043982505798340e+00 2.719182372093200684e-01
6.048000000000000000e+03 6.264640808105468750e+01 -4.827146530151367188e+00 2.898122370243072510e-01 3.300243377685546875e+00 1.077016711235046387e+00 4.983065724372863770e-01
6.049000000000000000e+03 2.918982124328613281e+01 3.694054412841796875e+01 2.976960316300392151e-02 7.712117582559585571e-02 3.206723555922508240e-02 2.405501529574394226e-02
6.050000000000000000e+03 5.268376922607421875e+01 -1.660307121276855469e+01 2.259208559989929199e-01 1.614954352378845215e+00 5.522626042366027832e-01 1.744328737258911133e-01
6.051000000000000000e+03 5.813626480102539062e+01 -1.966758918762207031e+01 1.212286800146102905e-01 2.615130901336669922e+00 8.209078907966613770e-01 2.530838847160339355e-01
6.052000000000000000e+03 5.401345443725585938e+01 -1.710638809204101562e+01 1.974650770425796509e-01 1.858977794647216797e+00 6.169328689575195312e-01 1.958739310503005981e-01
6.053000000000000000e+03 5.139986038208007812e+01 -1.609667396545410156e+01 2.453455626964569092e-01 1.377970457077026367e+00 4.869948029518127441e-01 1.502412557601928711e-01
6.054000000000000000e+03 1.694195175170898438e+01 -2.825592994689941406e+01 2.216789722442626953e-01 -2.755553722381591797e-01 -1.616292074322700500e-02 -2.974622845649719238e-01
6.055000000000000000e+03 1.598899650573730469e+01 -2.671971511840820312e+01 2.215546518564224243e-01 -3.434702455997467041e-01 -3.657468035817146301e-02 -3.076681196689605713e-01
6.056000000000000000e+03 4.632665252685546875e+01 -1.031736946105957031e+01 4.470108151435852051e-01 4.578205645084381104e-01 2.714494168758392334e-01 1.001499518752098083e-01
6.057000000000000000e+03 5.621592330932617188e+01 -2.339847755432128906e+01 6.457084417343139648e-02 2.346109151840209961e+00 7.232040166854858398e-01 2.363236248493194580e-01
6.058000000000000000e+03 5.986687850952148438e+01 -2.146846580505371094e+01 1.012354791164398193e-01 2.932847023010253906e+00 9.102247357368469238e-01 2.723288238048553467e-01
6.059000000000000000e+03 6.181754684448242188e+01 -2.521028137207031250e+01 6.831451505422592163e-02 3.240931510925292969e+00 9.927738308906555176e-01 2.671169936656951904e-01
6.060000000000000000e+03 4.306145858764648438e+01 1.587879753112792969e+01 -8.136946558952331543e-01 -8.485331535339355469e-01 -4.986683428287506104e-01 -9.375005364418029785e-01
6.061000000000000000e+03 4.385997009277343750e+01 1.622291183471679688e+01 -7.766708731651306152e-01 -7.978345751762390137e-01 -4.723516404628753662e-01 -9.080702066421508789e-01
6.062000000000000000e+03 4.892413330078125000e+01 2.070699882507324219e+01 -8.202699422836303711e-01 -4.803090691566467285e-01 -3.901737034320831299e-01 -8.292421698570251465e-01
6.063000000000000000e+03 4.853238296508789062e+01 2.120979499816894531e+01 -8.907192945480346680e-01 -5.664289593696594238e-01 -4.371444582939147949e-01 -8.839042782783508301e-01
6.064000000000000000e+03 4.966341018676757812e+01 2.365051841735839844e+01 -1.063509106636047363e+00 -5.439267158508300781e-01 -4.822307229042053223e-01 -9.639785885810852051e-01
6.065000000000000000e+03 4.345236206054687500e+01 1.657793235778808594e+01 -8.275123834609985352e-01 -8.593158125877380371e-01 -5.060484409332275391e-01 -9.615947008132934570e-01
6.066000000000000000e+03 4.250667572021484375e+01 1.542049312591552734e+01 -8.269389867782592773e-01 -8.740692138671875000e-01 -5.103024840354919434e-01 -9.399083256721496582e-01
6.067000000000000000e+03 4.507082366943359375e+01 1.795212936401367188e+01 -8.101003170013427734e-01 -7.970874309539794922e-01 -4.821563363075256348e-01 -9.334727525711059570e-01
6.068000000000000000e+03 3.999586868286132812e+01 1.178217411041259766e+01 -8.020043373107910156e-01 -8.835498690605163574e-01 -5.056662559509277344e-01 -8.194890022277832031e-01
6.069000000000000000e+03 4.204172897338867188e+01 1.453384590148925781e+01 -8.144003748893737793e-01 -8.598930239677429199e-01 -5.022880434989929199e-01 -9.008529782295227051e-01
6.070000000000000000e+03 4.167817687988281250e+01 1.406463813781738281e+01 -8.098324537277221680e-01 -8.621463179588317871e-01 -5.015936493873596191e-01 -8.870243430137634277e-01
6.071000000000000000e+03 4.129481506347656250e+01 1.397319984436035156e+01 -8.363696336746215820e-01 -8.979799747467041016e-01 -5.203048586845397949e-01 -9.057471752166748047e-01
6.072000000000000000e+03 5.195081710815429688e+01 2.471900367736816406e+01 -1.055785298347473145e+00 -2.353062182664871216e-01 -3.873274326324462891e-01 -8.910173177719116211e-01
6.073000000000000000e+03 5.299394989013671875e+01 2.550287818908691406e+01 -1.087027549743652344e+00 -9.361954778432846069e-02 -3.541941344738006592e-01 -8.860216736793518066e-01
6.074000000000000000e+03 4.557057189941406250e+01 1.859342956542968750e+01 -8.261091709136962891e-01 -7.899720668792724609e-01 -4.848243892192840576e-01 -9.344227910041809082e-01
6.075000000000000000e+03 4.018416595458984375e+01 1.364784049987792969e+01 -8.988786339759826660e-01 -9.819806218147277832e-01 -5.642578005790710449e-01 -9.510955810546875000e-01
6.076000000000000000e+03 4.092206954956054688e+01 1.384706974029541016e+01 -8.552460074424743652e-01 -9.285147786140441895e-01 -5.351282358169555664e-01 -9.194155931472778320e-01
6.077000000000000000e+03 4.896456909179687500e+01 2.115572547912597656e+01 -8.613386154174804688e-01 -5.016701221466064453e-01 -4.089026153087615967e-01 -8.541645407676696777e-01
6.078000000000000000e+03 4.734661483764648438e+01 2.059433174133300781e+01 -9.008607268333435059e-01 -6.978287696838378906e-01 -4.796068668365478516e-01 -9.231011271476745605e-01
6.079000000000000000e+03 5.251440811157226562e+01 2.470314979553222656e+01 -1.023022174835205078e+00 -1.403930485248565674e-01 -3.490245640277862549e-01 -8.671343922615051270e-01
6.080000000000000000e+03 4.349837875366210938e+01 1.721796035766601562e+01 -8.643730878829956055e-01 -9.009538888931274414e-01 -5.295981168746948242e-01 -1.005031108856201172e+00
6.081000000000000000e+03 4.647457122802734375e+01 1.892333984375000000e+01 -8.003594279289245605e-01 -6.967806816101074219e-01 -4.491420388221740723e-01 -8.873021602630615234e-01
6.082000000000000000e+03 4.598517990112304688e+01 1.853999900817871094e+01 -7.967523336410522461e-01 -7.366706132888793945e-01 -4.600268900394439697e-01 -9.009018540382385254e-01
6.083000000000000000e+03 4.498659515380859375e+01 1.741448783874511719e+01 -7.719268798828125000e-01 -7.581492066383361816e-01 -4.590228199958801270e-01 -9.048807024955749512e-01
6.084000000000000000e+03 5.455770874023437500e+01 2.512189865112304688e+01 -9.681628346443176270e-01 1.469664126634597778e-01 -2.463589161634445190e-01 -8.211005330085754395e-01
6.085000000000000000e+03 4.053679656982421875e+01 1.371528911590576172e+01 -8.738237023353576660e-01 -9.576710462570190430e-01 -5.494484305381774902e-01 -9.308566451072692871e-01
6.086000000000000000e+03 5.138451766967773438e+01 2.419120216369628906e+01 -1.024899840354919434e+00 -2.971433997154235840e-01 -3.966129720211029053e-01 -8.924728035926818848e-01
6.087000000000000000e+03 5.191431808471679688e+01 2.416687202453613281e+01 -9.918461441993713379e-01 -2.146617919206619263e-01 -3.619523644447326660e-01 -8.646553158760070801e-01
6.088000000000000000e+03 1.888796806335449219e+01 1.785882568359375000e+01 3.862498700618743896e-02 1.395180523395538330e-01 5.344291031360626221e-02 7.506641000509262085e-02
6.089000000000000000e+03 5.415868377685546875e+01 2.456709861755371094e+01 -9.154742956161499023e-01 1.091067865490913391e-01 -2.419102638959884644e-01 -8.027935624122619629e-01
6.090000000000000000e+03 4.142486953735351562e+01 1.356334781646728516e+01 -7.991995215415954590e-01 -8.574749231338500977e-01 -4.970023334026336670e-01 -8.648970723152160645e-01
6.091000000000000000e+03 4.948097991943359375e+01 2.254393196105957031e+01 -9.680441617965698242e-01 -5.125926136970520020e-01 -4.441910386085510254e-01 -9.063766002655029297e-01
6.092000000000000000e+03 4.945662689208984375e+01 2.203837776184082031e+01 -9.178721308708190918e-01 -4.803788661956787109e-01 -4.194752871990203857e-01 -8.769969344139099121e-01
6.093000000000000000e+03 3.773852157592773438e+01 8.827902793884277344e+00 -8.181276321411132812e-01 -8.752533793449401855e-01 -5.080143213272094727e-01 -7.336215376853942871e-01
6.094000000000000000e+03 4.380777359008789062e+01 1.690212249755859375e+01 -8.190110921859741211e-01 -8.481661081314086914e-01 -5.001531839370727539e-01 -9.576517939567565918e-01
6.095000000000000000e+03 3.862940979003906250e+01 9.958937644958496094e+00 -8.009069561958312988e-01 -8.792686462402343750e-01 -5.040526986122131348e-01 -7.634083628654479980e-01
6.096000000000000000e+03 1.270564270019531250e+01 1.279437732696533203e+01 3.023049235343933105e-02 1.615718603134155273e-01 5.754070729017257690e-02 2.572300843894481659e-02
6.097000000000000000e+03 4.300148773193359375e+01 1.489717864990234375e+01 -7.593850493431091309e-01 -7.874268293380737305e-01 -4.640435874462127686e-01 -8.675792813301086426e-01
6.098000000000000000e+03 4.249595642089843750e+01 1.588304710388183594e+01 -8.609652519226074219e-01 -9.050838351249694824e-01 -5.298147201538085938e-01 -9.776666760444641113e-01
6.099000000000000000e+03 1.987228393554687500e+01 1.911837577819824219e+01 3.707779943943023682e-02 1.318809241056442261e-01 5.068761855363845825e-02 7.273064553737640381e-02
6.100000000000000000e+03 1.764128684997558594e+01 1.984662628173828125e+01 1.820335350930690765e-02 1.209031865000724792e-01 4.173196107149124146e-02 5.194586142897605896e-02
6.101000000000000000e+03 4.662123107910156250e+01 1.986320686340332031e+01 -8.750838041305541992e-01 -7.476505041122436523e-01 -4.868202805519104004e-01 -9.319213628768920898e-01
6.102000000000000000e+03 4.716385650634765625e+01 2.021326637268066406e+01 -8.767526745796203613e-01 -6.976541876792907715e-01 -4.723220467567443848e-01 -9.165866971015930176e-01
6.103000000000000000e+03 3.727062606811523438e+01 7.849150657653808594e+00 -8.018807768821716309e-01 -8.341582417488098145e-01 -4.908117055892944336e-01 -6.728852391242980957e-01
6.104000000000000000e+03 3.816364288330078125e+01 9.187778472900390625e+00 -7.970827221870422363e-01 -8.653950095176696777e-01 -4.987432956695556641e-01 -7.328624129295349121e-01
6.105000000000000000e+03 2.371839141845703125e+01 2.164622306823730469e+01 4.289551451802253723e-02 1.171497702598571777e-01 4.801358655095100403e-02 7.577617466449737549e-02
6.106000000000000000e+03 2.242864608764648438e+01 2.089992332458496094e+01 4.065546020865440369e-02 1.217904165387153625e-01 4.873376339673995972e-02 7.484907656908035278e-02
6.107000000000000000e+03 3.127709007263183594e+01 1.922278761863708496e+00 -8.539398312568664551e-01 -6.847470402717590332e-01 -4.616060554981231689e-01 -1.280583888292312622e-01
6.108000000000000000e+03 3.519756698608398438e+01 6.571488857269287109e+00 -9.480841159820556641e-01 -8.514772057533264160e-01 -5.398684144020080566e-01 -6.955379843711853027e-01
6.109000000000000000e+03 5.408029174804687500e+01 2.581145477294921875e+01 -1.077480316162109375e+00 6.241314858198165894e-02 -3.045201599597930908e-01 -8.700084090232849121e-01
6.110000000000000000e+03 1.122212696075439453e+01 9.603383064270019531e+00 7.164138555526733398e-02 1.711978614330291748e-01 7.285176962614059448e-02 -1.693450473248958588e-02
6.111000000000000000e+03 1.624462127685546875e+01 1.357279396057128906e+01 4.995684325695037842e-02 1.848957091569900513e-01 7.045575976371765137e-02 8.780335634946823120e-02
6.112000000000000000e+03 3.964830017089843750e+01 1.231154918670654297e+01 -8.597938418388366699e-01 -9.512018561363220215e-01 -5.432987213134765625e-01 -8.840335607528686523e-01
6.113000000000000000e+03 4.009463500976562500e+01 1.222858333587646484e+01 -8.227824568748474121e-01 -9.045042395591735840e-01 -5.181859731674194336e-01 -8.495043516159057617e-01
6.114000000000000000e+03 4.986421585083007812e+01 2.257527351379394531e+01 -9.401223659515380859e-01 -4.334768652915954590e-01 -4.120797514915466309e-01 -8.823759555816650391e-01
6.115000000000000000e+03 4.987313079833984375e+01 2.192403602600097656e+01 -8.830173015594482422e-01 -4.097823202610015869e-01 -3.878398835659027100e-01 -8.485417962074279785e-01
6.116000000000000000e+03 2.136861419677734375e+01 2.028728485107421875e+01 3.863934054970741272e-02 1.253863424062728882e-01 4.920770600438117981e-02 7.420025020837783813e-02
6.117000000000000000e+03 1.693810462951660156e+01 1.475408554077148438e+01 4.839881882071495056e-02 1.695110201835632324e-01 6.537295132875442505e-02 8.487204462289810181e-02
6.118000000000000000e+03 1.397803974151611328e+01 1.492081642150878906e+01 2.183624356985092163e-02 1.474702805280685425e-01 5.079195648431777954e-02 4.072821140289306641e-02
6.119000000000000000e+03 1.535541534423828125e+01 1.386461830139160156e+01 3.830124437808990479e-02 1.772488951683044434e-01 6.466504186391830444e-02 7.061358541250228882e-02
6.120000000000000000e+03 1.517060184478759766e+01 1.285667514801025391e+01 4.437572509050369263e-02 1.946942508220672607e-01 7.172099500894546509e-02 7.685154676437377930e-02
6.121000000000000000e+03 3.325278854370117188e+01 1.096664309501647949e+00 -4.162186086177825928e-01 -6.853507161140441895e-01 -3.304708003997802734e-01 -3.385109826922416687e-02
6.122000000000000000e+03 2.306445121765136719e+01 2.159735488891601562e+01 3.956090286374092102e-02 1.181857809424400330e-01 4.732400551438331604e-02 7.360605150461196899e-02
6.123000000000000000e+03 1.329672145843505859e+01 1.383807086944580078e+01 2.537115477025508881e-02 1.547062993049621582e-01 5.402323603630065918e-02 3.358409553766250610e-02
6.124000000000000000e+03 1.192066860198974609e+01 1.126667690277099609e+01 4.537274688482284546e-02 1.699305474758148193e-01 6.459099054336547852e-02 8.085601031780242920e-03
6.125000000000000000e+03 3.280070114135742188e+01 1.628897666931152344e+00 -6.043366789817810059e-01 -6.957606077194213867e-01 -3.900291919708251953e-01 -9.871578216552734375e-02
6.126000000000000000e+03 1.314317131042480469e+01 1.205515480041503906e+01 3.850344568490982056e-02 1.871201545000076294e-01 6.768707931041717529e-02 3.676410764455795288e-02
6.127000000000000000e+03 3.893892288208007812e+01 1.148764514923095703e+01 -8.703035116195678711e-01 -9.615847468376159668e-01 -5.495665073394775391e-01 -8.686236143112182617e-01
6.128000000000000000e+03 3.925268173217773438e+01 1.046068286895751953e+01 -7.810651063919067383e-01 -8.599230647087097168e-01 -4.922964572906494141e-01 -7.629039287567138672e-01
6.129000000000000000e+03 5.052011871337890625e+01 2.205692672729492188e+01 -8.560807704925537109e-01 -3.171139955520629883e-01 -3.519584238529205322e-01 -8.163163661956787109e-01
6.130000000000000000e+03 3.393069076538085938e+01 2.648926973342895508e+00 -7.009066939353942871e-01 -6.787459254264831543e-01 -4.138957858085632324e-01 -2.143646925687789917e-01
6.131000000000000000e+03 5.405950546264648438e+01 2.639946365356445312e+01 -1.149397492408752441e+00 4.253342747688293457e-02 -3.320592343807220459e-01 -8.958589434623718262e-01
6.132000000000000000e+03 2.058461952209472656e+01 2.004550361633300781e+01 3.518027812242507935e-02 1.266119033098220825e-01 4.853765293955802917e-02 7.120649516582489014e-02
6.133000000000000000e+03 3.125810050964355469e+01 1.523566961288452148e+00 -7.502702474594116211e-01 -7.125631570816040039e-01 -4.388500154018402100e-01 -1.170506328344345093e-01
6.134000000000000000e+03 3.173954200744628906e+01 1.859968781471252441e+00 -7.901430726051330566e-01 -7.087987661361694336e-01 -4.496825635433197021e-01 -1.371222138404846191e-01
6.135000000000000000e+03 1.727410316467285156e+01 1.481956672668457031e+01 4.952439293265342712e-02 1.681365370750427246e-01 6.529828161001205444e-02 8.801881223917007446e-02
6.136000000000000000e+03 1.773528480529785156e+01 1.593015193939208984e+01 4.482724517583847046e-02 1.559795141220092773e-01 6.024202704429626465e-02 8.188742399215698242e-02
6.137000000000000000e+03 3.463996887207031250e+01 4.486996173858642578e+00 -8.669040203094482422e-01 -7.257516384124755859e-01 -4.777967035770416260e-01 -4.471201598644256592e-01
6.138000000000000000e+03 3.542494964599609375e+01 5.195766925811767578e+00 -8.336188197135925293e-01 -7.500436305999755859e-01 -4.750987291336059570e-01 -5.093566179275512695e-01
6.139000000000000000e+03 1.217103862762451172e+01 1.046461200714111328e+01 5.299914255738258362e-02 1.992760151624679565e-01 7.568255066871643066e-02 1.108552515506744385e-02
6.140000000000000000e+03 2.130855178833007812e+01 1.938129425048828125e+01 4.554094374179840088e-02 1.302546858787536621e-01 5.273868888616561890e-02 8.008844405412673950e-02
6.141000000000000000e+03 1.812436485290527344e+01 1.716150665283203125e+01 3.819532692432403564e-02 1.444379538297653198e-01 5.478998273611068726e-02 7.417286187410354614e-02
6.142000000000000000e+03 3.686312103271484375e+01 7.557810783386230469e+00 -8.208850026130676270e-01 -8.395882844924926758e-01 -4.981419742107391357e-01 -6.748703718185424805e-01
6.143000000000000000e+03 3.224052810668945312e+01 1.718575119972229004e+00 -6.714139580726623535e-01 -6.756126284599304199e-01 -4.041079878807067871e-01 -1.034245863556861877e-01
6.144000000000000000e+03 3.343755340576171875e+01 2.103031396865844727e+00 -6.335153579711914062e-01 -6.805302500724792480e-01 -3.942137062549591064e-01 -1.410824954509735107e-01
6.145000000000000000e+03 2.304361152648925781e+01 2.313972282409667969e+01 3.006851486861705780e-02 1.118866577744483948e-01 4.258655011653900146e-02 6.531157344579696655e-02
6.146000000000000000e+03 2.596313285827636719e+01 2.741628837585449219e+01 2.646278217434883118e-02 9.634977579116821289e-02 3.684376925230026245e-02 5.613157898187637329e-02
6.147000000000000000e+03 3.365504837036132812e+01 8.168224692344665527e-01 -3.074652254581451416e-01 -6.526616215705871582e-01 -2.880380451679229736e-01 -1.620887406170368195e-02
6.148000000000000000e+03 6.615439605712890625e+01 2.417858123779296875e+01 2.091325521469116211e-01 2.398222446441650391e+00 7.822065353393554688e-01 8.359044194221496582e-01
6.149000000000000000e+03 5.958195877075195312e+01 2.343985366821289062e+01 -3.062217831611633301e-01 8.444637060165405273e-01 1.614725738763809204e-01 -3.510077893733978271e-01
6.150000000000000000e+03 1.509244251251220703e+01 2.017272567749023438e+01 4.589400254189968109e-03 9.849406033754348755e-02 3.092503920197486877e-02 2.859270758926868439e-02
6.151000000000000000e+03 2.443213272094726562e+01 2.578792953491210938e+01 2.513308450579643250e-02 1.023869290947914124e-01 3.825600445270538330e-02 5.883246287703514099e-02
6.152000000000000000e+03 3.666999816894531250e+01 -1.228015184402465820e+00 1.931277066469192505e-01 -5.894480943679809570e-01 -1.188961192965507507e-01 5.777242034673690796e-02
6.153000000000000000e+03 3.787191390991210938e+01 -2.260083675384521484e+00 3.272912502288818359e-01 -5.313771963119506836e-01 -6.122578680515289307e-02 6.524144858121871948e-02
6.154000000000000000e+03 1.222777366638183594e+01 1.172035789489746094e+01 3.844091296195983887e-02 1.691639274358749390e-01 6.228145584464073181e-02 1.785556972026824951e-02
6.155000000000000000e+03 1.268214702606201172e+01 1.335362625122070312e+01 2.732710167765617371e-02 1.489311158657073975e-01 5.287746340036392212e-02 2.417519874870777130e-02
6.156000000000000000e+03 3.583196640014648438e+01 -8.250120878219604492e-01 1.150302439928054810e-01 -6.193349361419677734e-01 -1.512914001941680908e-01 5.868750438094139099e-02
6.157000000000000000e+03 6.092754745483398438e+01 2.305882644653320312e+01 -1.165419742465019226e-01 1.096868515014648438e+00 2.940979599952697754e-01 -1.323452144861221313e-01
6.158000000000000000e+03 6.204248428344726562e+01 2.326174163818359375e+01 -1.996302977204322815e-02 1.293169975280761719e+00 3.819620907306671143e-01 2.012727037072181702e-02
6.159000000000000000e+03 6.540245819091796875e+01 2.147191619873046875e+01 3.111195266246795654e-01 2.618274450302124023e+00 8.788182139396667480e-01 7.435314059257507324e-01
6.160000000000000000e+03 1.338368701934814453e+01 1.499868965148925781e+01 1.964948885142803192e-02 1.356740593910217285e-01 4.659706354141235352e-02 3.111172281205654144e-02
6.161000000000000000e+03 6.102199172973632812e+01 2.235048484802246094e+01 -3.624109178781509399e-02 1.224770188331604004e+00 3.565587103366851807e-01 -5.787298828363418579e-02
6.162000000000000000e+03 6.287512969970703125e+01 4.652473449707031250e+00 3.596252202987670898e-01 3.184961318969726562e+00 1.063375949859619141e+00 6.453072428703308105e-01
6.163000000000000000e+03 6.451632690429687500e+01 3.546071290969848633e+00 3.350571393966674805e-01 3.652754306793212891e+00 1.196343421936035156e+00 6.696748733520507812e-01
6.164000000000000000e+03 6.034280014038085938e+01 2.294907569885253906e+01 -1.505534052848815918e-01 1.023965835571289062e+00 2.620237171649932861e-01 -1.971265524625778198e-01
6.165000000000000000e+03 2.455119895935058594e+01 2.488298797607421875e+01 2.933310344815254211e-02 1.056917011737823486e-01 4.050744324922561646e-02 6.305057555437088013e-02
6.166000000000000000e+03 1.343250846862792969e+01 1.702031517028808594e+01 9.379284456372261047e-03 1.114742606878280640e-01 3.625606372952461243e-02 2.383047714829444885e-02
6.167000000000000000e+03 1.411249160766601562e+01 1.560345649719238281e+01 1.967753469944000244e-02 1.384983956813812256e-01 4.745278134942054749e-02 3.871218115091323853e-02
6.168000000000000000e+03 6.718355560302734375e+01 2.394964027404785156e+01 2.269479781389236450e-01 2.932688713073730469e+00 9.478909969329833984e-01 1.080618143081665039e+00
6.169000000000000000e+03 6.593601226806640625e+01 8.862842559814453125e+00 3.607036173343658447e-01 3.914100408554077148e+00 1.282441258430480957e+00 7.883461117744445801e-01
6.170000000000000000e+03 6.409616088867187500e+01 5.414757728576660156e+00 3.486284315586090088e-01 3.480950117111206055e+00 1.148873567581176758e+00 6.843176484107971191e-01
6.171000000000000000e+03 6.751434326171875000e+01 2.468466567993164062e+01 1.870732456445693970e-01 2.943957805633544922e+00 9.393093585968017578e-01 1.183163762092590332e+00
6.172000000000000000e+03 1.735315322875976562e+01 1.796904182434082031e+01 2.643002010881900787e-02 1.355148553848266602e-01 4.858345910906791687e-02 6.122303381562232971e-02
6.173000000000000000e+03 1.889254379272460938e+01 1.839588928222656250e+01 3.398160263895988464e-02 1.352868974208831787e-01 5.078054964542388916e-02 7.026917487382888794e-02
6.174000000000000000e+03 5.973656463623046875e+01 2.276157569885253906e+01 -1.979413926601409912e-01 9.547064900398254395e-01 2.270295321941375732e-01 -2.540795505046844482e-01
6.175000000000000000e+03 3.510209274291992188e+01 3.172509431838989258e+00 -6.221218109130859375e-01 -6.686120629310607910e-01 -3.872201442718505859e-01 -2.487944215536117554e-01
6.176000000000000000e+03 3.480544281005859375e+01 -2.094848826527595520e-02 -7.497911155223846436e-02 -6.502965688705444336e-01 -2.175827175378799438e-01 2.228830568492412567e-02
6.177000000000000000e+03 6.647853851318359375e+01 1.505649757385253906e+01 4.112604260444641113e-01 3.796770095825195312e+00 1.262409090995788574e+00 8.980185985565185547e-01
6.178000000000000000e+03 6.506202697753906250e+01 1.347745132446289062e+01 4.019977748394012451e-01 3.407625913619995117e+00 1.142887115478515625e+00 7.925884127616882324e-01
6.179000000000000000e+03 1.464082145690917969e+01 1.814933013916015625e+01 9.818583726882934570e-03 1.134490743279457092e-01 3.698029741644859314e-02 3.315949440002441406e-02
6.180000000000000000e+03 1.372580814361572266e+01 1.871642303466796875e+01 4.241676069796085358e-03 9.606667608022689819e-02 3.009250573813915253e-02 2.143772318959236145e-02
6.181000000000000000e+03 1.303217887878417969e+01 1.839539718627929688e+01 3.434709040448069572e-03 9.002035111188888550e-02 2.803651802241802216e-02 1.549515314400196075e-02
6.182000000000000000e+03 5.793765258789062500e+01 2.409037590026855469e+01 -5.514973402023315430e-01 5.865918397903442383e-01 1.052835118025541306e-02 -5.618470311164855957e-01
6.183000000000000000e+03 6.022463226318359375e+01 -3.481694221496582031e+00 3.410729765892028809e-01 2.770545005798339844e+00 9.334853887557983398e-01 4.885523915290832520e-01
6.184000000000000000e+03 6.232602691650390625e+01 2.212872886657714844e+01 1.158478036522865295e-01 1.534914731979370117e+00 4.952287673950195312e-01 1.736566722393035889e-01
6.185000000000000000e+03 6.473110198974609375e+01 1.886238098144531250e+01 3.840157687664031982e-01 2.801370620727539062e+00 9.556159377098083496e-01 7.230564951896667480e-01
6.186000000000000000e+03 3.949271392822265625e+01 -2.238164663314819336e+00 3.379692733287811279e-01 -4.170923233032226562e-01 -2.373691089451313019e-02 6.915611028671264648e-02
6.187000000000000000e+03 6.354618072509765625e+01 2.166610211133956909e-01 3.216966390609741211e-01 3.457784652709960938e+00 1.133844375610351562e+00 5.961263775825500488e-01
6.188000000000000000e+03 6.558423614501953125e+01 1.217792606353759766e+01 3.965084850788116455e-01 3.680314064025878906e+00 1.223046779632568359e+00 8.218030929565429688e-01
6.189000000000000000e+03 2.708597755432128906e+01 2.958768653869628906e+01 2.617403492331504822e-02 9.063407778739929199e-02 3.504243493080139160e-02 5.042115971446037292e-02
6.190000000000000000e+03 2.410075759887695312e+01 2.650667572021484375e+01 2.084541320800781250e-02 9.965092688798904419e-02 3.614890202879905701e-02 5.409220233559608459e-02
6.191000000000000000e+03 6.469408416748046875e+01 1.258613777160644531e+01 4.004261791706085205e-01 3.349307537078857422e+00 1.124920129776000977e+00 7.685297727584838867e-01
6.192000000000000000e+03 6.439039611816406250e+01 1.036400890350341797e+01 3.835795819759368896e-01 3.367800235748291016e+00 1.125413894653320312e+00 7.345772981643676758e-01
6.193000000000000000e+03 6.598518371582031250e+01 1.618330764770507812e+01 4.093090891838073730e-01 3.541524410247802734e+00 1.185250043869018555e+00 8.690720796585083008e-01
6.194000000000000000e+03 2.391557884216308594e+01 2.533823585510253906e+01 2.536798827350139618e-02 1.038349196314811707e-01 3.876087442040443420e-02 5.865966901183128357e-02
6.195000000000000000e+03 2.423488235473632812e+01 2.430607986450195312e+01 3.103386238217353821e-02 1.076246351003646851e-01 4.159754887223243713e-02 6.443786621093750000e-02
6.196000000000000000e+03 4.901268386840820312e+01 -1.433048820495605469e+01 3.184508979320526123e-01 9.349169731140136719e-01 3.760103583335876465e-01 1.146875396370887756e-01
6.197000000000000000e+03 2.373527908325195312e+01 2.895728683471679688e+01 1.447224337607622147e-02 9.046521782875061035e-02 3.148123994469642639e-02 4.374111443758010864e-02
6.198000000000000000e+03 6.243232345581054688e+01 -8.920786857604980469e+00 2.501815557479858398e-01 3.304965257644653320e+00 1.066544055938720703e+00 4.188349246978759766e-01
6.199000000000000000e+03 6.294266128540039062e+01 -1.543941116333007812e+01 1.528149247169494629e-01 3.442016839981079102e+00 1.078449606895446777e+00 3.207702934741973877e-01
6.200000000000000000e+03 6.351411437988281250e+01 -7.809861183166503906e+00 2.468428611755371094e-01 3.513768196105957031e+00 1.128183245658874512e+00 4.473351836204528809e-01
6.201000000000000000e+03 6.412480163574218750e+01 -6.872441768646240234e+00 2.422741949558258057e-01 3.623085021972656250e+00 1.159607768058776855e+00 4.617280364036560059e-01
6.202000000000000000e+03 1.524022293090820312e+01 1.922444343566894531e+01 8.477007970213890076e-03 1.087659299373626709e-01 3.517287969589233398e-02 3.444893658161163330e-02
6.203000000000000000e+03 2.835627555847167969e+01 3.024400138854980469e+01 2.986219339072704315e-02 8.888578414916992188e-02 3.562439233064651489e-02 5.071067437529563904e-02
6.204000000000000000e+03 6.510226440429687500e+01 -1.091773700714111328e+01 1.786230802536010742e-01 3.859647035598754883e+00 1.211480975151062012e+00 3.947287797927856445e-01
6.205000000000000000e+03 6.673526763916015625e+01 1.587639808654785156e+01 3.907763063907623291e-01 3.823391437530517578e+00 1.264250397682189941e+00 9.169017672538757324e-01
6.206000000000000000e+03 6.563146972656250000e+01 1.531091022491455078e+01 4.045227766036987305e-01 3.478226184844970703e+00 1.164824724197387695e+00 8.272165656089782715e-01
6.207000000000000000e+03 6.563956451416015625e+01 1.737823486328125000e+01 3.964486122131347656e-01 3.282388925552368164e+00 1.103651285171508789e+00 8.304038047790527344e-01
6.208000000000000000e+03 6.195022964477539062e+01 -3.834018707275390625e+00 3.126613199710845947e-01 3.158755302429199219e+00 1.041424989700317383e+00 5.108861923217773438e-01
6.209000000000000000e+03 1.718773841857910156e+01 2.596430015563964844e+01 -1.843193778768181801e-03 7.682584971189498901e-02 2.249479666352272034e-02 2.449878677725791931e-02
6.210000000000000000e+03 1.632409286499023438e+01 2.913014793395996094e+01 -6.283895578235387802e-03 5.504155531525611877e-02 1.462729834020137787e-02 1.397185586392879486e-02
6.211000000000000000e+03 4.249913787841796875e+01 -4.448399066925048828e+00 4.530481994152069092e-01 -1.265880912542343140e-01 9.793803095817565918e-02 1.008383110165596008e-01
6.212000000000000000e+03 4.056105041503906250e+01 -2.788430213928222656e+00 3.760019242763519287e-01 -3.220903575420379639e-01 1.617347076535224915e-02 7.665840536355972290e-02
6.213000000000000000e+03 4.738401412963867188e+01 -1.127982521057128906e+01 4.225403666496276855e-01 6.441712975502014160e-01 3.200134932994842529e-01 1.133839637041091919e-01
6.214000000000000000e+03 4.618103408813476562e+01 -8.057080268859863281e+00 4.772508144378662109e-01 3.984912037849426270e-01 2.627226114273071289e-01 1.235811933875083923e-01
6.215000000000000000e+03 4.607426452636718750e+01 -6.891193866729736328e+00 4.786204993724822998e-01 3.571197390556335449e-01 2.507220804691314697e-01 1.346408575773239136e-01
6.216000000000000000e+03 6.346672439575195312e+01 -8.824027061462402344e+00 2.313290834426879883e-01 3.499410390853881836e+00 1.119221806526184082e+00 4.250999689102172852e-01
6.217000000000000000e+03 5.571152114868164062e+01 -1.599260902404785156e+01 2.168076485395431519e-01 2.135382652282714844e+00 7.056571245193481445e-01 2.364152818918228149e-01
6.218000000000000000e+03 5.314939498901367188e+01 -1.510894012451171875e+01 2.630454599857330322e-01 1.671904087066650391e+00 5.804848670959472656e-01 1.964665353298187256e-01
6.219000000000000000e+03 5.180305862426757812e+01 -1.458315944671630859e+01 2.932455837726593018e-01 1.422972798347473145e+00 5.148655176162719727e-01 1.711617559194564819e-01
6.220000000000000000e+03 6.235026931762695312e+01 -1.867008781433105469e+01 1.251413822174072266e-01 3.363710880279541016e+00 1.046655654907226562e+00 2.959938943386077881e-01
6.221000000000000000e+03 6.364167785644531250e+01 -1.846734619140625000e+01 1.168604865670204163e-01 3.555279970169067383e+00 1.101642131805419922e+00 2.971464395523071289e-01
6.222000000000000000e+03 6.319329833984375000e+01 2.614202737808227539e+00 3.435447812080383301e-01 3.328849315643310547e+00 1.101718187332153320e+00 6.283947229385375977e-01
6.223000000000000000e+03 6.260246658325195312e+01 -4.514845013618469238e-01 3.315786719322204590e-01 3.252708911895751953e+00 1.075286269187927246e+00 5.719006061553955078e-01
6.224000000000000000e+03 5.695466232299804688e+01 -1.631039810180664062e+01 1.979270875453948975e-01 2.357564210891723633e+00 7.666473388671875000e-01 2.529555559158325195e-01
6.225000000000000000e+03 6.080263519287109375e+01 -1.762254333496093750e+01 1.428526639938354492e-01 3.047663927078247070e+00 9.571549892425537109e-01 2.820366024971008301e-01
6.226000000000000000e+03 6.159585952758789062e+01 -2.166919326782226562e+01 9.110379219055175781e-02 3.222502231597900391e+00 9.940817952156066895e-01 2.681678533554077148e-01
6.227000000000000000e+03 1.827264404296875000e+01 -2.766810035705566406e+01 2.444006204605102539e-01 -1.841874867677688599e-01 1.806394197046756744e-02 -2.948318123817443848e-01
6.228000000000000000e+03 6.309709167480468750e+01 -1.245405864715576172e+01 1.951930075883865356e-01 3.448568344116210938e+00 1.093128442764282227e+00 3.670015335083007812e-01
6.229000000000000000e+03 5.236884689331054688e+01 -1.316013717651367188e+01 3.214495778083801270e-01 1.485751867294311523e+00 5.421604514122009277e-01 1.999413371086120605e-01
6.230000000000000000e+03 4.695048141479492188e+01 -1.213659477233886719e+01 4.003376066684722900e-01 5.827269554138183594e-01 2.949193716049194336e-01 9.784383326768875122e-02
6.231000000000000000e+03 4.701118850708007812e+01 1.932979583740234375e+01 -8.062326312065124512e-01 -6.584364175796508789e-01 -4.394007027149200439e-01 -8.749967217445373535e-01
6.232000000000000000e+03 4.289213943481445312e+01 1.407439327239990234e+01 -7.220619320869445801e-01 -7.489870786666870117e-01 -4.413146972656250000e-01 -8.147730231285095215e-01
6.233000000000000000e+03 4.851673507690429688e+01 2.078994941711425781e+01 -8.545930981636047363e-01 -5.432194471359252930e-01 -4.193437695503234863e-01 -8.590097427368164062e-01
6.234000000000000000e+03 4.249498367309570312e+01 1.452244186401367188e+01 -7.780478596687316895e-01 -8.157050013542175293e-01 -4.781258404254913330e-01 -8.712620139122009277e-01
6.235000000000000000e+03 4.212294006347656250e+01 1.367750358581542969e+01 -7.555792927742004395e-01 -7.975289225578308105e-01 -4.659324586391448975e-01 -8.319863080978393555e-01
6.236000000000000000e+03 5.333578872680664062e+01 2.507716560363769531e+01 -1.026221394538879395e+00 -2.907457016408443451e-02 -3.165887892246246338e-01 -8.575738072395324707e-01
6.237000000000000000e+03 5.243510818481445312e+01 2.411520195007324219e+01 -9.584369063377380371e-01 -1.269632130861282349e-01 -3.256200551986694336e-01 -8.382645845413208008e-01
6.238000000000000000e+03 5.077834320068359375e+01 2.366467666625976562e+01 -1.002460122108459473e+00 -3.703735172748565674e-01 -4.118500947952270508e-01 -9.000086188316345215e-01
6.239000000000000000e+03 5.135108947753906250e+01 2.366674041748046875e+01 -9.678446054458618164e-01 -2.765970528125762939e-01 -3.733325004577636719e-01 -8.668480515480041504e-01
6.240000000000000000e+03 4.445278930664062500e+01 1.693225479125976562e+01 -7.790649533271789551e-01 -7.859291434288024902e-01 -4.694982171058654785e-01 -9.143411517143249512e-01
6.241000000000000000e+03 4.941085815429687500e+01 2.107966995239257812e+01 -8.270102739334106445e-01 -4.297895133495330811e-01 -3.770399391651153564e-01 -8.238492012023925781e-01
6.242000000000000000e+03 4.942756271362304688e+01 2.155108451843261719e+01 -8.720249533653259277e-01 -4.542362093925476074e-01 -3.978783488273620605e-01 -8.514546155929565430e-01
6.243000000000000000e+03 4.439527511596679688e+01 1.750629615783691406e+01 -8.139500617980957031e-01 -8.297775387763977051e-01 -4.931182861328125000e-01 -9.525666832923889160e-01
6.244000000000000000e+03 4.610057830810546875e+01 1.818168449401855469e+01 -7.592455744743347168e-01 -6.934140920639038086e-01 -4.357978999614715576e-01 -8.694719076156616211e-01
6.245000000000000000e+03 4.106695938110351562e+01 1.341581249237060547e+01 -8.201822638511657715e-01 -8.841096758842468262e-01 -5.112875699996948242e-01 -8.746866583824157715e-01
6.246000000000000000e+03 3.735265350341796875e+01 8.494220733642578125e+00 -8.322821855545043945e-01 -8.748082518577575684e-01 -5.121271610260009766e-01 -7.309640049934387207e-01
6.247000000000000000e+03 3.805096817016601562e+01 8.476214408874511719e+00 -7.650753855705261230e-01 -8.271559476852416992e-01 -4.776693880558013916e-01 -6.799042820930480957e-01
6.248000000000000000e+03 4.547538757324218750e+01 1.690922737121582031e+01 -7.089208960533142090e-01 -6.720782518386840820e-01 -4.142997264862060547e-01 -8.357584476470947266e-01
6.249000000000000000e+03 3.976696395874023438e+01 1.001165008544921875e+01 -7.077360749244689941e-01 -7.874433994293212891e-01 -4.485538601875305176e-01 -6.913712620735168457e-01
6.250000000000000000e+03 3.990479660034179688e+01 1.133451747894287109e+01 -7.842950820922851562e-01 -8.611354231834411621e-01 -4.936291575431823730e-01 -7.907329201698303223e-01
6.251000000000000000e+03 5.306835556030273438e+01 2.456940841674804688e+01 -9.796838760375976562e-01 -5.127825587987899780e-02 -3.092886507511138916e-01 -8.402714729309082031e-01
6.252000000000000000e+03 4.066531372070312500e+01 1.332525920867919922e+01 -8.496636748313903809e-01 -9.209490418434143066e-01 -5.311837792396545410e-01 -8.962916135787963867e-01
6.253000000000000000e+03 3.378681945800781250e+01 -2.524498291313648224e-02 -1.103481575846672058e-01 -6.607280969619750977e-01 -2.313228845596313477e-01 2.933234162628650665e-02
6.254000000000000000e+03 5.447421646118164062e+01 2.404802513122558594e+01 -8.204080462455749512e-01 1.811934411525726318e-01 -1.917643845081329346e-01 -7.499969005584716797e-01
6.255000000000000000e+03 4.810752868652343750e+01 2.051228141784667969e+01 -8.455724120140075684e-01 -5.730162858963012695e-01 -4.255766272544860840e-01 -8.679352998733520508e-01
6.256000000000000000e+03 5.433859252929687500e+01 2.616821670532226562e+01 -1.105969071388244629e+00 8.760821074247360229e-02 -3.055082559585571289e-01 -8.786742687225341797e-01
6.257000000000000000e+03 5.187255096435546875e+01 2.364042663574218750e+01 -9.401804804801940918e-01 -1.923358887434005737e-01 -3.397549092769622803e-01 -8.392180204391479492e-01
6.258000000000000000e+03 5.236635208129882812e+01 2.358142662048339844e+01 -9.080487489700317383e-01 -1.157653331756591797e-01 -3.071442246437072754e-01 -8.117879629135131836e-01
6.259000000000000000e+03 4.291656112670898438e+01 1.372640132904052734e+01 -6.945627927780151367e-01 -7.170615792274475098e-01 -4.234873056411743164e-01 -7.810958623886108398e-01
6.260000000000000000e+03 4.208298492431640625e+01 1.410081768035888672e+01 -7.790918946266174316e-01 -8.301548361778259277e-01 -4.827740192413330078e-01 -8.642928004264831543e-01
6.261000000000000000e+03 3.610880661010742188e+01 5.959841251373291016e+00 -8.010365962982177734e-01 -7.653154134750366211e-01 -4.699056148529052734e-01 -5.554425716400146484e-01
6.262000000000000000e+03 3.766530609130859375e+01 8.157596588134765625e+00 -7.797003388404846191e-01 -8.334453701972961426e-01 -4.839437007904052734e-01 -6.770043969154357910e-01
6.263000000000000000e+03 2.134591293334960938e+01 1.982953071594238281e+01 4.159200191497802734e-02 1.275576502084732056e-01 5.074489489197731018e-02 7.658477872610092163e-02
6.264000000000000000e+03 3.870467758178710938e+01 9.408906936645507812e+00 -7.644445300102233887e-01 -8.375542759895324707e-01 -4.805996417999267578e-01 -7.161995172500610352e-01
6.265000000000000000e+03 4.038657760620117188e+01 1.127774620056152344e+01 -7.413845062255859375e-01 -8.138875365257263184e-01 -4.665816128253936768e-01 -7.541252970695495605e-01
6.266000000000000000e+03 3.842808151245117188e+01 8.772248268127441406e+00 -7.490981221199035645e-01 -8.176479935646057129e-01 -4.700238406658172607e-01 -6.780074834823608398e-01
6.267000000000000000e+03 3.887042236328125000e+01 8.896579742431640625e+00 -7.152608036994934082e-01 -7.820226550102233887e-01 -4.491850435733795166e-01 -6.568704247474670410e-01
6.268000000000000000e+03 3.923486709594726562e+01 9.975114822387695312e+00 -7.501392364501953125e-01 -8.302895426750183105e-01 -4.741286337375640869e-01 -7.237192392349243164e-01
6.269000000000000000e+03 4.985115051269531250e+01 2.051307106018066406e+01 -7.417986989021301270e-01 -3.279754817485809326e-01 -3.209322690963745117e-01 -7.610812187194824219e-01
6.270000000000000000e+03 3.976863098144531250e+01 1.045034885406494141e+01 -7.379037737846374512e-01 -8.181104660034179688e-01 -4.668042659759521484e-01 -7.295894026756286621e-01
6.271000000000000000e+03 1.501580715179443359e+01 1.456450462341308594e+01 3.065609931945800781e-02 1.632513105869293213e-01 5.817222222685813904e-02 5.939578264951705933e-02
6.272000000000000000e+03 4.969099807739257812e+01 2.294669151306152344e+01 -9.960176348686218262e-01 -5.053557157516479492e-01 -4.504120051860809326e-01 -9.225879907608032227e-01
6.273000000000000000e+03 1.646658515930175781e+01 1.448235416412353516e+01 4.451146721839904785e-02 1.710978597402572632e-01 6.468279659748077393e-02 8.120620995759963989e-02
6.274000000000000000e+03 1.571133136749267578e+01 1.322318172454833984e+01 4.705419391393661499e-02 1.897908002138137817e-01 7.105349749326705933e-02 8.294270187616348267e-02
6.275000000000000000e+03 1.687591743469238281e+01 1.510302639007568359e+01 4.293181747198104858e-02 1.638225466012954712e-01 6.202631071209907532e-02 8.044998347759246826e-02
6.276000000000000000e+03 1.423371028900146484e+01 1.311785602569580078e+01 3.435273841023445129e-02 1.820806562900543213e-01 6.493002176284790039e-02 5.622232705354690552e-02
6.277000000000000000e+03 1.370087623596191406e+01 1.274238300323486328e+01 3.335190936923027039e-02 1.826410740613937378e-01 6.479789316654205322e-02 4.765432327985763550e-02
6.278000000000000000e+03 3.497845077514648438e+01 4.880587577819824219e+00 -8.650528788566589355e-01 -7.366693615913391113e-01 -4.805166721343994141e-01 -4.917410314083099365e-01
6.279000000000000000e+03 3.659038543701171875e+01 5.654582023620605469e+00 -7.267222404479980469e-01 -7.258919477462768555e-01 -4.357842504978179932e-01 -4.923516809940338135e-01
6.280000000000000000e+03 3.284930419921875000e+01 2.165422916412353516e+00 -7.167210578918457031e-01 -6.767606735229492188e-01 -4.180445075035095215e-01 -1.550677418708801270e-01
6.281000000000000000e+03 3.942111206054687500e+01 1.140158462524414062e+01 -8.241143226623535156e-01 -9.123035669326782227e-01 -5.209254026412963867e-01 -8.282593488693237305e-01
6.282000000000000000e+03 1.602541160583496094e+01 2.039111137390136719e+01 7.703774608671665192e-03 1.054241880774497986e-01 3.393838927149772644e-02 3.608841449022293091e-02
6.283000000000000000e+03 1.240823554992675781e+01 1.094393444061279297e+01 4.476271569728851318e-02 1.943458765745162964e-01 7.173258066177368164e-02 2.053931355476379395e-02
6.284000000000000000e+03 3.641240692138671875e+01 6.432793617248535156e+00 -8.034731149673461914e-01 -7.822764515876770020e-01 -4.757248461246490479e-01 -5.922458767890930176e-01
6.285000000000000000e+03 2.381914329528808594e+01 2.298219871520996094e+01 3.525419160723686218e-02 1.123826280236244202e-01 4.429104551672935486e-02 6.902301311492919922e-02
6.286000000000000000e+03 2.452079200744628906e+01 2.282003784179687500e+01 3.933756053447723389e-02 1.123400181531906128e-01 4.550327360630035400e-02 7.234722375869750977e-02
6.287000000000000000e+03 5.526498031616210938e+01 2.563862991333007812e+01 -9.943128228187561035e-01 2.156785726547241211e-01 -2.335902750492095947e-01 -8.298765420913696289e-01
6.288000000000000000e+03 3.137751197814941406e+01 1.176150321960449219e+00 -6.172087788581848145e-01 -6.757300496101379395e-01 -3.878816664218902588e-01 -5.534511804580688477e-02
6.289000000000000000e+03 5.597577667236328125e+01 2.464490318298339844e+01 -8.119255900382995605e-01 3.290870487689971924e-01 -1.448515504598617554e-01 -7.391241192817687988e-01
6.290000000000000000e+03 5.520994949340820312e+01 2.519056892395019531e+01 -9.362752437591552734e-01 2.254868596792221069e-01 -2.132365256547927856e-01 -8.038877248764038086e-01
6.291000000000000000e+03 2.134218406677246094e+01 2.075761985778808594e+01 3.511328250169754028e-02 1.227002590894699097e-01 4.734406247735023499e-02 7.054334133863449097e-02
6.292000000000000000e+03 4.071276473999023438e+01 1.296871089935302734e+01 -8.175500631332397461e-01 -8.892275691032409668e-01 -5.120332837104797363e-01 -8.628945946693420410e-01
6.293000000000000000e+03 4.252310943603515625e+01 1.368807220458984375e+01 -7.236466407775878906e-01 -7.567554116249084473e-01 -4.441206157207489014e-01 -8.040631413459777832e-01
6.294000000000000000e+03 4.377640914916992188e+01 1.752239227294921875e+01 -8.599755167961120605e-01 -8.988276720046997070e-01 -5.276409387588500977e-01 -1.001740932464599609e+00
6.295000000000000000e+03 4.410630035400390625e+01 1.721725654602050781e+01 -8.214569687843322754e-01 -8.433397412300109863e-01 -4.994390308856964111e-01 -9.559851884841918945e-01
6.296000000000000000e+03 5.842249298095703125e+01 2.366246604919433594e+01 -4.425462186336517334e-01 6.763750314712524414e-01 7.014865428209304810e-02 -4.818045198917388916e-01
6.297000000000000000e+03 5.662941360473632812e+01 2.426854705810546875e+01 -6.929616928100585938e-01 4.282058775424957275e-01 -7.942675054073333740e-02 -6.690839529037475586e-01
6.298000000000000000e+03 1.908848953247070312e+01 1.893705749511718750e+01 3.274016454815864563e-02 1.320892125368118286e-01 4.944881424307823181e-02 6.832309812307357788e-02
6.299000000000000000e+03 1.724808883666992188e+01 1.597697067260742188e+01 4.004820436239242554e-02 1.554961055517196655e-01 5.866329371929168701e-02 7.596755772829055786e-02
6.300000000000000000e+03 1.616141510009765625e+01 1.767329597473144531e+01 2.043705806136131287e-02 1.323213577270507812e-01 4.582752659916877747e-02 5.132688209414482117e-02
6.301000000000000000e+03 3.340232467651367188e+01 2.658417940139770508e+00 -7.592661380767822266e-01 -6.813043951988220215e-01 -4.321711659431457520e-01 -2.172527015209197998e-01
6.302000000000000000e+03 1.381072521209716797e+01 1.374977588653564453e+01 2.782232686877250671e-02 1.646273732185363770e-01 5.773491039872169495e-02 4.435101523995399475e-02
6.303000000000000000e+03 3.391991806030273438e+01 1.284927845001220703e+00 -4.056126773357391357e-01 -6.695798039436340332e-01 -3.225577473640441895e-01 -5.719425901770591736e-02
6.304000000000000000e+03 1.508984756469726562e+01 1.591091728210449219e+01 2.334636822342872620e-02 1.445125341415405273e-01 5.035767331719398499e-02 4.965632781386375427e-02
6.305000000000000000e+03 1.721082878112792969e+01 1.514121150970458984e+01 4.659670963883399963e-02 1.640732735395431519e-01 6.320099532604217529e-02 8.314527571201324463e-02
6.306000000000000000e+03 3.393791580200195312e+01 3.144956588745117188e+00 -7.719224095344543457e-01 -6.793026328086853027e-01 -4.353675246238708496e-01 -2.709257304668426514e-01
6.307000000000000000e+03 3.677605056762695312e+01 2.848914861679077148e-01 -2.818981371819972992e-02 -5.873415470123291016e-01 -1.846594065427780151e-01 6.032151635736227036e-03
6.308000000000000000e+03 3.858401489257812500e+01 -1.917264461517333984e+00 2.991093397140502930e-01 -4.869901537895202637e-01 -5.636424943804740906e-02 6.374795734882354736e-02
6.309000000000000000e+03 3.737822341918945312e+01 -8.981747627258300781e-01 1.605189144611358643e-01 -5.641717314720153809e-01 -1.210958510637283325e-01 4.792761802673339844e-02
6.310000000000000000e+03 1.394728088378906250e+01 1.793572807312011719e+01 7.805450353771448135e-03 1.077141314744949341e-01 3.465587273240089417e-02 2.614445798099040985e-02
6.311000000000000000e+03 5.479685211181640625e+01 2.563616561889648438e+01 -1.021501898765563965e+00 1.539755761623382568e-01 -2.602578997611999512e-01 -8.432973027229309082e-01
6.312000000000000000e+03 6.159857177734375000e+01 2.251626396179199219e+01 4.461120814085006714e-03 1.319692134857177734e+00 3.972459733486175537e-01 2.207040786743164062e-02
6.313000000000000000e+03 6.297500610351562500e+01 1.842355155944824219e+01 3.262819051742553711e-01 2.249588251113891602e+00 7.727610468864440918e-01 5.005251765251159668e-01
6.314000000000000000e+03 6.669642639160156250e+01 2.436314201354980469e+01 2.028581649065017700e-01 2.577970504760742188e+00 8.342486023902893066e-01 9.549922347068786621e-01
6.315000000000000000e+03 6.434449005126953125e+01 2.234642982482910156e+01 2.358316928148269653e-01 2.088729143142700195e+00 6.973682641983032227e-01 5.158717632293701172e-01
6.316000000000000000e+03 2.020322799682617188e+01 2.635450553894042969e+01 7.317259442061185837e-03 9.163199365139007568e-02 2.968477644026279449e-02 3.898830339312553406e-02
6.317000000000000000e+03 2.498640632629394531e+01 2.761887359619140625e+01 2.112447470426559448e-02 9.614646434783935547e-02 3.518128022551536560e-02 5.264909937977790833e-02
6.318000000000000000e+03 2.381863212585449219e+01 2.754282760620117188e+01 1.720536686480045319e-02 9.500686824321746826e-02 3.366367146372795105e-02 4.916492477059364319e-02
6.319000000000000000e+03 6.522694396972656250e+01 2.049264907836914062e+01 3.428273797035217285e-01 2.730175971984863281e+00 9.219010472297668457e-01 7.427114844322204590e-01
6.320000000000000000e+03 6.290092849731445312e+01 2.325206947326660156e+01 6.310478597879409790e-02 1.484130620956420898e+00 4.641706049442291260e-01 1.735339015722274780e-01
6.321000000000000000e+03 3.696045303344726562e+01 8.201901435852050781e+00 -8.523669838905334473e-01 -8.820340037345886230e-01 -5.203202962875366211e-01 -7.315877079963684082e-01
6.322000000000000000e+03 1.565240573883056641e+01 1.486411380767822266e+01 3.393545746803283691e-02 1.639382690191268921e-01 5.936211720108985901e-02 6.598741561174392700e-02
6.323000000000000000e+03 1.416650390625000000e+01 1.637021827697753906e+01 1.568827219307422638e-02 1.297809332609176636e-01 4.364075884222984314e-02 3.631325811147689819e-02
6.324000000000000000e+03 5.900234985351562500e+01 2.340049362182617188e+01 -3.512639105319976807e-01 7.781166434288024902e-01 1.280558109283447266e-01 -4.022434353828430176e-01
6.325000000000000000e+03 6.045846176147460938e+01 2.228969955444335938e+01 -8.215744793415069580e-02 1.115992069244384766e+00 3.101503849029541016e-01 -1.161718294024467468e-01
6.326000000000000000e+03 6.500012207031250000e+01 1.963170433044433594e+01 3.581281602382659912e-01 2.785485029220581055e+00 9.430839419364929199e-01 7.319215536117553711e-01
6.327000000000000000e+03 1.782577896118164062e+01 1.796068763732910156e+01 3.080714680254459381e-02 1.370163559913635254e-01 5.034705251455307007e-02 6.586100161075592041e-02
6.328000000000000000e+03 1.840880966186523438e+01 1.849193763732910156e+01 3.105382248759269714e-02 1.336073279380798340e-01 4.939834401011466980e-02 6.683462858200073242e-02
6.329000000000000000e+03 3.563349151611328125e+01 -2.411795109510421753e-01 -5.346557591110467911e-04 -6.326270699501037598e-01 -1.899485141038894653e-01 2.840813435614109039e-02
6.330000000000000000e+03 1.446601772308349609e+01 1.899541664123535156e+01 6.118519697338342667e-03 1.029371321201324463e-01 3.271669521927833557e-02 2.738440409302711487e-02
6.331000000000000000e+03 6.534547424316406250e+01 1.439943504333496094e+01 4.097678959369659424e-01 3.448021173477172852e+00 1.157336711883544922e+00 8.112457394599914551e-01
6.332000000000000000e+03 6.388357162475585938e+01 1.293290042877197266e+01 3.974825441837310791e-01 3.084526062011718750e+00 1.044602632522583008e+00 7.093649506568908691e-01
6.333000000000000000e+03 6.283437347412109375e+01 3.604398965835571289e+00 3.567428588867187500e-01 3.210083723068237305e+00 1.070047974586486816e+00 6.326891779899597168e-01
6.334000000000000000e+03 6.426316833496093750e+01 1.826715660095214844e+01 3.704357445240020752e-01 2.696801662445068359e+00 9.201712608337402344e-01 6.684402227401733398e-01
6.335000000000000000e+03 5.995877456665039062e+01 2.217312812805175781e+01 -1.172848269343376160e-01 1.063585162162780762e+00 2.838900983333587646e-01 -1.690970212221145630e-01
6.336000000000000000e+03 3.835223007202148438e+01 -1.240870237350463867e+00 2.251011580228805542e-01 -5.025888085365295410e-01 -8.324629813432693481e-02 5.329431593418121338e-02
6.337000000000000000e+03 4.470466995239257812e+01 -4.741797447204589844e+00 4.619190394878387451e-01 1.404237300157546997e-01 1.807028353214263916e-01 1.314800679683685303e-01
6.338000000000000000e+03 2.301917266845703125e+01 2.235504722595214844e+01 3.442526981234550476e-02 1.146746203303337097e-01 4.472996667027473450e-02 6.921683996915817261e-02
6.339000000000000000e+03 2.237365150451660156e+01 2.159128761291503906e+01 3.586708009243011475e-02 1.186270192265510559e-01 4.634822905063629150e-02 7.085890322923660278e-02
6.340000000000000000e+03 6.650502014160156250e+01 2.219321823120117188e+01 3.033648729324340820e-01 2.981699466705322266e+00 9.855192899703979492e-01 9.339225292205810547e-01
6.341000000000000000e+03 6.458274841308593750e+01 2.150187873840332031e+01 2.792762219905853271e-01 2.326908588409423828e+00 7.818554043769836426e-01 6.065437793731689453e-01
6.342000000000000000e+03 6.786905670166015625e+01 2.367226791381835938e+01 2.159695327281951904e-01 3.408406972885131836e+00 1.087312936782836914e+00 1.224101543426513672e+00
6.343000000000000000e+03 5.614242172241210938e+01 2.414177703857421875e+01 -7.111024856567382812e-01 3.791224956512451172e-01 -9.959399700164794922e-02 -6.812800765037536621e-01
6.344000000000000000e+03 5.919441986083984375e+01 2.242182540893554688e+01 -2.305691838264465332e-01 8.992295265197753906e-01 2.005980908870697021e-01 -2.941416501998901367e-01
6.345000000000000000e+03 4.192668914794921875e+01 -3.907243251800537109e+00 4.483716487884521484e-01 -1.768817156553268433e-01 8.144697546958923340e-02 9.233159571886062622e-02
6.346000000000000000e+03 6.284896469116210938e+01 1.153403878211975098e+00 3.349159359931945801e-01 3.275620222091674805e+00 1.083160877227783203e+00 6.000881195068359375e-01
6.347000000000000000e+03 4.743758010864257812e+01 -9.076656341552734375e+00 4.557389020919799805e-01 6.088536977767944336e-01 3.193777799606323242e-01 1.382189393043518066e-01
6.348000000000000000e+03 4.865054321289062500e+01 -1.028370952606201172e+01 4.224641621112823486e-01 8.264859914779663086e-01 3.746850490570068359e-01 1.542920172214508057e-01
6.349000000000000000e+03 4.382930755615234375e+01 -4.436832904815673828e+00 4.527576565742492676e-01 1.878401264548301697e-02 1.414625048637390137e-01 1.154377087950706482e-01
6.350000000000000000e+03 6.225323104858398438e+01 -6.481272697448730469e+00 2.824940383434295654e-01 3.266391515731811523e+00 1.064665675163269043e+00 4.617624878883361816e-01
6.351000000000000000e+03 6.254660797119140625e+01 6.771704196929931641e+00 3.729461729526519775e-01 3.041144132614135742e+00 1.024227142333984375e+00 6.504088640213012695e-01
6.352000000000000000e+03 1.601451492309570312e+01 1.936707115173339844e+01 1.163631584495306015e-02 1.151276379823684692e-01 3.802918642759323120e-02 4.073632881045341492e-02
6.353000000000000000e+03 6.536807250976562500e+01 1.855601692199707031e+01 3.881579339504241943e-01 3.045944213867187500e+00 1.030230641365051270e+00 7.942515015602111816e-01
6.354000000000000000e+03 6.496828460693359375e+01 1.128784942626953125e+01 3.866242766380310059e-01 3.510744333267211914e+00 1.169210553169250488e+00 7.743132114410400391e-01
6.355000000000000000e+03 1.560061264038085938e+01 1.673734092712402344e+01 2.238928899168968201e-02 1.393554359674453735e-01 4.852341860532760620e-02 5.178030580282211304e-02
6.356000000000000000e+03 5.910470581054687500e+01 -1.452929139137268066e+00 3.722626268863677979e-01 2.500628948211669922e+00 8.618674874305725098e-01 4.907444119453430176e-01
6.357000000000000000e+03 6.383533477783203125e+01 8.379379272460937500e+00 3.782207965850830078e-01 3.310336589813232422e+00 1.106567263603210449e+00 7.043329477310180664e-01
6.358000000000000000e+03 6.454702758789062500e+01 7.247696399688720703e+00 3.653899133205413818e-01 3.553364992141723633e+00 1.175626397132873535e+00 7.218686342239379883e-01
6.359000000000000000e+03 2.578573989868164062e+01 3.042026519775390625e+01 1.933707110583782196e-02 8.809739351272583008e-02 3.223033994436264038e-02 4.465971887111663818e-02
6.360000000000000000e+03 2.753267669677734375e+01 3.459032058715820312e+01 2.110038883984088898e-02 8.050933480262756348e-02 3.048291616141796112e-02 3.215928748250007629e-02
6.361000000000000000e+03 1.648784637451171875e+01 2.308394241333007812e+01 1.531938905827701092e-03 8.871134370565414429e-02 2.707298472523689270e-02 2.866023406386375427e-02
6.362000000000000000e+03 1.993465042114257812e+01 2.468851470947265625e+01 1.015215925872325897e-02 9.961504489183425903e-02 3.293016180396080017e-02 4.396798461675643921e-02
6.363000000000000000e+03 4.009575271606445312e+01 -2.311388969421386719e+00 3.388949632644653320e-01 -3.739899396896362305e-01 -1.052848715335130692e-02 7.855822890996932983e-02
6.364000000000000000e+03 4.129392623901367188e+01 -3.606733322143554688e+00 4.231229722499847412e-01 -2.585127055644989014e-01 4.938307777047157288e-02 8.513280749320983887e-02
6.365000000000000000e+03 6.281978225708007812e+01 -1.128180313110351562e+01 2.101553231477737427e-01 3.384574890136718750e+00 1.078419089317321777e+00 3.841078877449035645e-01
6.366000000000000000e+03 5.036344528198242188e+01 -1.127248382568359375e+01 3.826223313808441162e-01 1.085360050201416016e+00 4.403947293758392334e-01 1.727534383535385132e-01
6.367000000000000000e+03 6.114364242553710938e+01 -6.557236194610595703e+00 3.016374111175537109e-01 3.004456996917724609e+00 9.918283224105834961e-01 4.517757296562194824e-01
6.368000000000000000e+03 4.903229141235351562e+01 -1.313066196441650391e+01 3.517741560935974121e-01 9.190118908882141113e-01 3.812358081340789795e-01 1.241539493203163147e-01
6.369000000000000000e+03 4.949774932861328125e+01 -1.207611370086669922e+01 3.846999406814575195e-01 9.848014116287231445e-01 4.108504056930541992e-01 1.488203108310699463e-01
6.370000000000000000e+03 1.847259521484375000e+01 2.795523643493652344e+01 -1.051841885782778263e-03 7.568837702274322510e-02 2.239095978438854218e-02 2.581260912120342255e-02
6.371000000000000000e+03 2.196495246887207031e+01 3.072390937805175781e+01 5.613039713352918625e-03 8.004225790500640869e-02 2.569659054279327393e-02 3.110631555318832397e-02
6.372000000000000000e+03 6.130665206909179688e+01 -9.066157341003417969e+00 2.705396115779876709e-01 3.076313972473144531e+00 1.004056096076965332e+00 4.087750613689422607e-01
6.373000000000000000e+03 2.326202583312988281e+01 2.603720664978027344e+01 1.926582492887973785e-02 1.012727916240692139e-01 3.616158664226531982e-02 5.353178456425666809e-02
6.374000000000000000e+03 2.347721290588378906e+01 2.470449066162109375e+01 2.546583674848079681e-02 1.061186939477920532e-01 3.947535902261734009e-02 5.975267291069030762e-02
6.375000000000000000e+03 4.979376983642578125e+01 -1.014509487152099609e+01 4.125279784202575684e-01 9.869096875190734863e-01 4.198313057422637939e-01 1.759013086557388306e-01
6.376000000000000000e+03 4.844257354736328125e+01 -1.154690074920654297e+01 4.005553722381591797e-01 8.209031224250793457e-01 3.664375245571136475e-01 1.326753497123718262e-01
6.377000000000000000e+03 6.260034561157226562e+01 -1.010973167419433594e+01 2.303662300109863281e-01 3.331794261932373047e+00 1.068648219108581543e+00 3.965285122394561768e-01
6.378000000000000000e+03 6.164556503295898438e+01 -1.127219796180725098e+00 3.406180739402770996e-01 3.049998760223388672e+00 1.017185091972351074e+00 5.439306497573852539e-01
6.379000000000000000e+03 6.189121246337890625e+01 5.392164587974548340e-01 3.473064899444580078e-01 3.071555376052856445e+00 1.025658607482910156e+00 5.708104372024536133e-01
6.380000000000000000e+03 5.921750259399414062e+01 -1.519557285308837891e+01 2.053270488977432251e-01 2.764298915863037109e+00 8.908877968788146973e-01 3.016704022884368896e-01
6.381000000000000000e+03 6.568022918701171875e+01 7.958024024963378906e+00 3.552255034446716309e-01 3.864543676376342773e+00 1.265930771827697754e+00 7.700048685073852539e-01
6.382000000000000000e+03 6.500644683837890625e+01 9.109872817993164062e+00 3.769752085208892822e-01 3.626400709152221680e+00 1.201012730598449707e+00 7.649949789047241211e-01
6.383000000000000000e+03 6.207089996337890625e+01 -1.724867057800292969e+01 1.347102522850036621e-01 3.298819065093994141e+00 1.030058741569519043e+00 2.943955957889556885e-01
6.384000000000000000e+03 5.365155029296875000e+01 -1.369664859771728516e+01 2.935459315776824951e-01 1.732754230499267578e+00 6.078900694847106934e-01 2.176211476325988770e-01
6.385000000000000000e+03 5.889936447143554688e+01 -9.445677757263183594e+00 3.039276897907257080e-01 2.619325160980224609e+00 8.769758343696594238e-01 3.741973340511322021e-01
6.386000000000000000e+03 5.814013290405273438e+01 -1.798832702636718750e+01 1.554347276687622070e-01 2.591488599777221680e+00 8.240770101547241211e-01 2.604180276393890381e-01
6.387000000000000000e+03 5.674303817749023438e+01 -1.784941291809082031e+01 1.709693074226379395e-01 2.343200445175170898e+00 7.542509436607360840e-01 2.445020526647567749e-01
6.388000000000000000e+03 5.617817687988281250e+01 -2.561115837097167969e+01 4.472507908940315247e-02 2.352541685104370117e+00 7.191800475120544434e-01 2.566200494766235352e-01
6.389000000000000000e+03 5.810018539428710938e+01 -2.149655151367187500e+01 9.745849668979644775e-02 2.625730991363525391e+00 8.169568777084350586e-01 2.518183290958404541e-01
6.390000000000000000e+03 6.142440414428710938e+01 -2.332767677307128906e+01 7.436888664960861206e-02 3.169349670410156250e+00 9.731155633926391602e-01 2.648606598377227783e-01
6.391000000000000000e+03 1.478056335449218750e+01 -2.790000152587890625e+01 2.007700800895690918e-01 -4.572626650333404541e-01 -7.694777846336364746e-02 -2.867059111595153809e-01
6.392000000000000000e+03 1.290778446197509766e+01 -3.003657531738281250e+01 1.427109986543655396e-01 -5.837256312370300293e-01 -1.323043853044509888e-01 -2.386197298765182495e-01
6.393000000000000000e+03 1.356937885284423828e+01 -3.173650169372558594e+01 1.741239875555038452e-01 -5.432794690132141113e-01 -1.107466444373130798e-01 -2.148996442556381226e-01
6.394000000000000000e+03 7.201463317871093750e+01 -4.100980377197265625e+01 5.730844661593437195e-02 4.764549732208251953e+00 1.446557402610778809e+00 2.484318614006042480e-02
6.395000000000000000e+03 5.495189666748046875e+01 -3.402824783325195312e+01 2.222615033388137817e-01 2.104138851165771484e+00 6.979200839996337891e-01 3.534199595451354980e-01
6.396000000000000000e+03 5.331079864501953125e+01 -2.985140991210937500e+01 1.763444952666759491e-02 1.905656933784484863e+00 5.769873857498168945e-01 3.056629598140716553e-01
6.397000000000000000e+03 6.243452072143554688e+01 -2.738368225097656250e+01 7.311639189720153809e-02 3.343646764755249023e+00 1.025028944015502930e+00 2.707788348197937012e-01
6.398000000000000000e+03 4.750682067871093750e+01 1.736154174804687500e+01 -6.196719408035278320e-01 -4.553977847099304199e-01 -3.225209116935729980e-01 -7.224153876304626465e-01
6.399000000000000000e+03 4.843326187133789062e+01 2.038942718505859375e+01 -8.169626593589782715e-01 -5.311650037765502930e-01 -4.044382870197296143e-01 -8.394778370857238770e-01
6.400000000000000000e+03 4.355014038085937500e+01 1.528083038330078125e+01 -7.435105443000793457e-01 -7.597690224647521973e-01 -4.509838819503784180e-01 -8.602405786514282227e-01
6.401000000000000000e+03 4.249313354492187500e+01 1.410364055633544922e+01 -7.525600194931030273e-01 -7.885929346084594727e-01 -4.623458683490753174e-01 -8.417279124259948730e-01
6.402000000000000000e+03 3.339330673217773438e+01 1.550538063049316406e+00 -4.991007149219512939e-01 -6.600731611251831055e-01 -3.477521538734436035e-01 -8.226791024208068848e-02
6.403000000000000000e+03 4.063414764404296875e+01 1.257560062408447266e+01 -8.001031875610351562e-01 -8.725871443748474121e-01 -5.018070936203002930e-01 -8.411645889282226562e-01
6.404000000000000000e+03 4.572790908813476562e+01 1.791997528076171875e+01 -7.635111808776855469e-01 -7.201382517814636230e-01 -4.450948238372802734e-01 -8.802089095115661621e-01
6.405000000000000000e+03 4.754746627807617188e+01 1.813391113281250000e+01 -6.725680828094482422e-01 -4.984903037548065186e-01 -3.513175249099731445e-01 -7.632296681404113770e-01
6.406000000000000000e+03 5.375893020629882812e+01 2.478616333007812500e+01 -9.642075896263122559e-01 4.765345901250839233e-02 -2.749662399291992188e-01 -8.263230323791503906e-01
6.407000000000000000e+03 4.936985778808593750e+01 2.060908508300781250e+01 -7.835397124290466309e-01 -4.104272425174713135e-01 -3.581900894641876221e-01 -7.973617911338806152e-01
6.408000000000000000e+03 4.677643203735351562e+01 1.817754936218261719e+01 -7.236896157264709473e-01 -6.065050959587097168e-01 -3.990584015846252441e-01 -8.239641189575195312e-01
6.409000000000000000e+03 3.875406646728515625e+01 8.475080490112304688e+00 -7.008350491523742676e-01 -7.664660811424255371e-01 -4.401903450489044189e-01 -6.301872730255126953e-01
6.410000000000000000e+03 5.014303207397460938e+01 2.311441040039062500e+01 -9.860170483589172363e-01 -4.381395578384399414e-01 -4.272469878196716309e-01 -9.030443429946899414e-01
6.411000000000000000e+03 5.004306030273437500e+01 2.222755050659179688e+01 -9.104155898094177246e-01 -4.035969972610473633e-01 -3.942037820816040039e-01 -8.611546158790588379e-01
6.412000000000000000e+03 4.604891967773437500e+01 1.755158805847167969e+01 -7.214358448982238770e-01 -6.520013809204101562e-01 -4.120311737060546875e-01 -8.354125022888183594e-01
6.413000000000000000e+03 5.402973556518554688e+01 2.415780067443847656e+01 -8.648447990417480469e-01 1.090232655405998230e-01 -2.267464548349380493e-01 -7.779077887535095215e-01
6.414000000000000000e+03 5.136857223510742188e+01 2.316296195983886719e+01 -9.224375486373901367e-01 -2.506971657276153564e-01 -3.519404232501983643e-01 -8.386504650115966797e-01
6.415000000000000000e+03 5.184837722778320312e+01 2.313820075988769531e+01 -8.902863264083862305e-01 -1.708958148956298828e-01 -3.183546364307403564e-01 -8.138326406478881836e-01
6.416000000000000000e+03 4.503566741943359375e+01 1.705937767028808594e+01 -7.478644251823425293e-01 -7.306172251701354980e-01 -4.435445070266723633e-01 -8.776605129241943359e-01
6.417000000000000000e+03 4.113340759277343750e+01 1.296418285369873047e+01 -7.884824872016906738e-01 -8.496500253677368164e-01 -4.914397597312927246e-01 -8.363814353942871094e-01
6.418000000000000000e+03 4.154824447631835938e+01 1.244560718536376953e+01 -7.290053367614746094e-01 -7.750931382179260254e-01 -4.512295424938201904e-01 -7.717252969741821289e-01
6.419000000000000000e+03 5.294199752807617188e+01 2.400472640991210938e+01 -9.210893511772155762e-01 -5.068704113364219666e-02 -2.915329337120056152e-01 -8.116255998611450195e-01
6.420000000000000000e+03 5.356634902954101562e+01 2.434060478210449219e+01 -9.212753772735595703e-01 3.674235939979553223e-02 -2.653599083423614502e-01 -8.094476461410522461e-01
6.421000000000000000e+03 4.133203887939453125e+01 1.115239048004150391e+01 -6.619109511375427246e-01 -7.105911374092102051e-01 -4.117506146430969238e-01 -6.837726235389709473e-01
6.422000000000000000e+03 5.087324142456054688e+01 2.311995887756347656e+01 -9.441477656364440918e-01 -3.264935910701751709e-01 -3.811924159526824951e-01 -8.642640113830566406e-01
6.423000000000000000e+03 4.766673660278320312e+01 2.041411399841308594e+01 -8.728130459785461426e-01 -6.460416913032531738e-01 -4.556564092636108398e-01 -8.927133679389953613e-01
6.424000000000000000e+03 4.303326797485351562e+01 1.537536239624023438e+01 -7.853857874870300293e-01 -8.134268522262573242e-01 -4.796437919139862061e-01 -9.004549384117126465e-01
6.425000000000000000e+03 4.484730148315429688e+01 1.669733238220214844e+01 -7.386183142662048340e-01 -7.260885834693908691e-01 -4.394120872020721436e-01 -8.692599534988403320e-01
6.426000000000000000e+03 4.174790191650390625e+01 1.367199516296386719e+01 -7.773531079292297363e-01 -8.346585631370544434e-01 -4.836035072803497314e-01 -8.521645069122314453e-01
6.427000000000000000e+03 3.929868698120117188e+01 9.480934143066406250e+00 -7.183802723884582520e-01 -7.951234579086303711e-01 -4.540511071681976318e-01 -6.801364421844482422e-01
6.428000000000000000e+03 3.398367309570312500e+01 2.164058685302734375e+00 -5.728061199188232422e-01 -6.607584953308105469e-01 -3.700693845748901367e-01 -1.387186050415039062e-01
6.429000000000000000e+03 4.469009017944335938e+01 1.722450637817382812e+01 -7.855613231658935547e-01 -7.834140658378601074e-01 -4.706926047801971436e-01 -9.151310324668884277e-01
6.430000000000000000e+03 4.417570114135742188e+01 1.659764289855957031e+01 -7.781551480293273926e-01 -7.939620614051818848e-01 -4.716351628303527832e-01 -9.123293161392211914e-01
6.431000000000000000e+03 4.349586868286132812e+01 1.479085063934326172e+01 -7.163121700286865234e-01 -7.278813719749450684e-01 -4.332580566406250000e-01 -8.264430165290832520e-01
6.432000000000000000e+03 4.033233642578125000e+01 1.083728599548339844e+01 -7.198920249938964844e-01 -7.900280356407165527e-01 -4.529760181903839111e-01 -7.228366136550903320e-01
6.433000000000000000e+03 4.080595779418945312e+01 1.082997322082519531e+01 -6.855807900428771973e-01 -7.427861094474792480e-01 -4.285100698471069336e-01 -6.934502124786376953e-01
6.434000000000000000e+03 4.051824569702148438e+01 9.302439689636230469e+00 -6.109796166419982910e-01 -6.800873875617980957e-01 -3.873201012611389160e-01 -5.912668704986572266e-01
6.435000000000000000e+03 5.066270446777343750e+01 2.255359077453613281e+01 -8.949283361434936523e-01 -3.247545361518859863e-01 -3.659048676490783691e-01 -8.355152606964111328e-01
6.436000000000000000e+03 4.987020111083984375e+01 2.148055458068847656e+01 -8.404499888420104980e-01 -3.883756995201110840e-01 -3.686476945877075195e-01 -8.189558982849121094e-01
6.437000000000000000e+03 3.679617309570312500e+01 6.843272209167480469e+00 -7.851589918136596680e-01 -7.940719723701477051e-01 -4.737692773342132568e-01 -6.089478135108947754e-01
6.438000000000000000e+03 3.721559906005859375e+01 7.173545360565185547e+00 -7.650240659713745117e-01 -7.911018133163452148e-01 -4.668377637863159180e-01 -6.120937466621398926e-01
6.439000000000000000e+03 1.626878738403320312e+01 1.512448501586914062e+01 3.744134306907653809e-02 1.618085503578186035e-01 5.977496504783630371e-02 7.235756516456604004e-02
6.440000000000000000e+03 3.433329010009765625e+01 9.171485304832458496e-01 -2.882938981056213379e-01 -6.611627936363220215e-01 -2.848370075225830078e-01 -3.257078304886817932e-02
6.441000000000000000e+03 3.442013931274414062e+01 3.209493160247802734e+00 -7.215939760208129883e-01 -6.853843331336975098e-01 -4.220934808254241943e-01 -2.705510556697845459e-01
6.442000000000000000e+03 1.478730964660644531e+01 1.350135135650634766e+01 3.594876453280448914e-02 1.799318343400955200e-01 6.476417928934097290e-02 6.381207704544067383e-02
6.443000000000000000e+03 1.580717754364013672e+01 1.371057605743408203e+01 4.503159970045089722e-02 1.814191490411758423e-01 6.793522834777832031e-02 7.903132587671279907e-02
6.444000000000000000e+03 1.374990844726562500e+01 1.322802257537841797e+01 3.227611631155014038e-02 1.725733727216720581e-01 6.145484745502471924e-02 4.509719461202621460e-02
6.445000000000000000e+03 2.185471916198730469e+01 2.086093711853027344e+01 3.745698183774948120e-02 1.224009469151496887e-01 4.795737937092781067e-02 7.282851636409759521e-02
6.446000000000000000e+03 4.708620834350585938e+01 1.977064323425292969e+01 -8.418656587600708008e-01 -6.807932257652282715e-01 -4.567976593971252441e-01 -8.961567282676696777e-01
6.447000000000000000e+03 3.711789703369140625e+01 5.366863727569580078e+00 -6.378365159034729004e-01 -6.843408942222595215e-01 -3.966532349586486816e-01 -4.325998127460479736e-01
6.448000000000000000e+03 3.569314956665039062e+01 6.157105922698974609e+00 -8.642721772193908691e-01 -7.998799681663513184e-01 -4.992456436157226562e-01 -6.099982261657714844e-01
6.449000000000000000e+03 3.982704162597656250e+01 1.088978195190429688e+01 -7.628711462020874023e-01 -8.388497233390808105e-01 -4.805162549018859863e-01 -7.603294849395751953e-01
6.450000000000000000e+03 4.022991943359375000e+01 1.006990146636962891e+01 -6.785184144973754883e-01 -7.479555010795593262e-01 -4.279421865940093994e-01 -6.678903102874755859e-01
6.451000000000000000e+03 4.650213241577148438e+01 1.602509117126464844e+01 -5.859793424606323242e-01 -4.836438298225402832e-01 -3.208869397640228271e-01 -7.040470242500305176e-01
6.452000000000000000e+03 4.757720184326171875e+01 1.967990875244140625e+01 -8.049587607383728027e-01 -5.994014739990234375e-01 -4.213080704212188721e-01 -8.536811470985412598e-01
6.453000000000000000e+03 2.094922256469726562e+01 2.047852897644042969e+01 3.447277843952178955e-02 1.241294443607330322e-01 4.758066684007644653e-02 7.068079710006713867e-02
6.454000000000000000e+03 1.973445892333984375e+01 1.998180580139160156e+01 3.011654689908027649e-02 1.260055750608444214e-01 4.683663696050643921e-02 6.605374068021774292e-02
6.455000000000000000e+03 3.761690521240234375e+01 7.491261959075927734e+00 -7.448956966400146484e-01 -7.898213863372802734e-01 -4.604151248931884766e-01 -6.174933314323425293e-01
6.456000000000000000e+03 4.363904190063476562e+01 1.577493476867675781e+01 -7.684352993965148926e-01 -7.864224910736083984e-01 -4.664573371410369873e-01 -8.914561271667480469e-01
6.457000000000000000e+03 2.398255729675292969e+01 2.366470336914062500e+01 3.231185302138328552e-02 1.098948940634727478e-01 4.266202449798583984e-02 6.641126424074172974e-02
6.458000000000000000e+03 1.720497322082519531e+01 1.654152870178222656e+01 3.489368036389350891e-02 1.477548480033874512e-01 5.479455739259719849e-02 7.064177840948104858e-02
6.459000000000000000e+03 1.758439254760742188e+01 1.747545433044433594e+01 3.126343339681625366e-02 1.402557492256164551e-01 5.145575478672981262e-02 6.732492893934249878e-02
6.460000000000000000e+03 1.661321258544921875e+01 1.488742923736572266e+01 4.366580396890640259e-02 1.665494590997695923e-01 6.306458264589309692e-02 7.895340770483016968e-02
6.461000000000000000e+03 1.648277854919433594e+01 1.557363986968994141e+01 3.696269914507865906e-02 1.571639031171798706e-01 5.823798105120658875e-02 7.104977220296859741e-02
6.462000000000000000e+03 1.439528656005859375e+01 1.418326187133789062e+01 2.850954793393611908e-02 1.641316413879394531e-01 5.779235437512397766e-02 5.182332918047904968e-02
6.463000000000000000e+03 5.436755371093750000e+01 2.547118949890136719e+01 -1.027683734893798828e+00 1.075631976127624512e-01 -2.760361433029174805e-01 -8.461135625839233398e-01
6.464000000000000000e+03 3.494405364990234375e+01 3.826946735382080078e+00 -7.440057992935180664e-01 -6.905589699745178223e-01 -4.303694367408752441e-01 -3.399615287780761719e-01
6.465000000000000000e+03 5.465052413940429688e+01 2.477657508850097656e+01 -9.067999720573425293e-01 1.697735339403152466e-01 -2.211079299449920654e-01 -7.941648364067077637e-01
6.466000000000000000e+03 5.676158523559570312e+01 2.361083984375000000e+01 -5.892515182495117188e-01 4.828499853610992432e-01 -3.192045539617538452e-02 -6.024981141090393066e-01
6.467000000000000000e+03 1.430653572082519531e+01 1.363545036315917969e+01 3.276120126247406006e-02 1.720709651708602905e-01 6.144964694976806641e-02 5.330580845475196838e-02
6.468000000000000000e+03 3.619786834716796875e+01 1.097447797656059265e-02 -1.125393807888031006e-02 -6.054413914680480957e-01 -1.850086003541946411e-01 2.336550690233707428e-02
6.469000000000000000e+03 1.683721542358398438e+01 2.198284530639648438e+01 5.764568224549293518e-03 9.915491938591003418e-02 3.147584572434425354e-02 3.561176732182502747e-02
6.470000000000000000e+03 1.788274192810058594e+01 1.856196212768554688e+01 2.702329680323600769e-02 1.325405091047286987e-01 4.786914214491844177e-02 6.274940073490142822e-02
6.471000000000000000e+03 4.054735946655273438e+01 1.214918422698974609e+01 -7.803916931152343750e-01 -8.556864857673645020e-01 -4.908234477043151855e-01 -8.117480874061584473e-01
6.472000000000000000e+03 5.020013427734375000e+01 2.273864173889160156e+01 -9.424915313720703125e-01 -4.084195196628570557e-01 -4.052733182907104492e-01 -8.793569803237915039e-01
6.473000000000000000e+03 1.586810588836669922e+01 1.535701179504394531e+01 3.280016407370567322e-02 1.573164761066436768e-01 5.703499168157577515e-02 6.416777521371841431e-02
6.474000000000000000e+03 1.471121501922607422e+01 1.539698410034179688e+01 2.358748018741607666e-02 1.473534852266311646e-01 5.128229036927223206e-02 4.860641062259674072e-02
6.475000000000000000e+03 4.695525741577148438e+01 1.888354873657226562e+01 -7.672149538993835449e-01 -6.331544518470764160e-01 -4.201108217239379883e-01 -8.501332998275756836e-01
6.476000000000000000e+03 4.638759613037109375e+01 1.847248649597167969e+01 -7.638857960700988770e-01 -6.712436676025390625e-01 -4.305388331413269043e-01 -8.662912845611572266e-01
6.477000000000000000e+03 4.310700607299804688e+01 -3.715172290802001953e+00 4.375586807727813721e-01 -6.959981471300125122e-02 1.103876605629920959e-01 1.015476137399673462e-01
6.478000000000000000e+03 4.306119918823242188e+01 -2.200049400329589844e+00 3.563986420631408691e-01 -9.771694242954254150e-02 7.760450989007949829e-02 9.855406731367111206e-02
6.479000000000000000e+03 3.536785888671875000e+01 2.950949072837829590e-01 -1.050336882472038269e-01 -6.386836767196655273e-01 -2.231152057647705078e-01 9.200316853821277618e-03
6.480000000000000000e+03 3.645029449462890625e+01 -5.886341929435729980e-01 9.311917424201965332e-02 -6.042758226394653320e-01 -1.533470004796981812e-01 4.203972592949867249e-02
6.481000000000000000e+03 3.436798477172851562e+01 2.453446626663208008e+00 -5.900467634201049805e-01 -6.650128364562988281e-01 -3.765178620815277100e-01 -1.709277778863906860e-01
6.482000000000000000e+03 1.632049560546875000e+01 1.693000030517578125e+01 2.585904859006404877e-02 1.405592113733291626e-01 4.992547631263732910e-02 5.843802914023399353e-02
6.483000000000000000e+03 3.430313873291015625e+01 1.696468830108642578e+00 -4.586620926856994629e-01 -6.625012159347534180e-01 -3.363489806652069092e-01 -9.740877896547317505e-02
6.484000000000000000e+03 3.813003540039062500e+01 -5.149049758911132812e-01 1.273610442876815796e-01 -5.142599344253540039e-01 -1.160696670413017273e-01 3.624886646866798401e-02
6.485000000000000000e+03 6.120580291748046875e+01 2.162680435180664062e+01 4.216447472572326660e-02 1.364263057708740234e+00 4.219282567501068115e-01 4.367379844188690186e-02
6.486000000000000000e+03 6.177779388427734375e+01 2.187055397033691406e+01 9.318184107542037964e-02 1.463692545890808105e+00 4.670622944831848145e-01 1.153683960437774658e-01
6.487000000000000000e+03 1.408832645416259766e+01 1.715637016296386719e+01 1.156473625451326370e-02 1.182041391730308533e-01 3.893066197633743286e-02 3.150113299489021301e-02
6.488000000000000000e+03 6.266698074340820312e+01 2.264697456359863281e+01 9.077022224664688110e-02 1.528482437133789062e+00 4.857757985591888428e-01 1.793446987867355347e-01
6.489000000000000000e+03 2.060365676879882812e+01 2.093374824523925781e+01 2.939829602837562561e-02 1.216342002153396606e-01 4.530974850058555603e-02 6.558848172426223755e-02
6.490000000000000000e+03 2.014980316162109375e+01 2.047455215454101562e+01 2.909358218312263489e-02 1.228830665349960327e-01 4.559299349784851074e-02 6.582208722829818726e-02
6.491000000000000000e+03 4.054459762573242188e+01 -1.754802107810974121e+00 3.068474233150482178e-01 -3.364137709140777588e-01 -8.869905024766921997e-03 6.951837986707687378e-02
6.492000000000000000e+03 3.408784103393554688e+01 4.954726397991180420e-01 -2.121251523494720459e-01 -6.768814921379089355e-01 -2.667019963264465332e-01 5.302783101797103882e-03
6.493000000000000000e+03 2.226455307006835938e+01 2.236539459228515625e+01 3.024715185165405273e-02 1.150886639952659607e-01 4.360074549913406372e-02 6.575917452573776245e-02
6.494000000000000000e+03 6.029380798339843750e+01 2.179638290405273438e+01 -3.730390220880508423e-02 1.152961015701293945e+00 3.346971273422241211e-01 -9.305601567029953003e-02
6.495000000000000000e+03 2.217797470092773438e+01 2.325500106811523438e+01 2.540907263755798340e-02 1.101958528161048889e-01 4.068147763609886169e-02 6.086562573909759521e-02
6.496000000000000000e+03 5.866265869140625000e+01 2.219577980041503906e+01 -2.558114230632781982e-01 8.387245535850524902e-01 1.748739331960678101e-01 -3.243754208087921143e-01
6.497000000000000000e+03 5.878969192504882812e+01 2.281384277343750000e+01 -3.120962381362915039e-01 7.973377704620361328e-01 1.455724686384201050e-01 -3.719156682491302490e-01
6.498000000000000000e+03 6.177425384521484375e+01 3.245379924774169922e+00 3.622483909130096436e-01 2.981450319290161133e+00 1.003109574317932129e+00 5.999832153320312500e-01
6.499000000000000000e+03 4.737824630737304688e+01 -7.889963626861572266e+00 4.658533632755279541e-01 5.674619078636169434e-01 3.099945783615112305e-01 1.511550396680831909e-01
6.500000000000000000e+03 4.452785873413085938e+01 -3.731019020080566406e+00 4.315789639949798584e-01 1.045532673597335815e-01 1.608396768569946289e-01 1.280039846897125244e-01
6.501000000000000000e+03 6.369782638549804688e+01 2.196236991882324219e+01 2.011324167251586914e-01 1.936663150787353516e+00 6.413387060165405273e-01 4.135897457599639893e-01
6.502000000000000000e+03 6.298260879516601562e+01 1.149736118316650391e+01 3.922604024410247803e-01 2.900481224060058594e+00 9.878224730491638184e-01 6.623361110687255859e-01
6.503000000000000000e+03 6.417990112304687500e+01 1.378036022186279297e+01 4.026028513908386230e-01 3.101378202438354492e+00 1.051194310188293457e+00 7.277055978775024414e-01
6.504000000000000000e+03 6.363899993896484375e+01 7.450594425201416016e+00 3.756724596023559570e-01 3.295170068740844727e+00 1.101252794265747070e+00 6.915183663368225098e-01
6.505000000000000000e+03 6.316909027099609375e+01 5.632867336273193359e+00 3.627558648586273193e-01 3.231626749038696289e+00 1.078314781188964844e+00 6.638242006301879883e-01
6.506000000000000000e+03 6.333090972900390625e+01 1.401862239837646484e+01 3.888927698135375977e-01 2.828330755233764648e+00 9.651670455932617188e-01 6.512904763221740723e-01
6.507000000000000000e+03 6.515101623535156250e+01 1.653183746337890625e+01 4.113450050354003906e-01 3.203882217407226562e+00 1.084568142890930176e+00 7.878018617630004883e-01
6.508000000000000000e+03 1.817646217346191406e+01 2.044951248168945312e+01 1.795532926917076111e-02 1.190326735377311707e-01 4.109640046954154968e-02 5.277945846319198608e-02
6.509000000000000000e+03 1.605720901489257812e+01 1.847924041748046875e+01 1.500361226499080658e-02 1.232489645481109619e-01 4.147577285766601562e-02 4.577028006315231323e-02
6.510000000000000000e+03 1.535551929473876953e+01 1.833818054199218750e+01 1.242940686643123627e-02 1.193873658776283264e-01 3.954503312706947327e-02 3.940547257661819458e-02
6.511000000000000000e+03 3.907495880126953125e+01 -9.814259409904479980e-01 2.072063982486724854e-01 -4.548708200454711914e-01 -7.429932802915573120e-02 5.384002998471260071e-02
6.512000000000000000e+03 5.947646713256835938e+01 2.179059600830078125e+01 -1.167903840541839600e-01 1.025427460670471191e+00 2.725911140441894531e-01 -1.885783374309539795e-01
6.513000000000000000e+03 1.488223648071289062e+01 1.653721046447753906e+01 1.852477528154850006e-02 1.347280442714691162e-01 4.597584903240203857e-02 4.391821846365928650e-02
6.514000000000000000e+03 1.851490974426269531e+01 1.919381713867187500e+01 2.665415406227111816e-02 1.290095746517181396e-01 4.669911786913871765e-02 6.249724328517913818e-02
6.515000000000000000e+03 6.401483154296875000e+01 9.372129440307617188e+00 3.831197023391723633e-01 3.309324741363525391e+00 1.107733368873596191e+00 7.170470356941223145e-01
6.516000000000000000e+03 6.358189010620117188e+01 1.088842487335205078e+01 3.908795416355133057e-01 3.120434522628784180e+00 1.053394198417663574e+00 7.001492977142333984e-01
6.517000000000000000e+03 6.273518753051757812e+01 1.029149818420410156e+01 3.877735137939453125e-01 2.928787469863891602e+00 9.949682950973510742e-01 6.560195684432983398e-01
6.518000000000000000e+03 6.387445068359375000e+01 4.532312393188476562e+00 3.465861678123474121e-01 3.455109834671020508e+00 1.140508770942687988e+00 6.674634218215942383e-01
6.519000000000000000e+03 4.235068130493164062e+01 -3.268955469131469727e+00 4.120066463947296143e-01 -1.504464149475097656e-01 7.846806943416595459e-02 9.844876825809478760e-02
6.520000000000000000e+03 5.125899887084960938e+01 -1.231537628173828125e+01 3.522193133831024170e-01 1.283308148384094238e+00 4.906582236289978027e-01 1.806399822235107422e-01
6.521000000000000000e+03 6.445159912109375000e+01 1.468788051605224609e+01 3.988987207412719727e-01 3.116598844528198242e+00 1.054649233818054199e+00 7.402521967887878418e-01
6.522000000000000000e+03 6.420314025878906250e+01 1.172591114044189453e+01 4.012962281703948975e-01 3.269668102264404297e+00 1.101289272308349609e+00 7.395392060279846191e-01
6.523000000000000000e+03 6.350575256347656250e+01 1.215606975555419922e+01 3.942302465438842773e-01 3.017502784729003906e+00 1.023519873619079590e+00 6.856541633605957031e-01
6.524000000000000000e+03 1.877567291259765625e+01 2.093330001831054688e+01 1.875603012740612030e-02 1.170573979616165161e-01 4.074402898550033569e-02 5.364777147769927979e-02
6.525000000000000000e+03 6.545961761474609375e+01 7.036737442016601562e+00 3.476503789424896240e-01 3.819020986557006836e+00 1.250001430511474609e+00 7.493005990982055664e-01
6.526000000000000000e+03 6.476465606689453125e+01 8.179851531982421875e+00 3.688824772834777832e-01 3.578764200210571289e+00 1.184293985366821289e+00 7.438422441482543945e-01
6.527000000000000000e+03 4.233396148681640625e+01 -2.566994190216064453e+00 3.768356144428253174e-01 -1.594913601875305176e-01 6.520327925682067871e-02 9.700565040111541748e-02
6.528000000000000000e+03 6.310350036621093750e+01 1.319701671600341797e+01 3.919652998447418213e-01 2.827944993972778320e+00 9.659730792045593262e-01 6.483874917030334473e-01
6.529000000000000000e+03 6.429830169677734375e+01 1.977890396118164062e+01 3.339996933937072754e-01 2.499046802520751953e+00 8.499139547348022461e-01 6.278754472732543945e-01
6.530000000000000000e+03 6.475078582763671875e+01 1.562382602691650391e+01 4.082134664058685303e-01 3.155691862106323242e+00 1.069171547889709473e+00 7.614987492561340332e-01
6.531000000000000000e+03 5.488844299316406250e+01 -1.414484786987304688e+01 2.704665660858154297e-01 1.952453136444091797e+00 6.668758988380432129e-01 2.384428977966308594e-01
6.532000000000000000e+03 5.419235992431640625e+01 -1.236208724975585938e+01 3.158895671367645264e-01 1.794606804847717285e+00 6.331489086151123047e-01 2.462970018386840820e-01
6.533000000000000000e+03 6.129318618774414062e+01 -2.813746929168701172e+00 3.313102126121520996e-01 2.998774051666259766e+00 9.990252852439880371e-01 5.129483938217163086e-01
6.534000000000000000e+03 6.001486587524414062e+01 -7.938931941986083984e+00 3.033672869205474854e-01 2.810306072235107422e+00 9.341020584106445312e-01 4.093373715877532959e-01
6.535000000000000000e+03 6.240263748168945312e+01 -7.681101799011230469e+00 2.643682658672332764e-01 3.297855138778686523e+00 1.068667054176330566e+00 4.432851076126098633e-01
6.536000000000000000e+03 6.095669555664062500e+01 -1.346330344676971436e-01 3.565464913845062256e-01 2.879942178726196289e+00 9.709466099739074707e-01 5.497499108314514160e-01
6.537000000000000000e+03 6.246229171752929688e+01 -1.409324264526367188e+01 1.827135980129241943e-01 3.344759941101074219e+00 1.058242082595825195e+00 3.376874625682830811e-01
6.538000000000000000e+03 6.066560745239257812e+01 -1.797180771827697754e+00 3.507250249385833740e-01 2.842677354812622070e+00 9.580207467079162598e-01 5.207761526107788086e-01
6.539000000000000000e+03 5.913115692138671875e+01 -4.052754402160644531e+00 3.586263656616210938e-01 2.558491468429565430e+00 8.751353025436401367e-01 4.583337008953094482e-01
6.540000000000000000e+03 1.751036262512207031e+01 2.344262313842773438e+01 4.257079679518938065e-03 9.430006891489028931e-02 2.956714294850826263e-02 3.450339287519454956e-02
6.541000000000000000e+03 4.859933471679687500e+01 -8.995878219604492188e+00 4.424398541450500488e-01 7.864865064620971680e-01 3.686779141426086426e-01 1.684363335371017456e-01
6.542000000000000000e+03 1.865340995788574219e+01 2.626704597473144531e+01 2.041932893916964531e-03 8.467110991477966309e-02 2.601391263306140900e-02 3.123792074620723724e-02
6.543000000000000000e+03 2.252650451660156250e+01 2.706094169616699219e+01 1.349824294447898865e-02 9.531135112047195435e-02 3.264287859201431274e-02 4.569352045655250549e-02
6.544000000000000000e+03 6.120160675048828125e+01 -7.810737133026123047e+00 2.865794897079467773e-01 3.025513887405395508e+00 9.936279654502868652e-01 4.318726658821105957e-01
6.545000000000000000e+03 5.982887268066406250e+01 -2.345557212829589844e+01 7.458125054836273193e-02 2.939814805984497070e+00 9.043188095092773438e-01 2.638849616050720215e-01
6.546000000000000000e+03 1.555490398406982422e+01 3.089256095886230469e+01 -7.480234839022159576e-03 4.255751520395278931e-02 1.052318420261144638e-02 8.942450396716594696e-03
6.547000000000000000e+03 6.203599929809570312e+01 -1.280517864227294922e+01 2.054279744625091553e-01 3.251066923141479492e+00 1.036948442459106445e+00 3.535996675491333008e-01
6.548000000000000000e+03 6.133322143554687500e+01 -1.448377609252929688e+01 1.908171176910400391e-01 3.128103971481323242e+00 9.956763386726379395e-01 3.254414200782775879e-01
6.549000000000000000e+03 6.173072052001953125e+01 -1.584744834899902344e+01 1.642665565013885498e-01 3.214385271072387695e+00 1.013595581054687500e+00 3.084677755832672119e-01
6.550000000000000000e+03 6.116648483276367188e+01 -1.912156295776367188e+01 1.182186454534530640e-01 3.128529787063598633e+00 9.740245342254638672e-01 2.747515439987182617e-01
6.551000000000000000e+03 6.223602294921875000e+01 2.151892900466918945e+00 3.548597693443298340e-01 3.118236064910888672e+00 1.041928768157958984e+00 6.025616526603698730e-01
6.552000000000000000e+03 5.827835083007812500e+01 -1.521191692352294922e+01 2.095001786947250366e-01 2.565215110778808594e+00 8.324145674705505371e-01 2.881168127059936523e-01
6.553000000000000000e+03 4.729228973388671875e+01 -6.705186367034912109e+00 4.646347463130950928e-01 5.313370823860168457e-01 2.987915575504302979e-01 1.600465327501296997e-01
6.554000000000000000e+03 6.219541931152343750e+01 -2.012516212463378906e+01 9.919301420450210571e-02 3.308268785476684570e+00 1.022238492965698242e+00 2.845658063888549805e-01
6.555000000000000000e+03 2.394872856140136719e+01 3.075917434692382812e+01 1.281615346670150757e-02 8.483915030956268311e-02 2.929659187793731689e-02 3.792709112167358398e-02
6.556000000000000000e+03 5.977080154418945312e+01 -1.959976577758789062e+01 1.140981391072273254e-01 2.893477678298950195e+00 9.022727012634277344e-01 2.736825942993164062e-01
6.557000000000000000e+03 4.786548233032226562e+01 2.069437026977539062e+01 -8.846400976181030273e-01 -6.339545249938964844e-01 -4.555783867835998535e-01 -9.000735878944396973e-01
6.558000000000000000e+03 4.325665664672851562e+01 1.390055179595947266e+01 -6.819617748260498047e-01 -6.942460536956787109e-01 -4.128623306751251221e-01 -7.742698788642883301e-01
6.559000000000000000e+03 4.883423614501953125e+01 2.026884460449218750e+01 -7.851216793060302734e-01 -4.670136570930480957e-01 -3.756406009197235107e-01 -8.095182180404663086e-01
6.560000000000000000e+03 5.049251556396484375e+01 2.293682289123535156e+01 -9.530194997787475586e-01 -3.821936547756195068e-01 -4.005639255046844482e-01 -8.708392977714538574e-01
6.561000000000000000e+03 4.642326354980468750e+01 1.784117507934570312e+01 -7.201371788978576660e-01 -6.243241429328918457e-01 -4.033384025096893311e-01 -8.274031877517700195e-01
6.562000000000000000e+03 4.715209960937500000e+01 1.778121376037597656e+01 -6.657728552818298340e-01 -5.251730680465698242e-01 -3.572837710380554199e-01 -7.689226269721984863e-01
6.563000000000000000e+03 5.100903701782226562e+01 2.265926933288574219e+01 -8.860324621200561523e-01 -2.789870202541351318e-01 -3.495058417320251465e-01 -8.266435861587524414e-01
6.564000000000000000e+03 5.456474304199218750e+01 2.442200851440429688e+01 -8.654069304466247559e-01 1.737084537744522095e-01 -2.075095325708389282e-01 -7.750071287155151367e-01
6.565000000000000000e+03 5.231100082397460938e+01 2.307883453369140625e+01 -8.579891324043273926e-01 -9.758733958005905151e-02 -2.866729497909545898e-01 -7.859718203544616699e-01
6.566000000000000000e+03 4.257387161254882812e+01 1.325253582000732422e+01 -6.959220170974731445e-01 -7.227326631546020508e-01 -4.255963861942291260e-01 -7.679002881050109863e-01
6.567000000000000000e+03 4.046247100830078125e+01 1.171299648284912109e+01 -7.631391286849975586e-01 -8.345046043395996094e-01 -4.792931377887725830e-01 -7.839691042900085449e-01
6.568000000000000000e+03 4.170600509643554688e+01 1.331612491607666016e+01 -7.676017880439758301e-01 -8.153304457664489746e-01 -4.748796522617340088e-01 -8.270896673202514648e-01
6.569000000000000000e+03 4.568162536621093750e+01 1.727556419372558594e+01 -7.246415615081787109e-01 -6.809774041175842285e-01 -4.216856956481933594e-01 -8.459772467613220215e-01
6.570000000000000000e+03 4.573672866821289062e+01 1.615807723999023438e+01 -6.487354040145874023e-01 -5.917313098907470703e-01 -3.721400201320648193e-01 -7.682889103889465332e-01
6.571000000000000000e+03 5.284824371337890625e+01 2.348288345336914062e+01 -8.681836128234863281e-01 -3.989836201071739197e-02 -2.724245786666870117e-01 -7.847588062286376953e-01
6.572000000000000000e+03 5.446018218994140625e+01 2.356652450561523438e+01 -7.777479887008666992e-01 1.952068954706192017e-01 -1.747623234987258911e-01 -7.189040780067443848e-01
6.573000000000000000e+03 5.183544540405273438e+01 2.265080451965332031e+01 -8.405445814132690430e-01 -1.472022980451583862e-01 -2.963240444660186768e-01 -7.835143804550170898e-01
6.574000000000000000e+03 5.384401321411132812e+01 2.316435050964355469e+01 -7.699114084243774414e-01 1.268504112958908081e-01 -1.929183006286621094e-01 -7.201522588729858398e-01
6.575000000000000000e+03 5.344072723388671875e+01 2.384342575073242188e+01 -8.710961341857910156e-01 3.259792178869247437e-02 -2.515494823455810547e-01 -7.810259461402893066e-01
6.576000000000000000e+03 4.792176818847656250e+01 2.020904159545898438e+01 -8.302134275436401367e-01 -5.851217508316040039e-01 -4.246005415916442871e-01 -8.611949086189270020e-01
6.577000000000000000e+03 4.748719787597656250e+01 1.922720527648925781e+01 -7.616179585456848145e-01 -5.789863467216491699e-01 -4.021812975406646729e-01 -8.320416212081909180e-01
6.578000000000000000e+03 4.435134887695312500e+01 1.596341228485107422e+01 -7.240091562271118164e-01 -7.234880924224853516e-01 -4.342491626739501953e-01 -8.507608771324157715e-01
6.579000000000000000e+03 4.987440490722656250e+01 2.100778579711914062e+01 -7.923171520233154297e-01 -3.568516075611114502e-01 -3.447506129741668701e-01 -7.920052409172058105e-01
6.580000000000000000e+03 4.295809936523437500e+01 1.445374202728271484e+01 -7.418287992477416992e-01 -7.662567496299743652e-01 -4.524256587028503418e-01 -8.374376893043518066e-01
6.581000000000000000e+03 4.459887313842773438e+01 1.633759307861328125e+01 -7.316184639930725098e-01 -7.244576215744018555e-01 -4.368228316307067871e-01 -8.621413707733154297e-01
6.582000000000000000e+03 4.530420684814453125e+01 1.647987556457519531e+01 -6.952251791954040527e-01 -6.567708849906921387e-01 -4.055988192558288574e-01 -8.183413147926330566e-01
6.583000000000000000e+03 3.984567642211914062e+01 9.568348884582519531e+00 -6.814531683921813965e-01 -7.513000965118408203e-01 -4.298259615898132324e-01 -6.530994176864624023e-01
6.584000000000000000e+03 3.942118072509765625e+01 8.957046508789062500e+00 -6.796921491622924805e-01 -7.516924738883972168e-01 -4.294154047966003418e-01 -6.285677552223205566e-01
6.585000000000000000e+03 4.019596862792968750e+01 8.644618034362792969e+00 -5.983101129531860352e-01 -6.708701252937316895e-01 -3.807540833950042725e-01 -5.600814819335937500e-01
6.586000000000000000e+03 3.912888336181640625e+01 8.155733108520507812e+00 -6.485022902488708496e-01 -7.186164855957031250e-01 -4.101356267929077148e-01 -5.791650414466857910e-01
6.587000000000000000e+03 4.593009948730468750e+01 1.691079521179199219e+01 -6.816105246543884277e-01 -6.149837970733642578e-01 -3.889783024787902832e-01 -8.004556298255920410e-01
6.588000000000000000e+03 4.712834930419921875e+01 1.848432731628417969e+01 -7.274636626243591309e-01 -5.879642367362976074e-01 -3.946283757686614990e-01 -8.173308968544006348e-01
6.589000000000000000e+03 4.676011657714843750e+01 1.746011924743652344e+01 -6.710828542709350586e-01 -5.565555691719055176e-01 -3.682915270328521729e-01 -7.769863605499267578e-01
6.590000000000000000e+03 3.507361221313476562e+01 7.941963672637939453e-01 -2.028903067111968994e-01 -6.420637369155883789e-01 -2.534862160682678223e-01 -2.018722519278526306e-02
6.591000000000000000e+03 4.024633789062500000e+01 1.043011283874511719e+01 -6.958202123641967773e-01 -7.709694504737854004e-01 -4.400369226932525635e-01 -6.977344155311584473e-01
6.592000000000000000e+03 4.416062164306640625e+01 1.557076835632324219e+01 -7.147914767265319824e-01 -7.174680829048156738e-01 -4.296778440475463867e-01 -8.362734317779541016e-01
6.593000000000000000e+03 4.502771377563476562e+01 1.610257339477539062e+01 -6.863379478454589844e-01 -6.549872159957885742e-01 -4.023975431919097900e-01 -8.125910758972167969e-01
6.594000000000000000e+03 2.150653076171875000e+01 2.226573944091796875e+01 2.715872228145599365e-02 1.153386384248733521e-01 4.274920746684074402e-02 6.324782222509384155e-02
6.595000000000000000e+03 2.172475814819335938e+01 2.150379562377929688e+01 3.286048397421836853e-02 1.191660463809967041e-01 4.560795798897743225e-02 6.798828393220901489e-02
6.596000000000000000e+03 3.838325500488281250e+01 8.134793281555175781e+00 -7.071430683135986328e-01 -7.746255993843078613e-01 -4.445306062698364258e-01 -6.214257478713989258e-01
6.597000000000000000e+03 4.344046020507812500e+01 1.429494285583496094e+01 -6.913185715675354004e-01 -7.002707123756408691e-01 -4.174768030643463135e-01 -7.919165492057800293e-01
6.598000000000000000e+03 4.403527450561523438e+01 1.514899253845214844e+01 -7.018138170242309570e-01 -7.010178565979003906e-01 -4.208495020866394043e-01 -8.168275952339172363e-01
6.599000000000000000e+03 4.035384368896484375e+01 9.699178695678710938e+00 -6.465049386024475098e-01 -7.171355485916137695e-01 -4.090921580791473389e-01 -6.313251852989196777e-01
6.600000000000000000e+03 3.628258514404296875e+01 5.207356929779052734e+00 -7.215049266815185547e-01 -7.144692540168762207e-01 -4.307922422885894775e-01 -4.579252004623413086e-01
6.601000000000000000e+03 3.722758102416992188e+01 6.476428985595703125e+00 -7.194007635116577148e-01 -7.408475875854492188e-01 -4.380744993686676025e-01 -5.376607775688171387e-01
6.602000000000000000e+03 4.480268859863281250e+01 1.573503494262695312e+01 -6.772546172142028809e-01 -6.564255952835083008e-01 -4.001040756702423096e-01 -8.044940829277038574e-01
6.603000000000000000e+03 1.606943702697753906e+01 1.466129779815673828e+01 4.012544825673103333e-02 1.680635511875152588e-01 6.245670095086097717e-02 7.345972210168838501e-02
6.604000000000000000e+03 1.545477581024169922e+01 1.557554149627685547e+01 2.780866064131259918e-02 1.537129878997802734e-01 5.445649474859237671e-02 5.796011164784431458e-02
6.605000000000000000e+03 3.685990905761718750e+01 4.868518352508544922e+00 -6.281694769859313965e-01 -6.736232042312622070e-01 -3.905377984046936035e-01 -3.901053965091705322e-01
6.606000000000000000e+03 3.580276489257812500e+01 5.540705204010009766e+00 -8.135824799537658691e-01 -7.473369836807250977e-01 -4.682758450508117676e-01 -5.258436799049377441e-01
6.607000000000000000e+03 3.688634490966796875e+01 6.094964027404785156e+00 -7.159650325775146484e-01 -7.353417277336120605e-01 -4.353920221328735352e-01 -5.195474624633789062e-01
6.608000000000000000e+03 4.825167465209960938e+01 1.999148941040039062e+01 -7.905613780021667480e-01 -5.285785794258117676e-01 -3.957419991493225098e-01 -8.295859098434448242e-01
6.609000000000000000e+03 1.488508224487304688e+01 1.402708721160888672e+01 3.427242115139961243e-02 1.707624644041061401e-01 6.151046603918075562e-02 6.065366417169570923e-02
6.610000000000000000e+03 1.548331928253173828e+01 1.436832523345947266e+01 3.670628368854522705e-02 1.699994951486587524e-01 6.201173365116119385e-02 6.774996221065521240e-02
6.611000000000000000e+03 5.527379608154296875e+01 2.449237632751464844e+01 -8.222793340682983398e-01 2.604059278964996338e-01 -1.685620099306106567e-01 -7.470847368240356445e-01
6.612000000000000000e+03 5.432281112670898438e+01 2.490467834472656250e+01 -9.478485584259033203e-01 1.195189431309700012e-01 -2.484988868236541748e-01 -8.122927546501159668e-01
6.613000000000000000e+03 1.924182128906250000e+01 2.041074752807617188e+01 2.356954850256443024e-02 1.220175996422767639e-01 4.367614537477493286e-02 6.019236147403717041e-02
6.614000000000000000e+03 1.680465316772460938e+01 1.782897186279296875e+01 2.334060519933700562e-02 1.333709955215454102e-01 4.701348021626472473e-02 5.689346045255661011e-02
6.615000000000000000e+03 1.879020500183105469e+01 1.986629676818847656e+01 2.503299526870250702e-02 1.253056675195693970e-01 4.510160163044929504e-02 6.023944914340972900e-02
6.616000000000000000e+03 4.213032531738281250e+01 1.325546073913574219e+01 -7.279331088066101074e-01 -7.658047080039978027e-01 -4.481213390827178955e-01 -7.942307591438293457e-01
6.617000000000000000e+03 5.140758132934570312e+01 2.268748474121093750e+01 -8.669161796569824219e-01 -2.195388227701187134e-01 -3.259364962577819824e-01 -8.110079169273376465e-01
6.618000000000000000e+03 1.731914901733398438e+01 1.858509063720703125e+01 2.271776460111141205e-02 1.287193894386291504e-01 4.543114826083183289e-02 5.622422695159912109e-02
6.619000000000000000e+03 2.021749114990234375e+01 2.146821594238281250e+01 2.441584505140781403e-02 1.166947185993194580e-01 4.233317077159881592e-02 6.029828637838363647e-02
6.620000000000000000e+03 5.568409729003906250e+01 2.418400001525878906e+01 -7.644339203834533691e-01 3.134952783584594727e-01 -1.352815777063369751e-01 -7.105460762977600098e-01
6.621000000000000000e+03 5.684587860107421875e+01 2.290847206115722656e+01 -5.113474726676940918e-01 5.301006436347961426e-01 5.625961348414421082e-03 -5.385822057723999023e-01
6.622000000000000000e+03 3.591012954711914062e+01 4.785494804382324219e+00 -7.332779765129089355e-01 -6.995944976806640625e-01 -4.298617541790008545e-01 -4.230781793594360352e-01
6.623000000000000000e+03 1.971514701843261719e+01 2.092670249938964844e+01 2.383066341280937195e-02 1.194340288639068604e-01 4.297940805554389954e-02 5.959419161081314087e-02
6.624000000000000000e+03 6.060963821411132812e+01 2.052830505371093750e+01 8.236620575189590454e-02 1.386341929435729980e+00 4.406124353408813477e-01 6.220752745866775513e-02
6.625000000000000000e+03 1.563274383544921875e+01 1.607893371582031250e+01 2.582569234073162079e-02 1.457843929529190063e-01 5.148302391171455383e-02 5.631852522492408752e-02
6.626000000000000000e+03 1.520263195037841797e+01 1.509707450866699219e+01 2.961897477507591248e-02 1.577289104461669922e-01 5.620436370372772217e-02 5.791090801358222961e-02
6.627000000000000000e+03 6.128271865844726562e+01 4.231012821197509766e+00 3.684531450271606445e-01 2.823107719421386719e+00 9.574682712554931641e-01 5.893166661262512207e-01
6.628000000000000000e+03 6.194901275634765625e+01 4.990194797515869141e+00 3.671568930149078369e-01 2.967567920684814453e+00 1.000417351722717285e+00 6.136373877525329590e-01
6.629000000000000000e+03 6.277352142333984375e+01 2.171894073486328125e+01 1.518396288156509399e-01 1.716804623603820801e+00 5.605933070182800293e-01 2.703120112419128418e-01
6.630000000000000000e+03 6.320140075683593750e+01 2.235543632507324219e+01 1.698788106441497803e-01 1.722103834152221680e+00 5.675947666168212891e-01 3.085062801837921143e-01
6.631000000000000000e+03 4.858798217773437500e+01 -7.764181137084960938e+00 4.533357024192810059e-01 7.528685331344604492e-01 3.618612885475158691e-01 1.815074533224105835e-01
6.632000000000000000e+03 6.060162353515625000e+01 2.132068443298339844e+01 7.081029471009969711e-03 1.297300934791564941e+00 3.913145661354064941e-01 -6.871885154396295547e-03
6.633000000000000000e+03 3.515397644042968750e+01 1.622549533843994141e+00 -3.631973266601562500e-01 -6.410661339759826660e-01 -3.012790381908416748e-01 -8.367746323347091675e-02
6.634000000000000000e+03 3.473682022094726562e+01 3.460853815078735352e+00 -7.130099534988403320e-01 -6.833565831184387207e-01 -4.189099669456481934e-01 -3.036450445652008057e-01
6.635000000000000000e+03 3.963593292236328125e+01 8.431508064270019531e+00 -6.266918182373046875e-01 -7.035911083221435547e-01 -3.990848660469055176e-01 -5.737898945808410645e-01
6.636000000000000000e+03 1.547163772583007812e+01 1.751037406921386719e+01 1.682054996490478516e-02 1.289125382900238037e-01 4.371992498636245728e-02 4.542154446244239807e-02
6.637000000000000000e+03 4.091831970214843750e+01 -1.074847102165222168e+00 2.474062293767929077e-01 -3.155327141284942627e-01 -2.043794468045234680e-02 6.576699763536453247e-02
6.638000000000000000e+03 6.377804946899414062e+01 2.065616035461425781e+01 2.869238853454589844e-01 2.179863214492797852e+00 7.400361299514770508e-01 5.121151804924011230e-01
6.639000000000000000e+03 3.931651687622070312e+01 -1.636224865913391113e+00 2.772391736507415771e-01 -4.322474002838134766e-01 -4.650246351957321167e-02 6.161857396364212036e-02
6.640000000000000000e+03 3.893487548828125000e+01 -2.627627551555633545e-01 1.229615509510040283e-01 -4.748235046863555908e-01 -1.055585816502571106e-01 3.203562647104263306e-02
6.641000000000000000e+03 4.117130279541015625e+01 -2.329309940338134766e+00 3.508261144161224365e-01 -2.819859087467193604e-01 2.065206132829189301e-02 8.661237359046936035e-02
6.642000000000000000e+03 6.250655364990234375e+01 1.201236915588378906e+01 3.840147256851196289e-01 2.743394136428833008e+00 9.382226467132568359e-01 6.253547072410583496e-01
6.643000000000000000e+03 6.355826568603515625e+01 1.493697166442871094e+01 3.880802392959594727e-01 2.809996128082275391e+00 9.594228863716125488e-01 6.597940325736999512e-01
6.644000000000000000e+03 1.692704963684082031e+01 2.027940177917480469e+01 1.199136581271886826e-02 1.128003969788551331e-01 3.743752837181091309e-02 4.357183724641799927e-02
6.645000000000000000e+03 1.673821067810058594e+01 1.936725616455078125e+01 1.478418149054050446e-02 1.195999532938003540e-01 4.031524062156677246e-02 4.685966297984123230e-02
6.646000000000000000e+03 6.426548767089843750e+01 1.695232582092285156e+01 3.953979313373565674e-01 2.843665838241577148e+00 9.717191457748413086e-01 6.897196769714355469e-01
6.647000000000000000e+03 6.488076782226562500e+01 1.777308845520019531e+01 3.863194584846496582e-01 2.961945056915283203e+00 1.004479289054870605e+00 7.492388486862182617e-01
6.648000000000000000e+03 3.677941894531250000e+01 3.471762418746948242e+00 -4.694023132324218750e-01 -6.212226152420043945e-01 -3.271874785423278809e-01 -2.395455837249755859e-01
6.649000000000000000e+03 3.709640884399414062e+01 -2.788396775722503662e-01 6.922958791255950928e-02 -5.692984461784362793e-01 -1.500206589698791504e-01 3.188415244221687317e-02
6.650000000000000000e+03 5.720165634155273438e+01 2.152407455444335938e+01 -3.115735054016113281e-01 6.886328458786010742e-01 1.131178066134452820e-01 -3.834066987037658691e-01
6.651000000000000000e+03 6.092355346679687500e+01 6.771568775177001953e+00 3.812325894832611084e-01 2.618306636810302734e+00 8.998617529869079590e-01 5.802282094955444336e-01
6.652000000000000000e+03 6.192394638061523438e+01 1.165363883972167969e+01 3.784175217151641846e-01 2.630754470825195312e+00 9.027515649795532227e-01 5.919462442398071289e-01
6.653000000000000000e+03 1.671290779113769531e+01 1.856021881103515625e+01 1.856126822531223297e-02 1.267749220132827759e-01 4.360085725784301758e-02 5.092411488294601440e-02
6.654000000000000000e+03 6.432816314697265625e+01 6.325731754302978516e+00 3.585321605205535889e-01 3.516464471817016602e+00 1.162498950958251953e+00 7.034786939620971680e-01
6.655000000000000000e+03 2.261407470703125000e+01 2.524060249328613281e+01 2.020020224153995514e-02 1.034281775355339050e-01 3.708851337432861328e-02 5.418011173605918884e-02
6.656000000000000000e+03 5.921784591674804688e+01 1.558452129364013672e+00 3.742555379867553711e-01 2.447608709335327148e+00 8.465592265129089355e-01 5.149306654930114746e-01
6.657000000000000000e+03 6.065887069702148438e+01 2.740808725357055664e+00 3.674252033233642578e-01 2.713584423065185547e+00 9.243028759956359863e-01 5.611982345581054688e-01
6.658000000000000000e+03 1.792409515380859375e+01 1.924502563476562500e+01 2.298719063401222229e-02 1.262981295585632324e-01 4.478559643030166626e-02 5.805926024913787842e-02
6.659000000000000000e+03 1.766955757141113281e+01 2.248144912719726562e+01 8.123733103275299072e-03 1.016713604331016541e-01 3.293852880597114563e-02 3.930597379803657532e-02
6.660000000000000000e+03 5.963692092895507812e+01 -2.423238277435302734e+00 3.601462244987487793e-01 2.627296686172485352e+00 8.962328433990478516e-01 4.931718707084655762e-01
6.661000000000000000e+03 6.225481033325195312e+01 1.258042526245117188e+01 3.739784359931945801e-01 2.621143341064453125e+00 8.985365629196166992e-01 5.938566923141479492e-01
6.662000000000000000e+03 5.806185531616210938e+01 -4.528710365295410156e+00 3.658462464809417725e-01 2.353444337844848633e+00 8.157871961593627930e-01 4.302279651165008545e-01
6.663000000000000000e+03 5.966521072387695312e+01 -5.241544723510742188e+00 3.360121846199035645e-01 2.699334859848022461e+00 9.106040596961975098e-01 4.505106210708618164e-01
6.664000000000000000e+03 1.840802383422851562e+01 2.260538673400878906e+01 1.126679498702287674e-02 1.042266190052032471e-01 3.464802354574203491e-02 4.397355392575263977e-02
6.665000000000000000e+03 2.080977630615234375e+01 2.195766448974609375e+01 2.555491775274276733e-02 1.162757575511932373e-01 4.254920035600662231e-02 6.121712177991867065e-02
6.666000000000000000e+03 5.380667495727539062e+01 -9.756504058837890625e+00 3.653847277164459229e-01 1.659090518951416016e+00 6.073426008224487305e-01 2.639998793601989746e-01
6.667000000000000000e+03 5.700268554687500000e+01 -1.183452033996582031e+01 2.939394414424896240e-01 2.283706665039062500e+00 7.732938528060913086e-01 3.073580265045166016e-01
6.668000000000000000e+03 4.027928161621093750e+01 -8.468841910362243652e-01 2.194840908050537109e-01 -3.575429022312164307e-01 -4.141764715313911438e-02 4.983564093708992004e-02
6.669000000000000000e+03 6.298038482666015625e+01 9.423995971679687500e+00 3.834576904773712158e-01 3.031747341156005859e+00 1.024561524391174316e+00 6.659709215164184570e-01
6.670000000000000000e+03 6.291035842895507812e+01 8.499935150146484375e+00 3.798591494560241699e-01 3.063851356506347656e+00 1.033113121986389160e+00 6.661207675933837891e-01
6.671000000000000000e+03 6.171059036254882812e+01 -1.155830192565917969e+01 2.262440621852874756e-01 3.173852920532226562e+00 1.020029067993164062e+00 3.677856326103210449e-01
6.672000000000000000e+03 6.055671310424804688e+01 -1.185123825073242188e+01 2.386282384395599365e-01 2.965116500854492188e+00 9.611234068870544434e-01 3.549861907958984375e-01
6.673000000000000000e+03 2.656173133850097656e+01 3.237754821777343750e+01 2.044698223471641541e-02 8.435801416635513306e-02 3.144149854779243469e-02 3.897607699036598206e-02
6.674000000000000000e+03 2.508362197875976562e+01 3.535944747924804688e+01 1.311136782169342041e-02 7.648720592260360718e-02 2.687957137823104858e-02 2.561586908996105194e-02
6.675000000000000000e+03 1.865227699279785156e+01 2.479090881347656250e+01 5.265418905764818192e-03 9.272336214780807495e-02 2.939663454890251160e-02 3.660316020250320435e-02
6.676000000000000000e+03 1.996730422973632812e+01 3.038301849365234375e+01 8.590767974965274334e-04 7.345841825008392334e-02 2.229524776339530945e-02 2.566974237561225891e-02
6.677000000000000000e+03 5.936484146118164062e+01 -1.645798492431640625e+01 1.743621528148651123e-01 2.790556192398071289e+00 8.894754648208618164e-01 2.868115901947021484e-01
6.678000000000000000e+03 6.019155120849609375e+01 8.505393862724304199e-01 3.678077757358551025e-01 2.670840263366699219e+00 9.115944504737854004e-01 5.366010665893554688e-01
6.679000000000000000e+03 4.843842315673828125e+01 -5.324676036834716797e+00 4.476038813591003418e-01 6.675169467926025391e-01 3.345362544059753418e-01 1.961655765771865845e-01
6.680000000000000000e+03 2.204719161987304688e+01 2.865597152709960938e+01 9.192782454192638397e-03 8.782373368740081787e-02 2.910495363175868988e-02 3.880947083234786987e-02
6.681000000000000000e+03 5.609152221679687500e+01 -1.454535007476806641e+01 2.515152096748352051e-01 2.181027173995971680e+00 7.297626733779907227e-01 2.589316964149475098e-01
6.682000000000000000e+03 4.716320800781250000e+01 -5.529704093933105469e+00 4.599693119525909424e-01 4.854351878166198730e-01 2.836213409900665283e-01 1.675737351179122925e-01
6.683000000000000000e+03 4.381894683837890625e+01 -2.911652326583862305e+00 3.961009383201599121e-01 7.212458178400993347e-03 1.209940165281295776e-01 1.187634691596031189e-01
6.684000000000000000e+03 1.395839977264404297e+01 2.983116531372070312e+01 -8.910940960049629211e-03 2.995115891098976135e-02 6.312065292149782181e-03 4.240682348608970642e-03
6.685000000000000000e+03 5.724511337280273438e+01 -1.490038776397705078e+01 2.278866022825241089e-01 2.385776281356811523e+00 7.840988039970397949e-01 2.727646231651306152e-01
6.686000000000000000e+03 5.873937225341796875e+01 -1.418759822845458984e+01 2.287535965442657471e-01 2.649443387985229492e+00 8.634591102600097656e-01 2.990027666091918945e-01
6.687000000000000000e+03 5.817395401000976562e+01 -1.649444007873535156e+01 1.893803626298904419e-01 2.571797847747802734e+00 8.283534646034240723e-01 2.784443199634552002e-01
6.688000000000000000e+03 5.950800704956054688e+01 -1.791551589965820312e+01 1.500134170055389404e-01 2.831066846847534180e+00 8.943240642547607422e-01 2.827491462230682373e-01
6.689000000000000000e+03 5.086727142333984375e+01 2.096197319030761719e+01 -7.259042263031005859e-01 -2.045593559741973877e-01 -2.791390717029571533e-01 -7.308906912803649902e-01
6.690000000000000000e+03 4.260773086547851562e+01 1.277115917205810547e+01 -6.660528779029846191e-01 -6.897126436233520508e-01 -4.067296683788299561e-01 -7.312357425689697266e-01
6.691000000000000000e+03 5.226842880249023438e+01 2.258413314819335938e+01 -8.056309819221496582e-01 -7.936356961727142334e-02 -2.654983699321746826e-01 -7.584996819496154785e-01
6.692000000000000000e+03 4.396352386474609375e+01 1.417943763732910156e+01 -6.481480002403259277e-01 -6.410247683525085449e-01 -3.867518305778503418e-01 -7.490028738975524902e-01
6.693000000000000000e+03 4.397605514526367188e+01 1.469004058837890625e+01 -6.759805083274841309e-01 -6.776993870735168457e-01 -4.061039686203002930e-01 -7.886012792587280273e-01
6.694000000000000000e+03 4.635559844970703125e+01 1.716633415222167969e+01 -6.746575832366943359e-01 -5.803004503250122070e-01 -3.764874041080474854e-01 -7.895641326904296875e-01
6.695000000000000000e+03 4.709471511840820312e+01 1.703881263732910156e+01 -6.184741854667663574e-01 -4.847120940685272217e-01 -3.309558928012847900e-01 -7.290610074996948242e-01
6.696000000000000000e+03 5.276400756835937500e+01 2.299400138854980469e+01 -8.239910602569580078e-01 -3.051600046455860138e-02 -2.563521265983581543e-01 -7.579452991485595703e-01
6.697000000000000000e+03 5.269516754150390625e+01 2.251684761047363281e+01 -7.726776599884033203e-01 -1.341413334012031555e-02 -2.358275353908538818e-01 -7.335819602012634277e-01
6.698000000000000000e+03 5.333722305297851562e+01 2.334035491943359375e+01 -8.232370615005493164e-01 3.700238466262817383e-02 -2.358703911304473877e-01 -7.527081966400146484e-01
6.699000000000000000e+03 3.472257995605468750e+01 1.255794525146484375e+00 -3.262988030910491943e-01 -6.502526402473449707e-01 -2.929654121398925781e-01 -5.093416199088096619e-02
6.700000000000000000e+03 5.500642013549804688e+01 2.355988883972167969e+01 -7.330693602561950684e-01 2.676787078380584717e-01 -1.396171897649765015e-01 -6.954689025878906250e-01
6.701000000000000000e+03 5.394154739379882812e+01 2.368016433715820312e+01 -8.211109042167663574e-01 1.209036856889724731e-01 -2.100621610879898071e-01 -7.484669089317321777e-01
6.702000000000000000e+03 5.322247695922851562e+01 2.286785507202148438e+01 -7.809836864471435547e-01 4.373583570122718811e-02 -2.211743593215942383e-01 -7.288873195648193359e-01
6.703000000000000000e+03 4.385279083251953125e+01 1.208272457122802734e+01 -5.268602967262268066e-01 -5.212857127189636230e-01 -3.144437968730926514e-01 -6.003511548042297363e-01
6.704000000000000000e+03 4.085987472534179688e+01 1.122888755798339844e+01 -7.044627070426940918e-01 -7.660070657730102539e-01 -4.411409199237823486e-01 -7.205338478088378906e-01
6.705000000000000000e+03 4.210009002685546875e+01 1.281528282165527344e+01 -7.049204707145690918e-01 -7.439945936203002930e-01 -4.346745014190673828e-01 -7.646001577377319336e-01
6.706000000000000000e+03 4.108280944824218750e+01 1.251453781127929688e+01 -7.601526975631713867e-01 -8.226450085639953613e-01 -4.748392999172210693e-01 -8.048375248908996582e-01
6.707000000000000000e+03 5.137329864501953125e+01 2.186795616149902344e+01 -7.823089361190795898e-01 -1.756082773208618164e-01 -2.873751521110534668e-01 -7.543844580650329590e-01
6.708000000000000000e+03 4.796339035034179688e+01 1.908478164672851562e+01 -7.229027152061462402e-01 -5.084857344627380371e-01 -3.694165349006652832e-01 -7.920724153518676758e-01
6.709000000000000000e+03 4.915974807739257812e+01 1.970905494689941406e+01 -7.122054100036621094e-01 -3.833968937397003174e-01 -3.286806941032409668e-01 -7.550456523895263672e-01
6.710000000000000000e+03 4.665502929687500000e+01 1.674437904357910156e+01 -6.215768456459045410e-01 -5.178371071815490723e-01 -3.418242037296295166e-01 -7.397269010543823242e-01
6.711000000000000000e+03 4.160855865478515625e+01 1.290749359130859375e+01 -7.471464276313781738e-01 -7.983148694038391113e-01 -4.636383950710296631e-01 -8.023313283920288086e-01
6.712000000000000000e+03 3.998737335205078125e+01 9.113377571105957031e+00 -6.392869353294372559e-01 -7.124533653259277344e-01 -4.055220782756805420e-01 -6.078507304191589355e-01
6.713000000000000000e+03 4.082135391235351562e+01 9.897839546203613281e+00 -6.172462701797485352e-01 -6.850038766860961914e-01 -3.906750380992889404e-01 -6.166895627975463867e-01
6.714000000000000000e+03 4.094322967529296875e+01 1.048436450958251953e+01 -6.465313434600830078e-01 -7.128267884254455566e-01 -4.078074395656585693e-01 -6.608411073684692383e-01
6.715000000000000000e+03 4.102916336059570312e+01 9.535170555114746094e+00 -5.855869054794311523e-01 -6.428224444389343262e-01 -3.685227930545806885e-01 -5.781141519546508789e-01
6.716000000000000000e+03 4.793053436279296875e+01 1.770740699768066406e+01 -6.166186332702636719e-01 -4.187402129173278809e-01 -3.106076419353485107e-01 -7.124891281127929688e-01
6.717000000000000000e+03 5.489293289184570312e+01 2.413314247131347656e+01 -8.112153410911560059e-01 2.323350459337234497e-01 -1.736640930175781250e-01 -7.400992512702941895e-01
6.718000000000000000e+03 4.059424209594726562e+01 1.024315261840820312e+01 -6.580407023429870605e-01 -7.270046472549438477e-01 -4.155136048793792725e-01 -6.595368385314941406e-01
6.719000000000000000e+03 4.463103866577148438e+01 1.536318683624267578e+01 -6.757625937461853027e-01 -6.537268161773681641e-01 -3.988468348979949951e-01 -7.912178635597229004e-01
6.720000000000000000e+03 3.800390625000000000e+01 7.809777259826660156e+00 -7.298642396926879883e-01 -7.821357250213623047e-01 -4.535999894142150879e-01 -6.178039908409118652e-01
6.721000000000000000e+03 4.510108566284179688e+01 1.511613368988037109e+01 -6.231164336204528809e-01 -5.819228887557983398e-01 -3.615117967128753662e-01 -7.402427792549133301e-01
6.722000000000000000e+03 3.903128433227539062e+01 5.601774692535400391e+00 -4.746576845645904541e-01 -5.850697159767150879e-01 -3.179182112216949463e-01 -3.570862710475921631e-01
6.723000000000000000e+03 4.842076873779296875e+01 1.793980407714843750e+01 -6.057491898536682129e-01 -3.726992309093475342e-01 -2.935345172882080078e-01 -6.939631700515747070e-01
6.724000000000000000e+03 4.869830703735351562e+01 1.984259223937988281e+01 -7.503392100334167480e-01 -4.573369622230529785e-01 -3.623028397560119629e-01 -7.909879684448242188e-01
6.725000000000000000e+03 1.973133468627929688e+01 2.201041221618652344e+01 1.854122802615165710e-02 1.133361160755157471e-01 3.956320136785507202e-02 5.410909280180931091e-02
6.726000000000000000e+03 5.995706176757812500e+01 2.134101486206054688e+01 -4.161800444126129150e-02 1.164938449859619141e+00 3.369961380958557129e-01 -8.953127264976501465e-02
6.727000000000000000e+03 5.107390213012695312e+01 2.225390052795410156e+01 -8.448278307914733887e-01 -2.494035512208938599e-01 -3.282694220542907715e-01 -8.017222285270690918e-01
6.728000000000000000e+03 3.592640304565429688e+01 6.113843917846679688e-01 -1.272270381450653076e-01 -6.195374727249145508e-01 -2.240293473005294800e-01 -1.512004435062408447e-02
6.729000000000000000e+03 3.602615356445312500e+01 1.630754351615905762e+00 -2.842947840690612793e-01 -6.162471771240234375e-01 -2.701625823974609375e-01 -7.864984124898910522e-02
6.730000000000000000e+03 5.558346176147460938e+01 2.354843330383300781e+01 -6.900560259819030762e-01 3.379324972629547119e-01 -1.056370586156845093e-01 -6.680838465690612793e-01
6.731000000000000000e+03 5.223050308227539062e+01 2.207953071594238281e+01 -7.495466470718383789e-01 -5.763399600982666016e-02 -2.421541810035705566e-01 -7.277216911315917969e-01
6.732000000000000000e+03 3.539902877807617188e+01 3.586262702941894531e+00 -6.371119022369384766e-01 -6.753505468368530273e-01 -3.937387168407440186e-01 -2.972899377346038818e-01
6.733000000000000000e+03 3.641256332397460938e+01 2.143946886062622070e+00 -3.446052372455596924e-01 -6.112059354782104492e-01 -2.867433428764343262e-01 -1.220150887966156006e-01
6.734000000000000000e+03 3.872936248779296875e+01 7.802247524261474609e+00 -6.671317219734191895e-01 -7.250607013702392578e-01 -4.176577329635620117e-01 -5.735304951667785645e-01
6.735000000000000000e+03 2.112664794921875000e+01 2.129132080078125000e+01 3.058877959847450256e-02 1.198715344071388245e-01 4.513809457421302795e-02 6.665813177824020386e-02
6.736000000000000000e+03 1.612028884887695312e+01 1.588803768157958984e+01 2.987968735396862030e-02 1.513180285692214966e-01 5.435931310057640076e-02 6.361046433448791504e-02
6.737000000000000000e+03 5.032418823242187500e+01 2.146044540405273438e+01 -8.086212873458862305e-01 -3.142432868480682373e-01 -3.368593752384185791e-01 -7.930269837379455566e-01
6.738000000000000000e+03 3.472271347045898438e+01 2.812818527221679688e+00 -6.170964241027832031e-01 -6.649122834205627441e-01 -3.846026062965393066e-01 -2.145780920982360840e-01
6.739000000000000000e+03 3.474544143676757812e+01 2.048628568649291992e+00 -4.820389151573181152e-01 -6.568336486816406250e-01 -3.416617810726165771e-01 -1.312967389822006226e-01
6.740000000000000000e+03 1.927844619750976562e+01 2.136163711547851562e+01 1.975030079483985901e-02 1.158976703882217407e-01 4.069439321756362915e-02 5.542217567563056946e-02
6.741000000000000000e+03 6.240972137451171875e+01 2.099094581604003906e+01 1.770359277725219727e-01 1.739135861396789551e+00 5.748515129089355469e-01 2.645589113235473633e-01
6.742000000000000000e+03 6.170442199707031250e+01 2.119549369812011719e+01 1.084823384881019592e-01 1.533450484275817871e+00 4.925798773765563965e-01 1.573213785886764526e-01
6.743000000000000000e+03 5.693167114257812500e+01 2.215468025207519531e+01 -3.955162167549133301e-01 6.030840873718261719e-01 6.227036193013191223e-02 -4.594395458698272705e-01
6.744000000000000000e+03 5.817903137207031250e+01 2.300317955017089844e+01 -3.915772140026092529e-01 7.025271058082580566e-01 9.328496456146240234e-02 -4.434242546558380127e-01
6.745000000000000000e+03 5.884059524536132812e+01 2.147146797180175781e+01 -1.590248942375183105e-01 9.429490566253662109e-01 2.351772487163543701e-01 -2.315714210271835327e-01
6.746000000000000000e+03 6.331749725341796875e+01 2.144538307189941406e+01 2.058427929878234863e-01 1.901722073554992676e+00 6.322694420814514160e-01 3.778026401996612549e-01
6.747000000000000000e+03 3.995639419555664062e+01 -1.323742270469665527e+00 2.541217207908630371e-01 -3.937335908412933350e-01 -4.188356921076774597e-02 6.410884857177734375e-02
6.748000000000000000e+03 2.225556182861328125e+01 2.424433898925781250e+01 2.162380702793598175e-02 1.063573732972145081e-01 3.839435428380966187e-02 5.684570595622062683e-02
6.749000000000000000e+03 2.121136093139648438e+01 2.323075866699218750e+01 2.051950432360172272e-02 1.098457574844360352e-01 3.910958021879196167e-02 5.595572292804718018e-02
6.750000000000000000e+03 1.746024322509765625e+01 2.113383102416992188e+01 1.144488342106342316e-02 1.097753122448921204e-01 3.636605665087699890e-02 4.363179579377174377e-02
6.751000000000000000e+03 3.764480972290039062e+01 6.133506774902343750e+00 -6.484192609786987305e-01 -7.020276784896850586e-01 -4.051340818405151367e-01 -4.836643040180206299e-01
6.752000000000000000e+03 6.167545700073242188e+01 6.972538471221923828e+00 3.738603889942169189e-01 2.809242725372314453e+00 9.549309611320495605e-01 6.126959323883056641e-01
6.753000000000000000e+03 6.273612213134765625e+01 7.629100322723388672e+00 3.817435204982757568e-01 3.061517477035522461e+00 1.032978296279907227e+00 6.572092175483703613e-01
6.754000000000000000e+03 6.409719085693359375e+01 1.896620750427246094e+01 3.560892343521118164e-01 2.548339128494262695e+00 8.713284730911254883e-01 6.196625232696533203e-01
6.755000000000000000e+03 6.360314559936523438e+01 1.988859176635742188e+01 3.113199770450592041e-01 2.264578104019165039e+00 7.727694511413574219e-01 5.250959396362304688e-01
6.756000000000000000e+03 6.231095123291015625e+01 1.332120895385742188e+01 3.750922679901123047e-01 2.581832885742187500e+00 8.870775103569030762e-01 5.854701995849609375e-01
6.757000000000000000e+03 4.171286010742187500e+01 7.705565452575683594e+00 -4.116547107696533203e-01 -4.813672304153442383e-01 -2.679065763950347900e-01 -3.970339894294738770e-01
6.758000000000000000e+03 3.970432662963867188e+01 -1.996306926012039185e-01 1.485723257064819336e-01 -4.114890992641448975e-01 -7.887503504753112793e-02 3.144592419266700745e-02
6.759000000000000000e+03 3.971910476684570312e+01 -8.101915717124938965e-01 2.006734162569046021e-01 -4.158766567707061768e-01 -6.456097215414047241e-02 5.380405113101005554e-02
6.760000000000000000e+03 6.177960205078125000e+01 9.950820922851562500e+00 3.802432119846343994e-01 2.689740896224975586e+00 9.209951758384704590e-01 6.022126078605651855e-01
6.761000000000000000e+03 3.777639389038085938e+01 1.327891647815704346e-01 3.853946924209594727e-02 -5.381162762641906738e-01 -1.498730480670928955e-01 1.544551830738782883e-02
6.762000000000000000e+03 3.831724929809570312e+01 7.122249603271484375e-01 -1.552079152315855026e-02 -5.148636102676391602e-01 -1.591153144836425781e-01 -1.314015872776508331e-02
6.763000000000000000e+03 5.940326309204101562e+01 2.809987775981426239e-02 3.668983876705169678e-01 2.519022226333618164e+00 8.657761812210083008e-01 5.062443614006042480e-01
6.764000000000000000e+03 5.690154266357421875e+01 -6.411889791488647461e-01 3.849377930164337158e-01 2.031634569168090820e+00 7.249717116355895996e-01 4.349679052829742432e-01
6.765000000000000000e+03 6.147389221191406250e+01 1.065937709808349609e+01 3.771160542964935303e-01 2.580681085586547852e+00 8.873391151428222656e-01 5.772321820259094238e-01
6.766000000000000000e+03 6.229317474365234375e+01 1.100856113433837891e+01 3.873929977416992188e-01 2.768985986709594727e+00 9.469136595726013184e-01 6.265320777893066406e-01
6.767000000000000000e+03 1.873891067504882812e+01 2.159910964965820312e+01 1.515749841928482056e-02 1.129872798919677734e-01 3.844343125820159912e-02 5.018227174878120422e-02
6.768000000000000000e+03 6.035882568359375000e+01 3.800482511520385742e+00 3.711121082305908203e-01 2.619162559509277344e+00 8.970823884010314941e-01 5.570163130760192871e-01
6.769000000000000000e+03 5.536472320556640625e+01 -1.275185680389404297e+01 2.932000756263732910e-01 2.014561891555786133e+00 6.923285722732543945e-01 2.612584531307220459e-01
6.770000000000000000e+03 5.205634689331054688e+01 -1.133029174804687500e+01 3.602917194366455078e-01 1.399950027465820312e+00 5.280725359916687012e-01 2.144022583961486816e-01
6.771000000000000000e+03 4.968525314331054688e+01 -8.922636032104492188e+00 4.301471114158630371e-01 9.449893832206726074e-01 4.125409424304962158e-01 1.899467110633850098e-01
6.772000000000000000e+03 3.851904678344726562e+01 6.272399902343750000e+00 -5.767237544059753418e-01 -6.622750759124755859e-01 -3.716996610164642334e-01 -4.467798769474029541e-01
6.773000000000000000e+03 4.395516204833984375e+01 -8.027163147926330566e-01 2.939015626907348633e-01 -7.215033285319805145e-03 8.600595593452453613e-02 9.020793437957763672e-02
6.774000000000000000e+03 6.380063629150390625e+01 1.596291637420654297e+01 3.933272659778594971e-01 2.791087627410888672e+00 9.553244709968566895e-01 6.641533970832824707e-01
6.775000000000000000e+03 6.353590774536132812e+01 1.763973999023437500e+01 3.645564317703247070e-01 2.539191961288452148e+00 8.711245059967041016e-01 5.944806337356567383e-01
6.776000000000000000e+03 5.356488800048828125e+01 -1.079377460479736328e+01 3.558095097541809082e-01 1.644154191017150879e+00 5.999891161918640137e-01 2.508627772331237793e-01
6.777000000000000000e+03 5.263354873657226562e+01 -1.041331100463867188e+01 3.699833154678344727e-01 1.487375855445861816e+00 5.572077631950378418e-01 2.347842454910278320e-01
6.778000000000000000e+03 5.994504547119140625e+01 -6.577832221984863281e+00 3.193743824958801270e-01 2.776034355163574219e+00 9.286226630210876465e-01 4.320280849933624268e-01
6.779000000000000000e+03 5.856800079345703125e+01 -2.971099853515625000e+00 3.676494956016540527e-01 2.416872978210449219e+00 8.353567123413085938e-01 4.618598818778991699e-01
6.780000000000000000e+03 4.698352813720703125e+01 -4.357881546020507812e+00 4.424615800380706787e-01 4.334901273250579834e-01 2.627855241298675537e-01 1.735289692878723145e-01
6.781000000000000000e+03 1.956772041320800781e+01 2.338006401062011719e+01 1.327063143253326416e-02 1.046304404735565186e-01 3.537032380700111389e-02 4.707147181034088135e-02
6.782000000000000000e+03 4.558223724365234375e+01 -3.394317150115966797e+00 4.206028878688812256e-01 2.188992053270339966e-01 1.918506324291229248e-01 1.468158662319183350e-01
6.783000000000000000e+03 4.580790328979492188e+01 -4.565076351165771484e+00 4.526848793029785156e-01 2.802237868309020996e-01 2.198726087808609009e-01 1.432743519544601440e-01
6.784000000000000000e+03 6.250234603881835938e+01 1.416382503509521484e+01 3.732832074165344238e-01 2.569425344467163086e+00 8.828125596046447754e-01 5.825741291046142578e-01
6.785000000000000000e+03 6.198393249511718750e+01 1.927229118347167969e+01 2.428067028522491455e-01 1.869846820831298828e+00 6.337960958480834961e-01 3.319075703620910645e-01
6.786000000000000000e+03 6.262439727783203125e+01 1.708310699462890625e+01 3.505119681358337402e-01 2.337863206863403320e+00 8.065125942230224609e-01 5.189306735992431641e-01
6.787000000000000000e+03 1.854877281188964844e+01 2.356521224975585938e+01 8.073796518146991730e-03 9.929642826318740845e-02 3.221106529235839844e-02 4.050586000084877014e-02
6.788000000000000000e+03 4.166820526123046875e+01 -1.103175401687622070e+00 2.731209695339202881e-01 -2.426528334617614746e-01 9.140441194176673889e-03 7.425127923488616943e-02
6.789000000000000000e+03 6.147437286376953125e+01 -1.031739521026611328e+01 2.434076517820358276e-01 3.124138116836547852e+00 1.010263800621032715e+00 3.894760310649871826e-01
6.790000000000000000e+03 5.879232025146484375e+01 -8.118566513061523438e+00 3.197777867317199707e-01 2.574390411376953125e+00 8.682504296302795410e-01 3.935442864894866943e-01
6.791000000000000000e+03 6.090794754028320312e+01 -1.316088390350341797e+01 2.165260314941406250e-01 3.035412073135375977e+00 9.755814671516418457e-01 3.387982845306396484e-01
6.792000000000000000e+03 6.205062103271484375e+01 9.261970520019531250e+00 3.779952228069305420e-01 2.771784305572509766e+00 9.449338316917419434e-01 6.232227087020874023e-01
6.793000000000000000e+03 2.439182472229003906e+01 3.290445327758789062e+01 1.090754382312297821e-02 7.985737919807434082e-02 2.722947672009468079e-02 3.175251930952072144e-02
6.794000000000000000e+03 2.198653411865234375e+01 3.302239227294921875e+01 4.711156710982322693e-03 7.283899188041687012e-02 2.326504327356815338e-02 2.511116676032543182e-02
6.795000000000000000e+03 4.546166229248046875e+01 -2.231422901153564453e+00 3.787468969821929932e-01 1.880804896354675293e-01 1.700482070446014404e-01 1.371400356292724609e-01
6.796000000000000000e+03 5.444365310668945312e+01 -1.558590507507324219e+01 2.414624094963073730e-01 1.907155871391296387e+00 6.445854902267456055e-01 2.163569331169128418e-01
6.797000000000000000e+03 2.024332046508789062e+01 2.828087043762207031e+01 3.810562891885638237e-03 8.348974585533142090e-02 2.619009278714656830e-02 3.265672177076339722e-02
6.798000000000000000e+03 5.652748107910156250e+01 -1.316666889190673828e+01 2.737593948841094971e-01 2.214863061904907227e+00 7.465867400169372559e-01 2.835575342178344727e-01
6.799000000000000000e+03 1.644761657714843750e+01 3.409569168090820312e+01 -6.243154406547546387e-03 4.067860916256904602e-02 1.033063605427742004e-02 8.002814836800098419e-03
6.800000000000000000e+03 1.958386993408203125e+01 3.264716339111328125e+01 -9.515197016298770905e-04 6.376763433218002319e-02 1.884483359754085541e-02 1.856693252921104431e-02
6.801000000000000000e+03 5.180725479125976562e+01 2.217765235900878906e+01 -7.841832041740417480e-01 -1.272434294223785400e-01 -2.734279930591583252e-01 -7.575995326042175293e-01
6.802000000000000000e+03 5.267292785644531250e+01 2.202316474914550781e+01 -7.172979712486267090e-01 7.531695533543825150e-03 -2.129298895597457886e-01 -7.029051184654235840e-01
6.803000000000000000e+03 5.310324859619140625e+01 2.244907379150390625e+01 -7.465313076972961426e-01 4.512359946966171265e-02 -2.104223221540451050e-01 -7.111240625381469727e-01
6.804000000000000000e+03 4.451419067382812500e+01 1.419332599639892578e+01 -6.097564697265625000e-01 -5.842173099517822266e-01 -3.581921160221099854e-01 -7.157110571861267090e-01
6.805000000000000000e+03 4.443561172485351562e+01 1.464319896697998047e+01 -6.390459537506103516e-01 -6.197894215583801270e-01 -3.776506185531616211e-01 -7.509841322898864746e-01
6.806000000000000000e+03 5.310820007324218750e+01 2.205292892456054688e+01 -6.893239617347717285e-01 7.381098717451095581e-02 -1.846538931131362915e-01 -6.820555925369262695e-01
6.807000000000000000e+03 4.825223159790039062e+01 1.616495704650878906e+01 -4.862973093986511230e-01 -2.757395505905151367e-01 -2.286110520362854004e-01 -5.965436100959777832e-01
6.808000000000000000e+03 4.786143112182617188e+01 1.691617774963378906e+01 -5.585570931434631348e-01 -3.748674690723419189e-01 -2.800273597240447998e-01 -6.658849120140075684e-01
6.809000000000000000e+03 5.420336532592773438e+01 2.236493873596191406e+01 -6.469804644584655762e-01 2.190520465373992920e-01 -1.283785253763198853e-01 -6.414961218833923340e-01
6.810000000000000000e+03 5.035757827758789062e+01 2.044387245178222656e+01 -7.065009474754333496e-01 -2.481576204299926758e-01 -2.863975763320922852e-01 -7.267598509788513184e-01
6.811000000000000000e+03 4.540637207031250000e+01 1.584856605529785156e+01 -6.467556953430175781e-01 -6.014918684959411621e-01 -3.744742572307586670e-01 -7.716000080108642578e-01
6.812000000000000000e+03 4.606042480468750000e+01 1.571773719787597656e+01 -5.932460427284240723e-01 -5.160849690437316895e-01 -3.327992856502532959e-01 -7.141258716583251953e-01
6.813000000000000000e+03 4.364722442626953125e+01 1.297991371154785156e+01 -5.945000052452087402e-01 -5.943299531936645508e-01 -3.566489815711975098e-01 -6.789281368255615234e-01
6.814000000000000000e+03 4.121934127807617188e+01 1.076622676849365234e+01 -6.478525400161743164e-01 -7.043945193290710449e-01 -4.056740999221801758e-01 -6.647344827651977539e-01
6.815000000000000000e+03 4.928602218627929688e+01 2.014692306518554688e+01 -7.446812391281127930e-01 -3.932934701442718506e-01 -3.413923978805541992e-01 -7.718628048896789551e-01
6.816000000000000000e+03 4.855649948120117188e+01 1.941659736633300781e+01 -7.185273170471191406e-01 -4.480685293674468994e-01 -3.499787449836730957e-01 -7.758457064628601074e-01
6.817000000000000000e+03 4.350770950317382812e+01 1.348964595794677734e+01 -6.431025862693786621e-01 -6.432835459709167480e-01 -3.859158456325531006e-01 -7.289356589317321777e-01
6.818000000000000000e+03 4.823122024536132812e+01 1.725765609741210938e+01 -5.593919157981872559e-01 -3.466023206710815430e-01 -2.717982828617095947e-01 -6.614056229591369629e-01
6.819000000000000000e+03 4.100667190551757812e+01 1.207965946197509766e+01 -7.433345913887023926e-01 -8.012791872024536133e-01 -4.633841514587402344e-01 -7.792262434959411621e-01
6.820000000000000000e+03 4.092932128906250000e+01 1.164765071868896484e+01 -7.196437120437622070e-01 -7.858296632766723633e-01 -4.516420066356658936e-01 -7.493117451667785645e-01
6.821000000000000000e+03 5.077077484130859375e+01 2.220405960083007812e+01 -8.573305010795593262e-01 -2.949230670928955078e-01 -3.456760644912719727e-01 -8.116595149040222168e-01
6.822000000000000000e+03 5.035720443725585938e+01 2.096627235412597656e+01 -7.572873234748840332e-01 -2.815475761890411377e-01 -3.116504848003387451e-01 -7.571552991867065430e-01
6.823000000000000000e+03 4.617435073852539062e+01 1.646834182739257812e+01 -6.371969580650329590e-01 -5.584452152252197266e-01 -3.586926460266113281e-01 -7.592698931694030762e-01
6.824000000000000000e+03 4.303398895263671875e+01 1.332119560241699219e+01 -6.718897223472595215e-01 -6.836675405502319336e-01 -4.066672027111053467e-01 -7.486134767532348633e-01
6.825000000000000000e+03 4.521675109863281250e+01 1.553023719787597656e+01 -6.378232240676879883e-01 -5.934171676635742188e-01 -3.693721294403076172e-01 -7.610592842102050781e-01
6.826000000000000000e+03 4.204203414916992188e+01 1.233967494964599609e+01 -6.811726689338684082e-01 -7.224016189575195312e-01 -4.210722744464874268e-01 -7.318677306175231934e-01
6.827000000000000000e+03 4.072375106811523438e+01 8.889674186706542969e+00 -5.694313645362854004e-01 -6.338470578193664551e-01 -3.609835207462310791e-01 -5.479402542114257812e-01
6.828000000000000000e+03 4.807892608642578125e+01 1.955931091308593750e+01 -7.616245150566101074e-01 -5.245614051818847656e-01 -3.858557641506195068e-01 -8.136745095252990723e-01
6.829000000000000000e+03 4.834922790527343750e+01 1.845717430114746094e+01 -6.500455141067504883e-01 -4.145715236663818359e-01 -3.193851113319396973e-01 -7.288451194763183594e-01
6.830000000000000000e+03 4.122492218017578125e+01 9.155765533447265625e+00 -5.474463105201721191e-01 -6.086856722831726074e-01 -3.468396067619323730e-01 -5.389737486839294434e-01
6.831000000000000000e+03 4.447639846801757812e+01 1.501118373870849609e+01 -6.639967560768127441e-01 -6.482139229774475098e-01 -3.936632275581359863e-01 -7.803606986999511719e-01
6.832000000000000000e+03 4.484428024291992188e+01 1.476147747039794922e+01 -6.180538535118103027e-01 -5.827047228813171387e-01 -3.602275848388671875e-01 -7.309786081314086914e-01
6.833000000000000000e+03 5.141919708251953125e+01 2.224965286254882812e+01 -8.206181526184082031e-01 -1.930156201124191284e-01 -3.040901422500610352e-01 -7.807087898254394531e-01
6.834000000000000000e+03 3.618223571777343750e+01 3.843770027160644531e+00 -5.878735184669494629e-01 -6.562376618385314941e-01 -3.732333481311798096e-01 -3.039057552814483643e-01
6.835000000000000000e+03 4.978266525268554688e+01 2.001288032531738281e+01 -7.021729946136474609e-01 -3.117399215698242188e-01 -3.041738867759704590e-01 -7.346819043159484863e-01
6.836000000000000000e+03 4.901524353027343750e+01 1.929380416870117188e+01 -6.833921074867248535e-01 -3.783605992794036865e-01 -3.185258209705352783e-01 -7.413374185562133789e-01
6.837000000000000000e+03 3.733185195922851562e+01 5.812008380889892578e+00 -6.609346270561218262e-01 -6.969394683837890625e-01 -4.073622226715087891e-01 -4.669807851314544678e-01
6.838000000000000000e+03 4.039314651489257812e+01 -2.461624145507812500e-01 1.739754676818847656e-01 -3.583023548126220703e-01 -5.529806390404701233e-02 4.007398337125778198e-02
6.839000000000000000e+03 3.990586471557617188e+01 7.916999340057373047e+00 -5.702961683273315430e-01 -6.482178568840026855e-01 -3.655542135238647461e-01 -5.150042176246643066e-01
6.840000000000000000e+03 3.514328002929687500e+01 2.429354906082153320e+00 -4.944860637187957764e-01 -6.510508656501770020e-01 -3.436610698699951172e-01 -1.580669879913330078e-01
6.841000000000000000e+03 3.557738494873046875e+01 1.160909652709960938e+00 -2.435195893049240112e-01 -6.286121606826782227e-01 -2.616395354270935059e-01 -4.314703866839408875e-02
6.842000000000000000e+03 1.736213493347167969e+01 1.925074386596679688e+01 1.827625185251235962e-02 1.237399354577064514e-01 4.260485619306564331e-02 5.282119661569595337e-02
6.843000000000000000e+03 3.837287139892578125e+01 7.456216812133789062e+00 -6.750171780586242676e-01 -7.358835339546203613e-01 -4.232702255249023438e-01 -5.652120709419250488e-01
6.844000000000000000e+03 3.940132904052734375e+01 7.756536960601806641e+00 -6.029338836669921875e-01 -6.818644404411315918e-01 -3.854395151138305664e-01 -5.279178023338317871e-01
6.845000000000000000e+03 5.495575714111328125e+01 2.287519454956054688e+01 -6.512997150421142578e-01 2.922008633613586426e-01 -1.077296510338783264e-01 -6.441819667816162109e-01
6.846000000000000000e+03 5.556669616699218750e+01 2.282344627380371094e+01 -5.985730290412902832e-01 3.780873119831085205e-01 -6.614571064710617065e-02 -6.093034148216247559e-01
6.847000000000000000e+03 5.620150375366210938e+01 2.282426834106445312e+01 -5.499618649482727051e-01 4.621420204639434814e-01 -2.634594775736331940e-02 -5.708572864532470703e-01
6.848000000000000000e+03 3.769879913330078125e+01 5.178253173828125000e+00 -5.604497194290161133e-01 -6.489289402961730957e-01 -3.628136217594146729e-01 -3.828341066837310791e-01
6.849000000000000000e+03 3.760598373413085938e+01 6.810490131378173828e+00 -7.013373374938964844e-01 -7.450025677680969238e-01 -4.339019656181335449e-01 -5.512188673019409180e-01
6.850000000000000000e+03 5.108738327026367188e+01 2.189830780029296875e+01 -8.116767406463623047e-01 -2.238833606243133545e-01 -3.106680512428283691e-01 -7.778248786926269531e-01
6.851000000000000000e+03 5.171722793579101562e+01 2.172868347167968750e+01 -7.494748234748840332e-01 -1.286716312170028687e-01 -2.634439468383789062e-01 -7.333131432533264160e-01
6.852000000000000000e+03 4.146417999267578125e+01 1.200727462768554688e+01 -7.008436322212219238e-01 -7.555818557739257812e-01 -4.369276463985443115e-01 -7.454295158386230469e-01
6.853000000000000000e+03 4.212116622924804688e+01 1.019384670257568359e+01 -5.375649333000183105e-01 -5.816330909729003906e-01 -3.357594013214111328e-01 -5.656096935272216797e-01
6.854000000000000000e+03 3.906798553466796875e+01 7.485380172729492188e+00 -6.087381839752197266e-01 -6.825715899467468262e-01 -3.873929083347320557e-01 -5.260617733001708984e-01
6.855000000000000000e+03 3.839681625366210938e+01 6.745675086975097656e+00 -6.204688549041748047e-01 -6.908476948738098145e-01 -3.933949768543243408e-01 -4.981828033924102783e-01
6.856000000000000000e+03 3.978937911987304688e+01 4.769404530525207520e-01 8.439151942729949951e-02 -4.135123789310455322e-01 -9.873625636100769043e-02 6.251733284443616867e-03
6.857000000000000000e+03 2.116110420227050781e+01 2.447759628295898438e+01 1.581561565399169922e-02 1.032690554857254028e-01 3.572539985179901123e-02 5.032875388860702515e-02
6.858000000000000000e+03 6.274660873413085938e+01 1.918342590332031250e+01 2.850756943225860596e-01 2.073447227478027344e+00 7.075569033622741699e-01 4.268383383750915527e-01
6.859000000000000000e+03 6.289457321166992188e+01 2.001066398620605469e+01 2.655020952224731445e-01 2.004289150238037109e+00 6.809373497962951660e-01 3.968498110771179199e-01
6.860000000000000000e+03 3.900480270385742188e+01 4.880346953868865967e-01 5.061142891645431519e-02 -4.667900204658508301e-01 -1.248535811901092529e-01 6.049887277185916901e-03
6.861000000000000000e+03 1.809480857849121094e+01 2.184471511840820312e+01 1.134401373565196991e-02 1.083409190177917480e-01 3.590548038482666016e-02 4.518958553671836853e-02
6.862000000000000000e+03 6.342976760864257812e+01 1.907256317138671875e+01 3.317773640155792236e-01 2.329623460769653320e+00 7.984202504158020020e-01 5.347402691841125488e-01
6.863000000000000000e+03 4.256552886962890625e+01 -1.565220713615417480e+00 3.092225193977355957e-01 -1.533275991678237915e-01 4.676847159862518311e-02 9.163686633110046387e-02
6.864000000000000000e+03 4.440961074829101562e+01 -2.036160469055175781e+00 3.645668327808380127e-01 6.654162704944610596e-02 1.293325424194335938e-01 1.205207332968711853e-01
6.865000000000000000e+03 5.903435897827148438e+01 2.067696189880371094e+01 -7.212932407855987549e-02 1.068747758865356445e+00 2.989855110645294189e-01 -1.365896761417388916e-01
6.866000000000000000e+03 6.171704483032226562e+01 1.844875335693359375e+01 2.694527804851531982e-01 1.907830357551574707e+00 6.531849503517150879e-01 3.417604863643646240e-01
6.867000000000000000e+03 6.309191513061523438e+01 2.077436447143554688e+01 2.391144782304763794e-01 1.947057008743286133e+00 6.558514237403869629e-01 3.840459883213043213e-01
6.868000000000000000e+03 5.778598022460937500e+01 2.181226921081542969e+01 -2.886093258857727051e-01 7.554478645324707031e-01 1.400515586137771606e-01 -3.624260723590850830e-01
6.869000000000000000e+03 5.623338317871093750e+01 2.204367828369140625e+01 -4.454330205917358398e-01 5.190168023109436035e-01 2.207512967288494110e-02 -4.997921884059906006e-01
6.870000000000000000e+03 5.865862274169921875e+01 -6.280923485755920410e-01 3.726506531238555908e-01 2.394976139068603516e+00 8.302879929542541504e-01 4.820810854434967041e-01
6.871000000000000000e+03 6.162251663208007812e+01 1.229705905914306641e+01 3.679553270339965820e-01 2.485851049423217773e+00 8.561419248580932617e-01 5.568419694900512695e-01
6.872000000000000000e+03 6.230622482299804688e+01 5.903626918792724609e+00 3.716172277927398682e-01 3.015413761138916016e+00 1.016109347343444824e+00 6.367755532264709473e-01
6.873000000000000000e+03 5.870519638061523438e+01 -6.832231521606445312e+00 3.366103470325469971e-01 2.524115324020385742e+00 8.582177162170410156e-01 4.082989394664764404e-01
6.874000000000000000e+03 3.694901275634765625e+01 1.071318268775939941e+00 -1.293973028659820557e-01 -5.802822709083557129e-01 -2.129038721323013306e-01 -3.293734043836593628e-02
6.875000000000000000e+03 3.732745361328125000e+01 6.438780426979064941e-01 -6.403918564319610596e-02 -5.605528950691223145e-01 -1.873776316642761230e-01 -1.261986047029495239e-02
6.876000000000000000e+03 6.276745223999023438e+01 1.607721900939941406e+01 3.627111315727233887e-01 2.472990512847900391e+00 8.507105112075805664e-01 5.643646717071533203e-01
6.877000000000000000e+03 6.105309295654296875e+01 1.192977428436279297e+01 3.562152981758117676e-01 2.353276491165161133e+00 8.128475546836853027e-01 5.133391618728637695e-01
6.878000000000000000e+03 4.359813690185546875e+01 -1.538238644599914551e+00 3.227706253528594971e-01 -5.035481974482536316e-02 8.172474056482315063e-02 9.896816313266754150e-02
6.879000000000000000e+03 6.265940856933593750e+01 1.506750869750976562e+01 3.796181082725524902e-01 2.546606540679931641e+00 8.778674006462097168e-01 5.817072391510009766e-01
6.880000000000000000e+03 6.170637130737304688e+01 1.423527622222900391e+01 3.619804382324218750e-01 2.353247880935668945e+00 8.145684599876403809e-01 5.223361253738403320e-01
6.881000000000000000e+03 2.034371376037597656e+01 2.276894187927246094e+01 1.814420521259307861e-02 1.100814640522003174e-01 3.846770152449607849e-02 5.396257713437080383e-02
6.882000000000000000e+03 5.949998474121093750e+01 2.607101678848266602e+00 3.722470700740814209e-01 2.476877450942993164e+00 8.547374010086059570e-01 5.263723134994506836e-01
6.883000000000000000e+03 5.802938079833984375e+01 -1.918450117111206055e+00 3.782912194728851318e-01 2.281739950180053711e+00 7.980093359947204590e-01 4.586182832717895508e-01
6.884000000000000000e+03 5.750439834594726562e+01 -3.498285531997680664e+00 3.825034201145172119e-01 2.231419801712036133e+00 7.841769456863403320e-01 4.304265975952148438e-01
6.885000000000000000e+03 6.119257736206054688e+01 5.503302097320556641e+00 3.730938434600830078e-01 2.741523265838623047e+00 9.343851804733276367e-01 5.895351171493530273e-01
6.886000000000000000e+03 4.677101135253906250e+01 -3.203332424163818359e+00 4.168144762516021729e-01 3.874321877956390381e-01 2.412739992141723633e-01 1.656495481729507446e-01
6.887000000000000000e+03 4.993878173828125000e+01 -6.442152023315429688e+00 4.418197274208068848e-01 9.329435229301452637e-01 4.124289751052856445e-01 2.205787897109985352e-01
6.888000000000000000e+03 4.856495285034179688e+01 -6.543655395507812500e+00 4.545638561248779297e-01 7.108420729637145996e-01 3.496217727661132812e-01 1.909147948026657104e-01
6.889000000000000000e+03 1.911365509033203125e+01 2.240248870849609375e+01 1.351639907807111740e-02 1.089868992567062378e-01 3.675099089741706848e-02 4.854062944650650024e-02
6.890000000000000000e+03 5.849013137817382812e+01 -5.622441291809082031e+00 3.535510003566741943e-01 2.454565763473510742e+00 8.424350023269653320e-01 4.209036827087402344e-01
6.891000000000000000e+03 5.465060424804687500e+01 -1.105319118499755859e+01 3.417184650897979736e-01 1.851089954376220703e+00 6.578425168991088867e-01 2.765231728553771973e-01
6.892000000000000000e+03 2.156982612609863281e+01 2.594155502319335938e+01 1.241958793252706528e-02 9.738934040069580078e-02 3.294267877936363220e-02 4.609865695238113403e-02
6.893000000000000000e+03 4.324123764038085938e+01 -3.848266899585723877e-01 2.520900368690490723e-01 -9.561117738485336304e-02 4.694366082549095154e-02 7.251387089490890503e-02
6.894000000000000000e+03 6.038726425170898438e+01 7.439706325531005859e+00 3.648931086063385010e-01 2.460963487625122070e+00 8.477569818496704102e-01 5.452316999435424805e-01
6.895000000000000000e+03 6.204471969604492188e+01 8.576877593994140625e+00 3.820736110210418701e-01 2.819864034652709961e+00 9.605812430381774902e-01 6.261965036392211914e-01
6.896000000000000000e+03 6.088510131835937500e+01 9.581615447998046875e+00 3.678661882877349854e-01 2.473078966140747070e+00 8.522835373878479004e-01 5.523598194122314453e-01
6.897000000000000000e+03 5.620890426635742188e+01 -1.480763196945190430e+00 3.904319107532501221e-01 1.928055286407470703e+00 6.955461502075195312e-01 4.100645780563354492e-01
6.898000000000000000e+03 5.863476181030273438e+01 6.680347323417663574e-01 3.799627721309661865e-01 2.344610691070556641e+00 8.173720240592956543e-01 4.905368983745574951e-01
6.899000000000000000e+03 5.809619140625000000e+01 -9.700798988342285156e-02 3.743174374103546143e-01 2.242730140686035156e+00 7.851142883300781250e-01 4.718363285064697266e-01
6.900000000000000000e+03 6.226356887817382812e+01 1.794644737243652344e+01 3.116653263568878174e-01 2.130353450775146484e+00 7.326056957244873047e-01 4.360907673835754395e-01
6.901000000000000000e+03 5.183037185668945312e+01 -8.509563446044921875e+00 4.131846129894256592e-01 1.294488191604614258e+00 5.123018622398376465e-01 2.462868541479110718e-01
6.902000000000000000e+03 5.972709655761718750e+01 -1.354484653472900391e+01 2.300743758678436279e-01 2.812363862991333008e+00 9.127314686775207520e-01 3.207396566867828369e-01
6.903000000000000000e+03 4.942076873779296875e+01 -3.822341680526733398e+00 4.277813732624053955e-01 7.922079563140869141e-01 3.659968078136444092e-01 2.274089157581329346e-01
6.904000000000000000e+03 6.051107788085937500e+01 5.609984874725341797e+00 3.781844675540924072e-01 2.583455324172973633e+00 8.884919285774230957e-01 5.747298002243041992e-01
6.905000000000000000e+03 5.625254821777343750e+01 -8.220995903015136719e+00 3.595116436481475830e-01 2.085845947265625000e+00 7.336072921752929688e-01 3.421665728092193604e-01
6.906000000000000000e+03 1.900446891784667969e+01 3.515023803710937500e+01 -2.779601141810417175e-03 5.342468991875648499e-02 1.519352570176124573e-02 1.175661571323871613e-02
6.907000000000000000e+03 5.772684097290039062e+01 -1.357410240173339844e+01 2.505339086055755615e-01 2.472188949584960938e+00 8.168168663978576660e-01 3.009645044803619385e-01
6.908000000000000000e+03 5.755478286743164062e+01 -9.696672439575195312e+00 3.231514692306518555e-01 2.361399173736572266e+00 8.053652048110961914e-01 3.488449752330780029e-01
6.909000000000000000e+03 5.188896560668945312e+01 -9.869162559509277344e+00 3.910448551177978516e-01 1.338975429534912109e+00 5.190060734748840332e-01 2.353898286819458008e-01
6.910000000000000000e+03 5.124743270874023438e+01 -1.058644962310791016e+01 3.880935311317443848e-01 1.233274340629577637e+00 4.864103496074676514e-01 1.997513622045516968e-01
6.911000000000000000e+03 4.461145782470703125e+01 1.367176532745361328e+01 -5.669836401939392090e-01 -5.444458127021789551e-01 -3.334288597106933594e-01 -6.712198853492736816e-01
6.912000000000000000e+03 5.033238983154296875e+01 1.986851119995117188e+01 -6.498374938964843750e-01 -2.141676396131515503e-01 -2.592015564441680908e-01 -6.891979575157165527e-01
6.913000000000000000e+03 5.345864868164062500e+01 2.225781059265136719e+01 -6.949805021286010742e-01 1.131026372313499451e-01 -1.745633631944656372e-01 -6.762517094612121582e-01
6.914000000000000000e+03 5.369192123413085938e+01 2.266364479064941406e+01 -7.267073988914489746e-01 1.218241527676582336e-01 -1.814649701118469238e-01 -6.934424042701721191e-01
6.915000000000000000e+03 5.482748031616210938e+01 2.214890861511230469e+01 -5.791894197463989258e-01 3.123879730701446533e-01 -8.004042506217956543e-02 -5.948203206062316895e-01
6.916000000000000000e+03 4.774047851562500000e+01 1.605076789855957031e+01 -5.111205577850341797e-01 -3.326304256916046143e-01 -2.531253099441528320e-01 -6.220884919166564941e-01
6.917000000000000000e+03 4.725392150878906250e+01 1.582870006561279297e+01 -5.271502733230590820e-01 -3.810815215110778809e-01 -2.724695503711700439e-01 -6.424763202667236328e-01
6.918000000000000000e+03 4.744684219360351562e+01 1.657366180419921875e+01 -5.629415512084960938e-01 -4.049069285392761230e-01 -2.903545498847961426e-01 -6.749374866485595703e-01
6.919000000000000000e+03 4.904887008666992188e+01 1.671577072143554688e+01 -4.755548834800720215e-01 -1.984943151473999023e-01 -2.022147625684738159e-01 -5.745325088500976562e-01
6.920000000000000000e+03 4.843720626831054688e+01 1.896223258972167969e+01 -6.885483264923095703e-01 -4.406664073467254639e-01 -3.387644290924072266e-01 -7.578348517417907715e-01
6.921000000000000000e+03 5.087013244628906250e+01 2.043181419372558594e+01 -6.752309799194335938e-01 -1.760500073432922363e-01 -2.553842961788177490e-01 -6.967167258262634277e-01
6.922000000000000000e+03 4.892026901245117188e+01 1.803763580322265625e+01 -5.861376523971557617e-01 -3.083339929580688477e-01 -2.683414816856384277e-01 -6.667866706848144531e-01
6.923000000000000000e+03 4.964665222167968750e+01 1.954765319824218750e+01 -6.690199375152587891e-01 -3.047664165496826172e-01 -2.921358942985534668e-01 -7.153734564781188965e-01
6.924000000000000000e+03 4.254496383666992188e+01 1.227714252471923828e+01 -6.395546793937683105e-01 -6.677775382995605469e-01 -3.921996653079986572e-01 -6.999707818031311035e-01
6.925000000000000000e+03 4.285438919067382812e+01 9.352187156677246094e+00 -4.303917884826660156e-01 -4.656114578247070312e-01 -2.688009738922119141e-01 -4.618323743343353271e-01
6.926000000000000000e+03 4.126541519165039062e+01 1.016958141326904297e+01 -5.972199440002441406e-01 -6.575995087623596191e-01 -3.764458298683166504e-01 -6.110690832138061523e-01
6.927000000000000000e+03 4.403435134887695312e+01 1.362377738952636719e+01 -6.103425025939941406e-01 -5.994051694869995117e-01 -3.629243075847625732e-01 -7.065482735633850098e-01
6.928000000000000000e+03 4.850447082519531250e+01 1.691377449035644531e+01 -5.281170010566711426e-01 -2.925570309162139893e-01 -2.462022006511688232e-01 -6.285436153411865234e-01
6.929000000000000000e+03 4.864365768432617188e+01 1.748223495483398438e+01 -5.553891062736511230e-01 -3.120977282524108887e-01 -2.602460384368896484e-01 -6.523852944374084473e-01
6.930000000000000000e+03 4.563066864013671875e+01 1.549300670623779297e+01 -6.064361333847045898e-01 -5.523009300231933594e-01 -3.476211130619049072e-01 -7.279134988784790039e-01
6.931000000000000000e+03 4.184972763061523438e+01 1.104586601257324219e+01 -6.115916967391967773e-01 -6.580027937889099121e-01 -3.808783292770385742e-01 -6.451017856597900391e-01
6.932000000000000000e+03 4.046870803833007812e+01 8.151514053344726562e+00 -5.429856181144714355e-01 -6.147549152374267578e-01 -3.473221659660339355e-01 -5.014299154281616211e-01
6.933000000000000000e+03 4.172391891479492188e+01 9.404013633728027344e+00 -5.205861330032348633e-01 -5.752527713775634766e-01 -3.287516832351684570e-01 -5.288552045822143555e-01
6.934000000000000000e+03 4.679524993896484375e+01 1.559458923339843750e+01 -5.420492291450500488e-01 -4.225411117076873779e-01 -2.893771231174468994e-01 -6.590739488601684570e-01
6.935000000000000000e+03 4.139119338989257812e+01 1.157623863220214844e+01 -6.775828003883361816e-01 -7.292599678039550781e-01 -4.220528304576873779e-01 -7.126552462577819824e-01
6.936000000000000000e+03 4.167000579833984375e+01 1.055307197570800781e+01 -5.967261791229248047e-01 -6.466013789176940918e-01 -3.729982674121856689e-01 -6.204504370689392090e-01
6.937000000000000000e+03 4.145969390869140625e+01 8.776490211486816406e+00 -5.022478699684143066e-01 -5.632804632186889648e-01 -3.196585178375244141e-01 -4.943333566188812256e-01
6.938000000000000000e+03 4.098767852783203125e+01 8.470884323120117188e+00 -5.191552042961120605e-01 -5.872564315795898438e-01 -3.319234848022460938e-01 -4.985778331756591797e-01
6.939000000000000000e+03 4.506930541992187500e+01 1.429946613311767578e+01 -5.739756822586059570e-01 -5.327464938163757324e-01 -3.320166468620300293e-01 -6.853653788566589355e-01
6.940000000000000000e+03 4.565248107910156250e+01 1.439308929443359375e+01 -5.378921627998352051e-01 -4.736132621765136719e-01 -3.034516274929046631e-01 -6.536578536033630371e-01
6.941000000000000000e+03 4.637216949462890625e+01 1.533253574371337891e+01 -5.538260936737060547e-01 -4.535363912582397461e-01 -3.022087216377258301e-01 -6.698458790779113770e-01
6.942000000000000000e+03 4.187283706665039062e+01 9.054740905761718750e+00 -4.923155307769775391e-01 -5.369668006896972656e-01 -3.087847232818603516e-01 -4.945392906665802002e-01
6.943000000000000000e+03 4.907271957397460938e+01 1.763059043884277344e+01 -5.456496477127075195e-01 -2.618298232555389404e-01 -2.422438412904739380e-01 -6.358123421669006348e-01
6.944000000000000000e+03 3.651656723022460938e+01 4.370851993560791016e+00 -6.114854216575622559e-01 -6.677740812301635742e-01 -3.837778568267822266e-01 -3.487555682659149170e-01
6.945000000000000000e+03 3.557134628295898438e+01 2.038287639617919922e+00 -4.012415707111358643e-01 -6.335595846176147461e-01 -3.104403316974639893e-01 -1.190381422638893127e-01
6.946000000000000000e+03 3.648664093017578125e+01 8.265480995178222656e-01 -1.316072046756744385e-01 -5.976095199584960938e-01 -2.187650203704833984e-01 -2.158199623227119446e-02
6.947000000000000000e+03 3.998223876953125000e+01 7.397204399108886719e+00 -5.352153778076171875e-01 -6.145520806312561035e-01 -3.449302613735198975e-01 -4.702478945255279541e-01
6.948000000000000000e+03 3.938705062866210938e+01 6.820821285247802734e+00 -5.330621600151062012e-01 -6.250483989715576172e-01 -3.474331498146057129e-01 -4.456670582294464111e-01
6.949000000000000000e+03 3.636929321289062500e+01 2.981057167053222656e+00 -4.590645432472229004e-01 -6.263501644134521484e-01 -3.256244063377380371e-01 -2.012996077537536621e-01
6.950000000000000000e+03 5.215658569335937500e+01 2.154175758361816406e+01 -6.974682211875915527e-01 -3.572473675012588501e-02 -2.199578881263732910e-01 -6.956603527069091797e-01
6.951000000000000000e+03 3.552535247802734375e+01 2.847643375396728516e+00 -5.290117859840393066e-01 -6.469253301620483398e-01 -3.527811169624328613e-01 -2.024087011814117432e-01
6.952000000000000000e+03 5.438092803955078125e+01 2.299002075195312500e+01 -7.082779407501220703e-01 2.128253728151321411e-01 -1.486357748508453369e-01 -6.828693747520446777e-01
6.953000000000000000e+03 6.161526489257812500e+01 1.683132362365722656e+01 3.011660575866699219e-01 2.059808969497680664e+00 7.082925438880920410e-01 4.050732254981994629e-01
6.954000000000000000e+03 5.842712020874023438e+01 1.494188594818115234e+01 2.031687200069427490e-01 1.500382184982299805e+00 5.110653042793273926e-01 2.047261446714401245e-01
6.955000000000000000e+03 3.947305679321289062e+01 7.343312740325927734e+00 -5.702480077743530273e-01 -6.554872989654541016e-01 -3.677205741405487061e-01 -4.937749505043029785e-01
6.956000000000000000e+03 3.879749298095703125e+01 7.078440666198730469e+00 -6.117129325866699219e-01 -6.810870766639709473e-01 -3.878400027751922607e-01 -5.062549710273742676e-01
6.957000000000000000e+03 4.164125823974609375e+01 -3.302421271800994873e-01 2.040628641843795776e-01 -2.615421116352081299e-01 -1.724377088248729706e-02 5.592752620577812195e-02
6.958000000000000000e+03 3.909241104125976562e+01 1.705111145973205566e+00 -8.154908567667007446e-02 -4.734558165073394775e-01 -1.665014773607254028e-01 -5.345145985484123230e-02
6.959000000000000000e+03 5.942440795898437500e+01 3.640954971313476562e+00 3.763195276260375977e-01 2.422940731048583984e+00 8.397781252861022949e-01 5.318880081176757812e-01
6.960000000000000000e+03 5.776267623901367188e+01 1.110967397689819336e+00 3.843111395835876465e-01 2.154663324356079102e+00 7.616923451423645020e-01 4.737782776355743408e-01
6.961000000000000000e+03 3.918500518798828125e+01 1.160618782043457031e+00 -3.007875196635723114e-02 -4.675890207290649414e-01 -1.493003368377685547e-01 -3.166537731885910034e-02
6.962000000000000000e+03 6.216735076904296875e+01 2.016685295104980469e+01 2.133332192897796631e-01 1.788594722747802734e+00 6.005783677101135254e-01 2.938439846038818359e-01
6.963000000000000000e+03 6.140773010253906250e+01 2.038604927062988281e+01 1.513320952653884888e-01 1.588807702064514160e+00 5.220419168472290039e-01 1.718696206808090210e-01
6.964000000000000000e+03 5.972368240356445312e+01 1.981178665161132812e+01 6.078407168388366699e-02 1.290112137794494629e+00 4.052688479423522949e-01 7.522696629166603088e-03
6.965000000000000000e+03 5.811711120605468750e+01 2.123496437072753906e+01 -2.081745266914367676e-01 8.613170981407165527e-01 1.959427744150161743e-01 -2.812832891941070557e-01
6.966000000000000000e+03 3.754232788085937500e+01 4.569477081298828125e+00 -5.135394930839538574e-01 -6.252121329307556152e-01 -3.416254818439483643e-01 -3.216235935688018799e-01
6.967000000000000000e+03 3.732166290283203125e+01 1.495712280273437500e+00 -1.666953265666961670e-01 -5.672619938850402832e-01 -2.201872020959854126e-01 -5.907503142952919006e-02
6.968000000000000000e+03 3.682273864746093750e+01 2.612258434295654297e+00 -3.588685691356658936e-01 -6.007169485092163086e-01 -2.878756523132324219e-01 -1.519824713468551636e-01
6.969000000000000000e+03 5.552446365356445312e+01 2.207898139953613281e+01 -5.129817128181457520e-01 4.181896150112152100e-01 -2.843763865530490875e-02 -5.478335618972778320e-01
6.970000000000000000e+03 5.746145248413085938e+01 2.096420669555664062e+01 -2.327267527580261230e-01 7.833573818206787109e-01 1.651891916990280151e-01 -3.096641600131988525e-01
6.971000000000000000e+03 4.793387222290039062e+01 -2.959988594055175781e+00 4.126287102699279785e-01 5.472143888473510742e-01 2.879529297351837158e-01 1.921882480382919312e-01
6.972000000000000000e+03 4.658591461181640625e+01 -2.092913627624511719e+00 3.838635683059692383e-01 3.383575677871704102e-01 2.166663408279418945e-01 1.594336032867431641e-01
6.973000000000000000e+03 6.120026016235351562e+01 1.279469871520996094e+01 3.551911413669586182e-01 2.332265377044677734e+00 8.062369823455810547e-01 5.143240094184875488e-01
6.974000000000000000e+03 6.044521331787109375e+01 1.966260528564453125e+01 1.158163249492645264e-01 1.462101578712463379e+00 4.733753800392150879e-01 1.086956411600112915e-01
6.975000000000000000e+03 5.980813980102539062e+01 2.063692665100097656e+01 -1.559612900018692017e-02 1.208293676376342773e+00 3.578092455863952637e-01 -5.499050021171569824e-02
6.976000000000000000e+03 6.176739120483398438e+01 1.506404972076416016e+01 3.542085886001586914e-01 2.287638187408447266e+00 7.925540804862976074e-01 5.010310411453247070e-01
6.977000000000000000e+03 4.238584518432617188e+01 -2.208513319492340088e-01 2.210913300514221191e-01 -1.858344674110412598e-01 1.057706214487552643e-02 5.852475762367248535e-02
6.978000000000000000e+03 4.289009094238281250e+01 6.413280487060546875e+00 -2.429437935352325439e-01 -3.170017898082733154e-01 -1.679836809635162354e-01 -2.532396614551544189e-01
6.979000000000000000e+03 6.090719223022460938e+01 1.495594215393066406e+01 3.195405304431915283e-01 2.072315454483032227e+00 7.175567746162414551e-01 4.198876917362213135e-01
6.980000000000000000e+03 4.462963867187500000e+01 -1.141519784927368164e+00 3.226939737796783447e-01 8.110718429088592529e-02 1.211403459310531616e-01 1.119209453463554382e-01
6.981000000000000000e+03 6.123465728759765625e+01 1.134135246276855469e+01 3.691350221633911133e-01 2.465516805648803711e+00 8.503955602645874023e-01 5.493656992912292480e-01
6.982000000000000000e+03 5.297695922851562500e+01 -9.617113113403320312e+00 3.767609298229217529e-01 1.529860138893127441e+00 5.719863176345825195e-01 2.529873549938201904e-01
6.983000000000000000e+03 6.088848495483398438e+01 8.173469543457031250e+00 3.740351200103759766e-01 2.546264410018920898e+00 8.760898709297180176e-01 5.646407008171081543e-01
6.984000000000000000e+03 4.978737640380859375e+01 -7.726295948028564453e+00 4.417853653430938721e-01 9.369297623634338379e-01 4.136145412921905518e-01 2.056931555271148682e-01
6.985000000000000000e+03 5.193074035644531250e+01 -5.560922622680664062e+00 4.265846610069274902e-01 1.237356424331665039e+00 4.991823136806488037e-01 2.725871801376342773e-01
6.986000000000000000e+03 6.006261062622070312e+01 4.658326625823974609e+00 3.795518279075622559e-01 2.531144142150878906e+00 8.732087612152099609e-01 5.574325323104858398e-01
6.987000000000000000e+03 5.844063186645507812e+01 2.809495449066162109e+00 3.732962608337402344e-01 2.219789981842041016e+00 7.779258489608764648e-01 4.886007606983184814e-01
6.988000000000000000e+03 6.075888824462890625e+01 4.949220657348632812e+00 3.725860118865966797e-01 2.669223308563232422e+00 9.125428199768066406e-01 5.768511295318603516e-01
6.989000000000000000e+03 5.843608856201171875e+01 5.322650909423828125e+00 3.623486459255218506e-01 2.133531332015991211e+00 7.487640380859375000e-01 4.767359495162963867e-01
6.990000000000000000e+03 6.120068740844726562e+01 1.949411582946777344e+01 1.684159487485885620e-01 1.650515317916870117e+00 5.456793904304504395e-01 2.093984484672546387e-01
6.991000000000000000e+03 5.910630416870117188e+01 -1.077218914031982422e+01 2.792444825172424316e-01 2.662326574325561523e+00 8.824713230133056641e-01 3.578729927539825439e-01
6.992000000000000000e+03 4.547488784790039062e+01 -1.172137618064880371e+00 3.344850540161132812e-01 1.693326681852340698e-01 1.511453092098236084e-01 1.305067092180252075e-01
6.993000000000000000e+03 4.341344451904296875e+01 4.689159393310546875e-01 2.072807103395462036e-01 -8.765392750501632690e-02 3.588803857564926147e-02 5.606646463274955750e-02
6.994000000000000000e+03 5.787035369873046875e+01 -1.103183078765869141e+01 2.890622317790985107e-01 2.437259435653686523e+00 8.178965449333190918e-01 3.304155170917510986e-01
6.995000000000000000e+03 5.351311492919921875e+01 -5.510895729064941406e+00 4.079678356647491455e-01 1.515835881233215332e+00 5.771411061286926270e-01 3.104783296585083008e-01
6.996000000000000000e+03 6.008131790161132812e+01 8.502464294433593750e+00 3.636823296546936035e-01 2.334047555923461914e+00 8.093189597129821777e-01 5.249264836311340332e-01
6.997000000000000000e+03 6.134806060791015625e+01 8.896465301513671875e+00 3.775499761104583740e-01 2.617648124694824219e+00 8.985594511032104492e-01 5.804767608642578125e-01
6.998000000000000000e+03 5.545050048828125000e+01 -6.687254428863525391e+00 3.824828863143920898e-01 1.915185928344726562e+00 6.893006563186645508e-01 3.474298417568206787e-01
6.999000000000000000e+03 5.129493713378906250e+01 -9.257352828979492188e+00 4.091513454914093018e-01 1.210326313972473145e+00 4.858433008193969727e-01 2.184451520442962646e-01
7.000000000000000000e+03 5.237547302246093750e+01 -9.218331336975097656e+00 3.969534039497375488e-01 1.427894949913024902e+00 5.474544763565063477e-01 2.484924793243408203e-01
7.001000000000000000e+03 4.416305160522460938e+01 1.307631206512451172e+01 -5.641938447952270508e-01 -5.508758425712585449e-01 -3.345209062099456787e-01 -6.546415090560913086e-01
7.002000000000000000e+03 4.529286193847656250e+01 1.315296840667724609e+01 -4.880413115024566650e-01 -4.337945282459259033e-01 -2.765507698059082031e-01 -5.904969573020935059e-01
7.003000000000000000e+03 5.342449188232421875e+01 2.107006645202636719e+01 -5.717301964759826660e-01 1.701188087463378906e-01 -1.204834207892417908e-01 -5.965539813041687012e-01
7.004000000000000000e+03 4.795927047729492188e+01 1.551734161376953125e+01 -4.572253525257110596e-01 -2.638731598854064941e-01 -2.163295596837997437e-01 -5.724293589591979980e-01
7.005000000000000000e+03 4.927013397216796875e+01 1.724494934082031250e+01 -4.944511651992797852e-01 -2.079554796218872070e-01 -2.107219845056533813e-01 -5.943741798400878906e-01
7.006000000000000000e+03 4.156664276123046875e+01 9.806781768798828125e+00 -5.579410195350646973e-01 -6.110151410102844238e-01 -3.506868481636047363e-01 -5.662921667098999023e-01
7.007000000000000000e+03 5.222653961181640625e+01 2.061394500732421875e+01 -6.043348312377929688e-01 2.010095492005348206e-02 -1.752701699733734131e-01 -6.333980560302734375e-01
7.008000000000000000e+03 4.885142517089843750e+01 1.845784187316894531e+01 -6.131015419960021973e-01 -3.408662080764770508e-01 -2.861903309822082520e-01 -6.933591961860656738e-01
7.009000000000000000e+03 4.617058944702148438e+01 1.494000244140625000e+01 -5.365765094757080078e-01 -4.518120884895324707e-01 -2.965165674686431885e-01 -6.555835604667663574e-01
7.010000000000000000e+03 4.749590682983398438e+01 1.533741188049316406e+01 -4.757293164730072021e-01 -3.149304687976837158e-01 -2.371979355812072754e-01 -5.918025970458984375e-01
7.011000000000000000e+03 4.190969085693359375e+01 1.190871047973632812e+01 -6.618895530700683594e-01 -7.053495049476623535e-01 -4.101717174053192139e-01 -7.073173522949218750e-01
7.012000000000000000e+03 4.313309478759765625e+01 1.283728504180908203e+01 -6.292365193367004395e-01 -6.429453492164611816e-01 -3.816545605659484863e-01 -7.034904956817626953e-01
7.013000000000000000e+03 4.084671783447265625e+01 7.692651748657226562e+00 -4.791777133941650391e-01 -5.567358732223510742e-01 -3.107740879058837891e-01 -4.424316883087158203e-01
7.014000000000000000e+03 4.177433013916015625e+01 8.416402816772460938e+00 -4.557179212570190430e-01 -5.146431922912597656e-01 -2.911083400249481201e-01 -4.542047679424285889e-01
7.015000000000000000e+03 4.886765289306640625e+01 1.709079170227050781e+01 -5.141704678535461426e-01 -2.519522607326507568e-01 -2.298368215560913086e-01 -6.118018031120300293e-01
7.016000000000000000e+03 5.016892623901367188e+01 1.932151412963867188e+01 -6.132306456565856934e-01 -2.054021656513214111e-01 -2.455898523330688477e-01 -6.660737991333007812e-01
7.017000000000000000e+03 4.889409255981445312e+01 1.888022422790527344e+01 -6.514452099800109863e-01 -3.625724911689758301e-01 -3.042052984237670898e-01 -7.216231226921081543e-01
7.018000000000000000e+03 4.660822296142578125e+01 1.496872329711914062e+01 -5.037310123443603516e-01 -3.973854482173919678e-01 -2.703349292278289795e-01 -6.264495253562927246e-01
7.019000000000000000e+03 5.150682067871093750e+01 2.134019279479980469e+01 -7.299477458000183105e-01 -1.382808685302734375e-01 -2.604685723781585693e-01 -7.217937707901000977e-01
7.020000000000000000e+03 4.622246170043945312e+01 1.442349338531494141e+01 -5.040899515151977539e-01 -4.135728180408477783e-01 -2.752988338470458984e-01 -6.172625422477722168e-01
7.021000000000000000e+03 4.002502441406250000e+01 6.889474391937255859e+00 -4.918304681777954102e-01 -5.736142396926879883e-01 -3.196334242820739746e-01 -4.196066558361053467e-01
7.022000000000000000e+03 3.830452728271484375e+01 5.111476421356201172e+00 -5.006359815597534180e-01 -6.103242039680480957e-01 -3.332880437374114990e-01 -3.456333577632904053e-01
7.023000000000000000e+03 3.800193786621093750e+01 6.445425033569335938e+00 -6.434407830238342285e-01 -6.954808235168457031e-01 -4.016764760017395020e-01 -4.891361892223358154e-01
7.024000000000000000e+03 5.416104125976562500e+01 2.061484718322753906e+01 -4.642618000507354736e-01 3.123380839824676514e-01 -4.557712003588676453e-02 -5.170394778251647949e-01
7.025000000000000000e+03 6.067036056518554688e+01 1.655885887145996094e+01 2.624886333942413330e-01 1.861640691757202148e+00 6.372388005256652832e-01 3.241687119007110596e-01
7.026000000000000000e+03 3.923338317871093750e+01 6.200769424438476562e+00 -5.104170441627502441e-01 -5.999489426612854004e-01 -3.331097960472106934e-01 -4.043964445590972900e-01
7.027000000000000000e+03 3.839441299438476562e+01 5.704928398132324219e+00 -5.435022115707397461e-01 -6.357976198196411133e-01 -3.537899553775787354e-01 -4.026452600955963135e-01
7.028000000000000000e+03 3.781003189086914062e+01 5.710935592651367188e+00 -5.961130857467651367e-01 -6.727131009101867676e-01 -3.806478679180145264e-01 -4.293535053730010986e-01
7.029000000000000000e+03 5.140666580200195312e+01 2.092464447021484375e+01 -6.818600296974182129e-01 -1.168033555150032043e-01 -2.395990192890167236e-01 -6.977509260177612305e-01
7.030000000000000000e+03 5.189220809936523438e+01 2.107088279724121094e+01 -6.683118939399719238e-01 -4.960655421018600464e-02 -2.153755277395248413e-01 -6.760520339012145996e-01
7.031000000000000000e+03 5.765153503417968750e+01 2.033703422546386719e+01 -1.704110801219940186e-01 8.552443981170654297e-01 2.054499983787536621e-01 -2.507589757442474365e-01
7.032000000000000000e+03 5.997803497314453125e+01 1.548878097534179688e+01 2.636011540889739990e-01 1.794780969619750977e+00 6.175146102905273438e-01 3.092979192733764648e-01
7.033000000000000000e+03 3.686046600341796875e+01 1.815147876739501953e+00 -2.546700835227966309e-01 -5.904976129531860352e-01 -2.535502910614013672e-01 -8.815151453018188477e-02
7.034000000000000000e+03 3.818903732299804688e+01 1.709253072738647461e+00 -1.420223563909530640e-01 -5.245457887649536133e-01 -1.999704390764236450e-01 -6.726232916116714478e-02
7.035000000000000000e+03 3.588003540039062500e+01 3.315248489379882812e+00 -5.484126806259155273e-01 -6.438249349594116211e-01 -3.576712906360626221e-01 -2.442715764045715332e-01
7.036000000000000000e+03 3.596938705444335938e+01 2.498100280761718750e+00 -4.224122762680053711e-01 -6.252774596214294434e-01 -3.143069148063659668e-01 -1.543719619512557983e-01
7.037000000000000000e+03 4.251445388793945312e+01 7.656499385833740234e+00 -3.499734699726104736e-01 -4.058223366737365723e-01 -2.267387360334396362e-01 -3.545766770839691162e-01
7.038000000000000000e+03 4.237093353271484375e+01 -9.670678973197937012e-01 2.746893763542175293e-01 -1.761563718318939209e-01 2.955990657210350037e-02 7.621976733207702637e-02
7.039000000000000000e+03 4.253455352783203125e+01 9.764413833618164062e+00 -4.757409393787384033e-01 -5.170019865036010742e-01 -2.978228628635406494e-01 -5.104944705963134766e-01
7.040000000000000000e+03 4.221530914306640625e+01 1.162057876586914062e+01 -6.248319745063781738e-01 -6.626877188682556152e-01 -3.862559199333190918e-01 -6.686279177665710449e-01
7.041000000000000000e+03 4.471106338500976562e+01 1.312324810028076172e+01 -5.276405811309814453e-01 -4.960785508155822754e-01 -3.071157336235046387e-01 -6.231923103332519531e-01
7.042000000000000000e+03 4.767254257202148438e+01 -1.850930213928222656e+00 3.815129995346069336e-01 4.844907820224761963e-01 2.598011493682861328e-01 1.815150529146194458e-01
7.043000000000000000e+03 4.980741119384765625e+01 -5.093514442443847656e+00 4.384883046150207520e-01 8.880921602249145508e-01 3.979741334915161133e-01 2.274100035429000854e-01
7.044000000000000000e+03 5.682282638549804688e+01 3.301526308059692383e+00 3.634673953056335449e-01 1.873182773590087891e+00 6.709950566291809082e-01 4.305535852909088135e-01
7.045000000000000000e+03 5.733281707763671875e+01 2.722737789154052734e-01 3.858526051044464111e-01 2.104066610336303711e+00 7.469757795333862305e-01 4.623464643955230713e-01
7.046000000000000000e+03 4.054320907592773438e+01 4.007422924041748047e-01 1.216183453798294067e-01 -3.548337817192077637e-01 -6.996462494134902954e-02 1.832217723131179810e-02
7.047000000000000000e+03 5.381087875366210938e+01 2.186728668212890625e+01 -6.207168698310852051e-01 1.896995753049850464e-01 -1.293051838874816895e-01 -6.277340650558471680e-01
7.048000000000000000e+03 5.406755447387695312e+01 2.128498840332031250e+01 -5.448930859565734863e-01 2.550730705261230469e-01 -8.694600313901901245e-02 -5.744541287422180176e-01
7.049000000000000000e+03 5.475742340087890625e+01 2.138477897644042969e+01 -5.049323439598083496e-01 3.470767140388488770e-01 -4.735669866204261780e-02 -5.422106385231018066e-01
7.050000000000000000e+03 5.617222213745117188e+01 2.124183082580566406e+01 -3.699884116649627686e-01 5.643677711486816406e-01 5.831381306052207947e-02 -4.361012876033782959e-01
7.051000000000000000e+03 4.622552108764648438e+01 -8.668047189712524414e-02 2.968629598617553711e-01 2.453774511814117432e-01 1.626721322536468506e-01 1.259468048810958862e-01
7.052000000000000000e+03 6.174912643432617188e+01 1.594029426574707031e+01 3.298251032829284668e-01 2.185670375823974609e+00 7.546486854553222656e-01 4.607200324535369873e-01
7.053000000000000000e+03 6.035235977172851562e+01 1.348271274566650391e+01 3.270886838436126709e-01 2.071659564971923828e+00 7.196244597434997559e-01 4.358319938182830811e-01
7.054000000000000000e+03 5.831832122802734375e+01 2.053777122497558594e+01 -1.190505847334861755e-01 9.460706114768981934e-01 2.481060177087783813e-01 -2.039116919040679932e-01
7.055000000000000000e+03 6.152104949951171875e+01 1.768519020080566406e+01 2.839637100696563721e-01 1.956421732902526855e+00 6.721156239509582520e-01 3.585047125816345215e-01
7.056000000000000000e+03 3.826949691772460938e+01 4.484183788299560547e+00 -4.455465674400329590e-01 -5.847933888435363770e-01 -3.091019988059997559e-01 -2.887128591537475586e-01
7.057000000000000000e+03 4.535258483886718750e+01 -2.677271068096160889e-01 2.844730317592620850e-01 1.415722966194152832e-01 1.278136074542999268e-01 1.119573190808296204e-01
7.058000000000000000e+03 4.452029800415039062e+01 -3.834928572177886963e-01 2.777011692523956299e-01 4.401012510061264038e-02 9.651338309049606323e-02 9.859266132116317749e-02
7.059000000000000000e+03 6.150075531005859375e+01 6.220544338226318359e+00 3.762938678264617920e-01 2.800989389419555664e+00 9.531849622726440430e-01 5.978206396102905273e-01
7.060000000000000000e+03 5.966571044921875000e+01 6.017079830169677734e+00 3.643209934234619141e-01 2.378481626510620117e+00 8.228408098220825195e-01 5.259392857551574707e-01
7.061000000000000000e+03 5.849579238891601562e+01 4.526574611663818359e+00 3.673282265663146973e-01 2.179225921630859375e+00 7.639662623405456543e-01 4.871453940868377686e-01
7.062000000000000000e+03 5.852347183227539062e+01 3.682526588439941406e+00 3.781492412090301514e-01 2.219116449356079102e+00 7.791797518730163574e-01 4.872497022151947021e-01
7.063000000000000000e+03 5.928755950927734375e+01 4.523147583007812500e+00 3.753824234008789062e-01 2.350761890411376953e+00 8.178432583808898926e-01 5.208020806312561035e-01
7.064000000000000000e+03 5.911467742919921875e+01 5.940615653991699219e+00 3.628866374492645264e-01 2.244787693023681641e+00 7.823023200035095215e-01 5.088415145874023438e-01
7.065000000000000000e+03 3.721490859985351562e+01 2.246895790100097656e+00 -2.929925620555877686e-01 -5.823190212249755859e-01 -2.625934779644012451e-01 -1.213516369462013245e-01
7.066000000000000000e+03 3.766631698608398438e+01 1.997946739196777344e+00 -2.059306651353836060e-01 -5.536935329437255859e-01 -2.278872579336166382e-01 -8.928938210010528564e-02
7.067000000000000000e+03 5.691777801513671875e+01 -2.436194896697998047e+00 3.837581872940063477e-01 2.083615064620971680e+00 7.402120232582092285e-01 4.242836833000183105e-01
7.068000000000000000e+03 5.645674133300781250e+01 -4.107203960418701172e+00 3.873387873172760010e-01 2.037360191345214844e+00 7.274097204208374023e-01 4.040347039699554443e-01
7.069000000000000000e+03 6.044356536865234375e+01 1.118571853637695312e+01 3.493425250053405762e-01 2.251492261886596680e+00 7.802504301071166992e-01 4.945275783538818359e-01
7.070000000000000000e+03 5.095434570312500000e+01 -7.921422481536865234e+00 4.254859089851379395e-01 1.128273129463195801e+00 4.661277234554290771e-01 2.209466844797134399e-01
7.071000000000000000e+03 5.133582687377929688e+01 -6.709494590759277344e+00 4.251494407653808594e-01 1.165572524070739746e+00 4.772165715694427490e-01 2.481097429990768433e-01
7.072000000000000000e+03 5.264315032958984375e+01 -7.098414897918701172e+00 4.120311439037322998e-01 1.408209919929504395e+00 5.460723042488098145e-01 2.743362188339233398e-01
7.073000000000000000e+03 5.369348907470703125e+01 -8.133187294006347656e+00 4.028289020061492920e-01 1.633647680282592773e+00 6.109429597854614258e-01 2.984094917774200439e-01
7.074000000000000000e+03 5.484880828857421875e+01 -9.719504356384277344e+00 3.547974228858947754e-01 1.849091291427612305e+00 6.611666083335876465e-01 2.962083220481872559e-01
7.075000000000000000e+03 5.587405776977539062e+01 -1.131540012359619141e+01 3.132891058921813965e-01 2.077508926391601562e+00 7.172393798828125000e-01 2.908324003219604492e-01
7.076000000000000000e+03 5.752965545654296875e+01 -8.262258529663085938e+00 3.377590775489807129e-01 2.319848775863647461e+00 7.972823977470397949e-01 3.674587905406951904e-01
7.077000000000000000e+03 5.754519271850585938e+01 -6.995987415313720703e+00 3.511666059494018555e-01 2.301970005035400391e+00 7.959409356117248535e-01 3.880234658718109131e-01
7.078000000000000000e+03 5.998797988891601562e+01 9.273360252380371094e+00 3.597494363784790039e-01 2.287767410278320312e+00 7.942550182342529297e-01 5.055767893791198730e-01
7.079000000000000000e+03 4.873112869262695312e+01 -1.537838220596313477e+00 3.801515996456146240e-01 6.305661201477050781e-01 3.032153248786926270e-01 2.040673196315765381e-01
7.080000000000000000e+03 5.061203002929687500e+01 -8.920853614807128906e+00 4.177378118038177490e-01 1.088190674781799316e+00 4.517785310745239258e-01 2.009085863828659058e-01
7.081000000000000000e+03 5.808803558349609375e+01 -1.226488590240478516e+01 2.713324427604675293e-01 2.515265703201293945e+00 8.359794616699218750e-01 3.151108324527740479e-01
7.082000000000000000e+03 5.932765197753906250e+01 -1.216477203369140625e+01 2.513751089572906494e-01 2.720690250396728516e+00 8.916196227073669434e-01 3.347508907318115234e-01
7.083000000000000000e+03 4.888243484497070312e+01 1.579028701782226562e+01 -4.193675220012664795e-01 -1.637527495622634888e-01 -1.749360859394073486e-01 -5.290948748588562012e-01
7.084000000000000000e+03 5.138847732543945312e+01 2.044596862792968750e+01 -6.466022729873657227e-01 -9.102931618690490723e-02 -2.212894856929779053e-01 -6.674777269363403320e-01
7.085000000000000000e+03 5.251042938232421875e+01 2.009182167053222656e+01 -5.311747789382934570e-01 9.651181846857070923e-02 -1.303988844156265259e-01 -5.795518755912780762e-01
7.086000000000000000e+03 4.703837585449218750e+01 1.514462089538574219e+01 -4.928043782711029053e-01 -3.590303361415863037e-01 -2.555504143238067627e-01 -6.104139685630798340e-01
7.087000000000000000e+03 4.842185211181640625e+01 1.566295051574707031e+01 -4.426209926605224609e-01 -2.168934196233749390e-01 -1.978543251752853394e-01 -5.503273606300354004e-01
7.088000000000000000e+03 4.874325180053710938e+01 1.621722793579101562e+01 -4.553309381008148193e-01 -2.068524956703186035e-01 -1.986550390720367432e-01 -5.658443570137023926e-01
7.089000000000000000e+03 4.946404266357421875e+01 1.914230728149414062e+01 -6.395369768142700195e-01 -3.006536066532135010e-01 -2.820571959018707275e-01 -7.004160881042480469e-01
7.090000000000000000e+03 4.427514266967773438e+01 1.206314086914062500e+01 -4.975024759769439697e-01 -4.767318367958068848e-01 -2.922703027725219727e-01 -5.750206708908081055e-01
7.091000000000000000e+03 4.216246795654296875e+01 9.382578849792480469e+00 -4.935390949249267578e-01 -5.378021001815795898e-01 -3.094023764133453369e-01 -5.000925064086914062e-01
7.092000000000000000e+03 4.927201080322265625e+01 1.847378540039062500e+01 -5.887779593467712402e-01 -2.826720476150512695e-01 -2.614350020885467529e-01 -6.718287467956542969e-01
7.093000000000000000e+03 4.723337936401367188e+01 1.466024971008300781e+01 -4.442456960678100586e-01 -3.025687634944915771e-01 -2.240443378686904907e-01 -5.665081739425659180e-01
7.094000000000000000e+03 3.722296142578125000e+01 3.980432271957397461e+00 -4.893541336059570312e-01 -6.166055202484130859e-01 -3.317878842353820801e-01 -2.758060395717620850e-01
7.095000000000000000e+03 4.825865554809570312e+01 1.661968612670898438e+01 -5.182970762252807617e-01 -3.026174604892730713e-01 -2.462743669748306274e-01 -6.233939528465270996e-01
7.096000000000000000e+03 4.865952682495117188e+01 1.659803199768066406e+01 -4.863850772380828857e-01 -2.394177019596099854e-01 -2.177408337593078613e-01 -5.906932353973388672e-01
7.097000000000000000e+03 4.313296508789062500e+01 1.011800765991210938e+01 -4.587282538414001465e-01 -4.779778122901916504e-01 -2.810118198394775391e-01 -4.994184076786041260e-01
7.098000000000000000e+03 4.674156570434570312e+01 1.450905132293701172e+01 -4.723668396472930908e-01 -3.540209829807281494e-01 -2.479163408279418945e-01 -5.890759229660034180e-01
7.099000000000000000e+03 4.215945053100585938e+01 8.067227363586425781e+00 -3.987095355987548828e-01 -4.647367894649505615e-01 -2.590339183807373047e-01 -4.036912024021148682e-01
7.100000000000000000e+03 4.253786087036132812e+01 8.470336914062500000e+00 -3.977572321891784668e-01 -4.506061077117919922e-01 -2.545090019702911377e-01 -4.126756787300109863e-01
7.101000000000000000e+03 4.519145965576171875e+01 1.373184490203857422e+01 -5.265721678733825684e-01 -4.786593019962310791e-01 -3.015694320201873779e-01 -6.365885138511657715e-01
7.102000000000000000e+03 4.937598037719726562e+01 1.812266349792480469e+01 -5.622986555099487305e-01 -2.498270869255065918e-01 -2.436377257108688354e-01 -6.425297260284423828e-01
7.103000000000000000e+03 4.376475143432617188e+01 1.250529670715332031e+01 -5.602080225944519043e-01 -5.554513931274414062e-01 -3.346978127956390381e-01 -6.382361054420471191e-01
7.104000000000000000e+03 4.292937088012695312e+01 1.207964229583740234e+01 -5.978102087974548340e-01 -6.163535714149475098e-01 -3.642491400241851807e-01 -6.588864326477050781e-01
7.105000000000000000e+03 5.280539703369140625e+01 2.088708877563476562e+01 -5.939613580703735352e-01 8.785271644592285156e-02 -1.518325805664062500e-01 -6.178541183471679688e-01
7.106000000000000000e+03 5.476797866821289062e+01 2.064737510681152344e+01 -4.236958622932434082e-01 3.951779007911682129e-01 -8.555384352803230286e-03 -4.836445450782775879e-01
7.107000000000000000e+03 4.129540252685546875e+01 7.306275367736816406e+00 -4.189137518405914307e-01 -4.984644353389739990e-01 -2.752134501934051514e-01 -3.866126537322998047e-01
7.108000000000000000e+03 4.216551208496093750e+01 8.758178710937500000e+00 -4.519287049770355225e-01 -5.068113803863525391e-01 -2.876220345497131348e-01 -4.587193727493286133e-01
7.109000000000000000e+03 5.179478073120117188e+01 2.024342536926269531e+01 -6.009206175804138184e-01 -2.812382951378822327e-02 -1.887133270502090454e-01 -6.289499998092651367e-01
7.110000000000000000e+03 4.045413208007812500e+01 7.255430698394775391e+00 -4.842905700206756592e-01 -5.606104731559753418e-01 -3.134703040122985840e-01 -4.270496368408203125e-01
7.111000000000000000e+03 4.259104537963867188e+01 1.182384490966796875e+01 -6.116852760314941406e-01 -6.353142857551574707e-01 -3.740998804569244385e-01 -6.627078652381896973e-01
7.112000000000000000e+03 3.994588088989257812e+01 5.909928321838378906e+00 -4.220582246780395508e-01 -5.399342179298400879e-01 -2.885977327823638916e-01 -3.454580307006835938e-01
7.113000000000000000e+03 4.073542022705078125e+01 1.115733265876770020e+00 4.587844386696815491e-02 -3.580454587936401367e-01 -9.365010261535644531e-02 -6.276178173720836639e-03
7.114000000000000000e+03 4.577577590942382812e+01 1.379504489898681641e+01 -4.964145421981811523e-01 -4.189830720424652100e-01 -2.746192812919616699e-01 -6.045526266098022461e-01
7.115000000000000000e+03 5.546334457397460938e+01 2.133028221130371094e+01 -4.414928555488586426e-01 4.511593580245971680e-01 2.899948274716734886e-03 -4.935389757156372070e-01
7.116000000000000000e+03 4.262635803222656250e+01 1.524897813796997070e+00 1.043855249881744385e-01 -1.876578629016876221e-01 -2.498170174658298492e-02 8.439199067652225494e-03
7.117000000000000000e+03 5.357073593139648438e+01 2.050179100036621094e+01 -5.015081167221069336e-01 2.235376387834548950e-01 -8.339113742113113403e-02 -5.463214516639709473e-01
7.118000000000000000e+03 3.826901626586914062e+01 2.823432922363281250e+00 -2.631677091121673584e-01 -5.341277718544006348e-01 -2.391886562108993530e-01 -1.434544026851654053e-01
7.119000000000000000e+03 4.126209640502929688e+01 1.825952678918838501e-01 1.562955230474472046e-01 -2.943572998046875000e-01 -4.141853377223014832e-02 3.856156393885612488e-02
7.120000000000000000e+03 5.981919097900390625e+01 1.622673034667968750e+01 2.294753640890121460e-01 1.693725466728210449e+00 5.769602656364440918e-01 2.570042908191680908e-01
7.121000000000000000e+03 4.183106994628906250e+01 1.151562500000000000e+01 -6.433160901069641113e-01 -6.858889460563659668e-01 -3.987615108489990234e-01 -6.822782754898071289e-01
7.122000000000000000e+03 4.268425369262695312e+01 1.060723304748535156e+01 -5.245415568351745605e-01 -5.544883012771606445e-01 -3.237089514732360840e-01 -5.663286447525024414e-01
7.123000000000000000e+03 5.140354919433593750e+01 1.999128341674804688e+01 -5.952070951461791992e-01 -6.058455631136894226e-02 -1.967374980449676514e-01 -6.369119882583618164e-01
7.124000000000000000e+03 3.865603256225585938e+01 1.319743394851684570e+00 -6.506760418415069580e-02 -4.906747639179229736e-01 -1.667227149009704590e-01 -4.011638835072517395e-02
7.125000000000000000e+03 3.990939331054687500e+01 1.216774225234985352e+00 9.727629832923412323e-03 -4.084437489509582520e-01 -1.196148321032524109e-01 -1.891991496086120605e-02
7.126000000000000000e+03 5.727538299560546875e+01 2.278409481048583984e+00 3.708477914333343506e-01 2.002836704254150391e+00 7.121053338050842285e-01 4.534283876419067383e-01
7.127000000000000000e+03 5.684642791748046875e+01 1.483859181404113770e+00 3.789776265621185303e-01 1.950031042098999023e+00 6.987026333808898926e-01 4.357706010341644287e-01
7.128000000000000000e+03 5.905623245239257812e+01 1.990972900390625000e+01 -6.104855332523584366e-03 1.157040596008300781e+00 3.452807068824768066e-01 -7.407800853252410889e-02
7.129000000000000000e+03 5.614837646484375000e+01 -6.962096691131591797e-02 3.874400854110717773e-01 1.865187406539916992e+00 6.757882833480834961e-01 4.085286557674407959e-01
7.130000000000000000e+03 5.652913665771484375e+01 2.636409044265747070e+00 3.668715953826904297e-01 1.848569393157958984e+00 6.646323204040527344e-01 4.202072024345397949e-01
7.131000000000000000e+03 6.094053268432617188e+01 1.422319698333740234e+01 3.393029272556304932e-01 2.150116920471191406e+00 7.468259930610656738e-01 4.561087489128112793e-01
7.132000000000000000e+03 6.082661056518554688e+01 1.574331760406494141e+01 2.969666123390197754e-01 1.981446623802185059e+00 6.835239529609680176e-01 3.786180317401885986e-01
7.133000000000000000e+03 5.976610946655273438e+01 6.914156913757324219e+00 3.671808242797851562e-01 2.354559659957885742e+00 8.165221214294433594e-01 5.246218442916870117e-01
7.134000000000000000e+03 6.020737457275390625e+01 1.262081623077392578e+01 3.405835330486297607e-01 2.109597206115722656e+00 7.350541949272155762e-01 4.482580721378326416e-01
7.135000000000000000e+03 5.928766250610351562e+01 1.196588230133056641e+01 3.164921700954437256e-01 1.928643822669982910e+00 6.735407710075378418e-01 3.891336321830749512e-01
7.136000000000000000e+03 4.250293731689453125e+01 2.396858692169189453e+00 2.724620513617992401e-02 -2.155822068452835083e-01 -5.650079995393753052e-02 -3.406250476837158203e-02
7.137000000000000000e+03 4.515865325927734375e+01 5.188210606575012207e-01 2.479315102100372314e-01 1.090404093265533447e-01 1.070915758609771729e-01 9.081116318702697754e-02
7.138000000000000000e+03 4.431553649902343750e+01 3.926645517349243164e-01 2.283294498920440674e-01 7.672632113099098206e-03 7.080062478780746460e-02 7.639367133378982544e-02
7.139000000000000000e+03 4.642693328857421875e+01 -1.042986512184143066e+00 3.382776975631713867e-01 2.906702458858489990e-01 1.886843889951705933e-01 1.438550502061843872e-01
7.140000000000000000e+03 6.022634887695312500e+01 1.878530311584472656e+01 1.545752882957458496e-01 1.512117981910705566e+00 5.000079870223999023e-01 1.373233050107955933e-01
7.141000000000000000e+03 5.897545623779296875e+01 1.925860404968261719e+01 3.004494309425354004e-02 1.197620034217834473e+00 3.682994842529296875e-01 -2.553222514688968658e-02
7.142000000000000000e+03 5.736920547485351562e+01 1.954762077331542969e+01 -1.193140298128128052e-01 8.842356204986572266e-01 2.294764816761016846e-01 -2.022121101617813110e-01
7.143000000000000000e+03 5.756225204467773438e+01 3.047080993652343750e+00 3.705441355705261230e-01 2.037318706512451172e+00 7.223588824272155762e-01 4.601877331733703613e-01
7.144000000000000000e+03 5.916546249389648438e+01 5.290896415710449219e+00 3.688871562480926514e-01 2.292620658874511719e+00 7.984523177146911621e-01 5.089331865310668945e-01
7.145000000000000000e+03 5.450659179687500000e+01 -8.629591941833496094e+00 3.752425014972686768e-01 1.786699175834655762e+00 6.485824584960937500e-01 2.988001108169555664e-01
7.146000000000000000e+03 5.974485397338867188e+01 7.904538154602050781e+00 3.721358180046081543e-01 2.299042224884033203e+00 8.013534545898437500e-01 5.143569707870483398e-01
7.147000000000000000e+03 5.708335876464843750e+01 -5.020894527435302734e+00 3.772664070129394531e-01 2.168423175811767578e+00 7.637069225311279297e-01 4.026095271110534668e-01
7.148000000000000000e+03 5.566074371337890625e+01 -5.689972877502441406e+00 3.857591152191162109e-01 1.933451175689697266e+00 6.957631111145019531e-01 3.697375059127807617e-01
7.149000000000000000e+03 4.176226425170898438e+01 6.957653045654296875e+00 -3.592409193515777588e-01 -4.459838569164276123e-01 -2.415674328804016113e-01 -3.444499671459197998e-01
7.150000000000000000e+03 5.952382278442382812e+01 1.899802780151367188e+01 9.296552091836929321e-02 1.344005942344665527e+00 4.310914278030395508e-01 5.508143827319145203e-02
7.151000000000000000e+03 6.012604904174804688e+01 1.795015907287597656e+01 1.864767968654632568e-01 1.566548109054565430e+00 5.259074568748474121e-01 1.860052347183227539e-01
7.152000000000000000e+03 4.906362152099609375e+01 -2.649902343750000000e+00 4.077561497688293457e-01 7.082632184028625488e-01 3.348058164119720459e-01 2.169996052980422974e-01
7.153000000000000000e+03 5.110705566406250000e+01 -4.577066898345947266e+00 4.264607429504394531e-01 1.081569314002990723e+00 4.524090290069580078e-01 2.600327730178833008e-01
7.154000000000000000e+03 5.913190078735351562e+01 9.013401031494140625e+00 3.380023539066314697e-01 2.081105947494506836e+00 7.257325053215026855e-01 4.637942612171173096e-01
7.155000000000000000e+03 5.964507293701171875e+01 1.008957862854003906e+01 3.476731777191162109e-01 2.148242235183715820e+00 7.487746477127075195e-01 4.672300517559051514e-01
7.156000000000000000e+03 5.781005477905273438e+01 -9.235125780105590820e-01 3.802035152912139893e-01 2.212360143661499023e+00 7.777691483497619629e-01 4.595625698566436768e-01
7.157000000000000000e+03 5.613364028930664062e+01 -9.739719390869140625e+00 3.404150605201721191e-01 2.094960927963256836e+00 7.306128144264221191e-01 3.177753388881683350e-01
7.158000000000000000e+03 5.538497161865234375e+01 -4.630007266998291016e+00 3.928609490394592285e-01 1.854050993919372559e+00 6.740735769271850586e-01 3.612983822822570801e-01
7.159000000000000000e+03 5.658761978149414062e+01 -5.831118106842041016e+00 3.757859170436859131e-01 2.087801694869995117e+00 7.390762567520141602e-01 3.858201503753662109e-01
7.160000000000000000e+03 5.748339843750000000e+01 -5.897410869598388672e+00 3.634837865829467773e-01 2.278429985046386719e+00 7.925741672515869141e-01 4.009227752685546875e-01
7.161000000000000000e+03 4.771147155761718750e+01 1.483853721618652344e+01 -4.284436702728271484e-01 -2.507680058479309082e-01 -2.037634998559951782e-01 -5.455735325813293457e-01
7.162000000000000000e+03 4.932750701904296875e+01 1.592201137542724609e+01 -3.985638022422790527e-01 -1.102628484368324280e-01 -1.526480019092559814e-01 -5.105539560317993164e-01
7.163000000000000000e+03 5.367491912841796875e+01 1.994695854187011719e+01 -4.349561631679534912e-01 2.789880335330963135e-01 -4.679043218493461609e-02 -4.970094263553619385e-01
7.164000000000000000e+03 5.372101974487304688e+01 1.944522666931152344e+01 -3.856129646301269531e-01 3.223986625671386719e-01 -1.896428875625133514e-02 -4.596190750598907471e-01
7.165000000000000000e+03 4.817912673950195312e+01 1.501625919342041016e+01 -4.119508266448974609e-01 -2.020005732774734497e-01 -1.841854155063629150e-01 -5.261387825012207031e-01
7.166000000000000000e+03 4.983152770996093750e+01 1.823597145080566406e+01 -5.386434197425842285e-01 -1.840641200542449951e-01 -2.168122529983520508e-01 -6.209280490875244141e-01
7.167000000000000000e+03 4.930024337768554688e+01 1.879645919799804688e+01 -6.171362996101379395e-01 -3.010473549365997314e-01 -2.754550874233245850e-01 -6.881028413772583008e-01
7.168000000000000000e+03 5.318681335449218750e+01 1.981523132324218750e+01 -4.579823911190032959e-01 2.094236910343170166e-01 -7.456760853528976440e-02 -5.215380787849426270e-01
7.169000000000000000e+03 4.477581024169921875e+01 1.257100677490234375e+01 -4.908357262611389160e-01 -4.552902877330780029e-01 -2.838377952575683594e-01 -5.812398791313171387e-01
7.170000000000000000e+03 4.988366699218750000e+01 1.889689636230468750e+01 -5.906251668930053711e-01 -2.216516584157943726e-01 -2.436830550432205200e-01 -6.582056879997253418e-01
7.171000000000000000e+03 4.247773361206054688e+01 9.106920242309570312e+00 -4.518916308879852295e-01 -4.915217459201812744e-01 -2.830240130424499512e-01 -4.647696614265441895e-01
7.172000000000000000e+03 4.329718017578125000e+01 1.235925197601318359e+01 -5.857813954353332520e-01 -5.961087346076965332e-01 -3.545670509338378906e-01 -6.577077507972717285e-01
7.173000000000000000e+03 4.238774871826171875e+01 1.112006950378417969e+01 -5.779708027839660645e-01 -6.098769307136535645e-01 -3.563543260097503662e-01 -6.188795566558837891e-01
7.174000000000000000e+03 4.961820220947265625e+01 1.645461845397949219e+01 -4.231588542461395264e-01 -1.049945428967475891e-01 -1.584460288286209106e-01 -5.218586325645446777e-01
7.175000000000000000e+03 4.948517990112304688e+01 1.775443840026855469e+01 -5.370560884475708008e-01 -2.188766300678253174e-01 -2.267798036336898804e-01 -6.185043454170227051e-01
7.176000000000000000e+03 4.425030899047851562e+01 1.256257724761962891e+01 -5.261585116386413574e-01 -5.096463561058044434e-01 -3.107414543628692627e-01 -6.118491888046264648e-01
7.177000000000000000e+03 4.918716430664062500e+01 1.632612419128417969e+01 -4.348562359809875488e-01 -1.551584154367446899e-01 -1.770043969154357910e-01 -5.425314307212829590e-01
7.178000000000000000e+03 4.319054031372070312e+01 8.738857269287109375e+00 -3.733811080455780029e-01 -4.022347033023834229e-01 -2.326847463846206665e-01 -4.010263383388519287e-01
7.179000000000000000e+03 5.089828109741210938e+01 1.985958290100097656e+01 -6.166965365409851074e-01 -1.307816654443740845e-01 -2.242434620857238770e-01 -6.561933755874633789e-01
7.180000000000000000e+03 4.132554244995117188e+01 8.071490287780761719e+00 -4.668049216270446777e-01 -5.383371114730834961e-01 -3.015426099300384521e-01 -4.475629627704620361e-01
7.181000000000000000e+03 5.301355743408203125e+01 2.032989311218261719e+01 -5.237173438072204590e-01 1.517316997051239014e-01 -1.115956827998161316e-01 -5.687251091003417969e-01
7.182000000000000000e+03 3.886853027343750000e+01 5.083787441253662109e+00 -4.544730484485626221e-01 -5.712997913360595703e-01 -3.077318370342254639e-01 -3.223668038845062256e-01
7.183000000000000000e+03 3.782598114013671875e+01 3.467978239059448242e+00 -3.792746663093566895e-01 -5.778869390487670898e-01 -2.871484756469726562e-01 -2.139063328504562378e-01
7.184000000000000000e+03 4.599567794799804688e+01 1.255664443969726562e+01 -4.050613343715667725e-01 -3.158340454101562500e-01 -2.162686139345169067e-01 -5.061799883842468262e-01
7.185000000000000000e+03 4.088441085815429688e+01 6.869808673858642578e+00 -4.177180826663970947e-01 -5.140727758407592773e-01 -2.795372605323791504e-01 -3.785052299499511719e-01
7.186000000000000000e+03 4.096764755249023438e+01 6.009971618652343750e+00 -3.466698527336120605e-01 -4.634797275066375732e-01 -2.430448681116104126e-01 -3.061842322349548340e-01
7.187000000000000000e+03 5.205679321289062500e+01 1.980707550048828125e+01 -5.383645892143249512e-01 3.706068918108940125e-02 -1.503911763429641724e-01 -5.870684385299682617e-01
7.188000000000000000e+03 5.416693878173828125e+01 1.939393043518066406e+01 -3.492001891136169434e-01 3.839853703975677490e-01 1.043555047363042831e-02 -4.266670346260070801e-01
7.189000000000000000e+03 5.229557037353515625e+01 1.933946418762207031e+01 -4.833114743232727051e-01 1.059842631220817566e-01 -1.131981611251831055e-01 -5.427389740943908691e-01
7.190000000000000000e+03 3.972494506835937500e+01 4.515399456024169922e+00 -3.234225511550903320e-01 -5.015373229980468750e-01 -2.474879622459411621e-01 -2.411091029644012451e-01
7.191000000000000000e+03 3.728570556640625000e+01 3.039051771163940430e+00 -3.765577375888824463e-01 -5.891266465187072754e-01 -2.897053062915802002e-01 -1.883918344974517822e-01
7.192000000000000000e+03 3.766816329956054688e+01 2.536406278610229492e+00 -2.778085470199584961e-01 -5.626204609870910645e-01 -2.521287202835083008e-01 -1.353143751621246338e-01
7.193000000000000000e+03 5.713721084594726562e+01 2.001127052307128906e+01 -1.886304169893264771e-01 7.994860410690307617e-01 1.832566857337951660e-01 -2.632388770580291748e-01
7.194000000000000000e+03 4.635264587402343750e+01 1.386781120300292969e+01 -4.606114327907562256e-01 -3.603906035423278809e-01 -2.463006079196929932e-01 -5.705261230468750000e-01
7.195000000000000000e+03 5.474154663085937500e+01 1.996514129638671875e+01 -3.583179712295532227e-01 4.360839426517486572e-01 2.332979068160057068e-02 -4.318922162055969238e-01
7.196000000000000000e+03 5.601639175415039062e+01 2.049231529235839844e+01 -3.128946721553802490e-01 5.957002043724060059e-01 8.484164625406265259e-02 -3.849627077579498291e-01
7.197000000000000000e+03 4.690212631225585938e+01 1.398804187774658203e+01 -4.309543669223785400e-01 -3.022298216819763184e-01 -2.199552506208419800e-01 -5.434644818305969238e-01
7.198000000000000000e+03 3.849113464355468750e+01 3.831694841384887695e+00 -3.596384823322296143e-01 -5.505161285400390625e-01 -2.730463743209838867e-01 -2.243686616420745850e-01
7.199000000000000000e+03 3.977743530273437500e+01 1.952877283096313477e+00 -7.644034177064895630e-02 -4.313400089740753174e-01 -1.523341089487075806e-01 -6.078151613473892212e-02
7.200000000000000000e+03 4.039593505859375000e+01 6.420278072357177734e+00 -4.287638068199157715e-01 -5.311499834060668945e-01 -2.879741191864013672e-01 -3.668085932731628418e-01
7.201000000000000000e+03 4.344392776489257812e+01 9.545803070068359375e+00 -4.007531404495239258e-01 -4.177340567111968994e-01 -2.455461472272872925e-01 -4.455467760562896729e-01
7.202000000000000000e+03 4.284815979003906250e+01 1.139089488983154297e+01 -5.594693422317504883e-01 -5.833967924118041992e-01 -3.428598344326019287e-01 -6.115880608558654785e-01
7.203000000000000000e+03 5.744940948486328125e+01 1.898002243041992188e+01 -7.018501311540603638e-02 9.477692246437072754e-01 2.632752656936645508e-01 -1.512333601713180542e-01
7.204000000000000000e+03 5.663634872436523438e+01 2.031685447692871094e+01 -2.504200339317321777e-01 7.021807432174682617e-01 1.355282068252563477e-01 -3.249406218528747559e-01
7.205000000000000000e+03 4.247766113281250000e+01 6.299465298652648926e-01 1.655289083719253540e-01 -1.912110298871994019e-01 -7.704637013375759125e-03 3.506151959300041199e-02
7.206000000000000000e+03 4.356147003173828125e+01 6.157166957855224609e+00 -1.840832978487014771e-01 -2.410131841897964478e-01 -1.275289356708526611e-01 -2.079166024923324585e-01
7.207000000000000000e+03 5.933564376831054688e+01 1.448746967315673828e+01 2.607701718807220459e-01 1.735156774520874023e+00 5.987780690193176270e-01 2.999717295169830322e-01
7.208000000000000000e+03 5.950632095336914062e+01 1.377465343475341797e+01 2.846875786781311035e-01 1.839414000511169434e+00 6.372304558753967285e-01 3.454578220844268799e-01
7.209000000000000000e+03 4.353670501708984375e+01 1.374559640884399414e+00 1.388422548770904541e-01 -9.594222903251647949e-02 1.287000812590122223e-02 3.022965043783187866e-02
7.210000000000000000e+03 5.918605804443359375e+01 1.521463871002197266e+01 2.318431138992309570e-01 1.640723824501037598e+00 5.617700815200805664e-01 2.511578500270843506e-01
7.211000000000000000e+03 4.741449737548828125e+01 -7.931971549987792969e-01 3.442857265472412109e-01 4.216015338897705078e-01 2.297661751508712769e-01 1.650800853967666626e-01
7.212000000000000000e+03 5.570841979980468750e+01 6.120533943176269531e-01 3.854592442512512207e-01 1.753071546554565430e+00 6.415592432022094727e-01 4.001209437847137451e-01
7.213000000000000000e+03 5.427637100219726562e+01 -2.699680328369140625e+00 4.038347005844116211e-01 1.592283964157104492e+00 5.988355875015258789e-01 3.536347448825836182e-01
7.214000000000000000e+03 5.697378540039062500e+01 3.974056482315063477e+00 3.636270165443420410e-01 1.887589931488037109e+00 6.753650903701782227e-01 4.312509894371032715e-01
7.215000000000000000e+03 5.929574584960937500e+01 6.458261013031005859e+00 3.651335239410400391e-01 2.276307344436645508e+00 7.924322485923767090e-01 5.137670636177062988e-01
7.216000000000000000e+03 4.596497726440429688e+01 7.561346292495727539e-01 2.536549270153045654e-01 1.939023584127426147e-01 1.342671811580657959e-01 1.026797816157341003e-01
7.217000000000000000e+03 4.496501159667968750e+01 1.195951104164123535e+00 2.042137384414672852e-01 6.891575455665588379e-02 8.193884789943695068e-02 6.815845519304275513e-02
7.218000000000000000e+03 5.970803070068359375e+01 1.138799667358398438e+01 3.328262865543365479e-01 2.076061487197875977e+00 7.226663231849670410e-01 4.402251541614532471e-01
7.219000000000000000e+03 5.935691452026367188e+01 8.386375427246093750e+00 3.587459921836853027e-01 2.178893327713012695e+00 7.612918019294738770e-01 4.878629446029663086e-01
7.220000000000000000e+03 5.975570297241210938e+01 1.310379886627197266e+01 3.139470219612121582e-01 1.956660747528076172e+00 6.811823248863220215e-01 3.923641741275787354e-01
7.221000000000000000e+03 5.837250518798828125e+01 1.031814384460449219e+01 3.169616162776947021e-01 1.849087357521057129e+00 6.498147249221801758e-01 3.838320672512054443e-01
7.222000000000000000e+03 5.786281585693359375e+01 1.972531890869140625e+01 -9.508676826953887939e-02 9.517810940742492676e-01 2.570082843303680420e-01 -1.740598380565643311e-01
7.223000000000000000e+03 6.080099868774414062e+01 1.783393287658691406e+01 2.407367378473281860e-01 1.774016380310058594e+00 6.044259071350097656e-01 2.730331718921661377e-01
7.224000000000000000e+03 6.098401260375976562e+01 1.864832496643066406e+01 2.223872393369674683e-01 1.717851996421813965e+00 5.820717811584472656e-01 2.423762977123260498e-01
7.225000000000000000e+03 4.395714187622070312e+01 2.153386831283569336e+00 1.076939254999160767e-01 -7.111247628927230835e-02 1.097443513572216034e-02 1.014238875359296799e-02
7.226000000000000000e+03 5.015203094482421875e+01 -2.267338991165161133e+00 4.032388925552368164e-01 8.657463788986206055e-01 3.806955814361572266e-01 2.428380399942398071e-01
7.227000000000000000e+03 5.984840393066406250e+01 5.394538402557373047e+00 3.720577955245971680e-01 2.430887937545776367e+00 8.408837318420410156e-01 5.420760512351989746e-01
7.228000000000000000e+03 6.026835250854492188e+01 6.312795639038085938e+00 3.712136149406433105e-01 2.484482049942016602e+00 8.567087054252624512e-01 5.535525083541870117e-01
7.229000000000000000e+03 5.845970916748046875e+01 6.070786952972412109e+00 3.575729131698608398e-01 2.110028982162475586e+00 7.402805089950561523e-01 4.679996669292449951e-01
7.230000000000000000e+03 5.168093109130859375e+01 -2.865287303924560547e+00 4.103280901908874512e-01 1.138015270233154297e+00 4.645030200481414795e-01 2.787528336048126221e-01
7.231000000000000000e+03 5.222708129882812500e+01 -3.861840009689331055e+00 4.207523763179779053e-01 1.265258550643920898e+00 5.058032870292663574e-01 2.952799797058105469e-01
7.232000000000000000e+03 5.058515548706054688e+01 -3.395766019821166992e+00 4.205413758754730225e-01 9.591287970542907715e-01 4.139010310173034668e-01 2.514268457889556885e-01
7.233000000000000000e+03 5.855704879760742188e+01 1.153718948364257812e+01 2.952001392841339111e-01 1.781079769134521484e+00 6.228839755058288574e-01 3.567596673965454102e-01
7.234000000000000000e+03 5.913315963745117188e+01 1.083386516571044922e+01 3.249843418598175049e-01 1.987582445144653320e+00 6.937700510025024414e-01 4.211746752262115479e-01
7.235000000000000000e+03 6.036026000976562500e+01 1.726605606079101562e+01 2.344490885734558105e-01 1.721372246742248535e+00 5.867463946342468262e-01 2.648504376411437988e-01
7.236000000000000000e+03 5.938310623168945312e+01 1.770615577697753906e+01 1.535380631685256958e-01 1.451084494590759277e+00 4.813867807388305664e-01 1.270992308855056763e-01
7.237000000000000000e+03 4.806545639038085938e+01 5.619894862174987793e-01 3.044065535068511963e-01 4.761121571063995361e-01 2.341556102037429810e-01 1.611823886632919312e-01
7.238000000000000000e+03 5.547113037109375000e+01 -6.716038584709167480e-01 3.892472386360168457e-01 1.755542039871215820e+00 6.434367895126342773e-01 3.979305028915405273e-01
7.239000000000000000e+03 5.604423522949218750e+01 1.970281362533569336e+00 3.705715537071228027e-01 1.777924299240112305e+00 6.445487737655639648e-01 4.026691913604736328e-01
7.240000000000000000e+03 5.292688751220703125e+01 -6.158876419067382812e+00 4.089565277099609375e-01 1.422631502151489258e+00 5.494763851165771484e-01 2.882103621959686279e-01
7.241000000000000000e+03 5.504740142822265625e+01 -7.761569499969482422e+00 3.812826871871948242e-01 1.861120104789733887e+00 6.727208495140075684e-01 3.211998343467712402e-01
7.242000000000000000e+03 5.587326812744140625e+01 -3.073452949523925781e+00 3.906538486480712891e-01 1.893624901771545410e+00 6.852836012840270996e-01 3.879413008689880371e-01
7.243000000000000000e+03 5.389883422851562500e+01 -6.334398746490478516e+00 4.006429612636566162e-01 1.617198467254638672e+00 6.053524017333984375e-01 3.146655261516571045e-01
7.244000000000000000e+03 5.646371841430664062e+01 -6.954235553741455078e+00 3.672709763050079346e-01 2.084792852401733398e+00 7.356191277503967285e-01 3.665641546249389648e-01
7.245000000000000000e+03 4.946515655517578125e+01 1.685872650146484375e+01 -4.606934189796447754e-01 -1.535425782203674316e-01 -1.842707991600036621e-01 -5.536370277404785156e-01
7.246000000000000000e+03 4.863076782226562500e+01 1.518565464019775391e+01 -3.936528265476226807e-01 -1.554314047098159790e-01 -1.647252738475799561e-01 -5.069279670715332031e-01
7.247000000000000000e+03 4.791701889038085938e+01 1.434479808807373047e+01 -3.817172646522521973e-01 -1.905207633972167969e-01 -1.716714203357696533e-01 -5.011758804321289062e-01
7.248000000000000000e+03 5.273484420776367188e+01 1.959946441650390625e+01 -4.753716289997100830e-01 1.547972559928894043e-01 -9.617231041193008423e-02 -5.346551537513732910e-01
7.249000000000000000e+03 5.063422775268554688e+01 1.893853569030761719e+01 -5.509323477745056152e-01 -1.161305755376815796e-01 -2.001188695430755615e-01 -6.164558529853820801e-01
7.250000000000000000e+03 4.967843246459960938e+01 1.742321014404296875e+01 -4.804752767086029053e-01 -1.567112058401107788e-01 -1.911559402942657471e-01 -5.783919692039489746e-01
7.251000000000000000e+03 5.015040969848632812e+01 1.615637969970703125e+01 -3.692565560340881348e-01 -1.865550316870212555e-02 -1.163736209273338318e-01 -4.719181954860687256e-01
7.252000000000000000e+03 4.991773986816406250e+01 1.703421974182128906e+01 -4.405121207237243652e-01 -9.690851718187332153e-02 -1.612261980772018433e-01 -5.387180447578430176e-01
7.253000000000000000e+03 4.949567794799804688e+01 1.551560783386230469e+01 -3.573774099349975586e-01 -5.906821787357330322e-02 -1.249336898326873779e-01 -4.694816172122955322e-01
7.254000000000000000e+03 4.990798187255859375e+01 1.565099525451660156e+01 -3.378441631793975830e-01 -9.003926068544387817e-03 -1.040544211864471436e-01 -4.529779553413391113e-01
7.255000000000000000e+03 4.427941131591796875e+01 1.027705001831054688e+01 -3.903913199901580811e-01 -3.713038563728332520e-01 -2.285085469484329224e-01 -4.493840932846069336e-01
7.256000000000000000e+03 4.296056747436523438e+01 8.304523468017578125e+00 -3.694703280925750732e-01 -4.024372398853302002e-01 -2.315722703933715820e-01 -3.828065097332000732e-01
7.257000000000000000e+03 4.535541915893554688e+01 1.256199741363525391e+01 -4.491765201091766357e-01 -3.913456797599792480e-01 -2.521566450595855713e-01 -5.441896319389343262e-01
7.258000000000000000e+03 4.957550811767578125e+01 1.452790164947509766e+01 -2.850091755390167236e-01 1.655057445168495178e-02 -8.053757995367050171e-02 -4.018150568008422852e-01
7.259000000000000000e+03 5.419672012329101562e+01 1.998791503906250000e+01 -4.032757282257080078e-01 3.543632924556732178e-01 -1.467372849583625793e-02 -4.677299559116363525e-01
7.260000000000000000e+03 4.282116317749023438e+01 8.918517112731933594e+00 -4.107191264629364014e-01 -4.488346576690673828e-01 -2.578661441802978516e-01 -4.326313138008117676e-01
7.261000000000000000e+03 5.109315490722656250e+01 1.929095077514648438e+01 -5.559087991714477539e-01 -7.226794213056564331e-02 -1.884530335664749146e-01 -6.123666763305664062e-01
7.262000000000000000e+03 5.185202407836914062e+01 1.906717681884765625e+01 -4.865421056747436523e-01 4.768067970871925354e-02 -1.316584199666976929e-01 -5.522392988204956055e-01
7.263000000000000000e+03 5.849456787109375000e+01 1.928430175781250000e+01 -8.905283175408840179e-03 1.105493307113647461e+00 3.289764225482940674e-01 -7.657609134912490845e-02
7.264000000000000000e+03 4.194311523437500000e+01 6.160985469818115234e+00 -2.874441444873809814e-01 -3.930043876171112061e-01 -2.041345685720443726e-01 -2.745959162712097168e-01
7.265000000000000000e+03 4.255396652221679688e+01 7.169040679931640625e+00 -3.134716749191284180e-01 -3.820272982120513916e-01 -2.086496949195861816e-01 -3.179821670055389404e-01
7.266000000000000000e+03 4.840321350097656250e+01 1.453090286254882812e+01 -3.634069263935089111e-01 -1.392172724008560181e-01 -1.507872641086578369e-01 -4.793868958950042725e-01
7.267000000000000000e+03 5.839198303222656250e+01 1.797555541992187500e+01 7.620670646429061890e-02 1.227238297462463379e+00 3.910335004329681396e-01 1.393384672701358795e-02
7.268000000000000000e+03 5.539122772216796875e+01 2.059951400756835938e+01 -3.711009621620178223e-01 4.909012913703918457e-01 3.594009578227996826e-02 -4.371426105499267578e-01
7.269000000000000000e+03 4.652070617675781250e+01 1.326142024993896484e+01 -4.145003855228424072e-01 -2.992330789566040039e-01 -2.141200304031372070e-01 -5.201541781425476074e-01
7.270000000000000000e+03 3.889584732055664062e+01 4.615789890289306641e+00 -3.949426710605621338e-01 -5.489881038665771484e-01 -2.831792235374450684e-01 -2.731451690196990967e-01
7.271000000000000000e+03 4.138486480712890625e+01 6.497066497802734375e+00 -3.600845634937286377e-01 -4.542105793952941895e-01 -2.442885488271713257e-01 -3.247987627983093262e-01
7.272000000000000000e+03 4.055794525146484375e+01 5.503535747528076172e+00 -3.391105830669403076e-01 -4.752206206321716309e-01 -2.442993670701980591e-01 -2.858445346355438232e-01
7.273000000000000000e+03 4.535197830200195312e+01 1.196289443969726562e+01 -4.170141816139221191e-01 -3.546907305717468262e-01 -2.315114736557006836e-01 -5.043138861656188965e-01
7.274000000000000000e+03 5.467220687866210938e+01 1.931896781921386719e+01 -3.100519180297851562e-01 4.717350006103515625e-01 4.850492253899574280e-02 -3.877706527709960938e-01
7.275000000000000000e+03 4.712983322143554688e+01 1.973836719989776611e-01 3.011231422424316406e-01 3.547449111938476562e-01 1.967604160308837891e-01 1.398783922195434570e-01
7.276000000000000000e+03 4.431177520751953125e+01 1.142790436744689941e+00 1.870230734348297119e-01 -4.260377027094364166e-03 5.482880771160125732e-02 5.574877932667732239e-02
7.277000000000000000e+03 4.209621810913085938e+01 7.369995594024658203e+00 -3.675798773765563965e-01 -4.400433599948883057e-01 -2.422869801521301270e-01 -3.555488884449005127e-01
7.278000000000000000e+03 4.976366043090820312e+01 -1.175379157066345215e+00 3.798153102397918701e-01 7.766635417938232422e-01 3.469436764717102051e-01 2.264924496412277222e-01
7.279000000000000000e+03 4.715992736816406250e+01 2.380527019500732422e+00 2.041443586349487305e-01 3.053146600723266602e-01 1.528377085924148560e-01 9.222938865423202515e-02
7.280000000000000000e+03 5.120174407958984375e+01 -1.824676036834716797e+00 4.001052975654602051e-01 1.023843765258789062e+00 4.271847009658813477e-01 2.666967511177062988e-01
7.281000000000000000e+03 4.960309219360351562e+01 1.860107612609863281e+01 -5.837177634239196777e-01 -2.425851225852966309e-01 -2.478908598423004150e-01 -6.574141979217529297e-01
7.282000000000000000e+03 3.931742858886718750e+01 4.900240421295166016e+00 -3.863370716571807861e-01 -5.385928153991699219e-01 -2.774789631366729736e-01 -2.840031683444976807e-01
7.283000000000000000e+03 4.016569519042968750e+01 4.991754531860351562e+00 -3.245908915996551514e-01 -4.883777499198913574e-01 -2.438905835151672363e-01 -2.614931464195251465e-01
7.284000000000000000e+03 4.318568801879882812e+01 1.096755313873291016e+01 -5.098773241043090820e-01 -5.273613333702087402e-01 -3.111715912818908691e-01 -5.613710284233093262e-01
7.285000000000000000e+03 6.021005249023437500e+01 1.406296634674072266e+01 3.076678812503814697e-01 1.979830980300903320e+00 6.862496733665466309e-01 3.950791060924530029e-01
7.286000000000000000e+03 6.091902923583984375e+01 1.359222602844238281e+01 3.420638740062713623e-01 2.189124584197998047e+00 7.593564987182617188e-01 4.739405214786529541e-01
7.287000000000000000e+03 4.354270935058593750e+01 1.134964275360107422e+01 -5.032743811607360840e-01 -5.055512189865112305e-01 -3.026476800441741943e-01 -5.677577257156372070e-01
7.288000000000000000e+03 5.827285766601562500e+01 1.566744709014892578e+01 1.702705919742584229e-01 1.403745174407958984e+00 4.722047150135040283e-01 1.503160446882247925e-01
7.289000000000000000e+03 5.587879562377929688e+01 1.978576087951660156e+01 -2.573949098587036133e-01 6.273480057716369629e-01 1.109859272837638855e-01 -3.374966681003570557e-01
7.290000000000000000e+03 3.937376403808593750e+01 2.601400375366210938e+00 -1.650617122650146484e-01 -4.711145162582397461e-01 -1.908528655767440796e-01 -1.065332815051078796e-01
7.291000000000000000e+03 5.596259689331054688e+01 3.026540756225585938e+00 3.594371080398559570e-01 1.718621611595153809e+00 6.234176158905029297e-01 3.899864554405212402e-01
7.292000000000000000e+03 5.531586074829101562e+01 1.398705005645751953e+00 3.717949688434600830e-01 1.658773899078369141e+00 6.091706752777099609e-01 3.822126090526580811e-01
7.293000000000000000e+03 5.877700424194335938e+01 1.345195770263671875e+01 2.648254334926605225e-01 1.697117686271667480e+00 5.885829329490661621e-01 2.976840138435363770e-01
7.294000000000000000e+03 4.338957214355468750e+01 7.521424293518066406e+00 -2.914347648620605469e-01 -3.185982108116149902e-01 -1.830098927021026611e-01 -3.033916056156158447e-01
7.295000000000000000e+03 5.706530380249023438e+01 4.623358726501464844e+00 3.573974072933197021e-01 1.886478185653686523e+00 6.731626987457275391e-01 4.321123957633972168e-01
7.296000000000000000e+03 5.764870834350585938e+01 5.390452861785888672e+00 3.498523831367492676e-01 1.960277080535888672e+00 6.930388212203979492e-01 4.400301873683929443e-01
7.297000000000000000e+03 5.765244293212890625e+01 6.217564582824707031e+00 3.508689701557159424e-01 1.933531999588012695e+00 6.853203177452087402e-01 4.336174726486206055e-01
7.298000000000000000e+03 4.167390441894531250e+01 2.194585323333740234e+00 3.830718807876110077e-03 -2.907453179359436035e-01 -8.607438206672668457e-02 -3.952583670616149902e-02
7.299000000000000000e+03 4.176483154296875000e+01 1.548573613166809082e+00 6.499393284320831299e-02 -2.712546288967132568e-01 -6.187821179628372192e-02 -7.998212240636348724e-03
7.300000000000000000e+03 5.525704193115234375e+01 -2.130717039108276367e+00 3.964308798313140869e-01 1.758616566658020020e+00 6.465142369270324707e-01 3.845281600952148438e-01
7.301000000000000000e+03 5.863345336914062500e+01 8.013153076171875000e+00 3.503203988075256348e-01 2.036965608596801758e+00 7.161857485771179199e-01 4.542440772056579590e-01
7.302000000000000000e+03 3.870416641235351562e+01 2.220943212509155273e+00 -1.658993810415267944e-01 -5.002735257148742676e-01 -1.998518705368041992e-01 -9.559969604015350342e-02
7.303000000000000000e+03 5.867232513427734375e+01 1.881690979003906250e+01 4.202321171760559082e-02 1.189258933067321777e+00 3.693846166133880615e-01 -2.223879657685756683e-02
7.304000000000000000e+03 5.037773895263671875e+01 2.626596391201019287e-01 3.500873744487762451e-01 8.302546143531799316e-01 3.541026115417480469e-01 2.289007455110549927e-01
7.305000000000000000e+03 5.903181076049804688e+01 1.269657230377197266e+01 2.990766465663909912e-01 1.825456500053405762e+00 6.373599767684936523e-01 3.512418568134307861e-01
7.306000000000000000e+03 5.735133361816406250e+01 1.213165378570556641e+01 2.393994480371475220e-01 1.495603322982788086e+00 5.205008387565612793e-01 2.515376508235931396e-01
7.307000000000000000e+03 5.902860260009765625e+01 1.593785476684570312e+01 2.016910910606384277e-01 1.546134710311889648e+00 5.243477225303649902e-01 2.045943289995193481e-01
7.308000000000000000e+03 5.960640335083007812e+01 1.695120429992675781e+01 2.060127258300781250e-01 1.588309526443481445e+00 5.382966995239257812e-01 2.031953185796737671e-01
7.309000000000000000e+03 5.478989791870117188e+01 -6.006031036376953125e+00 3.947815895080566406e-01 1.762198328971862793e+00 6.470939517021179199e-01 3.313573002815246582e-01
7.310000000000000000e+03 5.286527252197265625e+01 -4.752046108245849609e+00 4.137736260890960693e-01 1.382538318634033203e+00 5.388935804367065430e-01 3.077730834484100342e-01
7.311000000000000000e+03 5.272027969360351562e+01 -2.318620443344116211e+00 4.059989750385284424e-01 1.305976629257202148e+00 5.135926604270935059e-01 3.126825094223022461e-01
7.312000000000000000e+03 5.913831329345703125e+01 7.414327621459960938e+00 3.537054657936096191e-01 2.179704904556274414e+00 7.600231170654296875e-01 4.928799867630004883e-01
7.313000000000000000e+03 5.880855178833007812e+01 9.671914100646972656e+00 3.276245296001434326e-01 1.975782752037048340e+00 6.910222172737121582e-01 4.251171648502349854e-01
7.314000000000000000e+03 5.491144561767578125e+01 1.319260299205780029e-01 3.837113976478576660e-01 1.615418791770935059e+00 5.997390747070312500e-01 3.769296407699584961e-01
7.315000000000000000e+03 5.463442230224609375e+01 -1.243856549263000488e+00 3.974075913429260254e-01 1.617676019668579102e+00 6.045250892639160156e-01 3.692578971385955811e-01
7.316000000000000000e+03 5.546864318847656250e+01 2.590025663375854492e+00 3.592199385166168213e-01 1.634954690933227539e+00 5.982524156570434570e-01 3.770567178726196289e-01
7.317000000000000000e+03 5.480910491943359375e+01 2.154627084732055664e+00 3.603034317493438721e-01 1.531786203384399414e+00 5.676268935203552246e-01 3.609887063503265381e-01
7.318000000000000000e+03 4.968192672729492188e+01 1.512882518768310547e+01 -3.289375007152557373e-01 -1.522691641002893448e-02 -1.032493263483047485e-01 -4.335027933120727539e-01
7.319000000000000000e+03 4.906931304931640625e+01 1.535378837585449219e+01 -3.805414736270904541e-01 -1.104017272591590881e-01 -1.472829580307006836e-01 -4.869505167007446289e-01
7.320000000000000000e+03 4.741901779174804688e+01 1.415532779693603516e+01 -4.070539176464080811e-01 -2.452967017889022827e-01 -1.957051903009414673e-01 -5.216841697692871094e-01
7.321000000000000000e+03 5.100778579711914062e+01 1.847187805175781250e+01 -4.859154224395751953e-01 -2.849502675235271454e-02 -1.543231308460235596e-01 -5.642797946929931641e-01
7.322000000000000000e+03 5.025127029418945312e+01 1.850757598876953125e+01 -5.378746986389160156e-01 -1.483583748340606689e-01 -2.058699131011962891e-01 -6.117659807205200195e-01
7.323000000000000000e+03 5.334038925170898438e+01 1.935960578918457031e+01 -4.104621708393096924e-01 2.599968314170837402e-01 -4.513960331678390503e-02 -4.782261550426483154e-01
7.324000000000000000e+03 4.710649871826171875e+01 1.341478157043457031e+01 -3.876281082630157471e-01 -2.396309524774551392e-01 -1.881777197122573853e-01 -4.930450618267059326e-01
7.325000000000000000e+03 4.929755020141601562e+01 1.492624092102050781e+01 -3.348746001720428467e-01 -4.802119359374046326e-02 -1.148687452077865601e-01 -4.460033178329467773e-01
7.326000000000000000e+03 5.007844161987304688e+01 1.522542381286621094e+01 -3.016277253627777100e-01 4.590579122304916382e-02 -7.671657949686050415e-02 -4.130864143371582031e-01
7.327000000000000000e+03 5.097234725952148438e+01 1.577900123596191406e+01 -2.892681062221527100e-01 1.290169358253479004e-01 -4.807535186409950256e-02 -3.944009244441986084e-01
7.328000000000000000e+03 5.159810256958007812e+01 1.953785896301269531e+01 -5.467112660408020020e-01 -1.818491332232952118e-02 -1.694688498973846436e-01 -5.990091562271118164e-01
7.329000000000000000e+03 5.212698364257812500e+01 1.859014320373535156e+01 -4.249705970287322998e-01 1.254733651876449585e-01 -8.984916657209396362e-02 -5.008798837661743164e-01
7.330000000000000000e+03 4.468984222412109375e+01 1.145264434814453125e+01 -4.312340021133422852e-01 -3.976066410541534424e-01 -2.486521899700164795e-01 -5.069860816001892090e-01
7.331000000000000000e+03 4.356476974487304688e+01 8.545495986938476562e+00 -3.324880003929138184e-01 -3.450942337512969971e-01 -2.032746672630310059e-01 -3.632119297981262207e-01
7.332000000000000000e+03 4.415932083129882812e+01 9.622852325439453125e+00 -3.569168746471405029e-01 -3.479770720005035400e-01 -2.114681750535964966e-01 -4.126625657081604004e-01
7.333000000000000000e+03 4.763069534301757812e+01 1.363525485992431641e+01 -3.630976378917694092e-01 -1.836755275726318359e-01 -1.640319526195526123e-01 -4.737302958965301514e-01
7.334000000000000000e+03 4.738820648193359375e+01 1.278395271301269531e+01 -3.283417820930480957e-01 -1.617042720317840576e-01 -1.470138132572174072e-01 -4.335379302501678467e-01
7.335000000000000000e+03 4.374890899658203125e+01 7.889144897460937500e+00 -2.773996591567993164e-01 -2.980263829231262207e-01 -1.726278215646743774e-01 -3.127481341361999512e-01
7.336000000000000000e+03 4.299738693237304688e+01 7.865899562835693359e+00 -3.229190707206726074e-01 -3.766161203384399414e-01 -2.098605632781982422e-01 -3.439391851425170898e-01
7.337000000000000000e+03 5.643007659912109375e+01 1.965001487731933594e+01 -2.067061364650726318e-01 7.265105843544006348e-01 1.559413373470306396e-01 -2.881484627723693848e-01
7.338000000000000000e+03 5.359652709960937500e+01 1.901421737670898438e+01 -3.530535101890563965e-01 3.263150751590728760e-01 -8.021533489227294922e-03 -4.338464438915252686e-01
7.339000000000000000e+03 5.296022796630859375e+01 1.913181114196777344e+01 -4.171319603919982910e-01 2.205270528793334961e-01 -5.898147821426391602e-02 -4.867558479309082031e-01
7.340000000000000000e+03 4.229042053222656250e+01 6.667829513549804688e+00 -3.025341928005218506e-01 -3.844172060489654541e-01 -2.060854285955429077e-01 -2.954856753349304199e-01
7.341000000000000000e+03 4.154718017578125000e+01 5.643311500549316406e+00 -2.797002792358398438e-01 -4.026655256748199463e-01 -2.047097384929656982e-01 -2.543851137161254883e-01
7.342000000000000000e+03 4.077763366699218750e+01 3.500101566314697266e+00 -1.580513715744018555e-01 -3.882402777671813965e-01 -1.638874858617782593e-01 -1.345769762992858887e-01
7.343000000000000000e+03 3.917341995239257812e+01 4.128958225250244141e+00 -3.327983617782592773e-01 -5.223988294601440430e-01 -2.565591633319854736e-01 -2.306592017412185669e-01
7.344000000000000000e+03 4.462961196899414062e+01 2.736844301223754883e+00 8.965440094470977783e-02 -1.310773193836212158e-02 2.296400070190429688e-02 6.155376788228750229e-03
7.345000000000000000e+03 4.378707504272460938e+01 1.171418571472167969e+01 -5.086528062820434570e-01 -5.020330548286437988e-01 -3.032057583332061768e-01 -5.780621767044067383e-01
7.346000000000000000e+03 4.365170669555664062e+01 1.055678272247314453e+01 -4.489803016185760498e-01 -4.508703649044036865e-01 -2.699552178382873535e-01 -5.044401288032531738e-01
7.347000000000000000e+03 4.517455673217773438e+01 2.154522180557250977e+00 1.497403234243392944e-01 6.358001381158828735e-02 6.399609893560409546e-02 4.203713685274124146e-02
7.348000000000000000e+03 4.020458221435546875e+01 4.038980484008789062e+00 -2.445359677076339722e-01 -4.541313648223876953e-01 -2.096001952886581421e-01 -1.919744312763214111e-01
7.349000000000000000e+03 4.113516235351562500e+01 5.109140872955322266e+00 -2.598893940448760986e-01 -4.118012189865112305e-01 -2.015071809291839600e-01 -2.347442209720611572e-01
7.350000000000000000e+03 3.892741394042968750e+01 3.206273794174194336e+00 -2.556243836879730225e-01 -5.083438158035278320e-01 -2.291904538869857788e-01 -1.612625271081924438e-01
7.351000000000000000e+03 5.057659912109375000e+01 1.662542152404785156e+01 -3.706144988536834717e-01 2.003353275358676910e-02 -1.051742881536483765e-01 -4.695909917354583740e-01
7.352000000000000000e+03 5.039447784423828125e+01 1.715031623840332031e+01 -4.213970005512237549e-01 -4.347327351570129395e-02 -1.394610852003097534e-01 -5.170077681541442871e-01
7.353000000000000000e+03 4.053734970092773438e+01 2.355790376663208008e+00 -6.972903758287429810e-02 -3.876984119415283203e-01 -1.372282356023788452e-01 -6.845896691083908081e-02
7.354000000000000000e+03 5.905448532104492188e+01 1.835882186889648438e+01 9.805433452129364014e-02 1.319588780403137207e+00 4.252929389476776123e-01 5.439630150794982910e-02
7.355000000000000000e+03 4.419002914428710938e+01 1.156972980499267578e+01 -4.716911017894744873e-01 -4.562574028968811035e-01 -2.783845365047454834e-01 -5.441215634346008301e-01
7.356000000000000000e+03 5.141464614868164062e+01 1.879038238525390625e+01 -4.872210323810577393e-01 2.672587055712938309e-03 -1.453645378351211548e-01 -5.586434602737426758e-01
7.357000000000000000e+03 4.416184997558593750e+01 8.975028038024902344e+00 -3.180836737155914307e-01 -3.084897398948669434e-01 -1.879720240831375122e-01 -3.654294312000274658e-01
7.358000000000000000e+03 4.678919982910156250e+01 1.095797777175903320e+00 2.549870014190673828e-01 2.904875874519348145e-01 1.636423766613006592e-01 1.155634894967079163e-01
7.359000000000000000e+03 4.562813186645507812e+01 1.503826737403869629e+00 2.055740952491760254e-01 1.388009041547775269e-01 1.033124998211860657e-01 7.776455581188201904e-02
7.360000000000000000e+03 5.798863983154296875e+01 1.912893104553222656e+01 -3.716134652495384216e-02 1.032894134521484375e+00 2.987198531627655029e-01 -1.135275214910507202e-01
7.361000000000000000e+03 4.939695358276367188e+01 -1.050143763422966003e-01 3.460021018981933594e-01 6.926234364509582520e-01 3.115876615047454834e-01 2.063447684049606323e-01
7.362000000000000000e+03 4.670847320556640625e+01 1.258560752868652344e+01 -3.545361161231994629e-01 -2.268863767385482788e-01 -1.744267493486404419e-01 -4.617510735988616943e-01
7.363000000000000000e+03 5.858762741088867188e+01 1.420207118988037109e+01 2.353190034627914429e-01 1.593800902366638184e+00 5.487359762191772461e-01 2.512640953063964844e-01
7.364000000000000000e+03 5.530768585205078125e+01 1.989518547058105469e+01 -3.108350038528442383e-01 5.302031636238098145e-01 6.581045687198638916e-02 -3.891187310218811035e-01
7.365000000000000000e+03 5.327062606811523438e+01 -3.254157066345214844e+00 4.110725820064544678e-01 1.422236919403076172e+00 5.499928593635559082e-01 3.256997764110565186e-01
7.366000000000000000e+03 5.221155166625976562e+01 -1.349944710731506348e+00 3.928394913673400879e-01 1.184926271438598633e+00 4.733297228813171387e-01 2.940857112407684326e-01
7.367000000000000000e+03 5.799847030639648438e+01 1.315526294708251953e+01 2.447085082530975342e-01 1.547718405723571777e+00 5.377280712127685547e-01 2.535373568534851074e-01
7.368000000000000000e+03 5.553607940673828125e+01 4.191242218017578125e+00 3.395206630229949951e-01 1.588958263397216797e+00 5.785437226295471191e-01 3.581408560276031494e-01
7.369000000000000000e+03 5.175301742553710938e+01 -3.653226792812347412e-01 3.765195608139038086e-01 1.073891758918762207e+00 4.351234138011932373e-01 2.757936716079711914e-01
7.370000000000000000e+03 5.318612670898437500e+01 1.359873056411743164e+00 3.546620011329650879e-01 1.265080809593200684e+00 4.859228134155273438e-01 3.079621791839599609e-01
7.371000000000000000e+03 4.007165527343750000e+01 3.006542444229125977e+00 -1.564677208662033081e-01 -4.338859319686889648e-01 -1.771060973405838013e-01 -1.210952773690223694e-01
7.372000000000000000e+03 5.565433120727539062e+01 3.519016027450561523e+00 3.506048917770385742e-01 1.632467269897460938e+00 5.949216485023498535e-01 3.726367056369781494e-01
7.373000000000000000e+03 5.819812393188476562e+01 1.233246326446533203e+01 2.693105936050415039e-01 1.650324463844299316e+00 5.758905410766601562e-01 3.010809123516082764e-01
7.374000000000000000e+03 5.445633316040039062e+01 9.400526285171508789e-01 3.715711832046508789e-01 1.506071329116821289e+00 5.632927417755126953e-01 3.553596735000610352e-01
7.375000000000000000e+03 4.129893112182617188e+01 2.858860969543457031e+00 -6.704606860876083374e-02 -3.300414681434631348e-01 -1.191262602806091309e-01 -8.680086582899093628e-02
7.376000000000000000e+03 5.484893798828125000e+01 -3.630923509597778320e+00 4.014952182769775391e-01 1.716995000839233398e+00 6.355471014976501465e-01 3.617177307605743408e-01
7.377000000000000000e+03 5.077139282226562500e+01 -7.795546054840087891e-01 3.765228688716888428e-01 9.252296686172485352e-01 3.905257582664489746e-01 2.510445415973663330e-01
7.378000000000000000e+03 5.317302322387695312e+01 -8.639432787895202637e-01 3.908539414405822754e-01 1.339176893234252930e+00 5.190092325210571289e-01 3.236802220344543457e-01
7.379000000000000000e+03 5.863695144653320312e+01 1.734488487243652344e+01 1.186725422739982605e-01 1.325139522552490234e+00 4.331436157226562500e-01 7.764915376901626587e-02
7.380000000000000000e+03 5.772109603881835938e+01 1.771561813354492188e+01 4.052546992897987366e-02 1.112684488296508789e+00 3.459629714488983154e-01 -2.531650848686695099e-02
7.381000000000000000e+03 5.865927124023437500e+01 6.798039436340332031e+00 3.574431836605072021e-01 2.107239484786987305e+00 7.394047975540161133e-01 4.751308262348175049e-01
7.382000000000000000e+03 5.884722137451171875e+01 1.665182495117187500e+01 1.662866622209548950e-01 1.434828996658325195e+00 4.803346991539001465e-01 1.470566689968109131e-01
7.383000000000000000e+03 4.585572814941406250e+01 2.615664958953857422e+00 1.464634984731674194e-01 1.331372857093811035e-01 8.388023823499679565e-02 4.653038084506988525e-02
7.384000000000000000e+03 4.335889434814453125e+01 2.775474548339843750e+00 3.754109889268875122e-02 -1.463937908411026001e-01 -3.265580907464027405e-02 -2.677442505955696106e-02
7.385000000000000000e+03 4.254109954833984375e+01 5.843977928161621094e+00 -2.306189090013504028e-01 -3.270674347877502441e-01 -1.673059016466140747e-01 -2.312844544649124146e-01
7.386000000000000000e+03 4.997389984130859375e+01 1.482630252838134766e+01 -2.843717634677886963e-01 5.083216726779937744e-02 -7.006188482046127319e-02 -3.943966329097747803e-01
7.387000000000000000e+03 4.397851943969726562e+01 1.107542610168457031e+01 -4.549862444400787354e-01 -4.453149735927581787e-01 -2.700903713703155518e-01 -5.216051340103149414e-01
7.388000000000000000e+03 5.064503479003906250e+01 1.808694076538085938e+01 -4.814530611038208008e-01 -7.006388902664184570e-02 -1.654550880193710327e-01 -5.632354021072387695e-01
7.389000000000000000e+03 4.812198638916015625e+01 1.386501312255859375e+01 -3.431362211704254150e-01 -1.322775036096572876e-01 -1.426241248846054077e-01 -4.554531276226043701e-01
7.390000000000000000e+03 5.036088562011718750e+01 1.445555019378662109e+01 -2.431400567293167114e-01 1.262429207563400269e-01 -3.506914153695106506e-02 -3.523193299770355225e-01
7.391000000000000000e+03 5.280912780761718750e+01 1.842226409912109375e+01 -3.633862137794494629e-01 2.497710436582565308e-01 -3.408455476164817810e-02 -4.433587789535522461e-01
7.392000000000000000e+03 5.053918457031250000e+01 1.538392543792724609e+01 -2.899094820022583008e-01 9.133127331733703613e-02 -5.957346037030220032e-02 -3.977705240249633789e-01
7.393000000000000000e+03 5.168282318115234375e+01 1.706226539611816406e+01 -3.269109725952148438e-01 1.598894894123077393e-01 -5.010645091533660889e-02 -4.302328824996948242e-01
7.394000000000000000e+03 5.455750656127929688e+01 1.870545005798339844e+01 -2.635579109191894531e-01 4.975022971630096436e-01 7.018332183361053467e-02 -3.496705889701843262e-01
7.395000000000000000e+03 5.254602432250976562e+01 1.886966705322265625e+01 -4.197034239768981934e-01 1.721996814012527466e-01 -7.425112277269363403e-02 -4.952099025249481201e-01
7.396000000000000000e+03 5.240848159790039062e+01 1.811368370056152344e+01 -3.691115677356719971e-01 1.996687799692153931e-01 -5.083283782005310059e-02 -4.519460499286651611e-01
7.397000000000000000e+03 5.038344955444335938e+01 1.763552856445312500e+01 -4.636673331260681152e-01 -7.993067800998687744e-02 -1.630793958902359009e-01 -5.529686212539672852e-01
7.398000000000000000e+03 5.029224014282226562e+01 1.580552577972412109e+01 -3.240057826042175293e-01 3.233905881643295288e-02 -8.750001341104507446e-02 -4.351220726966857910e-01
7.399000000000000000e+03 4.600661468505859375e+01 1.191053199768066406e+01 -3.693119585514068604e-01 -2.807173132896423340e-01 -1.950087845325469971e-01 -4.628283679485321045e-01
7.400000000000000000e+03 4.750978088378906250e+01 1.168128108978271484e+01 -2.592256665229797363e-01 -7.866340875625610352e-02 -1.013667285442352295e-01 -3.589776158332824707e-01
7.401000000000000000e+03 4.862845611572265625e+01 1.404938507080078125e+01 -3.164659738540649414e-01 -7.415706664323806763e-02 -1.171869114041328430e-01 -4.316993355751037598e-01
7.402000000000000000e+03 4.485374069213867188e+01 9.534565925598144531e+00 -3.049309551715850830e-01 -2.665859162807464600e-01 -1.714550554752349854e-01 -3.675000071525573730e-01
7.403000000000000000e+03 5.492530822753906250e+01 1.795265579223632812e+01 -1.790545135736465454e-01 6.071305871009826660e-01 1.284228265285491943e-01 -2.702772617340087891e-01
7.404000000000000000e+03 4.314624404907226562e+01 7.007837295532226562e+00 -2.697406113147735596e-01 -3.185715973377227783e-01 -1.764936596155166626e-01 -2.837457060813903809e-01
7.405000000000000000e+03 4.213962554931640625e+01 3.179083585739135742e+00 -5.478718131780624390e-02 -2.749188840389251709e-01 -9.891181439161300659e-02 -8.223024755716323853e-02
7.406000000000000000e+03 4.448614883422851562e+01 6.736576080322265625e+00 -1.737768650054931641e-01 -1.742246747016906738e-01 -1.044004634022712708e-01 -2.093039751052856445e-01
7.407000000000000000e+03 5.767396163940429688e+01 1.468656444549560547e+01 1.720610857009887695e-01 1.366155147552490234e+00 4.614648818969726562e-01 1.536053568124771118e-01
7.408000000000000000e+03 4.212722015380859375e+01 5.298417091369628906e+00 -2.074480205774307251e-01 -3.443768024444580078e-01 -1.655474454164505005e-01 -2.105719596147537231e-01
7.409000000000000000e+03 4.426009750366210938e+01 4.417055130004882812e+00 -2.437784150242805481e-02 -9.740627557039260864e-02 -3.653523325920104980e-02 -8.246038109064102173e-02
7.410000000000000000e+03 4.070903015136718750e+01 4.560538291931152344e+00 -2.532332837581634521e-01 -4.304058253765106201e-01 -2.050917297601699829e-01 -2.113346010446548462e-01
7.411000000000000000e+03 4.200017166137695312e+01 3.874744892120361328e+00 -1.159234642982482910e-01 -3.055144846439361572e-01 -1.264313906431198120e-01 -1.230799332261085510e-01
7.412000000000000000e+03 5.441558074951171875e+01 1.811656761169433594e+01 -2.278280407190322876e-01 5.226947665214538574e-01 8.846002072095870972e-02 -3.182962238788604736e-01
7.413000000000000000e+03 4.675539398193359375e+01 1.185418510437011719e+01 -3.138063549995422363e-01 -1.763307303190231323e-01 -1.470411270856857300e-01 -4.116707742214202881e-01
7.414000000000000000e+03 5.739154815673828125e+01 1.613364219665527344e+01 9.886852651834487915e-02 1.188274264335632324e+00 3.861428499221801758e-01 4.813221469521522522e-02
7.415000000000000000e+03 4.406198883056640625e+01 8.357141494750976562e+00 -2.806344032287597656e-01 -2.906369864940643311e-01 -1.713814139366149902e-01 -3.280003964900970459e-01
7.416000000000000000e+03 4.663753890991210938e+01 1.114554691314697266e+01 -2.850426137447357178e-01 -1.517086923122406006e-01 -1.310253888368606567e-01 -3.738726973533630371e-01
7.417000000000000000e+03 3.959183502197265625e+01 3.589025735855102539e+00 -2.485999017953872681e-01 -4.812485575675964355e-01 -2.189545333385467529e-01 -1.733605861663818359e-01
7.418000000000000000e+03 5.441165924072265625e+01 2.906423091888427734e+00 3.436575829982757568e-01 1.423860669136047363e+00 5.302554965019226074e-01 3.355999290943145752e-01
7.419000000000000000e+03 5.359886932373046875e+01 4.949716031551361084e-01 3.716439604759216309e-01 1.368207216262817383e+00 5.219553112983703613e-01 3.309629857540130615e-01
7.420000000000000000e+03 5.507782745361328125e+01 3.247789859771728516e+00 3.482423126697540283e-01 1.537107825279235840e+00 5.656050443649291992e-01 3.586494326591491699e-01
7.421000000000000000e+03 4.656874084472656250e+01 3.122757196426391602e+00 1.517567038536071777e-01 2.055958211421966553e-01 1.072057560086250305e-01 4.689488187432289124e-02
7.422000000000000000e+03 4.530688095092773438e+01 3.252635240554809570e+00 9.613957256078720093e-02 4.685802757740020752e-02 4.289928078651428223e-02 -2.626406785566359758e-04
7.423000000000000000e+03 5.403787612915039062e+01 1.882244110107421875e+01 -3.123129606246948242e-01 4.052715301513671875e-01 2.788757160305976868e-02 -3.947038054466247559e-01
7.424000000000000000e+03 5.626251602172851562e+01 4.175865650177001953e+00 3.508528470993041992e-01 1.721272587776184082e+00 6.216376423835754395e-01 3.910555243492126465e-01
7.425000000000000000e+03 5.403051757812500000e+01 1.748184919357299805e+00 3.602194190025329590e-01 1.403543472290039062e+00 5.291288495063781738e-01 3.345617949962615967e-01
7.426000000000000000e+03 5.576302337646484375e+01 1.910185623168945312e+01 -2.075332105159759521e-01 6.615992188453674316e-01 1.362197995185852051e-01 -2.947045564651489258e-01
7.427000000000000000e+03 5.366104125976562500e+01 2.558681488037109375e+00 3.395736217498779297e-01 1.305727720260620117e+00 4.935904145240783691e-01 3.105257451534271240e-01
7.428000000000000000e+03 4.486072921752929688e+01 4.917504310607910156e+00 -3.233453631401062012e-02 -5.677305534482002258e-02 -2.673227712512016296e-02 -8.604613691568374634e-02
7.429000000000000000e+03 5.802539825439453125e+01 9.222003936767578125e+00 3.076308071613311768e-01 1.816832304000854492e+00 6.373389363288879395e-01 3.863338828086853027e-01
7.430000000000000000e+03 5.837692642211914062e+01 8.678308486938476562e+00 3.309501409530639648e-01 1.955494046211242676e+00 6.859332323074340820e-01 4.233233630657196045e-01
7.431000000000000000e+03 5.660318756103515625e+01 1.072867107391357422e+01 2.558730840682983398e-01 1.461061358451843262e+00 5.150803327560424805e-01 2.609562873840332031e-01
7.432000000000000000e+03 5.783167648315429688e+01 1.095516014099121094e+01 2.870371937751770020e-01 1.669679880142211914e+00 5.870150923728942871e-01 3.236669003963470459e-01
7.433000000000000000e+03 5.370598220825195312e+01 -1.784551143646240234e+00 4.007263183593750000e-01 1.460680007934570312e+00 5.584219098091125488e-01 3.417883515357971191e-01
7.434000000000000000e+03 5.531856918334960938e+01 4.959035396575927734e+00 3.240209519863128662e-01 1.519890785217285156e+00 5.531734824180603027e-01 3.391155600547790527e-01
7.435000000000000000e+03 5.437756729125976562e+01 -5.051826000213623047e+00 3.961374163627624512e-01 1.648290753364562988e+00 6.133284568786621094e-01 3.341847062110900879e-01
7.436000000000000000e+03 5.337242889404296875e+01 3.359127998352050781e+00 3.204800784587860107e-01 1.216920852661132812e+00 4.612202644348144531e-01 2.863619029521942139e-01
7.437000000000000000e+03 4.766570281982421875e+01 1.525228261947631836e+00 2.548249065876007080e-01 3.896399438381195068e-01 1.933394521474838257e-01 1.272848248481750488e-01
7.438000000000000000e+03 5.391521072387695312e+01 1.825825691223144531e+01 -2.748543322086334229e-01 4.165804982185363770e-01 4.251785203814506531e-02 -3.660627007484436035e-01
7.439000000000000000e+03 5.384241104125976562e+01 -4.154473781585693359e+00 4.135130047798156738e-01 1.546230077743530273e+00 5.879229307174682617e-01 3.320322036743164062e-01
7.440000000000000000e+03 4.318976593017578125e+01 4.477190971374511719e+00 -9.117732942104339600e-02 -2.144173234701156616e-01 -9.167839586734771729e-02 -1.221523135900497437e-01
7.441000000000000000e+03 5.407578659057617188e+01 -3.710563778877258301e-01 3.857353627681732178e-01 1.481813430786132812e+00 5.602646470069885254e-01 3.503978848457336426e-01
7.442000000000000000e+03 5.758870315551757812e+01 8.553612709045410156e+00 3.145727515220642090e-01 1.771802783012390137e+00 6.259126663208007812e-01 3.811314404010772705e-01
7.443000000000000000e+03 5.786077880859375000e+01 7.009498596191406250e+00 3.488208949565887451e-01 1.936075091361999512e+00 6.854687929153442383e-01 4.314427375793457031e-01
7.444000000000000000e+03 5.646820068359375000e+01 5.772463321685791016e+00 3.372695147991180420e-01 1.708512902259826660e+00 6.137347221374511719e-01 3.829232752323150635e-01
7.445000000000000000e+03 5.412093353271484375e+01 3.654508113861083984e+00 3.257802128791809082e-01 1.342301964759826660e+00 5.004246234893798828e-01 3.134242594242095947e-01
7.446000000000000000e+03 5.703662109375000000e+01 1.751693153381347656e+01 2.971159527078270912e-03 9.999671578407287598e-01 3.008815050125122070e-01 -7.483048737049102783e-02
7.447000000000000000e+03 5.323844528198242188e+01 1.869543266296386719e+01 -3.527213037014007568e-01 2.959576249122619629e-01 -1.702910847961902618e-02 -4.315080046653747559e-01
7.448000000000000000e+03 4.912496566772460938e+01 1.426119995117187500e+01 -2.978370189666748047e-01 -2.799732796847820282e-02 -9.775030612945556641e-02 -4.117174148559570312e-01
7.449000000000000000e+03 5.321756362915039062e+01 1.734142684936523438e+01 -2.442431896924972534e-01 3.780359029769897461e-01 4.013781622052192688e-02 -3.434485793113708496e-01
7.450000000000000000e+03 5.127811050415039062e+01 1.428076744079589844e+01 -1.746879070997238159e-01 2.791374027729034424e-01 3.133485466241836548e-02 -2.761004567146301270e-01
7.451000000000000000e+03 4.875305557250976562e+01 1.357238674163818359e+01 -2.838239669799804688e-01 -3.096586279571056366e-02 -9.443694353103637695e-02 -3.945227861404418945e-01
7.452000000000000000e+03 5.056491851806640625e+01 1.612182617187500000e+01 -3.358626067638397217e-01 4.701085761189460754e-02 -8.665552735328674316e-02 -4.407348930835723877e-01
7.453000000000000000e+03 4.592309188842773438e+01 1.126977252960205078e+01 -3.368929028511047363e-01 -2.483724504709243774e-01 -1.755796074867248535e-01 -4.226746261119842529e-01
7.454000000000000000e+03 4.833171844482421875e+01 1.342640399932861328e+01 -3.031024038791656494e-01 -7.894694060087203979e-02 -1.146148070693016052e-01 -4.153785407543182373e-01
7.455000000000000000e+03 4.791801834106445312e+01 1.312148761749267578e+01 -3.140736818313598633e-01 -1.147469952702522278e-01 -1.286461949348449707e-01 -4.218958020210266113e-01
7.456000000000000000e+03 5.703080749511718750e+01 1.368831825256347656e+01 1.767585724592208862e-01 1.319920420646667480e+00 4.490036964416503906e-01 1.544195711612701416e-01
7.457000000000000000e+03 5.810729598999023438e+01 1.637473297119140625e+01 1.314470320940017700e-01 1.308186888694763184e+00 4.318901896476745605e-01 9.290210902690887451e-02
7.458000000000000000e+03 5.198787307739257812e+01 1.782685279846191406e+01 -3.710884451866149902e-01 1.582301259040832520e-01 -6.385749578475952148e-02 -4.583430290222167969e-01
7.459000000000000000e+03 4.462512588500976562e+01 7.455244064331054688e+00 -2.006613165140151978e-01 -1.903894394636154175e-01 -1.173152253031730652e-01 -2.446486800909042358e-01
7.460000000000000000e+03 4.393463897705078125e+01 7.444614410400390625e+00 -2.485712915658950806e-01 -2.593798339366912842e-01 -1.523853391408920288e-01 -2.724116444587707520e-01
7.461000000000000000e+03 4.379183197021484375e+01 6.833047866821289062e+00 -2.078824341297149658e-01 -2.455097138881683350e-01 -1.360176503658294678e-01 -2.399944216012954712e-01
7.462000000000000000e+03 4.318224334716796875e+01 5.496302127838134766e+00 -1.563958972692489624e-01 -2.506256103515625000e-01 -1.221064552664756775e-01 -1.832466423511505127e-01
7.463000000000000000e+03 4.513091278076171875e+01 1.075636959075927734e+01 -3.627379834651947021e-01 -3.082697093486785889e-01 -2.013023048639297485e-01 -4.339495599269866943e-01
7.464000000000000000e+03 4.170455169677734375e+01 4.744636058807373047e+00 -1.987092792987823486e-01 -3.557363450527191162e-01 -1.663336902856826782e-01 -1.861125230789184570e-01
7.465000000000000000e+03 4.451688385009765625e+01 1.088092327117919922e+01 -4.105009138584136963e-01 -3.843801319599151611e-01 -2.384643256664276123e-01 -4.799927473068237305e-01
7.466000000000000000e+03 4.479032135009765625e+01 8.885272026062011719e+00 -2.685705125331878662e-01 -2.434201240539550781e-01 -1.535971909761428833e-01 -3.271181881427764893e-01
7.467000000000000000e+03 4.131446456909179688e+01 4.112363338470458984e+00 -1.672064960002899170e-01 -3.618698120117187500e-01 -1.587228924036026001e-01 -1.592421382665634155e-01
7.468000000000000000e+03 5.107481765747070312e+01 1.771623992919921875e+01 -4.138955473899841309e-01 3.080339543521404266e-02 -1.149276494979858398e-01 -5.098943114280700684e-01
7.469000000000000000e+03 5.081196212768554688e+01 1.733055496215820312e+01 -4.065260589122772217e-01 1.034874748438596725e-02 -1.188531965017318726e-01 -4.999217987060546875e-01
7.470000000000000000e+03 4.638780975341796875e+01 7.515751838684082031e+00 -9.884577989578247070e-02 6.802337244153022766e-03 -2.761303260922431946e-02 -1.653805077075958252e-01
7.471000000000000000e+03 5.171946334838867188e+01 1.831641769409179688e+01 -4.315068423748016357e-01 7.681374251842498779e-02 -1.064079329371452332e-01 -5.111675262451171875e-01
7.472000000000000000e+03 5.632820892333984375e+01 1.898105621337890625e+01 -1.564460694789886475e-01 7.559573650360107422e-01 1.798533797264099121e-01 -2.457250207662582397e-01
7.473000000000000000e+03 5.508443832397460938e+01 1.857982635498046875e+01 -2.171828597784042358e-01 5.895678997039794922e-01 1.117155030369758606e-01 -3.027637600898742676e-01
7.474000000000000000e+03 5.520853042602539062e+01 1.922174453735351562e+01 -2.593675553798675537e-01 5.608338117599487305e-01 9.043987095355987549e-02 -3.421981036663055420e-01
7.475000000000000000e+03 5.343959808349609375e+01 1.825728988647460938e+01 -3.092124164104461670e-01 3.490829765796661377e-01 1.196116767823696136e-02 -3.902762234210968018e-01
7.476000000000000000e+03 5.717417526245117188e+01 1.290681743621826172e+01 2.194354534149169922e-01 1.412728548049926758e+00 4.896492063999176025e-01 2.084341496229171753e-01
7.477000000000000000e+03 5.141603088378906250e+01 1.618547630310058594e+01 -2.856103181838989258e-01 1.704262793064117432e-01 -3.455520793795585632e-02 -3.896226882934570312e-01
7.478000000000000000e+03 4.294648742675781250e+01 3.472983360290527344e+00 -3.163688257336616516e-02 -2.073210477828979492e-01 -7.168737798929214478e-02 -7.840402424335479736e-02
7.479000000000000000e+03 5.753390502929687500e+01 1.542251873016357422e+01 1.364646703004837036e-01 1.275196552276611328e+00 4.234983623027801514e-01 1.012105271220207214e-01
7.480000000000000000e+03 5.598385238647460938e+01 5.284741878509521484e+00 3.293908238410949707e-01 1.629009008407592773e+00 5.875199437141418457e-01 3.616828024387359619e-01
7.481000000000000000e+03 4.476825332641601562e+01 3.844684600830078125e+00 3.235657513141632080e-02 -2.945343405008316040e-02 8.709427202120423317e-04 -3.771942481398582458e-02
7.482000000000000000e+03 4.409938049316406250e+01 3.323379755020141602e+00 4.085353761911392212e-02 -8.007122576236724854e-02 -1.176530681550502777e-02 -3.753226995468139648e-02
7.483000000000000000e+03 5.755403137207031250e+01 1.835769844055175781e+01 -6.987880915403366089e-03 1.027145385742187500e+00 3.060472607612609863e-01 -8.926298469305038452e-02
7.484000000000000000e+03 5.100035858154296875e+01 1.618948221206665039e+00 3.181521892547607422e-01 8.837867975234985352e-01 3.605816960334777832e-01 2.304668277502059937e-01
7.485000000000000000e+03 5.134678649902343750e+01 6.243425607681274414e-01 3.496965765953063965e-01 9.750158786773681641e-01 3.974137306213378906e-01 2.554090321063995361e-01
7.486000000000000000e+03 4.836833953857421875e+01 1.265416049957275391e+01 -2.583335340023040771e-01 -2.707456238567829132e-02 -8.562242984771728516e-02 -3.638146221637725830e-01
7.487000000000000000e+03 5.482641983032226562e+01 3.949625730514526367e+00 3.291008770465850830e-01 1.455552697181701660e+00 5.353960990905761719e-01 3.366501927375793457e-01
7.488000000000000000e+03 5.269921493530273438e+01 6.008575856685638428e-02 3.724021315574645996e-01 1.223737478256225586e+00 4.788418710231781006e-01 3.029364645481109619e-01
7.489000000000000000e+03 5.776155853271484375e+01 7.755178928375244141e+00 3.246872723102569580e-01 1.857422709465026855e+00 6.546329855918884277e-01 4.119907915592193604e-01
7.490000000000000000e+03 4.902810668945312500e+01 9.608893394470214844e-01 3.099092245101928711e-01 6.083677411079406738e-01 2.754831016063690186e-01 1.804263740777969360e-01
7.491000000000000000e+03 4.961791992187500000e+01 3.505133152008056641e+00 2.292085587978363037e-01 6.023962497711181641e-01 2.494814544916152954e-01 1.394566893577575684e-01
7.492000000000000000e+03 5.657839965820312500e+01 1.661832237243652344e+01 2.743869274854660034e-02 9.949210882186889648e-01 3.067079186439514160e-01 -4.587809741497039795e-02
7.493000000000000000e+03 5.691167449951171875e+01 1.446374797821044922e+01 1.400875300168991089e-01 1.228635907173156738e+00 4.106170237064361572e-01 1.042957454919815063e-01
7.494000000000000000e+03 5.792094039916992188e+01 1.705863189697265625e+01 8.499327301979064941e-02 1.211360454559326172e+00 3.889061212539672852e-01 3.515637665987014771e-02
7.495000000000000000e+03 5.389628219604492188e+01 4.388900279998779297e+00 3.068025410175323486e-01 1.258495807647705078e+00 4.695895016193389893e-01 2.893829643726348877e-01
7.496000000000000000e+03 5.707729339599609375e+01 7.309270381927490234e+00 3.277739882469177246e-01 1.742149472236633301e+00 6.209770441055297852e-01 3.830925822257995605e-01
7.497000000000000000e+03 5.194969177246093750e+01 1.914161324501037598e+00 3.270971477031707764e-01 1.034025907516479492e+00 4.083369076251983643e-01 2.565878629684448242e-01
7.498000000000000000e+03 5.715997314453125000e+01 1.141487598419189453e+01 2.541925311088562012e-01 1.508262276649475098e+00 5.287364721298217773e-01 2.724133133888244629e-01
7.499000000000000000e+03 5.688503646850585938e+01 9.642334938049316406e+00 2.826583981513977051e-01 1.578864574432373047e+00 5.584568977355957031e-01 3.113381266593933105e-01
7.500000000000000000e+03 5.547480773925781250e+01 1.781178283691406250e+01 -1.294150799512863159e-01 7.010319828987121582e-01 1.714850664138793945e-01 -2.236548811197280884e-01
7.501000000000000000e+03 4.988450241088867188e+01 1.412769794464111328e+01 -2.518226504325866699e-01 8.306087553501129150e-02 -5.062853544950485229e-02 -3.597044944763183594e-01
7.502000000000000000e+03 4.943397903442382812e+01 1.386928558349609375e+01 -2.622787356376647949e-01 3.601337224245071411e-02 -6.787960976362228394e-02 -3.732916414737701416e-01
7.503000000000000000e+03 4.965073394775390625e+01 1.347938346862792969e+01 -2.264436632394790649e-01 9.343620389699935913e-02 -3.990223631262779236e-02 -3.353106379508972168e-01
7.504000000000000000e+03 4.224698257446289062e+01 4.436208248138427734e+00 -1.465041786432266235e-01 -3.043297529220581055e-01 -1.352501809597015381e-01 -1.534857898950576782e-01
7.505000000000000000e+03 5.179260253906250000e+01 1.565522670745849609e+01 -2.271713316440582275e-01 2.636370658874511719e-01 1.093971822410821915e-02 -3.326724469661712646e-01
7.506000000000000000e+03 5.421333694458007812e+01 1.755300521850585938e+01 -1.986629366874694824e-01 5.255478024482727051e-01 9.806546568870544434e-02 -2.906789183616638184e-01
7.507000000000000000e+03 4.488323593139648438e+01 5.891827106475830078e+00 -7.993628829717636108e-02 -8.561821281909942627e-02 -4.966635257005691528e-02 -1.373112797737121582e-01
7.508000000000000000e+03 4.546734237670898438e+01 7.381451606750488281e+00 -1.449498236179351807e-01 -9.063644707202911377e-02 -7.067587971687316895e-02 -1.995683014392852783e-01
7.509000000000000000e+03 4.623276138305664062e+01 9.906944274902343750e+00 -2.343780547380447388e-01 -1.349136531352996826e-01 -1.107875108718872070e-01 -3.163676857948303223e-01
7.510000000000000000e+03 4.497089004516601562e+01 1.015240764617919922e+01 -3.313607573509216309e-01 -2.869598269462585449e-01 -1.854961812496185303e-01 -3.994393646717071533e-01
7.511000000000000000e+03 4.545105743408203125e+01 8.154520034790039062e+00 -1.831837892532348633e-01 -1.274015307426452637e-01 -9.317559748888015747e-02 -2.458400130271911621e-01
7.512000000000000000e+03 4.269123840332031250e+01 4.933790683746337891e+00 -1.533463001251220703e-01 -2.755451202392578125e-01 -1.286674290895462036e-01 -1.652756482362747192e-01
7.513000000000000000e+03 5.563961410522460938e+01 1.844404983520507812e+01 -1.695021092891693115e-01 6.818662285804748535e-01 1.537092328071594238e-01 -2.564568519592285156e-01
7.514000000000000000e+03 4.578035354614257812e+01 1.064878749847412109e+01 -3.103229999542236328e-01 -2.273517102003097534e-01 -1.613024175167083740e-01 -3.883887231349945068e-01
7.515000000000000000e+03 4.561545944213867188e+01 1.004934692382812500e+01 -2.872411310672760010e-01 -2.152863144874572754e-01 -1.507582366466522217e-01 -3.610062897205352783e-01
7.516000000000000000e+03 4.901293563842773438e+01 1.239777565002441406e+01 -2.136994600296020508e-01 7.034803926944732666e-02 -4.300542920827865601e-02 -3.120490312576293945e-01
7.517000000000000000e+03 5.014573287963867188e+01 1.364714622497558594e+01 -2.116018235683441162e-01 1.498078703880310059e-01 -1.853818632662296295e-02 -3.180650174617767334e-01
7.518000000000000000e+03 5.676912307739257812e+01 6.487678527832031250e+00 3.330302834510803223e-01 1.721465826034545898e+00 6.163488626480102539e-01 3.876402378082275391e-01
7.519000000000000000e+03 4.679916000366210938e+01 9.657302856445312500e+00 -1.932518035173416138e-01 -4.222002252936363220e-02 -7.064154744148254395e-02 -2.740807831287384033e-01
7.520000000000000000e+03 4.470825195312500000e+01 8.188341140747070312e+00 -2.347601801156997681e-01 -2.143749296665191650e-01 -1.347405314445495605e-01 -2.860496044158935547e-01
7.521000000000000000e+03 5.315896606445312500e+01 4.147355556488037109e+00 2.941927015781402588e-01 1.153465747833251953e+00 4.342975318431854248e-01 2.590278983116149902e-01
7.522000000000000000e+03 4.968263244628906250e+01 2.411516427993774414e+00 2.688875198364257812e-01 6.492862701416015625e-01 2.754521369934082031e-01 1.681735217571258545e-01
7.523000000000000000e+03 5.459885406494140625e+01 4.674186706542968750e+00 3.179628252983093262e-01 1.393879771232604980e+00 5.135527849197387695e-01 3.183549940586090088e-01
7.524000000000000000e+03 4.542295074462890625e+01 5.475919246673583984e+00 -3.822588920593261719e-02 -2.060936018824577332e-02 -1.765057444572448730e-02 -9.797222912311553955e-02
7.525000000000000000e+03 5.621287536621093750e+01 1.349057006835937500e+01 1.416317522525787354e-01 1.165502667427062988e+00 3.921402990818023682e-01 1.006605550646781921e-01
7.526000000000000000e+03 5.306782913208007812e+01 1.803265762329101562e+01 -3.132415413856506348e-01 3.084845542907714844e-01 -1.427097828127443790e-03 -4.025895297527313232e-01
7.527000000000000000e+03 5.431109619140625000e+01 5.395195007324218750e+00 2.967287600040435791e-01 1.294310450553894043e+00 4.773117601871490479e-01 2.916072010993957520e-01
7.528000000000000000e+03 4.787237930297851562e+01 1.221451950073242188e+01 -2.654801607131958008e-01 -6.281079351902008057e-02 -9.848728775978088379e-02 -3.663179278373718262e-01
7.529000000000000000e+03 4.742195510864257812e+01 1.094892406463623047e+01 -2.222815006971359253e-01 -4.829585179686546326e-02 -8.117320388555526733e-02 -3.155922889709472656e-01
7.530000000000000000e+03 5.111515426635742188e+01 1.679350852966308594e+01 -3.516775667667388916e-01 8.726350218057632446e-02 -7.932421565055847168e-02 -4.469665288925170898e-01
7.531000000000000000e+03 5.628619003295898438e+01 1.264084815979003906e+01 1.788475513458251953e-01 1.248423933982849121e+00 4.281814396381378174e-01 1.530689448118209839e-01
7.532000000000000000e+03 5.655887603759765625e+01 1.188109302520751953e+01 2.067516893148422241e-01 1.339745640754699707e+00 4.639492034912109375e-01 2.025033533573150635e-01
7.533000000000000000e+03 5.690748977661132812e+01 1.823582649230957031e+01 -5.468779802322387695e-02 9.135428667068481445e-01 2.576565146446228027e-01 -1.382951736450195312e-01
7.534000000000000000e+03 5.598048019409179688e+01 1.578825759887695312e+01 2.912761829793453217e-02 9.492433071136474609e-01 2.935112714767456055e-01 -4.346520453691482544e-02
7.535000000000000000e+03 5.723485565185546875e+01 1.682290267944335938e+01 5.573013424873352051e-02 1.101523637771606445e+00 3.471761345863342285e-01 -8.161875419318675995e-03
7.536000000000000000e+03 4.862036514282226562e+01 2.040391445159912109e+00 2.562539875507354736e-01 5.124976038932800293e-01 2.306254804134368896e-01 1.441480219364166260e-01
7.537000000000000000e+03 4.596802902221679688e+01 3.780321359634399414e+00 8.521945029497146606e-02 1.073285415768623352e-01 5.776439979672431946e-02 3.876492381095886230e-03
7.538000000000000000e+03 4.363384628295898438e+01 3.919937372207641602e+00 -2.459134347736835480e-02 -1.476689130067825317e-01 -5.167807638645172119e-02 -7.611344754695892334e-02
7.539000000000000000e+03 5.228915405273437500e+01 9.862317442893981934e-01 3.518760502338409424e-01 1.120979905128479004e+00 4.418567717075347900e-01 2.819895446300506592e-01
7.540000000000000000e+03 5.679943084716796875e+01 1.521514701843261719e+01 1.037652194499969482e-01 1.148193717002868652e+00 3.755877017974853516e-01 5.476193502545356750e-02
7.541000000000000000e+03 5.001336288452148438e+01 1.317267775535583496e+00 3.116476535797119141e-01 7.405182123184204102e-01 3.156497478485107422e-01 2.031696885824203491e-01
7.542000000000000000e+03 4.526394271850585938e+01 6.576432704925537109e+00 -1.062050610780715942e-01 -7.539441436529159546e-02 -5.447984486818313599e-02 -1.600828915834426880e-01
7.543000000000000000e+03 5.589502716064453125e+01 1.711134147644042969e+01 -5.882406979799270630e-02 8.343833088874816895e-01 2.326677739620208740e-01 -1.391626447439193726e-01
7.544000000000000000e+03 5.062632751464843750e+01 4.469580650329589844e+00 2.208459228277206421e-01 7.178968787193298340e-01 2.816228270530700684e-01 1.483632177114486694e-01
7.545000000000000000e+03 5.663027954101562500e+01 8.748792648315429688e+00 2.836090624332427979e-01 1.576537728309631348e+00 5.580440163612365723e-01 3.208154141902923584e-01
7.546000000000000000e+03 5.581016540527343750e+01 6.781986713409423828e+00 2.995504736900329590e-01 1.510658860206604004e+00 5.430628061294555664e-01 3.177061975002288818e-01
7.547000000000000000e+03 5.499547958374023438e+01 5.772421836853027344e+00 3.075207769870758057e-01 1.416158199310302734e+00 5.171036720275878906e-01 3.081750869750976562e-01
7.548000000000000000e+03 5.062731552124023438e+01 3.566548109054565430e+00 2.563312649726867676e-01 7.611347436904907227e-01 3.052397966384887695e-01 1.764539182186126709e-01
7.549000000000000000e+03 4.542805480957031250e+01 8.832709312438964844e+00 -2.296821624040603638e-01 -1.634916663169860840e-01 -1.179521456360816956e-01 -2.915591597557067871e-01
7.550000000000000000e+03 5.612417221069335938e+01 9.969438552856445312e+00 2.480624765157699585e-01 1.404268622398376465e+00 4.956993162631988525e-01 2.524923682212829590e-01
7.551000000000000000e+03 5.086841964721679688e+01 1.484797668457031250e+01 -2.331477999687194824e-01 1.706442236900329590e-01 -1.875106990337371826e-02 -3.429979979991912842e-01
7.552000000000000000e+03 5.181119537353515625e+01 1.472907352447509766e+01 -1.646809875965118408e-01 3.358113169670104980e-01 5.133909732103347778e-02 -2.690978646278381348e-01
7.553000000000000000e+03 4.717423629760742188e+01 1.025493144989013672e+01 -1.996227353811264038e-01 -3.121735714375972748e-02 -6.925202906131744385e-02 -2.850144803524017334e-01
7.554000000000000000e+03 4.821810150146484375e+01 1.161557197570800781e+01 -2.103032469749450684e-01 1.983267813920974731e-02 -5.714117363095283508e-02 -3.081938326358795166e-01
7.555000000000000000e+03 5.136460113525390625e+01 1.525157260894775391e+01 -2.255930155515670776e-01 2.262121438980102539e-01 1.857405150076374412e-04 -3.336531817913055420e-01
7.556000000000000000e+03 5.381556320190429688e+01 1.774360466003417969e+01 -2.496595233678817749e-01 4.352394342422485352e-01 5.567397177219390869e-02 -3.347175419330596924e-01
7.557000000000000000e+03 5.591542434692382812e+01 1.648363113403320312e+01 -1.416735351085662842e-02 8.829891085624694824e-01 2.606465220451354980e-01 -9.594339132308959961e-02
7.558000000000000000e+03 4.898291397094726562e+01 1.169344902038574219e+01 -1.685709357261657715e-01 1.119913384318351746e-01 -1.697387918829917908e-02 -2.702570557594299316e-01
7.559000000000000000e+03 4.920557785034179688e+01 1.349904441833496094e+01 -2.568784356117248535e-01 2.537059411406517029e-02 -6.945235282182693481e-02 -3.649766147136688232e-01
7.560000000000000000e+03 4.865523529052734375e+01 1.312621307373046875e+01 -2.623215019702911377e-01 -1.280631404370069504e-02 -8.253834396600723267e-02 -3.718166947364807129e-01
7.561000000000000000e+03 4.621917724609375000e+01 8.287761688232421875e+00 -1.517356634140014648e-01 -5.006375163793563843e-02 -6.053982302546501160e-02 -2.175953388214111328e-01
7.562000000000000000e+03 4.426404190063476562e+01 6.047167301177978516e+00 -1.275251507759094238e-01 -1.625145822763442993e-01 -8.701191842555999756e-02 -1.720852255821228027e-01
7.563000000000000000e+03 4.376387786865234375e+01 5.004086494445800781e+00 -9.457579255104064941e-02 -1.705307215452194214e-01 -7.953195273876190186e-02 -1.319824159145355225e-01
7.564000000000000000e+03 5.624974441528320312e+01 1.828368186950683594e+01 -1.076427698135375977e-01 7.993603944778442383e-01 2.075152993202209473e-01 -1.956958770751953125e-01
7.565000000000000000e+03 4.645929336547851562e+01 1.049989318847656250e+01 -2.608397006988525391e-01 -1.422006040811538696e-01 -1.209120899438858032e-01 -3.467667996883392334e-01
7.566000000000000000e+03 4.603073883056640625e+01 9.375899314880371094e+00 -2.274247109889984131e-01 -1.284723281860351562e-01 -1.067691147327423096e-01 -2.958346307277679443e-01
7.567000000000000000e+03 4.663113784790039062e+01 6.723751068115234375e+00 -4.060339555144309998e-02 6.854592263698577881e-02 8.382759056985378265e-03 -1.135188043117523193e-01
7.568000000000000000e+03 4.738187789916992188e+01 7.035728931427001953e+00 -1.983858831226825714e-02 1.496602892875671387e-01 3.894650936126708984e-02 -9.713190048933029175e-02
7.569000000000000000e+03 5.193259048461914062e+01 1.649127578735351562e+01 -2.777131497859954834e-01 2.302308380603790283e-01 -1.424468867480754852e-02 -3.774445354938507080e-01
7.570000000000000000e+03 5.540770339965820312e+01 1.339523315429687500e+01 1.089764535427093506e-01 1.028225064277648926e+00 3.411604762077331543e-01 5.208003893494606018e-02
7.571000000000000000e+03 5.154393768310546875e+01 1.327632713317871094e+01 -1.138005107641220093e-01 3.704555332660675049e-01 7.699650526046752930e-02 -2.055135369300842285e-01
7.572000000000000000e+03 5.591083908081054688e+01 1.122590160369873047e+01 2.089557051658630371e-01 1.274594426155090332e+00 4.450650215148925781e-01 1.848893165588378906e-01
7.573000000000000000e+03 5.607025527954101562e+01 1.505418872833251953e+01 6.644879281520843506e-02 1.021362066268920898e+00 3.263432681560516357e-01 6.607404444366693497e-03
7.574000000000000000e+03 4.539419937133789062e+01 4.374814987182617188e+00 3.083321824669837952e-02 1.888341829180717468e-02 1.491499040275812149e-02 -4.389572516083717346e-02
7.575000000000000000e+03 4.800103759765625000e+01 2.973838806152343750e+00 2.053816765546798706e-01 4.007754921913146973e-01 1.818471401929855347e-01 9.993276745080947876e-02
7.576000000000000000e+03 4.725116729736328125e+01 3.697502136230468750e+00 1.385075449943542480e-01 2.692522108554840088e-01 1.223279237747192383e-01 4.960540309548377991e-02
7.577000000000000000e+03 5.283837890625000000e+01 2.226027727127075195e+00 3.369143307209014893e-01 1.171164512634277344e+00 4.524236619472503662e-01 2.841022014617919922e-01
7.578000000000000000e+03 5.379746246337890625e+01 1.727552032470703125e+01 -1.958859711885452271e-01 4.817802608013153076e-01 8.576828241348266602e-02 -2.991984188556671143e-01
7.579000000000000000e+03 5.567456817626953125e+01 9.126030921936035156e+00 2.502109408378601074e-01 1.356055498123168945e+00 4.818799495697021484e-01 2.478882670402526855e-01
7.580000000000000000e+03 5.371285247802734375e+01 5.090582370758056641e+00 2.869411706924438477e-01 1.203049540519714355e+00 4.469972252845764160e-01 2.594717741012573242e-01
7.581000000000000000e+03 5.482302856445312500e+01 6.679382324218750000e+00 2.838135659694671631e-01 1.340171933174133301e+00 4.871956408023834229e-01 2.811683118343353271e-01
7.582000000000000000e+03 5.614881134033203125e+01 1.429013347625732422e+01 1.102702170610427856e-01 1.096265316009521484e+00 3.619606792926788330e-01 5.660931020975112915e-02
7.583000000000000000e+03 5.535882949829101562e+01 1.253538322448730469e+01 1.365528851747512817e-01 1.083917617797851562e+00 3.661411702632904053e-01 9.315061569213867188e-02
7.584000000000000000e+03 5.074332427978515625e+01 2.606788396835327148e+00 2.884397506713867188e-01 8.135878443717956543e-01 3.306082785129547119e-01 2.029611766338348389e-01
7.585000000000000000e+03 5.668887329101562500e+01 1.593474292755126953e+01 6.389905512332916260e-02 1.069648742675781250e+00 3.400643467903137207e-01 2.358445199206471443e-03
7.586000000000000000e+03 5.605059814453125000e+01 1.766340637207031250e+01 -7.584448158740997314e-02 8.168382644653320312e-01 2.222981303930282593e-01 -1.664828062057495117e-01
7.587000000000000000e+03 5.510589218139648438e+01 1.164600944519042969e+01 1.586936265230178833e-01 1.102337121963500977e+00 3.783092200756072998e-01 1.169015467166900635e-01
7.588000000000000000e+03 5.468158340454101562e+01 1.082013320922851562e+01 1.718134731054306030e-01 1.072541594505310059e+00 3.733065128326416016e-01 1.251851171255111694e-01
7.589000000000000000e+03 5.256857299804687500e+01 3.082006454467773438e+00 3.096894025802612305e-01 1.096187114715576172e+00 4.217629730701446533e-01 2.586698234081268311e-01
7.590000000000000000e+03 5.153920364379882812e+01 3.721068382263183594e+00 2.730342745780944824e-01 8.990335464477539062e-01 3.516203463077545166e-01 2.082061320543289185e-01
7.591000000000000000e+03 5.526504898071289062e+01 1.568811321258544922e+01 -1.349121425300836563e-02 8.289663195610046387e-01 2.446425408124923706e-01 -9.472250193357467651e-02
7.592000000000000000e+03 4.988645553588867188e+01 1.102782821655273438e+01 -8.305262774229049683e-02 2.781190276145935059e-01 5.851991474628448486e-02 -1.746165603399276733e-01
7.593000000000000000e+03 4.971923828125000000e+01 1.238503265380859375e+01 -1.631047725677490234e-01 1.747028827667236328e-01 3.479433013126254082e-03 -2.632486224174499512e-01
7.594000000000000000e+03 5.449090194702148438e+01 1.266850757598876953e+01 8.594683557748794556e-02 9.097408652305603027e-01 2.987063229084014893e-01 2.430322207510471344e-02
7.595000000000000000e+03 5.217871856689453125e+01 1.600296592712402344e+01 -2.221935838460922241e-01 3.038738071918487549e-01 2.450407110154628754e-02 -3.274767100811004639e-01
7.596000000000000000e+03 4.547925949096679688e+01 9.454387664794921875e+00 -2.569812834262847900e-01 -1.967433542013168335e-01 -1.361173987388610840e-01 -3.276392519474029541e-01
7.597000000000000000e+03 5.071769332885742188e+01 1.389490890502929688e+01 -1.899051368236541748e-01 2.213783413171768188e-01 9.441962465643882751e-03 -2.898705005645751953e-01
7.598000000000000000e+03 5.313122558593750000e+01 1.676480293273925781e+01 -2.178149223327636719e-01 3.984059393405914307e-01 5.417730659246444702e-02 -3.150644302368164062e-01
7.599000000000000000e+03 4.914163970947265625e+01 1.298533153533935547e+01 -2.339625209569931030e-01 4.552938789129257202e-02 -5.652993917465209961e-02 -3.409590125083923340e-01
7.600000000000000000e+03 5.217163085937500000e+01 5.587212085723876953e+00 2.347967922687530518e-01 9.230504631996154785e-01 3.473541736602783203e-01 1.857756376266479492e-01
7.601000000000000000e+03 4.826197433471679688e+01 1.085021114349365234e+01 -1.597595214843750000e-01 7.321584224700927734e-02 -2.596310339868068695e-02 -2.582183480262756348e-01
7.602000000000000000e+03 5.250045394897460938e+01 1.671585273742675781e+01 -2.525230050086975098e-01 3.104074299335479736e-01 1.736532710492610931e-02 -3.526462912559509277e-01
7.603000000000000000e+03 4.601573562622070312e+01 8.873872756958007812e+00 -1.922312676906585693e-01 -1.064227819442749023e-01 -8.959621191024780273e-02 -2.622244656085968018e-01
7.604000000000000000e+03 5.339720535278320312e+01 1.781507873535156250e+01 -2.695522606372833252e-01 3.766828179359436035e-01 3.213917091488838196e-02 -3.628519773483276367e-01
7.605000000000000000e+03 4.438050079345703125e+01 5.441138744354248047e+00 -9.158279746770858765e-02 -1.280673295259475708e-01 -6.589503586292266846e-02 -1.330254077911376953e-01
7.606000000000000000e+03 4.596230697631835938e+01 6.149652004241943359e+00 -4.336808994412422180e-02 1.466076634824275970e-02 -8.612196892499923706e-03 -1.103619784116744995e-01
7.607000000000000000e+03 5.643268203735351562e+01 1.726465988159179688e+01 -2.766147628426551819e-02 9.141215085983276367e-01 2.659380137920379639e-01 -1.051310300827026367e-01
7.608000000000000000e+03 5.434755706787109375e+01 7.441230297088623047e+00 2.490364611148834229e-01 1.207123756408691406e+00 4.368480443954467773e-01 2.303713709115982056e-01
7.609000000000000000e+03 5.450930404663085938e+01 1.657438087463378906e+01 -1.121827960014343262e-01 6.394431591033935547e-01 1.581781059503555298e-01 -2.038356214761734009e-01
7.610000000000000000e+03 5.282390213012695312e+01 1.365721511840820312e+01 -4.959763213992118835e-02 5.621279478073120117e-01 1.537590920925140381e-01 -1.449062675237655640e-01
7.611000000000000000e+03 5.301602935791015625e+01 4.942979335784912109e+00 2.754665613174438477e-01 1.098473310470581055e+00 4.121819734573364258e-01 2.406806945800781250e-01
7.612000000000000000e+03 5.531327819824218750e+01 1.716246223449707031e+01 -9.404761344194412231e-02 7.323157191276550293e-01 1.914804428815841675e-01 -1.843104213476181030e-01
7.613000000000000000e+03 5.541357040405273438e+01 1.418542861938476562e+01 7.229392230510711670e-02 9.715574383735656738e-01 3.131554126739501953e-01 8.177706971764564514e-03
7.614000000000000000e+03 5.464765167236328125e+01 1.342383098602294922e+01 6.701976805925369263e-02 8.924233913421630859e-01 2.878329455852508545e-01 -5.048493854701519012e-03
7.615000000000000000e+03 4.773318862915039062e+01 9.838438987731933594e+00 -1.479332596063613892e-01 4.532352834939956665e-02 -3.078291937708854675e-02 -2.328485548496246338e-01
7.616000000000000000e+03 4.976528167724609375e+01 1.173579502105712891e+01 -1.227430701255798340e-01 2.182628065347671509e-01 2.865592204034328461e-02 -2.229261696338653564e-01
7.617000000000000000e+03 5.511352157592773438e+01 8.229084968566894531e+00 2.504941225051879883e-01 1.296443700790405273e+00 4.640813469886779785e-01 2.475853413343429565e-01
7.618000000000000000e+03 5.169682312011718750e+01 2.829168081283569336e+00 3.026207387447357178e-01 9.578723907470703125e-01 3.781479299068450928e-01 2.323607802391052246e-01
7.619000000000000000e+03 5.237854003906250000e+01 3.924736022949218750e+00 2.861571609973907471e-01 1.030537724494934082e+00 3.950084745883941650e-01 2.374347597360610962e-01
7.620000000000000000e+03 4.863776397705078125e+01 3.782971143722534180e+00 1.883494406938552856e-01 4.576626420021057129e-01 1.938036233186721802e-01 9.655272215604782104e-02
7.621000000000000000e+03 5.614677429199218750e+01 7.750358581542968750e+00 2.893515825271606445e-01 1.533253550529479980e+00 5.467815399169921875e-01 3.160876929759979248e-01
7.622000000000000000e+03 5.296131896972656250e+01 5.758623123168945312e+00 2.536212503910064697e-01 1.048293232917785645e+00 3.905743360519409180e-01 2.108308225870132446e-01
7.623000000000000000e+03 5.113277435302734375e+01 1.200588607788085938e+01 -6.039388477802276611e-02 4.010063707828521729e-01 1.021837517619132996e-01 -1.557373702526092529e-01
7.624000000000000000e+03 5.038182830810546875e+01 1.247505664825439453e+01 -1.276097893714904785e-01 2.608474195003509521e-01 3.997129201889038086e-02 -2.274436205625534058e-01
7.625000000000000000e+03 5.029692840576171875e+01 1.308048820495605469e+01 -1.692355126142501831e-01 2.088266015052795410e-01 1.187732815742492676e-02 -2.714141905307769775e-01
7.626000000000000000e+03 5.047687530517578125e+01 1.184926891326904297e+01 -8.885289728641510010e-02 3.167917728424072266e-01 6.838166713714599609e-02 -1.857181042432785034e-01
7.627000000000000000e+03 4.645750427246093750e+01 9.150281906127929688e+00 -1.821796149015426636e-01 -6.909949332475662231e-02 -7.538373768329620361e-02 -2.614008784294128418e-01
7.628000000000000000e+03 5.225023269653320312e+01 1.520344924926757812e+01 -1.626760810613632202e-01 3.720995187759399414e-01 6.282702833414077759e-02 -2.689680159091949463e-01
7.629000000000000000e+03 5.464757156372070312e+01 1.551293849945068359e+01 -4.486761242151260376e-02 7.393361926078796387e-01 2.083405703306198120e-01 -1.270885765552520752e-01
7.630000000000000000e+03 5.173776626586914062e+01 1.382336902618408203e+01 -1.252239346504211426e-01 3.647532165050506592e-01 7.185878604650497437e-02 -2.259417027235031128e-01
7.631000000000000000e+03 5.227633666992187500e+01 1.361466503143310547e+01 -7.122629880905151367e-02 4.933928847312927246e-01 1.266499757766723633e-01 -1.676360815763473511e-01
7.632000000000000000e+03 5.092011260986328125e+01 1.324598407745361328e+01 -1.402163356542587280e-01 2.925217747688293457e-01 4.569163545966148376e-02 -2.408875077962875366e-01
7.633000000000000000e+03 5.470381927490234375e+01 1.729814147949218750e+01 -1.426683813333511353e-01 6.164584159851074219e-01 1.421370059251785278e-01 -2.396290749311447144e-01
7.634000000000000000e+03 5.260074615478515625e+01 1.616617393493652344e+01 -2.061094641685485840e-01 3.629752397537231445e-01 4.705972969532012939e-02 -3.082095384597778320e-01
7.635000000000000000e+03 5.301569747924804688e+01 1.555819416046142578e+01 -1.406651288270950317e-01 4.640158712863922119e-01 9.700521826744079590e-02 -2.443711608648300171e-01
7.636000000000000000e+03 4.683870697021484375e+01 8.722854614257812500e+00 -1.328948289155960083e-01 9.686682373285293579e-03 -3.696244210004806519e-02 -2.112944275140762329e-01
7.637000000000000000e+03 5.488484573364257812e+01 9.600516319274902344e+00 2.120198607444763184e-01 1.179841160774230957e+00 4.175582826137542725e-01 1.874519437551498413e-01
7.638000000000000000e+03 5.537225723266601562e+01 1.493663215637207031e+01 3.596424683928489685e-02 9.097186326980590820e-01 2.837048470973968506e-01 -3.756655380129814148e-02
7.639000000000000000e+03 5.420413589477539062e+01 1.189238262176513672e+01 1.065385192632675171e-01 9.083614349365234375e-01 3.044700026512145996e-01 4.138344526290893555e-02
7.640000000000000000e+03 5.428496170043945312e+01 8.832133293151855469e+00 2.064749002456665039e-01 1.113436818122863770e+00 3.959735035896301270e-01 1.796465814113616943e-01
7.641000000000000000e+03 5.252385330200195312e+01 1.569575881958007812e+01 -1.782872229814529419e-01 3.841305971145629883e-01 6.175301223993301392e-02 -2.824981510639190674e-01
7.642000000000000000e+03 4.598292160034179688e+01 4.942977905273437500e+00 2.078367210924625397e-02 6.498815119266510010e-02 2.573154494166374207e-02 -4.572721570730209351e-02
7.643000000000000000e+03 5.312023162841796875e+01 1.317271423339843750e+01 -7.547750137746334076e-03 6.408573985099792480e-01 1.899928897619247437e-01 -9.662002325057983398e-02
7.644000000000000000e+03 5.101308059692382812e+01 1.260266017913818359e+01 -9.695530682802200317e-02 3.514293134212493896e-01 7.634220272302627563e-02 -1.964191347360610962e-01
7.645000000000000000e+03 4.658676910400390625e+01 4.344239711761474609e+00 8.324138820171356201e-02 1.644664555788040161e-01 7.431235164403915405e-02 1.061824266798794270e-03
7.646000000000000000e+03 4.728301620483398438e+01 9.303474426269531250e+00 -1.337634027004241943e-01 2.684601396322250366e-02 -3.207521513104438782e-02 -2.243734449148178101e-01
7.647000000000000000e+03 4.924209594726562500e+01 1.009123420715332031e+01 -7.105445861816406250e-02 2.449821680784225464e-01 5.217831209301948547e-02 -1.591093242168426514e-01
7.648000000000000000e+03 4.782465744018554688e+01 4.349265575408935547e+00 1.333687156438827515e-01 3.186666369438171387e-01 1.356106102466583252e-01 4.320162534713745117e-02
7.649000000000000000e+03 4.961223220825195312e+01 6.634650230407714844e+00 9.938697516918182373e-02 4.807602465152740479e-01 1.740441769361495972e-01 3.619905933737754822e-02
7.650000000000000000e+03 5.145610046386718750e+01 4.584725379943847656e+00 2.435938566923141479e-01 8.493283390998840332e-01 3.278766572475433350e-01 1.835185438394546509e-01
7.651000000000000000e+03 5.539844512939453125e+01 1.040229129791259766e+01 2.101264446973800659e-01 1.226954936981201172e+00 4.311244189739227295e-01 1.861345469951629639e-01
7.652000000000000000e+03 5.380709457397460938e+01 1.671126365661621094e+01 -1.711793392896652222e-01 5.148270726203918457e-01 1.030943244695663452e-01 -2.654391825199127197e-01
7.653000000000000000e+03 5.062976455688476562e+01 1.119540119171142578e+01 -4.761561751365661621e-02 3.794790208339691162e-01 9.955902397632598877e-02 -1.404480934143066406e-01
7.654000000000000000e+03 4.909449386596679688e+01 1.091463565826416016e+01 -1.208379864692687988e-01 1.776520609855651855e-01 1.704422384500503540e-02 -2.172310650348663330e-01
7.655000000000000000e+03 5.065262985229492188e+01 5.290790081024169922e+00 1.928721368312835693e-01 6.849399805068969727e-01 2.633436322212219238e-01 1.222613602876663208e-01
7.656000000000000000e+03 5.521932220458984375e+01 1.644697952270507812e+01 -6.156866252422332764e-02 7.707546949386596680e-01 2.127557992935180664e-01 -1.453289389610290527e-01
7.657000000000000000e+03 5.217618179321289062e+01 1.419332122802734375e+01 -1.211148723959922791e-01 4.228695631027221680e-01 9.052640199661254883e-02 -2.176201492547988892e-01
7.658000000000000000e+03 5.157958221435546875e+01 1.080529785156250000e+01 1.823203824460506439e-02 5.489792227745056152e-01 1.701633781194686890e-01 -6.471034884452819824e-02
7.659000000000000000e+03 5.369462966918945312e+01 1.608232498168945312e+01 -1.304866969585418701e-01 5.378835201263427734e-01 1.222190409898757935e-01 -2.316325008869171143e-01
7.660000000000000000e+03 4.970401000976562500e+01 1.297225570678710938e+01 -2.052208632230758667e-01 1.309973001480102539e-01 -2.226706966757774353e-02 -3.058545589447021484e-01
7.661000000000000000e+03 4.731267929077148438e+01 7.728888034820556641e+00 -5.913685634732246399e-02 1.123207435011863708e-01 1.595516502857208252e-02 -1.339294910430908203e-01
7.662000000000000000e+03 4.796296691894531250e+01 6.940350532531738281e+00 1.375205442309379578e-02 2.262808829545974731e-01 7.200988382101058960e-02 -6.190197542309761047e-02
7.663000000000000000e+03 4.993536376953125000e+01 5.291754722595214844e+00 1.720897108316421509e-01 5.793522000312805176e-01 2.254325747489929199e-01 9.480302780866622925e-02
7.664000000000000000e+03 5.265530014038085938e+01 7.552783012390136719e+00 1.928317844867706299e-01 9.108596444129943848e-01 3.311074078083038330e-01 1.435650736093521118e-01
7.665000000000000000e+03 4.899385833740234375e+01 4.666582584381103516e+00 1.659648567438125610e-01 4.774673581123352051e-01 1.930296719074249268e-01 7.927846908569335938e-02
7.666000000000000000e+03 4.979009628295898438e+01 4.475105762481689453e+00 1.931116133928298950e-01 5.878850221633911133e-01 2.342989891767501831e-01 1.148266196250915527e-01
7.667000000000000000e+03 5.410250854492187500e+01 1.482318592071533203e+01 -3.846802935004234314e-02 6.949439644813537598e-01 1.969427764415740967e-01 -1.253658235073089600e-01
7.668000000000000000e+03 5.395451354980468750e+01 1.353108787536621094e+01 2.053740248084068298e-02 7.573056817054748535e-01 2.333529144525527954e-01 -6.017692387104034424e-02
7.669000000000000000e+03 5.472481536865234375e+01 1.484963417053222656e+01 5.536139011383056641e-03 8.032560944557189941e-01 2.426376640796661377e-01 -7.625049352645874023e-02
7.670000000000000000e+03 4.653889083862304688e+01 5.534343719482421875e+00 2.049862220883369446e-02 1.151187345385551453e-01 4.068520665168762207e-02 -5.517815053462982178e-02
7.671000000000000000e+03 5.374430847167968750e+01 1.287728595733642578e+01 3.939498960971832275e-02 7.701142430305480957e-01 2.428527623414993286e-01 -3.636253625154495239e-02
7.672000000000000000e+03 5.311536407470703125e+01 1.615095520019531250e+01 -1.767421364784240723e-01 4.393116533756256104e-01 7.877085357904434204e-02 -2.773382365703582764e-01
7.673000000000000000e+03 5.428883361816406250e+01 1.593959331512451172e+01 -8.859242498874664307e-02 6.565892100334167480e-01 1.703990399837493896e-01 -1.795132309198379517e-01
7.674000000000000000e+03 5.225556564331054688e+01 4.761422634124755859e+00 2.603228688240051270e-01 9.742855429649353027e-01 3.703825175762176514e-01 2.107851654291152954e-01
7.675000000000000000e+03 5.140153884887695312e+01 5.403523921966552734e+00 2.154673188924789429e-01 7.974132299423217773e-01 3.038641810417175293e-01 1.523984074592590332e-01
7.676000000000000000e+03 5.360643768310546875e+01 9.426218986511230469e+00 1.662531793117523193e-01 9.662724137306213379e-01 3.397576808929443359e-01 1.179628372192382812e-01
7.677000000000000000e+03 5.420233154296875000e+01 1.008419418334960938e+01 1.681011617183685303e-01 1.024068593978881836e+00 3.576509356498718262e-01 1.252053081989288330e-01
7.678000000000000000e+03 4.838470077514648438e+01 1.005698680877685547e+01 -1.213149130344390869e-01 1.329559981822967529e-01 3.492326010018587112e-03 -2.078947275876998901e-01
7.679000000000000000e+03 5.008686828613281250e+01 1.027661991119384766e+01 -3.208521753549575806e-02 3.545677363872528076e-01 9.674475342035293579e-02 -1.230027377605438232e-01
7.680000000000000000e+03 4.714268875122070312e+01 4.932337760925292969e+00 7.573767006397247314e-02 2.115579992532730103e-01 8.618870377540588379e-02 -3.153145313262939453e-03
7.681000000000000000e+03 4.773388290405273438e+01 8.950228691101074219e+00 -9.303002804517745972e-02 1.025914549827575684e-01 2.868428127840161324e-03 -1.773714125156402588e-01
7.682000000000000000e+03 5.354806137084960938e+01 8.106184005737304688e+00 2.049062252044677734e-01 1.029424548149108887e+00 3.702992200851440430e-01 1.666684299707412720e-01
7.683000000000000000e+03 5.388914489746093750e+01 6.629818439483642578e+00 2.507233321666717529e-01 1.152244567871093750e+00 4.208903610706329346e-01 2.299515902996063232e-01
7.684000000000000000e+03 5.284018707275390625e+01 1.494957828521728516e+01 -1.193233281373977661e-01 4.791855514049530029e-01 1.079586669802665710e-01 -2.186018526554107666e-01
7.685000000000000000e+03 5.164144515991210938e+01 1.271929550170898438e+01 -6.619040668010711670e-02 4.356015026569366455e-01 1.108233258128166199e-01 -1.589302420616149902e-01
7.686000000000000000e+03 5.210749435424804688e+01 1.304278564453125000e+01 -5.928663909435272217e-02 4.933305382728576660e-01 1.302131712436676025e-01 -1.506625562906265259e-01
7.687000000000000000e+03 5.129621505737304688e+01 7.901041984558105469e+00 1.267882436513900757e-01 6.619598269462585449e-01 2.366244196891784668e-01 5.573857948184013367e-02
7.688000000000000000e+03 5.086416625976562500e+01 1.051458835601806641e+01 -4.551764577627182007e-03 4.531873166561126709e-01 1.345906704664230347e-01 -8.823028206825256348e-02
7.689000000000000000e+03 5.405678176879882812e+01 1.419054603576660156e+01 1.358337583951652050e-03 7.351281642913818359e-01 2.209459543228149414e-01 -8.885717391967773438e-02
7.690000000000000000e+03 5.341647338867187500e+01 1.425942516326904297e+01 -4.647668451070785522e-02 6.255084872245788574e-01 1.737095415592193604e-01 -1.381331384181976318e-01
7.691000000000000000e+03 5.412388992309570312e+01 1.540970897674560547e+01 -7.379429787397384644e-02 6.630584597587585449e-01 1.767792403697967529e-01 -1.585401892662048340e-01
7.692000000000000000e+03 5.471870422363281250e+01 1.415542888641357422e+01 3.546271845698356628e-02 8.509607315063476562e-01 2.659270465373992920e-01 -3.969007357954978943e-02
7.693000000000000000e+03 5.271194458007812500e+01 1.264782810211181641e+01 -5.755551625043153763e-03 6.079175472259521484e-01 1.806485950946807861e-01 -9.433989971876144409e-02
7.694000000000000000e+03 5.176659011840820312e+01 1.217741107940673828e+01 -3.672215715050697327e-02 4.889696538448333740e-01 1.356742531061172485e-01 -1.265702098608016968e-01
7.695000000000000000e+03 4.738119125366210938e+01 8.421557426452636719e+00 -8.998753130435943604e-02 8.135893195867538452e-02 -2.588580129668116570e-03 -1.665156781673431396e-01
7.696000000000000000e+03 4.709158706665039062e+01 6.070212364196777344e+00 2.015374042093753815e-02 1.615127772092819214e-01 5.449995398521423340e-02 -5.759889259934425354e-02
7.697000000000000000e+03 4.925870513916015625e+01 5.425882816314697266e+00 1.369200646877288818e-01 4.792030751705169678e-01 1.848369389772415161e-01 6.224467977881431580e-02
7.698000000000000000e+03 4.827270507812500000e+01 5.035459518432617188e+00 1.202396824955940247e-01 3.594294786453247070e-01 1.439007520675659180e-01 3.501810133457183838e-02
7.699000000000000000e+03 5.362221145629882812e+01 1.052697467803955078e+01 1.359950453042984009e-01 9.079859256744384766e-01 3.131942749023437500e-01 7.358115911483764648e-02
7.700000000000000000e+03 5.347945404052734375e+01 1.486678600311279297e+01 -7.811976224184036255e-02 5.994803905487060547e-01 1.564081907272338867e-01 -1.706887781620025635e-01
7.701000000000000000e+03 5.357351684570312500e+01 1.547502326965332031e+01 -1.060739532113075256e-01 5.697173476219177246e-01 1.390930116176605225e-01 -1.978576481342315674e-01
7.702000000000000000e+03 4.823175811767578125e+01 9.415370941162109375e+00 -8.240762352943420410e-02 1.546188741922378540e-01 2.166337333619594574e-02 -1.785299777984619141e-01
7.703000000000000000e+03 5.211714553833007812e+01 8.346730232238769531e+00 1.407373249530792236e-01 7.702347636222839355e-01 2.732916176319122314e-01 7.860511541366577148e-02
7.704000000000000000e+03 5.304503250122070312e+01 1.001269054412841797e+01 1.234026476740837097e-01 8.303405046463012695e-01 2.861229479312896729e-01 6.406916677951812744e-02
7.705000000000000000e+03 5.065380859375000000e+01 6.029758453369140625e+00 1.687553524971008301e-01 6.507579088211059570e-01 2.458539754152297974e-01 9.782199561595916748e-02
7.706000000000000000e+03 5.205841827392578125e+01 6.396203994750976562e+00 2.024826556444168091e-01 8.572333455085754395e-01 3.179147839546203613e-01 1.498283892869949341e-01
7.707000000000000000e+03 5.290895462036132812e+01 8.842463493347167969e+00 1.514123082160949707e-01 8.726368546485900879e-01 3.072147369384765625e-01 1.043049693107604980e-01
7.708000000000000000e+03 5.130974578857421875e+01 1.141018676757812500e+01 -1.928016543388366699e-02 4.691371619701385498e-01 1.349570900201797485e-01 -1.079194918274879456e-01
7.709000000000000000e+03 5.335726928710937500e+01 1.367120838165283203e+01 -1.594313979148864746e-02 6.539303064346313477e-01 1.913961470127105713e-01 -1.050714999437332153e-01
7.710000000000000000e+03 5.224540710449218750e+01 1.116310882568359375e+01 3.474556654691696167e-02 6.248255968093872070e-01 1.978713572025299072e-01 -4.441002011299133301e-02
7.711000000000000000e+03 4.815823364257812500e+01 7.928012847900390625e+00 -2.152392454445362091e-02 2.117627710103988647e-01 5.707165226340293884e-02 -1.038294583559036255e-01
7.712000000000000000e+03 5.288698577880859375e+01 1.161775493621826172e+01 4.991522431373596191e-02 7.085896730422973633e-01 2.275514751672744751e-01 -2.382256090641021729e-02
7.713000000000000000e+03 4.763910293579101562e+01 5.511026382446289062e+00 7.356500625610351562e-02 2.504402101039886475e-01 9.720156341791152954e-02 -1.297640148550271988e-02
7.714000000000000000e+03 4.761020660400390625e+01 6.490864276885986328e+00 1.960020139813423157e-02 2.017096281051635742e-01 6.639295071363449097e-02 -5.731030553579330444e-02
7.715000000000000000e+03 4.863286590576171875e+01 5.690484523773193359e+00 1.033418476581573486e-01 3.852666020393371582e-01 1.465825438499450684e-01 2.587195299565792084e-02
7.716000000000000000e+03 5.003873825073242188e+01 6.002254962921142578e+00 1.425292938947677612e-01 5.675666332244873047e-01 2.130287885665893555e-01 7.085640728473663330e-02
7.717000000000000000e+03 5.007139205932617188e+01 6.644957065582275391e+00 1.187869459390640259e-01 5.537902712821960449e-01 2.017731666564941406e-01 4.547091573476791382e-02
7.718000000000000000e+03 5.375356292724609375e+01 5.789003372192382812e+00 2.745994627475738525e-01 1.176327109336853027e+00 4.352779686450958252e-01 2.468549907207489014e-01
7.719000000000000000e+03 5.293850708007812500e+01 6.650654315948486328e+00 2.243695706129074097e-01 1.002130270004272461e+00 3.679499626159667969e-01 1.832763701677322388e-01
7.720000000000000000e+03 4.952172470092773438e+01 9.228138923645019531e+00 -1.651402935385704041e-02 3.302917182445526123e-01 9.413331001996994019e-02 -9.971432387828826904e-02
7.721000000000000000e+03 5.236853027343750000e+01 9.524083137512207031e+00 1.129888817667961121e-01 7.412753701210021973e-01 2.562792599201202393e-01 4.541518539190292358e-02
7.722000000000000000e+03 4.946122360229492188e+01 6.083392143249511719e+00 1.199515759944915771e-01 4.796227216720581055e-01 1.798722892999649048e-01 4.394455999135971069e-02
7.723000000000000000e+03 5.277508926391601562e+01 1.430385017395019531e+01 -9.459450840950012207e-02 5.090521574020385742e-01 1.243372857570648193e-01 -1.882934123277664185e-01
7.724000000000000000e+03 4.871137237548828125e+01 8.889154434204101562e+00 -3.967449814081192017e-02 2.462012320756912231e-01 6.195801869034767151e-02 -1.248461082577705383e-01
7.725000000000000000e+03 4.897257232666015625e+01 8.174353599548339844e+00 1.564074493944644928e-02 3.183379769325256348e-01 1.001936197280883789e-01 -6.971400231122970581e-02
7.726000000000000000e+03 5.260788726806640625e+01 1.059947586059570312e+01 8.147843182086944580e-02 7.106257081031799316e-01 2.376312464475631714e-01 7.467445917427539825e-03
7.727000000000000000e+03 5.077696228027343750e+01 8.668280601501464844e+00 7.213136553764343262e-02 5.440161228179931641e-01 1.848442405462265015e-01 -5.121118854731321335e-03
7.728000000000000000e+03 5.191620254516601562e+01 1.166421985626220703e+01 3.165728179737925529e-03 5.539141893386840820e-01 1.671239733695983887e-01 -8.792325109243392944e-02
7.729000000000000000e+03 4.892381286621093750e+01 6.285593986511230469e+00 8.647920936346054077e-02 3.985346257686614990e-01 1.455041468143463135e-01 1.319120079278945923e-02
7.730000000000000000e+03 5.038628005981445312e+01 9.491185188293457031e+00 1.624418981373310089e-02 4.398373365402221680e-01 1.368244588375091553e-01 -6.457060575485229492e-02
7.731000000000000000e+03 4.986990737915039062e+01 8.361856460571289062e+00 5.093372985720634460e-02 4.331922531127929688e-01 1.452378034591674805e-01 -3.321090340614318848e-02
7.732000000000000000e+03 4.898794174194335938e+01 7.552752494812011719e+00 3.296240419149398804e-02 3.465845584869384766e-01 1.138640940189361572e-01 -4.530415683984756470e-02
7.733000000000000000e+03 5.131910324096679688e+01 6.163165569305419922e+00 1.836699992418289185e-01 7.497469186782836914e-01 2.800250649452209473e-01 1.236213594675064087e-01
7.734000000000000000e+03 4.836908340454101562e+01 7.392073631286621094e+00 1.742983795702457428e-02 2.628409564495086670e-01 8.408123999834060669e-02 -6.830161064863204956e-02
7.735000000000000000e+03 5.160850143432617188e+01 9.083934783935546875e+00 9.291242808103561401e-02 6.526669263839721680e-01 2.236738055944442749e-01 2.257731370627880096e-02
7.736000000000000000e+03 5.192895126342773438e+01 1.017845249176025391e+01 6.267482787370681763e-02 6.363042593002319336e-01 2.096937298774719238e-01 -1.252685952931642532e-02
7.737000000000000000e+03 5.114549255371093750e+01 6.848332405090332031e+00 1.564846634864807129e-01 6.971130371093750000e-01 2.560793161392211914e-01 9.572666883468627930e-02
7.738000000000000000e+03 5.002293777465820312e+01 7.572416782379150391e+00 8.187260478734970093e-02 4.947867393493652344e-01 1.729978024959564209e-01 5.612269975244998932e-03
7.739000000000000000e+03 5.059476852416992188e+01 6.713316440582275391e+00 1.338886022567749023e-01 6.001971364021301270e-01 2.202257066965103149e-01 6.442382931709289551e-02
7.740000000000000000e+03 5.118912887573242188e+01 9.809220314025878906e+00 4.374929890036582947e-02 5.442548990249633789e-01 1.764012575149536133e-01 -3.760541230440139771e-02
7.741000000000000000e+03 5.071947097778320312e+01 7.362193584442138672e+00 1.189411580562591553e-01 5.954744815826416016e-01 2.143246829509735107e-01 4.821234196424484253e-02
7.742000000000000000e+03 4.947433853149414062e+01 7.338003635406494141e+00 7.030010223388671875e-02 4.149766266345977783e-01 1.455830186605453491e-01 -7.332166191190481186e-03
7.743000000000000000e+03 6.001620101928710938e+01 -2.560628700256347656e+01 6.168539822101593018e-02 2.956300258636474609e+00 9.053957462310791016e-01 2.671357095241546631e-01
7.744000000000000000e+03 1.297290229797363281e+01 3.443832015991210938e+01 -8.587011136114597321e-03 6.476769689470529556e-03 -6.330725154839456081e-04 -2.849483280442655087e-04
7.745000000000000000e+03 2.568821525573730469e+01 -3.561831283569335938e+01 4.692594408988952637e-01 2.748548090457916260e-01 2.232342809438705444e-01 -2.614898979663848877e-01
7.746000000000000000e+03 6.736190795898437500e+01 -3.454415512084960938e+01 1.021861061453819275e-01 4.037381172180175781e+00 1.241870164871215820e+00 1.541719734668731689e-01
7.747000000000000000e+03 8.057141304016113281e+00 4.124497985839843750e+01 -5.511254072189331055e-03 -4.888924583792686462e-02 -1.632014848291873932e-02 -6.821737624704837799e-04
7.748000000000000000e+03 6.022312545776367188e+01 -1.485307884216308594e+01 1.970997452735900879e-01 2.928324222564697266e+00 9.376271963119506836e-01 3.045985102653503418e-01
7.749000000000000000e+03 6.909611701965332031e+00 -3.848845672607421875e+01 5.266347154974937439e-02 -1.103418469429016113e+00 -3.152265250682830811e-01 -5.921100825071334839e-02
7.750000000000000000e+03 5.819208908081054688e+01 -2.822332572937011719e+01 5.322640389204025269e-02 2.675225019454956055e+00 8.185353875160217285e-01 2.858657836914062500e-01
7.751000000000000000e+03 5.173207092285156250e+01 -3.142707633972167969e+01 4.678432643413543701e-02 1.682419896125793457e+00 5.187612771987915039e-01 3.290862143039703369e-01
7.752000000000000000e+03 5.247631835937500000e+01 -2.707007217407226562e+01 -1.002412848174571991e-02 1.749739885330200195e+00 5.219147205352783203e-01 2.269965261220932007e-01
7.753000000000000000e+03 1.500423145294189453e+01 -3.061952972412109375e+01 1.848045885562896729e-01 -4.654637277126312256e-01 -8.419773727655410767e-02 -2.409109175205230713e-01
7.754000000000000000e+03 1.654983711242675781e+01 -3.219590759277343750e+01 2.195980399847030640e-01 -3.211171627044677734e-01 -3.045574016869068146e-02 -2.243848294019699097e-01
7.755000000000000000e+03 1.284636783599853516e+01 -2.862278366088867188e+01 1.678765267133712769e-01 -5.860503911972045898e-01 -1.254521608352661133e-01 -2.639468014240264893e-01
7.756000000000000000e+03 6.097772979736328125e+01 -3.073416137695312500e+01 1.078169047832489014e-01 3.100415229797363281e+00 9.624696373939514160e-01 2.838852703571319580e-01
7.757000000000000000e+03 6.533459472656250000e+01 -2.849874687194824219e+01 6.853125989437103271e-02 3.819945096969604492e+00 1.166542887687683105e+00 2.238733470439910889e-01
7.758000000000000000e+03 2.205243301391601562e+01 3.559332275390625000e+01 3.888900391757488251e-03 6.612802296876907349e-02 2.100507542490959167e-02 1.803101226687431335e-02
7.759000000000000000e+03 5.806732940673828125e+01 -2.350036048889160156e+01 7.623435556888580322e-02 2.644944190979003906e+00 8.163534998893737793e-01 2.607776224613189697e-01
7.760000000000000000e+03 1.207151889801025391e+01 -3.456004333496093750e+01 1.494444757699966431e-01 -6.635615825653076172e-01 -1.542351245880126953e-01 -1.565589010715484619e-01
7.761000000000000000e+03 5.319513702392578125e+01 -4.072478485107421875e+01 7.548094391822814941e-01 1.605200290679931641e+00 7.080029249191284180e-01 1.227078810334205627e-01
7.762000000000000000e+03 5.110964965820312500e+01 -3.668708419799804688e+01 4.999846220016479492e-01 1.461219549179077148e+00 5.883612632751464844e-01 4.480106532573699951e-01
7.763000000000000000e+03 1.556683063507080078e+01 -3.691946792602539062e+01 2.172443270683288574e-01 -4.181562662124633789e-01 -6.027358025312423706e-02 -1.347890943288803101e-01
7.764000000000000000e+03 2.784400939941406250e+01 -3.863316345214843750e+01 6.099327206611633301e-01 3.157739043235778809e-01 2.777119874954223633e-01 -1.999942362308502197e-01
7.765000000000000000e+03 2.761930274963378906e+01 -4.119733810424804688e+01 6.106155514717102051e-01 2.898013591766357422e-01 2.701250910758972168e-01 -4.710269719362258911e-02
7.766000000000000000e+03 6.187148284912109375e+01 -3.387626266479492188e+01 1.758374124765396118e-01 3.226212978363037109e+00 1.020615100860595703e+00 2.255027890205383301e-01
7.767000000000000000e+03 6.245613861083984375e+01 -3.741263961791992188e+01 2.295862734317779541e-01 3.264917135238647461e+00 1.048351049423217773e+00 1.388527601957321167e-01
7.768000000000000000e+03 2.624807929992675781e+01 3.812582778930664062e+01 1.679944992065429688e-02 7.451939582824707031e-02 2.739565260708332062e-02 1.622977294027805328e-02
7.769000000000000000e+03 8.607288360595703125e+00 3.882259750366210938e+01 -5.591336172074079514e-03 -4.094231501221656799e-02 -1.396009605377912521e-02 -3.101066919043660164e-03
7.770000000000000000e+03 1.490919589996337891e+01 3.648543167114257812e+01 -7.998979650437831879e-03 2.187854610383510590e-02 4.163870122283697128e-03 3.028860781341791153e-03
7.771000000000000000e+03 1.808661460876464844e+01 3.795225524902343750e+01 -4.474798683077096939e-03 4.157944768667221069e-02 1.113139465451240540e-02 5.342524033039808273e-03
7.772000000000000000e+03 6.337884521484375000e+01 -2.980529594421386719e+01 9.188264608383178711e-02 3.456853389739990234e+00 1.064620852470397949e+00 2.427517771720886230e-01
7.773000000000000000e+03 2.034369850158691406e+01 -3.484326934814453125e+01 3.186413049697875977e-01 -4.917009174823760986e-02 8.084136247634887695e-02 -2.084401249885559082e-01
7.774000000000000000e+03 5.430110931396484375e+01 -2.538004493713378906e+01 2.014399133622646332e-02 2.048053503036499023e+00 6.204592585563659668e-01 2.266385257244110107e-01
7.775000000000000000e+03 5.602628707885742188e+01 -2.806304359436035156e+01 3.468639403581619263e-02 2.352151393890380859e+00 7.160513401031494141e-01 2.715672552585601807e-01
7.776000000000000000e+03 5.811308288574218750e+01 -2.572306060791015625e+01 5.314834788441658020e-02 2.669919729232788086e+00 8.169203996658325195e-01 2.657694220542907715e-01
7.777000000000000000e+03 1.088408851623535156e+01 3.581380081176757812e+01 -7.933894172310829163e-03 -1.422548014670610428e-02 -6.647812668234109879e-03 -4.304671194404363632e-03
7.778000000000000000e+03 1.457474517822265625e+01 -3.393466567993164062e+01 1.833456307649612427e-01 -4.899457395076751709e-01 -9.198003262281417847e-02 -1.858296394348144531e-01
7.779000000000000000e+03 5.825263214111328125e+01 -3.107385826110839844e+01 1.180372089147567749e-01 2.687160015106201172e+00 8.415591716766357422e-01 2.910236418247222900e-01
7.780000000000000000e+03 5.830440139770507812e+01 -3.423598861694335938e+01 2.374948561191558838e-01 2.620898723602294922e+00 8.575180172920227051e-01 2.810107171535491943e-01
7.781000000000000000e+03 5.060884857177734375e+01 3.792481994628906250e+01 1.818085312843322754e-01 3.562258929014205933e-02 6.522933393716812134e-02 7.748647779226303101e-02
7.782000000000000000e+03 4.725903320312500000e+01 3.643764495849609375e+01 1.275528371334075928e-01 6.144163757562637329e-02 5.669834464788436890e-02 8.548176288604736328e-02
7.783000000000000000e+03 4.697012710571289062e+01 3.623509216308593750e+01 1.091268435120582581e-01 5.946303904056549072e-02 5.057696625590324402e-02 7.864955812692642212e-02
7.784000000000000000e+03 4.070255661010742188e+01 3.172597885131835938e+01 6.905717402696609497e-02 5.856646224856376648e-02 3.828709200024604797e-02 6.292442232370376587e-02
7.785000000000000000e+03 1.313327312469482422e+01 2.174850463867187500e+00 1.328410506248474121e+00 1.337873101234436035e+00 7.998850941658020020e-01 -8.196537494659423828e-01
7.786000000000000000e+03 1.728294372558593750e+01 -2.212561130523681641e+00 -2.013459682464599609e+00 -1.317949652671813965e+00 -9.994227886199951172e-01 -1.174783587455749512e+00
7.787000000000000000e+03 1.751497650146484375e+01 -2.141358613967895508e+00 -2.055187463760375977e+00 -1.513799667358398438e+00 -1.070696234703063965e+00 -1.234932303428649902e+00
7.788000000000000000e+03 1.901598167419433594e+01 -6.562117338180541992e-01 -2.298317193984985352e+00 -2.644308090209960938e+00 -1.482787609100341797e+00 -1.816306471824645996e+00
7.789000000000000000e+03 1.916552543640136719e+01 -5.755553841590881348e-01 -2.546237230300903320e+00 -3.257262229919433594e+00 -1.741049885749816895e+00 -2.038865089416503906e+00
7.790000000000000000e+03 2.043238830566406250e+01 2.131972759962081909e-01 -1.944295287132263184e+00 -2.751361608505249023e+00 -1.408697009086608887e+00 -3.563962221145629883e+00
7.791000000000000000e+03 2.056710624694824219e+01 3.117841780185699463e-01 -1.561469912528991699e+00 -2.302619695663452148e+00 -1.159226894378662109e+00 -3.847869873046875000e+00
7.792000000000000000e+03 2.126250839233398438e+01 6.810147762298583984e-01 -2.265053749084472656e+00 -8.475871086120605469e-01 -9.337922334671020508e-01 -3.296013355255126953e+00
7.793000000000000000e+03 2.143723869323730469e+01 5.174050331115722656e-01 -2.236526250839233398e+00 -5.590612888336181641e-01 -8.386762738227844238e-01 -2.995684146881103516e+00
7.794000000000000000e+03 2.142292785644531250e+01 7.743903398513793945e-01 -2.394883155822753906e+00 -1.000419855117797852e+00 -1.018590927124023438e+00 -2.887681722640991211e+00
7.795000000000000000e+03 2.161589622497558594e+01 8.339458107948303223e-01 -2.449963808059692383e+00 -7.361660003662109375e-01 -9.558389186859130859e-01 -2.881192445755004883e+00
7.796000000000000000e+03 2.232717704772949219e+01 5.311136245727539062e-01 -2.290797233581542969e+00 8.112037926912307739e-02 -6.629030704498291016e-01 -2.131228685379028320e+00
7.797000000000000000e+03 2.249367332458496094e+01 1.433692574501037598e+00 -3.159681320190429688e+00 -6.848619580268859863e-01 -1.153362989425659180e+00 -2.097692728042602539e+00
7.798000000000000000e+03 2.281207656860351562e+01 1.657995104789733887e+00 -3.347998857498168945e+00 -6.294107437133789062e-01 -1.193222880363464355e+00 -1.916664481163024902e+00
7.799000000000000000e+03 2.346806144714355469e+01 2.081730127334594727e+00 -3.570827245712280273e+00 -6.541432142257690430e-01 -1.267491221427917480e+00 -1.699620962142944336e+00
7.800000000000000000e+03 2.364190292358398438e+01 2.161238193511962891e+00 -3.423795700073242188e+00 -6.536365747451782227e-01 -1.223229646682739258e+00 -1.666041851043701172e+00
7.801000000000000000e+03 2.392845726013183594e+01 2.009946346282958984e+00 -3.156991720199584961e+00 -4.451899230480194092e-01 -1.080654501914978027e+00 -1.428418040275573730e+00
7.802000000000000000e+03 2.430326080322265625e+01 2.210349798202514648e+00 -3.163939952850341797e+00 -4.652301669120788574e-01 -1.088751077651977539e+00 -1.372424006462097168e+00
7.803000000000000000e+03 2.450769615173339844e+01 2.283301830291748047e+00 -3.126661539077758789e+00 -5.740808844566345215e-01 -1.110222697257995605e+00 -1.351068735122680664e+00
7.804000000000000000e+03 2.470370101928710938e+01 2.774887084960937500e+00 -3.349471569061279297e+00 -6.872971057891845703e-01 -1.211030602455139160e+00 -1.525424957275390625e+00
7.805000000000000000e+03 2.559294319152832031e+01 2.824972391128540039e+00 -2.919615745544433594e+00 -6.664663553237915039e-01 -1.075824618339538574e+00 -1.246452689170837402e+00
7.806000000000000000e+03 2.565849113464355469e+01 3.153504371643066406e+00 -3.112152338027954102e+00 -7.708661556243896484e-01 -1.164905548095703125e+00 -1.410462975502014160e+00
7.807000000000000000e+03 2.579840469360351562e+01 3.248463392257690430e+00 -3.117181539535522461e+00 -8.229610323905944824e-01 -1.182042717933654785e+00 -1.425625324249267578e+00
7.808000000000000000e+03 2.638994407653808594e+01 3.830897808074951172e+00 -3.074677228927612305e+00 -9.542898535728454590e-01 -1.208690166473388672e+00 -1.534473896026611328e+00
7.809000000000000000e+03 2.718324851989746094e+01 3.908641338348388672e+00 -2.740101337432861328e+00 -1.047995328903198242e+00 -1.136428952217102051e+00 -1.356842994689941406e+00
7.810000000000000000e+03 2.766874885559082031e+01 4.209576606750488281e+00 -2.613374233245849609e+00 -1.158345222473144531e+00 -1.131515860557556152e+00 -1.336916208267211914e+00
7.811000000000000000e+03 2.795421028137207031e+01 4.817789554595947266e+00 -2.664817810058593750e+00 -1.386906743049621582e+00 -1.215517401695251465e+00 -1.511384248733520508e+00
7.812000000000000000e+03 2.800128173828125000e+01 4.466726303100585938e+00 -2.539356946945190430e+00 -1.262185692787170410e+00 -1.140462756156921387e+00 -1.331322312355041504e+00
7.813000000000000000e+03 2.894380187988281250e+01 5.277581691741943359e+00 -2.351449251174926758e+00 -1.488365650177001953e+00 -1.151944518089294434e+00 -1.275954723358154297e+00
7.814000000000000000e+03 2.833669853210449219e+01 9.148467063903808594e+00 -2.473108291625976562e+00 -1.893572807312011719e+00 -1.310004353523254395e+00 -2.122579574584960938e+00
7.815000000000000000e+03 2.838017654418945312e+01 8.761213302612304688e+00 -3.046806335449218750e+00 -1.155251979827880859e+00 -1.260617494583129883e+00 -1.710894703865051270e+00
7.816000000000000000e+03 2.742436790466308594e+01 8.270503997802734375e+00 -4.351167201995849609e+00 -2.180711984634399414e+00 -1.959563851356506348e+00 -3.284544706344604492e+00
7.817000000000000000e+03 2.710642814636230469e+01 8.175982475280761719e+00 -5.022399902343750000e+00 -3.391756296157836914e+00 -2.524246931076049805e+00 -4.171840667724609375e+00
7.818000000000000000e+03 6.572053527832031250e+01 3.576378250122070312e+01 -1.025308966636657715e+00 -4.589911550283432007e-02 -3.213624358177185059e-01 5.754358172416687012e-01
7.819000000000000000e+03 6.511031341552734375e+01 3.583913421630859375e+01 -9.043210744857788086e-01 -9.343971312046051025e-02 -2.993282377719879150e-01 5.612205862998962402e-01
7.820000000000000000e+03 7.161763763427734375e+01 3.576856613159179688e+01 1.660272479057312012e+00 3.298779964447021484e+00 1.487715721130371094e+00 -3.307513475418090820e+00
7.821000000000000000e+03 7.241574859619140625e+01 3.593623352050781250e+01 1.378880977630615234e+00 7.521833896636962891e+00 2.670214414596557617e+00 -5.155405998229980469e+00
7.822000000000000000e+03 7.294872283935546875e+01 3.562553787231445312e+01 9.695765376091003418e-01 1.178073883056640625e+01 3.825094699859619141e+00 -6.066779136657714844e+00
7.823000000000000000e+03 7.318311309814453125e+01 3.564915084838867188e+01 2.637108266353607178e-01 1.440344905853271484e+01 4.400147914886474609e+00 -5.904277801513671875e+00
7.824000000000000000e+03 7.300634002685546875e+01 3.631901168823242188e+01 5.153138190507888794e-02 1.163098049163818359e+01 3.504753589630126953e+00 -4.610926151275634766e+00
7.825000000000000000e+03 7.351540374755859375e+01 3.583390426635742188e+01 -3.386408686637878418e-01 1.572443962097167969e+01 4.615739822387695312e+00 -4.647295475006103516e+00
7.826000000000000000e+03 7.380261230468750000e+01 3.560451889038085938e+01 -5.154385566711425781e-01 1.942103958129882812e+01 5.671680450439453125e+00 -2.940799236297607422e+00
7.827000000000000000e+03 7.511056518554687500e+01 3.450636672973632812e+01 6.771644115447998047e+00 1.719967460632324219e+01 7.191395282745361328e+00 2.284162521362304688e+00
7.828000000000000000e+03 7.580167388916015625e+01 3.430717849731445312e+01 5.652589797973632812e+00 1.443450927734375000e+01 6.026129722595214844e+00 1.100577592849731445e+00
7.829000000000000000e+03 7.489397430419921875e+01 3.221342849731445312e+01 8.676499873399734497e-02 1.825225257873535156e+01 5.501705169677734375e+00 -1.603911876678466797e+00
7.830000000000000000e+03 7.422138977050781250e+01 3.217733383178710938e+01 -1.275861144065856934e+00 1.939219093322753906e+01 5.434898853302001953e+00 9.085013866424560547e-01
7.831000000000000000e+03 7.305535888671875000e+01 3.232960510253906250e+01 -1.381007879972457886e-01 1.290237998962402344e+01 3.829283714294433594e+00 6.827200889587402344e+00
7.832000000000000000e+03 7.286638641357421875e+01 3.225459289550781250e+01 1.032426357269287109e-01 1.069521713256835938e+01 3.239537954330444336e+00 6.414410591125488281e+00
7.833000000000000000e+03 7.240688323974609375e+01 3.222471237182617188e+01 4.468185603618621826e-01 6.835464477539062500e+00 2.184684991836547852e+00 5.549093246459960938e+00
7.834000000000000000e+03 7.219117736816406250e+01 3.224123001098632812e+01 4.226419329643249512e-01 5.355271339416503906e+00 1.733373880386352539e+00 4.961328506469726562e+00
7.835000000000000000e+03 7.189289093017578125e+01 3.191231727600097656e+01 9.763447940349578857e-02 4.780509948730468750e+00 1.463443279266357422e+00 4.385329246520996094e+00
7.836000000000000000e+03 2.593142127990722656e+01 1.582478332519531250e+01 1.110109835863113403e-01 1.229987889528274536e-01 7.020293176174163818e-02 1.174110844731330872e-01
7.837000000000000000e+03 2.533133697509765625e+01 1.580949592590332031e+01 1.110418364405632019e-01 1.199581697583198547e-01 6.930000334978103638e-02 1.186397075653076172e-01
7.838000000000000000e+03 2.596082496643066406e+01 7.297811985015869141e+00 -7.250711441040039062e+00 -3.716506719589233398e+00 -3.290165424346923828e+00 -4.448918819427490234e+00
7.839000000000000000e+03 5.165301513671875000e+01 3.843955230712890625e+01 2.296421080827713013e-01 5.301417782902717590e-02 8.479688316583633423e-02 1.311571002006530762e-01
7.840000000000000000e+03 7.801889038085937500e+01 4.166799545288085938e+01 -5.394065380096435547e-01 1.166282367706298828e+01 3.337024927139282227e+00 1.517689824104309082e-01
7.841000000000000000e+03 1.501755523681640625e+01 9.275931715965270996e-01 1.052079200744628906e+01 1.673570394515991211e+00 3.658308744430541992e+00 -3.991204023361206055e+00
7.842000000000000000e+03 4.606266403198242188e+01 -4.008255004882812500e+01 1.430159807205200195e+00 7.877538800239562988e-01 6.653741002082824707e-01 3.937505781650543213e-01
7.843000000000000000e+03 1.929576301574707031e+01 -8.439436554908752441e-01 -2.763837575912475586e+00 -3.531538486480712891e+00 -1.888612866401672363e+00 -2.297781229019165039e+00
7.844000000000000000e+03 4.357988357543945312e+01 -3.966187667846679688e+01 2.058753490447998047e+00 9.110819101333618164e-01 8.909506201744079590e-01 5.608511567115783691e-01
7.845000000000000000e+03 4.584907150268554688e+01 -3.813603973388671875e+01 1.103856444358825684e+00 6.750348210334777832e-01 5.336673855781555176e-01 6.024094820022583008e-01
7.846000000000000000e+03 2.330178642272949219e+01 -4.090449142456054688e+01 4.179765284061431885e-01 4.856171458959579468e-02 1.399614661931991577e-01 -5.569276586174964905e-02
7.847000000000000000e+03 2.702482795715332031e+01 3.291622400283813477e+00 -2.509488344192504883e+00 -8.269832134246826172e-01 -1.000941514968872070e+00 -1.080497384071350098e+00
7.848000000000000000e+03 2.742368888854980469e+01 3.852605819702148438e+00 -2.576928377151489258e+00 -1.033986330032348633e+00 -1.083274364471435547e+00 -1.244060158729553223e+00
7.849000000000000000e+03 2.291091156005859375e+01 1.113392353057861328e+00 -2.510199546813964844e+00 -1.065135970711708069e-01 -7.850139737129211426e-01 -1.560293436050415039e+00
7.850000000000000000e+03 2.802097511291503906e+01 4.118268013000488281e+00 -2.417461156845092773e+00 -1.157814383506774902e+00 -1.072582602500915527e+00 -1.174476385116577148e+00
7.851000000000000000e+03 2.917179679870605469e+01 5.241167545318603516e+00 -2.314009189605712891e+00 -1.381018638610839844e+00 -1.108508348464965820e+00 -1.187978386878967285e+00
7.852000000000000000e+03 2.130233573913574219e+01 2.377009391784667969e-01 -1.613976240158081055e+00 -5.024755597114562988e-01 -6.349354982376098633e-01 -3.304616689682006836e+00
7.853000000000000000e+03 2.260497665405273438e+01 6.009428501129150391e-01 -2.092765808105468750e+00 6.181453466415405273e-01 -4.423861205577850342e-01 -1.658981680870056152e+00
7.854000000000000000e+03 5.408849716186523438e+01 3.823469161987304688e+01 7.153163105249404907e-02 -6.696277856826782227e-02 1.370655372738838196e-03 -1.996802166104316711e-02
7.855000000000000000e+03 3.822268676757812500e+01 2.947387695312500000e+01 6.615794450044631958e-02 7.238283753395080566e-02 4.156223312020301819e-02 6.859320402145385742e-02
7.856000000000000000e+03 2.621661186218261719e+01 3.277232170104980469e+00 -2.933878183364868164e+00 -8.047180771827697754e-01 -1.121578931808471680e+00 -1.320546269416809082e+00
7.857000000000000000e+03 2.625399208068847656e+01 3.511039972305297852e+00 -2.979569673538208008e+00 -8.704244494438171387e-01 -1.154998183250427246e+00 -1.399780988693237305e+00
7.858000000000000000e+03 2.063343811035156250e+01 -1.540661975741386414e-02 -2.056795358657836914e+00 -1.906135320663452148e+00 -1.188879132270812988e+00 -3.829164981842041016e+00
7.859000000000000000e+03 2.385328674316406250e+01 1.638315677642822266e+00 -2.805306911468505859e+00 -3.091180920600891113e-01 -9.343274831771850586e-01 -1.262476801872253418e+00
7.860000000000000000e+03 2.551792526245117188e+01 3.039764642715454102e+00 -3.140219449996948242e+00 -7.570506334304809570e-01 -1.169180989265441895e+00 -1.404622673988342285e+00
7.861000000000000000e+03 2.582148551940917969e+01 3.057562112808227539e+00 -2.943288564682006836e+00 -7.423821687698364258e-01 -1.105701208114624023e+00 -1.293252468109130859e+00
7.862000000000000000e+03 2.623964118957519531e+01 2.860337495803833008e+00 -2.726714372634887695e+00 -7.290626764297485352e-01 -1.036733150482177734e+00 -1.159153103828430176e+00
7.863000000000000000e+03 1.775565719604492188e+01 -2.025418758392333984e+00 -1.869965434074401855e+00 -1.700806260108947754e+00 -1.071231484413146973e+00 -1.360662937164306641e+00
7.864000000000000000e+03 1.799036788940429688e+01 -2.417998075485229492e+00 -2.176430225372314453e+00 -2.354993581771850586e+00 -1.359427094459533691e+00 -1.641904473304748535e+00
7.865000000000000000e+03 1.708293724060058594e+01 -2.523006200790405273e+00 -1.776334285736083984e+00 -1.345723032951354980e+00 -9.366171956062316895e-01 -1.205168843269348145e+00
7.866000000000000000e+03 1.579779052734375000e+01 -3.060321331024169922e+00 -1.372912526130676270e+00 -6.657067537307739258e-01 -6.115857958793640137e-01 -8.843961358070373535e-01
7.867000000000000000e+03 1.796870231628417969e+01 -1.835435748100280762e+00 -2.169766187667846680e+00 -2.058730125427246094e+00 -1.268548965454101562e+00 -1.637957930564880371e+00
7.868000000000000000e+03 1.844562530517578125e+01 -1.692168831825256348e+00 -2.245730638504028320e+00 -2.703567743301391602e+00 -1.484789490699768066e+00 -1.693706512451171875e+00
7.869000000000000000e+03 7.020407104492187500e+01 3.661324310302734375e+01 7.113945484161376953e-01 2.315209865570068359e+00 9.079813361167907715e-01 -1.596935391426086426e+00
7.870000000000000000e+03 6.693840789794921875e+01 3.647838211059570312e+01 -3.530943691730499268e-01 9.383670985698699951e-02 -7.777729630470275879e-02 4.886989295482635498e-01
7.871000000000000000e+03 2.960679626464843750e+01 5.285201549530029297e+00 -2.178990840911865234e+00 -1.219442844390869141e+00 -1.019530057907104492e+00 -1.081629753112792969e+00
7.872000000000000000e+03 4.004741287231445312e+01 3.175899124145507812e+01 6.806900352239608765e-02 6.313627213239669800e-02 3.936158493161201477e-02 6.245425343513488770e-02
7.873000000000000000e+03 1.463754940032958984e+01 6.211247444152832031e+00 1.484221667051315308e-01 4.594585299491882324e-01 1.823642104864120483e-01 2.206492722034454346e-01
7.874000000000000000e+03 4.519224166870117188e+01 3.559757995605468750e+01 9.217996150255203247e-02 4.596165567636489868e-02 4.144248366355895996e-02 6.349098682403564453e-02
7.875000000000000000e+03 1.896354484558105469e+01 -9.433767795562744141e-01 -2.322763442993164062e+00 -2.835541963577270508e+00 -1.547491669654846191e+00 -1.895246148109436035e+00
7.876000000000000000e+03 1.911370849609375000e+01 -1.140996217727661133e+00 -2.648207426071166992e+00 -3.678456068038940430e+00 -1.897999048233032227e+00 -2.568093061447143555e+00
7.877000000000000000e+03 5.856156158447265625e+01 4.011098098754882812e+01 3.881261646747589111e-01 -2.595452070236206055e-01 3.857428953051567078e-02 1.789067536592483521e-01
7.878000000000000000e+03 7.181923675537109375e+01 3.748869323730468750e+01 3.966134786605834961e-01 6.338821411132812500e+00 2.020630598068237305e+00 -2.746601104736328125e+00
7.879000000000000000e+03 7.284084320068359375e+01 3.759189605712890625e+01 -6.230395436286926270e-01 9.881003379821777344e+00 2.777389049530029297e+00 -3.152649402618408203e+00
7.880000000000000000e+03 5.102684783935546875e+01 4.134902954101562500e+01 2.111781090497970581e-01 3.591545671224594116e-02 7.412806898355484009e-02 -6.557631306350231171e-03
7.881000000000000000e+03 4.826188278198242188e+01 3.862621688842773438e+01 1.783436238765716553e-01 3.438378125429153442e-02 6.381821632385253906e-02 4.917225986719131470e-02
7.882000000000000000e+03 5.151203155517578125e+01 3.869362640380859375e+01 3.146770894527435303e-01 1.600904390215873718e-02 9.920583665370941162e-02 7.791517674922943115e-02
7.883000000000000000e+03 2.932574653625488281e+01 9.443619728088378906e+00 -1.932685136795043945e+00 -1.098600864410400391e+00 -9.093858003616333008e-01 -1.400104761123657227e+00
7.884000000000000000e+03 7.118165588378906250e+01 3.184410285949707031e+01 -3.286733627319335938e-01 2.608632802963256836e+00 6.839878559112548828e-01 2.956481695175170898e+00
7.885000000000000000e+03 7.116982269287109375e+01 3.207293701171875000e+01 -5.160681605339050293e-01 1.946175456047058105e+00 4.290321767330169678e-01 2.608575105667114258e+00
7.886000000000000000e+03 7.133303070068359375e+01 3.205576705932617188e+01 -2.828848063945770264e-01 2.691858053207397461e+00 7.226919531822204590e-01 3.090208292007446289e+00
7.887000000000000000e+03 3.326410293579101562e+00 -3.905267953872680664e+00 -5.290171131491661072e-02 -5.551657080650329590e-02 -3.252548351883888245e-02 -5.448952689766883850e-02
7.888000000000000000e+03 4.873682975769042969e+00 -3.759662151336669922e+00 -1.040882021188735962e-01 -6.463324278593063354e-02 -5.061643198132514954e-02 -9.500246495008468628e-02
7.889000000000000000e+03 1.830177116394042969e+01 -2.108959913253784180e+00 -1.968221187591552734e+00 -2.309440612792968750e+00 -1.283298492431640625e+00 -1.660222768783569336e+00
7.890000000000000000e+03 2.754119491577148438e+01 3.309874296188354492e+00 -2.320950984954833984e+00 -8.704915642738342285e-01 -9.574328064918518066e-01 -9.780622124671936035e-01
7.891000000000000000e+03 2.162319946289062500e+01 -4.134990274906158447e-01 -1.561143875122070312e+00 8.271237611770629883e-01 -2.202060520648956299e-01 -2.899431705474853516e+00
7.892000000000000000e+03 2.482934761047363281e+01 1.917642831802368164e+00 -2.692433834075927734e+00 -3.980341851711273193e-01 -9.271404147148132324e-01 -1.063431024551391602e+00
7.893000000000000000e+03 2.641632461547851562e+01 3.089619874954223633e+00 -2.720518827438354492e+00 -7.914820313453674316e-01 -1.053600311279296875e+00 -1.163101315498352051e+00
7.894000000000000000e+03 2.601503562927246094e+01 3.061981916427612305e+00 -2.922318458557128906e+00 -7.372379899024963379e-01 -1.097867012023925781e+00 -1.260525226593017578e+00
7.895000000000000000e+03 7.328179168701171875e+01 3.602319335937500000e+01 -3.640652596950531006e-01 1.434221363067626953e+01 4.193444728851318359e+00 -5.291783809661865234e+00
7.896000000000000000e+03 5.434383773803710938e+01 3.862744140625000000e+01 1.708335876464843750e-01 -1.086906194686889648e-01 1.864288747310638428e-02 2.373926807194948196e-03
7.897000000000000000e+03 6.959268569946289062e+00 -3.547463226318359375e+01 5.182202905416488647e-02 -1.105712175369262695e+00 -3.161670565605163574e-01 -9.528711438179016113e-02
7.898000000000000000e+03 2.107575607299804688e+01 -3.714588284492492676e-01 -1.381546020507812500e+00 -7.236092090606689453e-01 -6.315465569496154785e-01 -3.224391937255859375e+00
7.899000000000000000e+03 3.290383911132812500e+01 2.462631225585937500e+01 6.114569306373596191e-02 8.729832619428634644e-02 4.453320428729057312e-02 7.450078427791595459e-02
7.900000000000000000e+03 2.322779083251953125e+01 1.012109279632568359e+00 -2.416466951370239258e+00 -9.813380241394042969e-02 -7.543802261352539062e-01 -1.326598405838012695e+00
7.901000000000000000e+03 2.563593482971191406e+01 2.571656942367553711e+00 -2.830009698867797852e+00 -6.134341955184936523e-01 -1.033033132553100586e+00 -1.147797584533691406e+00
7.902000000000000000e+03 3.792795944213867188e+01 2.971949005126953125e+01 6.489522010087966919e-02 7.413459569215774536e-02 4.170894622802734375e-02 6.780500710010528564e-02
7.903000000000000000e+03 3.765428924560546875e+01 2.956661033630371094e+01 6.381521373987197876e-02 7.605321705341339111e-02 4.196052625775337219e-02 6.744141876697540283e-02
7.904000000000000000e+03 3.765818405151367188e+01 2.989426612854003906e+01 6.366768479347229004e-02 7.533261179924011230e-02 4.170008748769760132e-02 6.615844368934631348e-02
7.905000000000000000e+03 1.128639698028564453e+01 3.058944225311279297e+00 6.131100654602050781e-01 -1.087126210331916809e-01 1.513192355632781982e-01 -1.018477305769920349e-01
7.906000000000000000e+03 7.262983703613281250e+01 3.567432785034179688e+01 1.706417202949523926e+00 8.448631286621093750e+00 3.046514511108398438e+00 -5.969040870666503906e+00
7.907000000000000000e+03 2.541636657714843750e+01 2.515052080154418945e+00 -2.814218997955322266e+00 -5.970532298088073730e-01 -1.023381710052490234e+00 -1.159417986869812012e+00
7.908000000000000000e+03 2.512934684753417969e+01 1.758818507194519043e+00 -2.328224658966064453e+00 -3.712891042232513428e-01 -8.098541498184204102e-01 -9.023068547248840332e-01
7.909000000000000000e+03 2.870036697387695312e+01 4.283236503601074219e+00 -2.200813293457031250e+00 -1.148482084274291992e+00 -1.004788637161254883e+00 -1.005895018577575684e+00
7.910000000000000000e+03 7.150011444091796875e+01 3.199597930908203125e+01 -1.597978547215461731e-02 2.972656726837158203e+00 8.870030641555786133e-01 3.586872339248657227e+00
7.911000000000000000e+03 7.354411315917968750e+01 3.172743225097656250e+01 -1.778279781341552734e+00 1.521352005004882812e+01 4.030571937561035156e+00 4.094002246856689453e+00
7.912000000000000000e+03 7.338244628906250000e+01 3.206590270996093750e+01 -1.389300465583801270e+00 1.538765525817871094e+01 4.199506282806396484e+00 5.087832450866699219e+00
7.913000000000000000e+03 7.328742980957031250e+01 3.182765197753906250e+01 -1.379543423652648926e+00 1.379103565216064453e+01 3.723447799682617188e+00 4.934933185577392578e+00
7.914000000000000000e+03 6.485747528076171875e+01 3.752462005615234375e+01 1.513128578662872314e-01 -2.017115801572799683e-02 3.934251144528388977e-02 6.114549040794372559e-01
7.915000000000000000e+03 6.444708251953125000e+01 3.835232162475585938e+01 5.130456089973449707e-01 -1.671371310949325562e-01 1.037725508213043213e-01 5.140354037284851074e-01
7.916000000000000000e+03 6.516018676757812500e+01 3.675280761718750000e+01 -3.069643080234527588e-01 -6.841301918029785156e-02 -1.126132011413574219e-01 5.724593997001647949e-01
7.917000000000000000e+03 6.600312042236328125e+01 3.704948425292968750e+01 -4.038903117179870605e-02 6.494313012808561325e-03 -1.016841456294059753e-02 5.115989446640014648e-01
7.918000000000000000e+03 6.675546264648437500e+01 3.783172607421875000e+01 4.552636742591857910e-01 2.198166996240615845e-01 2.025241106748580933e-01 3.338235914707183838e-01
7.919000000000000000e+03 7.404994201660156250e+01 3.220006942749023438e+01 -1.572342634201049805e+00 1.962410354614257812e+01 5.415528297424316406e+00 1.889096617698669434e+00
7.920000000000000000e+03 7.359414672851562500e+01 3.195408439636230469e+01 -1.762596011161804199e+00 1.660502624511718750e+01 4.452728748321533203e+00 4.219335556030273438e+00
7.921000000000000000e+03 7.377465057373046875e+01 3.177350616455078125e+01 -1.943451762199401855e+00 1.658305740356445312e+01 4.391881942749023438e+00 3.152215242385864258e+00
7.922000000000000000e+03 2.704819869995117188e+01 2.985568761825561523e+00 -2.371330261230468750e+00 -7.872877717018127441e-01 -9.475854039192199707e-01 -9.602680206298828125e-01
7.923000000000000000e+03 2.728158378601074219e+01 3.284005403518676758e+00 -2.453866720199584961e+00 -8.840751647949218750e-01 -1.001382589340209961e+00 -1.046336174011230469e+00
7.924000000000000000e+03 6.903578186035156250e+01 3.796533584594726562e+01 8.735954165458679199e-01 1.960314512252807617e+00 8.501729965209960938e-01 -9.402537941932678223e-01
7.925000000000000000e+03 6.797550201416015625e+01 3.772587966918945312e+01 5.244325399398803711e-01 1.290230393409729004e+00 5.443989038467407227e-01 -2.163724973797798157e-02
7.926000000000000000e+03 5.213897705078125000e+01 3.246905517578125000e+01 -8.614895343780517578e-01 -6.346824169158935547e-01 -4.488515853881835938e-01 -7.534950971603393555e-01
7.927000000000000000e+03 7.492800903320312500e+01 3.523946762084960938e+01 2.651110887527465820e+00 1.858932495117187500e+01 6.372130870819091797e+00 2.575058937072753906e+00
7.928000000000000000e+03 7.485581207275390625e+01 3.573707580566406250e+01 5.079281926155090332e-01 1.846021461486816406e+01 5.690443038940429688e+00 1.800592064857482910e+00
7.929000000000000000e+03 7.564842224121093750e+01 3.482787322998046875e+01 4.529633045196533203e+00 1.524259948730468750e+01 5.931669712066650391e+00 2.237163305282592773e+00
7.930000000000000000e+03 7.538396453857421875e+01 3.524283981323242188e+01 2.855246305465698242e+00 1.671998405456542969e+01 5.872569084167480469e+00 2.772406339645385742e+00
7.931000000000000000e+03 2.366007232666015625e+01 1.489235520362854004e+00 -2.742803812026977539e+00 -3.322421610355377197e-01 -9.225137829780578613e-01 -1.421196818351745605e+00
7.932000000000000000e+03 2.321300315856933594e+01 1.254911273717880249e-01 -1.067300558090209961e+00 3.722940385341644287e-01 -2.085019648075103760e-01 -1.002905726432800293e+00
7.933000000000000000e+03 4.835116195678710938e+01 -2.950150108337402344e+01 -1.180910989642143250e-01 1.046501874923706055e+00 2.785232067108154297e-01 2.324435114860534668e-01
7.934000000000000000e+03 7.773537445068359375e+01 -3.569140243530273438e+01 -6.042186869308352470e-04 5.627280712127685547e+00 1.688002943992614746e+00 3.269862011075019836e-02
7.935000000000000000e+03 2.643621635437011719e+01 2.463864326477050781e+00 -2.366133928298950195e+00 -6.222822666168212891e-01 -8.965248465538024902e-01 -8.808431029319763184e-01
7.936000000000000000e+03 4.923864364624023438e+01 -3.070141601562500000e+01 -6.084287539124488831e-02 1.260476827621459961e+00 3.598901927471160889e-01 2.691491246223449707e-01
7.937000000000000000e+03 2.604401206970214844e+01 2.840389490127563477e+00 -2.718916177749633789e+00 -6.592413187026977539e-01 -1.013447284698486328e+00 -1.114428162574768066e+00
7.938000000000000000e+03 7.376781463623046875e+01 3.129313850402832031e+01 -2.120461702346801758e+00 1.480992698669433594e+01 3.806839704513549805e+00 3.162401914596557617e+00
7.939000000000000000e+03 6.838567733764648438e+00 -3.155713653564453125e+01 6.775777786970138550e-02 -1.046622991561889648e+00 -2.936595678329467773e-01 -1.593950539827346802e-01
7.940000000000000000e+03 3.098951148986816406e+01 2.207532119750976562e+01 6.972126662731170654e-02 8.944845944643020630e-02 4.775091633200645447e-02 8.248794078826904297e-02
7.941000000000000000e+03 3.062839126586914062e+01 2.261128425598144531e+01 6.501070410013198853e-02 9.231828153133392334e-02 4.719869419932365417e-02 8.191026002168655396e-02
7.942000000000000000e+03 3.782599639892578125e+01 3.015508079528808594e+01 6.341961771249771118e-02 7.447012513875961304e-02 4.136692360043525696e-02 6.592665612697601318e-02
7.943000000000000000e+03 2.587457084655761719e+01 1.397964000701904297e+00 -1.739916563034057617e+00 -3.274305164813995361e-01 -6.202041506767272949e-01 -5.523878931999206543e-01
7.944000000000000000e+03 2.571352577209472656e+01 2.309737443923950195e+00 -2.504084110260009766e+00 -4.796725511550903320e-01 -8.951270580291748047e-01 -9.299879670143127441e-01
7.945000000000000000e+03 7.099295806884765625e+01 3.205815887451171875e+01 -6.415345668792724609e-01 1.806881904602050781e+00 3.496041893959045410e-01 2.452408313751220703e+00
7.946000000000000000e+03 7.095374298095703125e+01 3.181071472167968750e+01 -4.590744972229003906e-01 2.236446380615234375e+00 5.332115888595581055e-01 2.613446235656738281e+00
7.947000000000000000e+03 2.763911247253417969e+01 2.979031562805175781e+00 -2.143754720687866211e+00 -8.507025837898254395e-01 -8.983371853828430176e-01 -8.408342599868774414e-01
7.948000000000000000e+03 2.775755310058593750e+01 2.626886129379272461e+00 -1.920626997947692871e+00 -7.213270664215087891e-01 -7.925862073898315430e-01 -6.724731326103210449e-01
7.949000000000000000e+03 2.595295524597167969e+01 2.332324266433715820e+00 -2.485590696334838867e+00 -5.681198835372924805e-01 -9.161131381988525391e-01 -9.249709248542785645e-01
7.950000000000000000e+03 1.749259567260742188e+01 -3.615408420562744141e+00 -1.269334316253662109e+00 -1.950838565826416016e+00 -9.660518765449523926e-01 -1.376336455345153809e+00
7.951000000000000000e+03 1.876118278503417969e+01 -2.416572570800781250e+00 -1.832156538963317871e+00 -4.139391899108886719e+00 -1.791464447975158691e+00 -2.094877004623413086e+00
7.952000000000000000e+03 4.478268814086914062e+01 3.644490432739257812e+01 1.031922101974487305e-01 4.360095039010047913e-02 4.403794929385185242e-02 5.909145623445510864e-02
7.953000000000000000e+03 2.806755828857421875e+01 3.449276208877563477e+00 -2.155465364456176758e+00 -9.233447313308715820e-01 -9.236429929733276367e-01 -8.906881213188171387e-01
7.954000000000000000e+03 7.223210906982421875e+01 3.121723747253417969e+01 -5.162515044212341309e-01 7.417945384979248047e+00 2.070508241653442383e+00 4.696817398071289062e+00
7.955000000000000000e+03 7.176567840576171875e+01 3.137524032592773438e+01 -1.702295541763305664e-01 5.101834297180175781e+00 1.479481458663940430e+00 4.167299270629882812e+00
7.956000000000000000e+03 2.823578071594238281e+01 3.764881610870361328e+00 -2.221904516220092773e+00 -1.008251190185546875e+00 -9.690466523170471191e-01 -9.474239945411682129e-01
7.957000000000000000e+03 2.442898559570312500e+01 1.599674892425537109e+01 1.041334494948387146e-01 1.282559484243392944e-01 6.971681863069534302e-02 1.191492229700088501e-01
7.958000000000000000e+03 2.420453262329101562e+01 1.517776584625244141e+01 1.130753606557846069e-01 1.317155808210372925e-01 7.343728095293045044e-02 1.249423101544380188e-01
7.959000000000000000e+03 2.390440368652343750e+01 1.541750526428222656e+01 1.074008420109748840e-01 1.353579014539718628e-01 7.282762229442596436e-02 1.224544346332550049e-01
7.960000000000000000e+03 4.259666824340820312e+01 3.371933364868164062e+01 7.780597358942031860e-02 5.174509063363075256e-02 3.886532038450241089e-02 5.999689921736717224e-02
7.961000000000000000e+03 4.251728820800781250e+01 3.425624084472656250e+01 8.069700747728347778e-02 5.185976624488830566e-02 3.976703062653541565e-02 5.985674262046813965e-02
7.962000000000000000e+03 2.971554374694824219e+01 3.998618841171264648e+00 -1.820816755294799805e+00 -9.520969986915588379e-01 -8.318741321563720703e-01 -6.912311911582946777e-01
7.963000000000000000e+03 4.112170410156250000e+01 3.291701126098632812e+01 7.248827069997787476e-02 5.633576586842536926e-02 3.864721208810806274e-02 6.119852885603904724e-02
7.964000000000000000e+03 3.991307830810546875e+01 3.248069000244140625e+01 6.870131194591522217e-02 6.271193921566009521e-02 3.942397609353065491e-02 6.083305552601814270e-02
7.965000000000000000e+03 2.423071479797363281e+01 1.508082866668701172e+00 -2.491352796554565430e+00 -2.336822301149368286e-01 -8.175104856491088867e-01 -1.072602748870849609e+00
7.966000000000000000e+03 2.458502006530761719e+01 2.009966611862182617e+00 -2.800898313522338867e+00 -3.957029581069946289e-01 -9.589803814888000488e-01 -1.171396493911743164e+00
7.967000000000000000e+03 2.541758918762207031e+01 1.543950557708740234e+00 -2.074384689331054688e+00 -2.939801216125488281e-01 -7.105094790458679199e-01 -7.004331946372985840e-01
7.968000000000000000e+03 2.619708251953125000e+01 2.370470523834228516e+00 -2.341745138168334961e+00 -5.704053640365600586e-01 -8.736451864242553711e-01 -8.654789328575134277e-01
7.969000000000000000e+03 2.628813171386718750e+01 2.070630788803100586e+00 -2.177037954330444336e+00 -5.379760265350341797e-01 -8.145042061805725098e-01 -7.572260499000549316e-01
7.970000000000000000e+03 3.904697799682617188e+01 3.172225379943847656e+01 6.583292782306671143e-02 6.735632568597793579e-02 3.995677456259727478e-02 6.189917027950286865e-02
7.971000000000000000e+03 3.852934265136718750e+01 3.164664268493652344e+01 6.429561227560043335e-02 6.936831772327423096e-02 4.009918123483657837e-02 6.199182569980621338e-02
7.972000000000000000e+03 3.285670089721679688e+01 6.873229503631591797e+00 -1.249683022499084473e+00 -1.033183574676513672e+00 -6.848599910736083984e-01 -9.857007265090942383e-01
7.973000000000000000e+03 2.760961341857910156e+01 2.162327766418457031e+00 -1.706992745399475098e+00 -6.328120827674865723e-01 -7.019414305686950684e-01 -5.272272229194641113e-01
7.974000000000000000e+03 2.671658706665039062e+01 1.863870024681091309e+00 -1.878045797348022461e+00 -5.618501305580139160e-01 -7.319688200950622559e-01 -6.237432956695556641e-01
7.975000000000000000e+03 1.049777221679687500e+01 3.125089883804321289e+00 3.715160787105560303e-01 -3.162246048450469971e-01 1.658744737505912781e-02 1.372354924678802490e-01
7.976000000000000000e+03 7.594831848144531250e+01 3.202357101440429688e+01 7.175253629684448242e-01 1.456801605224609375e+01 4.585662364959716797e+00 -2.374717950820922852e+00
7.977000000000000000e+03 5.888801574707031250e+01 3.113416290283203125e+01 -1.875241398811340332e+00 2.090668976306915283e-01 -4.998523592948913574e-01 -7.614263892173767090e-01
7.978000000000000000e+03 2.563709259033203125e+01 1.259748935699462891e+00 -1.706557989120483398e+00 -3.474360108375549316e-01 -6.161981821060180664e-01 -6.084185242652893066e-01
7.979000000000000000e+03 2.565554237365722656e+01 1.704724788665771484e+00 -2.130774497985839844e+00 -4.152350425720214844e-01 -7.638028860092163086e-01 -7.724303603172302246e-01
7.980000000000000000e+03 2.551868820190429688e+01 2.011541128158569336e+00 -2.359097480773925781e+00 -4.111829400062561035e-01 -8.310841321945190430e-01 -8.482337594032287598e-01
7.981000000000000000e+03 2.804847908020019531e+01 2.709610939025878906e+00 -1.882936000823974609e+00 -8.124067783355712891e-01 -8.086028099060058594e-01 -6.611782312393188477e-01
7.982000000000000000e+03 7.324440765380859375e+01 3.101604461669921875e+01 -1.684129714965820312e+00 1.201230239868164062e+01 3.098451614379882812e+00 4.063806056976318359e+00
7.983000000000000000e+03 3.647993850708007812e+01 2.862021827697753906e+01 6.352781504392623901e-02 8.210886269807815552e-02 4.369100183248519897e-02 6.747477501630783081e-02
7.984000000000000000e+03 7.409075164794921875e+01 3.198415756225585938e+01 -1.760981917381286621e+00 1.834097290039062500e+01 4.973997592926025391e+00 1.898516297340393066e+00
7.985000000000000000e+03 7.592466735839843750e+01 3.311568832397460938e+01 3.861749649047851562e+00 1.437152099609375000e+01 5.469981193542480469e+00 -1.880781054496765137e+00
7.986000000000000000e+03 3.618548965454101562e+01 2.808163452148437500e+01 6.408843398094177246e-02 8.292853087186813354e-02 4.410509020090103149e-02 6.884458661079406738e-02
7.987000000000000000e+03 3.105081558227539062e+01 2.231348228454589844e+01 6.738216429948806763e-02 8.980894833803176880e-02 4.715733230113983154e-02 8.231680840253829956e-02
7.988000000000000000e+03 3.101980972290039062e+01 2.254299736022949219e+01 6.590138375759124756e-02 8.985944837331771851e-02 4.672824963927268982e-02 8.194892108440399170e-02
7.989000000000000000e+03 4.282069015502929688e+01 3.403756332397460938e+01 7.726918905973434448e-02 5.069489404559135437e-02 3.838922455906867981e-02 6.022302061319351196e-02
7.990000000000000000e+03 2.387441062927246094e+01 9.763107299804687500e-01 -2.072546482086181641e+00 -1.726527065038681030e-01 -6.735597848892211914e-01 -1.093274712562561035e+00
7.991000000000000000e+03 2.591275405883789062e+01 1.836024165153503418e+00 -2.108756303787231445e+00 -4.351859986782073975e-01 -7.631826996803283691e-01 -7.157451510429382324e-01
7.992000000000000000e+03 3.851213836669921875e+01 3.241012954711914062e+01 6.481050699949264526e-02 6.863952428102493286e-02 4.003500938415527344e-02 5.921573564410209656e-02
7.993000000000000000e+03 3.933635330200195312e+01 3.301901626586914062e+01 6.802844256162643433e-02 6.471121311187744141e-02 3.982189670205116272e-02 5.921378731727600098e-02
7.994000000000000000e+03 3.306333541870117188e+01 2.520771217346191406e+01 5.967644974589347839e-02 8.733810484409332275e-02 4.410436376929283142e-02 7.341421395540237427e-02
7.995000000000000000e+03 5.276849365234375000e+01 3.079025268554687500e+01 -1.339984893798828125e+00 -2.892609834671020508e-01 -4.887737929821014404e-01 -8.973227739334106445e-01
7.996000000000000000e+03 7.231451416015625000e+01 3.086153221130371094e+01 -7.224523425102233887e-01 7.961944103240966797e+00 2.171847581863403320e+00 4.420000076293945312e+00
7.997000000000000000e+03 7.289266204833984375e+01 3.072273063659667969e+01 -1.383377313613891602e+00 1.013605117797851562e+01 2.625802040100097656e+00 4.078158378601074219e+00
7.998000000000000000e+03 7.285801696777343750e+01 3.098215103149414062e+01 -1.274208664894104004e+00 1.033224773406982422e+01 2.717411756515502930e+00 4.446837902069091797e+00
7.999000000000000000e+03 7.307066345214843750e+01 3.085553932189941406e+01 -1.560213208198547363e+00 1.114573669433593750e+01 2.875656843185424805e+00 4.104334831237792969e+00
8.000000000000000000e+03 3.010041809082031250e+01 3.606453895568847656e+00 -1.613231420516967773e+00 -8.608967065811157227e-01 -7.422384619712829590e-01 -5.477638244628906250e-01
8.001000000000000000e+03 3.243030548095703125e+01 1.180276870727539062e+01 -1.466301202774047852e+00 -1.472293615341186523e+00 -8.815784454345703125e-01 -1.435516595840454102e+00
8.002000000000000000e+03 5.404843521118164062e+01 3.140787887573242188e+01 -1.373175263404846191e+00 1.549995318055152893e-02 -4.073025882244110107e-01 -8.360956311225891113e-01
8.003000000000000000e+03 1.295568370819091797e+01 5.542682647705078125e+00 1.231499239802360535e-01 6.342537999153137207e-01 2.272211164236068726e-01 -6.164090707898139954e-02
8.004000000000000000e+03 1.171862983703613281e+01 4.957766532897949219e+00 3.075625896453857422e-01 2.917684614658355713e-01 1.797993034124374390e-01 -1.962777227163314819e-01
8.005000000000000000e+03 1.109846019744873047e+01 4.888016223907470703e+00 3.325115144252777100e-01 1.057348102331161499e-01 1.314738988876342773e-01 -1.475451290607452393e-01
8.006000000000000000e+03 7.542242431640625000e+01 2.970737838745117188e+01 -1.835145592689514160e+00 1.299274921417236328e+01 3.347280979156494141e+00 -2.182136327028274536e-01
8.007000000000000000e+03 7.403875732421875000e+01 3.114868927001953125e+01 -2.216049671173095703e+00 1.523524951934814453e+01 3.905760049819946289e+00 2.117345809936523438e+00
8.008000000000000000e+03 7.474756622314453125e+01 3.060590744018554688e+01 -2.113851070404052734e+00 1.436271190643310547e+01 3.674658298492431641e+00 5.302178263664245605e-01
8.009000000000000000e+03 5.728111267089843750e+00 -2.667772674560546875e+01 4.945624247193336487e-02 -1.033629655838012695e+00 -2.952520549297332764e-01 -2.003019601106643677e-01
8.010000000000000000e+03 3.589485931396484375e+01 2.889998245239257812e+01 6.044685468077659607e-02 8.185805380344390869e-02 4.269147291779518127e-02 6.546413898468017578e-02
8.011000000000000000e+03 2.386754608154296875e+01 1.593227195739746094e+01 1.003431081771850586e-01 1.341205686330795288e-01 7.033910602331161499e-02 1.184165477752685547e-01
8.012000000000000000e+03 2.946762657165527344e+01 2.227015686035156250e+01 6.527769565582275391e-02 9.764973819255828857e-02 4.887823015451431274e-02 8.318481594324111938e-02
8.013000000000000000e+03 2.849992179870605469e+01 2.509508609771728516e+00 -1.628103256225585938e+00 -7.950389385223388672e-01 -7.269426584243774414e-01 -5.189015865325927734e-01
8.014000000000000000e+03 5.408593368530273438e+01 -2.758553886413574219e+01 2.721323259174823761e-02 2.037774324417114258e+00 6.194962859153747559e-01 2.451301068067550659e-01
8.015000000000000000e+03 1.647319984436035156e+01 8.271131515502929688e+00 1.441180855035781860e-01 2.748469114303588867e-01 1.256894916296005249e-01 1.943947672843933105e-01
8.016000000000000000e+03 1.689393424987792969e+01 8.305242538452148438e+00 1.570481359958648682e-01 2.521131038665771484e-01 1.227483749389648438e-01 1.959362775087356567e-01
8.017000000000000000e+03 2.601028060913085938e+01 2.057349443435668945e+00 -2.185281276702880859e+00 -4.691427648067474365e-01 -7.963272333145141602e-01 -7.898244261741638184e-01
8.018000000000000000e+03 4.114414978027343750e+01 3.478765487670898438e+01 8.064052462577819824e-02 5.540981143712997437e-02 4.081510007381439209e-02 5.581778660416603088e-02
8.019000000000000000e+03 3.430590820312500000e+01 3.141449737548828125e+01 5.128966271877288818e-02 8.087021857500076294e-02 3.964796662330627441e-02 5.603741854429244995e-02
8.020000000000000000e+03 8.540564537048339844e+00 -2.695801353454589844e+01 9.454458206892013550e-02 -8.389641046524047852e-01 -2.233258634805679321e-01 -2.503249645233154297e-01
8.021000000000000000e+03 1.926932144165039062e+01 1.083493614196777344e+01 1.329528540372848511e-01 1.840473264455795288e-01 9.510005265474319458e-02 1.610223054885864258e-01
8.022000000000000000e+03 1.927519607543945312e+01 1.119830799102783203e+01 1.261295527219772339e-01 1.843332052230834961e-01 9.313882887363433838e-02 1.554315537214279175e-01
8.023000000000000000e+03 2.913437080383300781e+01 3.291184186935424805e+00 -1.756902575492858887e+00 -8.838739991188049316e-01 -7.922329902648925781e-01 -6.000109910964965820e-01
8.024000000000000000e+03 7.242137908935546875e+01 3.055545997619628906e+01 -9.872968792915344238e-01 8.325551033020019531e+00 2.201476335525512695e+00 4.104663848876953125e+00
8.025000000000000000e+03 2.393604278564453125e+01 1.713492012023925781e+01 8.688467741012573242e-02 1.300346851348876953e-01 6.507580727338790894e-02 1.082973107695579529e-01
8.026000000000000000e+03 2.579677009582519531e+01 5.485945940017700195e-01 -1.120738983154296875e+00 -2.235006541013717651e-01 -4.032718837261199951e-01 -3.877581655979156494e-01
8.027000000000000000e+03 8.479681968688964844e+00 2.821843910217285156e+01 -8.310584351420402527e-03 -3.110264055430889130e-02 -1.182396709918975830e-02 -1.280822418630123138e-02
8.028000000000000000e+03 1.165985393524169922e+01 -2.690239524841308594e+01 1.522824615240097046e-01 -6.456459164619445801e-01 -1.480090320110321045e-01 -2.821176350116729736e-01
8.029000000000000000e+03 7.276338958740234375e+01 3.034543609619140625e+01 -1.344217300415039062e+00 9.452433586120605469e+00 2.432465076446533203e+00 3.790024042129516602e+00
8.030000000000000000e+03 9.849816322326660156e+00 -7.549644470214843750e+00 -2.977588474750518799e-01 -3.103333413600921631e-01 -1.824276447296142578e-01 -5.423725843429565430e-01
8.031000000000000000e+03 1.101810455322265625e+01 -7.575356960296630859e+00 -3.202564120292663574e-01 -3.721593320369720459e-01 -2.077247202396392822e-01 -6.112390756607055664e-01
8.032000000000000000e+03 1.217611598968505859e+01 -7.835103034973144531e+00 -2.898808717727661133e-01 -4.905603528022766113e-01 -2.341323643922805786e-01 -6.893866658210754395e-01
8.033000000000000000e+03 1.989431381225585938e+01 -1.884641456604003906e+01 2.319550961256027222e-01 -1.000840216875076294e-01 3.956132382154464722e-02 -3.125827312469482422e-01
8.034000000000000000e+03 2.948346519470214844e+01 3.008052825927734375e+00 -1.580410838127136230e+00 -8.290203809738159180e-01 -7.228293418884277344e-01 -4.838896393775939941e-01
8.035000000000000000e+03 3.043818664550781250e+01 3.163385868072509766e+00 -1.413502335548400879e+00 -7.958584427833557129e-01 -6.628082394599914551e-01 -4.189855456352233887e-01
8.036000000000000000e+03 5.246160125732421875e+01 2.976731300354003906e+01 -1.385875701904296875e+00 -3.298211991786956787e-01 -5.147090554237365723e-01 -9.549096822738647461e-01
8.037000000000000000e+03 3.299065399169921875e+01 2.581174087524414062e+01 5.829396843910217285e-02 8.754260092973709106e-02 4.375097155570983887e-02 7.221525907516479492e-02
8.038000000000000000e+03 2.984803962707519531e+01 2.239502716064453125e+01 6.510885804891586304e-02 9.635980427265167236e-02 4.844059795141220093e-02 8.284255117177963257e-02
8.039000000000000000e+03 2.323744583129882812e+01 1.690902519226074219e+01 8.387997746467590332e-02 1.354408115148544312e-01 6.579624116420745850e-02 1.078044921159744263e-01
8.040000000000000000e+03 9.144170761108398438e+00 5.644581794738769531e+00 2.318313866853713989e-01 -9.554176777601242065e-02 4.088688641786575317e-02 1.054629869759082794e-02
8.041000000000000000e+03 1.566707038879394531e+01 8.310799598693847656e+00 1.186633780598640442e-01 3.075996339321136475e-01 1.278789043426513672e-01 1.749612390995025635e-01
8.042000000000000000e+03 3.234503936767578125e+01 2.710519599914550781e+01 5.275226756930351257e-02 8.805273473262786865e-02 4.224150255322456360e-02 6.820846349000930786e-02
8.043000000000000000e+03 7.340167999267578125e+01 3.030299758911132812e+01 -1.879791855812072754e+00 1.155200290679931641e+01 2.901663303375244141e+00 3.110599756240844727e+00
8.044000000000000000e+03 2.716467094421386719e+01 8.635246157646179199e-01 -9.689075946807861328e-01 -4.394585192203521729e-01 -4.225098192691802979e-01 -2.178751230239868164e-01
8.045000000000000000e+03 4.462681579589843750e+01 -1.661073112487792969e+01 2.302039414644241333e-01 3.119087815284729004e-01 1.626338213682174683e-01 5.395530536770820618e-02
8.046000000000000000e+03 3.526754760742187500e+01 2.891810989379882812e+01 5.863292887806892395e-02 8.235622942447662354e-02 4.229674488306045532e-02 6.490436941385269165e-02
8.047000000000000000e+03 3.345074462890625000e+01 -3.000500440597534180e+00 4.916453957557678223e-01 -6.557365655899047852e-01 -4.922736063599586487e-02 4.705408588051795959e-02
8.048000000000000000e+03 2.974310111999511719e+01 2.147696733474731445e+00 -1.188907027244567871e+00 -7.539155483245849609e-01 -5.828467607498168945e-01 -2.844608426094055176e-01
8.049000000000000000e+03 2.961461257934570312e+01 2.739871740341186523e+00 -1.457539796829223633e+00 -8.086174130439758301e-01 -6.798471808433532715e-01 -4.266313910484313965e-01
8.050000000000000000e+03 9.450005531311035156e+00 6.108877658843994141e+00 2.289600670337677002e-01 -5.018157884478569031e-02 5.363354831933975220e-02 -2.862303145229816437e-02
8.051000000000000000e+03 3.301053237915039062e+01 2.859392356872558594e+01 5.143593624234199524e-02 8.596146851778030396e-02 4.121922329068183899e-02 6.368716061115264893e-02
8.052000000000000000e+03 3.269353866577148438e+01 2.924141883850097656e+01 4.929516464471817017e-02 8.544932305812835693e-02 4.042334482073783875e-02 6.097847595810890198e-02
8.053000000000000000e+03 3.315851593017578125e+01 2.900760459899902344e+01 5.099895969033241272e-02 8.538809418678283691e-02 4.091611504554748535e-02 6.248454004526138306e-02
8.054000000000000000e+03 3.063864517211914062e+01 2.659618616104125977e+00 -1.195575833320617676e+00 -7.541025876998901367e-01 -5.849035382270812988e-01 -2.890958786010742188e-01
8.055000000000000000e+03 8.829412460327148438e+00 -9.153118133544921875e+00 -1.526012569665908813e-01 -3.969102203845977783e-01 -1.648534387350082397e-01 -5.198477506637573242e-01
8.056000000000000000e+03 1.854934883117675781e+01 1.173626899719238281e+01 1.059816479682922363e-01 1.919733434915542603e-01 8.938650041818618774e-02 1.417143344879150391e-01
8.057000000000000000e+03 4.509720993041992188e+01 -1.498310565948486328e+01 2.995136976242065430e-01 3.647502660751342773e-01 1.992791891098022461e-01 5.301886424422264099e-02
8.058000000000000000e+03 2.268790817260742188e+01 1.689695167541503906e+01 7.928524166345596313e-02 1.385197043418884277e-01 6.534148752689361572e-02 1.056813150644302368e-01
8.059000000000000000e+03 9.784461021423339844e+00 6.555567264556884766e+00 2.038396894931793213e-01 2.727453224360942841e-02 6.933426856994628906e-02 -5.546353757381439209e-02
8.060000000000000000e+03 6.930210876464843750e+01 2.738112640380859375e+01 -1.078265234827995300e-01 3.478162288665771484e+00 1.011100769042968750e+00 1.849599838256835938e+00
8.061000000000000000e+03 1.244352817535400391e+01 6.360222339630126953e+00 1.233800724148750305e-01 4.260598421096801758e-01 1.648319661617279053e-01 -6.230006366968154907e-02
8.062000000000000000e+03 1.687918472290039062e+01 1.153212070465087891e+01 8.284356445074081421e-02 2.148545384407043457e-01 8.930943161249160767e-02 1.256116032600402832e-01
8.063000000000000000e+03 3.046831130981445312e+01 2.105300664901733398e+00 -1.060223698616027832e+00 -7.390463948249816895e-01 -5.397810339927673340e-01 -2.173510491847991943e-01
8.064000000000000000e+03 3.286078262329101562e+01 -2.895734786987304688e+00 4.540308415889739990e-01 -6.616644859313964844e-01 -6.229010224342346191e-02 1.657037995755672455e-02
8.065000000000000000e+03 1.161740016937255859e+01 6.277773857116699219e+00 1.739012300968170166e-01 2.816676199436187744e-01 1.366706490516662598e-01 -1.077762395143508911e-01
8.066000000000000000e+03 7.450785064697265625e+01 2.670756912231445312e+01 -1.145952939987182617e+00 9.722424507141113281e+00 2.572941541671752930e+00 1.104542970657348633e+00
8.067000000000000000e+03 7.371603393554687500e+01 2.671235847473144531e+01 -1.065832376480102539e+00 8.851692199707031250e+00 2.335757732391357422e+00 1.604313731193542480e+00
8.068000000000000000e+03 5.411197662353515625e+00 5.647133350372314453e+00 6.093086674809455872e-02 -1.364805847406387329e-01 -2.266491390764713287e-02 1.193806976079940796e-01
8.069000000000000000e+03 1.141257953643798828e+01 -2.039332389831542969e+01 1.673316955566406250e-01 -6.198939681053161621e-01 -1.357686817646026611e-01 -4.003176093101501465e-01
8.070000000000000000e+03 7.378135681152343750e+01 2.892521476745605469e+01 -1.748898625373840332e+00 1.055741977691650391e+01 2.642556428909301758e+00 2.067469835281372070e+00
8.071000000000000000e+03 5.268608093261718750e+01 2.873014068603515625e+01 -1.378136992454528809e+00 -2.457192689180374146e-01 -4.871568977832794189e-01 -9.642847776412963867e-01
8.072000000000000000e+03 2.329733276367187500e+01 1.776828956604003906e+01 7.508949935436248779e-02 1.321265548467636108e-01 6.216481700539588928e-02 1.012217998504638672e-01
8.073000000000000000e+03 3.416044235229492188e+01 1.211755847930908203e+01 -1.288418889045715332e+00 -1.424190402030944824e+00 -8.137828111648559570e-01 -1.309588670730590820e+00
8.074000000000000000e+03 2.802602386474609375e+01 2.179312515258789062e+01 6.384593993425369263e-02 1.045658364892005920e-01 5.052353441715240479e-02 8.484684675931930542e-02
8.075000000000000000e+03 3.424655914306640625e+01 1.166590881347656250e+01 -1.259064078330993652e+00 -1.375910162925720215e+00 -7.904922962188720703e-01 -1.263652682304382324e+00
8.076000000000000000e+03 2.058803939819335938e+01 1.387359714508056641e+01 1.004209220409393311e-01 1.619586944580078125e-01 7.871388643980026245e-02 1.255148351192474365e-01
8.077000000000000000e+03 2.045786285400390625e+01 1.420272731781005859e+01 9.430453926324844360e-02 1.600885540246963501e-01 7.631792873144149780e-02 1.208802834153175354e-01
8.078000000000000000e+03 1.531939601898193359e+01 8.338070869445800781e+00 1.054870635271072388e-01 3.211823701858520508e-01 1.280008256435394287e-01 1.582110226154327393e-01
8.079000000000000000e+03 2.738904190063476562e+01 2.185118484497070312e+01 6.004067510366439819e-02 1.068624332547187805e-01 5.007093399763107300e-02 8.373103290796279907e-02
8.080000000000000000e+03 3.436682128906250000e+01 3.614238023757934570e+00 -8.007671833038330078e-01 -6.887341737747192383e-01 -4.468503892421722412e-01 -3.313328623771667480e-01
8.081000000000000000e+03 1.646907234191894531e+01 1.204945850372314453e+01 6.918171048164367676e-02 2.096367478370666504e-01 8.364553749561309814e-02 1.110233813524246216e-01
8.082000000000000000e+03 1.504249858856201172e+01 1.059630203247070312e+01 6.656056642532348633e-02 2.477178573608398438e-01 9.428352862596511841e-02 1.015934199094772339e-01
8.083000000000000000e+03 3.292230606079101562e+01 -2.349700450897216797e+00 3.855236172676086426e-01 -6.721605062484741211e-01 -8.599106967449188232e-02 5.222667008638381958e-02
8.084000000000000000e+03 8.396609306335449219e+00 6.913317203521728516e+00 1.697448790073394775e-01 -7.082565128803253174e-02 2.967577055096626282e-02 8.340934291481971741e-03
8.085000000000000000e+03 2.975070381164550781e+01 1.564048171043395996e+00 -9.649870991706848145e-01 -7.024296522140502930e-01 -5.002250075340270996e-01 -1.853463947772979736e-01
8.086000000000000000e+03 2.234195327758789062e+01 1.710727500915527344e+01 7.372311502695083618e-02 1.392065882682800293e-01 6.387890875339508057e-02 1.025738194584846497e-01
8.087000000000000000e+03 7.356332397460937500e+01 2.729367256164550781e+01 -1.220633506774902344e+00 9.024396896362304688e+00 2.341129064559936523e+00 1.792710304260253906e+00
8.088000000000000000e+03 3.426684951782226562e+01 6.724126338958740234e+00 -1.078191280364990234e+00 -9.272017478942871094e-01 -6.016179323196411133e-01 -8.079500198364257812e-01
8.089000000000000000e+03 1.976850891113281250e+01 1.407097244262695312e+01 8.756963908672332764e-02 1.651290655136108398e-01 7.580961287021636963e-02 1.187832355499267578e-01
8.090000000000000000e+03 1.975276565551757812e+01 1.441103363037109375e+01 8.346275985240936279e-02 1.636368483304977417e-01 7.412987947463989258e-02 1.150033399462699890e-01
8.091000000000000000e+03 2.806705665588378906e+01 2.484179878234863281e+01 4.477417841553688049e-02 1.002470701932907104e-01 4.350637272000312805e-02 7.269417494535446167e-02
8.092000000000000000e+03 3.204049682617187500e+01 1.207984924316406250e+00 -5.619712471961975098e-01 -6.912697553634643555e-01 -3.759723007678985596e-01 -5.813601240515708923e-02
8.093000000000000000e+03 3.542010116577148438e+01 5.835332870483398438e+00 -8.702058196067810059e-01 -7.960963249206542969e-01 -4.998906552791595459e-01 -5.875120759010314941e-01
8.094000000000000000e+03 2.741399765014648438e+01 2.226614379882812500e+01 5.758285522460937500e-02 1.061868444085121155e-01 4.913090914487838745e-02 8.203309029340744019e-02
8.095000000000000000e+03 2.693209266662597656e+01 2.222025489807128906e+01 5.533379316329956055e-02 1.087965890765190125e-01 4.923911392688751221e-02 8.191666752099990845e-02
8.096000000000000000e+03 6.524426269531250000e+01 2.623190116882324219e+01 -1.129068657755851746e-01 1.461558341979980469e+00 4.045954644680023193e-01 4.319366216659545898e-01
8.097000000000000000e+03 3.303614044189453125e+01 8.025581836700439453e-01 -3.373471498489379883e-01 -6.769617199897766113e-01 -3.042926788330078125e-01 -1.166012790054082870e-02
8.098000000000000000e+03 5.219596099853515625e+01 2.821605873107910156e+01 -1.351787686347961426e+00 -3.441033363342285156e-01 -5.087673068046569824e-01 -9.803845286369323730e-01
8.099000000000000000e+03 3.744931793212890625e+01 -3.353710651397705078e+00 4.316936731338500977e-01 -5.486690998077392578e-01 -3.509263694286346436e-02 5.875682458281517029e-02
8.100000000000000000e+03 3.560733795166015625e+01 4.041320800781250000e+00 -6.741050481796264648e-01 -6.804372668266296387e-01 -4.063627123832702637e-01 -3.420399129390716553e-01
8.101000000000000000e+03 3.514273452758789062e+01 6.125364780426025391e+00 -9.361765384674072266e-01 -8.187755346298217773e-01 -5.264856219291687012e-01 -6.471558809280395508e-01
8.102000000000000000e+03 3.540675354003906250e+01 6.330561161041259766e+00 -9.123221039772033691e-01 -8.315053582191467285e-01 -5.231482386589050293e-01 -6.476866602897644043e-01
8.103000000000000000e+03 1.891014289855957031e+01 1.264486980438232422e+01 9.709642827510833740e-02 1.811250895261764526e-01 8.346645534038543701e-02 1.322173476219177246e-01
8.104000000000000000e+03 1.860553359985351562e+01 1.265271186828613281e+01 9.379052370786666870e-02 1.843290179967880249e-01 8.343586325645446777e-02 1.303309649229049683e-01
8.105000000000000000e+03 3.082816886901855469e+01 1.918141603469848633e+00 -9.632377028465270996e-01 -7.060388326644897461e-01 -5.007829666137695312e-01 -1.768803000450134277e-01
8.106000000000000000e+03 5.148936843872070312e+01 2.871931457519531250e+01 -1.373326778411865234e+00 -5.308474302291870117e-01 -5.712522864341735840e-01 -1.019334912300109863e+00
8.107000000000000000e+03 3.251124191284179688e+01 -5.609402060508728027e-01 -2.006489224731922150e-02 -6.810604333877563477e-01 -2.103375941514968872e-01 5.706708878278732300e-02
8.108000000000000000e+03 3.288697814941406250e+01 -2.108798921108245850e-01 -9.393589943647384644e-02 -6.774877905845642090e-01 -2.314271181821823120e-01 3.834387660026550293e-02
8.109000000000000000e+03 3.447115325927734375e+01 1.192954635620117188e+01 -1.253584146499633789e+00 -1.379311323165893555e+00 -7.898686528205871582e-01 -1.259352445602416992e+00
8.110000000000000000e+03 2.143156242370605469e+01 1.745017814636230469e+01 6.278838962316513062e-02 1.404674500226974487e-01 6.097675114870071411e-02 9.502679109573364258e-02
8.111000000000000000e+03 2.176807975769042969e+01 1.685008239746093750e+01 7.201021164655685425e-02 1.422666758298873901e-01 6.428306549787521362e-02 1.019724309444427490e-01
8.112000000000000000e+03 3.513463973999023438e+01 4.203760623931884766e+00 -7.689625620841979980e-01 -6.979878544807434082e-01 -4.400851130485534668e-01 -3.873240053653717041e-01
8.113000000000000000e+03 2.121205520629882812e+01 1.663607788085937500e+01 7.033601403236389160e-02 1.457543969154357910e-01 6.482712179422378540e-02 1.009887680411338806e-01
8.114000000000000000e+03 1.983398628234863281e+01 1.467438411712646484e+01 8.041875809431076050e-02 1.615653336048126221e-01 7.259523123502731323e-02 1.123101934790611267e-01
8.115000000000000000e+03 1.956692504882812500e+01 1.483367919921875000e+01 7.554254680871963501e-02 1.611284464597702026e-01 7.100129872560501099e-02 1.086427271366119385e-01
8.116000000000000000e+03 1.944424819946289062e+01 1.449296474456787109e+01 7.870551943778991699e-02 1.641552895307540894e-01 7.285824418067932129e-02 1.118274256587028503e-01
8.117000000000000000e+03 1.525525760650634766e+01 1.336003303527832031e+01 4.256894811987876892e-02 1.848678588867187500e-01 6.823103874921798706e-02 7.300112396478652954e-02
8.118000000000000000e+03 7.253614807128906250e+01 -1.537712955474853516e+01 3.859741985797882080e-02 5.213588714599609375e+00 1.575655817985534668e+00 2.295376360416412354e-01
8.119000000000000000e+03 4.670765686035156250e+01 2.429990196228027344e+01 -1.333282828330993652e+00 -1.052610754966735840e+00 -7.157680392265319824e-01 -1.225171208381652832e+00
8.120000000000000000e+03 2.122521209716796875e+01 1.817251586914062500e+01 5.419241264462471008e-02 1.366681307554244995e-01 5.725816264748573303e-02 8.812595158815383911e-02
8.121000000000000000e+03 2.507070350646972656e+01 2.024807167053222656e+01 6.215321645140647888e-02 1.187910288572311401e-01 5.428327247500419617e-02 8.785888552665710449e-02
8.122000000000000000e+03 2.001155662536621094e+01 1.492062664031982422e+01 7.898613065481185913e-02 1.592673063278198242e-01 7.147603482007980347e-02 1.104617714881896973e-01
8.123000000000000000e+03 9.622277259826660156e+00 1.108169078826904297e+01 5.613597854971885681e-02 7.051280140876770020e-02 3.799463436007499695e-02 -2.034148573875427246e-02
8.124000000000000000e+03 5.777721786499023438e+01 2.581731605529785156e+01 -8.393085002899169922e-01 4.429138898849487305e-01 -1.189183816313743591e-01 -7.364665269851684570e-01
8.125000000000000000e+03 5.990807342529296875e+01 2.570826148986816406e+01 -6.162450313568115234e-01 6.169887185096740723e-01 2.231106191175058484e-04 -5.529646873474121094e-01
8.126000000000000000e+03 5.921493911743164062e+01 2.533682823181152344e+01 -6.157570481300354004e-01 6.062776446342468262e-01 -2.843828406184911728e-03 -5.838561654090881348e-01
8.127000000000000000e+03 1.016112899780273438e+01 1.804002380371093750e+01 3.771531628444790840e-04 3.712166473269462585e-02 1.124964561313390732e-02 -9.152185171842575073e-03
8.128000000000000000e+03 6.053904724121093750e+01 -1.620509719848632812e+01 1.728356778621673584e-01 3.003339529037475586e+00 9.528525471687316895e-01 2.980762124061584473e-01
8.129000000000000000e+03 2.516226577758789062e+01 2.266064071655273438e+01 4.386856779456138611e-02 1.119494661688804626e-01 4.674540832638740540e-02 7.516867667436599731e-02
8.130000000000000000e+03 7.058164215087890625e+01 3.380010649561882019e-02 1.539696753025054932e-01 5.199616432189941406e+00 1.606075882911682129e+00 5.622978806495666504e-01
8.131000000000000000e+03 1.948368263244628906e+01 1.537018013000488281e+01 6.798626482486724854e-02 1.572840064764022827e-01 6.758107990026473999e-02 1.019897684454917908e-01
8.132000000000000000e+03 4.270228958129882812e+01 1.849059295654296875e+01 -9.926318526268005371e-01 -1.071041941642761230e+00 -6.191021203994750977e-01 -1.149272799491882324e+00
8.133000000000000000e+03 6.522312164306640625e+01 2.508549690246582031e+01 5.287206918001174927e-02 1.758322596549987793e+00 5.433583855628967285e-01 5.194191336631774902e-01
8.134000000000000000e+03 6.079453659057617188e+01 2.507159996032714844e+01 -4.294825196266174316e-01 7.952706217765808105e-01 1.097364276647567749e-01 -3.690351843833923340e-01
8.135000000000000000e+03 7.114098358154296875e+01 1.719270706176757812e+01 2.400471270084381104e-01 5.756694316864013672e+00 1.799022316932678223e+00 1.136643052101135254e+00
8.136000000000000000e+03 7.154901885986328125e+01 1.592868041992187500e+01 2.441976815462112427e-01 5.958231925964355469e+00 1.860728859901428223e+00 1.070953726768493652e+00
8.137000000000000000e+03 1.853442955017089844e+01 1.329033279418945312e+01 8.302449434995651245e-02 1.791552752256393433e-01 7.865393161773681641e-02 1.198625788092613220e-01
8.138000000000000000e+03 3.799724578857421875e+01 7.131014823913574219e+00 -6.866829395294189453e-01 -7.382359504699707031e-01 -4.274756908416748047e-01 -5.571667551994323730e-01
8.139000000000000000e+03 3.958538055419921875e+01 -3.657627105712890625e+00 4.373921751976013184e-01 -4.004765748977661133e-01 1.107468176633119583e-02 6.773594766855239868e-02
8.140000000000000000e+03 3.883362197875976562e+01 -2.540580272674560547e+00 3.563180267810821533e-01 -4.677808582782745361e-01 -3.343884646892547607e-02 6.813270598649978638e-02
8.141000000000000000e+03 3.457439422607421875e+01 4.854238033294677734e-01 -1.764061748981475830e-01 -6.523399353027343750e-01 -2.486238330602645874e-01 4.337910097092390060e-03
8.142000000000000000e+03 7.207411193847656250e+01 1.162910652160644531e+01 2.135533988475799561e-01 6.035604476928710938e+00 1.874747395515441895e+00 8.730566501617431641e-01
8.143000000000000000e+03 7.049313354492187500e+01 1.018614387512207031e+01 2.529817819595336914e-01 5.427475452423095703e+00 1.704137206077575684e+00 8.736679553985595703e-01
8.144000000000000000e+03 5.040236282348632812e+01 -1.432212829589843750e+01 3.121741414070129395e-01 1.191972851753234863e+00 4.512440860271453857e-01 1.509030014276504517e-01
8.145000000000000000e+03 5.022175216674804688e+01 -1.302948284149169922e+01 3.427157700061798096e-01 1.143358707427978516e+00 4.458223581314086914e-01 1.538633704185485840e-01
8.146000000000000000e+03 1.831222343444824219e+01 1.353963279724121094e+01 7.606942951679229736e-02 1.784945130348205566e-01 7.636918127536773682e-02 1.141299679875373840e-01
8.147000000000000000e+03 8.321175575256347656e+00 9.010686874389648438e+00 1.100518703460693359e-01 -1.204986684024333954e-02 2.940060012042522430e-02 -1.550033502280712128e-02
8.148000000000000000e+03 9.082454681396484375e+00 1.268622684478759766e+01 3.963082656264305115e-02 4.450238496065139771e-02 2.523996308445930481e-02 -2.003990299999713898e-02
8.149000000000000000e+03 9.665184974670410156e+00 1.296653175354003906e+01 3.545590117573738098e-02 5.930888652801513672e-02 2.842943556606769562e-02 -1.525333337485790253e-02
8.150000000000000000e+03 8.836564064025878906e+00 1.668014907836914062e+01 5.125059746205806732e-03 1.604255288839340210e-02 6.350283976644277573e-03 -1.712141372263431549e-02
8.151000000000000000e+03 4.060391616821289062e+01 -3.453908920288085938e+00 4.257008731365203857e-01 -3.212722539901733398e-01 3.132858127355575562e-02 8.422373235225677490e-02
8.152000000000000000e+03 1.388535594940185547e+01 1.431411266326904297e+01 2.543286234140396118e-02 1.550024002790451050e-01 5.413058027625083923e-02 4.183721542358398438e-02
8.153000000000000000e+03 6.467409515380859375e+01 2.403141021728515625e+01 1.101952046155929565e-01 1.818229317665100098e+00 5.785273909568786621e-01 4.650312364101409912e-01
8.154000000000000000e+03 4.719647598266601562e+01 2.404274177551269531e+01 -1.265086770057678223e+00 -9.531075954437255859e-01 -6.654583215713500977e-01 -1.164116621017456055e+00
8.155000000000000000e+03 3.969514465332031250e+01 -2.737716197967529297e+00 3.805278539657592773e-01 -3.951255083084106445e-01 -4.379297606647014618e-03 6.844683736562728882e-02
8.156000000000000000e+03 5.142580413818359375e+01 2.678665161132812500e+01 -1.265281558036804199e+00 -4.246684610843658447e-01 -5.069850087165832520e-01 -9.914947152137756348e-01
8.157000000000000000e+03 5.763705825805664062e+01 2.465641212463378906e+01 -6.739127635955810547e-01 5.034633278846740723e-01 -5.113483592867851257e-02 -6.456362009048461914e-01
8.158000000000000000e+03 4.298008346557617188e+01 1.724671173095703125e+01 -9.007242321968078613e-01 -9.514689445495605469e-01 -5.556579232215881348e-01 -1.042292237281799316e+00
8.159000000000000000e+03 5.150787353515625000e+01 2.771556663513183594e+01 -1.336098194122314453e+00 -4.624963998794555664e-01 -5.395783782005310059e-01 -1.006301164627075195e+00
8.160000000000000000e+03 3.652008056640625000e+01 1.342992544174194336e+00 -2.136120796203613281e-01 -6.012117862701416016e-01 -2.444471567869186401e-01 -5.749787017703056335e-02
8.161000000000000000e+03 7.081356811523437500e+01 2.472811317443847656e+01 -1.367506086826324463e-01 5.534647941589355469e+00 1.619369268417358398e+00 1.743439674377441406e+00
8.162000000000000000e+03 7.049007415771484375e+01 1.210508346557617188e+01 2.678068280220031738e-01 5.416338443756103516e+00 1.705243587493896484e+00 9.281717538833618164e-01
8.163000000000000000e+03 7.088314819335937500e+01 1.098498439788818359e+01 2.479609847068786621e-01 5.578428745269775391e+00 1.747916817665100098e+00 8.952882885932922363e-01
8.164000000000000000e+03 6.974529266357421875e+01 8.490822792053222656e+00 2.661441862583160400e-01 5.147013664245605469e+00 1.623947381973266602e+00 8.204101324081420898e-01
8.165000000000000000e+03 1.232716655731201172e+01 1.708284378051757812e+01 6.486349739134311676e-03 9.093267470598220825e-02 2.922570705413818359e-02 1.182737667113542557e-02
8.166000000000000000e+03 7.029306793212890625e+01 1.744600105285644531e+01 2.810537517070770264e-01 5.329343318939208984e+00 1.683119058609008789e+00 1.153021097183227539e+00
8.167000000000000000e+03 7.002796173095703125e+01 1.679575157165527344e+01 2.973859012126922607e-01 5.200809955596923828e+00 1.649458765983581543e+00 1.110505223274230957e+00
8.168000000000000000e+03 4.345700454711914062e+01 1.869736099243164062e+01 -9.638621211051940918e-01 -1.020015716552734375e+00 -5.951633453369140625e-01 -1.105898737907409668e+00
8.169000000000000000e+03 1.287965869903564453e+01 1.233628463745117188e+01 3.417160734534263611e-02 1.732220351696014404e-01 6.221809238195419312e-02 3.055276535451412201e-02
8.170000000000000000e+03 8.787961959838867188e+00 1.584477615356445312e+01 9.598084725439548492e-03 1.972227729856967926e-02 8.796108886599540710e-03 -1.673401892185211182e-02
8.171000000000000000e+03 1.006227016448974609e+01 1.391268920898437500e+01 2.232363075017929077e-02 6.680013984441757202e-02 2.673713117837905884e-02 -9.632796980440616608e-03
8.172000000000000000e+03 4.885320663452148438e+01 2.540255546569824219e+01 -1.263800144195556641e+00 -8.166285157203674316e-01 -6.241285800933837891e-01 -1.127121925354003906e+00
8.173000000000000000e+03 4.913425827026367188e+01 2.559792709350585938e+01 -1.261195540428161621e+00 -7.870600819587707520e-01 -6.144766807556152344e-01 -1.112825036048889160e+00
8.174000000000000000e+03 4.964055252075195312e+01 2.539624404907226562e+01 -1.216272115707397461e+00 -6.721482276916503906e-01 -5.665261149406433105e-01 -1.058256030082702637e+00
8.175000000000000000e+03 4.990837097167968750e+01 2.591259574890136719e+01 -1.247424602508544922e+00 -6.689853668212890625e-01 -5.749229788780212402e-01 -1.063754916191101074e+00
8.176000000000000000e+03 3.779302597045898438e+01 1.129046916961669922e+00 -8.928354084491729736e-02 -5.401802062988281250e-01 -1.888391226530075073e-01 -3.095298446714878082e-02
8.177000000000000000e+03 6.319214630126953125e+01 2.385209274291992188e+01 2.906750142574310303e-02 1.453827142715454102e+00 4.448683857917785645e-01 1.880980283021926880e-01
8.178000000000000000e+03 6.445125579833984375e+01 2.342716598510742188e+01 1.703327149152755737e-01 1.894993662834167480e+00 6.195979118347167969e-01 4.685212075710296631e-01
8.179000000000000000e+03 5.070291900634765625e+01 -9.786532402038574219e+00 4.079067111015319824e-01 1.122221112251281738e+00 4.590383470058441162e-01 1.970476210117340088e-01
8.180000000000000000e+03 6.816215515136718750e+01 7.326004505157470703e+00 2.950475811958312988e-01 4.621980667114257812e+00 1.475108504295349121e+00 7.960492968559265137e-01
8.181000000000000000e+03 4.436940002441406250e+01 1.882796669006347656e+01 -9.210110306739807129e-01 -9.458201527595520020e-01 -5.600493550300598145e-01 -1.043401837348937988e+00
8.182000000000000000e+03 6.804817962646484375e+01 1.404222488403320312e+01 3.677051961421966553e-01 4.472365856170654297e+00 1.452021360397338867e+00 9.521757364273071289e-01
8.183000000000000000e+03 6.366685867309570312e+01 2.354942321777343750e+01 8.096326887607574463e-02 1.595925569534301758e+00 5.030666589736938477e-01 2.896235287189483643e-01
8.184000000000000000e+03 1.834495925903320312e+01 1.782153511047363281e+01 3.497340530157089233e-02 1.394014060497283936e-01 5.231244489550590515e-02 7.125985622406005859e-02
8.185000000000000000e+03 3.704165649414062500e+01 1.299997234344482422e+01 -1.104980707168579102e+00 -1.259287595748901367e+00 -7.092805504798889160e-01 -1.134735941886901855e+00
8.186000000000000000e+03 5.499456024169921875e+01 2.487409591674804688e+01 -9.003430604934692383e-01 2.052489221096038818e-01 -2.085282504558563232e-01 -7.906025052070617676e-01
8.187000000000000000e+03 6.496385955810546875e+01 2.293144226074218750e+01 2.322517633438110352e-01 2.173795938491821289e+00 7.218142747879028320e-01 6.070243716239929199e-01
8.188000000000000000e+03 6.601234436035156250e+01 -1.277328205108642578e+01 1.447570472955703735e-01 4.034812927246093750e+00 1.253870964050292969e+00 3.588517010211944580e-01
8.189000000000000000e+03 6.503612518310546875e+01 -1.216517162322998047e+01 1.657058000564575195e-01 3.846724510192871094e+00 1.203729033470153809e+00 3.703369796276092529e-01
8.190000000000000000e+03 6.947951507568359375e+01 1.735635566711425781e+01 3.174817860126495361e-01 4.915277481079101562e+00 1.569827795028686523e+00 1.124218344688415527e+00
8.191000000000000000e+03 4.297842407226562500e+01 -1.099661588668823242e+00 2.959680855274200439e-01 -1.158792898058891296e-01 5.402664095163345337e-02 8.305186033248901367e-02
8.192000000000000000e+03 1.684189414978027344e+01 1.547676849365234375e+01 4.092666879296302795e-02 1.599955111742019653e-01 6.027665734291076660e-02 7.645826041698455811e-02
8.193000000000000000e+03 5.268908691406250000e+01 -8.082668304443359375e+00 4.077103435993194580e-01 1.436823129653930664e+00 5.533600449562072754e-01 2.670033574104309082e-01
8.194000000000000000e+03 6.031114196777343750e+01 -1.054163360595703125e+01 2.618171274662017822e-01 2.894063234329223633e+00 9.467641115188598633e-01 3.695740401744842529e-01
8.195000000000000000e+03 3.894594573974609375e+01 1.298853588104248047e+01 -9.567528367042541504e-01 -1.069119691848754883e+00 -6.077618002891540527e-01 -9.861252307891845703e-01
8.196000000000000000e+03 3.750844955444335938e+01 1.337424373626708984e+01 -1.094731926918029785e+00 -1.238333344459533691e+00 -6.999195814132690430e-01 -1.126381874084472656e+00
8.197000000000000000e+03 1.678920364379882812e+01 1.587499904632568359e+01 3.634233772754669189e-02 1.544604152441024780e-01 5.724082142114639282e-02 7.211059331893920898e-02
8.198000000000000000e+03 6.398620986938476562e+01 2.301786231994628906e+01 1.760153472423553467e-01 1.815159440040588379e+00 5.973524451255798340e-01 4.129193425178527832e-01
8.199000000000000000e+03 4.106898498535156250e+01 1.792747974395751953e+00 1.176450960338115692e-02 -3.360709846019744873e-01 -9.729193896055221558e-02 -3.136581927537918091e-02
8.200000000000000000e+03 4.157744598388671875e+01 8.258943557739257812e-01 1.232334449887275696e-01 -2.720641195774078369e-01 -4.464920237660408020e-02 1.912775449454784393e-02
8.201000000000000000e+03 3.962417602539062500e+01 5.363121032714843750e+00 -4.085258245468139648e-01 -5.373818278312683105e-01 -2.837722897529602051e-01 -3.130670785903930664e-01
8.202000000000000000e+03 5.373139190673828125e+01 -8.878390312194824219e+00 3.783759176731109619e-01 1.640945076942443848e+00 6.057962775230407715e-01 2.813503146171569824e-01
8.203000000000000000e+03 6.013181304931640625e+01 -9.243350982666015625e+00 2.884621024131774902e-01 2.841507673263549805e+00 9.389909505844116211e-01 3.937046527862548828e-01
8.204000000000000000e+03 5.751456832885742188e+01 2.304030990600585938e+01 -4.525770246982574463e-01 6.191650629043579102e-01 4.997641965746879578e-02 -4.977179467678070068e-01
8.205000000000000000e+03 5.296396636962890625e+01 -8.903463363647460938e+00 3.955869972705841064e-01 1.513773322105407715e+00 5.728080868721008301e-01 2.643972933292388916e-01
8.206000000000000000e+03 5.754762268066406250e+01 2.234776306152343750e+01 -3.672096431255340576e-01 6.688817739486694336e-01 9.050164371728897095e-02 -4.334953427314758301e-01
8.207000000000000000e+03 5.809488296508789062e+01 2.230004882812500000e+01 -3.070240020751953125e-01 7.640075087547302246e-01 1.370950490236282349e-01 -3.800017833709716797e-01
8.208000000000000000e+03 4.536056518554687500e+01 1.761426925659179688e+01 -7.648555636405944824e-01 -7.380751371383666992e-01 -4.508792161941528320e-01 -8.869497179985046387e-01
8.209000000000000000e+03 6.388028717041015625e+01 2.137327003479003906e+01 2.549581825733184814e-01 2.090136766433715820e+00 7.035284638404846191e-01 4.883244335651397705e-01
8.210000000000000000e+03 4.527744293212890625e+01 1.997276306152343750e+01 -9.652187824249267578e-01 -9.269851446151733398e-01 -5.676611661911010742e-01 -1.036853671073913574e+00
8.211000000000000000e+03 4.552451705932617188e+01 2.020843887329101562e+01 -9.724209308624267578e-01 -9.179559350013732910e-01 -5.671130418777465820e-01 -1.033797979354858398e+00
8.212000000000000000e+03 6.635291290283203125e+01 6.843261241912841797e+00 3.299524188041687012e-01 4.082315921783447266e+00 1.323680400848388672e+00 7.641724944114685059e-01
8.213000000000000000e+03 5.387802505493164062e+01 -7.290330886840820312e+00 3.985943198204040527e-01 1.634994506835937500e+00 6.100766658782958984e-01 3.076256811618804932e-01
8.214000000000000000e+03 3.945662689208984375e+01 1.318050193786621094e+01 -9.251242280006408691e-01 -1.028837561607360840e+00 -5.861885547637939453e-01 -9.637542366981506348e-01
8.215000000000000000e+03 4.036304473876953125e+01 1.308978939056396484e+01 -8.556962013244628906e-01 -9.345416426658630371e-01 -5.370713472366333008e-01 -8.984266519546508789e-01
8.216000000000000000e+03 5.035357284545898438e+01 2.240013122558593750e+01 -9.034824967384338379e-01 -3.745577037334442139e-01 -3.834120631217956543e-01 -8.525046706199645996e-01
8.217000000000000000e+03 4.263571548461914062e+01 4.046882629394531250e+00 -8.704430609941482544e-02 -2.455561012029647827e-01 -9.978011995553970337e-02 -1.117720976471900940e-01
8.218000000000000000e+03 1.723804855346679688e+01 1.551486873626708984e+01 4.364610835909843445e-02 1.605059653520584106e-01 6.124562397599220276e-02 8.071678876876831055e-02
8.219000000000000000e+03 4.538318634033203125e+01 1.823015403747558594e+01 -8.080288767814636230e-01 -7.817370891571044922e-01 -4.769297838211059570e-01 -9.260417222976684570e-01
8.220000000000000000e+03 4.662826156616210938e+01 2.110166740417480469e+01 -9.952957034111022949e-01 -8.348671793937683105e-01 -5.490488409996032715e-01 -1.002629041671752930e+00
8.221000000000000000e+03 5.325584411621093750e+01 2.160095977783203125e+01 -6.274431347846984863e-01 1.227456927299499512e-01 -1.514092236757278442e-01 -6.385377049446105957e-01
8.222000000000000000e+03 5.843523788452148438e+01 1.987283515930175781e+01 -6.198583170771598816e-02 1.033538699150085449e+00 2.914658486843109131e-01 -1.298331618309020996e-01
8.223000000000000000e+03 4.696783065795898438e+01 1.629826736450195312e+01 -5.768898129463195801e-01 -4.482107460498809814e-01 -3.075301647186279297e-01 -6.912862062454223633e-01
8.224000000000000000e+03 6.566602325439453125e+01 -7.036377429962158203e+00 2.062151134014129639e-01 3.965253829956054688e+00 1.251440763473510742e+00 4.713786542415618896e-01
8.225000000000000000e+03 5.268566131591796875e+01 2.147219276428222656e+01 -6.566669344902038574e-01 4.136420786380767822e-02 -1.845908164978027344e-01 -6.596833467483520508e-01
8.226000000000000000e+03 6.162411117553710938e+01 -5.558821678161621094e+00 2.994201481342315674e-01 3.098771095275878906e+00 1.019457340240478516e+00 4.708526134490966797e-01
8.227000000000000000e+03 6.085382461547851562e+01 -4.614020824432373047e+00 3.257085382938385010e-01 2.930295944213867188e+00 9.768013358116149902e-01 4.800205230712890625e-01
8.228000000000000000e+03 5.023504638671875000e+01 2.189551162719726562e+01 -8.509937524795532227e-01 -3.482771813869476318e-01 -3.597812950611114502e-01 -8.246907591819763184e-01
8.229000000000000000e+03 6.288026046752929688e+01 1.250106334686279297e+01 3.862969279289245605e-01 2.811410427093505859e+00 9.593122005462646484e-01 6.469912528991699219e-01
8.230000000000000000e+03 5.692205429077148438e+01 1.951957893371582031e+01 -1.600009799003601074e-01 7.978185415267944336e-01 1.913452744483947754e-01 -2.433272004127502441e-01
8.231000000000000000e+03 5.689348602294921875e+01 1.892205619812011719e+01 -1.091365069150924683e-01 8.470456004142761230e-01 2.213727384805679321e-01 -1.980685293674468994e-01
8.232000000000000000e+03 4.564075469970703125e+01 1.498423099517822266e+01 -5.776253342628479004e-01 -5.145311355590820312e-01 -3.276469409465789795e-01 -6.936842799186706543e-01
8.233000000000000000e+03 4.459434127807617188e+01 1.705422997474670410e+00 1.580131202936172485e-01 1.436460856348276138e-02 5.171332135796546936e-02 4.491479694843292236e-02
8.234000000000000000e+03 5.077598190307617188e+01 2.187533569335937500e+01 -8.271445631980895996e-01 -2.750046253204345703e-01 -3.306447565555572510e-01 -7.909132838249206543e-01
8.235000000000000000e+03 5.118628692626953125e+01 2.157793235778808594e+01 -7.609558105468750000e-01 -1.864218860864639282e-01 -2.842133045196533203e-01 -7.485111951828002930e-01
8.236000000000000000e+03 4.358458709716796875e+01 8.988141059875488281e+00 -3.548054397106170654e-01 -3.705545067787170410e-01 -2.176079899072647095e-01 -3.963476419448852539e-01
8.237000000000000000e+03 4.351406860351562500e+01 1.196564102172851562e+01 -5.442969799041748047e-01 -5.455101728439331055e-01 -3.269421458244323730e-01 -6.153153181076049805e-01
8.238000000000000000e+03 4.334943008422851562e+01 8.157765388488769531e+00 -3.105605542659759521e-01 -3.474837243556976318e-01 -1.974132806062698364e-01 -3.454405665397644043e-01
8.239000000000000000e+03 6.179314804077148438e+01 7.802276134490966797e+00 3.825167417526245117e-01 2.806862354278564453e+00 9.568136930465698242e-01 6.175620555877685547e-01
8.240000000000000000e+03 5.815265274047851562e+01 1.855198097229003906e+01 2.536394074559211731e-02 1.123738169670104980e+00 3.447306454181671143e-01 -4.801358655095100403e-02
8.241000000000000000e+03 5.079882431030273438e+01 2.146700286865234375e+01 -7.742330431938171387e-01 -2.391808032989501953e-01 -3.040241599082946777e-01 -7.676959037780761719e-01
8.242000000000000000e+03 4.737618637084960938e+01 1.880345916748046875e+01 -7.346947789192199707e-01 -5.707537531852722168e-01 -3.916345834732055664e-01 -8.172793388366699219e-01
8.243000000000000000e+03 6.155977249145507812e+01 1.344672966003417969e+01 3.561145067214965820e-01 2.376806497573852539e+00 8.198762536048889160e-01 5.263414382934570312e-01
8.244000000000000000e+03 4.759681320190429688e+01 2.009237670898437500e+01 -8.346232771873474121e-01 -6.234054565429687500e-01 -4.374086260795593262e-01 -8.766554594039916992e-01
8.245000000000000000e+03 4.477620315551757812e+01 1.201507949829101562e+01 -4.581904411315917969e-01 -4.226022362709045410e-01 -2.642377912998199463e-01 -5.419026613235473633e-01
8.246000000000000000e+03 4.320774841308593750e+01 1.169261837005615234e+01 -5.520761013031005859e-01 -5.668383240699768066e-01 -3.356743156909942627e-01 -6.131852269172668457e-01
8.247000000000000000e+03 5.651901626586914062e+01 6.560702919960021973e-01 3.816888332366943359e-01 1.918582916259765625e+00 6.900815367698669434e-01 4.223397076129913330e-01
8.248000000000000000e+03 5.773772048950195312e+01 4.584771156311035156e+00 3.648425340652465820e-01 2.015781164169311523e+00 7.141870856285095215e-01 4.496412277221679688e-01
8.249000000000000000e+03 5.770776748657226562e+01 3.811143398284912109e+00 3.704214692115783691e-01 2.038191318511962891e+00 7.225838303565979004e-01 4.589756429195404053e-01
8.250000000000000000e+03 4.782753372192382812e+01 1.858107185363769531e+01 -6.898288726806640625e-01 -4.925726056098937988e-01 -3.547204434871673584e-01 -7.724846601486206055e-01
8.251000000000000000e+03 6.067463302612304688e+01 1.309743976593017578e+01 3.401464521884918213e-01 2.173119306564331055e+00 7.539797425270080566e-01 4.708894193172454834e-01
8.252000000000000000e+03 6.009776306152343750e+01 1.475346851348876953e+01 2.891559004783630371e-01 1.893335342407226562e+00 6.547473669052124023e-01 3.551441133022308350e-01
8.253000000000000000e+03 4.807539367675781250e+01 6.057685375213623047e+00 6.178744137287139893e-02 2.844143509864807129e-01 1.038605421781539917e-01 -1.347846724092960358e-02
8.254000000000000000e+03 4.842866134643554688e+01 6.577816009521484375e+00 5.592706054449081421e-02 3.212403655052185059e-01 1.131502240896224976e-01 -1.913945563137531281e-02
8.255000000000000000e+03 4.527163314819335938e+01 1.135966777801513672e+01 -3.869433999061584473e-01 -3.307603001594543457e-01 -2.153111100196838379e-01 -4.696121215820312500e-01
8.256000000000000000e+03 5.620261764526367188e+01 3.528228282928466797e+00 3.544767796993255615e-01 1.747382164001464844e+00 6.305577158927917480e-01 3.969990611076354980e-01
8.257000000000000000e+03 5.694789123535156250e+01 5.251682758331298828e+00 3.457634449005126953e-01 1.811768293380737305e+00 6.472595334053039551e-01 4.122643470764160156e-01
8.258000000000000000e+03 6.050603103637695312e+01 1.183742141723632812e+01 3.487573564052581787e-01 2.230304718017578125e+00 7.737185955047607422e-01 4.886678755283355713e-01
8.259000000000000000e+03 5.227185821533203125e+01 1.729646301269531250e+01 -3.028124868869781494e-01 2.378304004669189453e-01 -1.949462294578552246e-02 -4.025156795978546143e-01
8.260000000000000000e+03 5.133990097045898438e+01 1.806067276000976562e+01 -4.350154101848602295e-01 4.072795063257217407e-02 -1.182862371206283569e-01 -5.167027115821838379e-01
8.261000000000000000e+03 4.918386077880859375e+01 6.825884342193603516e+00 8.389963954687118530e-02 4.015735983848571777e-01 1.456419676542282104e-01 5.278756725601851940e-04
8.262000000000000000e+03 4.874792480468750000e+01 7.056322097778320312e+00 5.508971959352493286e-02 3.452116549015045166e-01 1.200904101133346558e-01 -3.090524859726428986e-02
8.263000000000000000e+03 5.273757553100585938e+01 1.764478492736816406e+01 -2.997250854969024658e-01 2.842040956020355225e-01 -4.656295292079448700e-03 -3.960987925529479980e-01
8.264000000000000000e+03 5.992294311523437500e+01 1.202328300476074219e+01 3.359885513782501221e-01 2.088174581527709961e+00 7.272489070892333984e-01 4.441249072551727295e-01
8.265000000000000000e+03 4.974931335449218750e+01 1.604924583435058594e+01 -3.804581761360168457e-01 -5.910367146134376526e-02 -1.318685561418533325e-01 -4.896500706672668457e-01
8.266000000000000000e+03 5.647173690795898438e+01 4.809003829956054688e+00 3.436573743820190430e-01 1.718953371047973633e+00 6.187832355499267578e-01 3.891549408435821533e-01
8.267000000000000000e+03 5.782445526123046875e+01 1.393039321899414062e+01 2.089334130287170410e-01 1.458870410919189453e+00 5.003411769866943359e-01 2.079505622386932373e-01
8.268000000000000000e+03 4.991128158569335938e+01 1.777201652526855469e+01 -5.013782978057861328e-01 -1.461747437715530396e-01 -1.942659169435501099e-01 -5.865901708602905273e-01
8.269000000000000000e+03 5.152367782592773438e+01 1.761478233337402344e+01 -3.802014887332916260e-01 1.012016832828521729e-01 -8.369994163513183594e-02 -4.740991890430450439e-01
8.270000000000000000e+03 4.803289031982421875e+01 8.515954971313476562e+00 -6.088891997933387756e-02 1.765143126249313354e-01 3.468761593103408813e-02 -1.360686868429183960e-01
8.271000000000000000e+03 4.984879302978515625e+01 7.049737453460693359e+00 1.141019538044929504e-01 5.131996273994445801e-01 1.881904751062393188e-01 2.497465722262859344e-02
8.272000000000000000e+03 5.179289627075195312e+01 7.176183223724365234e+00 1.725825667381286621e-01 7.808806300163269043e-01 2.860389649868011475e-01 1.093047484755516052e-01
8.273000000000000000e+03 5.577680587768554688e+01 5.943715572357177734e+00 3.222052752971649170e-01 1.543162107467651367e+00 5.596102476119995117e-01 3.354584574699401855e-01
8.274000000000000000e+03 5.006966400146484375e+01 1.657028388977050781e+01 -4.021535813808441162e-01 -5.054649710655212402e-02 -1.358100175857543945e-01 -4.980289041996002197e-01
8.275000000000000000e+03 5.763969421386718750e+01 9.786946296691894531e+00 2.982497513294219971e-01 1.705410361289978027e+00 6.010980606079101562e-01 3.551740050315856934e-01
8.276000000000000000e+03 5.723052978515625000e+01 1.031930255889892578e+01 2.749787867069244385e-01 1.585926413536071777e+00 5.582715868949890137e-01 3.120195567607879639e-01
8.277000000000000000e+03 5.395207214355468750e+01 1.114058303833007812e+01 1.213211864233016968e-01 9.184216260910034180e-01 3.119228482246398926e-01 6.168697401881217957e-02
8.278000000000000000e+03 5.340511703491210938e+01 1.221601104736328125e+01 5.416464805603027344e-02 7.605577111244201660e-01 2.444167137145996094e-01 -2.390550263226032257e-02
8.279000000000000000e+03 5.325896453857421875e+01 1.104703998565673828e+01 9.557842463254928589e-02 7.985761761665344238e-01 2.682463824748992920e-01 2.368674427270889282e-02
8.280000000000000000e+03 5.235073471069335938e+01 1.206914138793945312e+01 -3.395424457266926765e-03 5.858711600303649902e-01 1.747427284717559814e-01 -8.193750679492950439e-02
8.281000000000000000e+03 2.584277725219726562e+01 7.212254047393798828e+00 -6.465631008148193359e+00 -3.451728582382202148e+00 -2.975207805633544922e+00 -4.912935256958007812e+00
8.282000000000000000e+03 2.572050476074218750e+01 7.138142585754394531e+00 -6.672575473785400391e+00 -3.264123678207397461e+00 -2.981009721755981445e+00 -4.598031520843505859e+00
8.283000000000000000e+03 2.634967613220214844e+01 7.597614288330078125e+00 -6.091973781585693359e+00 -3.721720457077026367e+00 -2.944108247756958008e+00 -4.853802204132080078e+00
8.284000000000000000e+03 2.616417312622070312e+01 7.453861713409423828e+00 -6.835665702819824219e+00 -4.247698783874511719e+00 -3.325009346008300781e+00 -5.070461273193359375e+00
8.285000000000000000e+03 2.604978561401367188e+01 7.369872093200683594e+00 -5.184576511383056641e+00 -3.032169818878173828e+00 -2.465023994445800781e+00 -4.718370437622070312e+00
8.286000000000000000e+03 2.604959678649902344e+01 7.352680683135986328e+00 -6.059759140014648438e+00 -3.259278774261474609e+00 -2.795711517333984375e+00 -5.061854362487792969e+00
8.287000000000000000e+03 2.595771026611328125e+01 7.307220458984375000e+00 -7.828756332397460938e+00 -4.106637954711914062e+00 -3.580618143081665039e+00 -4.958534240722656250e+00
8.288000000000000000e+03 2.575144386291503906e+01 7.166223526000976562e+00 -6.675266742706298828e+00 -3.307765722274780273e+00 -2.994909763336181641e+00 -4.708504676818847656e+00
8.289000000000000000e+03 2.577333450317382812e+01 7.179028987884521484e+00 -6.528085708618164062e+00 -3.190821647644042969e+00 -2.915672302246093750e+00 -4.092951297760009766e+00
8.290000000000000000e+03 2.584228134155273438e+01 7.227873802185058594e+00 -6.506136894226074219e+00 -3.369956493377685547e+00 -2.962827920913696289e+00 -4.987385749816894531e+00
8.291000000000000000e+03 2.585171890258789062e+01 7.226961135864257812e+00 -6.471494674682617188e+00 -3.489592313766479492e+00 -2.988326072692871094e+00 -5.234309196472167969e+00
8.292000000000000000e+03 2.605846405029296875e+01 7.388578891754150391e+00 -6.400175571441650391e+00 -3.688272476196289062e+00 -3.026534318923950195e+00 -4.917689800262451172e+00
8.293000000000000000e+03 1.440307903289794922e+01 9.628109335899353027e-01 3.422783136367797852e+00 2.613058805465698242e+00 1.810752630233764648e+00 -2.130556106567382812e+00
8.294000000000000000e+03 1.114653110504150391e+01 1.993262022733688354e-01 -1.941885352134704590e+00 -1.714911907911300659e-01 -6.340129375457763672e-01 6.038701534271240234e-01
8.295000000000000000e+03 1.121876430511474609e+01 9.378392100334167480e-01 -8.513592481613159180e-01 -4.250408113002777100e-01 -3.829200267791748047e-01 7.121769785881042480e-01
8.296000000000000000e+03 1.040455722808837891e+01 3.265222907066345215e-01 -1.541058897972106934e+00 -1.879552304744720459e-01 -5.187042355537414551e-01 4.217941462993621826e-01
8.297000000000000000e+03 1.188854217529296875e+01 7.071893662214279175e-02 -2.537388324737548828e+00 -2.777085602283477783e-01 -8.445290327072143555e-01 7.964204549789428711e-01
8.298000000000000000e+03 1.271423625946044922e+01 6.772393584251403809e-01 -9.711573123931884766e-01 -4.267938733100891113e-01 -4.193853437900543213e-01 1.045392751693725586e+00
8.299000000000000000e+03 1.263056278228759766e+01 -5.929099395871162415e-02 -3.257381916046142578e+00 -1.761606484651565552e-01 -1.030062794685363770e+00 9.556941986083984375e-01
8.300000000000000000e+03 1.047107124328613281e+01 1.066026568412780762e+00 -7.245762944221496582e-01 -3.270444571971893311e-01 -3.154862225055694580e-01 5.473188757896423340e-01
8.301000000000000000e+03 1.196649551391601562e+01 8.082405924797058105e-01 -8.718246817588806152e-01 -3.930325210094451904e-01 -3.794571459293365479e-01 8.552970290184020996e-01
8.302000000000000000e+03 9.729189872741699219e+00 1.127164006233215332e+00 -6.429110765457153320e-01 -2.463095933198928833e-01 -2.667661905288696289e-01 4.598821103572845459e-01
8.303000000000000000e+03 8.895327568054199219e+00 3.831142783164978027e-01 -7.967631816864013672e-01 -3.111651912331581116e-02 -2.483639121055603027e-01 1.230873540043830872e-01
8.304000000000000000e+03 8.136641502380371094e+00 3.810498118400573730e-01 -5.815179944038391113e-01 -8.062938228249549866e-03 -1.768742948770523071e-01 8.506337553262710571e-02
8.305000000000000000e+03 6.620836257934570312e+00 3.807878792285919189e-01 -3.157124519348144531e-01 -2.990887267515063286e-03 -9.561100602149963379e-02 4.747577384114265442e-02
8.306000000000000000e+03 5.863288402557373047e+00 3.777014017105102539e-01 -2.286634445190429688e-01 -6.397041957825422287e-03 -7.051815092563629150e-02 3.647121414542198181e-02
8.307000000000000000e+03 5.318059444427490234e+00 1.113148808479309082e+00 -1.672943681478500366e-01 -1.791146397590637207e-02 -5.556175112724304199e-02 8.698834478855133057e-02
8.308000000000000000e+03 4.347115039825439453e+00 3.710395395755767822e-01 -1.055786013603210449e-01 -3.354138461872935295e-03 -3.267982229590415955e-02 2.261268161237239838e-02
8.309000000000000000e+03 2.831676959991455078e+00 3.606979846954345703e-01 -3.194816410541534424e-02 -2.983628539368510246e-03 -1.047953777015209198e-02 1.197490002959966660e-02
8.310000000000000000e+03 2.076213359832763672e+00 3.580279946327209473e-01 -1.134754437953233719e-02 -1.436061575077474117e-03 -3.835081588476896286e-03 7.747418712824583054e-03
8.311000000000000000e+03 2.380638122558593750e+00 1.098027944564819336e+00 -3.259296342730522156e-02 -1.190860755741596222e-02 -1.335047185420989990e-02 2.776239439845085144e-02
8.312000000000000000e+03 1.333085298538208008e+00 3.664900958538055420e-01 -2.067726571112871170e-03 -2.558332402259111404e-03 -1.387817668728530407e-03 2.539379056543111801e-03
8.313000000000000000e+03 1.660440564155578613e+00 1.106490135192871094e+00 -1.646047458052635193e-02 -1.018773857504129410e-02 -7.994463667273521423e-03 1.700077205896377563e-02
8.314000000000000000e+03 6.547182202339172363e-01 3.947406113147735596e-01 9.546691435389220715e-04 -1.594746281625702977e-04 2.385583502473309636e-04 1.055767992511391640e-03
8.315000000000000000e+03 3.519233465194702148e-01 9.575628638267517090e-01 -1.972647849470376968e-03 -1.809737412258982658e-03 -1.134715508669614792e-03 7.080091745592653751e-04
8.316000000000000000e+03 3.113171100616455078e+00 1.100697994232177734e+00 -5.485796183347702026e-02 -1.088832784444093704e-02 -1.972388662397861481e-02 4.160868376493453979e-02
8.317000000000000000e+03 3.588829517364501953e+00 3.677253723144531250e-01 -6.305477768182754517e-02 -1.679289154708385468e-03 -1.942021958529949188e-02 1.782552897930145264e-02
8.318000000000000000e+03 5.105357170104980469e+00 3.731488585472106934e-01 -1.601506471633911133e-01 -1.870846259407699108e-03 -4.860644787549972534e-02 2.894420921802520752e-02
8.319000000000000000e+03 6.053060531616210938e+00 1.117701411247253418e+00 -2.224527597427368164e-01 -1.905824057757854462e-02 -7.245329767465591431e-02 1.082001477479934692e-01
8.320000000000000000e+03 7.522262096405029297e+00 1.121038317680358887e+00 -3.706126809120178223e-01 -3.958073630928993225e-02 -1.230580210685729980e-01 1.757113188505172729e-01
8.321000000000000000e+03 7.378351211547851562e+00 3.810383677482604980e-01 -4.287822842597961426e-01 -1.268217526376247406e-02 -1.324393302202224731e-01 6.194032728672027588e-02
8.322000000000000000e+03 8.257620811462402344e+00 1.121049761772155762e+00 -4.698720276355743408e-01 -6.803739815950393677e-02 -1.613728255033493042e-01 2.346523255109786987e-01
8.323000000000000000e+03 8.993377685546875000e+00 1.123114228248596191e+00 -5.981902480125427246e-01 -1.163040176033973694e-01 -2.143482863903045654e-01 3.336489498615264893e-01
8.324000000000000000e+03 9.654070854187011719e+00 3.871639966964721680e-01 -1.160555481910705566e+00 -7.955197989940643311e-02 -3.720322549343109131e-01 2.343894690275192261e-01
8.325000000000000000e+03 6.787677288055419922e+00 1.120787858963012695e+00 -2.887345552444458008e-01 -3.221843391656875610e-02 -9.628590196371078491e-02 1.374177336692810059e-01
8.326000000000000000e+03 4.582747936248779297e+00 1.111039519309997559e+00 -1.219499409198760986e-01 -1.186128612607717514e-02 -4.014336690306663513e-02 7.012616097927093506e-02
8.327000000000000000e+03 3.847393035888671875e+00 1.107725381851196289e+00 -8.481747657060623169e-02 -1.270148623734712601e-02 -2.925568819046020508e-02 5.507568642497062683e-02
8.328000000000000000e+03 1.005004048347473145e+00 1.134740591049194336e+00 -7.898090407252311707e-03 -1.020290702581405640e-02 -5.430299323052167892e-03 7.458681240677833557e-03
8.329000000000000000e+03 9.574274063110351562e+00 -3.935540616512298584e-01 -1.072509586811065674e-01 -1.771046197973191738e-03 -3.270659968256950378e-02 -1.110108289867639542e-02
8.330000000000000000e+03 8.789978027343750000e+00 -3.986168801784515381e-01 -8.311062306165695190e-02 4.333506338298320770e-03 -2.363313548266887665e-02 -1.360354758799076080e-02
8.331000000000000000e+03 8.686211585998535156e+00 -1.138616919517517090e+00 -1.557909697294235229e-01 -8.248442783951759338e-03 -4.921182617545127869e-02 -4.745050147175788879e-02
8.332000000000000000e+03 8.006248474121093750e+00 -3.998050093650817871e-01 -5.458075925707817078e-02 -4.641517065465450287e-03 -1.776668243110179901e-02 -1.413971744477748871e-02
8.333000000000000000e+03 7.223060607910156250e+00 -3.997795581817626953e-01 -2.885185554623603821e-02 2.637005411088466644e-03 -7.864454761147499084e-03 -1.128720957785844803e-02
8.334000000000000000e+03 6.439927577972412109e+00 -4.006183743476867676e-01 -6.334050558507442474e-03 -4.853402264416217804e-03 -3.356236033141613007e-03 -1.020617317408323288e-02
8.335000000000000000e+03 5.657042503356933594e+00 -4.034312665462493896e-01 1.061072479933500290e-02 1.780661637894809246e-03 3.717415733262896538e-03 -5.924122408032417297e-03
8.336000000000000000e+03 4.874185085296630859e+00 -4.075828790664672852e-01 2.211737819015979767e-02 -4.122285638004541397e-03 5.398528184741735458e-03 -4.780165385454893112e-03
8.337000000000000000e+03 4.091480255126953125e+00 -4.106692969799041748e-01 2.824265323579311371e-02 5.809556460008025169e-04 8.647082373499870300e-03 -3.082010953221470118e-04
8.338000000000000000e+03 3.310033082962036133e+00 -4.133046567440032959e-01 2.830289304256439209e-02 -2.948957262560725212e-03 7.606180384755134583e-03 1.323843724094331264e-03
8.339000000000000000e+03 2.531398296356201172e+00 -4.163123965263366699e-01 2.352806366980075836e-02 4.512879531830549240e-04 7.193805649876594543e-03 4.493480548262596130e-03
8.340000000000000000e+03 6.962535381317138672e-01 -1.126455783843994141e+00 6.954001728445291519e-04 4.230486229062080383e-03 1.477765967138111591e-03 5.566743202507495880e-03
8.341000000000000000e+03 3.739950358867645264e-01 -5.643373131752014160e-01 1.060047419741749763e-03 3.505618311464786530e-03 1.369699719361960888e-03 1.926109427586197853e-03
8.342000000000000000e+03 9.497249603271484375e+00 -1.133554100990295410e+00 -2.073327004909515381e-01 1.139814686030149460e-02 -5.878036469221115112e-02 -4.818878695368766785e-02
8.343000000000000000e+03 7.875741004943847656e+00 -1.139804959297180176e+00 -1.182029992341995239e-01 2.545131137594580650e-03 -3.469736129045486450e-02 -4.240381717681884766e-02
8.344000000000000000e+03 7.065812587738037109e+00 -1.139779567718505859e+00 -8.232295513153076172e-02 -1.141500007361173630e-02 -2.812138572335243225e-02 -3.756570443511009216e-02
8.345000000000000000e+03 6.255938053131103516e+00 -1.140618443489074707e+00 -5.599329620599746704e-02 -1.079633948393166065e-03 -1.712187938392162323e-02 -2.836132980883121490e-02
8.346000000000000000e+03 5.446311473846435547e+00 -1.143431305885314941e+00 -3.249852359294891357e-02 -1.117797940969467163e-02 -1.310295052826404572e-02 -2.235984615981578827e-02
8.347000000000000000e+03 4.636712551116943359e+00 -1.147582888603210449e+00 -1.719468086957931519e-02 -2.656690077856183052e-03 -5.955411121249198914e-03 -1.175671350210905075e-02
8.348000000000000000e+03 3.827266693115234375e+00 -1.150669336318969727e+00 -5.432545673102140427e-03 -9.390584193170070648e-03 -4.446939099580049515e-03 -6.350548937916755676e-03
8.349000000000000000e+03 3.019078254699707031e+00 -1.153304696083068848e+00 2.042713575065135956e-03 -3.708957694470882416e-03 -4.998731892555952072e-04 3.342474112287163734e-03
8.350000000000000000e+03 2.213702201843261719e+00 -1.156312346458435059e+00 4.822026472538709641e-03 -3.838736796751618385e-03 2.949869376607239246e-04 8.424426428973674774e-03
8.351000000000000000e+03 1.420517802238464355e+00 -1.151062846183776855e+00 2.554426435381174088e-03 4.027021117508411407e-03 1.974434358999133110e-03 1.177337486296892166e-02
8.352000000000000000e+03 1.764955043792724609e+00 -4.110628962516784668e-01 1.537554059177637100e-02 4.035103775095194578e-04 4.733715206384658813e-03 4.246750380843877792e-03
8.353000000000000000e+03 1.067432165145874023e+00 -3.864558041095733643e-01 6.909213028848171234e-03 -9.217654005624353886e-04 1.796234282664954662e-03 3.702359041199088097e-03
8.354000000000000000e+03 1.107046413421630859e+01 -5.791122317314147949e-01 -2.232730537652969360e-01 -2.026078291237354279e-03 -6.758974492549896240e-02 -2.021559979766607285e-03
8.355000000000000000e+03 1.172848224639892578e+01 -1.444193720817565918e+00 -4.648931026458740234e-01 -7.705241907387971878e-03 -1.417794972658157349e-01 -9.191434830427169800e-02
8.356000000000000000e+03 1.026795482635498047e+01 -1.192459702491760254e+00 -2.682412564754486084e-01 -2.118846634402871132e-03 -8.110803365707397461e-02 -5.516460537910461426e-02
8.357000000000000000e+03 1.245870399475097656e+01 -1.572161674499511719e+00 -5.906168818473815918e-01 5.197301972657442093e-03 -1.756258755922317505e-01 -1.239171773195266724e-01
8.358000000000000000e+03 1.254237651824951172e+01 -8.356313705444335938e-01 -4.597012698650360107e-01 -8.678692393004894257e-03 -1.405139863491058350e-01 -4.742998164147138596e-03
8.359000000000000000e+03 1.180643558502197266e+01 -7.066720724105834961e-01 -3.201464116573333740e-01 4.867370706051588058e-03 -9.458371251821517944e-02 6.346692680381238461e-04
8.360000000000000000e+03 1.099823093414306641e+01 -1.317625284194946289e+00 -3.556049168109893799e-01 1.804772764444351196e-02 -1.012671589851379395e-01 -6.894515454769134521e-02
8.361000000000000000e+03 1.033446884155273438e+01 -4.529553353786468506e-01 -1.512555778026580811e-01 7.749869488179683685e-03 -4.305171221494674683e-02 -6.098827347159385681e-03
8.362000000000000000e+03 1.412816143035888672e+01 -9.967193007469177246e-01 -7.887939810752868652e-01 -9.649165906012058258e-03 -2.395329326391220093e-01 -5.804111436009407043e-02
8.363000000000000000e+03 1.524391746520996094e+01 -1.466321945190429688e+00 -1.294120311737060547e+00 -1.534934788942337036e-01 -4.342841207981109619e-01 -3.953162729740142822e-01
8.364000000000000000e+03 1.616965675354003906e+01 -1.725686669349670410e+00 -1.580937147140502930e+00 -3.848878145217895508e-01 -5.897474884986877441e-01 -5.921127796173095703e-01
8.365000000000000000e+03 1.574865627288818359e+01 -1.673639893531799316e+00 -1.471610426902770996e+00 -4.009473323822021484e-01 -5.617673397064208984e-01 -5.408544540405273438e-01
8.366000000000000000e+03 1.561703586578369141e+01 -9.138993620872497559e-01 -1.563968658447265625e+00 -1.519019007682800293e-01 -5.147611498832702637e-01 -1.792912036180496216e-01
8.367000000000000000e+03 1.330834674835205078e+01 -9.333403110504150391e-01 -6.194904446601867676e-01 -1.334433630108833313e-02 -1.898504346609115601e-01 -3.104421868920326233e-02
8.368000000000000000e+03 1.325672912597656250e+01 -1.671557903289794922e+00 -7.482229471206665039e-01 -4.860277101397514343e-02 -2.390477210283279419e-01 -1.663335263729095459e-01
8.369000000000000000e+03 1.414637279510498047e+01 -1.739302992820739746e+00 -9.869035482406616211e-01 -1.841815747320652008e-02 -3.015965223312377930e-01 -2.241434901952743530e-01
8.370000000000000000e+03 1.646326637268066406e+01 -1.909508228302001953e+00 -1.707047104835510254e+00 -7.022330164909362793e-01 -7.227840423583984375e-01 -7.885969877243041992e-01
8.371000000000000000e+03 1.419766807556152344e+01 -2.838388085365295410e-01 -6.001109123229980469e+00 2.281746119260787964e-01 -1.731880307197570801e+00 1.102726340293884277e+00
8.372000000000000000e+03 1.352537155151367188e+01 5.852731466293334961e-01 -4.251255691051483154e-01 -4.133091121912002563e-02 -1.399369388818740845e-01 9.740207791328430176e-01
8.373000000000000000e+03 1.342303657531738281e+01 -1.497735083103179932e-01 -4.448427200317382812e+00 -2.109853625297546387e-01 -1.397823810577392578e+00 1.101145148277282715e+00
8.374000000000000000e+03 1.515072631835937500e+01 6.366986036300659180e-01 5.328623294830322266e+00 1.374348521232604980e+00 2.010891437530517578e+00 -1.473980307579040527e+00
8.375000000000000000e+03 1.436956024169921875e+01 6.066150665283203125e-01 1.881213545799255371e+00 1.565895199775695801e+00 1.034132599830627441e+00 -5.251616239547729492e-01
8.376000000000000000e+03 2.157444953918457031e+01 4.003563880920410156e+00 -2.009297609329223633e+00 -1.214859604835510254e+00 -9.672471880912780762e-01 -1.610098838806152344e+00
8.377000000000000000e+03 2.389948272705078125e+01 5.596093177795410156e+00 -4.826323032379150391e+00 -2.320069313049316406e+00 -2.143917798995971680e+00 -3.270567655563354492e+00
8.378000000000000000e+03 2.412474632263183594e+01 4.887040615081787109e+00 1.452235221862792969e+00 -6.279829144477844238e-02 4.168310761451721191e-01 5.991001725196838379e-01
8.379000000000000000e+03 1.590177440643310547e+01 -5.061372518539428711e-01 -4.418676376342773438e+00 -2.355979681015014648e-01 -1.396282315254211426e+00 -1.324754357337951660e+00
8.380000000000000000e+03 1.952704048156738281e+01 2.294429063796997070e+00 -1.829701811075210571e-01 -8.847517967224121094e-01 -3.203165829181671143e-01 -7.878249287605285645e-01
8.381000000000000000e+03 2.090116500854492188e+01 2.502764463424682617e+00 -3.001717925071716309e-01 -2.740904390811920166e-01 -1.722786724567413330e-01 -3.189641833305358887e-01
8.382000000000000000e+03 2.118369483947753906e+01 2.726105928421020508e+00 2.242018282413482666e-01 -1.186359748244285583e-01 3.166975826025009155e-02 -9.456986933946609497e-02
8.383000000000000000e+03 2.619468307495117188e+01 6.949645519256591797e+00 -3.053927659988403320e+00 -1.829369544982910156e+00 -1.464989185333251953e+00 -2.294573545455932617e+00
8.384000000000000000e+03 2.673808860778808594e+01 7.608308792114257812e+00 -4.391590595245361328e+00 -2.686592817306518555e+00 -2.123455047607421875e+00 -3.406285762786865234e+00
8.385000000000000000e+03 2.781131172180175781e+01 8.301882743835449219e+00 -3.270733833312988281e+00 -1.263026595115661621e+00 -1.360128045082092285e+00 -2.102406501770019531e+00
8.386000000000000000e+03 2.843750381469726562e+01 8.249814033508300781e+00 -2.097096681594848633e+00 2.503780648112297058e-02 -6.216176748275756836e-01 -7.410642504692077637e-01
8.387000000000000000e+03 2.872324943542480469e+01 8.505600929260253906e+00 -2.293673038482666016e+00 -1.034939885139465332e+00 -9.985838532447814941e-01 -9.406114220619201660e-01
8.388000000000000000e+03 2.901180076599121094e+01 8.513568878173828125e+00 -1.889193654060363770e+00 -8.979668021202087402e-01 -8.361481428146362305e-01 -6.925271153450012207e-01
8.389000000000000000e+03 2.951800727844238281e+01 8.114252090454101562e+00 -8.360313773155212402e-01 -1.406813144683837891e+00 -6.728533506393432617e-01 -7.265812158584594727e-01
8.390000000000000000e+03 2.974779701232910156e+01 7.457363605499267578e+00 -7.150986194610595703e-01 -1.837869167327880859e+00 -7.658903598785400391e-01 -1.447232246398925781e+00
8.391000000000000000e+03 2.969834518432617188e+01 6.596699714660644531e+00 -1.924684643745422363e+00 -1.392625570297241211e+00 -9.951930642127990723e-01 -1.637224912643432617e+00
8.392000000000000000e+03 2.914324760437011719e+01 6.185403347015380859e+00 -2.476593494415283203e+00 -1.716693162918090820e+00 -1.257985949516296387e+00 -1.512906908988952637e+00
8.393000000000000000e+03 2.731749725341796875e+01 6.180770397186279297e+00 -3.691689252853393555e+00 -1.509344458580017090e+00 -1.560310125350952148e+00 -2.351488590240478516e+00
8.394000000000000000e+03 2.667770767211914062e+01 5.437873363494873047e+00 -3.534449100494384766e+00 -1.366594791412353516e+00 -1.470313191413879395e+00 -2.156325817108154297e+00
8.395000000000000000e+03 2.510387229919433594e+01 4.538621902465820312e+00 -3.863446950912475586e+00 -1.347764492034912109e+00 -1.563363432884216309e+00 -2.280370235443115234e+00
8.396000000000000000e+03 2.605690193176269531e+01 5.097530364990234375e+00 -3.629978895187377930e+00 -1.331514596939086914e+00 -1.488448143005371094e+00 -2.181209087371826172e+00
8.397000000000000000e+03 2.561135482788085938e+01 5.157556533813476562e+00 -3.743788719177246094e+00 -1.413964152336120605e+00 -1.547325849533081055e+00 -2.317528486251831055e+00
8.398000000000000000e+03 2.728079605102539062e+01 4.737926959991455078e+00 -2.971885681152343750e+00 -1.300931334495544434e+00 -1.281845092773437500e+00 -1.710751056671142578e+00
8.399000000000000000e+03 2.848536109924316406e+01 5.469244956970214844e+00 -2.581762552261352539e+00 -1.674069643020629883e+00 -1.276749610900878906e+00 -1.558359026908874512e+00
8.400000000000000000e+03 2.787462043762207031e+01 6.200993061065673828e+00 -3.442192316055297852e+00 -1.864944458007812500e+00 -1.592141032218933105e+00 -2.405979871749877930e+00
8.401000000000000000e+03 2.660818672180175781e+01 6.537590503692626953e+00 1.708515048027038574e+00 3.999607861042022705e-01 6.325427293777465820e-01 8.805803656578063965e-01
8.402000000000000000e+03 2.734742164611816406e+01 6.542398452758789062e+00 4.688446521759033203e+00 1.715052962303161621e+00 1.921049833297729492e+00 2.857911348342895508e+00
8.403000000000000000e+03 2.703376388549804688e+01 6.653264045715332031e+00 2.498657226562500000e+00 1.035074949264526367e+00 1.060119628906250000e+00 1.584154009819030762e+00
8.404000000000000000e+03 2.627173042297363281e+01 4.064880847930908203e+00 -3.184009552001953125e+00 -1.051001906394958496e+00 -1.270503401756286621e+00 -1.666028857231140137e+00
8.405000000000000000e+03 2.386675453186035156e+01 2.603332996368408203e+00 -3.718209266662597656e+00 -8.394235372543334961e-01 -1.367289900779724121e+00 -1.811421155929565430e+00
8.406000000000000000e+03 2.220455932617187500e+01 3.039056539535522461e+00 -5.219515800476074219e+00 -1.907478094100952148e+00 -2.138098239898681641e+00 -3.202181339263916016e+00
8.407000000000000000e+03 2.217053604125976562e+01 1.547746300697326660e+00 -3.478856325149536133e+00 -9.776466488838195801e-01 -1.336950898170471191e+00 -2.392206668853759766e+00
8.408000000000000000e+03 2.025352096557617188e+01 4.149144887924194336e-01 -1.499828696250915527e+00 -2.787782669067382812e+00 -1.286283493041992188e+00 -3.674408912658691406e+00
8.409000000000000000e+03 1.814858818054199219e+01 4.918190240859985352e-01 -5.523689389228820801e-01 -3.552602231502532959e-01 -2.722887396812438965e-01 -3.735733032226562500e-01
8.410000000000000000e+03 1.820799827575683594e+01 -8.796090483665466309e-01 -2.113886833190917969e+00 -1.711102008819580078e+00 -1.147496700286865234e+00 -1.372204780578613281e+00
8.411000000000000000e+03 2.170348358154296875e+01 2.723834276199340820e+00 -5.341693401336669922e+00 -2.060586214065551758e+00 -2.220684051513671875e+00 -3.297034263610839844e+00
8.412000000000000000e+03 2.102823257446289062e+01 2.260757684707641602e+00 -5.157234191894531250e+00 -2.048777341842651367e+00 -2.161803483963012695e+00 -3.258865833282470703e+00
8.413000000000000000e+03 1.607972335815429688e+01 -8.520542383193969727e-01 -1.799294829368591309e+00 -4.024038016796112061e-01 -6.605095863342285156e-01 -5.031842589378356934e-01
8.414000000000000000e+03 1.663420677185058594e+01 -1.785859823226928711e+00 -1.759267330169677734e+00 -6.112082600593566895e-01 -7.111426591873168945e-01 -7.109304070472717285e-01
8.415000000000000000e+03 1.890606498718261719e+01 -4.218147695064544678e-01 -2.270139217376708984e+00 -2.571058511734008789e+00 -1.452359318733215332e+00 -1.764658212661743164e+00
8.416000000000000000e+03 2.062004280090332031e+01 6.062549352645874023e-01 -1.918635129928588867e+00 -2.190839767456054688e+00 -1.232842445373535156e+00 -3.548613786697387695e+00
8.417000000000000000e+03 2.088251113891601562e+01 1.380865573883056641e+00 -3.155397415161132812e+00 -2.072343349456787109e+00 -1.568322181701660156e+00 -3.103893041610717773e+00
8.418000000000000000e+03 2.300205802917480469e+01 2.110841751098632812e+00 -3.738080739974975586e+00 -8.007752299308776855e-01 -1.361656785011291504e+00 -2.007924556732177734e+00
8.419000000000000000e+03 2.438932991027832031e+01 2.960635662078857422e+00 -3.647539377212524414e+00 -8.078950643539428711e-01 -1.336630344390869141e+00 -1.751442670822143555e+00
8.420000000000000000e+03 2.521880340576171875e+01 3.450610637664794922e+00 -3.500868320465087891e+00 -8.948844671249389648e-01 -1.318725824356079102e+00 -1.687166333198547363e+00
8.421000000000000000e+03 2.289822006225585938e+01 3.422800064086914062e+00 -4.903124809265136719e+00 -1.778778672218322754e+00 -2.004571199417114258e+00 -2.954289436340332031e+00
8.422000000000000000e+03 2.307255363464355469e+01 3.524418592453002930e+00 -4.820301532745361328e+00 -1.777437806129455566e+00 -1.979321837425231934e+00 -2.906551122665405273e+00
8.423000000000000000e+03 2.407131767272949219e+01 4.178638458251953125e+00 -4.324534416198730469e+00 -1.603946566581726074e+00 -1.778544306755065918e+00 -2.624142408370971680e+00
8.424000000000000000e+03 1.780109024047851562e+01 1.569384574890136719e+00 2.560357332229614258e+00 6.222251057624816895e-01 9.547746777534484863e-01 1.237280845642089844e+00
8.425000000000000000e+03 2.510248374938964844e+01 4.799768447875976562e+00 -3.907527208328247070e+00 -1.450564146041870117e+00 -1.607427358627319336e+00 -2.366770505905151367e+00
8.426000000000000000e+03 2.383655929565429688e+01 3.735404729843139648e+00 -4.338775634765625000e+00 -1.423761963844299316e+00 -1.728761315345764160e+00 -2.514176607131958008e+00
8.427000000000000000e+03 2.356903648376464844e+01 3.872204303741455078e+00 -4.547641277313232422e+00 -1.665104150772094727e+00 -1.863823652267456055e+00 -2.771702051162719727e+00
8.428000000000000000e+03 2.272424316406250000e+01 3.322763919830322266e+00 -5.005502223968505859e+00 -1.818681716918945312e+00 -2.047255277633666992e+00 -3.008004665374755859e+00
8.429000000000000000e+03 2.186722183227539062e+01 2.835867881774902344e+00 -5.317092895507812500e+00 -1.982722640037536621e+00 -2.189944505691528320e+00 -3.295296430587768555e+00
8.430000000000000000e+03 1.797665786743164062e+01 3.892868459224700928e-01 -4.718932807445526123e-01 -2.234977781772613525e-01 -2.086173146963119507e-01 -3.627487421035766602e-01
8.431000000000000000e+03 1.780901718139648438e+01 2.828388810157775879e-01 -5.077900886535644531e-01 -2.558490037918090820e-01 -2.290917187929153442e-01 -2.813930213451385498e-01
8.432000000000000000e+03 1.786056327819824219e+01 -7.438153028488159180e-01 -1.860863924026489258e+00 -1.093825221061706543e+00 -8.864067792892456055e-01 -1.072047352790832520e+00
8.433000000000000000e+03 1.490975666046142578e+01 -9.672126770019531250e-01 -9.940223097801208496e-01 4.449690878391265869e-02 -2.848576009273529053e-01 -4.555663838982582092e-02
8.434000000000000000e+03 1.553082847595214844e+01 -5.301201939582824707e-01 -6.560836315155029297e+00 4.862346351146697998e-01 -1.822380542755126953e+00 -9.608566015958786011e-02
8.435000000000000000e+03 2.761780357360839844e+01 7.930091857910156250e+00 -2.644100427627563477e+00 -7.812717556953430176e-01 -1.027611613273620605e+00 -1.808593034744262695e+00
8.436000000000000000e+03 2.491459465026855469e+01 6.318172931671142578e+00 -4.516581058502197266e+00 -2.614568710327148438e+00 -2.139344930648803711e+00 -3.513797283172607422e+00
8.437000000000000000e+03 2.509618377685546875e+01 5.497509956359863281e+00 2.090303897857666016e+00 7.909318804740905762e-01 8.643707633018493652e-01 9.892444610595703125e-01
8.438000000000000000e+03 2.355752754211425781e+01 5.373759746551513672e+00 -4.777734756469726562e+00 -2.102451801300048828e+00 -2.064055919647216797e+00 -3.102596759796142578e+00
8.439000000000000000e+03 2.223781585693359375e+01 4.491950511932373047e+00 -2.802517652511596680e+00 -1.417116761207580566e+00 -1.265890359878540039e+00 -2.009386301040649414e+00
8.440000000000000000e+03 2.086944961547851562e+01 3.572295188903808594e+00 -1.539831280708312988e+00 -9.284013509750366211e-01 -7.404698133468627930e-01 -1.265946030616760254e+00
8.441000000000000000e+03 2.071192550659179688e+01 3.059936761856079102e+00 -4.262890219688415527e-01 -9.408084750175476074e-01 -4.101292490959167480e-01 -9.251946806907653809e-01
8.442000000000000000e+03 2.016724014282226562e+01 3.137828350067138672e+00 -7.993683815002441406e-01 -6.531992554664611816e-01 -4.357703030109405518e-01 -7.908622622489929199e-01
8.443000000000000000e+03 2.013880538940429688e+01 2.411051511764526367e+00 -5.304201841354370117e-01 -9.434757828712463379e-01 -4.421688020229339600e-01 -9.368870258331298828e-01
8.444000000000000000e+03 1.905813980102539062e+01 1.327856063842773438e+00 -3.738816022872924805e+00 -1.344999551773071289e+00 -1.525144696235656738e+00 -2.170175313949584961e+00
8.445000000000000000e+03 1.744436645507812500e+01 1.317501544952392578e+00 3.046351432800292969e+00 6.716905832290649414e-01 1.115412592887878418e+00 1.302098751068115234e+00
8.446000000000000000e+03 1.628603553771972656e+01 8.226152062416076660e-01 5.037714958190917969e+00 3.722527921199798584e-01 1.622990369796752930e+00 1.510178446769714355e+00
8.447000000000000000e+03 1.592049598693847656e+01 7.100230455398559570e-01 5.541265964508056641e+00 7.205685973167419434e-01 1.878550410270690918e+00 8.969950675964355469e-01
8.448000000000000000e+03 1.661206626892089844e+01 8.281219750642776489e-03 -5.486647605895996094e+00 -1.193760752677917480e+00 -2.004122495651245117e+00 -2.945014476776123047e+00
8.449000000000000000e+03 1.869659805297851562e+01 1.178386449813842773e+00 -3.930395364761352539e+00 -1.691107273101806641e+00 -1.686450719833374023e+00 -2.480040788650512695e+00
8.450000000000000000e+03 1.813349723815917969e+01 1.811456799507141113e+00 2.112427711486816406e+00 4.724512100219726562e-01 7.754636406898498535e-01 1.044414281845092773e+00
8.451000000000000000e+03 1.867108726501464844e+01 1.794123888015747070e+00 3.007956147193908691e-01 -6.592312455177307129e-01 -1.075306832790374756e-01 -4.346075057983398438e-01
8.452000000000000000e+03 2.021986579895019531e+01 2.136486768722534180e+00 -1.161716341972351074e+00 -7.233869433403015137e-01 -5.655310153961181641e-01 -9.065747261047363281e-01
8.453000000000000000e+03 2.072131156921386719e+01 2.411337137222290039e+00 -4.836113452911376953e-01 -3.237845599651336670e-01 -2.422187775373458862e-01 -4.273857474327087402e-01
8.454000000000000000e+03 2.134403800964355469e+01 2.867102384567260742e+00 4.932186603546142578e-01 -9.677331149578094482e-02 1.189336031675338745e-01 1.603183336555957794e-02
8.455000000000000000e+03 2.052456855773925781e+01 3.346909999847412109e+00 -1.241384029388427734e+00 -8.630700707435607910e-01 -6.313362121582031250e-01 -1.043961286544799805e+00
8.456000000000000000e+03 2.190268898010253906e+01 3.133645534515380859e+00 1.114582419395446777e+00 2.633348405361175537e-01 4.133751690387725830e-01 4.735554158687591553e-01
8.457000000000000000e+03 2.170759963989257812e+01 3.228340387344360352e+00 7.080901265144348145e-01 -3.255683183670043945e-01 1.147565469145774841e-01 1.505064871162176132e-02
8.458000000000000000e+03 2.218294525146484375e+01 3.758147478103637695e+00 1.406931728124618530e-01 -5.398056507110595703e-01 -1.197337508201599121e-01 -4.289341568946838379e-01
8.459000000000000000e+03 2.309049415588378906e+01 3.885665655136108398e+00 2.407440185546875000e+00 7.469038963317871094e-01 9.463031888008117676e-01 1.246294856071472168e+00
8.460000000000000000e+03 2.343356513977050781e+01 4.924833297729492188e+00 -1.822435498237609863e+00 -1.367950439453125000e+00 -9.571157693862915039e-01 -1.666914105415344238e+00
8.461000000000000000e+03 2.389833259582519531e+01 4.438695907592773438e+00 3.518466472625732422e+00 9.949402213096618652e-01 1.354022026062011719e+00 1.831262111663818359e+00
8.462000000000000000e+03 2.493483924865722656e+01 5.057234764099121094e+00 4.121265411376953125e+00 1.350544214248657227e+00 1.641542911529541016e+00 2.461952209472656250e+00
8.463000000000000000e+03 2.634406471252441406e+01 5.882075309753417969e+00 4.727293968200683594e+00 1.601716041564941406e+00 1.898703098297119141e+00 2.826669454574584961e+00
8.464000000000000000e+03 2.651717948913574219e+01 6.223111629486083984e+00 3.655004978179931641e+00 1.140660405158996582e+00 1.438699603080749512e+00 2.132336378097534180e+00
8.465000000000000000e+03 2.752372932434082031e+01 6.642493247985839844e+00 4.700076580047607422e+00 1.751689910888671875e+00 1.935529947280883789e+00 2.877538919448852539e+00
8.466000000000000000e+03 2.770738792419433594e+01 6.731254100799560547e+00 4.811014652252197266e+00 1.783665537834167480e+00 1.978404164314270020e+00 2.851669073104858398e+00
8.467000000000000000e+03 2.837801170349121094e+01 8.509162902832031250e+00 -2.839913606643676758e+00 -5.108291506767272949e-01 -1.005222797393798828e+00 -1.405162096023559570e+00
8.468000000000000000e+03 2.877238655090332031e+01 8.255836486816406250e+00 -1.347019314765930176e+00 -4.709242880344390869e-01 -5.453830957412719727e-01 -2.996805906295776367e-01
8.469000000000000000e+03 2.819168090820312500e+01 8.265731811523437500e+00 -2.741827726364135742e+00 -3.962510228157043457e-01 -9.414236545562744141e-01 -1.318468332290649414e+00
8.470000000000000000e+03 2.762212753295898438e+01 6.936492919921875000e+00 3.201396226882934570e+00 1.174038767814636230e+00 1.312630534172058105e+00 1.874833226203918457e+00
8.471000000000000000e+03 2.782902908325195312e+01 6.540134429931640625e+00 -3.951986074447631836e+00 -1.749376893043518066e+00 -1.710408806800842285e+00 -2.605606794357299805e+00
8.472000000000000000e+03 2.816375541687011719e+01 6.255253791809082031e+00 -3.207427740097045898e+00 -2.177720308303833008e+00 -1.615544438362121582e+00 -2.373120546340942383e+00
8.473000000000000000e+03 2.855319404602050781e+01 6.142180919647216797e+00 -2.738157272338867188e+00 -2.204391956329345703e+00 -1.482764720916748047e+00 -1.875484704971313477e+00
8.474000000000000000e+03 2.994088172912597656e+01 7.355839729309082031e+00 -1.059980154037475586e+00 -1.695003867149353027e+00 -8.264951705932617188e-01 -1.541032433509826660e+00
8.475000000000000000e+03 2.965469932556152344e+01 6.280673980712890625e+00 -2.187837839126586914e+00 -1.313904643058776855e+00 -1.050522685050964355e+00 -1.484030961990356445e+00
8.476000000000000000e+03 2.813894844055175781e+01 5.262156963348388672e+00 -2.702803850173950195e+00 -1.590686321258544922e+00 -1.288047075271606445e+00 -1.658441901206970215e+00
8.477000000000000000e+03 2.796563339233398438e+01 5.154746055603027344e+00 -2.772980451583862305e+00 -1.536507725715637207e+00 -1.292846441268920898e+00 -1.685072779655456543e+00
8.478000000000000000e+03 2.745028686523437500e+01 4.845677852630615234e+00 -2.926227569580078125e+00 -1.322013974189758301e+00 -1.274472475051879883e+00 -1.705736041069030762e+00
8.479000000000000000e+03 2.690469741821289062e+01 4.545875072479248047e+00 -3.074316978454589844e+00 -1.213951706886291504e+00 -1.286480665206909180e+00 -1.730778574943542480e+00
8.480000000000000000e+03 2.642532920837402344e+01 4.458956241607666016e+00 -3.269370079040527344e+00 -1.146665811538696289e+00 -1.324810743331909180e+00 -1.807768464088439941e+00
8.481000000000000000e+03 2.658790779113769531e+01 4.286829948425292969e+00 -3.167509555816650391e+00 -1.087756276130676270e+00 -1.276579737663269043e+00 -1.683686375617980957e+00
8.482000000000000000e+03 2.574311637878417969e+01 3.786098003387451172e+00 -3.356984853744506836e+00 -9.497696757316589355e-01 -1.292026400566101074e+00 -1.677815556526184082e+00
8.483000000000000000e+03 2.541836547851562500e+01 3.930738449096679688e+00 -3.579358100891113281e+00 -1.023720860481262207e+00 -1.380923628807067871e+00 -1.858871579170227051e+00
8.484000000000000000e+03 2.420208168029785156e+01 2.860757350921630859e+00 -3.714459896087646484e+00 -8.856844902038574219e-01 -1.380043268203735352e+00 -1.802627801895141602e+00
8.485000000000000000e+03 2.345994377136230469e+01 2.607226133346557617e+00 -3.874971866607666016e+00 -9.019282460212707520e-01 -1.433070063591003418e+00 -1.990992665290832520e+00
8.486000000000000000e+03 2.318541145324707031e+01 2.221759319305419922e+00 -3.779692649841308594e+00 -8.552153110504150391e-01 -1.390472412109375000e+00 -1.939781785011291504e+00
8.487000000000000000e+03 2.254116249084472656e+01 2.054912328720092773e+00 -3.922365665435791016e+00 -1.042392969131469727e+00 -1.489427566528320312e+00 -2.279697418212890625e+00
8.488000000000000000e+03 2.216105842590332031e+01 1.763288617134094238e+00 -3.602935075759887695e+00 -1.083356261253356934e+00 -1.405887365341186523e+00 -2.421063661575317383e+00
8.489000000000000000e+03 2.199205207824707031e+01 1.458675265312194824e+00 -3.258821487426757812e+00 -8.766199946403503418e-01 -1.240632414817810059e+00 -2.472437143325805664e+00
8.490000000000000000e+03 2.183944702148437500e+01 1.690778493881225586e+00 -3.688588142395019531e+00 -1.350560426712036133e+00 -1.511744618415832520e+00 -2.667067527770996094e+00
8.491000000000000000e+03 2.182098770141601562e+01 1.338136911392211914e+00 -3.270938873291015625e+00 -1.122050762176513672e+00 -1.317896842956542969e+00 -2.616303205490112305e+00
8.492000000000000000e+03 2.131197357177734375e+01 1.024908065795898438e+00 -2.648735523223876953e+00 -1.172841310501098633e+00 -1.146473050117492676e+00 -3.132339000701904297e+00
8.493000000000000000e+03 2.114123344421386719e+01 9.171155691146850586e-01 -2.471164941787719727e+00 -1.698051929473876953e+00 -1.250765085220336914e+00 -3.225845098495483398e+00
8.494000000000000000e+03 2.067724800109863281e+01 9.409630894660949707e-01 -2.288584709167480469e+00 -2.110055685043334961e+00 -1.319591999053955078e+00 -3.329546213150024414e+00
8.495000000000000000e+03 2.001682472229003906e+01 1.637134432792663574e+00 -3.708803653717041016e+00 -1.878786206245422363e+00 -1.676276922225952148e+00 -2.541325807571411133e+00
8.496000000000000000e+03 2.044163322448730469e+01 5.099294185638427734e-01 -1.708750128746032715e+00 -2.666180610656738281e+00 -1.312479257583618164e+00 -3.456127405166625977e+00
8.497000000000000000e+03 1.973522758483886719e+01 4.402073472738265991e-02 -1.827260255813598633e+00 -3.266173124313354492e+00 -1.528030037879943848e+00 -2.485433340072631836e+00
8.498000000000000000e+03 2.007245063781738281e+01 2.987338006496429443e-01 -1.271724104881286621e+00 -4.341588020324707031e+00 -1.683993577957153320e+00 -3.354160547256469727e+00
8.499000000000000000e+03 1.928709983825683594e+01 -2.650651633739471436e-01 -2.540361881256103516e+00 -3.534692287445068359e+00 -1.822516202926635742e+00 -1.535042762756347656e+00
8.500000000000000000e+03 1.904242515563964844e+01 -6.172461062669754028e-02 -1.905149221420288086e+00 -2.765169382095336914e+00 -1.401095628738403320e+00 -1.625251889228820801e+00
8.501000000000000000e+03 1.837055206298828125e+01 -4.188842475414276123e-01 -1.758793830871582031e+00 -1.460695028305053711e+00 -9.658466577529907227e-01 -1.309636473655700684e+00
8.502000000000000000e+03 1.854799652099609375e+01 -6.623200178146362305e-01 -2.150368452072143555e+00 -2.040081024169921875e+00 -1.257134795188903809e+00 -1.600193262100219727e+00
8.503000000000000000e+03 1.837671661376953125e+01 -7.712314128875732422e-01 -1.998416543006896973e+00 -1.780985116958618164e+00 -1.133820533752441406e+00 -1.507810831069946289e+00
8.504000000000000000e+03 2.547790527343750000e+01 6.817430019378662109e+00 -5.429773330688476562e+00 -2.672861814498901367e+00 -2.430790662765502930e+00 -3.816688776016235352e+00
8.505000000000000000e+03 2.751976966857910156e+01 8.118475914001464844e+00 -3.563694238662719727e+00 -1.804312705993652344e+00 -1.610402107238769531e+00 -2.670827627182006836e+00
8.506000000000000000e+03 2.774594306945800781e+01 8.091825485229492188e+00 -2.856713771820068359e+00 -9.142612814903259277e-01 -1.131292462348937988e+00 -1.841458439826965332e+00
8.507000000000000000e+03 2.639754867553710938e+01 7.404555320739746094e+00 -4.811985969543457031e+00 -2.995079755783081055e+00 -2.342119693756103516e+00 -3.634199619293212891e+00
8.508000000000000000e+03 2.606106948852539062e+01 7.185231208801269531e+00 -5.370611667633056641e+00 -3.038564920425415039e+00 -2.522753000259399414e+00 -3.927783250808715820e+00
8.509000000000000000e+03 2.798363685607910156e+01 8.158415794372558594e+00 -2.843314886093139648e+00 -5.124381184577941895e-01 -1.006725907325744629e+00 -1.545545458793640137e+00
8.510000000000000000e+03 2.766287040710449219e+01 7.594291687011718750e+00 -8.543539643287658691e-01 3.058169223368167877e-02 -2.471316903829574585e-01 -8.171734213829040527e-01
8.511000000000000000e+03 2.922995376586914062e+01 8.264119148254394531e+00 -1.193078398704528809e+00 -1.195156693458557129e+00 -7.164705395698547363e-01 -5.255454182624816895e-01
8.512000000000000000e+03 2.787303733825683594e+01 7.956303119659423828e+00 -2.340386629104614258e+00 -6.115342304110527039e-02 -7.204620242118835449e-01 -1.391955494880676270e+00
8.513000000000000000e+03 2.732738494873046875e+01 7.844492435455322266e+00 -3.073098421096801758e+00 -1.489919304847717285e+00 -1.368905305862426758e+00 -2.334596395492553711e+00
8.514000000000000000e+03 2.705543899536132812e+01 7.530703067779541016e+00 -2.518724918365478516e+00 -1.386801838874816895e+00 -1.171658039093017578e+00 -1.911645650863647461e+00
8.515000000000000000e+03 2.968653678894042969e+01 7.849141120910644531e+00 -7.665738463401794434e-01 -1.652583241462707520e+00 -7.257471084594726562e-01 -1.099430203437805176e+00
8.516000000000000000e+03 2.835629081726074219e+01 6.176811218261718750e+00 -2.979447841644287109e+00 -2.250912189483642578e+00 -1.569108009338378906e+00 -2.165764570236206055e+00
8.517000000000000000e+03 2.950033187866210938e+01 6.448091506958007812e+00 -2.320849895477294922e+00 -1.416185617446899414e+00 -1.121110677719116211e+00 -1.644484043121337891e+00
8.518000000000000000e+03 2.894675827026367188e+01 6.136587142944335938e+00 -2.542797565460205078e+00 -1.870098233222961426e+00 -1.323868751525878906e+00 -1.530251026153564453e+00
8.519000000000000000e+03 2.874980735778808594e+01 6.135490417480468750e+00 -2.667527914047241211e+00 -2.094753265380859375e+00 -1.428684353828430176e+00 -1.710465669631958008e+00
8.520000000000000000e+03 2.767642974853515625e+01 6.402858257293701172e+00 -3.793789386749267578e+00 -1.650380849838256836e+00 -1.633251070976257324e+00 -2.509211540222167969e+00
8.521000000000000000e+03 2.937743759155273438e+01 6.025830745697021484e+00 -2.336168050765991211e+00 -1.486359119415283203e+00 -1.146758079528808594e+00 -1.397701740264892578e+00
8.522000000000000000e+03 2.971186447143554688e+01 7.641345977783203125e+00 -5.257892012596130371e-01 -1.881682395935058594e+00 -7.222414612770080566e-01 -1.357968330383300781e+00
8.523000000000000000e+03 1.572074985504150391e+01 2.189624011516571045e-01 -5.805078744888305664e-01 1.643178820610046387e+00 3.188012838363647461e-01 -1.073338031768798828e+00
8.524000000000000000e+03 2.408654022216796875e+01 4.547325134277343750e+00 3.756911754608154297e+00 1.023800849914550781e+00 1.434213757514953613e+00 1.966768264770507812e+00
8.525000000000000000e+03 2.037843704223632812e+01 2.863221883773803711e+00 -4.369027316570281982e-01 -9.327784180641174316e-01 -4.109043478965759277e-01 -8.730801343917846680e-01
8.526000000000000000e+03 2.261888504028320312e+01 3.930613756179809570e+00 1.060943603515625000e+00 -1.772310584783554077e-01 2.651137411594390869e-01 1.687667071819305420e-01
8.527000000000000000e+03 2.189883041381835938e+01 4.254463672637939453e+00 -2.339133024215698242e+00 -1.271205782890319824e+00 -1.083101630210876465e+00 -1.794598698616027832e+00
8.528000000000000000e+03 1.715502357482910156e+01 2.484077364206314087e-01 -5.842702865600585938e+00 -1.937915086746215820e+00 -2.334185361862182617e+00 -3.708888292312622070e+00
8.529000000000000000e+03 1.699773979187011719e+01 1.264773458242416382e-01 -6.016019821166992188e+00 -1.714658141136169434e+00 -2.319203376770019531e+00 -3.407576084136962891e+00
8.530000000000000000e+03 1.885128974914550781e+01 2.235883474349975586e+00 1.069250702857971191e+00 -3.203012282028794289e-03 3.198143243789672852e-01 2.772641777992248535e-01
8.531000000000000000e+03 1.847843170166015625e+01 2.026584863662719727e+00 1.634717106819152832e+00 1.737482696771621704e-01 5.425396561622619629e-01 6.993072032928466797e-01
8.532000000000000000e+03 2.543092918395996094e+01 5.707922935485839844e+00 1.630679249763488770e+00 2.670870423316955566e-01 5.693298578262329102e-01 8.754847645759582520e-01
8.533000000000000000e+03 2.457446861267089844e+01 5.008879184722900391e+00 3.044116258621215820e+00 6.162152886390686035e-01 1.098099470138549805e+00 1.427786707878112793e+00
8.534000000000000000e+03 2.325514793395996094e+01 3.987225294113159180e+00 2.657645225524902344e+00 7.112497687339782715e-01 1.010668516159057617e+00 1.324265718460083008e+00
8.535000000000000000e+03 2.463901519775390625e+01 4.825169563293457031e+00 3.930476427078247070e+00 1.395625591278076172e+00 1.597830653190612793e+00 2.526626348495483398e+00
8.536000000000000000e+03 2.104832649230957031e+01 2.598700046539306641e+00 -6.138543412089347839e-02 -1.796481013298034668e-01 -7.231006026268005371e-02 -1.652984172105789185e-01
8.537000000000000000e+03 2.219436645507812500e+01 3.388534784317016602e+00 1.581002593040466309e+00 3.140192627906799316e-01 5.685065388679504395e-01 6.510770320892333984e-01
8.538000000000000000e+03 2.275546455383300781e+01 3.693754434585571289e+00 2.090655088424682617e+00 4.946352839469909668e-01 7.755870819091796875e-01 1.057726979255676270e+00
8.539000000000000000e+03 2.191262245178222656e+01 3.660018205642700195e+00 -7.528693228960037231e-02 -6.205844283103942871e-01 -2.087614238262176514e-01 -5.792070627212524414e-01
8.540000000000000000e+03 2.427522277832031250e+01 4.646494388580322266e+00 3.996677875518798828e+00 1.100939273834228516e+00 1.529285192489624023e+00 2.130810976028442383e+00
8.541000000000000000e+03 2.446111488342285156e+01 4.740173339843750000e+00 4.101760864257812500e+00 1.192026019096374512e+00 1.588135957717895508e+00 2.360967159271240234e+00
8.542000000000000000e+03 2.528694915771484375e+01 5.271379947662353516e+00 4.257933616638183594e+00 1.520686268806457520e+00 1.733586072921752930e+00 2.405376672744750977e+00
8.543000000000000000e+03 2.717264175415039062e+01 6.434658527374267578e+00 4.665554523468017578e+00 1.624287128448486328e+00 1.886952400207519531e+00 2.812639713287353516e+00
8.544000000000000000e+03 1.733164405822753906e+01 3.668887019157409668e-01 -5.911528110504150391e+00 -2.424176454544067383e+00 -2.500711202621459961e+00 -3.432847023010253906e+00
8.545000000000000000e+03 1.705279922485351562e+01 1.104628801345825195e+00 3.688905954360961914e+00 6.517041325569152832e-01 1.302183032035827637e+00 1.305212020874023438e+00
8.546000000000000000e+03 1.820470809936523438e+01 1.020192623138427734e+00 -3.005680561065673828e+00 -1.761793494224548340e+00 -1.430242180824279785e+00 -2.459845066070556641e+00
8.547000000000000000e+03 1.934757041931152344e+01 1.523654103279113770e+00 -2.835458755493164062e+00 -1.302572607994079590e+00 -1.241409420967102051e+00 -1.852572679519653320e+00
8.548000000000000000e+03 1.620856475830078125e+01 -2.564688026905059814e-01 -5.033185005187988281e+00 -1.229721546173095703e+00 -1.878872036933898926e+00 -2.277526140213012695e+00
8.549000000000000000e+03 1.637600135803222656e+01 -1.055432707071304321e-01 -5.316242218017578125e+00 -1.161955118179321289e+00 -1.943459153175354004e+00 -2.580327510833740234e+00
8.550000000000000000e+03 1.682551574707031250e+01 6.590063869953155518e-02 -5.731676578521728516e+00 -1.694963216781616211e+00 -2.227992057800292969e+00 -3.076483726501464844e+00
8.551000000000000000e+03 2.681288909912109375e+01 6.210831165313720703e+00 4.495481014251708984e+00 1.784756183624267578e+00 1.884071111679077148e+00 2.827867031097412109e+00
8.552000000000000000e+03 2.041065216064453125e+01 2.207756280899047852e+00 -9.332622885704040527e-01 -5.625852942466735840e-01 -4.487542808055877686e-01 -7.345172762870788574e-01
8.553000000000000000e+03 1.647114562988281250e+01 -6.173247694969177246e-01 -1.129962801933288574e+00 -2.310096621513366699e-01 -4.082917273044586182e-01 -5.071725845336914062e-01
8.554000000000000000e+03 2.714648437500000000e+01 6.079617023468017578e+00 -3.649276733398437500e+00 -1.479310750961303711e+00 -1.538576245307922363e+00 -2.319788217544555664e+00
8.555000000000000000e+03 2.610667991638183594e+01 3.989916086196899414e+00 -3.241464376449584961e+00 -1.005030393600463867e+00 -1.273948431015014648e+00 -1.690107941627502441e+00
8.556000000000000000e+03 1.833070755004882812e+01 5.895792841911315918e-01 -5.847266912460327148e-01 -4.264508783817291260e-01 -3.033532798290252686e-01 -5.013185739517211914e-01
8.557000000000000000e+03 2.237835693359375000e+01 3.131584405899047852e+00 -5.163704395294189453e+00 -1.922589182853698730e+00 -2.125888109207153320e+00 -3.121490240097045898e+00
8.558000000000000000e+03 1.764385032653808594e+01 1.744001954793930054e-01 -5.016197562217712402e-01 -1.568377315998077393e-01 -1.975372433662414551e-01 -3.130126595497131348e-01
8.559000000000000000e+03 1.916730690002441406e+01 1.125744342803955078e+00 -1.725746750831604004e+00 -1.190800070762634277e+00 -8.749640583992004395e-01 -1.361927270889282227e+00
8.560000000000000000e+03 2.649093246459960938e+01 5.643176078796386719e+00 -3.610595464706420898e+00 -1.416585683822631836e+00 -1.508154392242431641e+00 -2.234838247299194336e+00
8.561000000000000000e+03 2.631550598144531250e+01 5.527283191680908203e+00 -3.629778861999511719e+00 -1.392441630363464355e+00 -1.506666183471679688e+00 -2.238077163696289062e+00
8.562000000000000000e+03 2.612833976745605469e+01 5.438388347625732422e+00 -3.654500484466552734e+00 -1.388975977897644043e+00 -1.513042926788330078e+00 -2.252758026123046875e+00
8.563000000000000000e+03 2.492999267578125000e+01 4.705292224884033203e+00 -3.971844673156738281e+00 -1.455194950103759766e+00 -1.628111839294433594e+00 -2.423652410507202148e+00
8.564000000000000000e+03 2.546989440917968750e+01 4.657116889953613281e+00 -3.742006540298461914e+00 -1.308225035667419434e+00 -1.515069484710693359e+00 -2.193428754806518555e+00
8.565000000000000000e+03 2.545153236389160156e+01 5.036966800689697266e+00 -3.799515485763549805e+00 -1.449549317359924316e+00 -1.574719429016113281e+00 -2.318872213363647461e+00
8.566000000000000000e+03 2.459490013122558594e+01 4.509659290313720703e+00 -4.101747512817382812e+00 -1.506220817565917969e+00 -1.682390570640563965e+00 -2.507116317749023438e+00
8.567000000000000000e+03 2.469862174987792969e+01 4.145606040954589844e+00 -4.007670879364013672e+00 -1.322957038879394531e+00 -1.599188446998596191e+00 -2.272037982940673828e+00
8.568000000000000000e+03 2.373550224304199219e+01 3.974582195281982422e+00 -4.477647781372070312e+00 -1.655052900314331055e+00 -1.839810252189636230e+00 -2.710170030593872070e+00
8.569000000000000000e+03 2.424369049072265625e+01 4.286685943603515625e+00 -4.248012065887451172e+00 -1.543249964714050293e+00 -1.737378597259521484e+00 -2.581117868423461914e+00
8.570000000000000000e+03 2.339944267272949219e+01 3.365537881851196289e+00 -4.491403102874755859e+00 -1.446519136428833008e+00 -1.781376600265502930e+00 -2.540517568588256836e+00
8.571000000000000000e+03 1.737028121948242188e+01 -1.417335867881774902e+00 -1.862953305244445801e+00 -8.772077560424804688e-01 -8.220483064651489258e-01 -9.608247876167297363e-01
8.572000000000000000e+03 1.628935050964355469e+01 -7.278177142143249512e-01 -1.327534556388854980e+00 -2.730642259120941162e-01 -4.801796376705169678e-01 -5.641800761222839355e-01
8.573000000000000000e+03 1.664281463623046875e+01 -5.031195878982543945e-01 -9.735075235366821289e-01 -2.711617946624755859e-01 -3.734008073806762695e-01 -4.344917535781860352e-01
8.574000000000000000e+03 2.750169563293457031e+01 6.282786369323730469e+00 -3.740557670593261719e+00 -1.623624682426452637e+00 -1.609254717826843262e+00 -2.400760412216186523e+00
8.575000000000000000e+03 2.573222351074218750e+01 4.982469081878662109e+00 -3.709689140319824219e+00 -1.345736384391784668e+00 -1.516627669334411621e+00 -2.222329139709472656e+00
8.576000000000000000e+03 2.255205917358398438e+01 3.223788022994995117e+00 -5.071420669555664062e+00 -1.829766750335693359e+00 -2.070356369018554688e+00 -3.088170289993286133e+00
8.577000000000000000e+03 2.247628593444824219e+01 2.902311563491821289e+00 -4.877580165863037109e+00 -1.616385579109191895e+00 -1.948189735412597656e+00 -2.873444557189941406e+00
8.578000000000000000e+03 2.120512962341308594e+01 2.366119623184204102e+00 -5.210579395294189453e+00 -2.080895423889160156e+00 -2.187442541122436523e+00 -3.283254384994506836e+00
8.579000000000000000e+03 1.982842826843261719e+01 1.562138557434082031e+00 -3.407038450241088867e+00 -1.581528425216674805e+00 -1.496570110321044922e+00 -2.387850761413574219e+00
8.580000000000000000e+03 1.685240936279296875e+01 -8.052365779876708984e-01 -1.532135367393493652e+00 -3.046505153179168701e-01 -5.510357618331909180e-01 -6.213812232017517090e-01
8.581000000000000000e+03 2.866297340393066406e+01 5.560963630676269531e+00 -2.550380229949951172e+00 -1.713858842849731445e+00 -1.279271721839904785e+00 -1.508496522903442383e+00
8.582000000000000000e+03 2.709033966064453125e+01 4.650040626525878906e+00 -3.041305541992187500e+00 -1.220956087112426758e+00 -1.278678536415100098e+00 -1.720129847526550293e+00
8.583000000000000000e+03 1.701620674133300781e+01 -1.598754167556762695e+00 -1.861404776573181152e+00 -7.929370403289794922e-01 -7.963025569915771484e-01 -9.248579740524291992e-01
8.584000000000000000e+03 1.990662193298339844e+01 1.681541800498962402e-01 -9.736744761466979980e-01 -3.652183771133422852e+00 -1.387757420539855957e+00 -2.357115507125854492e+00
8.585000000000000000e+03 2.402393531799316406e+01 2.738673686981201172e+00 -3.745307683944702148e+00 -7.975009083747863770e-01 -1.362842559814453125e+00 -1.801246166229248047e+00
8.586000000000000000e+03 2.919072723388671875e+01 5.915001869201660156e+00 -2.414479970932006836e+00 -1.584865093231201172e+00 -1.199803590774536133e+00 -1.375081896781921387e+00
8.587000000000000000e+03 2.800765800476074219e+01 5.494798660278320312e+00 -2.866553783416748047e+00 -1.701831340789794922e+00 -1.370515584945678711e+00 -1.860146403312683105e+00
8.588000000000000000e+03 2.761833190917968750e+01 4.951700210571289062e+00 -2.874312400817871094e+00 -1.401833295822143555e+00 -1.282843708992004395e+00 -1.699362158775329590e+00
8.589000000000000000e+03 2.456723022460937500e+01 3.055789470672607422e+00 -3.656102657318115234e+00 -8.661382198333740234e-01 -1.356672286987304688e+00 -1.745391607284545898e+00
8.590000000000000000e+03 2.249617195129394531e+01 1.752540349960327148e+00 -3.540134668350219727e+00 -9.052925705909729004e-01 -1.333628177642822266e+00 -2.188831329345703125e+00
8.591000000000000000e+03 2.233315849304199219e+01 1.638239860534667969e+00 -3.496976375579833984e+00 -7.574528455734252930e-01 -1.276328682899475098e+00 -2.292210817337036133e+00
8.592000000000000000e+03 2.148179817199707031e+01 1.128484606742858887e+00 -2.989896059036254883e+00 -1.262454152107238770e+00 -1.275704979896545410e+00 -2.777668237686157227e+00
8.593000000000000000e+03 2.096979713439941406e+01 8.090916872024536133e-01 -2.202039003372192383e+00 -1.687307476997375488e+00 -1.166803956031799316e+00 -3.308296680450439453e+00
8.594000000000000000e+03 2.354416084289550781e+01 2.388252258300781250e+00 -3.751720190048217773e+00 -8.224800229072570801e-01 -1.372260093688964844e+00 -1.858416199684143066e+00
8.595000000000000000e+03 2.522423934936523438e+01 4.140122890472412109e+00 -3.720193386077880859e+00 -1.155299544334411621e+00 -1.462647914886474609e+00 -2.054305315017700195e+00
8.596000000000000000e+03 2.577788734436035156e+01 4.142484188079833984e+00 -3.449435472488403320e+00 -1.067660331726074219e+00 -1.355128765106201172e+00 -1.843904376029968262e+00
8.597000000000000000e+03 2.091345596313476562e+01 1.713690042495727539e+00 -3.879320383071899414e+00 -2.058793783187866211e+00 -1.781434178352355957e+00 -3.094988584518432617e+00
8.598000000000000000e+03 2.337233734130859375e+01 2.300741434097290039e+00 -3.676316499710083008e+00 -7.800005078315734863e-01 -1.336895108222961426e+00 -1.890897989273071289e+00
8.599000000000000000e+03 2.489199066162109375e+01 3.406341314315795898e+00 -3.599808931350708008e+00 -9.060852527618408203e-01 -1.351768255233764648e+00 -1.782428860664367676e+00
8.600000000000000000e+03 2.883820724487304688e+01 5.658454418182373047e+00 -2.465123891830444336e+00 -1.693658351898193359e+00 -1.247634649276733398e+00 -1.445137858390808105e+00
8.601000000000000000e+03 2.854191970825195312e+01 5.962574481964111328e+00 -2.704962730407714844e+00 -2.053924560546875000e+00 -1.427666187286376953e+00 -1.806081295013427734e+00
8.602000000000000000e+03 2.817785644531250000e+01 5.623554706573486328e+00 -2.803509235382080078e+00 -1.779456138610839844e+00 -1.374889612197875977e+00 -1.839500665664672852e+00
8.603000000000000000e+03 2.474594879150390625e+01 3.141265630722045898e+00 -3.548340082168579102e+00 -8.303404450416564941e-01 -1.313604116439819336e+00 -1.701695442199707031e+00
8.604000000000000000e+03 2.469014930725097656e+01 3.378220081329345703e+00 -3.768919944763183594e+00 -9.930788874626159668e-01 -1.428599596023559570e+00 -1.880297064781188965e+00
8.605000000000000000e+03 2.319405364990234375e+01 2.760295867919921875e+00 -4.295982360839843750e+00 -1.148835301399230957e+00 -1.633445262908935547e+00 -2.270898342132568359e+00
8.606000000000000000e+03 2.271275901794433594e+01 2.695827960968017578e+00 -4.487895011901855469e+00 -1.334723591804504395e+00 -1.746785640716552734e+00 -2.548524379730224609e+00
8.607000000000000000e+03 2.165103340148925781e+01 1.230265378952026367e+00 -2.853096723556518555e+00 -1.130618214607238770e+00 -1.195114493370056152e+00 -2.801232814788818359e+00
8.608000000000000000e+03 2.101836776733398438e+01 1.156368136405944824e+00 -2.714044094085693359e+00 -1.703737378120422363e+00 -1.325334429740905762e+00 -3.167615652084350586e+00
8.609000000000000000e+03 1.959152603149414062e+01 -8.714351803064346313e-02 -1.566254019737243652e+00 -4.015820026397705078e+00 -1.674622297286987305e+00 -2.556458950042724609e+00
8.610000000000000000e+03 1.910376167297363281e+01 -3.396536111831665039e-01 -2.178793668746948242e+00 -2.705313920974731445e+00 -1.465232253074645996e+00 -1.774580478668212891e+00
8.611000000000000000e+03 1.737996482849121094e+01 -1.082728028297424316e+00 -1.821295022964477539e+00 -6.884658932685852051e-01 -7.529282569885253906e-01 -8.986273407936096191e-01
8.612000000000000000e+03 1.665299797058105469e+01 -1.366106986999511719e+00 -1.667219281196594238e+00 -5.060536265373229980e-01 -6.519818902015686035e-01 -6.080968976020812988e-01
8.613000000000000000e+03 2.560299110412597656e+01 4.036937236785888672e+00 -3.541548490524291992e+00 -1.067131638526916504e+00 -1.382604002952575684e+00 -1.857608079910278320e+00
8.614000000000000000e+03 2.556997489929199219e+01 3.676821708679199219e+00 -3.392122030258178711e+00 -9.493977427482604980e-01 -1.302455902099609375e+00 -1.683373332023620605e+00
8.615000000000000000e+03 2.267225265502929688e+01 1.856473326683044434e+00 -3.565913200378417969e+00 -7.579258084297180176e-01 -1.297151684761047363e+00 -2.119259595870971680e+00
8.616000000000000000e+03 1.875694274902343750e+01 1.500918716192245483e-01 -1.514475941658020020e+00 -1.824198246002197266e+00 -1.001602292060852051e+00 -1.256472945213317871e+00
8.617000000000000000e+03 1.945619201660156250e+01 -1.930207461118698120e-01 -7.200042009353637695e-01 -3.684421777725219727e+00 -1.321327805519104004e+00 -2.102135896682739258e+00
8.618000000000000000e+03 2.010481643676757812e+01 1.357575654983520508e+00 -2.767059087753295898e+00 -2.250490665435791016e+00 -1.505264878273010254e+00 -2.750385284423828125e+00
8.619000000000000000e+03 1.841072654724121094e+01 5.619067698717117310e-02 -1.327113986015319824e+00 -1.256795048713684082e+00 -7.751727104187011719e-01 -1.013825774192810059e+00
8.620000000000000000e+03 2.293848037719726562e+01 3.778915882110595703e+00 2.169788599014282227e+00 5.768291354179382324e-01 8.239852786064147949e-01 1.224226355552673340e+00
8.621000000000000000e+03 2.319155120849609375e+01 4.172224521636962891e+00 1.771875381469726562e+00 2.129110246896743774e-01 5.954359173774719238e-01 7.042242288589477539e-01
8.622000000000000000e+03 2.230008888244628906e+01 2.838378667831420898e+00 -4.983197689056396484e+00 -1.758254885673522949e+00 -2.022435903549194336e+00 -2.948119163513183594e+00
8.623000000000000000e+03 2.168866348266601562e+01 2.394690036773681641e+00 -4.847143650054931641e+00 -1.846419692039489746e+00 -2.008069038391113281e+00 -3.039240360260009766e+00
8.624000000000000000e+03 1.698645019531250000e+01 5.031378865242004395e-01 -1.903431534767150879e+00 -5.698034763336181641e-01 -7.419704794883728027e-01 -1.316071391105651855e+00
8.625000000000000000e+03 1.666123962402343750e+01 9.482248425483703613e-01 4.477509975433349609e+00 5.287858247756958008e-01 1.501888751983642578e+00 1.332843065261840820e+00
8.626000000000000000e+03 1.766868972778320312e+01 5.414660573005676270e-01 -5.453262329101562500e+00 -2.297247886657714844e+00 -2.325153112411499023e+00 -3.528850555419921875e+00
8.627000000000000000e+03 2.321248054504394531e+01 5.169775009155273438e+00 -4.465411186218261719e+00 -1.842315435409545898e+00 -1.892317891120910645e+00 -2.866311311721801758e+00
8.628000000000000000e+03 2.459815216064453125e+01 6.050763130187988281e+00 -4.558831214904785156e+00 -2.614970445632934570e+00 -2.152140617370605469e+00 -3.332014083862304688e+00
8.629000000000000000e+03 2.424361228942871094e+01 5.820015430450439453e+00 -4.698878765106201172e+00 -2.448373079299926758e+00 -2.144175529479980469e+00 -3.337036848068237305e+00
8.630000000000000000e+03 2.288629722595214844e+01 4.957085609436035156e+00 -3.870990991592407227e+00 -1.662741065025329590e+00 -1.660119652748107910e+00 -2.602066040039062500e+00
8.631000000000000000e+03 2.257455825805664062e+01 4.721637248992919922e+00 -3.223776340484619141e+00 -1.534507513046264648e+00 -1.427485108375549316e+00 -2.283449172973632812e+00
8.632000000000000000e+03 1.947818183898925781e+01 2.024142265319824219e+00 -7.397406101226806641e-01 -1.061001896858215332e+00 -5.402227640151977539e-01 -1.071115732192993164e+00
8.633000000000000000e+03 1.982610702514648438e+01 2.928222179412841797e+00 -4.193633198738098145e-01 -4.871190190315246582e-01 -2.719447016716003418e-01 -4.641944766044616699e-01
8.634000000000000000e+03 2.083228874206542969e+01 2.681646585464477539e+00 -1.275620907545089722e-01 -5.608561635017395020e-01 -2.065254747867584229e-01 -4.811978936195373535e-01
8.635000000000000000e+03 1.949709129333496094e+01 2.715226173400878906e+00 -3.723481670022010803e-03 -2.484886795282363892e-01 -7.566364854574203491e-02 -2.220695465803146362e-01
8.636000000000000000e+03 1.919207572937011719e+01 2.472609281539916992e+00 5.307723283767700195e-01 -1.234975680708885193e-01 1.221824213862419128e-01 3.601166605949401855e-02
8.637000000000000000e+03 2.121676445007324219e+01 3.790680646896362305e+00 -1.849006772041320801e+00 -1.137179732322692871e+00 -8.958559632301330566e-01 -1.393040776252746582e+00
8.638000000000000000e+03 2.519695091247558594e+01 6.583257198333740234e+00 -4.958996772766113281e+00 -2.592331171035766602e+00 -2.265398263931274414e+00 -3.676608324050903320e+00
8.639000000000000000e+03 1.563149452209472656e+01 6.393854022026062012e-01 6.199675083160400391e+00 1.173587799072265625e+00 2.211978912353515625e+00 -1.343040764331817627e-01
8.640000000000000000e+03 2.067097282409667969e+01 2.069600105285644531e+00 -4.867027282714843750e+00 -2.094367265701293945e+00 -2.088418245315551758e+00 -3.127731323242187500e+00
8.641000000000000000e+03 1.747878456115722656e+01 6.543330848217010498e-02 -5.427849292755126953e-01 -2.017379403114318848e-01 -2.233568727970123291e-01 -3.030160069465637207e-01
8.642000000000000000e+03 2.746684837341308594e+01 5.217572212219238281e+00 -3.053910970687866211e+00 -1.435732960700988770e+00 -1.346893191337585449e+00 -1.889905929565429688e+00
8.643000000000000000e+03 2.720285987854003906e+01 7.952029705047607422e+00 -4.010643959045410156e+00 -2.278277397155761719e+00 -1.886676430702209473e+00 -2.972942590713500977e+00
8.644000000000000000e+03 2.720083045959472656e+01 7.676205158233642578e+00 -2.800790071487426758e+00 -1.478684425354003906e+00 -1.283842325210571289e+00 -2.152175664901733398e+00
8.645000000000000000e+03 2.689942932128906250e+01 7.720446586608886719e+00 -4.232043743133544922e+00 -2.564192771911621094e+00 -2.038870811462402344e+00 -3.369403362274169922e+00
8.646000000000000000e+03 2.759079551696777344e+01 7.387093544006347656e+00 1.573225408792495728e-01 2.091867178678512573e-01 1.099527776241302490e-01 -1.293583959341049194e-01
8.647000000000000000e+03 2.735442161560058594e+01 8.031585693359375000e+00 -3.796122550964355469e+00 -1.748051047325134277e+00 -1.663252115249633789e+00 -2.801057338714599609e+00
8.648000000000000000e+03 2.757423591613769531e+01 7.161364555358886719e+00 1.560381531715393066e+00 7.205515503883361816e-01 6.842799186706542969e-01 8.032684922218322754e-01
8.649000000000000000e+03 1.913147354125976562e+01 1.708049178123474121e+00 -1.480782628059387207e+00 -1.194177269935607910e+00 -8.024879693984985352e-01 -1.435631990432739258e+00
8.650000000000000000e+03 1.783256149291992188e+01 6.709766387939453125e-01 -5.276405334472656250e+00 -2.195644617080688477e+00 -2.241615056991577148e+00 -3.316244125366210938e+00
8.651000000000000000e+03 2.203362846374511719e+01 3.262252807617187500e+00 1.314601540565490723e+00 2.517459690570831299e-01 4.699042737483978271e-01 5.987223386764526367e-01
8.652000000000000000e+03 2.494200134277343750e+01 5.372527599334716797e+00 2.019524812698364258e+00 5.057273507118225098e-01 7.575756907463073730e-01 1.228969812393188477e+00
8.653000000000000000e+03 2.355599021911621094e+01 4.197517395019531250e+00 3.093257665634155273e+00 8.979077935218811035e-01 1.197349667549133301e+00 1.645947694778442383e+00
8.654000000000000000e+03 1.835742568969726562e+01 9.198219180107116699e-01 -4.528585433959960938e+00 -1.751016259193420410e+00 -1.883880496025085449e+00 -2.922560453414916992e+00
8.655000000000000000e+03 1.981208992004394531e+01 1.908708810806274414e+00 -1.549932003021240234e+00 -8.972337841987609863e-01 -7.341497540473937988e-01 -1.300678610801696777e+00
8.656000000000000000e+03 1.889168930053710938e+01 1.260418415069580078e+00 -3.787725210189819336e+00 -1.461277604103088379e+00 -1.574700832366943359e+00 -2.342513561248779297e+00
8.657000000000000000e+03 2.579296684265136719e+01 5.605371475219726562e+00 4.403755187988281250e+00 1.622064709663391113e+00 1.807745933532714844e+00 2.588203668594360352e+00
8.658000000000000000e+03 2.328168487548828125e+01 4.355839252471923828e+00 1.297149658203125000e+00 -1.661488562822341919e-01 3.393002450466156006e-01 2.511408030986785889e-01
8.659000000000000000e+03 1.962993812561035156e+01 1.788683295249938965e+00 -1.991042733192443848e+00 -1.108072757720947266e+00 -9.297346472740173340e-01 -1.425883889198303223e+00
8.660000000000000000e+03 2.154427337646484375e+01 2.975977420806884766e+00 6.924101710319519043e-01 -7.134769111871719360e-02 1.863187402486801147e-01 1.418177038431167603e-01
8.661000000000000000e+03 2.562596130371093750e+01 5.488987922668457031e+00 4.328045845031738281e+00 1.474462866783142090e+00 1.740752577781677246e+00 2.651805639266967773e+00
8.662000000000000000e+03 2.240906715393066406e+01 3.824522256851196289e+00 7.568148970603942871e-01 -3.562686443328857422e-01 1.201638728380203247e-01 -5.979601293802261353e-02
8.663000000000000000e+03 1.945355224609375000e+01 1.662100911140441895e+00 -2.111844062805175781e+00 -1.126838326454162598e+00 -9.716047048568725586e-01 -1.707640647888183594e+00
8.664000000000000000e+03 2.344686126708984375e+01 4.526854038238525391e+00 9.618513584136962891e-01 -3.306200206279754639e-01 1.893694102764129639e-01 1.250429078936576843e-02
8.665000000000000000e+03 2.002790832519531250e+01 2.680840253829956055e+00 -2.971455454826354980e-01 -8.720819354057312012e-01 -3.507682383060455322e-01 -7.746421694755554199e-01
8.666000000000000000e+03 1.999521446228027344e+01 2.037484884262084961e+00 -1.369423747062683105e+00 -8.804630637168884277e-01 -6.749660372734069824e-01 -1.082521557807922363e+00
8.667000000000000000e+03 2.472340774536132812e+01 5.524893760681152344e+00 -5.411028861999511719e-01 -7.848839759826660156e-01 -3.977960646152496338e-01 -5.447279810905456543e-01
8.668000000000000000e+03 1.850706863403320312e+01 1.045880794525146484e+00 -4.122706890106201172e+00 -1.760960221290588379e+00 -1.765100121498107910e+00 -2.733708620071411133e+00
8.669000000000000000e+03 1.807388114929199219e+01 1.353222250938415527e+00 2.438394725322723389e-01 -8.439836502075195312e-01 -1.800432503223419189e-01 -6.313465833663940430e-01
8.670000000000000000e+03 2.476775360107421875e+01 5.282151699066162109e+00 1.686260223388671875e+00 2.788467109203338623e-01 5.895320773124694824e-01 9.019605517387390137e-01
8.671000000000000000e+03 1.802577590942382812e+01 7.688775658607482910e-01 -5.112045764923095703e+00 -1.999101638793945312e+00 -2.133344173431396484e+00 -3.208183288574218750e+00
8.672000000000000000e+03 1.751261901855468750e+01 4.459056854248046875e-01 -5.793712615966796875e+00 -1.809735417366027832e+00 -2.281034469604492188e+00 -3.635199069976806641e+00
8.673000000000000000e+03 1.748308944702148438e+01 7.161186337471008301e-01 -2.094899654388427734e+00 -9.776222705841064453e-01 -9.217565655708312988e-01 -1.923851013183593750e+00
8.674000000000000000e+03 2.175073432922363281e+01 3.445808649063110352e+00 1.272747814655303955e-01 -5.750768780708312988e-01 -1.343406289815902710e-01 -3.890602886676788330e-01
8.675000000000000000e+03 2.698365974426269531e+01 6.330865859985351562e+00 4.615775585174560547e+00 1.775750756263732910e+00 1.917457818984985352e+00 2.716262102127075195e+00
8.676000000000000000e+03 2.316289901733398438e+01 4.730809688568115234e+00 -1.553288221359252930e+00 -1.201637864112854004e+00 -8.264778256416320801e-01 -1.500163674354553223e+00
8.677000000000000000e+03 2.390306663513183594e+01 4.072781562805175781e+00 -4.394235134124755859e+00 -1.614001631736755371e+00 -1.802471041679382324e+00 -2.669928789138793945e+00
8.678000000000000000e+03 2.434104156494140625e+01 4.051373481750488281e+00 -4.156982421875000000e+00 -1.420518398284912109e+00 -1.673250317573547363e+00 -2.412928104400634766e+00
8.679000000000000000e+03 1.749348831176757812e+01 -2.773938775062561035e-01 -1.120055079460144043e+00 -4.064171314239501953e-01 -4.579416513442993164e-01 -5.869551897048950195e-01
8.680000000000000000e+03 1.681100463867187500e+01 -3.843196630477905273e-01 -8.337598443031311035e-01 -1.877067387104034424e-01 -3.064399659633636475e-01 -4.440728724002838135e-01
8.681000000000000000e+03 2.064845657348632812e+01 1.720833301544189453e+00 -4.003839969635009766e+00 -2.090092420578002930e+00 -1.828179717063903809e+00 -3.047968626022338867e+00
8.682000000000000000e+03 2.354714202880859375e+01 3.523911237716674805e+00 -4.469202041625976562e+00 -1.462413549423217773e+00 -1.779484748840332031e+00 -2.563683032989501953e+00
8.683000000000000000e+03 2.284470939636230469e+01 3.051742553710937500e+00 -4.713583946228027344e+00 -1.512795448303222656e+00 -1.867913842201232910e+00 -2.723144531250000000e+00
8.684000000000000000e+03 2.114830780029296875e+01 1.961969375610351562e+00 -4.255230426788330078e+00 -1.913029789924621582e+00 -1.850478053092956543e+00 -3.062320709228515625e+00
8.685000000000000000e+03 2.664954948425292969e+01 5.772653579711914062e+00 -3.593439340591430664e+00 -1.417625427246093750e+00 -1.503319382667541504e+00 -2.256205558776855469e+00
8.686000000000000000e+03 2.085013771057128906e+01 2.169435262680053711e+00 -5.005361080169677734e+00 -2.005516290664672852e+00 -2.103263139724731445e+00 -3.266251325607299805e+00
8.687000000000000000e+03 2.347192382812500000e+01 2.782396554946899414e+00 -4.174867630004882812e+00 -9.541196823120117188e-01 -1.538696169853210449e+00 -2.054712295532226562e+00
8.688000000000000000e+03 2.442706489562988281e+01 4.389493942260742188e+00 -4.176993370056152344e+00 -1.558528900146484375e+00 -1.720656633377075195e+00 -2.523263454437255859e+00
8.689000000000000000e+03 1.697849273681640625e+01 -2.681143581867218018e-01 -7.647680640220642090e-01 -2.176874279975891113e-01 -2.947366535663604736e-01 -3.584548830986022949e-01
8.690000000000000000e+03 1.953655624389648438e+01 1.334767699241638184e+00 -2.423239469528198242e+00 -1.401224255561828613e+00 -1.147339105606079102e+00 -1.861794829368591309e+00
8.691000000000000000e+03 1.868786430358886719e+01 5.500091910362243652e-01 -1.211136221885681152e+00 -1.001600623130798340e+00 -6.638210415840148926e-01 -1.041693210601806641e+00
8.692000000000000000e+03 1.882062339782714844e+01 9.368521571159362793e-01 -1.165222406387329102e+00 -7.625600695610046387e-01 -5.783347487449645996e-01 -8.753522038459777832e-01
8.693000000000000000e+03 2.038509559631347656e+01 1.609160423278808594e+00 -3.630358219146728516e+00 -2.135495424270629883e+00 -1.729756116867065430e+00 -2.935290575027465820e+00
8.694000000000000000e+03 2.033870124816894531e+01 1.899681448936462402e+00 -4.405586719512939453e+00 -1.904010891914367676e+00 -1.892879366874694824e+00 -2.909426212310791016e+00
8.695000000000000000e+03 1.850164413452148438e+01 7.063417434692382812e-01 -7.150288820266723633e-01 -4.978666603565216064e-01 -3.638686537742614746e-01 -6.092700958251953125e-01
8.696000000000000000e+03 2.476949882507324219e+01 4.374063491821289062e+00 -3.976322412490844727e+00 -1.378999471664428711e+00 -1.606596589088439941e+00 -2.340240240097045898e+00
8.697000000000000000e+03 2.643661117553710938e+01 5.221018314361572266e+00 -3.516924142837524414e+00 -1.351359009742736816e+00 -1.460484862327575684e+00 -2.130024433135986328e+00
8.698000000000000000e+03 1.714562606811523438e+01 -1.553380340337753296e-01 -6.603455543518066406e-01 -1.746336221694946289e-01 -2.504937648773193359e-01 -3.593728840351104736e-01
8.699000000000000000e+03 2.687044715881347656e+01 5.361169338226318359e+00 -3.372186422348022461e+00 -1.367120742797851562e+00 -1.421792149543762207e+00 -2.075795412063598633e+00
8.700000000000000000e+03 2.709128570556640625e+01 5.285356521606445312e+00 -3.284425973892211914e+00 -1.412810444831848145e+00 -1.409170985221862793e+00 -2.037667512893676758e+00
8.701000000000000000e+03 2.118954086303710938e+01 1.274497270584106445e+00 -3.062069654464721680e+00 -1.736723661422729492e+00 -1.439637899398803711e+00 -3.020159959793090820e+00
8.702000000000000000e+03 2.019433784484863281e+01 1.759514331817626953e+00 -3.922169208526611328e+00 -1.808648943901062012e+00 -1.719245433807373047e+00 -2.814578533172607422e+00
8.703000000000000000e+03 2.018190765380859375e+01 1.064736366271972656e+00 -2.088586568832397461e+00 -2.583064079284667969e+00 -1.401495099067687988e+00 -2.941993474960327148e+00
8.704000000000000000e+03 1.935871696472167969e+01 1.216935992240905762e+00 -2.021294593811035156e+00 -1.247679233551025391e+00 -9.806921482086181641e-01 -1.707245349884033203e+00
8.705000000000000000e+03 2.539921188354492188e+01 3.561335802078247070e+00 -3.433924436569213867e+00 -9.171325564384460449e-01 -1.305317163467407227e+00 -1.693481802940368652e+00
8.706000000000000000e+03 1.571566581726074219e+01 -1.323912382125854492e+00 -1.352725863456726074e+00 -2.974366843700408936e-01 -4.950487613677978516e-01 -4.083194136619567871e-01
8.707000000000000000e+03 2.263900375366210938e+01 2.504871845245361328e+00 -4.365492820739746094e+00 -1.263623952865600586e+00 -1.688735127449035645e+00 -2.443325996398925781e+00
8.708000000000000000e+03 2.800488471984863281e+01 5.848486900329589844e+00 -3.028795719146728516e+00 -1.867343783378601074e+00 -1.468841910362243652e+00 -2.090070486068725586e+00
8.709000000000000000e+03 1.719545364379882812e+01 -1.510667562484741211e+00 -1.991338729858398438e+00 -8.194267153739929199e-01 -8.432296514511108398e-01 -9.162074327468872070e-01
8.710000000000000000e+03 1.787138938903808594e+01 -1.097423791885375977e+00 -2.074502468109130859e+00 -1.379201769828796387e+00 -1.036111235618591309e+00 -1.210457682609558105e+00
8.711000000000000000e+03 2.079612731933593750e+01 7.050688266754150391e-01 -2.060393810272216797e+00 -2.112447261810302734e+00 -1.251852273941040039e+00 -3.351123571395874023e+00
8.712000000000000000e+03 2.169133377075195312e+01 1.558170557022094727e+00 -3.409059047698974609e+00 -1.276289820671081543e+00 -1.405604720115661621e+00 -2.727164983749389648e+00
8.713000000000000000e+03 2.729758262634277344e+01 5.097759246826171875e+00 -3.091195583343505859e+00 -1.392013788223266602e+00 -1.344962835311889648e+00 -1.877216696739196777e+00
8.714000000000000000e+03 2.415109443664550781e+01 3.541301012039184570e+00 -4.128675937652587891e+00 -1.182579636573791504e+00 -1.593376755714416504e+00 -2.215103864669799805e+00
8.715000000000000000e+03 2.448440170288085938e+01 3.341402530670166016e+00 -3.808709621429443359e+00 -9.568327069282531738e-01 -1.429662704467773438e+00 -1.925906777381896973e+00
8.716000000000000000e+03 1.683305740356445312e+01 -1.691916942596435547e+00 -1.890958547592163086e+00 -7.101655602455139160e-01 -7.803372144699096680e-01 -8.243374228477478027e-01
8.717000000000000000e+03 2.622740745544433594e+01 7.297908306121826172e+00 -5.043663501739501953e+00 -2.935750007629394531e+00 -2.393824100494384766e+00 -3.825591802597045898e+00
8.718000000000000000e+03 2.697657012939453125e+01 5.983730792999267578e+00 -3.627373218536376953e+00 -1.460320115089416504e+00 -1.526308059692382812e+00 -2.280682802200317383e+00
8.719000000000000000e+03 2.779113769531250000e+01 5.052097320556640625e+00 -2.817337036132812500e+00 -1.448760509490966797e+00 -1.279829263687133789e+00 -1.698311209678649902e+00
8.720000000000000000e+03 2.248469924926757812e+01 4.194937229156494141e+00 -7.476733326911926270e-01 -9.164825677871704102e-01 -4.992467761039733887e-01 -9.789971709251403809e-01
8.721000000000000000e+03 2.810100364685058594e+01 6.046474933624267578e+00 -3.090272903442382812e+00 -2.007293939590454102e+00 -1.529270052909851074e+00 -2.203034162521362305e+00
8.722000000000000000e+03 2.771772384643554688e+01 5.859869003295898438e+00 -3.232121706008911133e+00 -1.723255753517150879e+00 -1.486613273620605469e+00 -2.207798719406127930e+00
8.723000000000000000e+03 2.727552604675292969e+01 5.811677932739257812e+00 -3.444047451019287109e+00 -1.516288757324218750e+00 -1.488100886344909668e+00 -2.230945587158203125e+00
8.724000000000000000e+03 1.802574157714843750e+01 -6.289025545120239258e-01 -1.793023467063903809e+00 -1.061308145523071289e+00 -8.562995195388793945e-01 -1.168563485145568848e+00
8.725000000000000000e+03 2.210570907592773438e+01 2.492837190628051758e+00 -4.728889465332031250e+00 -1.579133510589599609e+00 -1.892406821250915527e+00 -2.836937665939331055e+00
8.726000000000000000e+03 2.677413558959960938e+01 6.737572669982910156e+00 9.847586154937744141e-01 2.377037405967712402e-01 3.667387068271636963e-01 5.543395876884460449e-01
8.727000000000000000e+03 2.137590599060058594e+01 2.484710216522216797e+00 -5.263493061065673828e+00 -2.062382459640502930e+00 -2.197762727737426758e+00 -3.326930999755859375e+00
8.728000000000000000e+03 2.203787803649902344e+01 2.063200950622558594e+00 -4.138799667358398438e+00 -1.364658355712890625e+00 -1.651037335395812988e+00 -2.621849536895751953e+00
8.729000000000000000e+03 2.509796905517578125e+01 3.919186592102050781e+00 -3.785809755325317383e+00 -1.079474210739135742e+00 -1.459585189819335938e+00 -1.986813068389892578e+00
8.730000000000000000e+03 2.195049285888671875e+01 1.871048808097839355e+00 -3.880332946777343750e+00 -1.266527652740478516e+00 -1.544058203697204590e+00 -2.610935211181640625e+00
8.731000000000000000e+03 2.650942611694335938e+01 5.975653648376464844e+00 4.722483158111572266e+00 1.734632015228271484e+00 1.937134504318237305e+00 2.889432907104492188e+00
8.732000000000000000e+03 2.526243782043457031e+01 3.778376102447509766e+00 -3.589680671691894531e+00 -1.010555863380432129e+00 -1.380070924758911133e+00 -1.828035593032836914e+00
8.733000000000000000e+03 2.581404304504394531e+01 5.989075660705566406e+00 1.736645698547363281e+00 4.297951757907867432e-01 6.499322652816772461e-01 8.201878666877746582e-01
8.734000000000000000e+03 2.056393432617187500e+01 2.613148450851440430e+00 -2.943488359451293945e-01 -7.750554084777832031e-01 -3.208212554454803467e-01 -7.087988257408142090e-01
8.735000000000000000e+03 2.220507812500000000e+01 4.010235309600830078e+00 -7.541174888610839844e-01 -8.604987859725952148e-01 -4.843848943710327148e-01 -9.594783782958984375e-01
8.736000000000000000e+03 2.517549514770507812e+01 5.827631950378417969e+00 -5.382494330406188965e-01 -3.468528091907501221e-01 -2.655306756496429443e-01 -4.636880159378051758e-01
8.737000000000000000e+03 2.293656158447265625e+01 4.501118659973144531e+00 -8.664346933364868164e-01 -9.367091059684753418e-01 -5.409431457519531250e-01 -1.077488899230957031e+00
8.738000000000000000e+03 2.442124557495117188e+01 5.519610404968261719e+00 -1.745671868324279785e+00 -1.323830842971801758e+00 -9.208508133888244629e-01 -1.400930881500244141e+00
8.739000000000000000e+03 2.104181480407714844e+01 3.073762416839599609e+00 -1.861636787652969360e-01 -7.866138815879821777e-01 -2.918332815170288086e-01 -7.302267551422119141e-01
8.740000000000000000e+03 2.142096900939941406e+01 3.482760190963745117e+00 -4.964528083801269531e-01 -9.418646097183227539e-01 -4.314952492713928223e-01 -9.231325387954711914e-01
8.741000000000000000e+03 2.412429046630859375e+01 5.373105525970458984e+00 -2.144024610519409180e+00 -1.420288443565368652e+00 -1.069293975830078125e+00 -1.664138436317443848e+00
8.742000000000000000e+03 2.116611099243164062e+01 3.312534093856811523e+00 -5.009108781814575195e-01 -9.891863465309143066e-01 -4.470291733741760254e-01 -9.035972952842712402e-01
8.743000000000000000e+03 1.517877674102783203e+01 2.289497256278991699e-01 -2.622765600681304932e-01 1.827590107917785645e+00 4.695940613746643066e-01 -9.783640503883361816e-01
8.744000000000000000e+03 2.783670806884765625e+01 5.383440017700195312e+00 -2.923688173294067383e+00 -1.582395553588867188e+00 -1.351825118064880371e+00 -1.868358731269836426e+00
8.745000000000000000e+03 1.819314384460449219e+01 -5.126250386238098145e-01 -1.866237401962280273e+00 -1.373890995979309082e+00 -9.720385074615478516e-01 -1.231921434402465820e+00
8.746000000000000000e+03 2.597503852844238281e+01 5.709755897521972656e+00 4.513612747192382812e+00 1.558871626853942871e+00 1.821745395660400391e+00 2.614187717437744141e+00
8.747000000000000000e+03 1.796308708190917969e+01 1.059279084205627441e+00 -1.316101431846618652e+00 -1.211439609527587891e+00 -7.582623362541198730e-01 -1.586550712585449219e+00
8.748000000000000000e+03 2.720183753967285156e+01 6.784772396087646484e+00 2.367612361907958984e+00 8.398412466049194336e-01 9.622360467910766602e-01 1.502405881881713867e+00
8.749000000000000000e+03 1.673983955383300781e+01 5.516457557678222656e-01 -7.004989981651306152e-01 -9.549138695001602173e-02 -2.387971282005310059e-01 -6.078011393547058105e-01
8.750000000000000000e+03 2.389292526245117188e+01 4.802043437957763672e+00 1.143118858337402344e+00 -1.233096048235893250e-01 3.059427738189697266e-01 1.595245450735092163e-01
8.751000000000000000e+03 1.610945892333984375e+01 3.070570528507232666e-01 -3.917704820632934570e-01 2.641735076904296875e-01 -3.827909752726554871e-02 -6.476312279701232910e-01
8.752000000000000000e+03 2.368414306640625000e+01 3.659442424774169922e+00 -4.456967353820800781e+00 -1.485293865203857422e+00 -1.782678365707397461e+00 -2.547387838363647461e+00
8.753000000000000000e+03 2.561004066467285156e+01 4.838339805603027344e+00 -3.742612838745117188e+00 -1.326193690299987793e+00 -1.520641922950744629e+00 -2.217495679855346680e+00
8.754000000000000000e+03 2.371541023254394531e+01 2.803117275238037109e+00 -3.964572668075561523e+00 -9.367151856422424316e-01 -1.470386266708374023e+00 -1.964384436607360840e+00
8.755000000000000000e+03 2.558269309997558594e+01 4.275063514709472656e+00 -3.571059465408325195e+00 -1.136135101318359375e+00 -1.412158370018005371e+00 -1.972160577774047852e+00
8.756000000000000000e+03 2.534510612487792969e+01 4.405199050903320312e+00 -3.764935016632080078e+00 -1.233544945716857910e+00 -1.499543905258178711e+00 -2.125309944152832031e+00
8.757000000000000000e+03 2.360383987426757812e+01 3.146109819412231445e+00 -4.304185390472412109e+00 -1.198026418685913086e+00 -1.650663614273071289e+00 -2.279567480087280273e+00
8.758000000000000000e+03 2.136069869995117188e+01 1.376713991165161133e+00 -3.054351329803466797e+00 -1.462601423263549805e+00 -1.355085849761962891e+00 -2.988048553466796875e+00
8.759000000000000000e+03 1.911192321777343750e+01 8.317236304283142090e-01 -1.238055825233459473e+00 -1.662308096885681152e+00 -8.701092004776000977e-01 -1.411471843719482422e+00
8.760000000000000000e+03 2.709817886352539062e+01 5.751211166381835938e+00 -3.473225355148315430e+00 -1.472750067710876465e+00 -1.483792662620544434e+00 -2.216061353683471680e+00
8.761000000000000000e+03 2.756222724914550781e+01 5.541855812072753906e+00 -3.131575345993041992e+00 -1.552542805671691895e+00 -1.405235409736633301e+00 -2.041805267333984375e+00
8.762000000000000000e+03 1.706620979309082031e+01 -1.017040967941284180e+00 -1.604586482048034668e+00 -4.686004221439361572e-01 -6.219560503959655762e-01 -6.934494376182556152e-01
8.763000000000000000e+03 2.030491447448730469e+01 7.856969833374023438e-01 -1.852733135223388672e+00 -2.566954612731933594e+00 -1.325906276702880859e+00 -3.345471382141113281e+00
8.764000000000000000e+03 2.607737541198730469e+01 4.842619895935058594e+00 -3.515895843505859375e+00 -1.266154885292053223e+00 -1.434615254402160645e+00 -2.076887845993041992e+00
8.765000000000000000e+03 2.666492843627929688e+01 4.805519580841064453e+00 -3.311380624771118164e+00 -1.217566609382629395e+00 -1.358684182167053223e+00 -1.893755316734313965e+00
8.766000000000000000e+03 2.630720329284667969e+01 4.768382549285888672e+00 -3.456794023513793945e+00 -1.221482396125793457e+00 -1.403482913970947266e+00 -1.981076955795288086e+00
8.767000000000000000e+03 2.283657073974609375e+01 1.973399281501770020e+00 -3.731209993362426758e+00 -8.287350535392761230e-01 -1.367983579635620117e+00 -2.055187940597534180e+00
8.768000000000000000e+03 2.334562683105468750e+01 2.934128522872924805e+00 -4.296111106872558594e+00 -1.225988745689392090e+00 -1.656629920005798340e+00 -2.315364837646484375e+00
8.769000000000000000e+03 1.984938049316406250e+01 5.231701135635375977e-01 -1.140636682510375977e+00 -2.780370712280273438e+00 -1.176302194595336914e+00 -2.637444734573364258e+00
8.770000000000000000e+03 2.011395072937011719e+01 7.077939510345458984e-01 -1.504217028617858887e+00 -3.113946437835693359e+00 -1.385449051856994629e+00 -3.177618026733398438e+00
8.771000000000000000e+03 1.963491249084472656e+01 7.110378742218017578e-01 -1.564069271087646484e+00 -2.647618055343627930e+00 -1.263506174087524414e+00 -2.454863786697387695e+00
8.772000000000000000e+03 1.723280715942382812e+01 -1.188942551612854004e+00 -1.959917545318603516e+00 -7.005044817924499512e-01 -7.981266379356384277e-01 -9.590479731559753418e-01
8.773000000000000000e+03 1.616164016723632812e+01 -1.410947084426879883e+00 -1.556881189346313477e+00 -4.675464332103729248e-01 -6.073282957077026367e-01 -4.472320675849914551e-01
8.774000000000000000e+03 2.569254302978515625e+01 4.493881225585937500e+00 -3.661035537719726562e+00 -1.182310223579406738e+00 -1.453003764152526855e+00 -2.040194272994995117e+00
8.775000000000000000e+03 1.685601615905761719e+01 -1.279227972030639648e+00 -1.825799107551574707e+00 -4.821510016918182373e-01 -6.923850178718566895e-01 -6.558486819267272949e-01
8.776000000000000000e+03 1.799986267089843750e+01 -2.705654203891754150e-01 -1.442148447036743164e+00 -7.618331313133239746e-01 -6.611944437026977539e-01 -9.185596108436584473e-01
8.777000000000000000e+03 2.143686676025390625e+01 1.690131187438964844e+00 -3.709856271743774414e+00 -1.627151250839233398e+00 -1.601102232933044434e+00 -2.902044773101806641e+00
8.778000000000000000e+03 2.634053611755371094e+01 6.562598705291748047e+00 2.014069855213165283e-01 -3.411625027656555176e-01 -4.192665591835975647e-02 -1.646586228162050247e-03
8.779000000000000000e+03 2.582064056396484375e+01 6.539969921112060547e+00 -2.234960079193115234e+00 -1.372678756713867188e+00 -1.082291722297668457e+00 -1.756068110466003418e+00
8.780000000000000000e+03 2.690040969848632812e+01 7.386531829833984375e+00 -2.448219776153564453e+00 -1.408693552017211914e+00 -1.157073974609375000e+00 -1.906675100326538086e+00
8.781000000000000000e+03 2.739855003356933594e+01 6.886539459228515625e+00 2.617492198944091797e+00 1.003112673759460449e+00 1.086181521415710449e+00 1.520220756530761719e+00
8.782000000000000000e+03 2.546012306213378906e+01 6.374949455261230469e+00 -2.596170902252197266e+00 -1.542066931724548340e+00 -1.241471290588378906e+00 -2.106067657470703125e+00
8.783000000000000000e+03 2.576717567443847656e+01 6.282899379730224609e+00 -6.425836086273193359e-01 -4.856332838535308838e-01 -3.384650647640228271e-01 -6.510607004165649414e-01
8.784000000000000000e+03 2.224742889404296875e+01 2.353343725204467773e+00 -4.415204048156738281e+00 -1.461388230323791504e+00 -1.762977719306945801e+00 -2.676960945129394531e+00
8.785000000000000000e+03 1.846948242187500000e+01 3.501643538475036621e-01 -1.142811536788940430e+00 -1.044738173484802246e+00 -6.562649011611938477e-01 -8.913640379905700684e-01
8.786000000000000000e+03 2.635047340393066406e+01 7.097494602203369141e+00 -3.327607393264770508e+00 -1.988879084587097168e+00 -1.594945907592773438e+00 -2.418705940246582031e+00
8.787000000000000000e+03 1.812079811096191406e+01 1.768802553415298462e-01 -1.003939867019653320e+00 -6.521721482276916504e-01 -4.968335926532745361e-01 -6.677072048187255859e-01
8.788000000000000000e+03 2.571139526367187500e+01 6.977231502532958984e+00 -5.564997673034667969e+00 -2.909642696380615234e+00 -2.542392253875732422e+00 -3.916645288467407227e+00
8.789000000000000000e+03 2.285479354858398438e+01 4.230628013610839844e+00 2.157200276851654053e-01 -5.381159186363220215e-01 -9.671877324581146240e-02 -3.919066488742828369e-01
8.790000000000000000e+03 1.606735420227050781e+01 -3.954804837703704834e-01 -4.262848854064941406e+00 -3.023722171783447266e-01 -1.369566321372985840e+00 -2.373904466629028320e+00
8.791000000000000000e+03 1.644632148742675781e+01 -1.453485488891601562e+00 -1.729300737380981445e+00 -4.614813923835754395e-01 -6.572346687316894531e-01 -6.389288306236267090e-01
8.792000000000000000e+03 1.625562286376953125e+01 -1.167083740234375000e+00 -1.521946549415588379e+00 -3.370569050312042236e-01 -5.577010512351989746e-01 -3.567174673080444336e-01
8.793000000000000000e+03 1.906036376953125000e+01 1.955818653106689453e+00 -2.401950806379318237e-01 -8.165999650955200195e-01 -3.170385062694549561e-01 -8.191183209419250488e-01
8.794000000000000000e+03 1.830961990356445312e+01 -2.198664695024490356e-01 -1.741149902343750000e+00 -1.243543267250061035e+00 -8.954079747200012207e-01 -1.244214773178100586e+00
8.795000000000000000e+03 1.897157478332519531e+01 5.663049221038818359e-01 -1.554193496704101562e+00 -1.634577035903930664e+00 -9.566311240196228027e-01 -1.626762628555297852e+00
8.796000000000000000e+03 2.714145660400390625e+01 5.515115261077880859e+00 -3.334152460098266602e+00 -1.430422902107238770e+00 -1.429372668266296387e+00 -2.104352235794067383e+00
8.797000000000000000e+03 2.736359596252441406e+01 5.513992786407470703e+00 -3.245679140090942383e+00 -1.523850083351135254e+00 -1.430858731269836426e+00 -2.080440521240234375e+00
8.798000000000000000e+03 2.710399055480957031e+01 7.190565109252929688e+00 -5.959026217460632324e-01 -2.545538544654846191e-01 -2.551369369029998779e-01 -3.950963318347930908e-01
8.799000000000000000e+03 2.526805114746093750e+01 6.093179225921630859e+00 -1.701096653938293457e+00 -9.139983654022216797e-01 -7.845284938812255859e-01 -1.374948740005493164e+00
8.800000000000000000e+03 2.039383125305175781e+01 1.114218592643737793e+00 -2.414941072463989258e+00 -2.337402343750000000e+00 -1.425703048706054688e+00 -3.150142192840576172e+00
8.801000000000000000e+03 2.417414855957031250e+01 3.933209896087646484e+00 -4.215300559997558594e+00 -1.385276079177856445e+00 -1.680173039436340332e+00 -2.437105894088745117e+00
8.802000000000000000e+03 2.251664733886718750e+01 2.358477115631103516e+00 -4.276641845703125000e+00 -1.266106009483337402e+00 -1.662824273109436035e+00 -2.492430925369262695e+00
8.803000000000000000e+03 1.867271995544433594e+01 3.759214282035827637e-01 -9.473008513450622559e-01 -1.237085580825805664e+00 -6.553159356117248535e-01 -1.259848117828369141e+00
8.804000000000000000e+03 1.949674224853515625e+01 9.525567889213562012e-01 -1.668327927589416504e+00 -2.303426027297973633e+00 -1.191526174545288086e+00 -2.083274364471435547e+00
8.805000000000000000e+03 1.783939170837402344e+01 -3.905213475227355957e-01 -1.517944693565368652e+00 -8.008730411529541016e-01 -6.956453323364257812e-01 -8.746294975280761719e-01
8.806000000000000000e+03 2.321898460388183594e+01 3.217948198318481445e+00 -4.557952404022216797e+00 -1.410215497016906738e+00 -1.790450334548950195e+00 -2.553721427917480469e+00
8.807000000000000000e+03 2.300796318054199219e+01 2.877877712249755859e+00 -4.443030357360839844e+00 -1.320105075836181641e+00 -1.728940606117248535e+00 -2.474200487136840820e+00
8.808000000000000000e+03 2.580160903930664062e+01 4.695583820343017578e+00 -3.604621410369873047e+00 -1.247249960899353027e+00 -1.455561399459838867e+00 -2.094250440597534180e+00
8.809000000000000000e+03 2.489657402038574219e+01 4.026909351348876953e+00 -3.846189022064208984e+00 -1.189677476882934570e+00 -1.510759949684143066e+00 -2.128333091735839844e+00
8.810000000000000000e+03 1.720486450195312500e+01 -8.704810738563537598e-01 -1.685449123382568359e+00 -5.084127187728881836e-01 -6.581585407257080078e-01 -7.731588482856750488e-01
8.811000000000000000e+03 1.967807006835937500e+01 1.468261122703552246e+00 -2.815278768539428711e+00 -1.498214244842529297e+00 -1.294047951698303223e+00 -2.142559289932250977e+00
8.812000000000000000e+03 1.999178695678710938e+01 9.750122427940368652e-01 -1.933726191520690918e+00 -2.444195508956909180e+00 -1.313376426696777344e+00 -2.794090509414672852e+00
8.813000000000000000e+03 1.881453514099121094e+01 -1.145941466093063354e-01 -1.633366346359252930e+00 -1.885419845581054688e+00 -1.055635809898376465e+00 -1.405322670936584473e+00
8.814000000000000000e+03 2.476461601257324219e+01 3.816526651382446289e+00 -3.901498317718505859e+00 -1.110759139060974121e+00 -1.503677248954772949e+00 -2.047941207885742188e+00
8.815000000000000000e+03 2.222923851013183594e+01 2.596244335174560547e+00 -4.766140937805175781e+00 -1.651607394218444824e+00 -1.925324559211730957e+00 -2.826848983764648438e+00
8.816000000000000000e+03 2.157818603515625000e+01 1.730562210083007812e+00 -3.792186021804809570e+00 -1.472661733627319336e+00 -1.579454302787780762e+00 -2.892909049987792969e+00
8.817000000000000000e+03 1.753607368469238281e+01 -9.707576036453247070e-01 -1.873886704444885254e+00 -8.796920776367187500e-01 -8.260736465454101562e-01 -9.894368052482604980e-01
8.818000000000000000e+03 1.557396507263183594e+01 -2.852958738803863525e-01 -5.261106967926025391e+00 1.375887632369995117e+00 -1.165565848350524902e+00 -1.130668997764587402e+00
8.819000000000000000e+03 1.580789661407470703e+01 -2.014942407608032227e+00 -1.512985348701477051e+00 -4.505620002746582031e-01 -5.890642404556274414e-01 -6.540530920028686523e-01
8.820000000000000000e+03 2.779977416992187500e+01 6.011123180389404297e+00 -3.339061737060546875e+00 -1.801885247230529785e+00 -1.542284131050109863e+00 -2.294319868087768555e+00
8.821000000000000000e+03 2.430105209350585938e+01 3.707533121109008789e+00 -4.080756664276123047e+00 -1.225521087646484375e+00 -1.591883301734924316e+00 -2.218561887741088867e+00
8.822000000000000000e+03 1.976152992248535156e+01 8.037325739860534668e-01 -1.708822846412658691e+00 -2.304367065429687500e+00 -1.203956961631774902e+00 -2.461996555328369141e+00
8.823000000000000000e+03 2.400750732421875000e+01 3.809019565582275391e+00 -4.292096614837646484e+00 -1.440998196601867676e+00 -1.719928503036499023e+00 -2.460222005844116211e+00
8.824000000000000000e+03 2.676595687866210938e+01 6.886943340301513672e+00 6.330323964357376099e-02 -2.107806056737899780e-01 -4.424321278929710388e-02 2.963255159556865692e-03
8.825000000000000000e+03 2.651888465881347656e+01 7.204801559448242188e+00 -3.186748981475830078e+00 -1.953105926513671875e+00 -1.541956424713134766e+00 -2.332736492156982422e+00
8.826000000000000000e+03 1.628826141357421875e+01 -2.017508745193481445e+00 -1.625520706176757812e+00 -5.797940492630004883e-01 -6.615944504737854004e-01 -7.356573343276977539e-01
8.827000000000000000e+03 2.591839790344238281e+01 4.346871852874755859e+00 -3.441069364547729492e+00 -1.125360012054443359e+00 -1.369928836822509766e+00 -1.885372400283813477e+00
8.828000000000000000e+03 1.501998519897460938e+01 -1.876763939857482910e+00 -1.307689428329467773e+00 -2.031278908252716064e-01 -4.532451927661895752e-01 -4.398282766342163086e-01
8.829000000000000000e+03 2.733472442626953125e+01 7.141497611999511719e+00 6.441402435302734375e-01 3.607043921947479248e-01 3.014533817768096924e-01 4.310648739337921143e-01
8.830000000000000000e+03 2.684387207031250000e+01 6.556024074554443359e+00 2.325188159942626953e+00 9.793432354927062988e-01 9.913594722747802734e-01 1.413618326187133789e+00
8.831000000000000000e+03 2.666568374633789062e+01 6.083534240722656250e+00 4.601649761199951172e+00 1.763156056404113770e+00 1.909441709518432617e+00 2.899225950241088867e+00
8.832000000000000000e+03 2.625601196289062500e+01 6.063596248626708984e+00 3.212277173995971680e+00 9.604454636573791504e-01 1.251816868782043457e+00 1.843309044837951660e+00
8.833000000000000000e+03 2.616489219665527344e+01 5.798119544982910156e+00 4.646457195281982422e+00 1.555238246917724609e+00 1.860508680343627930e+00 2.687517881393432617e+00
8.834000000000000000e+03 2.606442070007324219e+01 6.034417629241943359e+00 2.510581254959106445e+00 7.031131982803344727e-01 9.641083478927612305e-01 1.395578980445861816e+00
8.835000000000000000e+03 2.558020401000976562e+01 5.873181343078613281e+00 1.511576294898986816e+00 2.663127779960632324e-01 5.333667397499084473e-01 6.235615611076354980e-01
8.836000000000000000e+03 2.528006172180175781e+01 5.593722820281982422e+00 1.904402256011962891e+00 5.387820005416870117e-01 7.329552769660949707e-01 1.060121655464172363e+00
8.837000000000000000e+03 2.545791816711425781e+01 5.377339839935302734e+00 4.370461940765380859e+00 1.412958025932312012e+00 1.735026001930236816e+00 2.521394014358520508e+00
8.838000000000000000e+03 2.511786651611328125e+01 5.163075447082519531e+00 4.090233802795410156e+00 1.468460917472839355e+00 1.667608499526977539e+00 2.484407186508178711e+00
8.839000000000000000e+03 2.478065109252929688e+01 4.935214519500732422e+00 4.143340587615966797e+00 1.564955115318298340e+00 1.712488770484924316e+00 2.286577224731445312e+00
8.840000000000000000e+03 2.434786415100097656e+01 4.955834388732910156e+00 1.918331027030944824e+00 2.722421288490295410e-01 6.571719050407409668e-01 1.027036428451538086e+00
8.841000000000000000e+03 2.371851730346679688e+01 4.320669174194335938e+00 3.276914834976196289e+00 9.342001080513000488e-01 1.263334512710571289e+00 1.751736760139465332e+00
8.842000000000000000e+03 2.365928649902343750e+01 4.679716110229492188e+00 8.854512572288513184e-01 -3.039702475070953369e-01 1.744443029165267944e-01 7.514141034334897995e-03
8.843000000000000000e+03 2.341914558410644531e+01 4.077101707458496094e+00 2.869920492172241211e+00 7.609841823577880859e-01 1.089271426200866699e+00 1.577269792556762695e+00
8.844000000000000000e+03 2.287387466430664062e+01 3.978004455566406250e+00 1.624512553215026855e+00 -1.402162760496139526e-02 4.831472635269165039e-01 5.166106224060058594e-01
8.845000000000000000e+03 2.257127761840820312e+01 3.593299865722656250e+00 1.908916115760803223e+00 4.454665184020996094e-01 7.063148021697998047e-01 9.255314469337463379e-01
8.846000000000000000e+03 2.238205909729003906e+01 3.494225025177001953e+00 1.714532136917114258e+00 3.006955385208129883e-01 6.045683026313781738e-01 8.323113322257995605e-01
8.847000000000000000e+03 2.175230789184570312e+01 3.041884422302246094e+00 8.380884528160095215e-01 4.048270639032125473e-03 2.526410222053527832e-01 3.858594894409179688e-01
8.848000000000000000e+03 2.091606521606445312e+01 2.871060132980346680e+00 -2.769289538264274597e-02 -6.539004445075988770e-01 -2.044779956340789795e-01 -5.720266699790954590e-01
8.849000000000000000e+03 2.039735031127929688e+01 2.418879747390747070e+00 -5.539337992668151855e-01 -7.942407131195068359e-01 -4.044523537158966064e-01 -8.065083026885986328e-01
8.850000000000000000e+03 2.056420326232910156e+01 2.295139312744140625e+00 -6.681548953056335449e-01 -4.214167296886444092e-01 -3.268714845180511475e-01 -5.265161395072937012e-01
8.851000000000000000e+03 1.985025787353515625e+01 2.300310134887695312e+00 -6.128399372100830078e-01 -1.058422684669494629e+00 -5.013787746429443359e-01 -1.046813368797302246e+00
8.852000000000000000e+03 1.921669578552246094e+01 1.422919631004333496e+00 -3.335212230682373047e+00 -1.247071504592895508e+00 -1.374685168266296387e+00 -2.235693931579589844e+00
8.853000000000000000e+03 1.834779357910156250e+01 1.595245122909545898e+00 6.666089296340942383e-01 -6.467972397804260254e-01 5.943519063293933868e-03 -2.690658569335937500e-01
8.854000000000000000e+03 1.854553031921386719e+01 1.398307919502258301e+00 -1.487628221511840820e+00 -1.384582519531250000e+00 -8.616632223129272461e-01 -1.562329053878784180e+00
8.855000000000000000e+03 1.820831489562988281e+01 8.324990868568420410e-01 -4.938769340515136719e+00 -1.949782609939575195e+00 -2.066565513610839844e+00 -3.044568061828613281e+00
8.856000000000000000e+03 1.684770965576171875e+01 3.050752580165863037e-01 -3.473039388656616211e+00 -1.332442402839660645e+00 -1.441644549369812012e+00 -2.643377304077148438e+00
8.857000000000000000e+03 1.643051910400390625e+01 4.287737011909484863e-01 -1.047740802168846130e-01 -1.730348020792007446e-01 -8.334266394376754761e-02 -6.677821874618530273e-01
8.858000000000000000e+03 1.508499240875244141e+01 -1.196102350950241089e-01 -4.520694255828857422e+00 6.912422776222229004e-01 -1.148835539817810059e+00 -2.572967708110809326e-01
8.859000000000000000e+03 1.489139747619628906e+01 -4.429558813571929932e-01 -7.750502586364746094e+00 -2.009831964969635010e-01 -2.385445833206176758e+00 6.106595396995544434e-01
8.860000000000000000e+03 1.458994865417480469e+01 1.278747320175170898e-01 -2.076613187789916992e+00 5.363494753837585449e-01 -4.620790779590606689e-01 4.481132030487060547e-01
8.861000000000000000e+03 2.798352813720703125e+01 6.378621101379394531e+00 -3.585569381713867188e+00 -1.981680631637573242e+00 -1.670174956321716309e+00 -2.571904897689819336e+00
8.862000000000000000e+03 2.744732856750488281e+01 5.919847488403320312e+00 -3.430574178695678711e+00 -1.621252059936523438e+00 -1.515547871589660645e+00 -2.280099630355834961e+00
8.863000000000000000e+03 2.681096076965332031e+01 5.881733417510986328e+00 -3.609875917434692383e+00 -1.423917055130004883e+00 -1.510137915611267090e+00 -2.267954587936401367e+00
8.864000000000000000e+03 2.695290946960449219e+01 5.657287120819091797e+00 -3.486732959747314453e+00 -1.426736593246459961e+00 -1.474040865898132324e+00 -2.195370197296142578e+00
8.865000000000000000e+03 2.680890464782714844e+01 5.554503917694091797e+00 -3.520481109619140625e+00 -1.393390059471130371e+00 -1.474161386489868164e+00 -2.183235883712768555e+00
8.866000000000000000e+03 2.595121192932128906e+01 5.348055839538574219e+00 -3.678682565689086914e+00 -1.397354125976562500e+00 -1.522810935974121094e+00 -2.268839120864868164e+00
8.867000000000000000e+03 2.624352073669433594e+01 5.168264389038085938e+00 -3.583456516265869141e+00 -1.312882661819458008e+00 -1.468901753425598145e+00 -2.161032915115356445e+00
8.868000000000000000e+03 2.577732086181640625e+01 5.259509563446044922e+00 -3.719281196594238281e+00 -1.413409829139709473e+00 -1.539807319641113281e+00 -2.283300161361694336e+00
8.869000000000000000e+03 2.587140464782714844e+01 5.063723564147949219e+00 -3.653372526168823242e+00 -1.336682915687561035e+00 -1.497016668319702148e+00 -2.218188285827636719e+00
8.870000000000000000e+03 2.528497123718261719e+01 4.897889137268066406e+00 -3.852953433990478516e+00 -1.431592106819152832e+00 -1.585363626480102539e+00 -2.345904588699340820e+00
8.871000000000000000e+03 2.476001930236816406e+01 4.607118606567382812e+00 -4.033035755157470703e+00 -1.505169987678527832e+00 -1.661461710929870605e+00 -2.444566249847412109e+00
8.872000000000000000e+03 2.340548515319824219e+01 3.757633924484252930e+00 -4.661718845367431641e+00 -1.728734493255615234e+00 -1.917136073112487793e+00 -2.792055368423461914e+00
8.873000000000000000e+03 2.324150848388671875e+01 3.638243675231933594e+00 -4.736761569976806641e+00 -1.694786906242370605e+00 -1.929464578628540039e+00 -2.872504472732543945e+00
8.874000000000000000e+03 2.301863098144531250e+01 3.138655900955200195e+00 -4.660089969635009766e+00 -1.504238367080688477e+00 -1.849298477172851562e+00 -2.624693870544433594e+00
8.875000000000000000e+03 2.266702651977539062e+01 2.957285165786743164e+00 -4.793318748474121094e+00 -1.581137180328369141e+00 -1.912336707115173340e+00 -2.755260467529296875e+00
8.876000000000000000e+03 2.203386688232421875e+01 2.941110372543334961e+00 -5.298567771911621094e+00 -2.004023551940917969e+00 -2.190777301788330078e+00 -3.229668140411376953e+00
8.877000000000000000e+03 2.213482093811035156e+01 2.759301662445068359e+00 -5.003729820251464844e+00 -1.739449977874755859e+00 -2.022953987121582031e+00 -3.026112794876098633e+00
8.878000000000000000e+03 2.154034233093261719e+01 2.606009721755981445e+00 -5.321816444396972656e+00 -2.031506061553955078e+00 -2.205996751785278320e+00 -3.319907665252685547e+00
8.879000000000000000e+03 2.183447265625000000e+01 2.533674716949462891e+00 -4.969698905944824219e+00 -1.783802986145019531e+00 -2.026050567626953125e+00 -3.057519197463989258e+00
8.880000000000000000e+03 2.136129570007324219e+01 2.078829288482666016e+00 -4.479100227355957031e+00 -1.879215002059936523e+00 -1.907494544982910156e+00 -3.012651443481445312e+00
8.881000000000000000e+03 2.154104804992675781e+01 2.237478971481323242e+00 -4.664609909057617188e+00 -1.783372759819030762e+00 -1.934394836425781250e+00 -3.018099546432495117e+00
8.882000000000000000e+03 2.077692985534667969e+01 1.859538793563842773e+00 -4.124792098999023438e+00 -2.040527820587158203e+00 -1.849595904350280762e+00 -3.002925634384155273e+00
8.883000000000000000e+03 2.049374771118164062e+01 1.987400770187377930e+00 -4.715412616729736328e+00 -1.919962167739868164e+00 -1.990612387657165527e+00 -3.055644035339355469e+00
8.884000000000000000e+03 2.048386955261230469e+01 1.801054954528808594e+00 -4.011215209960937500e+00 -2.028463363647460938e+00 -1.811903595924377441e+00 -3.000288724899291992e+00
8.885000000000000000e+03 2.034474945068359375e+01 1.374484896659851074e+00 -2.827212810516357422e+00 -2.231885194778442383e+00 -1.517729282379150391e+00 -2.933851003646850586e+00
8.886000000000000000e+03 1.986848831176757812e+01 1.354785084724426270e+00 -2.547506570816040039e+00 -1.959940910339355469e+00 -1.352234244346618652e+00 -2.549256563186645508e+00
8.887000000000000000e+03 1.977758979797363281e+01 1.160026073455810547e+00 -2.290662527084350586e+00 -2.273728847503662109e+00 -1.369317412376403809e+00 -2.474322795867919922e+00
8.888000000000000000e+03 1.899002265930175781e+01 1.033178091049194336e+00 -1.374673604965209961e+00 -8.728634119033813477e-01 -6.742610931396484375e-01 -1.145222067832946777e+00
8.889000000000000000e+03 1.865701293945312500e+01 8.324456810951232910e-01 -9.120559692382812500e-01 -5.418440103530883789e-01 -4.361699819564819336e-01 -7.516750097274780273e-01
8.890000000000000000e+03 1.796325874328613281e+01 6.934621185064315796e-02 -9.620481729507446289e-01 -4.849682748317718506e-01 -4.341049194335937500e-01 -6.682381033897399902e-01
8.891000000000000000e+03 1.781099510192871094e+01 -4.681610688567161560e-02 -1.004743933677673340e+00 -5.173739194869995117e-01 -4.566353857517242432e-01 -6.012467145919799805e-01
8.892000000000000000e+03 1.731255149841308594e+01 -4.446045309305191040e-02 -6.053732037544250488e-01 -1.831732392311096191e-01 -2.365639209747314453e-01 -3.075233101844787598e-01
8.893000000000000000e+03 1.716968917846679688e+01 -5.165702104568481445e-01 -1.246667265892028809e+00 -3.279520273208618164e-01 -4.723857939243316650e-01 -6.051172614097595215e-01
8.894000000000000000e+03 1.733124160766601562e+01 -3.948403298854827881e-01 -1.177138209342956543e+00 -3.257826268672943115e-01 -4.508762657642364502e-01 -5.755682587623596191e-01
8.895000000000000000e+03 1.700969696044921875e+01 -6.479260325431823730e-01 -1.351842164993286133e+00 -3.048084080219268799e-01 -4.969951510429382324e-01 -5.901315808296203613e-01
8.896000000000000000e+03 1.667558479309082031e+01 -9.449340701103210449e-01 -1.563990592956542969e+00 -3.197422325611114502e-01 -5.651198625564575195e-01 -5.998269915580749512e-01
8.897000000000000000e+03 2.749036979675292969e+01 7.732102394104003906e+00 -2.079064607620239258e+00 -7.772302031517028809e-01 -8.568884134292602539e-01 -1.594923853874206543e+00
8.898000000000000000e+03 2.737743186950683594e+01 7.516111850738525391e+00 -1.339032769203186035e+00 -4.884130954742431641e-01 -5.482337474822998047e-01 -1.062917947769165039e+00
8.899000000000000000e+03 2.775899505615234375e+01 7.781839847564697266e+00 -1.622533202171325684e+00 -1.630721986293792725e-01 -5.356816053390502930e-01 -1.198141098022460938e+00
8.900000000000000000e+03 2.767353057861328125e+01 8.236301422119140625e+00 -3.489607810974121094e+00 -1.545696258544921875e+00 -1.510591268539428711e+00 -2.406789541244506836e+00
8.901000000000000000e+03 2.705670928955078125e+01 7.836090087890625000e+00 -3.932753086090087891e+00 -2.424827098846435547e+00 -1.907274007797241211e+00 -3.119403600692749023e+00
8.902000000000000000e+03 2.657050704956054688e+01 7.504411220550537109e+00 -4.562749862670898438e+00 -2.906939983367919922e+00 -2.240906953811645508e+00 -3.584247589111328125e+00
8.903000000000000000e+03 2.671600341796875000e+01 7.279695510864257812e+00 -2.710351228713989258e+00 -1.596509933471679688e+00 -1.292058348655700684e+00 -1.935277819633483887e+00
8.904000000000000000e+03 2.589096641540527344e+01 7.078425884246826172e+00 -5.416996002197265625e+00 -2.949131965637207031e+00 -2.509838342666625977e+00 -3.976088047027587891e+00
8.905000000000000000e+03 2.600694847106933594e+01 6.826173305511474609e+00 -3.207199811935424805e+00 -1.922857165336608887e+00 -1.539017081260681152e+00 -2.365843772888183594e+00
8.906000000000000000e+03 2.562108039855957031e+01 6.621604919433593750e+00 -3.451069116592407227e+00 -2.005095243453979492e+00 -1.636849284172058105e+00 -2.687870740890502930e+00
8.907000000000000000e+03 2.579959106445312500e+01 6.754337787628173828e+00 -3.639604091644287109e+00 -2.141439676284790039e+00 -1.734313130378723145e+00 -2.628393650054931641e+00
8.908000000000000000e+03 2.861095428466796875e+01 8.252856254577636719e+00 -1.926870346069335938e+00 -3.660525977611541748e-01 -6.878768801689147949e-01 -7.077493667602539062e-01
8.909000000000000000e+03 2.853674888610839844e+01 8.360008239746093750e+00 -2.089892387390136719e+00 -1.422337591648101807e-01 -6.696378588676452637e-01 -7.909835577011108398e-01
8.910000000000000000e+03 2.883415985107421875e+01 8.333746910095214844e+00 -1.462767720222473145e+00 -7.698482871055603027e-01 -6.697847843170166016e-01 -2.029297947883605957e-01
8.911000000000000000e+03 2.870514488220214844e+01 8.375977516174316406e+00 -2.149495363235473633e+00 -7.071701884269714355e-01 -8.569996356964111328e-01 -8.594670295715332031e-01
8.912000000000000000e+03 1.971903610229492188e+01 2.516002416610717773e+00 -1.291282381862401962e-02 -7.810971140861511230e-01 -2.382029742002487183e-01 -5.965977907180786133e-01
8.913000000000000000e+03 2.373731422424316406e+01 5.086797237396240234e+00 -1.690190792083740234e+00 -1.241303324699401855e+00 -8.794482350349426270e-01 -1.483603358268737793e+00
8.914000000000000000e+03 2.900718116760253906e+01 8.279201507568359375e+00 -1.411828517913818359e+00 -7.266917228698730469e-01 -6.415560841560363770e-01 -3.218980133533477783e-01
8.915000000000000000e+03 2.995883560180664062e+01 7.631362438201904297e+00 -8.784973621368408203e-01 -1.741154074668884277e+00 -7.858954071998596191e-01 -1.386879682540893555e+00
8.916000000000000000e+03 2.986109924316406250e+01 7.173797130584716797e+00 -1.152156710624694824e+00 -1.651532292366027832e+00 -8.411067128181457520e-01 -1.667895436286926270e+00
8.917000000000000000e+03 2.977012825012207031e+01 7.303269386291503906e+00 -9.122126698493957520e-01 -1.779258370399475098e+00 -8.074412941932678223e-01 -1.742996931076049805e+00
8.918000000000000000e+03 1.753824615478515625e+01 -1.313276886940002441e+00 -2.044369220733642578e+00 -1.101591467857360840e+00 -9.437881708145141602e-01 -1.176462411880493164e+00
8.919000000000000000e+03 1.770430946350097656e+01 -1.205825805664062500e+00 -2.044515848159790039e+00 -9.969747066497802734e-01 -9.124471545219421387e-01 -1.163333177566528320e+00
8.920000000000000000e+03 1.803942489624023438e+01 -9.887551069259643555e-01 -2.028477668762207031e+00 -1.320843815803527832e+00 -1.004796504974365234e+00 -1.340401053428649902e+00
8.921000000000000000e+03 1.769699668884277344e+01 -8.576623797416687012e-01 -1.836365580558776855e+00 -8.159950971603393555e-01 -7.957081794738769531e-01 -1.041119456291198730e+00
8.922000000000000000e+03 1.871887207031250000e+01 -5.354961752891540527e-01 -2.083781480789184570e+00 -2.036418199539184570e+00 -1.236059904098510742e+00 -1.664593458175659180e+00
8.923000000000000000e+03 1.851503944396972656e+01 -2.948162555694580078e-01 -1.794164419174194336e+00 -1.711699366569519043e+00 -1.051759123802185059e+00 -1.336482167243957520e+00
8.924000000000000000e+03 1.856393241882324219e+01 1.237389743328094482e-01 -1.260756850242614746e+00 -1.330916166305541992e+00 -7.775018811225891113e-01 -1.239258170127868652e+00
8.925000000000000000e+03 1.924990653991699219e+01 -5.019795522093772888e-02 -1.280117750167846680e+00 -2.893757104873657227e+00 -1.252162456512451172e+00 -2.003940105438232422e+00
8.926000000000000000e+03 1.943012428283691406e+01 -4.136993363499641418e-02 -2.292706489562988281e+00 -3.432029485702514648e+00 -1.717420816421508789e+00 -2.519037485122680664e+00
8.927000000000000000e+03 1.920506477355957031e+01 2.889018356800079346e-01 -1.681499838829040527e+00 -2.596750020980834961e+00 -1.283474922180175781e+00 -1.979183673858642578e+00
8.928000000000000000e+03 1.935403060913085938e+01 1.091038063168525696e-01 -1.173198342323303223e+00 -2.921321153640747070e+00 -1.228355884552001953e+00 -1.741238236427307129e+00
8.929000000000000000e+03 1.970587158203125000e+01 3.779152035713195801e-01 -1.738305926322937012e+00 -3.200042486190795898e+00 -1.481504559516906738e+00 -2.793265342712402344e+00
8.930000000000000000e+03 2.085043907165527344e+01 1.039960861206054688e+00 -2.537648677825927734e+00 -2.100273132324218750e+00 -1.391376495361328125e+00 -3.238353967666625977e+00
8.931000000000000000e+03 2.049315261840820312e+01 8.613141179084777832e-01 -1.996123790740966797e+00 -2.507303237915039062e+00 -1.351028203964233398e+00 -3.244013547897338867e+00
8.932000000000000000e+03 2.152845191955566406e+01 1.460379362106323242e+00 -3.429093360900878906e+00 -1.438572883605957031e+00 -1.460299849510192871e+00 -2.746341705322265625e+00
8.933000000000000000e+03 2.228789710998535156e+01 2.100796222686767578e+00 -4.111253738403320312e+00 -1.248375654220581055e+00 -1.607888817787170410e+00 -2.517892360687255859e+00
8.934000000000000000e+03 2.268266296386718750e+01 2.183539867401123047e+00 -3.943246364593505859e+00 -9.762341380119323730e-01 -1.475844144821166992e+00 -2.217133283615112305e+00
8.935000000000000000e+03 2.282362365722656250e+01 2.349183797836303711e+00 -4.093332767486572266e+00 -1.055132269859313965e+00 -1.544539451599121094e+00 -2.262768507003784180e+00
8.936000000000000000e+03 2.291903305053710938e+01 2.602031946182250977e+00 -4.285088062286376953e+00 -1.199944019317626953e+00 -1.645509600639343262e+00 -2.329436063766479492e+00
8.937000000000000000e+03 2.312372589111328125e+01 2.517670631408691406e+00 -4.068946361541748047e+00 -9.853423237800598145e-01 -1.516286611557006836e+00 -2.181332349777221680e+00
8.938000000000000000e+03 2.329864883422851562e+01 2.554312467575073242e+00 -3.986907482147216797e+00 -9.898727536201477051e-01 -1.493034124374389648e+00 -2.060153484344482422e+00
8.939000000000000000e+03 2.370875740051269531e+01 2.486496210098266602e+00 -3.685808658599853516e+00 -7.885368466377258301e-01 -1.342303633689880371e+00 -1.813408613204956055e+00
8.940000000000000000e+03 2.360039710998535156e+01 2.670200109481811523e+00 -3.900675535202026367e+00 -9.482171535491943359e-01 -1.454667806625366211e+00 -1.969154596328735352e+00
8.941000000000000000e+03 2.383144950866699219e+01 2.970955133438110352e+00 -3.978249788284301758e+00 -1.010525107383728027e+00 -1.496632456779479980e+00 -2.034293889999389648e+00
8.942000000000000000e+03 2.428691291809082031e+01 3.261617898941040039e+00 -3.915556907653808594e+00 -1.027795672416687012e+00 -1.483005762100219727e+00 -1.983579754829406738e+00
8.943000000000000000e+03 2.491758537292480469e+01 3.217509746551513672e+00 -3.570274114608764648e+00 -8.447793722152709961e-01 -1.324516057968139648e+00 -1.682578444480895996e+00
8.944000000000000000e+03 2.506211090087890625e+01 3.325509548187255859e+00 -3.514229774475097656e+00 -8.665096759796142578e-01 -1.314221858978271484e+00 -1.701135754585266113e+00
8.945000000000000000e+03 2.508978843688964844e+01 3.686359405517578125e+00 -3.639551639556884766e+00 -9.796365499496459961e-01 -1.385756492614746094e+00 -1.864793658256530762e+00
8.946000000000000000e+03 2.592293930053710938e+01 3.904886245727539062e+00 -3.333070516586303711e+00 -1.001280188560485840e+00 -1.300305247306823730e+00 -1.695570230484008789e+00
8.947000000000000000e+03 2.642688369750976562e+01 4.173763751983642578e+00 -3.182286739349365234e+00 -1.051236748695373535e+00 -1.270057082176208496e+00 -1.669784188270568848e+00
8.948000000000000000e+03 2.612514495849609375e+01 4.211234092712402344e+00 -3.351025581359863281e+00 -1.057999849319458008e+00 -1.322707653045654297e+00 -1.772917985916137695e+00
8.949000000000000000e+03 2.628206062316894531e+01 4.349055767059326172e+00 -3.331707477569580078e+00 -1.110599160194396973e+00 -1.332692027091979980e+00 -1.800437688827514648e+00
8.950000000000000000e+03 2.674450492858886719e+01 4.412423610687255859e+00 -3.108394384384155273e+00 -1.127603530883789062e+00 -1.270799398422241211e+00 -1.695480704307556152e+00
8.951000000000000000e+03 2.653885078430175781e+01 4.620157718658447266e+00 -3.267712831497192383e+00 -1.183733582496643066e+00 -1.335433959960937500e+00 -1.850739836692810059e+00
8.952000000000000000e+03 2.699238395690917969e+01 4.901086807250976562e+00 -3.216245412826538086e+00 -1.280649423599243164e+00 -1.349068522453308105e+00 -1.866453647613525391e+00
8.953000000000000000e+03 2.765724372863769531e+01 5.295273303985595703e+00 -3.001663923263549805e+00 -1.526519656181335449e+00 -1.358455061912536621e+00 -1.875250339508056641e+00
8.954000000000000000e+03 2.831085968017578125e+01 5.369943618774414062e+00 -2.644245386123657227e+00 -1.677987933158874512e+00 -1.296669960021972656e+00 -1.625272870063781738e+00
8.955000000000000000e+03 2.837192344665527344e+01 5.715072154998779297e+00 -2.733469009399414062e+00 -1.888183712959289551e+00 -1.386495828628540039e+00 -1.791434526443481445e+00
8.956000000000000000e+03 2.900979804992675781e+01 5.785435676574707031e+00 -2.444779157638549805e+00 -1.697564601898193359e+00 -1.242703080177307129e+00 -1.409759402275085449e+00
8.957000000000000000e+03 2.888737106323242188e+01 5.938385963439941406e+00 -2.519673347473144531e+00 -1.811928629875183105e+00 -1.299480557441711426e+00 -1.511435985565185547e+00
8.958000000000000000e+03 2.932737922668457031e+01 6.294694900512695312e+00 -2.332912921905517578e+00 -1.495353341102600098e+00 -1.148479819297790527e+00 -1.566446781158447266e+00
8.959000000000000000e+03 2.987050247192382812e+01 6.886860370635986328e+00 -1.532828330993652344e+00 -1.477485656738281250e+00 -9.030942320823669434e-01 -1.739245653152465820e+00
8.960000000000000000e+03 2.857546615600585938e+01 5.763775825500488281e+00 -2.592070102691650391e+00 -1.870545029640197754e+00 -1.338784575462341309e+00 -1.657405853271484375e+00
8.961000000000000000e+03 2.832865715026855469e+01 5.965070724487304688e+00 -2.828623294830322266e+00 -2.034013032913208008e+00 -1.458790898323059082e+00 -1.968008279800415039e+00
8.962000000000000000e+03 1.585226917266845703e+01 -1.314679533243179321e-01 -4.874811649322509766e+00 1.421053409576416016e+00 -1.036127448081970215e+00 -1.705469846725463867e+00
8.963000000000000000e+03 2.700904464721679688e+01 6.986386775970458984e+00 1.513901799917221069e-01 9.813851118087768555e-02 7.485860586166381836e-02 1.140525415539741516e-01
8.964000000000000000e+03 1.915440750122070312e+01 1.539692163467407227e+00 -2.258645534515380859e+00 -1.287857055664062500e+00 -1.063950777053833008e+00 -1.859714508056640625e+00
8.965000000000000000e+03 1.895336532592773438e+01 1.434279918670654297e+00 -2.609110593795776367e+00 -1.521818995475769043e+00 -1.239278912544250488e+00 -2.142958402633666992e+00
8.966000000000000000e+03 1.832626342773437500e+01 1.212554574012756348e+00 -2.276781558990478516e+00 -1.504058241844177246e+00 -1.134251952171325684e+00 -1.892757534980773926e+00
8.967000000000000000e+03 1.881803703308105469e+01 1.581102371215820312e+00 -1.188598632812500000e+00 -1.173775196075439453e+00 -7.087121605873107910e-01 -1.399935126304626465e+00
8.968000000000000000e+03 1.720338821411132812e+01 7.016548514366149902e-01 -1.312709927558898926e+00 -7.007747292518615723e-01 -6.040453910827636719e-01 -1.221171021461486816e+00
8.969000000000000000e+03 1.766154289245605469e+01 9.660823345184326172e-01 -1.019891977310180664e+00 -1.150370240211486816e+00 -6.510786414146423340e-01 -1.285853147506713867e+00
8.970000000000000000e+03 2.660479927062988281e+01 6.350921630859375000e+00 2.688680648803710938e+00 8.204614520072937012e-01 1.052742719650268555e+00 1.661006331443786621e+00
8.971000000000000000e+03 2.639602661132812500e+01 6.356693744659423828e+00 1.640047788619995117e+00 2.986568212509155273e-01 5.816113948822021484e-01 9.454297423362731934e-01
8.972000000000000000e+03 2.637787246704101562e+01 6.789946079254150391e+00 -1.292064905166625977e+00 -9.000199437141418457e-01 -6.576254367828369141e-01 -9.953933358192443848e-01
8.973000000000000000e+03 2.639554023742675781e+01 6.124566555023193359e+00 3.584976911544799805e+00 1.076157808303833008e+00 1.398340344429016113e+00 2.120053052902221680e+00
8.974000000000000000e+03 2.626122474670410156e+01 6.240300655364990234e+00 2.014305591583251953e+00 4.363570511341094971e-01 7.351987957954406738e-01 1.083393454551696777e+00
8.975000000000000000e+03 2.605123901367187500e+01 6.284544944763183594e+00 1.058434724807739258e+00 -1.938085333677008748e-04 3.174722790718078613e-01 3.897359967231750488e-01
8.976000000000000000e+03 2.451865959167480469e+01 5.238244056701660156e+00 1.168279647827148438e+00 -1.467970293015241623e-02 3.460799753665924072e-01 4.125750660896301270e-01
8.977000000000000000e+03 2.402710723876953125e+01 5.146443367004394531e+00 -9.804095029830932617e-01 -1.091215729713439941e+00 -6.214875578880310059e-01 -9.574836492538452148e-01
8.978000000000000000e+03 2.145628166198730469e+01 3.227499723434448242e+00 2.666459381580352783e-01 -3.354237973690032959e-01 -2.063336037099361420e-02 -2.373673319816589355e-01
8.979000000000000000e+03 2.426770591735839844e+01 5.176071166992187500e+00 5.078675746917724609e-01 -5.559102296829223633e-01 -1.441280823200941086e-02 -1.774498671293258667e-01
8.980000000000000000e+03 2.872770690917968750e+01 5.972564697265625000e+00 -2.577222585678100586e+00 -1.975426197052001953e+00 -1.365794658660888672e+00 -1.630798697471618652e+00
8.981000000000000000e+03 2.875193977355957031e+01 5.821742534637451172e+00 -2.547250747680664062e+00 -1.846466183662414551e+00 -1.318114995956420898e+00 -1.560682535171508789e+00
8.982000000000000000e+03 2.641004180908203125e+01 4.976247310638427734e+00 -3.410316705703735352e+00 -1.298049807548522949e+00 -1.412509918212890625e+00 -2.048236131668090820e+00
8.983000000000000000e+03 2.677645301818847656e+01 4.986546516418457031e+00 -3.278321981430053711e+00 -1.300641298294067383e+00 -1.373688936233520508e+00 -1.956424593925476074e+00
8.984000000000000000e+03 2.664482498168945312e+01 5.213761329650878906e+00 -3.431449651718139648e+00 -1.304212212562561035e+00 -1.420698642730712891e+00 -2.081996917724609375e+00
8.985000000000000000e+03 2.723494148254394531e+01 7.353139877319335938e+00 -1.065795660018920898e+00 -5.289557576179504395e-01 -4.784254133701324463e-01 -9.077413678169250488e-01
8.986000000000000000e+03 2.647268295288085938e+01 6.952697277069091797e+00 -1.994438886642456055e+00 -1.319978952407836914e+00 -9.943253397941589355e-01 -1.479054331779479980e+00
8.987000000000000000e+03 2.488064193725585938e+01 5.748773574829101562e+00 -9.854907989501953125e-01 -8.042163848876953125e-01 -5.369121432304382324e-01 -8.974277377128601074e-01
8.988000000000000000e+03 2.606977462768554688e+01 6.554043769836425781e+00 -1.105587959289550781e+00 -7.688249349594116211e-01 -5.623238682746887207e-01 -7.875719070434570312e-01
8.989000000000000000e+03 1.970203399658203125e+01 9.767117500305175781e-01 -1.698673009872436523e+00 -2.080461263656616211e+00 -1.133740305900573730e+00 -2.551503658294677734e+00
8.990000000000000000e+03 2.451392555236816406e+01 4.150055408477783203e+00 -4.070581436157226562e+00 -1.361589908599853516e+00 -1.629651546478271484e+00 -2.350946664810180664e+00
8.991000000000000000e+03 2.222106933593750000e+01 1.953441381454467773e+00 -3.927217245101928711e+00 -1.174814820289611816e+00 -1.530609607696533203e+00 -2.456256389617919922e+00
8.992000000000000000e+03 2.499477386474609375e+01 4.285282135009765625e+00 -3.894363164901733398e+00 -1.277861714363098145e+00 -1.551667451858520508e+00 -2.210831880569458008e+00
8.993000000000000000e+03 2.772571945190429688e+01 5.587497234344482422e+00 -3.051592826843261719e+00 -1.653216481208801270e+00 -1.411442875862121582e+00 -2.006383419036865234e+00
8.994000000000000000e+03 2.786710739135742188e+01 5.700411319732666016e+00 -3.044278621673583984e+00 -1.703441977500915527e+00 -1.424316167831420898e+00 -2.018817424774169922e+00
8.995000000000000000e+03 2.761308097839355469e+01 6.036466598510742188e+00 -3.435422658920288086e+00 -1.667226910591125488e+00 -1.530794858932495117e+00 -2.323585033416748047e+00
8.996000000000000000e+03 2.683716011047363281e+01 5.168988704681396484e+00 -3.308596134185791016e+00 -1.380259871482849121e+00 -1.406656861305236816e+00 -2.029203891754150391e+00
8.997000000000000000e+03 2.701836776733398438e+01 5.092906475067138672e+00 -3.214188337326049805e+00 -1.349731802940368652e+00 -1.369176030158996582e+00 -1.967655897140502930e+00
8.998000000000000000e+03 2.715846061706542969e+01 4.960176944732666016e+00 -3.132028341293334961e+00 -1.296468853950500488e+00 -1.328549146652221680e+00 -1.843348264694213867e+00
8.999000000000000000e+03 2.239185333251953125e+01 1.953694581985473633e+00 -3.811604976654052734e+00 -9.358335733413696289e-01 -1.424231529235839844e+00 -2.300717353820800781e+00
9.000000000000000000e+03 2.253596496582031250e+01 2.679699420928955078e+00 -4.655888080596923828e+00 -1.520583748817443848e+00 -1.852941513061523438e+00 -2.696600914001464844e+00
9.001000000000000000e+03 2.059241485595703125e+01 1.542418837547302246e+00 -3.206970691680908203e+00 -2.137883424758911133e+00 -1.603456258773803711e+00 -3.024490833282470703e+00
9.002000000000000000e+03 1.705965614318847656e+01 -1.238278031349182129e+00 -1.841533541679382324e+00 -6.101288795471191406e-01 -7.354987263679504395e-01 -8.117923140525817871e-01
9.003000000000000000e+03 1.735778236389160156e+01 -7.449176907539367676e-01 -1.591218471527099609e+00 -4.905963540077209473e-01 -6.245444416999816895e-01 -7.771884202957153320e-01
9.004000000000000000e+03 1.751641082763671875e+01 -6.253772377967834473e-01 -1.566839575767517090e+00 -6.376736164093017578e-01 -6.613539457321166992e-01 -8.133082985877990723e-01
9.005000000000000000e+03 1.767763137817382812e+01 -5.077363848686218262e-01 -1.512154936790466309e+00 -6.015593409538269043e-01 -6.341142654418945312e-01 -8.500668406486511230e-01
9.006000000000000000e+03 1.858691024780273438e+01 -9.391445666551589966e-02 -1.687720775604248047e+00 -1.652010440826416016e+00 -1.001919388771057129e+00 -1.352640151977539062e+00
9.007000000000000000e+03 1.897811508178710938e+01 2.083240002393722534e-01 -1.075730323791503906e+00 -2.044081449508666992e+00 -9.359435439109802246e-01 -1.527033567428588867e+00
9.008000000000000000e+03 1.828685569763183594e+01 2.713023126125335693e-01 -9.712336063385009766e-01 -6.325382590293884277e-01 -4.811315536499023438e-01 -8.039547204971313477e-01
9.009000000000000000e+03 2.410520935058593750e+01 3.153629302978515625e+00 -3.951785326004028320e+00 -9.535822868347167969e-01 -1.471610307693481445e+00 -1.981960296630859375e+00
9.010000000000000000e+03 2.391318130493164062e+01 3.180729627609252930e+00 -4.106370925903320312e+00 -1.092759490013122559e+00 -1.559739112854003906e+00 -2.117146492004394531e+00
9.011000000000000000e+03 2.399816131591796875e+01 3.385308742523193359e+00 -4.165324687957763672e+00 -1.183979749679565430e+00 -1.604791283607482910e+00 -2.238283157348632812e+00
9.012000000000000000e+03 2.488282585144042969e+01 3.632354021072387695e+00 -3.746995925903320312e+00 -1.037493109703063965e+00 -1.435346722602844238e+00 -1.912717819213867188e+00
9.013000000000000000e+03 2.444554328918457031e+01 3.841858625411987305e+00 -3.992822647094726562e+00 -1.246524214744567871e+00 -1.571804046630859375e+00 -2.210258722305297852e+00
9.014000000000000000e+03 2.601859092712402344e+01 4.594632148742675781e+00 -3.521492242813110352e+00 -1.182547926902770996e+00 -1.411212086677551270e+00 -1.972805380821228027e+00
9.015000000000000000e+03 2.623686027526855469e+01 4.541726589202880859e+00 -3.369048595428466797e+00 -1.158740639686584473e+00 -1.358336806297302246e+00 -1.891424298286437988e+00
9.016000000000000000e+03 1.928930854797363281e+01 8.976932168006896973e-01 -1.415202379226684570e+00 -1.548117399215698242e+00 -8.889959454536437988e-01 -1.817372083663940430e+00
9.017000000000000000e+03 1.927956962585449219e+01 6.948968768119812012e-01 -1.819412350654602051e+00 -2.018425703048706055e+00 -1.151351451873779297e+00 -2.058213472366333008e+00
9.018000000000000000e+03 1.991943740844726562e+01 6.985806822776794434e-01 -1.620197892189025879e+00 -3.115069389343261719e+00 -1.420580148696899414e+00 -2.611288547515869141e+00
9.019000000000000000e+03 2.460322952270507812e+01 3.955327272415161133e+00 -3.987366437911987305e+00 -1.258316993713378906e+00 -1.573705077171325684e+00 -2.243131399154663086e+00
9.020000000000000000e+03 2.382778739929199219e+01 3.521178722381591797e+00 -4.295454502105712891e+00 -1.328415632247924805e+00 -1.687160968780517578e+00 -2.362270116806030273e+00
9.021000000000000000e+03 2.198137664794921875e+01 2.655979156494140625e+00 -5.025802612304687500e+00 -1.832399368286132812e+00 -2.057460546493530273e+00 -3.038869619369506836e+00
9.022000000000000000e+03 2.185815811157226562e+01 2.212323427200317383e+00 -4.456004619598388672e+00 -1.567016243934631348e+00 -1.806906223297119141e+00 -2.827685356140136719e+00
9.023000000000000000e+03 2.198051834106445312e+01 2.364504098892211914e+00 -4.618597507476806641e+00 -1.629718065261840820e+00 -1.874494671821594238e+00 -2.842499256134033203e+00
9.024000000000000000e+03 2.148756027221679688e+01 1.866619586944580078e+00 -3.922689676284790039e+00 -1.633754491806030273e+00 -1.666933298110961914e+00 -2.826596260070800781e+00
9.025000000000000000e+03 2.106024551391601562e+01 1.529556989669799805e+00 -3.345453977584838867e+00 -1.818740487098693848e+00 -1.549258351325988770e+00 -3.044425010681152344e+00
9.026000000000000000e+03 2.125181007385253906e+01 1.653330326080322266e+00 -3.729288816452026367e+00 -1.803432464599609375e+00 -1.659816384315490723e+00 -2.931535720825195312e+00
9.027000000000000000e+03 2.094637107849121094e+01 1.918027877807617188e+00 -4.249960899353027344e+00 -2.014465570449829102e+00 -1.879327893257141113e+00 -3.025986909866333008e+00
9.028000000000000000e+03 2.076650810241699219e+01 1.574730277061462402e+00 -3.307406187057495117e+00 -2.061537265777587891e+00 -1.610682964324951172e+00 -3.044364213943481445e+00
9.029000000000000000e+03 2.587970352172851562e+01 4.881956577301025391e+00 -3.656344175338745117e+00 -1.289991974830627441e+00 -1.483900785446166992e+00 -2.149100542068481445e+00
9.030000000000000000e+03 1.765451049804687500e+01 -1.619453579187393188e-01 -1.056003808975219727e+00 -3.735509514808654785e-01 -4.288664460182189941e-01 -5.911701321601867676e-01
9.031000000000000000e+03 1.812890052795410156e+01 -1.340038925409317017e-01 -1.371077537536621094e+00 -9.035021662712097168e-01 -6.823739409446716309e-01 -8.854738473892211914e-01
9.032000000000000000e+03 1.826277923583984375e+01 -2.977999858558177948e-02 -1.259303331375122070e+00 -8.889790773391723633e-01 -6.444846987724304199e-01 -9.831565618515014648e-01
9.033000000000000000e+03 1.880193901062011719e+01 6.758607029914855957e-01 -9.171993732452392578e-01 -1.124899387359619141e+00 -6.126295924186706543e-01 -1.004657864570617676e+00
9.034000000000000000e+03 1.894854354858398438e+01 7.549192905426025391e-01 -1.065818309783935547e+00 -1.229062795639038086e+00 -6.884642839431762695e-01 -1.271612048149108887e+00
9.035000000000000000e+03 2.678519821166992188e+01 7.062376022338867188e+00 -1.345378518104553223e+00 -8.436217308044433594e-01 -6.567000746726989746e-01 -9.764410853385925293e-01
9.036000000000000000e+03 2.690731239318847656e+01 6.818960189819335938e+00 8.904720544815063477e-01 4.371137619018554688e-01 3.982757627964019775e-01 5.664115548133850098e-01
9.037000000000000000e+03 2.660069084167480469e+01 7.038652420043945312e+00 -2.016491413116455078e+00 -1.279558300971984863e+00 -9.888149499893188477e-01 -1.434811830520629883e+00
9.038000000000000000e+03 2.659112930297851562e+01 6.734062194824218750e+00 4.330525696277618408e-01 -1.305572092533111572e-01 9.074860811233520508e-02 1.865723580121994019e-01
9.039000000000000000e+03 2.661147308349609375e+01 6.894548892974853516e+00 -9.792014360427856445e-01 -7.057902812957763672e-01 -5.054975152015686035e-01 -7.146902680397033691e-01
9.040000000000000000e+03 2.073003196716308594e+01 1.245025277137756348e+00 -2.764946937561035156e+00 -1.991682291030883789e+00 -1.426988720893859863e+00 -3.163257360458374023e+00
9.041000000000000000e+03 2.058207511901855469e+01 1.154570817947387695e+00 -2.495604753494262695e+00 -2.328986644744873047e+00 -1.447377443313598633e+00 -3.119239568710327148e+00
9.042000000000000000e+03 2.174007797241210938e+01 2.035988092422485352e+00 -4.236350536346435547e+00 -1.607812047004699707e+00 -1.753248810768127441e+00 -2.799113035202026367e+00
9.043000000000000000e+03 1.986181449890136719e+01 8.778309226036071777e-01 -1.603821396827697754e+00 -2.839824676513671875e+00 -1.333093881607055664e+00 -2.699404954910278320e+00
9.044000000000000000e+03 1.949866867065429688e+01 5.670157074928283691e-01 -9.950631260871887207e-01 -2.749286651611328125e+00 -1.123304963111877441e+00 -2.058157444000244141e+00
9.045000000000000000e+03 1.954581260681152344e+01 2.329013496637344360e-01 -1.209745764732360840e+00 -3.432606458663940430e+00 -1.392705678939819336e+00 -2.365027666091918945e+00
9.046000000000000000e+03 2.056551742553710938e+01 1.350121736526489258e+00 -3.023686885833740234e+00 -2.261924266815185547e+00 -1.585683345794677734e+00 -3.117888212203979492e+00
9.047000000000000000e+03 2.213665390014648438e+01 2.220813751220703125e+00 -4.304434776306152344e+00 -1.383699297904968262e+00 -1.706440329551696777e+00 -2.618359565734863281e+00
9.048000000000000000e+03 2.759283638000488281e+01 5.736433982849121094e+00 -3.262998580932617188e+00 -1.610631108283996582e+00 -1.462088942527770996e+00 -2.129036664962768555e+00
9.049000000000000000e+03 1.647349929809570312e+01 -1.049277424812316895e+00 -1.745351552963256836e+00 -3.010126948356628418e-01 -6.139093041419982910e-01 -4.609638750553131104e-01
9.050000000000000000e+03 2.371811103820800781e+01 3.334536314010620117e+00 -4.272394180297851562e+00 -1.250164866447448730e+00 -1.656767725944519043e+00 -2.333446502685546875e+00
9.051000000000000000e+03 1.918312644958496094e+01 5.033789277076721191e-01 -8.099744319915771484e-01 -2.244645118713378906e+00 -9.163858890533447266e-01 -1.611692547798156738e+00
9.052000000000000000e+03 2.467941284179687500e+01 3.614620447158813477e+00 -3.834486007690429688e+00 -1.019034028053283691e+00 -1.456055998802185059e+00 -1.991543769836425781e+00
9.053000000000000000e+03 1.937634086608886719e+01 4.028036594390869141e-01 -1.550589561462402344e+00 -2.538084030151367188e+00 -1.226602077484130859e+00 -2.136274814605712891e+00
9.054000000000000000e+03 1.885597801208496094e+01 4.195890128612518311e-01 -1.267162442207336426e+00 -1.796733140945434570e+00 -9.191686511039733887e-01 -1.542384982109069824e+00
9.055000000000000000e+03 2.240024375915527344e+01 2.218441963195800781e+00 -4.169203758239746094e+00 -1.183287858963012695e+00 -1.605747461318969727e+00 -2.433049440383911133e+00
9.056000000000000000e+03 2.447861862182617188e+01 3.615789175033569336e+00 -4.028130531311035156e+00 -1.118502140045166016e+00 -1.543989777565002441e+00 -2.107476472854614258e+00
9.057000000000000000e+03 2.235301589965820312e+01 2.481110811233520508e+00 -4.565506458282470703e+00 -1.423313498497009277e+00 -1.796645879745483398e+00 -2.650390148162841797e+00
9.058000000000000000e+03 2.166055107116699219e+01 1.858121275901794434e+00 -3.966969728469848633e+00 -1.522164106369018555e+00 -1.646740198135375977e+00 -2.764071226119995117e+00
9.059000000000000000e+03 2.237258148193359375e+01 2.643537998199462891e+00 -4.675735950469970703e+00 -1.501134514808654785e+00 -1.853061199188232422e+00 -2.757689952850341797e+00
9.060000000000000000e+03 2.353147506713867188e+01 2.949220895767211914e+00 -4.177373409271240234e+00 -1.123374342918395996e+00 -1.590224385261535645e+00 -2.226264476776123047e+00
9.061000000000000000e+03 2.845718574523925781e+01 7.030216693878173828e+00 -6.495541095733642578e+00 -3.139620065689086914e+00 -2.890548467636108398e+00 -4.555571079254150391e+00
9.062000000000000000e+03 2.829931449890136719e+01 6.909000873565673828e+00 -5.084401130676269531e+00 -2.464728593826293945e+00 -2.264739036560058594e+00 -3.492026567459106445e+00
9.063000000000000000e+03 2.814144515991210938e+01 6.787785530090332031e+00 -4.513371944427490234e+00 -2.038785696029663086e+00 -1.965647339820861816e+00 -3.013585329055786133e+00
9.064000000000000000e+03 2.798357582092285156e+01 6.666570186614990234e+00 -4.167864799499511719e+00 -1.851941466331481934e+00 -1.805941820144653320e+00 -2.785377979278564453e+00
9.065000000000000000e+03 2.849719047546386719e+01 6.987525463104248047e+00 -5.153983592987060547e+00 -3.737184524536132812e+00 -2.667350530624389648e+00 -4.428650856018066406e+00
9.066000000000000000e+03 2.836599349975585938e+01 6.837849140167236328e+00 -4.398881435394287109e+00 -2.988748550415039062e+00 -2.216289043426513672e+00 -3.366167068481445312e+00
9.067000000000000000e+03 2.823479461669921875e+01 6.688172817230224609e+00 -3.986561059951782227e+00 -2.440521240234375000e+00 -1.928124785423278809e+00 -3.027715921401977539e+00
9.068000000000000000e+03 2.810359573364257812e+01 6.538496494293212891e+00 -3.760422468185424805e+00 -2.165981531143188477e+00 -1.777921199798583984e+00 -2.735943078994750977e+00
9.069000000000000000e+03 2.854475593566894531e+01 6.953455924987792969e+00 -4.154066562652587891e+00 -4.244542121887207031e+00 -2.519582509994506836e+00 -3.962676286697387695e+00
9.070000000000000000e+03 2.844526672363281250e+01 6.781066894531250000e+00 -3.818853855133056641e+00 -3.214394330978393555e+00 -2.109974384307861328e+00 -3.108140468597412109e+00
9.071000000000000000e+03 2.834577941894531250e+01 6.608678340911865234e+00 -3.502022981643676758e+00 -2.736011028289794922e+00 -1.871410250663757324e+00 -2.777941942214965820e+00
9.072000000000000000e+03 2.824629020690917969e+01 6.436289310455322266e+00 -3.368974208831787109e+00 -2.384891033172607422e+00 -1.726159572601318359e+00 -2.578903675079345703e+00
9.073000000000000000e+03 2.859805107116699219e+01 6.929316997528076172e+00 -3.517964601516723633e+00 -4.385867118835449219e+00 -2.371149539947509766e+00 -3.320157051086425781e+00
9.074000000000000000e+03 2.853409385681152344e+01 6.740835666656494141e+00 -3.360132455825805664e+00 -3.285388231277465820e+00 -1.993656158447265625e+00 -2.750280141830444336e+00
9.075000000000000000e+03 2.847013473510742188e+01 6.552354335784912109e+00 -3.176738739013671875e+00 -2.810464620590209961e+00 -1.796161055564880371e+00 -2.481053352355957031e+00
9.076000000000000000e+03 2.840617561340332031e+01 6.363872528076171875e+00 -3.018344640731811523e+00 -2.483090877532958984e+00 -1.650430679321289062e+00 -2.284562110900878906e+00
9.077000000000000000e+03 2.865503120422363281e+01 6.916035652160644531e+00 -3.177662134170532227e+00 -4.127568244934082031e+00 -2.191569089889526367e+00 -2.689275264739990234e+00
9.078000000000000000e+03 2.862905883789062500e+01 6.718699932098388672e+00 -3.124494314193725586e+00 -3.175615310668945312e+00 -1.890032887458801270e+00 -2.408559322357177734e+00
9.079000000000000000e+03 2.860308647155761719e+01 6.521364212036132812e+00 -2.905478239059448242e+00 -2.721035242080688477e+00 -1.687954068183898926e+00 -2.161534309387207031e+00
9.080000000000000000e+03 2.857711601257324219e+01 6.324028491973876953e+00 -2.848673820495605469e+00 -2.428601980209350586e+00 -1.583182692527770996e+00 -2.022961139678955078e+00
9.081000000000000000e+03 2.871350669860839844e+01 6.914121627807617188e+00 -3.191932678222656250e+00 -3.608329057693481445e+00 -2.040078401565551758e+00 -2.281963109970092773e+00
9.082000000000000000e+03 2.872651863098144531e+01 6.715509891510009766e+00 -2.924977064132690430e+00 -2.885356903076171875e+00 -1.743100166320800781e+00 -2.128483057022094727e+00
9.083000000000000000e+03 2.873953056335449219e+01 6.516898155212402344e+00 -2.824710845947265625e+00 -2.532127380371093750e+00 -1.607051491737365723e+00 -1.943338871002197266e+00
9.084000000000000000e+03 2.875254249572753906e+01 6.318286418914794922e+00 -2.670859336853027344e+00 -2.237185955047607422e+00 -1.472413539886474609e+00 -1.766356587409973145e+00
9.085000000000000000e+03 2.877123260498046875e+01 6.923648357391357422e+00 -3.167894840240478516e+00 -2.925409793853759766e+00 -1.827991366386413574e+00 -2.165686607360839844e+00
9.086000000000000000e+03 2.882272911071777344e+01 6.731388092041015625e+00 -2.902584314346313477e+00 -2.568050384521484375e+00 -1.641190409660339355e+00 -2.009764909744262695e+00
9.087000000000000000e+03 2.887422561645507812e+01 6.539127349853515625e+00 -2.695884943008422852e+00 -2.224742889404296875e+00 -1.476188302040100098e+00 -1.799267530441284180e+00
9.088000000000000000e+03 2.892572212219238281e+01 6.346867084503173828e+00 -2.620057582855224609e+00 -2.048546791076660156e+00 -1.400581240653991699e+00 -1.662485837936401367e+00
9.089000000000000000e+03 2.882599258422851562e+01 6.944250583648681641e+00 -3.180870532989501953e+00 -2.410853862762451172e+00 -1.677517294883728027e+00 -2.372684001922607422e+00
9.090000000000000000e+03 2.891399574279785156e+01 6.765724658966064453e+00 -2.725320577621459961e+00 -2.194548368453979492e+00 -1.475960612297058105e+00 -2.000419855117797852e+00
9.091000000000000000e+03 2.900199890136718750e+01 6.587198734283447266e+00 -2.682543039321899414e+00 -1.980799317359924316e+00 -1.399002671241760254e+00 -1.803636908531188965e+00
9.092000000000000000e+03 2.909000015258789062e+01 6.408672809600830078e+00 -2.495346546173095703e+00 -1.782011747360229492e+00 -1.283207416534423828e+00 -1.647446393966674805e+00
9.093000000000000000e+03 2.887568473815917969e+01 6.975136280059814453e+00 -2.826228380203247070e+00 -2.035093784332275391e+00 -1.458396553993225098e+00 -2.684240102767944336e+00
9.094000000000000000e+03 2.899681282043457031e+01 6.817201137542724609e+00 -2.595739364624023438e+00 -1.983440399169921875e+00 -1.373753905296325684e+00 -2.169150590896606445e+00
9.095000000000000000e+03 2.911794281005859375e+01 6.659265518188476562e+00 -2.453761339187622070e+00 -1.750368118286132812e+00 -1.261238813400268555e+00 -1.846711158752441406e+00
9.096000000000000000e+03 2.923907279968261719e+01 6.501330375671386719e+00 -2.488162279129028320e+00 -1.614047646522521973e+00 -1.230662941932678223e+00 -1.723044753074645996e+00
9.097000000000000000e+03 2.891839790344238281e+01 7.015120029449462891e+00 -2.256214141845703125e+00 -2.065858125686645508e+00 -1.296621680259704590e+00 -3.044819355010986328e+00
9.098000000000000000e+03 2.906800079345703125e+01 6.883840560913085938e+00 -2.283095598220825195e+00 -1.798468351364135742e+00 -1.224469184875488281e+00 -2.305077552795410156e+00
9.099000000000000000e+03 2.921760559082031250e+01 6.752560615539550781e+00 -2.217468261718750000e+00 -1.698689103126525879e+00 -1.174847245216369629e+00 -2.047110080718994141e+00
9.100000000000000000e+03 2.936721229553222656e+01 6.621281147003173828e+00 -2.193428516387939453e+00 -1.510646700859069824e+00 -1.111222624778747559e+00 -1.744589686393737793e+00
9.101000000000000000e+03 2.895249176025390625e+01 7.062665939331054688e+00 -1.526016354560852051e+00 -2.217919111251831055e+00 -1.123180627822875977e+00 -3.236982583999633789e+00
9.102000000000000000e+03 2.912482643127441406e+01 6.963083744049072266e+00 -1.795965671539306641e+00 -1.847101807594299316e+00 -1.092920303344726562e+00 -2.433605670928955078e+00
9.103000000000000000e+03 2.929716110229492188e+01 6.863501071929931641e+00 -1.953778505325317383e+00 -1.644324541091918945e+00 -1.079430937767028809e+00 -2.178014755249023438e+00
9.104000000000000000e+03 2.946949577331542969e+01 6.763918876647949219e+00 -1.787700653076171875e+00 -1.606104493141174316e+00 -1.018141508102416992e+00 -1.944246411323547363e+00
9.105000000000000000e+03 2.897665977478027344e+01 7.115948200225830078e+00 -6.375173330307006836e-01 -2.488351345062255859e+00 -9.377606511116027832e-01 -3.138822078704833984e+00
9.106000000000000000e+03 2.916510581970214844e+01 7.051887512207031250e+00 -1.306066870689392090e+00 -1.978296518325805664e+00 -9.853090047836303711e-01 -2.526347398757934570e+00
9.107000000000000000e+03 2.935355186462402344e+01 6.987826824188232422e+00 -1.480895161628723145e+00 -1.716826438903808594e+00 -9.593164920806884766e-01 -2.169553041458129883e+00
9.108000000000000000e+03 2.954199981689453125e+01 6.923766136169433594e+00 -1.643973469734191895e+00 -1.658673882484436035e+00 -9.907942414283752441e-01 -2.105427026748657227e+00
9.109000000000000000e+03 2.898997116088867188e+01 7.172920703887939453e+00 1.018799617886543274e-01 -2.773232460021972656e+00 -8.014057874679565430e-01 -2.886881828308105469e+00
9.110000000000000000e+03 2.918729400634765625e+01 7.146841526031494141e+00 -7.079408168792724609e-01 -2.103399276733398438e+00 -8.434020280838012695e-01 -2.408232927322387695e+00
9.111000000000000000e+03 2.938461494445800781e+01 7.120762348175048828e+00 -1.029800057411193848e+00 -1.916674256324768066e+00 -8.839423060417175293e-01 -2.150830030441284180e+00
9.112000000000000000e+03 2.958193588256835938e+01 7.094683170318603516e+00 -1.293731093406677246e+00 -1.683058142662048340e+00 -8.930367827415466309e-01 -1.936316847801208496e+00
9.113000000000000000e+03 2.899191665649414062e+01 7.231395721435546875e+00 7.410864233970642090e-01 -2.839452981948852539e+00 -6.295099258422851562e-01 -2.426068782806396484e+00
9.114000000000000000e+03 2.919053649902343750e+01 7.244299411773681641e+00 -1.776145100593566895e-01 -2.307392835617065430e+00 -7.455022335052490234e-01 -2.214587211608886719e+00
9.115000000000000000e+03 2.938915443420410156e+01 7.257203578948974609e+00 -5.661654472351074219e-01 -2.026522397994995117e+00 -7.778063416481018066e-01 -1.951678276062011719e+00
9.116000000000000000e+03 2.958777427673339844e+01 7.270107746124267578e+00 -8.026613593101501465e-01 -1.882513165473937988e+00 -8.055523633956909180e-01 -1.764681696891784668e+00
9.117000000000000000e+03 2.898242187500000000e+01 7.289126873016357422e+00 1.165308237075805664e+00 -2.864816665649414062e+00 -5.098525285720825195e-01 -1.984612941741943359e+00
9.118000000000000000e+03 2.917471122741699219e+01 7.340518474578857422e+00 3.255592286586761475e-01 -2.353774309158325195e+00 -6.084645390510559082e-01 -1.837360143661499023e+00
9.119000000000000000e+03 2.936699867248535156e+01 7.391910076141357422e+00 -1.991836875677108765e-01 -2.158605575561523438e+00 -7.073367834091186523e-01 -1.686395525932312012e+00
9.120000000000000000e+03 2.955928802490234375e+01 7.443301677703857422e+00 -4.505529999732971191e-01 -1.962605118751525879e+00 -7.239474058151245117e-01 -1.565452933311462402e+00
9.121000000000000000e+03 2.896185111999511719e+01 7.343897819519042969e+00 1.492266178131103516e+00 -2.595255613327026367e+00 -3.308967947959899902e-01 -1.515966057777404785e+00
9.122000000000000000e+03 2.914042282104492188e+01 7.431803703308105469e+00 6.803488731384277344e-01 -2.465140104293823242e+00 -5.354373455047607422e-01 -1.436103343963623047e+00
9.123000000000000000e+03 2.931899642944335938e+01 7.519709587097167969e+00 1.112034320831298828e-01 -2.066964864730834961e+00 -5.867284536361694336e-01 -1.269203186035156250e+00
9.124000000000000000e+03 2.949757194519042969e+01 7.607614994049072266e+00 -3.670435249805450439e-01 -1.958599090576171875e+00 -6.976928114891052246e-01 -1.290610909461975098e+00
9.125000000000000000e+03 2.893099212646484375e+01 7.393605232238769531e+00 1.733132481575012207e+00 -2.538767337799072266e+00 -2.416904717683792114e-01 -1.112035989761352539e+00
9.126000000000000000e+03 2.908899307250976562e+01 7.514648914337158203e+00 9.233575463294982910e-01 -2.188492536544799805e+00 -3.795405030250549316e-01 -9.645657539367675781e-01
9.127000000000000000e+03 2.924699401855468750e+01 7.635693073272705078e+00 2.605569958686828613e-01 -2.112380743026733398e+00 -5.555471181869506836e-01 -8.707778453826904297e-01
9.128000000000000000e+03 2.940499496459960938e+01 7.756736755371093750e+00 -2.674088478088378906e-01 -1.681334376335144043e+00 -5.846229791641235352e-01 -7.885261774063110352e-01
9.129000000000000000e+03 2.889103126525878906e+01 7.436339855194091797e+00 2.017923355102539062e+00 -2.142360925674438477e+00 -3.733131662011146545e-02 -7.707974314689636230e-01
9.130000000000000000e+03 2.902239227294921875e+01 7.585873603820800781e+00 9.895557165145874023e-01 -2.092774629592895508e+00 -3.309656679630279541e-01 -4.476945698261260986e-01
9.131000000000000000e+03 2.915375137329101562e+01 7.735406875610351562e+00 2.568317651748657227e-01 -1.694190144538879395e+00 -4.312075078487396240e-01 -5.193358063697814941e-01
9.132000000000000000e+03 2.928511238098144531e+01 7.884940624237060547e+00 -1.524622589349746704e-01 -1.780650734901428223e+00 -5.799338817596435547e-01 -4.260878264904022217e-01
9.133000000000000000e+03 2.884350395202636719e+01 7.470460414886474609e+00 2.178039550781250000e+00 -1.989238023757934570e+00 5.664047971367835999e-02 -2.966585457324981689e-01
9.134000000000000000e+03 2.894317817687988281e+01 7.642741680145263672e+00 9.974161386489868164e-01 -1.579858422279357910e+00 -1.747326850891113281e-01 -1.086675897240638733e-01
9.135000000000000000e+03 2.904285430908203125e+01 7.815021991729736328e+00 9.730318933725357056e-02 -1.484071850776672363e+00 -4.160306155681610107e-01 -9.040696918964385986e-02
9.136000000000000000e+03 2.914253044128417969e+01 7.987303256988525391e+00 -3.272425532341003418e-01 -1.326097965240478516e+00 -4.960021674633026123e-01 -4.031947255134582520e-01
9.137000000000000000e+03 2.879023361206054688e+01 7.494657516479492188e+00 2.400824546813964844e+00 -1.576720952987670898e+00 2.472311109304428101e-01 1.177111342549324036e-01
9.138000000000000000e+03 2.885439682006835938e+01 7.683069229125976562e+00 7.964110374450683594e-01 -1.116627573966979980e+00 -9.606497734785079956e-02 2.760193943977355957e-01
9.139000000000000000e+03 2.891856002807617188e+01 7.871481418609619141e+00 -7.982370257377624512e-02 -9.994052648544311523e-01 -3.237687051296234131e-01 3.435234725475311279e-02
9.140000000000000000e+03 2.898272323608398438e+01 8.059893608093261719e+00 -8.126035928726196289e-01 -9.676889181137084961e-01 -5.340877771377563477e-01 -2.012083083391189575e-01
9.141000000000000000e+03 2.873326873779296875e+01 7.508000850677490234e+00 2.481050491333007812e+00 -1.029387712478637695e+00 4.354988336563110352e-01 5.549860000610351562e-01
9.142000000000000000e+03 2.875945472717285156e+01 7.705308437347412109e+00 5.784956812858581543e-01 -5.791478753089904785e-01 -1.956574706127867103e-04 4.620984792709350586e-01
9.143000000000000000e+03 2.878564071655273438e+01 7.902615547180175781e+00 -3.610085248947143555e-01 -4.810245037078857422e-01 -2.526099085807800293e-01 1.486487835645675659e-01
9.144000000000000000e+03 2.881182670593261719e+01 8.099923133850097656e+00 -1.221796393394470215e+00 -5.070006251335144043e-01 -5.186391472816467285e-01 -1.803976148366928101e-01
9.145000000000000000e+03 2.867479515075683594e+01 7.509978294372558594e+00 2.219657421112060547e+00 -4.124155342578887939e-01 5.421725511550903320e-01 8.983646631240844727e-01
9.146000000000000000e+03 2.866199874877929688e+01 7.708603858947753906e+00 6.106110215187072754e-01 2.960220910608768463e-02 1.920639723539352417e-01 5.121610760688781738e-01
9.147000000000000000e+03 2.864920234680175781e+01 7.907229900360107422e+00 -8.097368478775024414e-01 -3.681316226720809937e-02 -2.539650201797485352e-01 1.412109583616256714e-01
9.148000000000000000e+03 2.863640785217285156e+01 8.105855941772460938e+00 -1.367726206779479980e+00 -8.330743014812469482e-02 -4.353100955486297607e-01 -2.158561348915100098e-01
9.149000000000000000e+03 2.861705780029296875e+01 7.500514030456542969e+00 2.353415489196777344e+00 4.381753206253051758e-01 8.374772667884826660e-01 1.099327921867370605e+00
9.150000000000000000e+03 2.856577110290527344e+01 7.692830562591552734e+00 2.892507910728454590e-01 4.839679300785064697e-01 2.319656163454055786e-01 3.731630444526672363e-01
9.151000000000000000e+03 2.851448440551757812e+01 7.885146617889404297e+00 -6.336393952369689941e-01 4.206522107124328613e-01 -6.389616429805755615e-02 1.094838455319404602e-01
9.152000000000000000e+03 2.846319770812988281e+01 8.077463150024414062e+00 -1.924829483032226562e+00 6.464844197034835815e-02 -5.580543279647827148e-01 -4.594215154647827148e-01
9.153000000000000000e+03 2.856227684020996094e+01 7.479971885681152344e+00 2.240991592407226562e+00 1.016564726829528809e+00 9.772668480873107910e-01 9.013962149620056152e-01
9.154000000000000000e+03 2.847446632385253906e+01 7.658593177795410156e+00 5.259115695953369141e-01 9.709390997886657715e-01 4.490551948547363281e-01 3.525331318378448486e-01
9.155000000000000000e+03 2.838665962219238281e+01 7.837214469909667969e+00 -7.182749509811401367e-01 5.959468483924865723e-01 -3.669843077659606934e-02 -1.788162291049957275e-01
9.156000000000000000e+03 2.829885101318359375e+01 8.015835762023925781e+00 -1.752193689346313477e+00 5.707862377166748047e-01 -3.544222116470336914e-01 -4.934717416763305664e-01
9.157000000000000000e+03 2.851255226135253906e+01 7.449139595031738281e+00 2.406951189041137695e+00 1.553196907043457031e+00 1.188044428825378418e+00 6.534450650215148926e-01
9.158000000000000000e+03 2.839159393310546875e+01 7.607206821441650391e+00 9.644972681999206543e-01 1.130296587944030762e+00 6.284381747245788574e-01 2.257912307977676392e-01
9.159000000000000000e+03 2.827063560485839844e+01 7.765273571014404297e+00 -5.872777700424194336e-01 8.758994340896606445e-01 8.658650517463684082e-02 -3.092302978038787842e-01
9.160000000000000000e+03 2.814967727661132812e+01 7.923340797424316406e+00 -1.351396679878234863e+00 5.222844481468200684e-01 -2.487336695194244385e-01 -5.325623154640197754e-01
9.161000000000000000e+03 2.846979522705078125e+01 7.409202575683593750e+00 3.190653085708618164e+00 1.781516313552856445e+00 1.491650819778442383e+00 4.472247064113616943e-01
9.162000000000000000e+03 2.832033348083496094e+01 7.540644645690917969e+00 1.389529347419738770e+00 1.131165623664855957e+00 7.562084794044494629e-01 9.020435810089111328e-02
9.163000000000000000e+03 2.817087173461914062e+01 7.672087192535400391e+00 5.806198716163635254e-02 1.051511764526367188e+00 3.328721225261688232e-01 -1.411133110523223877e-01
9.164000000000000000e+03 2.802140998840332031e+01 7.803529262542724609e+00 -1.117769241333007812e+00 1.810539662837982178e-01 -2.810145616531372070e-01 -7.936556935310363770e-01
9.165000000000000000e+03 2.843564987182617188e+01 7.361693859100341797e+00 3.975693464279174805e+00 1.430274844169616699e+00 1.621790528297424316e+00 2.799922227859497070e-01
9.166000000000000000e+03 2.826342201232910156e+01 7.461463451385498047e+00 2.271822452545166016e+00 1.312275767326354980e+00 1.075229406356811523e+00 3.224567472934722900e-01
9.167000000000000000e+03 2.809119606018066406e+01 7.561233043670654297e+00 7.381896972656250000e-01 7.804719805717468262e-01 4.555985033512115479e-01 -6.142538785934448242e-02
9.168000000000000000e+03 2.791897010803222656e+01 7.661002635955810547e+00 -4.939485788345336914e-01 5.105229020118713379e-01 4.972288850694894791e-03 -6.101391911506652832e-01
9.169000000000000000e+03 2.841142272949218750e+01 7.308437824249267578e+00 5.191617965698242188e+00 1.346177816390991211e+00 1.961338758468627930e+00 5.977610349655151367e-01
9.170000000000000000e+03 2.822304725646972656e+01 7.372703552246093750e+00 3.058208227157592773e+00 1.031007289886474609e+00 1.226764678955078125e+00 6.100407838821411133e-01
9.171000000000000000e+03 2.803466987609863281e+01 7.436968803405761719e+00 1.731318950653076172e+00 9.554549455642700195e-01 8.060321807861328125e-01 3.262367844581604004e-01
9.172000000000000000e+03 2.784629249572753906e+01 7.501234531402587891e+00 3.504592776298522949e-01 5.299655199050903320e-01 2.641274333000183105e-01 -1.655450761318206787e-01
9.173000000000000000e+03 2.839804840087890625e+01 7.251480102539062500e+00 6.150887489318847656e+00 8.835229277610778809e-01 2.110323190689086914e+00 1.246816754341125488e+00
9.174000000000000000e+03 2.820075607299804688e+01 7.277773380279541016e+00 4.027637004852294922e+00 1.217181444168090820e+00 1.573445439338684082e+00 1.165286302566528320e+00
9.175000000000000000e+03 2.800346374511718750e+01 7.304067134857177734e+00 2.646050930023193359e+00 8.368104696273803711e-01 1.044858455657958984e+00 8.307300209999084473e-01
9.176000000000000000e+03 2.780616950988769531e+01 7.330360889434814453e+00 1.595445156097412109e+00 8.468700647354125977e-01 7.326945662498474121e-01 5.541282892227172852e-01
9.177000000000000000e+03 2.839603996276855469e+01 7.193007469177246094e+00 6.972368717193603516e+00 1.062583565711975098e+00 2.410485744476318359e+00 2.201083421707153320e+00
9.178000000000000000e+03 2.819740867614746094e+01 7.180319309234619141e+00 4.786620616912841797e+00 1.170220375061035156e+00 1.787052392959594727e+00 1.840345859527587891e+00
9.179000000000000000e+03 2.799877548217773438e+01 7.167631149291992188e+00 3.662196636199951172e+00 1.175696372985839844e+00 1.451367855072021484e+00 1.543311715126037598e+00
9.180000000000000000e+03 2.780014228820800781e+01 7.154942989349365234e+00 2.740880250930786133e+00 8.877004981040954590e-01 1.088574290275573730e+00 1.285856842994689941e+00
9.181000000000000000e+03 2.840547180175781250e+01 7.135265827178955078e+00 7.259226799011230469e+00 1.353152275085449219e+00 2.583713769912719727e+00 3.283759355545043945e+00
9.182000000000000000e+03 2.821312904357910156e+01 7.084083080291748047e+00 5.486639499664306641e+00 1.572991013526916504e+00 2.117889165878295898e+00 2.545827865600585938e+00
9.183000000000000000e+03 2.802078437805175781e+01 7.032900810241699219e+00 4.550578117370605469e+00 1.344947695732116699e+00 1.768657684326171875e+00 2.343846797943115234e+00
9.184000000000000000e+03 2.782843971252441406e+01 6.981718063354492188e+00 3.817008733749389648e+00 1.355094790458679199e+00 1.551631093025207520e+00 2.148291587829589844e+00
9.185000000000000000e+03 2.842598533630371094e+01 7.080472469329833984e+00 7.274606227874755859e+00 2.261437892913818359e+00 2.860813140869140625e+00 4.155763149261474609e+00
9.186000000000000000e+03 2.824731636047363281e+01 6.992761135101318359e+00 5.946113109588623047e+00 1.928740024566650391e+00 2.362455844879150391e+00 3.299915552139282227e+00
9.187000000000000000e+03 2.806864738464355469e+01 6.905049324035644531e+00 5.219259738922119141e+00 1.850369334220886230e+00 2.120888710021972656e+00 3.078814983367919922e+00
9.188000000000000000e+03 2.788997840881347656e+01 6.817337989807128906e+00 4.972981929779052734e+00 1.719722151756286621e+00 2.007811307907104492e+00 2.956993818283081055e+00
9.189000000000000000e+03 2.861505317687988281e+01 7.151432037353515625e+00 -1.015037250518798828e+01 -4.612005710601806641e+00 -4.428713321685791016e+00 -6.841592311859130859e+00
9.190000000000000000e+03 2.862838935852050781e+01 7.137201309204101562e+00 -8.974659919738769531e+00 -5.554139137268066406e+00 -4.358639717102050781e+00 -6.953747749328613281e+00
9.191000000000000000e+03 2.864424514770507812e+01 7.125844955444335938e+00 -7.456685543060302734e+00 -6.204488754272460938e+00 -4.098352432250976562e+00 -6.763450145721435547e+00
9.192000000000000000e+03 2.866201019287109375e+01 7.117798805236816406e+00 -5.942238807678222656e+00 -6.488070964813232422e+00 -3.729092836380004883e+00 -6.295125484466552734e+00
9.193000000000000000e+03 2.868100357055664062e+01 7.113371372222900391e+00 -4.639282703399658203e+00 -6.373421192169189453e+00 -3.303811311721801758e+00 -5.720513343811035156e+00
9.194000000000000000e+03 2.870049476623535156e+01 7.112733364105224609e+00 -3.407346487045288086e+00 -5.892159461975097656e+00 -2.789851665496826172e+00 -5.177438259124755859e+00
9.195000000000000000e+03 2.871973609924316406e+01 7.115909099578857422e+00 -2.406788349151611328e+00 -5.292692184448242188e+00 -2.309844255447387695e+00 -4.778855800628662109e+00
9.196000000000000000e+03 2.873798942565917969e+01 7.122776508331298828e+00 -1.288288474082946777e+00 -4.606229782104492188e+00 -1.768355488777160645e+00 -4.478429317474365234e+00
9.197000000000000000e+03 2.875455474853515625e+01 7.133071899414062500e+00 -2.861784696578979492e-01 -4.152761459350585938e+00 -1.331681966781616211e+00 -4.288129806518554688e+00
9.198000000000000000e+03 2.876879119873046875e+01 7.146399497985839844e+00 7.632278203964233398e-01 -3.730165719985961914e+00 -8.900813460350036621e-01 -4.012242794036865234e+00
9.199000000000000000e+03 2.878015708923339844e+01 7.162248134613037109e+00 1.760604739189147949e+00 -3.552061557769775391e+00 -5.374370217323303223e-01 -3.622826814651489258e+00
9.200000000000000000e+03 2.878821182250976562e+01 7.180008888244628906e+00 2.458788156509399414e+00 -3.406932830810546875e+00 -2.844433486461639404e-01 -3.153945446014404297e+00
9.201000000000000000e+03 2.879265022277832031e+01 7.198999881744384766e+00 2.957378864288330078e+00 -3.186857700347900391e+00 -6.884368509054183960e-02 -2.543678760528564453e+00
9.202000000000000000e+03 2.879329872131347656e+01 7.218491554260253906e+00 3.086313247680664062e+00 -2.997551918029785156e+00 2.662843093276023865e-02 -2.020213365554809570e+00
9.203000000000000000e+03 2.879013252258300781e+01 7.237735271453857422e+00 3.006606817245483398e+00 -2.652279138565063477e+00 1.062983199954032898e-01 -1.560661792755126953e+00
9.204000000000000000e+03 2.878327560424804688e+01 7.255992412567138672e+00 2.787019252777099609e+00 -2.521211624145507812e+00 7.974229753017425537e-02 -1.334036946296691895e+00
9.205000000000000000e+03 2.877298927307128906e+01 7.272561550140380859e+00 2.631988763809204102e+00 -2.210972785949707031e+00 1.263048499822616577e-01 -1.253953933715820312e+00
9.206000000000000000e+03 2.875966835021972656e+01 7.286806106567382812e+00 2.565633773803710938e+00 -2.347735881805419922e+00 6.536933779716491699e-02 -1.215548038482666016e+00
9.207000000000000000e+03 2.874382781982421875e+01 7.298179626464843750e+00 2.834384679794311523e+00 -2.284774065017700195e+00 1.648832410573959351e-01 -1.250662803649902344e+00
9.208000000000000000e+03 2.872607040405273438e+01 7.306245326995849609e+00 3.166459083557128906e+00 -2.391682863235473633e+00 2.324329167604446411e-01 -1.117917537689208984e+00
9.209000000000000000e+03 2.870708084106445312e+01 7.310693264007568359e+00 3.685506343841552734e+00 -2.353329181671142578e+00 3.996531367301940918e-01 -8.820081949234008789e-01
9.210000000000000000e+03 2.868759155273437500e+01 7.311352252960205078e+00 4.542119503021240234e+00 -2.012177467346191406e+00 7.589825987815856934e-01 -6.071121096611022949e-01
9.211000000000000000e+03 2.866834640502929688e+01 7.308197498321533203e+00 5.092750549316406250e+00 -1.678197026252746582e+00 1.024366021156311035e+00 -3.767408728599548340e-01
9.212000000000000000e+03 2.865008544921875000e+01 7.301350116729736328e+00 6.137396812438964844e+00 -9.650620818138122559e-01 1.551700353622436523e+00 -3.299448266625404358e-02
9.213000000000000000e+03 2.863351058959960938e+01 7.291072845458984375e+00 7.375413417816162109e+00 -4.540420770645141602e-01 2.076411485671997070e+00 1.783380061388015747e-01
9.214000000000000000e+03 2.861925697326660156e+01 7.277760505676269531e+00 8.505322456359863281e+00 -4.464995488524436951e-02 2.538201808929443359e+00 4.640070497989654541e-01
9.215000000000000000e+03 2.860787582397460938e+01 7.261924266815185547e+00 1.006944465637207031e+01 5.489816665649414062e-01 3.185527801513671875e+00 1.085907220840454102e+00
9.216000000000000000e+03 2.859980010986328125e+01 7.244172573089599609e+00 1.122701549530029297e+01 6.832569241523742676e-01 3.573081731796264648e+00 1.880304694175720215e+00
9.217000000000000000e+03 2.859534263610839844e+01 7.225186347961425781e+00 1.224823379516601562e+01 1.357905626296997070e+00 4.081841945648193359e+00 3.001111984252929688e+00
9.218000000000000000e+03 2.859467124938964844e+01 7.205695629119873047e+00 1.257524776458740234e+01 1.847199440002441406e+00 4.326734066009521484e+00 4.262354373931884766e+00
9.219000000000000000e+03 2.859781646728515625e+01 7.186448097229003906e+00 1.241956520080566406e+01 2.827931642532348633e+00 4.574248790740966797e+00 5.426788806915283203e+00
9.220000000000000000e+03 2.860465431213378906e+01 7.168183803558349609e+00 1.156730461120605469e+01 3.671540260314941406e+00 4.571653366088867188e+00 6.400735855102539062e+00
9.221000000000000000e+03 7.341383361816406250e+01 3.393701934814453125e+01 2.945038604736328125e+01 6.644998073577880859e+00 1.082861518859863281e+01 1.232169628143310547e+01
9.222000000000000000e+03 7.341796112060546875e+01 3.391799163818359375e+01 2.639043426513671875e+01 1.924718284606933594e+01 1.369128513336181641e+01 2.326012611389160156e+01
9.223000000000000000e+03 7.342571258544921875e+01 3.390013122558593750e+01 2.390711021423339844e+01 3.131023216247558594e+01 1.656520271301269531e+01 2.690981674194335938e+01
9.224000000000000000e+03 7.343678283691406250e+01 3.388412475585937500e+01 2.006938362121582031e+01 4.377215576171875000e+01 1.915246200561523438e+01 2.774721336364746094e+01
9.225000000000000000e+03 7.345076751708984375e+01 3.387057876586914062e+01 1.675087356567382812e+01 5.498767089843750000e+01 2.152156448364257812e+01 2.563214492797851562e+01
9.226000000000000000e+03 7.346712493896484375e+01 3.386001205444335938e+01 1.375649452209472656e+01 6.452856445312500000e+01 2.348551940917968750e+01 2.106637573242187500e+01
9.227000000000000000e+03 7.348522186279296875e+01 3.385283279418945312e+01 1.244948005676269531e+01 7.142230224609375000e+01 2.516153526306152344e+01 1.474622726440429688e+01
9.228000000000000000e+03 7.350436401367187500e+01 3.384931564331054688e+01 1.275518131256103516e+01 7.515983581542968750e+01 2.637450408935546875e+01 7.427953243255615234e+00
9.229000000000000000e+03 7.352383422851562500e+01 3.384959030151367188e+01 1.522446250915527344e+01 7.572483062744140625e+01 2.728478622436523438e+01 3.230220675468444824e-01
9.230000000000000000e+03 7.354286956787109375e+01 3.385364913940429688e+01 1.934190559387207031e+01 7.340233612060546875e+01 2.782327270507812500e+01 -5.749207973480224609e+00
9.231000000000000000e+03 7.356075286865234375e+01 3.386133956909179688e+01 2.476303291320800781e+01 6.909673309326171875e+01 2.815792846679687500e+01 -9.956060409545898438e+00
9.232000000000000000e+03 7.357680511474609375e+01 3.387236404418945312e+01 3.041421127319335938e+01 6.358418273925781250e+01 2.819951820373535156e+01 -1.202372550964355469e+01
9.233000000000000000e+03 7.359039306640625000e+01 3.388630294799804688e+01 3.589040756225585938e+01 5.812008285522460938e+01 2.820314598083496094e+01 -1.185698413848876953e+01
9.234000000000000000e+03 7.360101318359375000e+01 3.390261840820312500e+01 4.027622222900390625e+01 5.327147293090820312e+01 2.806430816650390625e+01 -9.894442558288574219e+00
9.235000000000000000e+03 7.360825347900390625e+01 3.392069244384765625e+01 4.342586898803710938e+01 4.987982177734375000e+01 2.799170684814453125e+01 -6.518828868865966797e+00
9.236000000000000000e+03 7.361183929443359375e+01 3.393982696533203125e+01 4.486600112915039062e+01 4.801534271240234375e+01 2.786440277099609375e+01 -2.464041471481323242e+00
9.237000000000000000e+03 7.361162567138671875e+01 3.395929336547851562e+01 4.483748626708984375e+01 4.830564880371093750e+01 2.794293975830078125e+01 1.905447959899902344e+00
9.238000000000000000e+03 7.360762786865234375e+01 3.397834777832031250e+01 4.304837036132812500e+01 5.001160812377929688e+01 2.791799354553222656e+01 5.896247386932373047e+00
9.239000000000000000e+03 7.359999847412109375e+01 3.399625778198242188e+01 3.994528198242187500e+01 5.374300003051757812e+01 2.810648345947265625e+01 8.986295700073242188e+00
9.240000000000000000e+03 7.358902740478515625e+01 3.401234054565429688e+01 3.547830581665039062e+01 5.847484207153320312e+01 2.818594360351562500e+01 1.071981143951416016e+01
9.241000000000000000e+03 7.357513427734375000e+01 3.402598190307617188e+01 3.028430175781250000e+01 6.403926849365234375e+01 2.829707145690917969e+01 1.054234981536865234e+01
9.242000000000000000e+03 7.355885314941406250e+01 3.403665542602539062e+01 2.482424354553222656e+01 6.932106781005859375e+01 2.824359512329101562e+01 8.254937171936035156e+00
9.243000000000000000e+03 7.354080963134765625e+01 3.404395294189453125e+01 1.993946075439453125e+01 7.349772644042968750e+01 2.803115653991699219e+01 3.817690849304199219e+00
9.244000000000000000e+03 7.352168273925781250e+01 3.404759979248046875e+01 1.633802986145019531e+01 7.558837127685546875e+01 2.757791900634765625e+01 -2.387129068374633789e+00
9.245000000000000000e+03 7.350221252441406250e+01 3.404745101928710938e+01 1.438722515106201172e+01 7.473944854736328125e+01 2.673800086975097656e+01 -9.536935806274414062e+00
9.246000000000000000e+03 7.348314666748046875e+01 3.404352188110351562e+01 1.473390388488769531e+01 7.077412414550781250e+01 2.565240859985351562e+01 -1.672751998901367188e+01
9.247000000000000000e+03 7.346520996093750000e+01 3.403594970703125000e+01 1.654872894287109375e+01 6.357191085815429688e+01 2.403619194030761719e+01 -2.287874984741210938e+01
9.248000000000000000e+03 7.344909667968750000e+01 3.402503204345703125e+01 2.010535430908203125e+01 5.392583847045898438e+01 2.220935821533203125e+01 -2.707697105407714844e+01
9.249000000000000000e+03 7.343540954589843750e+01 3.401118469238281250e+01 2.364046478271484375e+01 4.241617202758789062e+01 1.981699180603027344e+01 -2.884715843200683594e+01
9.250000000000000000e+03 7.342468261718750000e+01 3.399494171142578125e+01 2.774882888793945312e+01 3.022651481628417969e+01 1.739260292053222656e+01 -2.747093391418457031e+01
9.251000000000000000e+03 7.341732025146484375e+01 3.397691726684570312e+01 3.009741210937500000e+01 1.802166366577148438e+01 1.443572235107421875e+01 -2.336112976074218750e+01
9.252000000000000000e+03 7.341361236572265625e+01 3.395780563354492188e+01 3.278774261474609375e+01 6.244280815124511719e+00 1.170960712432861328e+01 -1.194043731689453125e+01
