# el_label, x, y, sXX, sYY, sZZ, sXY
1.000000000000000000e+00 2.168296432495117188e+01 4.134715080261230469e+00 -6.174118518829345703e-01 -1.765760660171508789e+00 -7.149517536163330078e-01 -2.377749681472778320e+00
2.000000000000000000e+00 2.188200187683105469e+01 4.133449077606201172e+00 3.411337375640869141e+00 7.690708637237548828e-01 1.254122495651245117e+00 5.189934372901916504e-01
3.000000000000000000e+00 2.208104133605957031e+01 4.132182598114013672e+00 1.835683584213256836e+00 -4.624367058277130127e-01 4.119740724563598633e-01 -5.855114012956619263e-02
4.000000000000000000e+00 2.228008079528808594e+01 4.130915641784667969e+00 1.270173430442810059e+00 2.302378714084625244e-01 4.501233994960784912e-01 2.127352058887481689e-01
5.000000000000000000e+00 2.167763328552246094e+01 4.192814350128173828e+00 1.265088844299316406e+01 -2.315318822860717773e+00 3.100670814514160156e+00 3.079341165721416473e-02
6.000000000000000000e+00 2.187311744689941406e+01 4.230280876159667969e+00 6.325373172760009766e+00 2.276333607733249664e-02 1.904440879821777344e+00 6.890785694122314453e-01
7.000000000000000000e+00 2.206860351562500000e+01 4.267746925354003906e+00 5.954470634460449219e+00 2.848350405693054199e-01 1.871791601181030273e+00 1.547070026397705078e+00
8.000000000000000000e+00 2.226408767700195312e+01 4.305212974548339844e+00 4.420302391052246094e+00 -4.971516877412796021e-02 1.311176061630249023e+00 1.064279079437255859e+00
9.000000000000000000e+00 2.166110420227050781e+01 4.248767375946044922e+00 1.801391983032226562e+01 6.034408211708068848e-01 5.585207939147949219e+00 5.779389381408691406e+00
1.000000000000000000e+01 2.184557151794433594e+01 4.323535919189453125e+00 1.151082801818847656e+01 2.446040362119674683e-01 3.526629447937011719e+00 3.507914304733276367e+00
1.100000000000000000e+01 2.203003692626953125e+01 4.398303985595703125e+00 8.356610298156738281e+00 9.435520172119140625e-01 2.790048837661743164e+00 3.080055236816406250e+00
1.200000000000000000e+01 2.221450424194335938e+01 4.473072528839111328e+00 7.173785686492919922e+00 7.915699481964111328e-01 2.389606714248657227e+00 3.255852222442626953e+00
1.300000000000000000e+01 2.163401031494140625e+01 4.300437927246093750e+00 2.004384422302246094e+01 5.104547977447509766e+00 7.544517517089843750e+00 1.074767971038818359e+01
1.400000000000000000e+01 2.180041503906250000e+01 4.409653186798095703e+00 1.352097702026367188e+01 3.191094636917114258e+00 5.013621330261230469e+00 7.066471099853515625e+00
1.500000000000000000e+01 2.196681785583496094e+01 4.518868446350097656e+00 1.046868038177490234e+01 2.442645788192749023e+00 3.873397827148437500e+00 5.894415378570556641e+00
1.600000000000000000e+01 2.213322067260742188e+01 4.628083705902099609e+00 8.528295516967773438e+00 2.349795579910278320e+00 3.263427257537841797e+00 5.050951957702636719e+00
1.700000000000000000e+01 2.159738540649414062e+01 4.345852851867675781e+00 1.924710655212402344e+01 1.193291473388671875e+01 9.354005813598632812e+00 1.425359153747558594e+01
1.800000000000000000e+01 2.173937225341796875e+01 4.485344409942626953e+00 1.360539722442626953e+01 7.096800804138183594e+00 6.210659503936767578e+00 1.017388343811035156e+01
1.900000000000000000e+01 2.188135719299316406e+01 4.624836444854736328e+00 1.087440013885498047e+01 5.788418292999267578e+00 4.998845577239990234e+00 8.137094497680664062e+00
2.000000000000000000e+01 2.202334403991699219e+01 4.764328002929687500e+00 8.686144828796386719e+00 4.782233238220214844e+00 4.040513515472412109e+00 7.427337646484375000e+00
2.100000000000000000e+01 2.155262565612792969e+01 4.383277893066406250e+00 1.646076011657714844e+01 1.874078369140625000e+01 1.056046390533447266e+01 1.597389030456542969e+01
2.200000000000000000e+01 2.166477394104003906e+01 4.547719001770019531e+00 1.263885116577148438e+01 1.260038757324218750e+01 7.571771621704101562e+00 1.157788467407226562e+01
2.300000000000000000e+01 2.177692222595214844e+01 4.712160587310791016e+00 9.661010742187500000e+00 9.535719871520996094e+00 5.759019374847412109e+00 9.933140754699707031e+00
2.400000000000000000e+01 2.188906860351562500e+01 4.876602172851562500e+00 8.374212265014648438e+00 8.286337852478027344e+00 4.998165130615234375e+00 8.551166534423828125e+00
2.500000000000000000e+01 2.150144386291503906e+01 4.411283493041992188e+00 1.403525161743164062e+01 2.611349296569824219e+01 1.204462337493896484e+01 1.505011940002441406e+01
2.600000000000000000e+01 2.157947158813476562e+01 4.594395637512207031e+00 1.021928501129150391e+01 1.760185623168945312e+01 8.346342086791992188e+00 1.181005573272705078e+01
2.700000000000000000e+01 2.165749740600585938e+01 4.777507305145263672e+00 8.674992561340332031e+00 1.408962249755859375e+01 6.829384803771972656e+00 9.922864913940429688e+00
2.800000000000000000e+01 2.173552322387695312e+01 4.960619449615478516e+00 6.494619369506835938e+00 1.171179580688476562e+01 5.461924552917480469e+00 9.021000862121582031e+00
2.900000000000000000e+01 2.144579315185546875e+01 4.428800582885742188e+00 1.102213382720947266e+01 3.164041709899902344e+01 1.279876518249511719e+01 1.247398090362548828e+01
3.000000000000000000e+01 2.148671913146972656e+01 4.623590946197509766e+00 9.078530311584472656e+00 2.260270309448242188e+01 9.504369735717773438e+00 1.015429687500000000e+01
3.100000000000000000e+01 2.152764320373535156e+01 4.818380832672119141e+00 6.536117076873779297e+00 1.789214706420898438e+01 7.328479290008544922e+00 8.913226127624511719e+00
3.200000000000000000e+01 2.156856918334960938e+01 5.013171195983886719e+00 5.762950897216796875e+00 1.523844718933105469e+01 6.300419330596923828e+00 7.958209514617919922e+00
3.300000000000000000e+01 2.138779640197753906e+01 4.435160160064697266e+00 1.068253326416015625e+01 3.594172286987304688e+01 1.398727703094482422e+01 8.370415687561035156e+00
3.400000000000000000e+01 2.139005851745605469e+01 4.634190559387207031e+00 7.368049621582031250e+00 2.593157005310058594e+01 9.989886283874511719e+00 7.525496959686279297e+00
3.500000000000000000e+01 2.139232063293457031e+01 4.833220481872558594e+00 6.213422298431396484e+00 2.121121025085449219e+01 8.227389335632324219e+00 6.629108428955078125e+00
3.600000000000000000e+01 2.139458274841308594e+01 5.032250881195068359e+00 4.340919971466064453e+00 1.783944702148437500e+01 6.654110431671142578e+00 6.051424026489257812e+00
3.700000000000000000e+01 2.132967185974121094e+01 4.430119991302490234e+00 1.060791969299316406e+01 3.756138229370117188e+01 1.445079040527343750e+01 3.863266468048095703e+00
3.800000000000000000e+01 2.129318428039550781e+01 4.625790119171142578e+00 8.151566505432128906e+00 2.821890068054199219e+01 1.091113948822021484e+01 4.190918922424316406e+00
3.900000000000000000e+01 2.125669670104980469e+01 4.821460247039794922e+00 5.541226863861083984e+00 2.286278915405273438e+01 8.521204948425292969e+00 3.814717769622802734e+00
4.000000000000000000e+01 2.122020721435546875e+01 5.017129898071289062e+00 4.924165725708007812e+00 1.969933509826660156e+01 7.387050151824951172e+00 3.535625696182250977e+00
4.100000000000000000e+01 2.127363777160644531e+01 4.413872241973876953e+00 1.332143974304199219e+01 3.771427536010742188e+01 1.531071472167968750e+01 -1.186050921678543091e-01
4.200000000000000000e+01 2.119979286193847656e+01 4.598710060119628906e+00 8.939708709716796875e+00 2.850182151794433594e+01 1.123245906829833984e+01 7.363092303276062012e-01
4.300000000000000000e+01 2.112594795227050781e+01 4.783547878265380859e+00 7.213867187500000000e+00 2.346524429321289062e+01 9.203733444213867188e+00 9.748618602752685547e-01
4.400000000000000000e+01 2.105210304260253906e+01 4.968385696411132812e+00 5.274972915649414062e+00 1.972154617309570312e+01 7.498955726623535156e+00 9.250309467315673828e-01
4.500000000000000000e+01 2.122183227539062500e+01 4.387036323547363281e+00 1.624992179870605469e+01 3.591396331787109375e+01 1.564916610717773438e+01 -3.222757816314697266e+00
4.600000000000000000e+01 2.111345100402832031e+01 4.553984165191650391e+00 1.168122482299804688e+01 2.777381706237792969e+01 1.183651256561279297e+01 -1.989684820175170898e+00
4.700000000000000000e+01 2.100506782531738281e+01 4.720931529998779297e+00 8.992655754089355469e+00 2.250647735595703125e+01 9.449739456176757812e+00 -1.587096810340881348e+00
4.800000000000000000e+01 2.089668655395507812e+01 4.887879371643066406e+00 7.504920005798339844e+00 1.887795448303222656e+01 7.914862155914306641e+00 -1.369454264640808105e+00
4.900000000000000000e+01 2.117623519897460938e+01 4.350638389587402344e+00 2.018196868896484375e+01 3.358633041381835938e+01 1.613048934936523438e+01 -4.788702487945556641e+00
5.000000000000000000e+01 2.103745460510253906e+01 4.493320465087890625e+00 1.454780006408691406e+01 2.582515144348144531e+01 1.211188507080078125e+01 -3.819134473800659180e+00
5.100000000000000000e+01 2.089867401123046875e+01 4.636003017425537109e+00 1.194889450073242188e+01 2.080885505676269531e+01 9.827324867248535156e+00 -3.265139579772949219e+00
5.200000000000000000e+01 2.075989341735839844e+01 4.778685092926025391e+00 9.844494819641113281e+00 1.745988845825195312e+01 8.191315650939941406e+00 -2.949596405029296875e+00
5.300000000000000000e+01 2.113858604431152344e+01 4.306067466735839844e+00 2.376279830932617188e+01 3.097453117370605469e+01 1.642119979858398438e+01 -4.993402957916259766e+00
5.400000000000000000e+01 2.097470664978027344e+01 4.419035911560058594e+00 1.782384109497070312e+01 2.346156311035156250e+01 1.238562107086181641e+01 -4.351612091064453125e+00
5.500000000000000000e+01 2.081082916259765625e+01 4.532004356384277344e+00 1.465767574310302734e+01 1.883161354064941406e+01 1.004678630828857422e+01 -3.896440982818603516e+00
5.600000000000000000e+01 2.064694976806640625e+01 4.644972801208496094e+00 1.275408649444580078e+01 1.549334907531738281e+01 8.474230766296386719e+00 -3.491592168807983398e+00
5.700000000000000000e+01 2.111032485961914062e+01 4.255026340484619141e+00 2.658601188659667969e+01 2.851253700256347656e+01 1.652956390380859375e+01 -4.020016670227050781e+00
5.800000000000000000e+01 2.092760658264160156e+01 4.333967208862304688e+00 2.069270515441894531e+01 2.148714828491210938e+01 1.265395545959472656e+01 -3.657166957855224609e+00
5.900000000000000000e+01 2.074488639831542969e+01 4.412908077239990234e+00 1.712939453125000000e+01 1.667414855957031250e+01 1.014106273651123047e+01 -3.368047237396240234e+00
6.000000000000000000e+01 2.056216621398925781e+01 4.491848468780517578e+00 1.488252735137939453e+01 1.378156566619873047e+01 8.599227905273437500e+00 -2.998911142349243164e+00
6.100000000000000000e+01 2.109253120422363281e+01 4.199463367462158203e+00 2.869686126708984375e+01 2.744220733642578125e+01 1.684172058105468750e+01 -2.045053720474243164e+00
6.200000000000000000e+01 2.089794731140136719e+01 4.241362094879150391e+00 2.243049430847167969e+01 1.946729660034179688e+01 1.256933689117431641e+01 -2.087159872055053711e+00
6.300000000000000000e+01 2.070336341857910156e+01 4.283260822296142578e+00 1.892375183105468750e+01 1.574942493438720703e+01 1.040195369720458984e+01 -1.857884049415588379e+00
6.400000000000000000e+01 2.050877952575683594e+01 4.325159549713134766e+00 1.640101623535156250e+01 1.179041004180908203e+01 8.457427978515625000e+00 -1.719042062759399414e+00
6.500000000000000000e+01 2.108588027954101562e+01 4.141499996185302734e+00 2.912093734741210938e+01 2.614665603637695312e+01 1.658027839660644531e+01 3.303678035736083984e-01
6.600000000000000000e+01 2.088686370849609375e+01 4.144756793975830078e+00 2.323358917236328125e+01 1.962131500244140625e+01 1.285647106170654297e+01 1.070725992321968079e-01
6.700000000000000000e+01 2.068784713745117188e+01 4.148013591766357422e+00 1.941228866577148438e+01 1.445949172973632812e+01 1.016153430938720703e+01 9.606147557497024536e-02
6.800000000000000000e+01 2.048883056640625000e+01 4.151270389556884766e+00 1.717817115783691406e+01 1.202941226959228516e+01 8.762274742126464844e+00 -1.126622855663299561e-01
6.900000000000000000e+01 2.109062957763671875e+01 4.083350658416748047e+00 2.875191116333007812e+01 2.735899543762207031e+01 1.683327293395996094e+01 2.636412382125854492e+00
7.000000000000000000e+01 2.089477920532226562e+01 4.047841072082519531e+00 2.227475166320800781e+01 1.940333175659179688e+01 1.250342559814453125e+01 2.505638599395751953e+00
7.100000000000000000e+01 2.069893074035644531e+01 4.012331485748291016e+00 1.890742683410644531e+01 1.571375179290771484e+01 1.038635349273681641e+01 1.838287353515625000e+00
7.200000000000000000e+01 2.050308036804199219e+01 3.976821899414062500e+00 1.642729568481445312e+01 1.180145740509033203e+01 8.468626022338867188e+00 1.719973683357238770e+00
7.300000000000000000e+01 2.110659790039062500e+01 4.027235031127929688e+00 2.640513038635253906e+01 2.824766921997070312e+01 1.639583969116210938e+01 4.943962574005126953e+00
7.400000000000000000e+01 2.092139244079589844e+01 3.954315185546875000e+00 2.056912612915039062e+01 2.152558708190917969e+01 1.262841415405273438e+01 3.998817205429077148e+00
7.500000000000000000e+01 2.073618888854980469e+01 3.881395101547241211e+00 1.679198646545410156e+01 1.659594345092773438e+01 1.001637935638427734e+01 3.591927289962768555e+00
7.600000000000000000e+01 2.055098342895507812e+01 3.808475017547607422e+00 1.485201263427734375e+01 1.383171367645263672e+01 8.605117797851562500e+00 2.662750244140625000e+00
7.700000000000000000e+01 2.113317489624023438e+01 3.975296258926391602e+00 2.367008209228515625e+01 3.091844558715820312e+01 1.637655830383300781e+01 5.988761425018310547e+00
7.800000000000000000e+01 2.096568679809570312e+01 3.867750406265258789e+00 1.720487594604492188e+01 2.343370628356933594e+01 1.219157505035400391e+01 5.016518592834472656e+00
7.900000000000000000e+01 2.079819869995117188e+01 3.760204553604125977e+00 1.442377281188964844e+01 1.895093917846679688e+01 1.001241397857666016e+01 3.983318567276000977e+00
8.000000000000000000e+01 2.063071250915527344e+01 3.652658700942993164e+00 1.185975551605224609e+01 1.562304306030273438e+01 8.244839668273925781e+00 3.540751457214355469e+00
8.100000000000000000e+01 2.116934394836425781e+01 3.929517745971679688e+00 1.939598464965820312e+01 3.356731796264648438e+01 1.588899135589599609e+01 6.132328033447265625e+00
8.200000000000000000e+01 2.102596855163574219e+01 3.791452646255493164e+00 1.404704761505126953e+01 2.601233482360839844e+01 1.201781463623046875e+01 4.505729198455810547e+00
8.300000000000000000e+01 2.088259506225585938e+01 3.653387546539306641e+00 1.092725944519042969e+01 2.108668899536132812e+01 9.604185104370117188e+00 3.598426580429077148e+00
8.400000000000000000e+01 2.073921966552734375e+01 3.515322446823120117e+00 9.376855850219726562e+00 1.765686225891113281e+01 8.110116004943847656e+00 3.092652559280395508e+00
8.500000000000000000e+01 2.121372604370117188e+01 3.891647100448608398e+00 1.540615653991699219e+01 3.631287765502929688e+01 1.551571083068847656e+01 4.641112804412841797e+00
8.600000000000000000e+01 2.109993934631347656e+01 3.728335142135620117e+00 1.044546031951904297e+01 2.800442695617675781e+01 1.153496646881103516e+01 2.807234764099121094e+00
8.700000000000000000e+01 2.098615264892578125e+01 3.565023183822631836e+00 8.055371284484863281e+00 2.301256179809570312e+01 9.320380210876464844e+00 2.127747297286987305e+00
8.800000000000000000e+01 2.087236595153808594e+01 3.401710987091064453e+00 6.431420326232910156e+00 1.936263084411621094e+01 7.738214969635009766e+00 1.410693764686584473e+00
8.900000000000000000e+01 2.126462364196777344e+01 3.863131046295166016e+00 1.161834239959716797e+01 3.817771530151367188e+01 1.493881702423095703e+01 1.641753792762756348e+00
9.000000000000000000e+01 2.118477058410644531e+01 3.680808305740356445e+00 7.649015903472900391e+00 2.917532920837402344e+01 1.104730319976806641e+01 9.800027310848236084e-02
9.100000000000000000e+01 2.110491752624511719e+01 3.498485565185546875e+00 5.693522453308105469e+00 2.384085083007812500e+01 8.860311508178710938e+00 -4.167599380016326904e-01
9.200000000000000000e+01 2.102506446838378906e+01 3.316162586212158203e+00 4.033205986022949219e+00 2.060064506530761719e+01 7.390155315399169922e+00 -6.225163340568542480e-01
9.300000000000000000e+01 2.132009887695312500e+01 3.845057964324951172e+00 8.846800804138183594e+00 3.850597381591796875e+01 1.420583152770996094e+01 -2.517585277557373047e+00
9.400000000000000000e+01 2.127722740173339844e+01 3.650686740875244141e+00 6.066669464111328125e+00 2.882430648803710938e+01 1.046729278564453125e+01 -3.283121109008789062e+00
9.500000000000000000e+01 2.123435592651367188e+01 3.456315517425537109e+00 4.018316745758056641e+00 2.371769332885742188e+01 8.320802688598632812e+00 -3.375458240509033203e+00
9.600000000000000000e+01 2.119148635864257812e+01 3.261944055557250977e+00 3.082725763320922852e+00 2.009831809997558594e+01 6.954313278198242188e+00 -3.218933820724487305e+00
9.700000000000000000e+01 2.137802696228027344e+01 3.838118553161621094e+00 8.067831993103027344e+00 3.684609222412109375e+01 1.347417640686035156e+01 -7.150784015655517578e+00
9.800000000000000000e+01 2.137377548217773438e+01 3.639120817184448242e+00 5.339464187622070312e+00 2.682749366760253906e+01 9.650087356567382812e+00 -6.775475502014160156e+00
9.900000000000000000e+01 2.136952400207519531e+01 3.440123319625854492e+00 3.956138849258422852e+00 2.197463226318359375e+01 7.779231071472167969e+00 -6.125334739685058594e+00
1.000000000000000000e+02 2.136527252197265625e+01 3.241125583648681641e+00 2.459827661514282227e+00 1.891114997863769531e+01 6.411293506622314453e+00 -5.973009586334228516e+00
1.010000000000000000e+02 2.143619918823242188e+01 3.842577457427978516e+00 8.421469688415527344e+00 3.270311355590820312e+01 1.233737468719482422e+01 -1.154294776916503906e+01
1.020000000000000000e+02 2.147072982788085938e+01 3.646552324295043945e+00 6.449417114257812500e+00 2.334616088867187500e+01 8.938673973083496094e+00 -9.473533630371093750e+00
1.030000000000000000e+02 2.150526046752929688e+01 3.450527191162109375e+00 4.277951240539550781e+00 1.880418968200683594e+01 6.924642086029052734e+00 -8.505998611450195312e+00
1.040000000000000000e+02 2.153979110717773438e+01 3.254502296447753906e+00 3.357863187789916992e+00 1.648384857177734375e+01 5.952513217926025391e+00 -7.500341892242431641e+00
1.050000000000000000e+02 2.149239540100097656e+01 3.858264446258544922e+00 1.093902492523193359e+01 2.693661117553710938e+01 1.136269092559814453e+01 -1.438094806671142578e+01
1.060000000000000000e+02 2.156438827514648438e+01 3.672697305679321289e+00 7.696421623229980469e+00 1.822737503051757812e+01 7.777138710021972656e+00 -1.128488445281982422e+01
1.070000000000000000e+02 2.163638114929199219e+01 3.487130403518676758e+00 5.962202072143554688e+00 1.491232872009277344e+01 6.262359142303466797e+00 -9.360598564147949219e+00
1.080000000000000000e+02 2.170837402343750000e+01 3.301563262939453125e+00 4.205962657928466797e+00 1.259947681427001953e+01 5.041632175445556641e+00 -8.519028663635253906e+00
1.090000000000000000e+02 2.154446601867675781e+01 3.884580373764038086e+00 1.334105396270751953e+01 1.923502540588378906e+01 9.772824287414550781e+00 -1.548461055755615234e+01
1.100000000000000000e+02 2.165117263793945312e+01 3.716557502746582031e+00 9.855306625366210938e+00 1.300679206848144531e+01 6.858629226684570312e+00 -1.114208602905273438e+01
1.110000000000000000e+02 2.175787925720214844e+01 3.548534631729125977e+00 7.175891876220703125e+00 1.000831413269042969e+01 5.155261993408203125e+00 -9.291238784790039062e+00
1.120000000000000000e+02 2.186458587646484375e+01 3.380511522293090820e+00 5.593101501464843750e+00 8.891855239868164062e+00 4.345487117767333984e+00 -7.936460971832275391e+00
1.130000000000000000e+02 2.159042549133300781e+01 3.920520782470703125e+00 1.617860984802246094e+01 1.189856243133544922e+01 8.423151969909667969e+00 -1.384147548675537109e+01
1.140000000000000000e+02 2.172777175903320312e+01 3.776458024978637695e+00 1.061684226989746094e+01 7.120446681976318359e+00 5.321187019348144531e+00 -9.597606658935546875e+00
1.150000000000000000e+02 2.186511802673339844e+01 3.632395029067993164e+00 8.333386421203613281e+00 6.287562370300292969e+00 4.386284351348876953e+00 -7.580352783203125000e+00
1.160000000000000000e+02 2.200246429443359375e+01 3.488332271575927734e+00 6.186877250671386719e+00 4.958109378814697266e+00 3.343496084213256836e+00 -6.879062652587890625e+00
1.170000000000000000e+02 2.162851715087890625e+01 3.964712858200073242e+00 1.626592826843261719e+01 4.272449493408203125e+00 6.161513328552246094e+00 -1.021980381011962891e+01
1.180000000000000000e+02 2.179125785827636719e+01 3.850111246109008789e+00 1.074531555175781250e+01 3.262737751007080078e+00 4.202415943145751953e+00 -6.306994915008544922e+00
1.190000000000000000e+02 2.195399856567382812e+01 3.735509872436523438e+00 7.438869476318359375e+00 2.637394189834594727e+00 3.022879123687744141e+00 -5.256932258605957031e+00
1.200000000000000000e+02 2.211673927307128906e+01 3.620908260345458984e+00 6.078477859497070312e+00 3.418569803237915039e+00 2.849114418029785156e+00 -4.882621288299560547e+00
1.210000000000000000e+02 2.165728759765625000e+01 4.015469074249267578e+00 1.420666694641113281e+01 -8.357085585594177246e-01 4.011287212371826172e+00 -4.349809646606445312e+00
1.220000000000000000e+02 2.183920860290527344e+01 3.934705018997192383e+00 7.268692970275878906e+00 6.055880784988403320e-01 2.362284183502197266e+00 -2.672524452209472656e+00
1.230000000000000000e+02 2.202112960815429688e+01 3.853941202163696289e+00 6.085532665252685547e+00 1.819838523864746094e+00 2.371611356735229492e+00 -3.236603498458862305e+00
1.240000000000000000e+02 2.220305061340332031e+01 3.773177146911621094e+00 4.529116153717041016e+00 5.915418267250061035e-01 1.536197304725646973e+00 -2.413288116455078125e+00
1.250000000000000000e+02 2.167563629150390625e+01 4.070851325988769531e+00 3.231935262680053711e+00 -2.885862827301025391e+00 1.038217395544052124e-01 1.264121174812316895e+00
1.260000000000000000e+02 2.186979103088378906e+01 4.027009010314941406e+00 4.871917724609375000e+00 1.423755526542663574e+00 1.888701915740966797e+00 -1.546685099601745605e+00
1.270000000000000000e+02 2.206394577026367188e+01 3.983166694641113281e+00 3.077429294586181641e+00 -3.762653172016143799e-01 8.103491663932800293e-01 -7.489594817161560059e-01
1.280000000000000000e+02 2.225810050964355469e+01 3.939324378967285156e+00 2.091389656066894531e+00 4.387291371822357178e-01 7.590356469154357910e-01 -7.441022396087646484e-01
1.290000000000000000e+02 2.334977722167968750e+01 4.433157444000244141e+00 3.309619128704071045e-01 5.772740393877029419e-02 1.166067942976951599e-01 2.619413435459136963e-01
1.300000000000000000e+02 2.325443840026855469e+01 4.042978763580322266e+00 -6.522806733846664429e-02 -3.733930364251136780e-02 -3.077021054923534393e-02 -4.792356491088867188e-02
1.310000000000000000e+02 2.096635818481445312e+01 5.137717723846435547e+00 4.867198944091796875e+00 1.726287841796875000e+01 6.639022827148437500e+00 6.729215383529663086e-01
1.320000000000000000e+02 2.029755783081054688e+01 3.938826560974121094e+00 1.486051273345947266e+01 1.015331840515136719e+01 7.504149436950683594e+00 1.262607574462890625e+00
1.330000000000000000e+02 2.043630409240722656e+01 3.556488275527954102e+00 1.110395526885986328e+01 1.261839962005615234e+01 7.116706371307373047e+00 2.747209787368774414e+00
1.340000000000000000e+02 2.061327934265136719e+01 2.969190597534179688e+00 4.307411670684814453e+00 1.382230377197265625e+01 5.438914775848388672e+00 2.519227564334869385e-01
1.350000000000000000e+02 2.215808105468750000e+01 3.304536104202270508e+00 4.765040874481201172e+00 5.392838478088378906e+00 3.047363758087158203e+00 -6.027886390686035156e+00
1.360000000000000000e+02 2.362926483154296875e+01 2.543587207794189453e+00 1.060637116432189941e+00 2.858508586883544922e+00 1.175743699073791504e+00 -1.348500370979309082e+00
1.370000000000000000e+02 2.354359054565429688e+01 2.443477392196655273e+00 -1.447172641754150391e+00 4.720888614654541016e+00 9.821148514747619629e-01 -1.913712143898010254e+00
1.380000000000000000e+02 2.100497436523437500e+01 2.824059486389160156e+00 1.183810710906982422e+00 1.545572090148925781e+01 4.991859436035156250e+00 -2.698320150375366211e+00
1.390000000000000000e+02 2.142871093750000000e+01 5.416985988616943359e+00 2.768321990966796875e+00 1.388718032836914062e+01 4.996650695800781250e+00 5.592298030853271484e+00
1.400000000000000000e+02 2.303352546691894531e+01 5.344221591949462891e+00 4.308061122894287109e+00 2.398463726043701172e+00 2.011957406997680664e+00 4.509904861450195312e+00
1.410000000000000000e+02 2.281387329101562500e+01 5.106450557708740234e+00 4.768160343170166016e+00 2.165193319320678711e+00 2.080006122589111328e+00 4.520085811614990234e+00
1.420000000000000000e+02 2.243507766723632812e+01 4.557287216186523438e+00 5.613647937774658203e+00 6.326051950454711914e-01 1.873875975608825684e+00 2.740268945693969727e+00
1.430000000000000000e+02 2.234022521972656250e+01 4.761070251464843750e+00 6.687951564788818359e+00 1.956534743309020996e+00 2.593345880508422852e+00 4.867464542388916016e+00
1.440000000000000000e+02 2.184199523925781250e+01 5.178638458251953125e+00 5.739589691162109375e+00 1.007717227935791016e+01 4.745028495788574219e+00 7.958630561828613281e+00
1.450000000000000000e+02 2.035140800476074219e+01 5.056540489196777344e+00 8.074588775634765625e+00 1.125929927825927734e+01 5.800166130065917969e+00 -2.822347402572631836e+00
1.460000000000000000e+02 2.062265205383300781e+01 4.905327796936035156e+00 8.925422668457031250e+00 1.468732070922851562e+01 7.083823204040527344e+00 -2.577933073043823242e+00
1.470000000000000000e+02 2.038326644897460938e+01 4.551223754882812500e+00 1.348020362854003906e+01 1.077143669128417969e+01 7.275491714477539062e+00 -2.623300075531005859e+00
1.480000000000000000e+02 2.044220733642578125e+01 3.275366544723510742e+00 7.414044857025146484e+00 1.301595783233642578e+01 6.129000663757324219e+00 2.593786716461181641e+00
1.490000000000000000e+02 2.091989326477050781e+01 3.124052762985229492e+00 3.556913137435913086e+00 1.731620407104492188e+01 6.261935234069824219e+00 -8.908776640892028809e-01
1.500000000000000000e+02 2.196430206298828125e+01 2.978740692138671875e+00 2.844168424606323242e+00 8.882978439331054688e+00 3.518144130706787109e+00 -7.071255683898925781e+00
1.510000000000000000e+02 2.234758949279785156e+01 2.880940914154052734e+00 2.358920574188232422e+00 5.436424255371093750e+00 2.338603496551513672e+00 -5.270400047302246094e+00
1.520000000000000000e+02 2.260015869140625000e+01 3.635890245437622070e+00 2.434802532196044922e+00 6.721653938293457031e-01 9.320903420448303223e-01 -1.714643716812133789e+00
1.530000000000000000e+02 2.332448768615722656e+01 2.473766565322875977e+00 2.671133577823638916e-01 3.250202178955078125e+00 1.055194616317749023e+00 -2.143269062042236328e+00
1.540000000000000000e+02 2.375303459167480469e+01 2.386710882186889648e+00 -2.800119161605834961e+00 1.541450500488281250e+00 -3.776005506515502930e-01 1.172471195459365845e-01
1.550000000000000000e+02 2.379595184326171875e+01 2.434897899627685547e+00 -1.568526387214660645e+00 8.972252607345581055e-01 -2.013903409242630005e-01 -3.401229679584503174e-01
1.560000000000000000e+02 2.392125511169433594e+01 2.360003471374511719e+00 -9.710420370101928711e-01 -5.305246710777282715e-01 -4.504700005054473877e-01 1.246327400207519531e+00
1.570000000000000000e+02 2.255492401123046875e+01 2.892532348632812500e+00 2.128522157669067383e+00 4.934016704559326172e+00 2.118761539459228516e+00 -4.779164791107177734e+00
1.580000000000000000e+02 2.322681999206542969e+01 3.807010650634765625e+00 -7.712872698903083801e-03 -1.623449847102165222e-02 -7.184211164712905884e-03 1.308878697454929352e-02
1.590000000000000000e+02 2.302265167236328125e+01 3.603472471237182617e+00 7.657251358032226562e-01 5.237820148468017578e-01 3.868521451950073242e-01 -5.676552653312683105e-01
1.600000000000000000e+02 2.324066925048828125e+01 3.417510747909545898e+00 1.912449449300765991e-01 6.049842834472656250e-01 2.388687729835510254e-01 -4.470298290252685547e-01
1.610000000000000000e+02 2.245073699951171875e+01 3.897980451583862305e+00 1.314441084861755371e+00 2.946378663182258606e-02 4.031714797019958496e-01 -5.433014631271362305e-01
1.620000000000000000e+02 2.022235107421875000e+01 4.349366188049316406e+00 1.474184608459472656e+01 8.732799530029296875e+00 7.042393684387207031e+00 -1.483610033988952637e+00
1.630000000000000000e+02 2.073985671997070312e+01 3.242537498474121094e+00 5.349003791809082031e+00 1.672574806213378906e+01 6.622425556182861328e+00 1.447935819625854492e+00
1.640000000000000000e+02 2.112651062011718750e+01 3.050720691680908203e+00 1.529329180717468262e+00 1.788120841979980469e+01 5.823161125183105469e+00 -3.311409950256347656e+00
1.650000000000000000e+02 2.179750823974609375e+01 3.100697278976440430e+00 3.025032520294189453e+00 1.152013397216796875e+01 4.363550186157226562e+00 -7.593864440917968750e+00
1.660000000000000000e+02 2.247693634033203125e+01 4.126939296722412109e+00 7.211008667945861816e-01 -2.067952901124954224e-01 1.542916595935821533e-01 1.493311077356338501e-01
1.670000000000000000e+02 2.286635017395019531e+01 4.095880508422851562e+00 -3.554349392652511597e-02 6.551683694124221802e-02 8.992004208266735077e-03 1.150138005614280701e-01
1.680000000000000000e+02 2.204213905334472656e+01 5.091339111328125000e+00 6.430126667022705078e+00 6.715234279632568359e+00 3.943608283996582031e+00 7.730640411376953125e+00
1.690000000000000000e+02 2.369513702392578125e+01 5.131360054016113281e+00 1.453685760498046875e+00 3.127896070480346680e+00 1.374474525451660156e+00 2.356256246566772461e+00
1.700000000000000000e+02 2.379217910766601562e+01 5.287384510040283203e+00 2.336768150329589844e+00 3.899808645248413086e+00 1.870973110198974609e+00 2.793261289596557617e+00
1.710000000000000000e+02 2.314420700073242188e+01 4.492124557495117188e+00 1.386725187301635742e+00 5.898110866546630859e-01 5.929608941078186035e-01 9.596990346908569336e-01
1.720000000000000000e+02 2.294058227539062500e+01 2.922240018844604492e+00 1.917387366294860840e+00 3.235099077224731445e+00 1.545745849609375000e+00 -3.421207189559936523e+00
1.730000000000000000e+02 2.307377433776855469e+01 2.703949689865112305e+00 1.416286826133728027e+00 3.868919134140014648e+00 1.585561752319335938e+00 -2.887335538864135742e+00
1.740000000000000000e+02 2.283845138549804688e+01 3.838618278503417969e+00 2.520485520362854004e-01 1.684264838695526123e-01 1.261425167322158813e-01 -2.667908668518066406e-01
1.750000000000000000e+02 2.314567375183105469e+01 3.040634155273437500e+00 1.394075512886047363e+00 2.440748691558837891e+00 1.150447249412536621e+00 -2.226925849914550781e+00
1.760000000000000000e+02 2.333174324035644531e+01 3.053132295608520508e+00 8.945119380950927734e-01 2.587822675704956055e+00 1.044700384140014648e+00 -1.561201095581054688e+00
1.770000000000000000e+02 2.306119346618652344e+01 4.070980072021484375e+00 -1.222880333662033081e-01 6.955058872699737549e-02 -1.582123339176177979e-02 -8.845129981637001038e-03
1.780000000000000000e+02 2.361709594726562500e+01 5.322167396545410156e+00 2.713142395019531250e+00 3.373278617858886719e+00 1.825926303863525391e+00 3.302578926086425781e+00
1.790000000000000000e+02 2.352481842041015625e+01 5.199538230895996094e+00 2.784660816192626953e+00 2.676833391189575195e+00 1.638448238372802734e+00 3.018561601638793945e+00
1.800000000000000000e+02 2.016693115234375000e+01 4.187037944793701172e+00 1.440945148468017578e+01 8.188527107238769531e+00 6.779393672943115234e+00 -1.561915278434753418e-01
1.810000000000000000e+02 2.135793495178222656e+01 3.010651826858520508e+00 1.425718069076538086e+00 1.646700859069824219e+01 5.367818355560302734e+00 -5.229793548583984375e+00
1.820000000000000000e+02 2.190959739685058594e+01 2.715293884277343750e+00 1.195680379867553711e+00 1.029885292053222656e+01 3.448359966278076172e+00 -6.810391902923583984e+00
1.830000000000000000e+02 2.088899421691894531e+01 5.433255195617675781e+00 2.950613737106323242e+00 1.440510654449462891e+01 5.206716060638427734e+00 1.199557185173034668e+00
1.840000000000000000e+02 2.116832160949707031e+01 5.226121425628662109e+00 3.294576883316040039e+00 1.678435134887695312e+01 6.023678302764892578e+00 3.203726291656494141e+00
1.850000000000000000e+02 2.163880348205566406e+01 5.545613288879394531e+00 2.759084224700927734e+00 1.153769779205322266e+01 4.289034366607666016e+00 6.098991870880126953e+00
1.860000000000000000e+02 2.057388877868652344e+01 3.392038583755493164e+00 8.071462631225585938e+00 1.485563945770263672e+01 6.878130435943603516e+00 2.473103046417236328e+00
1.870000000000000000e+02 2.055254554748535156e+01 5.029888629913330078e+00 7.366983413696289062e+00 1.359927558898925781e+01 6.289877414703369141e+00 -2.243910312652587891e+00
1.880000000000000000e+02 2.079614639282226562e+01 5.019530296325683594e+00 6.141946792602539062e+00 1.697961425781250000e+01 6.936468124389648438e+00 -1.433201789855957031e+00
1.890000000000000000e+02 2.162411880493164062e+01 5.221508026123046875e+00 4.232348442077636719e+00 1.286398601531982422e+01 5.128900527954101562e+00 7.447579860687255859e+00
1.900000000000000000e+02 2.035055541992187500e+01 3.740986824035644531e+00 1.288386440277099609e+01 1.063611984252929688e+01 7.055995464324951172e+00 2.668440341949462891e+00
1.910000000000000000e+02 2.129340934753417969e+01 5.531693935394287109e+00 2.100917577743530273e+00 1.388656425476074219e+01 4.796244621276855469e+00 4.266767024993896484e+00
1.920000000000000000e+02 2.030317497253417969e+01 4.147134304046630859e+00 1.532472324371337891e+01 9.088172912597656250e+00 7.323868751525878906e+00 -6.539580225944519043e-02
1.930000000000000000e+02 2.046678543090820312e+01 4.751916408538818359e+00 1.112365245819091797e+01 1.280664062500000000e+01 7.179088115692138672e+00 -3.172836780548095703e+00
1.940000000000000000e+02 2.219497108459472656e+01 5.385455608367919922e+00 5.223426342010498047e+00 6.216578960418701172e+00 3.432001590728759766e+00 7.042823314666748047e+00
1.950000000000000000e+02 2.117503356933593750e+01 2.747320652008056641e+00 1.108443439006805420e-01 1.585807418823242188e+01 4.790675640106201172e+00 -4.075183391571044922e+00
1.960000000000000000e+02 2.071226882934570312e+01 5.404189109802246094e+00 4.290420055389404297e+00 1.377762699127197266e+01 5.420413970947265625e+00 -4.254910349845886230e-01
1.970000000000000000e+02 2.232371711730957031e+01 2.645702600479125977e+00 1.435136318206787109e+00 7.023267269134521484e+00 2.537521123886108398e+00 -5.777893066406250000e+00
1.980000000000000000e+02 2.212195777893066406e+01 2.672776222229003906e+00 1.496373653411865234e+00 8.082295417785644531e+00 2.873600721359252930e+00 -6.196192741394042969e+00
1.990000000000000000e+02 2.011877632141113281e+01 4.703824520111083984e+00 1.129594230651855469e+01 8.458396911621093750e+00 5.926301956176757812e+00 -2.579841375350952148e+00
2.000000000000000000e+02 2.046429061889648438e+01 3.050022602081298828e+00 5.377643108367919922e+00 1.282962799072265625e+01 5.462181091308593750e+00 1.739436030387878418e+00
2.010000000000000000e+02 2.057237815856933594e+01 5.328712940216064453e+00 4.768364429473876953e+00 1.278900909423828125e+01 5.267211914062500000e+00 -1.182811141014099121e+00
2.020000000000000000e+02 2.024736785888671875e+01 4.874847888946533203e+00 9.879870414733886719e+00 9.993046760559082031e+00 5.961874961853027344e+00 -2.801750183105468750e+00
2.030000000000000000e+02 2.025738143920898438e+01 3.312519788742065430e+00 8.969358444213867188e+00 1.005696964263916016e+01 5.707898139953613281e+00 1.880508542060852051e+00
2.040000000000000000e+02 2.010900115966796875e+01 3.670940399169921875e+00 1.201934623718261719e+01 8.547939300537109375e+00 6.170185565948486328e+00 1.859923958778381348e+00
2.050000000000000000e+02 1.996821403503417969e+01 4.406291961669921875e+00 1.282627582550048828e+01 6.653577327728271484e+00 5.843955993652343750e+00 -1.293183565139770508e+00
2.060000000000000000e+02 1.996821212768554688e+01 4.236597537994384766e+00 1.297620868682861328e+01 5.994021892547607422e+00 5.691069126129150391e+00 -5.846860408782958984e-01
2.070000000000000000e+02 2.005570602416992188e+01 3.869377613067626953e+00 1.297767162322998047e+01 6.943378448486328125e+00 5.976315021514892578e+00 1.297310233116149902e+00
2.080000000000000000e+02 2.001347160339355469e+01 4.558389186859130859e+00 1.245546150207519531e+01 6.984614849090576172e+00 5.832023143768310547e+00 -2.001790761947631836e+00
2.090000000000000000e+02 2.021692085266113281e+01 4.531693458557128906e+00 1.322717761993408203e+01 9.422738075256347656e+00 6.794974803924560547e+00 -2.349162578582763672e+00
2.100000000000000000e+02 2.000461769104003906e+01 4.060531616210937500e+00 1.383190345764160156e+01 6.921558856964111328e+00 6.226038455963134766e+00 3.786284625530242920e-01
2.110000000000000000e+02 2.110131835937500000e+01 5.468424320220947266e+00 2.792227745056152344e+00 1.456621170043945312e+01 5.207531929016113281e+00 2.691460132598876953e+00
2.120000000000000000e+02 2.058820915222167969e+01 3.135047197341918945e+00 4.938904762268066406e+00 1.467292404174804688e+01 5.883548736572265625e+00 1.071700215339660645e+00
2.130000000000000000e+02 2.079975891113281250e+01 2.903219461441040039e+00 1.828112840652465820e+00 1.529666042327880859e+01 5.137432098388671875e+00 -1.053190588951110840e+00
2.140000000000000000e+02 2.045139503479003906e+01 5.208389282226562500e+00 6.005539417266845703e+00 1.168004989624023438e+01 5.305676460266113281e+00 -1.588870525360107422e+00
2.150000000000000000e+02 2.180164146423339844e+01 5.500968933105468750e+00 3.871118545532226562e+00 1.029466819763183594e+01 4.249735832214355469e+00 7.029009342193603516e+00
2.160000000000000000e+02 2.146000480651855469e+01 5.559226989746093750e+00 2.690869092941284180e+00 1.214590930938720703e+01 4.451033592224121094e+00 5.366268157958984375e+00
2.170000000000000000e+02 2.167781257629394531e+01 2.735285520553588867e+00 8.925755620002746582e-01 1.203553199768066406e+01 3.878432273864746094e+00 -6.335144042968750000e+00
2.180000000000000000e+02 2.283344650268554688e+01 5.356564521789550781e+00 4.319521427154541016e+00 2.944950103759765625e+00 2.179341316223144531e+00 4.887548923492431641e+00
2.190000000000000000e+02 2.198078346252441406e+01 5.437476158142089844e+00 4.331139564514160156e+00 8.222036361694335938e+00 3.765952825546264648e+00 7.326737880706787109e+00
2.200000000000000000e+02 2.274926185607910156e+01 2.593830347061157227e+00 1.142037272453308105e+00 5.216705322265625000e+00 1.907622694969177246e+00 -3.960741996765136719e+00
2.210000000000000000e+02 2.196811485290527344e+01 3.194999694824218750e+00 4.099247932434082031e+00 7.929102897644042969e+00 3.608505249023437500e+00 -7.404266834259033203e+00
2.220000000000000000e+02 2.241578865051269531e+01 5.368269443511962891e+00 4.997314929962158203e+00 4.595716476440429688e+00 2.877909421920776367e+00 6.376636028289794922e+00
2.230000000000000000e+02 2.148185539245605469e+01 2.708332300186157227e+00 3.018968403339385986e-01 1.399689960479736328e+01 4.289638996124267578e+00 -6.068790435791015625e+00
2.240000000000000000e+02 2.340690231323242188e+01 5.050091743469238281e+00 2.456846237182617188e+00 1.950757265090942383e+00 1.322281122207641602e+00 2.798133611679077148e+00
2.250000000000000000e+02 2.263156509399414062e+01 5.371687889099121094e+00 4.858147621154785156e+00 3.367846488952636719e+00 2.467798233032226562e+00 5.519608974456787109e+00
2.260000000000000000e+02 2.303357315063476562e+01 3.820706844329833984e+00 2.663473784923553467e-02 1.233411282300949097e-01 4.499275982379913330e-02 -6.545382738113403320e-02
2.270000000000000000e+02 2.267146682739257812e+01 4.115444660186767578e+00 2.994931638240814209e-01 6.166540831327438354e-02 1.083475649356842041e-01 2.493226081132888794e-01
2.280000000000000000e+02 2.350236320495605469e+01 4.796863079071044922e+00 8.579091429710388184e-01 1.389242410659790039e+00 6.741454601287841797e-01 1.270758390426635742e+00
2.290000000000000000e+02 2.326396369934082031e+01 2.606295347213745117e+00 8.886831402778625488e-01 3.268338203430175781e+00 1.247106432914733887e+00 -2.453533411026000977e+00
2.300000000000000000e+02 2.303250885009765625e+01 3.386340141296386719e+00 1.089208602905273438e+00 1.261589527130126953e+00 7.052394747734069824e-01 -1.515649676322937012e+00
2.310000000000000000e+02 2.338004493713378906e+01 2.869665861129760742e+00 1.146257758140563965e+00 3.428900003433227539e+00 1.372547388076782227e+00 -2.009998798370361328e+00
2.320000000000000000e+02 2.341939544677734375e+01 4.618342876434326172e+00 6.941571235656738281e-01 5.778721570968627930e-01 3.816087841987609863e-01 7.243649363517761230e-01
2.330000000000000000e+02 2.239417076110839844e+01 3.694222688674926758e+00 3.416038751602172852e+00 1.156037330627441406e+00 1.371622800827026367e+00 -2.273860454559326172e+00
2.340000000000000000e+02 2.264342308044433594e+01 3.863927125930786133e+00 7.084771990776062012e-01 1.719103455543518066e-01 2.641162574291229248e-01 -4.620266854763031006e-01
2.350000000000000000e+02 2.246877861022949219e+01 4.337592601776123047e+00 3.443102836608886719e+00 1.102860718965530396e-01 1.066016674041748047e+00 1.197098612785339355e+00
2.360000000000000000e+02 2.277378845214843750e+01 3.141939163208007812e+00 2.331481695175170898e+00 2.790677547454833984e+00 1.536647796630859375e+00 -3.322306156158447266e+00
2.370000000000000000e+02 2.292659187316894531e+01 4.548762321472167969e+00 2.512899875640869141e+00 6.346990466117858887e-01 9.442796707153320312e-01 1.513826251029968262e+00
2.380000000000000000e+02 2.330661392211914062e+01 4.870796680450439453e+00 2.401805639266967773e+00 1.264341950416564941e+00 1.099844336509704590e+00 2.204858303070068359e+00
2.390000000000000000e+02 2.321315193176269531e+01 5.125226974487304688e+00 3.411617279052734375e+00 1.938662886619567871e+00 1.605084061622619629e+00 3.428494691848754883e+00
2.400000000000000000e+02 2.229952049255371094e+01 3.092131853103637695e+00 3.290684938430786133e+00 5.041473865509033203e+00 2.499647617340087891e+00 -5.757115364074707031e+00
2.410000000000000000e+02 2.288975524902343750e+01 4.322421550750732422e+00 1.607263207435607910e+00 3.174256682395935059e-01 5.774066448211669922e-01 6.311053037643432617e-01
2.420000000000000000e+02 2.252969551086425781e+01 3.147680282592773438e+00 3.220335245132446289e+00 3.265371799468994141e+00 1.945712089538574219e+00 -4.268489837646484375e+00
2.430000000000000000e+02 2.279715538024902344e+01 3.374031066894531250e+00 2.086232662200927734e+00 1.474429488182067871e+00 1.068198680877685547e+00 -2.171302556991577148e+00
2.440000000000000000e+02 2.344228744506835938e+01 5.326206207275390625e+00 3.296581268310546875e+00 2.429021835327148438e+00 1.717680931091308594e+00 3.442199468612670898e+00
2.450000000000000000e+02 2.324239349365234375e+01 5.325676918029785156e+00 3.624106168746948242e+00 2.424440145492553711e+00 1.814563870429992676e+00 3.855942487716674805e+00
2.460000000000000000e+02 2.359517288208007812e+01 4.968791484832763672e+00 1.459880709648132324e+00 2.297116041183471680e+00 1.127099037170410156e+00 1.770138382911682129e+00
2.470000000000000000e+02 2.347266960144042969e+01 2.691941499710083008e+00 7.046478986740112305e-01 3.566176891326904297e+00 1.281247496604919434e+00 -1.948988080024719238e+00
2.480000000000000000e+02 2.328146171569824219e+01 3.233474969863891602e+00 5.641323924064636230e-01 1.423003792762756348e+00 5.961408615112304688e-01 -8.783403038978576660e-01
2.490000000000000000e+02 2.309345817565917969e+01 3.199800252914428711e+00 1.406229972839355469e+00 1.958544373512268066e+00 1.009432315826416016e+00 -2.007656812667846680e+00
2.500000000000000000e+02 2.322311782836914062e+01 3.610082864761352539e+00 1.802055984735488892e-01 1.254043728113174438e-01 9.168299287557601929e-02 -1.599572449922561646e-01
2.510000000000000000e+02 2.281277656555175781e+01 3.608388185501098633e+00 1.565672636032104492e+00 8.331375122070312500e-01 7.196430563926696777e-01 -1.175686955451965332e+00
2.520000000000000000e+02 2.321451759338378906e+01 4.688642024993896484e+00 1.687350630760192871e+00 8.989702463150024414e-01 7.758962512016296387e-01 1.625537633895874023e+00
2.530000000000000000e+02 2.309513854980468750e+01 4.284992218017578125e+00 6.368262767791748047e-01 2.863959372043609619e-01 2.769666612148284912e-01 2.379832118749618530e-01
2.540000000000000000e+02 2.302056121826171875e+01 5.122848033905029297e+00 4.059695243835449219e+00 1.938512086868286133e+00 1.799462199211120605e+00 3.892425775527954102e+00
2.550000000000000000e+02 2.261047172546386719e+01 5.134774208068847656e+00 4.966063976287841797e+00 2.775489568710327148e+00 2.322466135025024414e+00 5.166067600250244141e+00
2.560000000000000000e+02 2.220422554016113281e+01 4.946747303009033203e+00 7.207378864288330078e+00 4.282484531402587891e+00 3.446959018707275391e+00 6.640757083892822266e+00
2.570000000000000000e+02 2.241607666015625000e+01 5.105169296264648438e+00 6.079844951629638672e+00 3.581153392791748047e+00 2.898299455642700195e+00 6.050032138824462891e+00
2.580000000000000000e+02 2.329475784301757812e+01 4.240987300872802734e+00 1.134841293096542358e-01 -8.589381724596023560e-02 8.277092128992080688e-03 -2.705927938222885132e-02
2.590000000000000000e+02 2.164104652404785156e+01 5.404117107391357422e+00 3.876341819763183594e+00 1.192642593383789062e+01 4.740830421447753906e+00 6.813819408416748047e+00
2.600000000000000000e+02 2.139525413513183594e+01 5.239453792572021484e+00 3.784371852874755859e+00 1.565372180938720703e+01 5.831428050994873047e+00 5.455910205841064453e+00
2.610000000000000000e+02 2.083445549011230469e+01 5.241497039794921875e+00 4.471061229705810547e+00 1.568485736846923828e+01 6.046775341033935547e+00 -1.397296339273452759e-01
2.620000000000000000e+02 2.070783615112304688e+01 5.106772422790527344e+00 6.338777542114257812e+00 1.571043491363525391e+01 6.614763736724853516e+00 -1.450873017311096191e+00
2.630000000000000000e+02 2.018942070007324219e+01 3.483200788497924805e+00 9.839574813842773438e+00 9.497200012207031250e+00 5.801032543182373047e+00 2.582852602005004883e+00
2.640000000000000000e+02 2.033992195129394531e+01 3.172016620635986328e+00 6.049807071685791016e+00 1.193037891387939453e+01 5.394055843353271484e+00 1.057998657226562500e+00
2.650000000000000000e+02 2.132272338867187500e+01 2.695251226425170898e+00 3.752458393573760986e-01 1.380719375610351562e+01 4.254732131958007812e+00 -4.708134651184082031e+00
2.660000000000000000e+02 2.134268951416015625e+01 2.817593574523925781e+00 5.240644216537475586e-01 1.506328678131103516e+01 4.676205158233642578e+00 -5.121713638305664062e+00
2.670000000000000000e+02 2.160124969482421875e+01 3.018829822540283203e+00 1.994015693664550781e+00 1.375561237335205078e+01 4.724888324737548828e+00 -7.211663722991943359e+00
2.680000000000000000e+02 2.216556549072265625e+01 2.918806314468383789e+00 2.583049535751342773e+00 7.528576850891113281e+00 3.033488035202026367e+00 -6.517620563507080078e+00
2.690000000000000000e+02 2.253467750549316406e+01 2.631337881088256836e+00 1.245603561401367188e+00 5.348818302154541016e+00 1.978326559066772461e+00 -4.866260528564453125e+00
2.700000000000000000e+02 2.295500373840332031e+01 2.540864229202270508e+00 8.476684689521789551e-01 3.808597087860107422e+00 1.396879673004150391e+00 -3.493590831756591797e+00
2.710000000000000000e+02 2.313677787780761719e+01 2.494623661041259766e+00 2.742039561271667480e-01 4.938983917236328125e+00 1.563956379890441895e+00 -3.046080350875854492e+00
2.720000000000000000e+02 2.230722999572753906e+01 3.488439083099365234e+00 4.468163490295410156e+00 2.121113538742065430e+00 1.976783037185668945e+00 -4.143065929412841797e+00
2.730000000000000000e+02 2.268090438842773438e+01 4.344957828521728516e+00 2.485280036926269531e+00 1.057884469628334045e-01 7.773205637931823730e-01 8.166578412055969238e-01
2.740000000000000000e+02 2.268911170959472656e+01 4.589838504791259766e+00 4.245886325836181641e+00 6.975721716880798340e-01 1.483037471771240234e+00 2.361618280410766602e+00
2.750000000000000000e+02 2.254485702514648438e+01 3.397861957550048828e+00 3.337119340896606445e+00 2.413434743881225586e+00 1.725166201591491699e+00 -3.417485237121582031e+00
2.760000000000000000e+02 2.253502082824707031e+01 4.933543205261230469e+00 6.104115009307861328e+00 2.151924371719360352e+00 2.476811885833740234e+00 4.680443763732910156e+00
2.770000000000000000e+02 2.034563446044921875e+01 4.348868846893310547e+00 1.538674736022949219e+01 1.035797309875488281e+01 7.723416328430175781e+00 -1.763544440269470215e+00
2.780000000000000000e+02 2.059489250183105469e+01 5.158633232116699219e+00 6.204765319824218750e+00 1.353398895263671875e+01 5.921626091003417969e+00 -1.739473819732666016e+00
2.790000000000000000e+02 2.068196678161621094e+01 5.279339313507080078e+00 4.512973785400390625e+00 1.401596164703369141e+01 5.558680534362792969e+00 -8.765125870704650879e-01
2.800000000000000000e+02 2.299537086486816406e+01 4.776885509490966797e+00 3.336946010589599609e+00 1.079225659370422363e+00 1.324851512908935547e+00 2.541107892990112305e+00
2.810000000000000000e+02 2.275088882446289062e+01 4.848233222961425781e+00 4.542553901672363281e+00 1.408791422843933105e+00 1.785403609275817871e+00 3.475323915481567383e+00
2.820000000000000000e+02 2.311319732666015625e+01 4.962083339691162109e+00 3.234668731689453125e+00 1.514954209327697754e+00 1.424886822700500488e+00 3.124995708465576172e+00
2.830000000000000000e+02 2.010597419738769531e+01 4.305352687835693359e+00 1.369230937957763672e+01 7.875119686126708984e+00 6.470228672027587891e+00 -9.821131825447082520e-01
2.840000000000000000e+02 2.008141517639160156e+01 4.450367927551269531e+00 1.316473102569580078e+01 6.995294570922851562e+00 6.048007488250732422e+00 -1.663386464118957520e+00
2.850000000000000000e+02 2.276079750061035156e+01 2.923872470855712891e+00 2.211423873901367188e+00 3.351311683654785156e+00 1.668820619583129883e+00 -3.664591073989868164e+00
2.860000000000000000e+02 2.297386360168457031e+01 3.089009523391723633e+00 1.683480620384216309e+00 1.730971932411193848e+00 1.024335741996765137e+00 -2.342861652374267578e+00
2.870000000000000000e+02 2.314403533935546875e+01 2.869060516357421875e+00 1.292867779731750488e+00 2.436582326889038086e+00 1.118835091590881348e+00 -2.206583738327026367e+00
2.880000000000000000e+02 2.286273956298828125e+01 2.778053045272827148e+00 1.527590394020080566e+00 3.422972917556762695e+00 1.485168933868408203e+00 -3.844596147537231445e+00
2.890000000000000000e+02 2.250436592102050781e+01 1.154715728759765625e+01 -1.375761330127716064e-01 2.152322292327880859e+00 6.044238209724426270e-01 1.285847663879394531e+00
2.900000000000000000e+02 2.349426460266113281e+01 1.237814044952392578e+01 2.423651218414306641e+00 4.142495632171630859e+00 1.969844102859497070e+00 3.399525165557861328e+00
2.910000000000000000e+02 1.923316001892089844e+01 9.046318054199218750e+00 -7.047243118286132812e+00 -2.427661657333374023e+00 -2.842471361160278320e+00 -4.602070808410644531e+00
2.920000000000000000e+02 2.021023750305175781e+01 5.349790573120117188e+00 5.609797000885009766e+00 9.999504089355468750e+00 4.682790279388427734e+00 -2.206963300704956055e+00
2.930000000000000000e+02 1.710080146789550781e+01 7.303759574890136719e+00 -6.922376155853271484e+00 -4.478505611419677734e+00 -3.420264482498168945e+00 -5.832360744476318359e+00
2.940000000000000000e+02 2.362393188476562500e+01 6.210320472717285156e+00 3.170418739318847656e+00 4.287547111511230469e+00 2.237389802932739258e+00 4.242798328399658203e+00
2.950000000000000000e+02 2.682861900329589844e+01 9.401292800903320312e+00 -1.563150405883789062e+00 1.168205142021179199e+00 -1.184835657477378845e-01 -3.541434109210968018e-01
2.960000000000000000e+02 2.771339035034179688e+01 1.403773498535156250e+01 1.197310328483581543e+00 2.350380420684814453e+00 1.064307212829589844e+00 1.066518306732177734e+00
2.970000000000000000e+02 2.442815589904785156e+01 1.317105674743652344e+01 3.584136962890625000e+00 9.742111206054687500e+00 3.997874498367309570e+00 5.083746910095214844e+00
2.980000000000000000e+02 2.422460746765136719e+01 1.030633258819580078e+01 -3.196936368942260742e+00 6.416225433349609375e+00 9.657866954803466797e-01 1.812497973442077637e+00
2.990000000000000000e+02 2.883495712280273438e+01 1.143339824676513672e+01 -3.222320795059204102e+00 -1.425583243370056152e+00 -1.394371271133422852e+00 -2.531955480575561523e+00
3.000000000000000000e+02 2.818786239624023438e+01 1.273013401031494141e+01 -5.812048316001892090e-01 6.149438023567199707e-01 1.012168917804956436e-02 -1.040714383125305176e+00
3.010000000000000000e+02 2.869096755981445312e+01 1.587844085693359375e+01 8.343842029571533203e-01 1.305480718612670898e+00 6.419594883918762207e-01 1.590920805931091309e+00
3.020000000000000000e+02 2.997566413879394531e+01 1.951127433776855469e+01 -8.280587792396545410e-01 1.300564289093017578e+00 1.417516618967056274e-01 1.604933857917785645e+00
3.030000000000000000e+02 2.857661628723144531e+01 2.627753639221191406e+01 -4.257692098617553711e-01 1.167155146598815918e+00 2.224157601594924927e-01 2.858885228633880615e-01
3.040000000000000000e+02 2.658256912231445312e+01 2.787570953369140625e+01 -4.269015491008758545e-01 1.090397357940673828e+00 1.990487575531005859e-01 1.314885467290878296e-01
3.050000000000000000e+02 2.928321647644042969e+01 3.198768043518066406e+01 4.308661445975303650e-03 9.690834283828735352e-01 2.920176088809967041e-01 1.340988874435424805e-01
3.060000000000000000e+02 3.354032516479492188e+01 3.177135848999023438e+01 1.267567574977874756e-01 1.109076142311096191e+00 3.707498610019683838e-01 1.208882927894592285e-01
3.070000000000000000e+02 3.281806182861328125e+01 4.038284683227539062e+01 3.249225020408630371e-01 1.129094123840332031e+00 4.362049698829650879e-01 -1.091985683888196945e-02
3.080000000000000000e+02 2.775701522827148438e+01 4.043175125122070312e+01 3.017245531082153320e-01 8.615961074829101562e-01 3.489961922168731689e-01 2.765013277530670166e-02
3.090000000000000000e+02 2.746726989746093750e+01 3.666616439819335938e+01 2.069634348154067993e-01 8.982944488525390625e-01 3.315773606300354004e-01 4.101088270545005798e-02
3.100000000000000000e+02 2.642504882812500000e+01 3.359283065795898438e+01 1.047382578253746033e-01 8.365171551704406738e-01 2.823766171932220459e-01 4.205907136201858521e-02
3.110000000000000000e+02 2.532077980041503906e+01 3.108210182189941406e+01 -1.053035482764244080e-01 8.786181807518005371e-01 2.319943904876708984e-01 3.592545539140701294e-02
3.120000000000000000e+02 2.566839599609375000e+01 2.352233505249023438e+01 -1.077224254608154297e+00 1.568910598754882812e+00 1.475058794021606445e-01 -6.509312987327575684e-02
3.130000000000000000e+02 2.784372329711914062e+01 2.064580726623535156e+01 -1.384682178497314453e+00 2.259989976882934570e+00 2.625923752784729004e-01 1.057877540588378906e+00
3.140000000000000000e+02 2.466226005554199219e+01 1.691368484497070312e+01 -1.184803605079650879e+00 5.752209186553955078e+00 1.370221734046936035e+00 -2.136090517044067383e+00
3.150000000000000000e+02 2.727925491333007812e+01 1.608216476440429688e+01 1.391560673713684082e+00 4.385111331939697266e+00 1.733001589775085449e+00 2.866385698318481445e+00
3.160000000000000000e+02 3.112811470031738281e+01 1.314349269866943359e+01 -3.204669237136840820e+00 -2.120746135711669922e+00 -1.597624659538269043e+00 -2.285987377166748047e+00
3.170000000000000000e+02 3.157281684875488281e+01 1.516539096832275391e+01 -2.225169420242309570e+00 -1.257718086242675781e+00 -1.044866204261779785e+00 -7.086116075515747070e-02
3.180000000000000000e+02 3.349039840698242188e+01 1.629529190063476562e+01 -1.607449054718017578e+00 -1.328530907630920410e+00 -8.807939887046813965e-01 1.190210729837417603e-01
3.190000000000000000e+02 3.222458648681640625e+01 2.177991867065429688e+01 -4.267583787441253662e-01 6.165273189544677734e-01 5.693067610263824463e-02 8.427696228027343750e-01
3.200000000000000000e+02 3.237641525268554688e+01 2.608866119384765625e+01 -1.783292889595031738e-01 8.526440262794494629e-01 2.022944241762161255e-01 4.040419757366180420e-01
3.210000000000000000e+02 3.019183540344238281e+01 2.790694046020507812e+01 -2.753498852252960205e-01 1.041593909263610840e+00 2.298732101917266846e-01 3.327225744724273682e-01
3.220000000000000000e+02 3.812177658081054688e+01 3.675556564331054688e+01 2.757393419742584229e-01 1.609264135360717773e+00 5.655010342597961426e-01 -1.127036660909652710e-01
3.230000000000000000e+02 3.367510604858398438e+01 1.460147190093994141e+01 -4.971227169036865234e+00 -1.240228891372680664e+00 -1.863436818122863770e+00 -5.547067523002624512e-01
3.240000000000000000e+02 3.570248413085937500e+01 1.384054565429687500e+01 -3.920595407485961914e+00 -1.002321600914001465e+00 -1.476875185966491699e+00 1.341480374336242676e+00
3.250000000000000000e+02 3.709503173828125000e+01 1.322475242614746094e+01 -1.754573941230773926e+00 -2.990050017833709717e-01 -6.160736680030822754e-01 1.064709663391113281e+00
3.260000000000000000e+02 3.664724731445312500e+01 1.373913097381591797e+01 -3.581717967987060547e+00 -2.543318867683410645e-01 -1.150815010070800781e+00 1.168547272682189941e+00
3.270000000000000000e+02 3.842098236083984375e+01 1.307106399536132812e+01 -1.604913592338562012e+00 1.647441387176513672e-01 -4.320508539676666260e-01 5.693512558937072754e-01
3.280000000000000000e+02 4.020849609375000000e+01 1.637319374084472656e+01 -1.819819331169128418e+00 6.662567257881164551e-01 -3.460687696933746338e-01 -9.247441589832305908e-02
3.290000000000000000e+02 3.826272964477539062e+01 2.202317428588867188e+01 -3.215818405151367188e-01 5.616636276245117188e-01 7.202453911304473877e-02 -1.634082049131393433e-01
3.300000000000000000e+02 4.025419235229492188e+01 2.996863365173339844e+01 1.286410391330718994e-01 1.525464177131652832e+00 4.962315559387207031e-01 -2.304809093475341797e-01
3.310000000000000000e+02 4.148438644409179688e+01 3.573631286621093750e+01 2.164327949285507202e-01 1.979508161544799805e+00 6.587823033332824707e-01 -1.389034986495971680e-01
3.320000000000000000e+02 4.283716964721679688e+01 4.065081787109375000e+01 2.061053812503814697e-01 2.265501737594604492e+00 7.414821386337280273e-01 -7.492475956678390503e-02
3.330000000000000000e+02 3.785939025878906250e+01 4.053014373779296875e+01 2.979769110679626465e-01 1.621059179306030273e+00 5.757108330726623535e-01 -9.594776667654514313e-03
3.340000000000000000e+02 3.806695938110351562e+01 3.355803680419921875e+01 2.291149795055389404e-01 1.449929833412170410e+00 5.037134289741516113e-01 -1.073926612734794617e-01
3.350000000000000000e+02 3.580408859252929688e+01 2.935329246520996094e+01 1.361703276634216309e-01 1.043819665908813477e+00 3.539969921112060547e-01 1.740058138966560364e-02
3.360000000000000000e+02 3.562461090087890625e+01 2.589015769958496094e+01 -2.241864427924156189e-02 7.311487793922424316e-01 2.126190513372421265e-01 1.571465879678726196e-01
3.370000000000000000e+02 3.687572860717773438e+01 2.274859428405761719e+01 -2.391890436410903931e-01 4.176254868507385254e-01 5.353093147277832031e-02 5.471273511648178101e-02
3.380000000000000000e+02 3.602291488647460938e+01 1.536515522003173828e+01 -2.569590330123901367e+00 -4.747461080551147461e-01 -9.133009314537048340e-01 -7.933923602104187012e-02
3.390000000000000000e+02 3.850929641723632812e+01 1.381242752075195312e+01 -2.049080371856689453e+00 3.626790940761566162e-01 -5.059204101562500000e-01 3.956401944160461426e-01
3.400000000000000000e+02 4.418119049072265625e+01 1.312500572204589844e+01 -1.512881517410278320e+00 -6.387800723314285278e-02 -4.730278551578521729e-01 -6.410279273986816406e-01
3.410000000000000000e+02 4.396430969238281250e+01 1.605130767822265625e+01 -1.885693430900573730e+00 6.441859602928161621e-01 -3.724522292613983154e-01 -5.728984624147415161e-02
3.420000000000000000e+02 4.322860717773437500e+01 2.240254211425781250e+01 -3.336963057518005371e-01 1.445297956466674805e+00 3.334805071353912354e-01 -7.141485214233398438e-01
3.430000000000000000e+02 4.329097747802734375e+01 2.424474716186523438e+01 -1.270378232002258301e-01 1.683657765388488770e+00 4.669859707355499268e-01 -6.712185740470886230e-01
3.440000000000000000e+02 4.327539062500000000e+01 2.936207008361816406e+01 4.761288315057754517e-02 2.114220142364501953e+00 6.485498547554016113e-01 -4.779288768768310547e-01
3.450000000000000000e+02 4.370719528198242188e+01 3.204442977905273438e+01 5.070056766271591187e-02 2.300064563751220703e+00 7.052295207977294922e-01 -3.509923219680786133e-01
3.460000000000000000e+02 4.781081008911132812e+01 3.732307815551757812e+01 -5.588766653090715408e-03 3.160402774810791016e+00 9.464442133903503418e-01 -2.000004649162292480e-01
3.470000000000000000e+02 4.467249298095703125e+01 1.498553943634033203e+01 -2.376309394836425781e+00 4.387384057044982910e-01 -5.812712907791137695e-01 -5.958889722824096680e-01
3.480000000000000000e+02 4.637845993041992188e+01 1.452738475799560547e+01 -2.936486482620239258e+00 -9.242916107177734375e-01 -1.158233404159545898e+00 -1.534401774406433105e+00
3.490000000000000000e+02 5.113699722290039062e+01 1.473532009124755859e+01 2.022732019424438477e+00 1.494381237030029297e+01 5.089963436126708984e+00 -9.384163022041320801e-01
3.500000000000000000e+02 4.666665267944335938e+01 1.701433563232421875e+01 -4.845950305461883545e-01 8.577155470848083496e-01 1.119361519813537598e-01 -1.163797497749328613e+00
3.510000000000000000e+02 4.883226394653320312e+01 1.660719490051269531e+01 -1.274968862533569336e+00 2.948510885238647461e+00 5.020626187324523926e-01 -3.256682634353637695e+00
3.520000000000000000e+02 4.659692764282226562e+01 2.004683113098144531e+01 -5.238519906997680664e-01 2.208324909210205078e+00 5.053418874740600586e-01 -1.345226764678955078e+00
3.530000000000000000e+02 4.829137039184570312e+01 2.572207450866699219e+01 -4.465260803699493408e-01 3.419083833694458008e+00 8.917673230171203613e-01 -8.177801966667175293e-01
3.540000000000000000e+02 4.615476989746093750e+01 2.880917930603027344e+01 -1.603541076183319092e-01 2.752802610397338867e+00 7.777345776557922363e-01 -6.045368909835815430e-01
3.550000000000000000e+02 4.667044067382812500e+01 3.139602661132812500e+01 -7.624355703592300415e-02 2.949836254119873047e+00 8.620778322219848633e-01 -4.899770915508270264e-01
3.560000000000000000e+02 4.724698257446289062e+01 3.420114517211914062e+01 -5.308341979980468750e-02 3.011690616607666016e+00 8.875821232795715332e-01 -3.341491520404815674e-01
3.570000000000000000e+02 4.779524230957031250e+01 4.073624038696289062e+01 1.887229457497596741e-02 3.179154396057128906e+00 9.594080448150634766e-01 -4.784293100237846375e-02
3.580000000000000000e+02 4.402275466918945312e+01 1.194273948669433594e+01 -8.968514800071716309e-01 -3.247189521789550781e-01 -3.664711117744445801e-01 -5.732938051223754883e-01
3.590000000000000000e+02 4.754949569702148438e+01 1.542635726928710938e+01 -2.925186157226562500e+00 -8.258787393569946289e-01 -1.125319480895996094e+00 -1.976894021034240723e+00
3.600000000000000000e+02 5.075563049316406250e+01 1.343409061431884766e+01 2.509041786193847656e+00 2.128182411193847656e+01 7.137259960174560547e+00 -2.511971712112426758e+00
3.610000000000000000e+02 5.072874832153320312e+01 1.209661197662353516e+01 1.220411777496337891e+00 2.510882377624511719e+01 7.898770809173583984e+00 1.296604514122009277e+00
3.620000000000000000e+02 5.185233306884765625e+01 1.169813728332519531e+01 3.753057479858398438e+00 1.664305496215820312e+01 6.118833541870117188e+00 1.084816455841064453e+00
3.630000000000000000e+02 5.047164916992187500e+01 1.069203662872314453e+01 3.156381607055664062e+00 2.308314132690429688e+01 7.871857166290283203e+00 4.730855941772460938e+00
3.640000000000000000e+02 5.008684539794921875e+01 7.449028015136718750e+00 9.439261555671691895e-01 1.181703662872314453e+01 3.828288793563842773e+00 2.828812837600708008e+00
3.650000000000000000e+02 5.213175582885742188e+01 7.758193492889404297e+00 2.431229650974273682e-01 1.387747859954833984e+01 4.236180305480957031e+00 2.371197193861007690e-01
3.660000000000000000e+02 5.008100509643554688e+01 4.438729286193847656e+00 2.966661691665649414e+00 7.961335659027099609e+00 3.278399229049682617e+00 1.416252255439758301e+00
3.670000000000000000e+02 4.916195297241210938e+01 -5.398800373077392578e-01 6.938459277153015137e-01 2.618867397308349609e+00 9.938139915466308594e-01 3.002993822097778320e+00
3.680000000000000000e+02 4.479579925537109375e+01 -3.700022935867309570e+00 3.200835943222045898e+00 1.499355602264404297e+01 5.458317756652832031e+00 4.545637130737304688e+00
3.690000000000000000e+02 4.667695236206054688e+01 -2.873048782348632812e+00 -2.002225637435913086e+00 1.116034388542175293e+00 -2.658573687076568604e-01 3.987354755401611328e+00
3.700000000000000000e+02 4.542857742309570312e+01 -2.395574331283569336e+00 2.878665924072265625e-01 8.278974533081054688e+00 2.570052385330200195e+00 5.675315856933593750e+00
3.710000000000000000e+02 4.944308853149414062e+01 -3.652772903442382812e+00 -7.996600627899169922e+00 -1.183132886886596680e+00 -2.753920078277587891e+00 2.874872446060180664e+00
3.720000000000000000e+02 5.166685485839843750e+01 -5.628011226654052734e+00 -1.715642690658569336e+00 6.678835153579711914e-01 -3.143277466297149658e-01 6.008595228195190430e-01
3.730000000000000000e+02 5.337468719482421875e+01 -7.877267837524414062e+00 6.589658260345458984e-01 3.689705371856689453e+00 1.304601311683654785e+00 -1.605479121208190918e+00
3.740000000000000000e+02 5.490596389770507812e+01 -1.029123020172119141e+01 9.961595535278320312e-01 7.397059917449951172e+00 2.517965793609619141e+00 -2.249747514724731445e+00
3.750000000000000000e+02 5.581262207031250000e+01 -1.314022922515869141e+01 3.344442546367645264e-01 1.210571575164794922e+01 3.732048034667968750e+00 -1.910580039024353027e+00
3.760000000000000000e+02 6.033979797363281250e+01 -1.489619636535644531e+01 5.060034990310668945e-01 8.299907684326171875e+00 2.641773462295532227e+00 -8.369516581296920776e-02
3.770000000000000000e+02 6.478080749511718750e+01 -1.813331222534179688e+01 3.505976796150207520e-01 4.231598377227783203e+00 1.374658823013305664e+00 -1.242626309394836426e+00
3.780000000000000000e+02 6.956598663330078125e+01 -2.526070404052734375e+01 4.967841207981109619e-01 5.334094524383544922e+00 1.749263644218444824e+00 1.691859364509582520e-01
3.790000000000000000e+02 7.521680450439453125e+01 -2.960424995422363281e+01 7.546369731426239014e-02 6.514313697814941406e+00 1.976933240890502930e+00 1.597478985786437988e-01
3.800000000000000000e+02 7.937713623046875000e+01 -3.057770919799804688e+01 -2.532014437019824982e-02 7.056644439697265625e+00 2.109397411346435547e+00 3.112657368183135986e-02
3.810000000000000000e+02 7.814728546142578125e+01 -3.173974037170410156e+01 -5.857893265783786774e-03 6.865022182464599609e+00 2.057749271392822266e+00 6.276017427444458008e-02
3.820000000000000000e+02 7.934806823730468750e+01 -2.920399093627929688e+01 3.050333261489868164e-02 7.130129814147949219e+00 2.148190021514892578e+00 3.107521496713161469e-02
3.830000000000000000e+02 7.793967437744140625e+01 -2.775019073486328125e+01 4.054263606667518616e-02 7.019650936126708984e+00 2.118057966232299805e+00 1.269415318965911865e-01
3.840000000000000000e+02 7.673546600341796875e+01 -2.500665855407714844e+01 -5.912862345576286316e-02 6.967241764068603516e+00 2.072433948516845703e+00 1.952459812164306641e-01
3.850000000000000000e+02 6.666944885253906250e+01 -1.681242942810058594e+01 -1.578552424907684326e-01 2.199824571609497070e+00 6.125908493995666504e-01 -9.912695288658142090e-01
3.860000000000000000e+02 6.731735229492187500e+01 -1.423618793487548828e+01 -8.406005501747131348e-01 2.390142530202865601e-02 -2.450097352266311646e-01 7.037477493286132812e-01
3.870000000000000000e+02 6.636238861083984375e+01 -1.334849739074707031e+01 -6.150771379470825195e-01 4.690536856651306152e-01 -4.380703717470169067e-02 -3.415332734584808350e-02
3.880000000000000000e+02 6.541970825195312500e+01 -1.255979633331298828e+01 -1.649348065257072449e-02 2.357506752014160156e+00 7.023040056228637695e-01 -5.641302466392517090e-01
3.890000000000000000e+02 6.286808395385742188e+01 -1.238406753540039062e+01 -4.498423337936401367e-01 6.996542930603027344e+00 1.964010238647460938e+00 -3.153857588768005371e-01
3.900000000000000000e+02 6.276588439941406250e+01 -1.112118721008300781e+01 -1.419541388750076294e-01 7.727560997009277344e+00 2.275681972503662109e+00 1.363294124603271484e-01
3.910000000000000000e+02 6.206735610961914062e+01 -7.016561985015869141e+00 7.470387220382690430e-01 1.079758644104003906e+01 3.463387489318847656e+00 6.510537266731262207e-01
3.920000000000000000e+02 5.635299682617187500e+01 -3.561533689498901367e+00 -1.009388446807861328e+00 5.511594772338867188e+00 1.350661873817443848e+00 -3.093055486679077148e+00
3.930000000000000000e+02 5.483702087402343750e+01 -1.656138449907302856e-01 -2.441770315170288086e+00 1.078295326232910156e+01 2.502354860305786133e+00 -6.149901866912841797e+00
3.940000000000000000e+02 5.276303100585937500e+01 9.539999961853027344e-01 1.845391750335693359e+00 9.912544250488281250e+00 3.527380704879760742e+00 6.380551308393478394e-02
3.950000000000000000e+02 5.344255447387695312e+01 2.210462808609008789e+00 5.008136272430419922e+00 1.645384597778320312e+01 6.438594818115234375e+00 -2.814540863037109375e+00
3.960000000000000000e+02 5.385428237915039062e+01 3.520925521850585938e+00 2.827709197998046875e+00 2.177205276489257812e+01 7.379928588867187500e+00 -1.634829044342041016e+00
3.970000000000000000e+02 5.456586074829101562e+01 6.166384696960449219e+00 1.241538882255554199e+00 1.251324748992919922e+01 4.126435756683349609e+00 2.769378423690795898e+00
3.980000000000000000e+02 5.511898040771484375e+01 1.140538597106933594e+01 1.672103762626647949e+00 6.758512973785400391e+00 2.529185056686401367e+00 2.129592895507812500e+00
3.990000000000000000e+02 5.408583450317382812e+01 4.856413364410400391e+00 1.080960392951965332e+00 1.787556266784667969e+01 5.686956882476806641e+00 2.277758836746215820e+00
4.000000000000000000e+02 4.988588714599609375e+01 9.369750022888183594e+00 2.809575319290161133e+00 1.501707363128662109e+01 5.347994804382324219e+00 5.971971035003662109e+00
4.010000000000000000e+02 4.819637680053710938e+01 7.023459434509277344e+00 2.414700508117675781e+00 5.587988376617431641e+00 2.400806665420532227e+00 3.568376779556274414e+00
4.020000000000000000e+02 4.639654541015625000e+01 2.828018426895141602e+00 2.836296558380126953e+00 3.339259147644042969e+00 1.852666735649108887e+00 3.576221227645874023e+00
4.030000000000000000e+02 4.343517684936523438e+01 1.697177410125732422e+00 1.505513668060302734e+00 3.439096450805664062e+00 1.483383059501647949e+00 2.498832941055297852e+00
4.040000000000000000e+02 3.867086410522460938e+01 -5.369831919670104980e-01 -1.738064587116241455e-01 -1.150210142135620117e+00 -3.972049653530120850e-01 2.005232274532318115e-01
4.050000000000000000e+02 3.976453781127929688e+01 -2.748946249485015869e-01 -1.093922495841979980e+00 -3.340720534324645996e-01 -4.283983707427978516e-01 -1.560837775468826294e-01
4.060000000000000000e+02 3.852017593383789062e+01 -2.478382825851440430e+00 1.105340123176574707e+00 -1.444650530815124512e+00 -1.017931401729583740e-01 -2.423489987850189209e-01
4.070000000000000000e+02 3.859117507934570312e+01 -7.550389766693115234e+00 -1.289866566658020020e+00 -3.096966743469238281e+00 -1.316050052642822266e+00 2.189844369888305664e+00
4.080000000000000000e+02 3.929732131958007812e+01 -8.728686332702636719e+00 -1.347674846649169922e+00 -1.934719324111938477e+00 -9.847182631492614746e-01 2.028897762298583984e+00
4.090000000000000000e+02 3.971680068969726562e+01 -7.076541900634765625e+00 -5.400667786598205566e-01 -2.246116697788238525e-01 -2.294035404920578003e-01 1.496614933013916016e+00
4.100000000000000000e+02 4.182584762573242188e+01 -1.066946601867675781e+01 -1.766407132148742676e+00 5.936894893646240234e+00 1.251146316528320312e+00 2.380513906478881836e+00
4.110000000000000000e+02 4.705320739746093750e+01 -1.221921157836914062e+01 -1.080926537513732910e+00 1.352308243513107300e-01 -2.837087213993072510e-01 7.814208865165710449e-01
4.120000000000000000e+02 4.901811981201171875e+01 -1.669689178466796875e+01 -1.170680880546569824e+00 -1.938915550708770752e-01 -4.093717336654663086e-01 5.243607163429260254e-01
4.130000000000000000e+02 5.460960769653320312e+01 -2.275803947448730469e+01 2.303894236683845520e-02 3.182976722717285156e+00 9.618046879768371582e-01 2.218735456466674805e+00
4.140000000000000000e+02 5.782296371459960938e+01 -2.727287101745605469e+01 -2.362004816532135010e-01 4.771893024444580078e+00 1.360707759857177734e+00 2.498502731323242188e-01
4.150000000000000000e+02 6.280575180053710938e+01 -2.983219146728515625e+01 -4.223076254129409790e-02 5.228737354278564453e+00 1.555951952934265137e+00 -5.954121798276901245e-02
4.160000000000000000e+02 6.465393829345703125e+01 -3.360808181762695312e+01 7.180559635162353516e-02 5.289738655090332031e+00 1.608463287353515625e+00 -8.739355951547622681e-03
4.170000000000000000e+02 6.762200164794921875e+01 -3.740825271606445312e+01 8.263901621103286743e-02 5.601004600524902344e+00 1.705093145370483398e+00 3.436022996902465820e-02
4.180000000000000000e+02 7.186150360107421875e+01 -4.089854431152343750e+01 4.986783862113952637e-02 6.102508544921875000e+00 1.845712900161743164e+00 1.614114269614219666e-02
4.190000000000000000e+02 7.494008636474609375e+01 -4.019618225097656250e+01 3.735748305916786194e-02 6.419823646545410156e+00 1.937154293060302734e+00 -1.018866617232561111e-02
4.200000000000000000e+02 7.795619201660156250e+01 -4.162748336791992188e+01 3.723305091261863708e-02 6.723559856414794922e+00 2.028237819671630859e+00 1.033407542854547501e-02
4.210000000000000000e+02 7.920001220703125000e+01 -3.739596557617187500e+01 -1.618249458260834217e-03 6.827081203460693359e+00 2.047638893127441406e+00 2.233343198895454407e-02
4.220000000000000000e+02 7.735131072998046875e+01 -3.795865249633789062e+01 -4.856875457335263491e-04 6.674623012542724609e+00 2.002241134643554688e+00 4.762928932905197144e-02
4.230000000000000000e+02 7.931298828125000000e+01 -3.467856216430664062e+01 9.095804765820503235e-03 6.906472206115722656e+00 2.074670553207397461e+00 2.020684443414211273e-02
4.240000000000000000e+02 7.792668151855468750e+01 -3.434142684936523438e+01 -1.257857773452997208e-02 6.785998821258544922e+00 2.032026052474975586e+00 3.743569180369377136e-02
4.250000000000000000e+02 7.589735412597656250e+01 -3.091969490051269531e+01 3.599214553833007812e-02 6.590010166168212891e+00 1.987800717353820801e+00 1.373794525861740112e-01
4.260000000000000000e+02 7.034095001220703125e+01 -2.658719444274902344e+01 2.097832262516021729e-01 5.611785411834716797e+00 1.746470570564270020e+00 1.844643652439117432e-01
4.270000000000000000e+02 6.733739471435546875e+01 -2.248304557800292969e+01 5.892801284790039062e-01 4.420919895172119141e+00 1.503059983253479004e+00 -2.086738348007202148e-01
4.280000000000000000e+02 6.439736175537109375e+01 -2.040889167785644531e+01 4.032568931579589844e-01 4.707971572875976562e+00 1.533368468284606934e+00 -1.241036891937255859e+00
4.290000000000000000e+02 5.977829742431640625e+01 -1.780307960510253906e+01 1.034470438957214355e+00 7.925665855407714844e+00 2.688040971755981445e+00 -7.638197541236877441e-01
4.300000000000000000e+02 5.635228729248046875e+01 -1.731547927856445312e+01 1.879750013351440430e+00 1.530754947662353516e+01 5.156189918518066406e+00 1.616888403892517090e+00
4.310000000000000000e+02 5.735813140869140625e+01 -1.419627189636230469e+01 6.415881514549255371e-01 1.119053173065185547e+01 3.549635887145996094e+00 -1.931552439928054810e-01
4.320000000000000000e+02 5.795380401611328125e+01 -1.691515350341796875e+01 1.879613637924194336e+00 9.396728515625000000e+00 3.382902860641479492e+00 1.881579607725143433e-01
4.330000000000000000e+02 5.782970046997070312e+01 -2.027120208740234375e+01 -1.386853933334350586e+00 7.870782375335693359e+00 1.945178508758544922e+00 -3.571774065494537354e-01
4.340000000000000000e+02 5.685188674926757812e+01 -1.875022125244140625e+01 1.954675197601318359e+00 1.151681137084960938e+01 4.041445732116699219e+00 8.050884604454040527e-01
4.350000000000000000e+02 5.915261459350585938e+01 -1.967423057556152344e+01 6.710448861122131348e-01 8.250231742858886719e+00 2.676383018493652344e+00 -1.131281733512878418e+00
4.360000000000000000e+02 5.305941772460937500e+01 -1.871047592163085938e+01 -2.864704608917236328e+00 -1.734718680381774902e+00 -1.379827022552490234e+00 1.850047588348388672e+00
4.370000000000000000e+02 4.994380950927734375e+01 -1.786977195739746094e+01 -1.191540002822875977e+00 -2.405096590518951416e-01 -4.296149015426635742e-01 6.204411387443542480e-01
4.380000000000000000e+02 3.629579162597656250e+01 9.788993746042251587e-03 6.959157586097717285e-01 -1.264621496200561523e+00 -1.706117093563079834e-01 1.750643104314804077e-01
4.390000000000000000e+02 3.804339599609375000e+01 3.704606592655181885e-01 -5.191698074340820312e-01 -2.078518390655517578e+00 -7.793064713478088379e-01 6.280643939971923828e-01
4.400000000000000000e+02 3.552541732788085938e+01 6.582186222076416016e-01 3.948005735874176025e-01 -1.058249115943908691e+00 -1.990345567464828491e-01 9.893499612808227539e-01
4.410000000000000000e+02 3.341219711303710938e+01 -1.002189397811889648e+00 1.251589059829711914e+00 -1.520329713821411133e-02 3.709157109260559082e-01 -5.337031483650207520e-01
4.420000000000000000e+02 3.272330856323242188e+01 7.431125640869140625e-02 3.592206716537475586e+00 -4.892844855785369873e-01 9.308766722679138184e-01 7.652372121810913086e-01
4.430000000000000000e+02 3.438588333129882812e+01 -1.892116427421569824e+00 7.307314872741699219e-01 -2.155245244503021240e-01 1.545620858669281006e-01 -4.059879481792449951e-02
4.440000000000000000e+02 3.540621185302734375e+01 -2.856983423233032227e+00 4.665159061551094055e-02 -1.185460805892944336e+00 -3.416427671909332275e-01 1.618671268224716187e-01
4.450000000000000000e+02 3.721172714233398438e+01 -5.100762367248535156e+00 -5.127587318420410156e-01 -2.889150619506835938e+00 -1.020572900772094727e+00 1.339007258415222168e+00
4.460000000000000000e+02 3.768588256835937500e+01 2.324933290481567383e+00 -1.053511574864387512e-01 -1.938647985458374023e+00 -6.131997108459472656e-01 3.109934628009796143e-01
4.470000000000000000e+02 3.557722854614257812e+01 3.084799289703369141e+00 -2.807911336421966553e-01 -1.925680339336395264e-01 -1.420077532529830933e-01 1.180440425872802734e+00
4.480000000000000000e+02 3.016839981079101562e+01 4.561685562133789062e+00 -3.494521856307983398e+00 -7.850326895713806152e-01 -1.283866405487060547e+00 -1.959638118743896484e+00
4.490000000000000000e+02 3.273044967651367188e+01 4.947691440582275391e+00 -1.798379540443420410e+00 4.784398376941680908e-01 -3.959819078445434570e-01 2.128884643316268921e-01
4.500000000000000000e+02 2.902803611755371094e+01 3.785123825073242188e+00 -5.612204074859619141e+00 -1.742790699005126953e+00 -2.206498384475708008e+00 -2.817637205123901367e+00
4.510000000000000000e+02 2.785919952392578125e+01 3.168672800064086914e+00 -7.921249866485595703e+00 -1.842387914657592773e+00 -2.929091453552246094e+00 -3.995245695114135742e+00
4.520000000000000000e+02 2.706046867370605469e+01 2.595679283142089844e+00 -8.242677688598632812e+00 -2.200594186782836914e+00 -3.132981538772583008e+00 -3.146060943603515625e+00
4.530000000000000000e+02 3.810400390625000000e+01 3.621544122695922852e+00 -5.979144014418125153e-03 -6.635983586311340332e-01 -2.008732557296752930e-01 4.253557324409484863e-02
4.540000000000000000e+02 3.617957305908203125e+01 8.771338462829589844e+00 -7.798388600349426270e-02 -2.094696089625358582e-02 -2.967925556004047394e-02 1.712886430323123932e-02
4.550000000000000000e+02 3.763433456420898438e+01 9.462379455566406250e+00 4.327752068638801575e-02 -2.698553353548049927e-02 4.887596238404512405e-03 7.941411808133125305e-03
4.560000000000000000e+02 3.563877868652343750e+01 9.190181732177734375e+00 8.616357808932662010e-05 -3.146787360310554504e-02 -9.414512664079666138e-03 5.418030545115470886e-02
4.570000000000000000e+02 3.345480728149414062e+01 6.869898319244384766e+00 -5.494134426116943359e-01 -4.382486455142498016e-03 -1.661387830972671509e-01 -7.940129190683364868e-02
4.580000000000000000e+02 3.468632507324218750e+01 7.012444972991943359e+00 -3.260964751243591309e-01 1.824772953987121582e-01 -4.308575019240379333e-02 1.114974990487098694e-01
4.590000000000000000e+02 3.788811111450195312e+01 6.266379356384277344e+00 -3.388794511556625366e-02 -1.336123347282409668e-01 -5.025008320808410645e-02 7.605633139610290527e-02
4.600000000000000000e+02 3.700642013549804688e+01 7.871191501617431641e+00 -1.217236220836639404e-01 -1.085520759224891663e-01 -6.908270716667175293e-02 6.095641758292913437e-03
4.610000000000000000e+02 3.929264450073242188e+01 7.108550071716308594e+00 5.191167071461677551e-02 5.977295339107513428e-02 3.350538760423660278e-02 3.446011396590620279e-04
4.620000000000000000e+02 4.050866317749023438e+01 8.781816482543945312e+00 5.963067989796400070e-03 -8.783647208474576473e-04 1.525410916656255722e-03 2.558282203972339630e-02
4.630000000000000000e+02 2.543628883361816406e+01 1.755665183067321777e+00 -6.025510787963867188e+00 -4.869957268238067627e-01 -1.953751921653747559e+00 -1.972165226936340332e+00
4.640000000000000000e+02 2.620668220520019531e+01 6.595755815505981445e-01 -1.190570354461669922e+00 2.539107808843255043e-03 -3.564093708992004395e-01 -1.219185590744018555e+00
4.650000000000000000e+02 2.462196731567382812e+01 -4.709015846252441406e+00 4.278074264526367188e+00 1.279532241821289062e+01 5.122019290924072266e+00 -6.036312103271484375e+00
4.660000000000000000e+02 2.574869155883789062e+01 -7.228490352630615234e+00 1.678784012794494629e+00 1.419515895843505859e+01 4.762183189392089844e+00 -1.652090430259704590e+00
4.670000000000000000e+02 2.682957649230957031e+01 -5.957592964172363281e+00 3.183005571365356445e+00 8.315930366516113281e+00 3.449680805206298828e+00 -1.121033668518066406e+00
4.680000000000000000e+02 3.107979393005371094e+01 -6.764474868774414062e+00 5.018118023872375488e-01 -1.368871033191680908e-01 1.094774082303047180e-01 -4.103209674358367920e-01
4.690000000000000000e+02 3.205881118774414062e+01 -1.104755306243896484e+01 1.061541199684143066e+00 1.808656454086303711e+00 8.610592484474182129e-01 -1.485926389694213867e+00
4.700000000000000000e+02 3.486265182495117188e+01 -1.256292724609375000e+01 9.241684675216674805e-01 1.370991468429565430e+00 6.885479688644409180e-01 -1.149265527725219727e+00
4.710000000000000000e+02 3.665633010864257812e+01 -1.463526630401611328e+01 7.333270907402038574e-01 1.012973546981811523e+00 5.238901972770690918e-01 -7.397534251213073730e-01
4.720000000000000000e+02 3.397164535522460938e+01 -1.151505184173583984e+01 1.107960581779479980e+00 1.687997102737426758e+00 8.387873172760009766e-01 -1.290290236473083496e+00
4.730000000000000000e+02 2.544759750366210938e+01 8.667217493057250977e-01 -1.803896546363830566e+00 -2.621123790740966797e-01 -6.198026537895202637e-01 -2.076309680938720703e+00
4.740000000000000000e+02 2.398196411132812500e+01 1.966135263442993164e+00 -4.885764122009277344e+00 1.699262976646423340e+00 -9.559503197669982910e-01 -2.348135709762573242e+00
4.750000000000000000e+02 2.228715896606445312e+01 1.013313531875610352e+00 -1.706753373146057129e+00 8.515920639038085938e+00 2.042750358581542969e+00 -5.040089130401611328e+00
4.760000000000000000e+02 1.979693031311035156e+01 3.611604213714599609e+00 1.070357704162597656e+01 5.090045452117919922e+00 4.738086700439453125e+00 1.789469122886657715e+00
4.770000000000000000e+02 1.580254554748535156e+01 4.838916301727294922e+00 3.179530382156372070e+00 -2.546073436737060547e+00 1.900370568037033081e-01 -2.411298274993896484e+00
4.780000000000000000e+02 1.375036907196044922e+01 4.965401649475097656e+00 2.593909740447998047e+00 -2.653565168380737305e+00 -1.789664849638938904e-02 -1.415521025657653809e+00
4.790000000000000000e+02 1.500240516662597656e+01 -2.003374338150024414e+00 -7.649824768304824829e-02 -1.328064501285552979e-02 -2.693366818130016327e-02 4.779097065329551697e-02
4.800000000000000000e+02 1.567257404327392578e+01 -3.162384271621704102e+00 -1.420985758304595947e-01 7.229702919721603394e-02 -2.094046585261821747e-02 1.275027096271514893e-01
4.810000000000000000e+02 1.148307609558105469e+01 -3.411050319671630859e+00 -1.402350813150405884e-01 7.536328583955764771e-02 -1.946153677999973297e-02 8.590915240347385406e-03
4.820000000000000000e+02 1.180463981628417969e+01 -1.939840555191040039e+00 -1.095336675643920898e-01 4.571396112442016602e-02 -1.914591155946254730e-02 2.367079630494117737e-02
4.830000000000000000e+02 1.193797206878662109e+01 -6.213370323181152344e+00 -2.495330721139907837e-01 7.558783143758773804e-02 -5.218357220292091370e-02 -9.423831850290298462e-02
4.840000000000000000e+02 1.239426898956298828e+01 -1.090028667449951172e+01 -1.238246932625770569e-01 1.909583061933517456e-01 2.014008536934852600e-02 -2.152151316404342651e-01
4.850000000000000000e+02 1.305892944335937500e+01 -1.447026348114013672e+01 5.337202176451683044e-02 1.550473868846893311e-01 6.252582371234893799e-02 -2.152213007211685181e-01
4.860000000000000000e+02 7.718162536621093750e+00 -1.578753376007080078e+01 2.396705187857151031e-02 -3.238903358578681946e-02 -2.526594093069434166e-03 -1.878143996000289917e-01
4.870000000000000000e+02 8.395698547363281250e+00 -2.053161621093750000e+01 7.006447762250900269e-02 -3.430073149502277374e-03 1.999032124876976013e-02 -1.359599977731704712e-01
4.880000000000000000e+02 8.690237998962402344e+00 -2.433800888061523438e+01 6.796940416097640991e-02 -2.700172737240791321e-02 1.229030266404151917e-02 -8.623179793357849121e-02
4.890000000000000000e+02 1.004178619384765625e+01 -2.930779647827148438e+01 4.360679164528846741e-02 1.777897030115127563e-01 6.641894578933715820e-02 -3.863279521465301514e-02
4.900000000000000000e+02 8.133651733398437500e+00 -3.344906234741210938e+01 2.740310132503509521e-02 -1.732075773179531097e-02 3.024703124538064003e-03 -2.096455171704292297e-02
4.910000000000000000e+02 8.661678314208984375e+00 -3.576046371459960938e+01 1.582675799727439880e-02 6.191053241491317749e-02 2.332118712365627289e-02 -8.237907662987709045e-03
4.920000000000000000e+02 8.703991889953613281e+00 -3.841373825073242188e+01 1.894286088645458221e-02 1.240311563014984131e-02 9.403793141245841980e-03 -5.297876428812742233e-03
4.930000000000000000e+02 8.033109664916992188e+00 -4.114481735229492188e+01 -3.209498478099703789e-03 -5.432468652725219727e-02 -1.726025529205799103e-02 1.000762730836868286e-02
4.940000000000000000e+02 1.244582366943359375e+01 -4.113959121704101562e+01 7.538372185081243515e-03 4.230215251445770264e-01 1.291679739952087402e-01 -1.763848029077053070e-02
4.950000000000000000e+02 1.208268451690673828e+01 -3.825778579711914062e+01 1.171199791133403778e-02 4.179736971855163574e-01 1.289057135581970215e-01 -8.666369132697582245e-03
4.960000000000000000e+02 1.134062385559082031e+01 -3.520766067504882812e+01 2.563461847603321075e-02 3.153401017189025879e-01 1.022924110293388367e-01 -6.749888882040977478e-03
4.970000000000000000e+02 1.181353187561035156e+01 -3.090547752380371094e+01 4.989349842071533203e-02 3.306016921997070312e-01 1.141485571861267090e-01 -2.344592241570353508e-03
4.980000000000000000e+02 1.115988540649414062e+01 -2.744064140319824219e+01 9.042589366436004639e-02 2.362812161445617676e-01 9.801213443279266357e-02 -3.305462002754211426e-02
4.990000000000000000e+02 1.256023883819580078e+01 -2.367145538330078125e+01 1.176863759756088257e-01 4.034678041934967041e-01 1.563462466001510620e-01 -4.734781011939048767e-02
5.000000000000000000e+02 1.256024265289306641e+01 -1.901552581787109375e+01 1.415311992168426514e-01 2.324203699827194214e-01 1.121854707598686218e-01 -1.195087358355522156e-01
5.010000000000000000e+02 1.423359107971191406e+01 -1.621340370178222656e+01 1.244306266307830811e-01 2.629123330116271973e-01 1.162028908729553223e-01 -1.554032117128372192e-01
5.020000000000000000e+02 1.291372394561767578e+01 -1.305669116973876953e+01 -1.278883870691061020e-02 2.345407605171203613e-01 6.652557849884033203e-02 -2.161016017198562622e-01
5.030000000000000000e+02 1.585334682464599609e+01 -1.084765529632568359e+01 -1.970823258161544800e-01 3.220399618148803711e-01 3.748729079961776733e-02 -1.564207226037979126e-01
5.040000000000000000e+02 1.520580005645751953e+01 -5.511100769042968750e+00 -3.859742879867553711e-01 3.211808204650878906e-02 -1.061568632721900940e-01 7.051586359739303589e-02
5.050000000000000000e+02 1.838173675537109375e+01 -5.623586654663085938e+00 -4.660504162311553955e-01 -2.718648016452789307e-01 -2.213745564222335815e-01 1.814949065446853638e-01
5.060000000000000000e+02 1.656144142150878906e+01 -3.683975458145141602e+00 -2.272300571203231812e-01 -2.106702774763107300e-01 -1.313700973987579346e-01 7.693693786859512329e-02
5.070000000000000000e+02 1.016473293304443359e+01 -2.571846008300781250e+00 -1.127585619688034058e-01 -2.323790686205029488e-03 -3.452470526099205017e-02 -1.571646146476268768e-02
5.080000000000000000e+02 7.316030979156494141e+00 -3.223367929458618164e+00 -9.392935037612915039e-02 1.884687505662441254e-02 -2.252474240958690643e-02 -5.153388902544975281e-02
5.090000000000000000e+02 8.059307098388671875e+00 -5.354098796844482422e+00 -7.685943692922592163e-02 3.217312693595886230e-02 -1.340589206665754318e-02 -7.526209205389022827e-02
5.100000000000000000e+02 8.252857208251953125e+00 -1.132939243316650391e+01 -4.561457410454750061e-02 2.857900038361549377e-02 -5.110672209411859512e-03 -2.030673623085021973e-01
5.110000000000000000e+02 9.560202598571777344e+00 -1.351202201843261719e+01 -1.354262977838516235e-02 3.171922266483306885e-02 5.452977959066629410e-03 -2.080698311328887939e-01
5.120000000000000000e+02 6.455957889556884766e+00 -1.750574111938476562e+01 3.095416352152824402e-02 -1.241113841533660889e-01 -2.794716693460941315e-02 -1.551539599895477295e-01
5.130000000000000000e+02 6.896893501281738281e+00 -2.157132148742675781e+01 5.318454653024673462e-02 -1.497314572334289551e-01 -2.896407246589660645e-02 -1.204687580466270447e-01
5.140000000000000000e+02 4.979810237884521484e+00 -2.356861877441406250e+01 2.258066087961196899e-02 -2.877853214740753174e-01 -7.956139743328094482e-02 -8.858497440814971924e-02
5.150000000000000000e+02 6.079286098480224609e+00 -2.735480308532714844e+01 2.521166019141674042e-02 -2.158691138029098511e-01 -5.719723552465438843e-02 -4.676532000303268433e-02
5.160000000000000000e+02 6.019263267517089844e+00 -3.065042877197265625e+01 3.268418833613395691e-02 -2.231576293706893921e-01 -5.714203417301177979e-02 -2.680405788123607635e-02
5.170000000000000000e+02 4.233416080474853516e+00 -3.619718170166015625e+01 9.406976401805877686e-03 -4.210805594921112061e-01 -1.235020756721496582e-01 -4.214653279632329941e-03
5.180000000000000000e+02 6.057212829589843750e+00 -3.815300369262695312e+01 -5.025974009186029434e-03 -2.147839665412902832e-01 -6.594298034906387329e-02 -1.802349346689879894e-03
5.190000000000000000e+02 1.002833938598632812e+01 -3.283145189285278320e+00 -1.224777698516845703e-01 5.611635372042655945e-02 -1.990842446684837341e-02 -1.988767832517623901e-02
5.200000000000000000e+02 4.226296424865722656e+00 -1.909156560897827148e+00 -3.381046652793884277e-02 -3.332872409373521805e-03 -1.114300172775983810e-02 -2.217449806630611420e-02
5.210000000000000000e+02 5.026200294494628906e+00 -2.737267255783081055e+00 -5.394809320569038391e-02 8.147195330820977688e-04 -1.594001241028308868e-02 -3.530307486653327942e-02
5.220000000000000000e+02 5.726090908050537109e+00 -5.207631587982177734e+00 -4.172239452600479126e-02 -2.422122471034526825e-02 -1.978308521211147308e-02 -7.688436657190322876e-02
5.230000000000000000e+02 4.196733474731445312e+00 -9.205728530883789062e+00 -2.191982232034206390e-02 -9.387377649545669556e-02 -3.473807871341705322e-02 -1.156102269887924194e-01
5.240000000000000000e+02 5.931139469146728516e+00 -1.307620716094970703e+01 -2.956745214760303497e-03 -1.135674044489860535e-01 -3.495724499225616455e-02 -1.801478862762451172e-01
5.250000000000000000e+02 3.487322568893432617e+00 -1.621994972229003906e+01 1.376762706786394119e-02 -2.909307181835174561e-01 -8.314892649650573730e-02 -1.239514723420143127e-01
5.260000000000000000e+02 7.293933629989624023e-01 -2.058620643615722656e+01 -1.011863723397254944e-02 -6.083052158355712891e-01 -1.855271607637405396e-01 -2.053596451878547668e-02
5.270000000000000000e+02 2.190175771713256836e+00 -2.057189178466796875e+01 1.518607605248689651e-02 -4.907508194446563721e-01 -1.426694244146347046e-01 -6.468742340803146362e-02
5.280000000000000000e+02 7.354533672332763672e-01 -2.200293540954589844e+01 1.035671867430210114e-02 -6.508238315582275391e-01 -1.921401470899581909e-01 -2.123910188674926758e-02
5.290000000000000000e+02 2.221031188964843750e+00 -2.339100837707519531e+01 1.298835501074790955e-02 -5.390174388885498047e-01 -1.578087359666824341e-01 -5.104081705212593079e-02
5.300000000000000000e+02 8.348771929740905762e-01 -2.765195465087890625e+01 1.053981017321348190e-02 -7.571573853492736816e-01 -2.239852696657180786e-01 -1.120296213775873184e-02
5.310000000000000000e+02 2.529022216796875000e+00 -2.761257362365722656e+01 -1.385061186738312244e-03 -5.714507102966308594e-01 -1.718507260084152222e-01 -2.877593971788883209e-02
5.320000000000000000e+02 5.756691098213195801e-01 -3.465031433105468750e+01 -6.284646689891815186e-03 -8.185123205184936523e-01 -2.474390864372253418e-01 -6.564476527273654938e-03
5.330000000000000000e+02 7.338468432426452637e-01 -3.594966506958007812e+01 1.805332116782665253e-02 -8.108949661254882812e-01 -2.378524839878082275e-01 1.075029931962490082e-02
5.340000000000000000e+02 1.325937628746032715e+00 -4.008317184448242188e+01 2.596287801861763000e-02 -7.127760052680969238e-01 -2.060439437627792358e-01 3.512528538703918457e-02
5.350000000000000000e+02 8.695039153099060059e-01 -3.731641387939453125e+01 1.537040108814835548e-03 -7.760434746742248535e-01 -2.323519289493560791e-01 2.454826235771179199e-02
5.360000000000000000e+02 3.381830453872680664e+00 -3.593391180038452148e+00 -2.561531588435173035e-02 -2.752440981566905975e-02 -1.594191789627075195e-02 -4.008028656244277954e-02
5.370000000000000000e+02 1.767158031463623047e+00 -9.300510406494140625e+00 -1.013454631902277470e-03 -1.444817632436752319e-01 -4.364856332540512085e-02 -5.932911485433578491e-02
5.380000000000000000e+02 2.969430685043334961e+00 -9.281511306762695312e+00 -1.723725162446498871e-02 -1.182925552129745483e-01 -4.065894335508346558e-02 -9.651266783475875854e-02
5.390000000000000000e+02 2.085705280303955078e+00 -1.629094696044921875e+01 -5.830281879752874374e-03 -3.642424643039703369e-01 -1.110218241810798645e-01 -8.059154450893402100e-02
5.400000000000000000e+02 1.975329518318176270e+00 -1.345736217498779297e+01 -8.625200018286705017e-03 -2.733008861541748047e-01 -8.457782119512557983e-02 -8.200199902057647705e-02
5.410000000000000000e+02 2.018655538558959961e+00 -4.163902282714843750e+01 -4.377259686589241028e-02 -6.952704191207885742e-01 -2.217129021883010864e-01 1.214223075658082962e-02
5.420000000000000000e+02 1.562132930755615234e+01 -3.759845733642578125e+01 1.991413999348878860e-03 7.752749323844909668e-01 2.331798970699310303e-01 3.194068558514118195e-03
5.430000000000000000e+02 1.393682289123535156e+01 -3.461178970336914062e+01 3.639034926891326904e-02 5.870689153671264648e-01 1.870377808809280396e-01 5.014238879084587097e-03
5.440000000000000000e+02 1.693275070190429688e+01 -3.158923339843750000e+01 4.290641844272613525e-02 9.174637794494628906e-01 2.881110608577728271e-01 -1.227036491036415100e-02
5.450000000000000000e+02 1.605245780944824219e+01 -2.799495697021484375e+01 8.803745359182357788e-02 7.996428608894348145e-01 2.663041055202484131e-01 -7.607966661453247070e-03
5.460000000000000000e+02 1.540805912017822266e+01 -2.460737419128417969e+01 1.124967783689498901e-01 6.902874112129211426e-01 2.408352643251419067e-01 -1.139423809945583344e-02
5.470000000000000000e+02 1.642465019226074219e+01 -1.908568382263183594e+01 2.037690132856369019e-01 6.578396558761596680e-01 2.584826052188873291e-01 -4.255920648574829102e-02
5.480000000000000000e+02 2.018940162658691406e+01 -1.684473609924316406e+01 2.569530010223388672e-01 1.063277959823608398e+00 3.960693180561065674e-01 2.214710861444473267e-01
5.490000000000000000e+02 1.722633552551269531e+01 -1.385540676116943359e+01 1.856241226196289062e-01 4.848243594169616699e-01 2.011345475912094116e-01 1.333551947027444839e-02
5.500000000000000000e+02 1.831260299682617188e+01 -9.257557868957519531e+00 -5.151134133338928223e-01 4.585974384099245071e-03 -1.531582325696945190e-01 -5.046039447188377380e-02
5.510000000000000000e+02 2.038074493408203125e+01 -7.843520641326904297e+00 -1.003278970718383789e+00 -4.404284954071044922e-01 -4.331122636795043945e-01 3.824117779731750488e-01
5.520000000000000000e+02 1.930313110351562500e+01 -6.777922630310058594e+00 -5.242696404457092285e-01 -1.659050136804580688e-01 -2.070524096488952637e-01 4.507414102554321289e-01
5.530000000000000000e+02 1.707556533813476562e+01 -4.085361099243164062e+01 8.507305756211280823e-03 9.633290171623229980e-01 2.915509045124053955e-01 1.400685962289571762e-02
5.540000000000000000e+02 1.804898071289062500e+01 -3.583152389526367188e+01 2.308027260005474091e-02 1.061779141426086426e+00 3.254578411579132080e-01 -6.037916988134384155e-03
5.550000000000000000e+02 1.921477699279785156e+01 -3.328648757934570312e+01 4.048857465386390686e-02 1.158729672431945801e+00 3.597654998302459717e-01 3.095090389251708984e-02
5.560000000000000000e+02 2.014466667175292969e+01 -3.093576812744140625e+01 5.095641687512397766e-02 1.268223643302917480e+00 3.957540392875671387e-01 2.329024486243724823e-02
5.570000000000000000e+02 1.933605384826660156e+01 -2.735094070434570312e+01 7.703432440757751465e-02 1.181968569755554199e+00 3.777008652687072754e-01 2.194344252347946167e-02
5.580000000000000000e+02 2.052562141418457031e+01 -2.304222679138183594e+01 1.024826914072036743e-01 1.285495400428771973e+00 4.163934290409088135e-01 5.337458103895187378e-02
5.590000000000000000e+02 2.080782890319824219e+01 -1.776538848876953125e+01 1.475639343261718750e-01 1.173706531524658203e+00 3.963811397552490234e-01 2.113620787858963013e-01
5.600000000000000000e+02 2.194096946716308594e+01 -1.694367027282714844e+01 1.454946696758270264e-01 1.602062463760375977e+00 5.242671370506286621e-01 2.690236568450927734e-01
5.610000000000000000e+02 2.344377708435058594e+01 -1.185439109802246094e+01 1.448121070861816406e-01 1.869203090667724609e+00 6.042045354843139648e-01 9.620016813278198242e-01
5.620000000000000000e+02 2.096735382080078125e+01 -1.010816287994384766e+01 -5.003463029861450195e-01 -1.105112880468368530e-01 -1.832572668790817261e-01 -1.175512094050645828e-02
5.630000000000000000e+02 2.220734977722167969e+01 -1.089111804962158203e+01 3.093492686748504639e-01 6.239624023437500000e-01 2.799935042858123779e-01 7.909928560256958008e-01
5.640000000000000000e+02 2.161949348449707031e+01 -8.666174888610839844e+00 -1.266999483108520508e+00 -1.564369648694992065e-01 -4.270309507846832275e-01 7.510197758674621582e-01
5.650000000000000000e+02 2.185921096801757812e+01 -4.080390167236328125e+01 1.543954596854746342e-03 1.405382156372070312e+00 4.220778346061706543e-01 -4.647412337362766266e-03
5.660000000000000000e+02 2.149492645263671875e+01 -3.755277633666992188e+01 1.011155825108289719e-02 1.369820475578308105e+00 4.139796197414398193e-01 2.045892365276813507e-02
5.670000000000000000e+02 2.200548553466796875e+01 -3.464736938476562500e+01 1.998234167695045471e-02 1.440735816955566406e+00 4.382154643535614014e-01 1.198195759207010269e-02
5.680000000000000000e+02 2.244997978210449219e+01 -3.211535263061523438e+01 4.231573641300201416e-02 1.497197747230529785e+00 4.618540406227111816e-01 2.868755534291267395e-02
5.690000000000000000e+02 2.519127082824707031e+01 -2.866625976562500000e+01 8.012576401233673096e-02 1.839777827262878418e+00 5.759710669517517090e-01 1.803949102759361267e-02
5.700000000000000000e+02 2.244562721252441406e+01 -2.288163566589355469e+01 9.984496235847473145e-02 1.626638889312744141e+00 5.179451704025268555e-01 9.759703278541564941e-02
5.710000000000000000e+02 2.337733650207519531e+01 -2.019669532775878906e+01 3.333405405282974243e-02 1.895203471183776855e+00 5.785612463951110840e-01 1.381947547197341919e-01
5.720000000000000000e+02 2.655968666076660156e+01 -1.615113639831542969e+01 -3.863629698753356934e-01 3.291465997695922852e+00 8.715308904647827148e-01 -2.233881950378417969e-01
5.730000000000000000e+02 2.468104362487792969e+01 -1.294275188446044922e+01 -2.802378833293914795e-01 2.910840272903442383e+00 7.891806960105895996e-01 1.117445230484008789e+00
5.740000000000000000e+02 2.505176544189453125e+01 -9.403594017028808594e+00 9.003478288650512695e-01 7.916466712951660156e+00 2.645044326782226562e+00 1.824953079223632812e+00
5.750000000000000000e+02 2.286967849731445312e+01 -9.408951759338378906e+00 -1.128610014915466309e+00 -4.980233013629913330e-01 -4.879899919033050537e-01 7.332772016525268555e-01
5.760000000000000000e+02 2.633304214477539062e+01 -4.097552871704101562e+01 1.368662808090448380e-02 1.921273589134216309e+00 5.804880261421203613e-01 -3.069336293265223503e-03
5.770000000000000000e+02 2.519065093994140625e+01 -3.813123321533203125e+01 -2.077431790530681610e-02 1.763592362403869629e+00 5.228453874588012695e-01 -2.529265359044075012e-02
5.780000000000000000e+02 2.516161537170410156e+01 -3.542088317871093750e+01 1.402216218411922455e-02 1.732997298240661621e+00 5.241058468818664551e-01 6.765653844922780991e-03
5.790000000000000000e+02 2.661290740966796875e+01 -3.037754821777343750e+01 2.275908179581165314e-02 1.950599074363708496e+00 5.920074582099914551e-01 -3.061537072062492371e-02
5.800000000000000000e+02 2.538950157165527344e+01 -2.526654052734375000e+01 1.327069997787475586e-01 1.894184708595275879e+00 6.080675125122070312e-01 1.555378921329975128e-02
5.810000000000000000e+02 2.740406227111816406e+01 -2.120620536804199219e+01 6.107975728809833527e-03 2.257852792739868164e+00 6.791882514953613281e-01 -2.254047095775604248e-01
5.820000000000000000e+02 3.161323165893554688e+01 -1.287254714965820312e+01 5.799560546875000000e-01 2.406757116317749023e+00 8.960139155387878418e-01 -1.471391081809997559e+00
5.830000000000000000e+02 3.047754096984863281e+01 -8.687559127807617188e+00 1.361032247543334961e+00 1.774076461791992188e+00 9.405326247215270996e-01 -1.950725436210632324e+00
5.840000000000000000e+02 2.930974006652832031e+01 -1.086039543151855469e+01 6.575537919998168945e-01 4.136541366577148438e+00 1.438228487968444824e+00 -2.102189064025878906e+00
5.850000000000000000e+02 2.855241012573242188e+01 -3.921739578247070312e+01 4.955858457833528519e-03 2.054194927215576172e+00 6.177452206611633301e-01 1.116223726421594620e-02
5.860000000000000000e+02 2.838989830017089844e+01 -3.581843185424804688e+01 2.404956892132759094e-02 2.090778589248657227e+00 6.344484686851501465e-01 -4.760677367448806763e-02
5.870000000000000000e+02 2.984886360168457031e+01 -3.219835662841796875e+01 -1.239926437847316265e-03 2.241390228271484375e+00 6.720450520515441895e-01 -5.677318945527076721e-02
5.880000000000000000e+02 3.095749664306640625e+01 -2.712156677246093750e+01 1.321590095758438110e-01 2.438606739044189453e+00 7.712296843528747559e-01 -6.539976596832275391e-02
5.890000000000000000e+02 2.968454170227050781e+01 -2.857174682617187500e+01 2.257435582578182220e-02 2.223304510116577148e+00 6.737636327743530273e-01 -7.066587358713150024e-02
5.900000000000000000e+02 3.236979293823242188e+01 -1.715572547912597656e+01 5.132889151573181152e-01 2.355531454086303711e+00 8.606460690498352051e-01 -8.649914860725402832e-01
5.910000000000000000e+02 3.234402084350585938e+01 -1.406847572326660156e+01 5.775175690650939941e-01 2.306746006011962891e+00 8.652790784835815430e-01 -1.275858640670776367e+00
5.920000000000000000e+02 3.256733703613281250e+01 -4.004622268676757812e+01 3.190600499510765076e-02 2.417670249938964844e+00 7.348728775978088379e-01 -3.082762099802494049e-02
5.930000000000000000e+02 3.166703414916992188e+01 -3.562551879882812500e+01 4.765256121754646301e-02 2.404204130172729492e+00 7.355569601058959961e-01 -4.025597497820854187e-02
5.940000000000000000e+02 3.170285606384277344e+01 -3.095252037048339844e+01 8.173719048500061035e-02 2.445438385009765625e+00 7.581526637077331543e-01 -4.295368492603302002e-02
5.950000000000000000e+02 3.316013717651367188e+01 -2.913243103027343750e+01 6.227404251694679260e-02 2.501724004745483398e+00 7.691994309425354004e-01 -9.270133078098297119e-02
5.960000000000000000e+02 3.430419158935546875e+01 -2.707134056091308594e+01 1.526792943477630615e-01 2.791286945343017578e+00 8.831898570060729980e-01 -7.756341993808746338e-02
5.970000000000000000e+02 3.263509750366210938e+01 -2.326379013061523438e+01 3.115219473838806152e-01 2.539493322372436523e+00 8.553045392036437988e-01 -2.005674839019775391e-01
5.980000000000000000e+02 3.253020477294921875e+01 -2.012820053100585938e+01 4.749852716922760010e-01 2.280223608016967773e+00 8.265626430511474609e-01 -5.007239580154418945e-01
5.990000000000000000e+02 3.819939804077148438e+01 -1.727420997619628906e+01 1.861825466156005859e+00 1.057557702064514160e+00 8.758149147033691406e-01 1.397075057029724121e-01
6.000000000000000000e+02 3.589717864990234375e+01 -1.677902793884277344e+01 1.217177391052246094e+00 1.624234080314636230e+00 8.524234294891357422e-01 -8.038153648376464844e-01
6.010000000000000000e+02 3.737738037109375000e+01 -4.028199768066406250e+01 9.082002937793731689e-02 2.740347146987915039e+00 8.493501543998718262e-01 -2.954854443669319153e-02
6.020000000000000000e+02 3.425344085693359375e+01 -3.395196914672851562e+01 2.254273369908332825e-02 2.547691822052001953e+00 7.710703611373901367e-01 -9.131276607513427734e-02
6.030000000000000000e+02 3.579146957397460938e+01 -3.131609344482421875e+01 9.215322136878967285e-02 2.817736148834228516e+00 8.729668259620666504e-01 -1.218525394797325134e-01
6.040000000000000000e+02 3.682354354858398438e+01 -2.887808418273925781e+01 4.659103602170944214e-02 2.825792789459228516e+00 8.617151379585266113e-01 -1.556067168712615967e-01
6.050000000000000000e+02 3.751271438598632812e+01 -2.674851608276367188e+01 1.363769173622131348e-01 3.082214593887329102e+00 9.655774235725402832e-01 -1.241601556539535522e-01
6.060000000000000000e+02 3.623921966552734375e+01 -2.385227394104003906e+01 3.566589653491973877e-01 2.964106321334838867e+00 9.962295889854431152e-01 -6.304614711552858353e-03
6.070000000000000000e+02 3.584218597412109375e+01 -2.073670005798339844e+01 8.215029835700988770e-01 2.667584657669067383e+00 1.046726346015930176e+00 3.530854731798171997e-02
6.080000000000000000e+02 3.788618087768554688e+01 -3.632739257812500000e+01 1.068903133273124695e-01 2.821758270263671875e+00 8.785945773124694824e-01 -9.705404192209243774e-02
6.090000000000000000e+02 3.900992202758789062e+01 -3.307046890258789062e+01 6.550718843936920166e-02 2.876024246215820312e+00 8.824594616889953613e-01 -1.850279122591018677e-01
6.100000000000000000e+02 3.985454940795898438e+01 -3.012348365783691406e+01 1.246835365891456604e-01 3.085763454437255859e+00 9.631341099739074707e-01 -2.265279442071914673e-01
6.110000000000000000e+02 3.978667068481445312e+01 -2.547938537597656250e+01 4.429157823324203491e-02 3.371178865432739258e+00 1.024641156196594238e+00 -2.064262181520462036e-01
6.120000000000000000e+02 4.016176223754882812e+01 -2.401986885070800781e+01 -1.252859830856323242e-01 3.356640815734863281e+00 9.694064855575561523e-01 -3.965750932693481445e-01
6.130000000000000000e+02 4.165977859497070312e+01 -1.903574752807617188e+01 -3.241273164749145508e-01 4.803724288940429688e+00 1.343878984451293945e+00 -2.594506442546844482e-01
6.140000000000000000e+02 3.752981567382812500e+01 -1.568158626556396484e+01 6.736630201339721680e-01 7.860934734344482422e-01 4.379269480705261230e-01 -7.254965305328369141e-01
6.150000000000000000e+02 4.127753448486328125e+01 -1.716709709167480469e+01 2.659558773040771484e+00 7.294348239898681641e+00 2.986172199249267578e+00 8.668085932731628418e-01
6.160000000000000000e+02 4.221010971069335938e+01 -4.078485488891601562e+01 1.890231072902679443e-01 3.053442955017089844e+00 9.727398157119750977e-01 -4.354186728596687317e-02
6.170000000000000000e+02 4.209341049194335938e+01 -3.744612503051757812e+01 1.683499962091445923e-01 3.014670133590698242e+00 9.549060463905334473e-01 -1.012440994381904602e-01
6.180000000000000000e+02 4.258440017700195312e+01 -3.429660415649414062e+01 1.967401206493377686e-01 3.074758768081665039e+00 9.814496636390686035e-01 -1.677688360214233398e-01
6.190000000000000000e+02 4.324362182617187500e+01 -3.128785514831542969e+01 1.505060940980911255e-01 2.995205640792846680e+00 9.437135457992553711e-01 -2.851826548576354980e-01
6.200000000000000000e+02 4.458819198608398438e+01 -2.482562065124511719e+01 9.192525595426559448e-02 2.934220314025878906e+00 9.078436493873596191e-01 -7.294533848762512207e-01
6.210000000000000000e+02 4.239102935791015625e+01 -2.281129646301269531e+01 -1.654482483863830566e-01 3.470584154129028320e+00 9.915407896041870117e-01 -6.304866671562194824e-01
6.220000000000000000e+02 4.325276565551757812e+01 -1.910733795166015625e+01 5.284346938133239746e-01 4.661178112030029297e+00 1.556883811950683594e+00 -8.170421123504638672e-01
6.230000000000000000e+02 4.519233703613281250e+01 -1.649459075927734375e+01 2.061448842287063599e-01 3.044055700302124023e+00 9.750602245330810547e-01 -1.294385492801666260e-01
6.240000000000000000e+02 4.281719970703125000e+01 -1.568749237060546875e+01 1.918076395988464355e+00 4.912644386291503906e+00 2.049216270446777344e+00 5.395336151123046875e-01
6.250000000000000000e+02 4.251470184326171875e+01 -1.417148780822753906e+01 9.084923267364501953e-01 6.699764728546142578e+00 2.282477140426635742e+00 2.076519250869750977e+00
6.260000000000000000e+02 4.111452865600585938e+01 -1.414618396759033203e+01 4.265781119465827942e-02 9.620924949645996094e+00 2.899075031280517578e+00 6.486828923225402832e-01
6.270000000000000000e+02 4.113292312622070312e+01 -1.554774665832519531e+01 2.538019895553588867e+00 1.010612392425537109e+01 3.793243169784545898e+00 2.147130966186523438e+00
6.280000000000000000e+02 4.657453918457031250e+01 -4.097671127319335938e+01 2.461614608764648438e-01 3.374211072921752930e+00 1.086111783981323242e+00 -1.119557200581766665e-04
6.290000000000000000e+02 4.580400085449218750e+01 -3.811365127563476562e+01 2.458671033382415771e-01 3.270816326141357422e+00 1.055005073547363281e+00 -6.038057431578636169e-02
6.300000000000000000e+02 4.616428375244140625e+01 -3.534028244018554688e+01 2.550126910209655762e-01 3.170124530792236328e+00 1.027541160583496094e+00 -1.059799790382385254e-01
6.310000000000000000e+02 4.661042785644531250e+01 -3.255162429809570312e+01 3.342790603637695312e-01 3.207777261734008789e+00 1.062616825103759766e+00 -1.601865291595458984e-01
6.320000000000000000e+02 4.598855209350585938e+01 -1.823571968078613281e+01 -1.928612440824508667e-01 2.195600509643554688e+00 6.008217930793762207e-01 -7.823760509490966797e-01
6.330000000000000000e+02 4.804447555541992188e+01 -1.557282352447509766e+01 -7.709219455718994141e-01 -6.465182639658451080e-03 -2.332161366939544678e-01 6.025872826576232910e-01
6.340000000000000000e+02 4.900835800170898438e+01 -3.946498489379882812e+01 2.882131934165954590e-01 3.488499164581298828e+00 1.133013725280761719e+00 -1.216205651871860027e-03
6.350000000000000000e+02 4.957456207275390625e+01 -3.642103958129882812e+01 2.995916604995727539e-01 3.562151908874511719e+00 1.158523082733154297e+00 -5.253546871244907379e-03
6.360000000000000000e+02 4.984604644775390625e+01 -3.352856826782226562e+01 3.222697973251342773e-01 3.358369112014770508e+00 1.104191660881042480e+00 1.828172989189624786e-02
6.370000000000000000e+02 5.003161239624023438e+01 -3.083861351013183594e+01 4.135499298572540283e-01 3.318054437637329102e+00 1.119481325149536133e+00 2.996523119509220123e-02
6.380000000000000000e+02 5.020357894897460938e+01 -2.843905830383300781e+01 4.451658129692077637e-01 2.924170970916748047e+00 1.010801076889038086e+00 8.171560615301132202e-02
6.390000000000000000e+02 5.223624801635742188e+01 -2.287387275695800781e+01 5.058780312538146973e-01 1.753867030143737793e+00 6.779235005378723145e-01 8.539896011352539062e-01
6.400000000000000000e+02 4.965807342529296875e+01 -2.034636116027832031e+01 -1.818670146167278290e-02 6.696532964706420898e-01 1.954399645328521729e-01 -3.381329178810119629e-01
6.410000000000000000e+02 5.274842834472656250e+01 -4.072598648071289062e+01 2.515721917152404785e-01 3.898628473281860352e+00 1.245060205459594727e+00 5.739177577197551727e-03
6.420000000000000000e+02 5.307685852050781250e+01 -3.732063674926757812e+01 2.549766600131988525e-01 3.875784635543823242e+00 1.239228367805480957e+00 8.815982192754745483e-02
6.430000000000000000e+02 5.314497375488281250e+01 -3.419567871093750000e+01 2.659310996532440186e-01 3.892209291458129883e+00 1.247442126274108887e+00 1.575497090816497803e-01
6.440000000000000000e+02 5.294382095336914062e+01 -3.126316833496093750e+01 2.945313751697540283e-01 3.609625339508056641e+00 1.171247005462646484e+00 2.664356827735900879e-01
6.450000000000000000e+02 5.289575576782226562e+01 -2.546000862121582031e+01 4.565878510475158691e-01 2.889424085617065430e+00 1.003803610801696777e+00 8.345317244529724121e-01
6.460000000000000000e+02 5.368190765380859375e+01 -2.403323364257812500e+01 3.534161746501922607e-01 3.159103393554687500e+00 1.053755879402160645e+00 1.253740906715393066e+00
6.470000000000000000e+02 5.722956848144531250e+01 -4.096716308593750000e+01 1.897465735673904419e-01 4.413401603698730469e+00 1.380944371223449707e+00 3.350427374243736267e-02
6.480000000000000000e+02 5.688943862915039062e+01 -3.780227661132812500e+01 1.739178895950317383e-01 4.403035163879394531e+00 1.373085975646972656e+00 7.005421817302703857e-02
6.490000000000000000e+02 5.675233459472656250e+01 -3.452173233032226562e+01 1.496368795633316040e-01 4.352876186370849609e+00 1.350753903388977051e+00 1.712961345911026001e-01
6.500000000000000000e+02 5.541891479492187500e+01 -2.893625450134277344e+01 7.716668397188186646e-02 4.170731544494628906e+00 1.274369478225708008e+00 5.235397219657897949e-01
6.510000000000000000e+02 5.640381622314453125e+01 -2.626655960083007812e+01 -3.860746324062347412e-01 5.229979991912841797e+00 1.453171610832214355e+00 8.613284826278686523e-01
6.520000000000000000e+02 6.150338363647460938e+01 -4.102656555175781250e+01 1.310809105634689331e-01 4.958844184875488281e+00 1.526977539062500000e+00 6.355998571962118149e-03
6.530000000000000000e+02 6.053227615356445312e+01 -3.817401885986328125e+01 1.366872191429138184e-01 4.784020423889160156e+00 1.476212263107299805e+00 6.502522528171539307e-02
6.540000000000000000e+02 6.060507965087890625e+01 -3.520407485961914062e+01 6.228325888514518738e-02 4.845302104949951172e+00 1.472275614738464355e+00 9.967054426670074463e-02
6.550000000000000000e+02 6.134437942504882812e+01 -3.225000762939453125e+01 5.093630775809288025e-02 5.076685428619384766e+00 1.538286566734313965e+00 6.036804243922233582e-02
6.560000000000000000e+02 6.380325317382812500e+01 -3.948775863647460938e+01 8.265840262174606323e-02 5.190279483795166016e+00 1.581881284713745117e+00 3.224031627178192139e-02
6.570000000000000000e+02 6.423454284667968750e+01 -3.645166778564453125e+01 9.819590300321578979e-02 5.321139335632324219e+00 1.625800490379333496e+00 1.535602263174951077e-03
6.580000000000000000e+02 6.756519317626953125e+01 -4.074925994873046875e+01 8.215669542551040649e-02 5.604681491851806641e+00 1.706051468849182129e+00 2.916707191616296768e-03
6.590000000000000000e+02 7.933412170410156250e+01 -2.504610252380371094e+01 -4.799643531441688538e-02 7.409672260284423828e+00 2.208502769470214844e+00 3.764929622411727905e-02
6.600000000000000000e+02 7.800334930419921875e+01 -2.499581336975097656e+01 2.216725423932075500e-02 7.160746097564697266e+00 2.154873847961425781e+00 1.346926987171173096e-01
6.610000000000000000e+02 7.554205322265625000e+01 -2.050740814208984375e+01 -5.689488053321838379e-01 7.416654109954833984e+00 2.054311513900756836e+00 1.430984586477279663e-01
6.620000000000000000e+02 7.197897338867187500e+01 -1.768569183349609375e+01 -7.127776145935058594e-01 8.062377929687500000e+00 2.204880237579345703e+00 2.432169914245605469e+00
6.630000000000000000e+02 6.927860260009765625e+01 -1.621022415161132812e+01 -1.817596435546875000e+00 -4.694203138351440430e-01 -6.861050128936767578e-01 1.627562880516052246e+00
6.640000000000000000e+02 7.932842254638671875e+01 -2.226754760742187500e+01 -6.670897454023361206e-02 7.513872146606445312e+00 2.234148979187011719e+00 -3.031082218512892723e-03
6.650000000000000000e+02 7.800366973876953125e+01 -2.081845855712890625e+01 -2.087907791137695312e-01 7.363255023956298828e+00 2.146339178085327148e+00 -1.019277051091194153e-01
6.660000000000000000e+02 7.375410461425781250e+01 -1.753210449218750000e+01 -4.362194538116455078e-01 8.163190841674804688e+00 2.318091392517089844e+00 2.783428430557250977e-01
6.670000000000000000e+02 7.453356933593750000e+01 -1.579482173919677734e+01 -2.489114254713058472e-01 9.282045364379882812e+00 2.709940195083618164e+00 -3.080206513404846191e-01
6.680000000000000000e+02 7.248120117187500000e+01 -1.255963325500488281e+01 6.477695107460021973e-01 1.416473102569580078e+01 4.443750381469726562e+00 6.420223712921142578e-01
6.690000000000000000e+02 7.308702850341796875e+01 -1.369134426116943359e+01 1.632077813148498535e+00 1.276991558074951172e+01 4.320598125457763672e+00 1.454899191856384277e+00
6.700000000000000000e+02 7.213542938232421875e+01 -1.473801517486572266e+01 2.656890630722045898e+00 1.394976043701171875e+01 4.981995582580566406e+00 2.844204187393188477e+00
6.710000000000000000e+02 7.142118835449218750e+01 -1.578113937377929688e+01 9.383137822151184082e-01 7.373837947845458984e+00 2.493645429611206055e+00 3.470370531082153320e+00
6.720000000000000000e+02 7.572587585449218750e+01 -1.570045852661132812e+01 4.692274332046508789e-01 8.261491775512695312e+00 2.619215726852416992e+00 -4.584128260612487793e-01
6.730000000000000000e+02 7.932520294189453125e+01 -1.946233558654785156e+01 -9.959661215543746948e-02 7.290330886840820312e+00 2.157220125198364258e+00 -1.311066299676895142e-01
6.740000000000000000e+02 7.816843414306640625e+01 -1.505259418487548828e+01 1.174691766500473022e-01 7.008349895477294922e+00 2.137745618820190430e+00 -2.960852086544036865e-01
6.750000000000000000e+02 7.799021148681640625e+01 -1.646530342102050781e+01 9.127429872751235962e-02 7.205021381378173828e+00 2.188888788223266602e+00 -4.956599771976470947e-01
6.760000000000000000e+02 7.838774108886718750e+01 -1.377523803710937500e+01 2.601910829544067383e-01 6.814490318298339844e+00 2.122404336929321289e+00 -1.524500548839569092e-01
6.770000000000000000e+02 7.633605957031250000e+01 -1.158944606781005859e+01 9.614201188087463379e-01 8.391853332519531250e+00 2.805982112884521484e+00 6.894867420196533203e-01
6.780000000000000000e+02 7.811457824707031250e+01 -7.324217796325683594e+00 8.043400943279266357e-02 8.686865806579589844e+00 2.630189895629882812e+00 1.270316362380981445e+00
6.790000000000000000e+02 7.555129241943359375e+01 -4.605690002441406250e+00 -2.641435861587524414e-01 7.427179813385009766e+00 2.148910999298095703e+00 1.263433098793029785e+00
6.800000000000000000e+02 7.628145599365234375e+01 -1.950338006019592285e+00 -5.523099899291992188e-01 7.763776779174804688e+00 2.163439989089965820e+00 1.002745151519775391e+00
6.810000000000000000e+02 7.767963409423828125e+01 3.771949291229248047e+00 -1.366434544324874878e-01 1.119474029541015625e+01 3.317429065704345703e+00 -2.578238248825073242e+00
6.820000000000000000e+02 7.935597229003906250e+01 8.398477554321289062e+00 2.911604344844818115e-01 6.352043628692626953e+00 1.992961287498474121e+00 3.498329520225524902e-01
6.830000000000000000e+02 7.690908813476562500e+01 1.158159923553466797e+01 -7.788395881652832031e-01 8.323839187622070312e+00 2.263499975204467773e+00 -4.808201491832733154e-01
6.840000000000000000e+02 7.916326904296875000e+01 1.532419776916503906e+01 1.469035539776086807e-02 7.038240432739257812e+00 2.115879297256469727e+00 -1.287425905466079712e-01
6.850000000000000000e+02 7.788995361328125000e+01 1.718259620666503906e+01 1.057976931333541870e-01 6.691343784332275391e+00 2.039142370223999023e+00 -1.779037415981292725e-01
6.860000000000000000e+02 7.621791076660156250e+01 2.104410552978515625e+01 9.077537804841995239e-02 6.700206756591796875e+00 2.037294626235961914e+00 1.593143045902252197e-01
6.870000000000000000e+02 7.784449768066406250e+01 2.362372970581054688e+01 -1.041599735617637634e-02 6.870867252349853516e+00 2.058135271072387695e+00 1.312834173440933228e-01
6.880000000000000000e+02 7.770768737792968750e+01 2.639592170715332031e+01 -2.756233885884284973e-02 6.990210533142089844e+00 2.088794469833374023e+00 1.314491629600524902e-01
6.890000000000000000e+02 7.921971130371093750e+01 3.059952545166015625e+01 -1.269718818366527557e-02 7.297617912292480469e+00 2.185476064682006836e+00 3.853847458958625793e-02
6.900000000000000000e+02 7.763568878173828125e+01 3.324976348876953125e+01 -3.755032783374190331e-03 7.193500995635986328e+00 2.156923770904541016e+00 7.926173508167266846e-02
6.910000000000000000e+02 7.572297668457031250e+01 4.036667633056640625e+01 -1.988060399889945984e-02 7.143291473388671875e+00 2.137023210525512695e+00 7.701538503170013428e-02
6.920000000000000000e+02 7.855882263183593750e+01 4.014781570434570312e+01 -2.137640491127967834e-02 7.400760650634765625e+00 2.213815212249755859e+00 -4.559117928147315979e-02
6.930000000000000000e+02 7.525044250488281250e+01 3.591984939575195312e+01 -5.867104977369308472e-02 6.957070827484130859e+00 2.069519758224487305e+00 7.651185989379882812e-02
6.940000000000000000e+02 7.401525115966796875e+01 3.341752243041992188e+01 -4.609338566660881042e-02 6.810019493103027344e+00 2.029177904129028320e+00 1.183610334992408752e-01
6.950000000000000000e+02 7.430437469482421875e+01 3.098573493957519531e+01 -5.208166316151618958e-02 6.825307846069335938e+00 2.031967878341674805e+00 1.467271298170089722e-01
6.960000000000000000e+02 7.474790954589843750e+01 2.605884552001953125e+01 -5.011361464858055115e-02 6.811099529266357422e+00 2.028295755386352539e+00 2.219888567924499512e-01
6.970000000000000000e+02 7.500694274902343750e+01 2.492705917358398438e+01 -9.533717297017574310e-03 6.794635295867919922e+00 2.035530567169189453e+00 2.137140929698944092e-01
6.980000000000000000e+02 7.333873748779296875e+01 2.415054512023925781e+01 -1.835753209888935089e-02 6.705339908599853516e+00 2.006094694137573242e+00 2.537306547164916992e-01
6.990000000000000000e+02 7.589105987548828125e+01 1.585659027099609375e+01 4.520472586154937744e-01 6.330228328704833984e+00 2.034682512283325195e+00 -3.889604806900024414e-01
7.000000000000000000e+02 7.418643951416015625e+01 1.140888881683349609e+01 9.687366336584091187e-02 4.436633586883544922e+00 1.360052108764648438e+00 -2.433639287948608398e+00
7.010000000000000000e+02 7.310923767089843750e+01 1.120850276947021484e+01 1.616074323654174805e+00 2.850219011306762695e+00 1.339887976646423340e+00 -1.787684798240661621e+00
7.020000000000000000e+02 7.511381530761718750e+01 8.884965896606445312e+00 1.566138744354248047e+00 7.807494163513183594e+00 2.812089920043945312e+00 -3.887717485427856445e+00
7.030000000000000000e+02 7.582273864746093750e+01 7.862157344818115234e+00 3.073589563369750977e+00 1.546771049499511719e+01 5.562389850616455078e+00 -4.079555034637451172e+00
7.040000000000000000e+02 7.848597717285156250e+01 5.762020587921142578e+00 1.596825569868087769e-01 9.386240959167480469e+00 2.863776922225952148e+00 -1.705916762351989746e+00
7.050000000000000000e+02 7.611717224121093750e+01 5.889410495758056641e+00 8.686292171478271484e-01 1.701251411437988281e+01 5.364342689514160156e+00 -1.225553393363952637e+00
7.060000000000000000e+02 7.597723388671875000e+01 4.699950218200683594e+00 -3.764252364635467529e-02 1.503683376312255859e+01 4.499757289886474609e+00 2.298103123903274536e-01
7.070000000000000000e+02 7.591020965576171875e+01 2.196499824523925781e+00 -1.984088778495788574e+00 8.002190589904785156e+00 1.805430531501770020e+00 -2.078042477369308472e-01
7.080000000000000000e+02 7.489269256591796875e+01 1.773883938789367676e+00 -2.895251989364624023e+00 2.463179588317871094e+00 -1.296217292547225952e-01 -4.101866185665130615e-01
7.090000000000000000e+02 7.567613220214843750e+01 -7.847763895988464355e-01 -1.239418387413024902e+00 6.147807598114013672e+00 1.472516775131225586e+00 8.913649916648864746e-01
7.100000000000000000e+02 7.391986083984375000e+01 1.113459706306457520e+00 -5.783418655395507812e+00 -5.777453780174255371e-01 -1.908349156379699707e+00 -1.905413031578063965e+00
7.110000000000000000e+02 7.310058593750000000e+01 2.977026104927062988e-01 -4.267376899719238281e+00 -5.106672048568725586e-01 -1.433413147926330566e+00 -1.761275768280029297e+00
7.120000000000000000e+02 7.214115905761718750e+01 8.757070899009704590e-01 -4.080023765563964844e+00 2.601893544197082520e-01 -1.145950436592102051e+00 -1.939667224884033203e+00
7.130000000000000000e+02 7.111360931396484375e+01 1.294581055641174316e+00 1.128411769866943359e+00 5.147578239440917969e+00 1.882797002792358398e+00 -3.053058862686157227e+00
7.140000000000000000e+02 7.100592041015625000e+01 1.389058083295822144e-01 -3.865025997161865234e+00 5.557191848754882812e+00 5.076497197151184082e-01 -4.360335350036621094e+00
7.150000000000000000e+02 7.002554321289062500e+01 1.292718410491943359e+00 8.261020779609680176e-01 7.668894290924072266e+00 2.548498868942260742e+00 -3.117042303085327148e+00
7.160000000000000000e+02 6.958107757568359375e+01 2.557658433914184570e+00 2.687550067901611328e+00 1.175908470153808594e+01 4.333990573883056641e+00 -4.067002773284912109e+00
7.170000000000000000e+02 6.845425415039062500e+01 4.878001213073730469e+00 1.430795192718505859e+00 1.348039340972900391e+01 4.473356723785400391e+00 -1.089368104934692383e+00
7.180000000000000000e+02 6.930028533935546875e+01 5.885436534881591797e+00 7.068122029304504395e-01 1.337337589263916016e+01 4.224056243896484375e+00 4.972960054874420166e-01
7.190000000000000000e+02 7.057903289794921875e+01 8.147158622741699219e+00 -1.019124031066894531e+00 2.704654932022094727e+00 5.056592822074890137e-01 -1.156436651945114136e-01
7.200000000000000000e+02 7.052410888671875000e+01 9.579520225524902344e+00 -4.307422339916229248e-01 4.386679172515869141e+00 1.186781048774719238e+00 1.374296426773071289e+00
7.210000000000000000e+02 7.202329254150390625e+01 1.128623485565185547e+01 2.007494211196899414e+00 2.446479797363281250e+00 1.336192131042480469e+00 -8.096186816692352295e-02
7.220000000000000000e+02 7.089137268066406250e+01 1.037778472900390625e+01 8.959903120994567871e-01 3.248449802398681641e+00 1.243332028388977051e+00 1.291626811027526855e+00
7.230000000000000000e+02 7.294549560546875000e+01 1.234958744049072266e+01 1.222471237182617188e+00 4.031301975250244141e+00 1.576132059097290039e+00 -6.903590559959411621e-01
7.240000000000000000e+02 7.092781066894531250e+01 1.422138500213623047e+01 1.600555419921875000e+00 5.710154056549072266e+00 2.193212747573852539e+00 1.046273946762084961e+00
7.250000000000000000e+02 6.984439849853515625e+01 1.465212917327880859e+01 1.274085283279418945e+00 6.857994556427001953e+00 2.439623832702636719e+00 1.410436391830444336e+00
7.260000000000000000e+02 6.702442169189453125e+01 1.840579605102539062e+01 -2.021442651748657227e-01 7.120897293090820312e+00 2.075625896453857422e+00 -8.661753684282302856e-02
7.270000000000000000e+02 6.349440383911132812e+01 2.231436157226562500e+01 3.055143058300018311e-01 5.359296321868896484e+00 1.699443101882934570e+00 4.229802638292312622e-02
7.280000000000000000e+02 5.670216369628906250e+01 3.146410942077636719e+01 -3.171106576919555664e-01 4.920348167419433594e+00 1.380971312522888184e+00 -3.262767568230628967e-02
7.290000000000000000e+02 5.406019592285156250e+01 3.509996032714843750e+01 -2.325351536273956299e-01 4.381388187408447266e+00 1.244655966758728027e+00 -1.526032686233520508e-01
7.300000000000000000e+02 5.122010421752929688e+01 3.615827941894531250e+01 -1.518685817718505859e-01 3.770270109176635742e+00 1.085520505905151367e+00 -1.489740610122680664e-01
7.310000000000000000e+02 5.033343124389648438e+01 3.335137176513671875e+01 -1.815905869007110596e-01 3.673115968704223633e+00 1.047457575798034668e+00 -3.037426769733428955e-01
7.320000000000000000e+02 5.244643020629882812e+01 2.980639266967773438e+01 -4.018943309783935547e-01 4.348569393157958984e+00 1.184002637863159180e+00 -2.999596595764160156e-01
7.330000000000000000e+02 5.740898513793945312e+01 2.648640632629394531e+01 -3.181658685207366943e-01 5.257215023040771484e+00 1.481714725494384766e+00 2.484622299671173096e-01
7.340000000000000000e+02 6.137647247314453125e+01 1.919047355651855469e+01 8.608452677726745605e-01 4.146930694580078125e+00 1.502332687377929688e+00 3.367453515529632568e-01
7.350000000000000000e+02 6.497261810302734375e+01 1.930902290344238281e+01 2.394963055849075317e-01 5.738816738128662109e+00 1.793493866920471191e+00 -5.887003540992736816e-01
7.360000000000000000e+02 6.540582275390625000e+01 1.293069362640380859e+01 3.982409238815307617e+00 1.363844490051269531e+01 5.286256313323974609e+00 -3.906323909759521484e+00
7.370000000000000000e+02 6.761619567871093750e+01 1.588689708709716797e+01 -4.831497743725776672e-02 8.285865783691406250e+00 2.471265077590942383e+00 5.248198509216308594e-01
7.380000000000000000e+02 6.838735961914062500e+01 1.796566200256347656e+01 -3.332006558775901794e-02 7.208215713500976562e+00 2.152468681335449219e+00 3.265396952629089355e-01
7.390000000000000000e+02 7.194218444824218750e+01 4.066238021850585938e+01 -7.284402847290039062e-02 6.611646652221679688e+00 1.961640834808349609e+00 2.476339228451251984e-02
7.400000000000000000e+02 7.293737030029296875e+01 3.511485290527343750e+01 -7.664043456315994263e-02 6.704552173614501953e+00 1.988373398780822754e+00 9.799804538488388062e-02
7.410000000000000000e+02 7.089212036132812500e+01 3.346032714843750000e+01 -9.213026612997055054e-02 6.532547950744628906e+00 1.932125329971313477e+00 1.309058517217636108e-01
7.420000000000000000e+02 7.157886505126953125e+01 2.992981719970703125e+01 -9.294787049293518066e-02 6.589276790618896484e+00 1.948898673057556152e+00 1.704072952270507812e-01
7.430000000000000000e+02 7.245439147949218750e+01 2.647599411010742188e+01 -8.571354299783706665e-02 6.676042556762695312e+00 1.977098703384399414e+00 2.156071066856384277e-01
7.440000000000000000e+02 7.159893798828125000e+01 1.902625274658203125e+01 2.516715824604034424e-01 6.634611129760742188e+00 2.065884828567504883e+00 3.936828076839447021e-01
7.450000000000000000e+02 7.339366149902343750e+01 1.793941688537597656e+01 5.851775407791137695e-01 6.354970455169677734e+00 2.082044363021850586e+00 3.142440617084503174e-01
7.460000000000000000e+02 6.712217712402343750e+01 4.066530990600585938e+01 -1.412802040576934814e-01 6.065925121307373047e+00 1.777393460273742676e+00 3.206742182374000549e-02
7.470000000000000000e+02 6.892751312255859375e+01 3.548672866821289062e+01 -1.202306598424911499e-01 6.276215553283691406e+00 1.846795439720153809e+00 1.095772311091423035e-01
7.480000000000000000e+02 6.710394287109375000e+01 3.260314178466796875e+01 -1.448811292648315430e-01 6.070393085479736328e+00 1.777653574943542480e+00 1.335731744766235352e-01
7.490000000000000000e+02 6.593946075439453125e+01 2.998165130615234375e+01 -1.218338236212730408e-01 5.970968723297119141e+00 1.754740476608276367e+00 1.406569629907608032e-01
7.500000000000000000e+02 6.718473815917968750e+01 2.647336578369140625e+01 -7.594553381204605103e-02 6.147540569305419922e+00 1.821478605270385742e+00 1.392333209514617920e-01
7.510000000000000000e+02 6.583316802978515625e+01 3.705136489868164062e+01 -1.656878888607025146e-01 5.937626838684082031e+00 1.731581687927246094e+00 6.097060069441795349e-02
7.520000000000000000e+02 6.430010986328125000e+01 3.369612884521484375e+01 -1.879703253507614136e-01 5.761290550231933594e+00 1.671996116638183594e+00 1.001851931214332581e-01
7.530000000000000000e+02 6.331892776489257812e+01 3.074037742614746094e+01 -1.547534912824630737e-01 5.634695529937744141e+00 1.643982648849487305e+00 1.303432285785675049e-01
7.540000000000000000e+02 6.355184173583984375e+01 2.640111160278320312e+01 -6.681170314550399780e-02 5.618667125701904297e+00 1.665556669235229492e+00 1.639834791421890259e-01
7.550000000000000000e+02 6.495334625244140625e+01 2.317707633972167969e+01 1.191986873745918274e-01 5.743324279785156250e+00 1.758756875991821289e+00 -3.264255449175834656e-02
7.560000000000000000e+02 6.230152130126953125e+01 4.092879486083984375e+01 -1.941512823104858398e-01 5.445038318634033203e+00 1.575266122817993164e+00 -1.330749248154461384e-03
7.570000000000000000e+02 6.172752380371093750e+01 3.768346786499023438e+01 -2.052810192108154297e-01 5.401079177856445312e+00 1.558739423751831055e+00 2.940053679049015045e-02
7.580000000000000000e+02 6.091912460327148438e+01 3.432700729370117188e+01 -2.269768267869949341e-01 5.335957050323486328e+00 1.532694101333618164e+00 4.957203939557075500e-02
7.590000000000000000e+02 6.013520812988281250e+01 3.096167755126953125e+01 -2.398166805505752563e-01 5.310170650482177734e+00 1.521106243133544922e+00 1.116817221045494080e-01
7.600000000000000000e+02 5.753952407836914062e+01 4.100771713256835938e+01 -1.981786191463470459e-01 4.802500724792480469e+00 1.381296634674072266e+00 3.917172085493803024e-03
7.610000000000000000e+02 5.736668014526367188e+01 3.474538421630859375e+01 -2.420602440834045410e-01 4.845316410064697266e+00 1.380976796150207520e+00 -3.502388298511505127e-02
7.620000000000000000e+02 5.364032745361328125e+01 3.780005264282226562e+01 -1.647176146507263184e-01 4.178180217742919922e+00 1.204038739204406738e+00 -1.083083078265190125e-01
7.630000000000000000e+02 5.273590087890625000e+01 4.083171081542968750e+01 -1.136787086725234985e-01 3.981429100036621094e+00 1.160325169563293457e+00 -5.072508379817008972e-02
7.640000000000000000e+02 2.326776695251464844e+01 3.727876281738281250e+01 2.354038357734680176e-01 7.168825864791870117e-01 2.856859266757965088e-01 1.982837356626987457e-02
7.650000000000000000e+02 2.099452018737792969e+01 3.391244506835937500e+01 1.279479116201400757e-01 6.492874622344970703e-01 2.331705987453460693e-01 9.411356411874294281e-03
7.660000000000000000e+02 2.151103210449218750e+01 3.007996559143066406e+01 -9.485954046249389648e-02 6.748473048210144043e-01 1.739963442087173462e-01 -4.575103521347045898e-02
7.670000000000000000e+02 2.169557762145996094e+01 2.608675193786621094e+01 -3.509774506092071533e-01 6.515722870826721191e-01 9.017845243215560913e-02 -2.703647315502166748e-01
7.680000000000000000e+02 2.396249389648437500e+01 2.318918037414550781e+01 -1.117453813552856445e+00 1.382354497909545898e+00 7.947018742561340332e-02 -3.254512548446655273e-01
7.690000000000000000e+02 2.097037506103515625e+01 1.993603134155273438e+01 -1.079885244369506836e+00 5.012402776628732681e-03 -3.224618732929229736e-01 -7.207800745964050293e-01
7.700000000000000000e+02 2.020872306823730469e+01 1.566800498962402344e+01 -2.925743103027343750e+00 -7.308359146118164062e-01 -1.096973657608032227e+00 -1.261210680007934570e+00
7.710000000000000000e+02 1.663347053527832031e+01 1.363484001159667969e+01 -2.215686798095703125e+00 -7.957646250724792480e-01 -9.034354686737060547e-01 -1.221147298812866211e+00
7.720000000000000000e+02 1.353644180297851562e+01 1.294957447052001953e+01 -1.492650151252746582e+00 -1.861529052257537842e-01 -5.036408901214599609e-01 -7.025033235549926758e-01
7.730000000000000000e+02 8.122525215148925781e+00 1.357842540740966797e+01 -9.159407019615173340e-01 1.286064743995666504e+00 1.110372170805931091e-01 -7.097970247268676758e-01
7.740000000000000000e+02 5.958294868469238281e+00 1.450910758972167969e+01 -6.390959620475769043e-01 1.311768651008605957e+00 2.018017917871475220e-01 -6.212071180343627930e-01
7.750000000000000000e+02 6.898555159568786621e-01 1.345278930664062500e+01 4.112838208675384521e-02 1.068665862083435059e+00 3.329382538795471191e-01 -2.052010148763656616e-01
7.760000000000000000e+02 2.113930940628051758e+00 1.479284000396728516e+01 -6.686015427112579346e-02 1.264105081558227539e+00 3.591734766960144043e-01 -4.230064153671264648e-01
7.770000000000000000e+02 5.987314581871032715e-01 9.241256713867187500e+00 -1.000958867371082306e-02 -3.922322392463684082e-01 -1.206725463271141052e-01 -1.959749758243560791e-01
7.780000000000000000e+02 1.879078507423400879e+00 1.047784233093261719e+01 -2.085894718766212463e-02 3.221866786479949951e-01 9.039832651615142822e-02 -6.116902232170104980e-01
7.790000000000000000e+02 6.619104146957397461e-01 6.435081481933593750e+00 6.940539181232452393e-02 -1.062488913536071777e+00 -2.979250550270080566e-01 -3.819131851196289062e-02
7.800000000000000000e+02 5.831392765045166016e+00 2.599390029907226562e+00 2.738940715789794922e-01 -3.256708383560180664e-01 -1.553302910178899765e-02 1.137498617172241211e+00
7.810000000000000000e+02 7.374749660491943359e+00 1.943112850189208984e+00 -7.189913988113403320e-01 -1.615231484174728394e-01 -2.641543745994567871e-01 1.565883278846740723e+00
7.820000000000000000e+02 7.149527549743652344e+00 3.543453693389892578e+00 2.247326374053955078e+00 -9.865164011716842651e-02 6.446024179458618164e-01 8.249133229255676270e-01
7.830000000000000000e+02 1.394121742248535156e+01 2.973417758941650391e+00 6.520177364349365234e+00 -2.898790597915649414e+00 1.086416006088256836e+00 -1.346159338951110840e+00
7.840000000000000000e+02 1.407517719268798828e+01 4.000025272369384766e+00 5.245437622070312500e+00 -4.951853752136230469e+00 8.807512372732162476e-02 -3.647214651107788086e+00
7.850000000000000000e+02 2.278845787048339844e+01 4.070857238769531250e+01 2.632302939891815186e-01 7.228277325630187988e-01 2.958174049854278564e-01 2.403441583737730980e-03
7.860000000000000000e+02 1.931930541992187500e+01 3.684954071044921875e+01 2.060830295085906982e-01 6.874460577964782715e-01 2.680587172508239746e-01 1.636621914803981781e-02
7.870000000000000000e+02 1.905795860290527344e+01 3.221195983886718750e+01 8.134675025939941406e-02 6.553661823272705078e-01 2.210138887166976929e-01 -1.111234910786151886e-02
7.880000000000000000e+02 1.711266517639160156e+01 3.044753074645996094e+01 5.512142553925514221e-02 5.336264371871948242e-01 1.766243726015090942e-01 1.103722956031560898e-02
7.890000000000000000e+02 2.025953674316406250e+01 2.797496795654296875e+01 -1.432252228260040283e-01 6.540426015853881836e-01 1.532452106475830078e-01 -1.651483327150344849e-01
7.900000000000000000e+02 1.909735870361328125e+01 2.135164451599121094e+01 -6.579352021217346191e-01 1.340962499380111694e-01 -1.571516841650009155e-01 -3.790287375450134277e-01
7.910000000000000000e+02 1.983834838867187500e+01 2.050731468200683594e+01 -7.412071824073791504e-01 -5.507175228558480740e-05 -2.223786860704421997e-01 -5.153641104698181152e-01
7.920000000000000000e+02 1.976144409179687500e+01 1.845377540588378906e+01 -1.138488650321960449e+00 -3.489198088645935059e-01 -4.462225437164306641e-01 -5.675493478775024414e-01
7.930000000000000000e+02 1.755704689025878906e+01 1.775985145568847656e+01 -1.465861201286315918e+00 -2.502610981464385986e-01 -5.148366689682006836e-01 -4.517334103584289551e-01
7.940000000000000000e+02 1.792275238037109375e+01 4.054329681396484375e+01 2.472603470087051392e-01 6.680620908737182617e-01 2.745967209339141846e-01 8.179609663784503937e-03
7.950000000000000000e+02 1.653409004211425781e+01 3.501485443115234375e+01 1.798985749483108521e-01 6.214842200279235840e-01 2.404148429632186890e-01 5.497505888342857361e-02
7.960000000000000000e+02 1.495276355743408203e+01 3.255400466918945312e+01 1.260467320680618286e-01 6.614800691604614258e-01 2.362580299377441406e-01 6.906373798847198486e-02
7.970000000000000000e+02 1.524072456359863281e+01 2.897073364257812500e+01 2.139440737664699554e-03 5.651342272758483887e-01 1.701820939779281616e-01 4.420274123549461365e-02
7.980000000000000000e+02 1.474768638610839844e+01 2.622793006896972656e+01 -1.416870802640914917e-01 4.769987165927886963e-01 1.005934923887252808e-01 4.571878165006637573e-02
7.990000000000000000e+02 1.697758865356445312e+01 2.337694740295410156e+01 -4.128150343894958496e-01 2.332626730203628540e-01 -5.386570841073989868e-02 -1.003540381789207458e-01
8.000000000000000000e+02 1.793012619018554688e+01 2.080078697204589844e+01 -7.896915674209594727e-01 -2.871263585984706879e-02 -2.455212622880935669e-01 -2.438235431909561157e-01
8.010000000000000000e+02 1.574745845794677734e+01 1.476698303222656250e+01 -1.745678305625915527e+00 -4.667610526084899902e-01 -6.637318134307861328e-01 -7.472301721572875977e-01
8.020000000000000000e+02 1.473549556732177734e+01 1.586222934722900391e+01 -1.423220396041870117e+00 -1.903759092092514038e-01 -4.840788841247558594e-01 -4.405881762504577637e-01
8.030000000000000000e+02 1.297383975982666016e+01 4.055683898925781250e+01 1.900458335876464844e-01 7.778266668319702148e-01 2.903617322444915771e-01 3.571270406246185303e-02
8.040000000000000000e+02 1.304825305938720703e+01 3.695578002929687500e+01 1.806686371564865112e-01 7.555065751075744629e-01 2.808525562286376953e-01 6.793566048145294189e-02
8.050000000000000000e+02 1.232407093048095703e+01 3.393156814575195312e+01 1.329181194305419922e-01 7.261918187141418457e-01 2.577329874038696289e-01 1.261982917785644531e-01
8.060000000000000000e+02 1.126916217803955078e+01 2.946410560607910156e+01 2.967328019440174103e-02 7.144376039505004883e-01 2.232332676649093628e-01 1.730176657438278198e-01
8.070000000000000000e+02 1.140333747863769531e+01 2.776308059692382812e+01 -1.076611783355474472e-02 6.498863697052001953e-01 1.917360872030258179e-01 1.574870198965072632e-01
8.080000000000000000e+02 1.286572074890136719e+01 2.383828544616699219e+01 -2.891566455364227295e-01 4.998424649238586426e-01 6.320574134588241577e-02 8.725924789905548096e-02
8.090000000000000000e+02 1.339932823181152344e+01 2.001432991027832031e+01 -6.828686594963073730e-01 2.495243400335311890e-01 -1.300033032894134521e-01 1.809579320251941681e-02
8.100000000000000000e+02 1.283732604980468750e+01 1.593127536773681641e+01 -1.204439163208007812e+00 2.134115546941757202e-01 -2.973082661628723145e-01 -2.752589881420135498e-01
8.110000000000000000e+02 1.265485572814941406e+01 1.760986900329589844e+01 -9.636654257774353027e-01 3.059525191783905029e-01 -1.973138600587844849e-01 -9.618966281414031982e-02
8.120000000000000000e+02 8.270598411560058594e+00 4.078580856323242188e+01 1.080295443534851074e-01 9.472067952156066895e-01 3.165709078311920166e-01 2.369293197989463806e-02
8.130000000000000000e+02 9.226543426513671875e+00 3.744890213012695312e+01 1.288973689079284668e-01 9.052056074142456055e-01 3.102308809757232666e-01 1.034979969263076782e-01
8.140000000000000000e+02 7.943605899810791016e+00 3.151837539672851562e+01 5.886095017194747925e-02 9.499827027320861816e-01 3.026531040668487549e-01 1.657982170581817627e-01
8.150000000000000000e+02 8.131748199462890625e+00 2.942481803894042969e+01 2.755118533968925476e-02 9.252805113792419434e-01 2.858495116233825684e-01 2.134396731853485107e-01
8.160000000000000000e+02 9.820677757263183594e+00 2.745078277587890625e+01 -4.616404697299003601e-02 7.749400138854980469e-01 2.186327874660491943e-01 2.033367604017257690e-01
8.170000000000000000e+02 9.288073539733886719e+00 2.385966491699218750e+01 -1.980439275503158569e-01 8.004915714263916016e-01 1.807343065738677979e-01 1.591096669435501099e-01
8.180000000000000000e+02 8.112051963806152344e+00 1.938995933532714844e+01 -5.007990598678588867e-01 9.516568779945373535e-01 1.352573484182357788e-01 -6.438174843788146973e-02
8.190000000000000000e+02 9.066034317016601562e+00 1.572498703002929688e+01 -9.454969167709350586e-01 1.024391412734985352e+00 2.366834692656993866e-02 -3.555689156055450439e-01
8.200000000000000000e+02 9.625773429870605469e+00 1.731232452392578125e+01 -8.345326781272888184e-01 8.634230494499206543e-01 8.667114190757274628e-03 -1.993820220232009888e-01
8.210000000000000000e+02 5.094443321228027344e+00 4.011799621582031250e+01 5.603462830185890198e-02 1.137396216392517090e+00 3.580292463302612305e-01 3.334364295005798340e-02
8.220000000000000000e+02 6.459078311920166016e+00 3.753031158447265625e+01 7.149136811494827271e-02 1.024592995643615723e+00 3.288253247737884521e-01 6.874302774667739868e-02
8.230000000000000000e+02 6.081472396850585938e+00 3.565073394775390625e+01 6.767000257968902588e-02 1.032018542289733887e+00 3.299065530300140381e-01 1.068866625428199768e-01
8.240000000000000000e+02 6.574844837188720703e+00 2.926249122619628906e+01 1.053039077669382095e-02 1.066914439201354980e+00 3.232334554195404053e-01 1.784006655216217041e-01
8.250000000000000000e+02 4.876321792602539062e+00 3.063885498046875000e+01 2.259111590683460236e-02 1.191884279251098633e+00 3.643426299095153809e-01 1.554906219244003296e-01
8.260000000000000000e+02 5.803580760955810547e+00 2.190066337585449219e+01 -1.949748098850250244e-01 1.195987820625305176e+00 3.003038763999938965e-01 6.011016294360160828e-02
8.270000000000000000e+02 5.756555080413818359e+00 2.065753936767578125e+01 -2.457790821790695190e-01 1.221621870994567871e+00 2.927528619766235352e-01 -3.859818726778030396e-02
8.280000000000000000e+02 6.069034099578857422e+00 1.807809638977050781e+01 -4.448479413986206055e-01 1.228824734687805176e+00 2.351930290460586548e-01 -2.434578388929367065e-01
8.290000000000000000e+02 4.880276203155517578e+00 1.635841369628906250e+01 -4.076526165008544922e-01 1.329959154129028320e+00 2.766919434070587158e-01 -4.507402181625366211e-01
8.300000000000000000e+02 2.045841693878173828e+00 4.161321640014648438e+01 3.093957901000976562e-02 1.179283976554870605e+00 3.630670607089996338e-01 8.980873972177505493e-03
8.310000000000000000e+02 2.632910251617431641e+00 3.790013504028320312e+01 1.472381409257650375e-02 1.208651781082153320e+00 3.670126795768737793e-01 6.161155924201011658e-02
8.320000000000000000e+02 2.073558568954467773e+00 3.433829116821289062e+01 1.013189833611249924e-02 1.307458996772766113e+00 3.952772617340087891e-01 7.551572471857070923e-02
8.330000000000000000e+02 2.006931304931640625e+00 3.169391059875488281e+01 9.454157203435897827e-03 1.399117112159729004e+00 4.225713908672332764e-01 9.395346790552139282e-02
8.340000000000000000e+02 2.113226652145385742e+00 2.757412147521972656e+01 -1.153817586600780487e-02 1.552821755409240723e+00 4.623850584030151367e-01 9.813444316387176514e-02
8.350000000000000000e+02 2.021031379699707031e+00 2.478006172180175781e+01 -3.129652142524719238e-02 1.663235664367675781e+00 4.895817339420318604e-01 7.871799916028976440e-02
8.360000000000000000e+02 1.926224708557128906e+00 2.058033180236816406e+01 -1.359872706234455109e-02 1.730379343032836914e+00 5.150341987609863281e-01 -2.026702743023633957e-03
8.370000000000000000e+02 2.016171455383300781e+00 1.773563957214355469e+01 -4.382475093007087708e-02 1.600882411003112793e+00 4.671173095703125000e-01 -1.607019901275634766e-01
8.380000000000000000e+02 6.715676188468933105e-01 1.774346733093261719e+01 -7.321258634328842163e-02 1.859936237335205078e+00 5.360171198844909668e-01 -6.730848550796508789e-02
8.390000000000000000e+02 1.784640192985534668e+00 7.878199577331542969e+00 1.452017426490783691e-01 -3.755040168762207031e-01 -6.909067928791046143e-02 -4.083150327205657959e-01
8.400000000000000000e+02 4.728910624980926514e-01 3.571898221969604492e+00 1.157728116959333420e-02 -7.683072686195373535e-01 -2.270189970731735229e-01 1.391825973987579346e-01
8.410000000000000000e+02 3.542092323303222656e+00 1.925570368766784668e+00 -3.861741423606872559e-01 -1.415013223886489868e-01 -1.583026349544525146e-01 7.380066514015197754e-01
8.420000000000000000e+02 1.385057330131530762e+00 3.400333881378173828e+00 5.754721164703369141e-02 -5.832526683807373047e-01 -1.577116400003433228e-01 3.709102869033813477e-01
8.430000000000000000e+02 2.023305702209472656e+01 2.811356782913208008e+00 4.432774066925048828e+00 9.238320350646972656e+00 4.101328372955322266e+00 2.249032706022262573e-01
8.440000000000000000e+02 2.028959274291992188e+01 5.706945061683654785e-01 2.459594756364822388e-01 4.270613670349121094e+00 1.354971885681152344e+00 -2.239978075027465820e+00
8.450000000000000000e+02 2.280559349060058594e+01 1.202817440032958984e+00 -1.806218266487121582e+00 7.427692413330078125e+00 1.686442255973815918e+00 -5.133921146392822266e+00
8.460000000000000000e+02 2.207269477844238281e+01 -1.331313848495483398e+00 4.452747344970703125e+00 8.779449462890625000e+00 3.969658851623535156e+00 -6.746237754821777344e+00
8.470000000000000000e+02 6.220878219604492188e+01 1.399359512329101562e+01 -6.809769272804260254e-01 2.904084324836730957e-01 -1.171705573797225952e-01 -5.935343503952026367e-01
8.480000000000000000e+02 5.950047683715820312e+01 1.612353706359863281e+01 1.338686347007751465e+00 2.572129011154174805e+00 1.173244595527648926e+00 1.624439358711242676e+00
8.490000000000000000e+02 5.789856338500976562e+01 1.928079795837402344e+01 4.668629169464111328e-01 4.878599643707275391e+00 1.603638648986816406e+00 1.560025691986083984e+00
8.500000000000000000e+02 5.348589324951171875e+01 2.323768424987792969e+01 -8.407844305038452148e-01 5.589011192321777344e+00 1.424468040466308594e+00 -1.737097837030887604e-02
8.510000000000000000e+02 5.052240371704101562e+01 2.532711982727050781e+01 -7.127244472503662109e-01 4.395709991455078125e+00 1.104895710945129395e+00 -7.394572496414184570e-01
8.520000000000000000e+02 5.081019210815429688e+01 2.349886131286621094e+01 -8.808847069740295410e-01 4.930575370788574219e+00 1.214907169342041016e+00 -7.525724768638610840e-01
8.530000000000000000e+02 5.050263595581054688e+01 2.075579452514648438e+01 -1.322953820228576660e+00 6.008243560791015625e+00 1.405586957931518555e+00 -1.219796061515808105e+00
8.540000000000000000e+02 5.437900924682617188e+01 1.726222801208496094e+01 -2.534127235412597656e-01 7.557802200317382812e+00 2.191316843032836914e+00 2.164796829223632812e+00
8.550000000000000000e+02 5.783245849609375000e+01 1.279282283782958984e+01 1.026178479194641113e+00 2.611113309860229492e+00 1.091187596321105957e+00 1.632639408111572266e+00
8.560000000000000000e+02 5.878530120849609375e+01 1.166343116760253906e+01 9.525661170482635498e-02 5.201647281646728516e-01 1.846264004707336426e-01 4.967113733291625977e-01
8.570000000000000000e+02 6.101153945922851562e+01 1.332698726654052734e+01 -8.451089859008789062e-01 4.542830213904380798e-02 -2.399041950702667236e-01 2.521191723644733429e-02
8.580000000000000000e+02 5.985964202880859375e+01 1.255148696899414062e+01 -1.998343318700790405e-01 4.642662107944488525e-01 7.932955771684646606e-02 1.163258329033851624e-01
8.590000000000000000e+02 6.615745544433593750e+01 9.168859481811523438e+00 1.418033599853515625e+00 1.447907257080078125e+01 4.769131660461425781e+00 1.744488596916198730e+00
8.600000000000000000e+02 6.438807678222656250e+01 7.395198345184326172e+00 1.123507380485534668e+00 5.830876350402832031e+00 2.086315155029296875e+00 2.698234081268310547e+00
8.610000000000000000e+02 6.182093048095703125e+01 4.151980876922607422e+00 -4.416651651263237000e-02 1.614103436470031738e+00 4.709810912609100342e-01 5.610728263854980469e-01
8.620000000000000000e+02 6.043867111206054688e+01 -5.183030962944030762e-01 -1.827291727066040039e+00 4.556333541870117188e+00 8.187125325202941895e-01 8.924544602632522583e-02
8.630000000000000000e+02 5.660152435302734375e+01 1.377762705087661743e-01 -2.113848209381103516e+00 1.298090696334838867e+00 -2.447272837162017822e-01 -4.308135986328125000e+00
8.640000000000000000e+02 5.763592529296875000e+01 1.001166462898254395e+00 -6.044670581817626953e+00 -1.187971591949462891e+00 -2.169792652130126953e+00 -3.137635231018066406e+00
8.650000000000000000e+02 5.278597640991210938e+01 5.333615303039550781e+00 1.566685914993286133e+00 1.448689746856689453e+01 4.816074848175048828e+00 -9.770020246505737305e-01
8.660000000000000000e+02 5.601688766479492188e+01 8.538790702819824219e+00 8.680138587951660156e-01 4.089458465576171875e+00 1.487241744995117188e+00 1.425004363059997559e+00
8.670000000000000000e+02 5.329730987548828125e+01 1.253339195251464844e+01 2.813967227935791016e+00 1.122014808654785156e+01 4.210234642028808594e+00 2.391122579574584961e+00
8.680000000000000000e+02 5.689292907714843750e+01 9.620433807373046875e+00 4.513222873210906982e-01 1.921905636787414551e+00 7.119683623313903809e-01 1.044316887855529785e+00
8.690000000000000000e+02 5.781739807128906250e+01 1.065768527984619141e+01 4.725758731365203857e-01 1.157187700271606445e+00 4.889290630817413330e-01 5.175262689590454102e-01
8.700000000000000000e+02 5.374156951904296875e+01 1.369775867462158203e+01 2.467554569244384766e+00 9.826240539550781250e+00 3.688138723373413086e+00 2.707457304000854492e+00
8.710000000000000000e+02 5.494750595092773438e+01 1.606699943542480469e+01 6.376757025718688965e-01 7.697842597961425781e+00 2.500655651092529297e+00 2.750713109970092773e+00
8.720000000000000000e+02 5.152141571044921875e+01 1.930538940429687500e+01 -1.838732957839965820e+00 6.961552143096923828e+00 1.536845803260803223e+00 -1.811888515949249268e-01
8.730000000000000000e+02 2.254542160034179688e+01 1.689064598083496094e+01 -3.411475181579589844e+00 -6.304308772087097168e-01 -1.212571740150451660e+00 -1.120946526527404785e+00
8.740000000000000000e+02 2.409571266174316406e+01 1.945673942565917969e+01 -1.373425960540771484e+00 2.835836648941040039e+00 4.387232065200805664e-01 -1.712867736816406250e+00
8.750000000000000000e+02 2.551769638061523438e+01 1.360493183135986328e+01 2.139516592025756836e+00 1.097501182556152344e+01 3.934358596801757812e+00 2.649995088577270508e+00
8.760000000000000000e+02 1.255389976501464844e+01 1.824230194091796875e+00 -1.649157144129276276e-02 5.562421083450317383e-01 1.619251519441604614e-01 -2.547877073287963867e+00
8.770000000000000000e+02 1.111114501953125000e+01 1.762429952621459961e+00 -1.337638616561889648e+00 1.628644824028015137e+00 8.730185031890869141e-02 -1.420999765396118164e+00
8.780000000000000000e+02 9.780949592590332031e+00 1.924546241760253906e+00 -1.099561214447021484e+00 1.043634176254272461e+00 -1.677811332046985626e-02 4.716570079326629639e-01
8.790000000000000000e+02 1.085922718048095703e+01 2.363264799118041992e+00 1.112038493156433105e+00 2.443383455276489258e+00 1.066626548767089844e+00 -1.162999987602233887e+00
8.800000000000000000e+02 5.843139648437500000e+00 1.088206100463867188e+01 -3.692547082901000977e-01 1.373479127883911133e+00 3.012673258781433105e-01 -1.290741086006164551e+00
8.810000000000000000e+02 3.282342672348022461e+00 6.141952037811279297e+00 6.449058055877685547e-01 -4.221071004867553711e-01 6.683959811925888062e-02 -3.126886785030364990e-01
8.820000000000000000e+02 6.703900337219238281e+00 7.990129470825195312e+00 7.957471013069152832e-01 1.196111083030700684e+00 5.975574851036071777e-01 -1.914545059204101562e+00
8.830000000000000000e+02 1.012153148651123047e+01 6.483852863311767578e+00 1.039120793342590332e+00 7.401494026184082031e+00 2.532184362411499023e+00 -1.572297930717468262e+00
8.840000000000000000e+02 1.063279914855957031e+01 7.778383255004882812e+00 -4.457458257675170898e-01 1.468872785568237305e+00 3.069380819797515869e-01 3.416241705417633057e-01
8.850000000000000000e+02 1.142393398284912109e+01 8.971358299255371094e+00 -5.181968808174133301e-01 4.828745722770690918e-01 -1.059668697416782379e-02 -4.914763569831848145e-01
8.860000000000000000e+02 1.236659431457519531e+01 1.003470420837402344e+01 -9.748098254203796387e-01 -5.069585442543029785e-01 -4.445305168628692627e-01 -5.926147699356079102e-01
8.870000000000000000e+02 1.244295501708984375e+01 1.202278327941894531e+01 -1.232369899749755859e+00 -8.497836440801620483e-02 -3.952044844627380371e-01 -5.847205519676208496e-01
8.880000000000000000e+02 1.336831188201904297e+01 1.101610279083251953e+01 -1.175554752349853516e+00 -5.786103606224060059e-01 -5.262495279312133789e-01 -9.537594318389892578e-01
8.890000000000000000e+02 1.549431324005126953e+01 1.283113574981689453e+01 -1.937421441078186035e+00 -8.657569289207458496e-01 -8.409535288810729980e-01 -1.231685161590576172e+00
8.900000000000000000e+02 2.808460807800292969e+01 1.564776539802551270e+00 -2.358171224594116211e+00 -8.849685788154602051e-01 -9.729419350624084473e-01 -5.912653803825378418e-01
8.910000000000000000e+02 3.020925903320312500e+01 -1.227866172790527344e+00 4.200055599212646484e+00 6.156283378601074219e+00 3.106901645660400391e+00 4.248995780944824219e+00
8.920000000000000000e+02 2.617259025573730469e+01 1.630021691322326660e+00 -4.810614109039306641e+00 -1.107516050338745117e+00 -1.775439023971557617e+00 -1.655501365661621094e+00
8.930000000000000000e+02 3.161454010009765625e+01 -2.522607445716857910e-01 6.925261497497558594e+00 2.589610576629638672e+00 2.854461669921875000e+00 1.440384984016418457e+00
8.940000000000000000e+02 3.076477432250976562e+01 1.355511546134948730e+00 -1.041037678718566895e+00 2.874106645584106445e+00 5.499207377433776855e-01 1.374848246574401855e+00
8.950000000000000000e+02 3.310412216186523438e+01 3.838436841964721680e+00 -1.449832558631896973e+00 1.103205204010009766e+00 -1.039881929755210876e-01 9.310129284858703613e-01
8.960000000000000000e+02 4.059567642211914062e+01 -1.124793243408203125e+01 -6.771850585937500000e-01 3.754473924636840820e+00 9.231866002082824707e-01 7.708063125610351562e-01
8.970000000000000000e+02 3.238460540771484375e+01 -9.239084243774414062e+00 8.995263576507568359e-01 1.422389626502990723e+00 6.965747475624084473e-01 -1.134360313415527344e+00
8.980000000000000000e+02 2.974811935424804688e+01 -7.360002517700195312e+00 1.546284794807434082e+00 2.187563896179199219e+00 1.120154619216918945e+00 -1.639253497123718262e+00
8.990000000000000000e+02 3.058823013305664062e+01 -5.434051036834716797e+00 2.093943208456039429e-01 -6.883457303047180176e-01 -1.436854302883148193e-01 1.547106727957725525e-02
9.000000000000000000e+02 2.907694816589355469e+01 -1.172134518623352051e+00 4.296060562133789062e+00 1.408881306648254395e+00 1.711482524871826172e+00 2.653980731964111328e+00
9.010000000000000000e+02 5.002080917358398438e+01 -1.559720706939697266e+01 -1.516240358352661133e+00 -1.391922235488891602e+00 -8.724487423896789551e-01 1.586908459663391113e+00
9.020000000000000000e+02 4.572067260742187500e+01 -1.262858963012695312e+01 -1.091555714607238770e+00 2.894223690032958984e+00 5.408003926277160645e-01 8.947980403900146484e-01
9.030000000000000000e+02 4.798157882690429688e+01 -1.343733787536621094e+01 -1.244047284126281738e+00 -7.371775507926940918e-01 -5.943674445152282715e-01 1.211645126342773438e+00
9.040000000000000000e+02 4.520595550537109375e+01 -8.358213424682617188e+00 3.173426091670989990e-01 8.607090950012207031e+00 2.677330255508422852e+00 -1.166041851043701172e+00
9.050000000000000000e+02 4.270552825927734375e+01 -5.365890979766845703e+00 2.545056819915771484e+00 6.380133152008056641e+00 2.677556991577148438e+00 1.267402410507202148e+00
9.060000000000000000e+02 4.449560165405273438e+01 -5.756212711334228516e+00 1.769796252250671387e+00 1.658283615112304688e+01 5.505789756774902344e+00 6.943221688270568848e-01
9.070000000000000000e+02 4.386564254760742188e+01 -4.634804248809814453e+00 3.441632032394409180e+00 1.291723251342773438e+01 4.907659053802490234e+00 1.952132582664489746e+00
9.080000000000000000e+02 4.659694290161132812e+01 6.854368448257446289e-01 1.565513253211975098e+00 3.606440305709838867e+00 1.551586031913757324e+00 4.468807697296142578e+00
9.090000000000000000e+02 4.727344894409179688e+01 5.923085689544677734e+00 2.942077398300170898e+00 4.210474014282226562e+00 2.145765304565429688e+00 2.923828840255737305e+00
9.100000000000000000e+02 4.825902175903320312e+01 5.032343387603759766e+00 2.847725391387939453e+00 5.338978290557861328e+00 2.456011056900024414e+00 2.995326042175292969e+00
9.110000000000000000e+02 6.625439453125000000e+01 -2.427199363708496094e+00 -6.771679878234863281e+00 -1.558222532272338867e+00 -2.498970746994018555e+00 2.897464990615844727e+00
9.120000000000000000e+02 6.813542175292968750e+01 -4.344502449035644531e+00 -2.158652067184448242e+00 3.286075592041015625e-01 -5.490133166313171387e-01 5.659031271934509277e-01
9.130000000000000000e+02 6.720122528076171875e+01 -3.333859682083129883e+00 -4.072038173675537109e+00 -5.518772602081298828e-01 -1.387174606323242188e+00 2.111554622650146484e+00
9.140000000000000000e+02 7.081582641601562500e+01 -5.640953063964843750e+00 -4.696565866470336914e-01 4.281955718994140625e+00 1.143689751625061035e+00 -1.148499369621276855e+00
9.150000000000000000e+02 7.159478759765625000e+01 -8.630867958068847656e+00 1.470227837562561035e+00 9.177274703979492188e+00 3.194250822067260742e+00 -2.857736110687255859e+00
9.160000000000000000e+02 7.231672668457031250e+01 -1.126476573944091797e+01 3.388362526893615723e-01 1.332899761199951172e+01 4.100350379943847656e+00 -5.024660229682922363e-01
9.170000000000000000e+02 7.385446166992187500e+01 -1.177260971069335938e+01 1.158974051475524902e+00 1.067847728729248047e+01 3.551235198974609375e+00 8.574531078338623047e-01
9.180000000000000000e+02 7.606804656982421875e+01 -1.056586456298828125e+01 8.287102580070495605e-01 8.452626228332519531e+00 2.784400939941406250e+00 1.160462379455566406e+00
9.190000000000000000e+02 6.906198883056640625e+01 -5.365687847137451172e+00 -4.414173066616058350e-01 1.335661053657531738e+00 2.682731449604034424e-01 -3.962922692298889160e-01
9.200000000000000000e+02 6.372669601440429688e+01 -9.586240768432617188e+00 9.213324785232543945e-01 8.621966361999511719e+00 2.862989664077758789e+00 -1.633614897727966309e+00
9.210000000000000000e+02 6.324462509155273438e+01 -6.856134891510009766e+00 5.996896624565124512e-01 1.300898838043212891e+01 4.082603454589843750e+00 -3.700805902481079102e-01
9.220000000000000000e+02 6.207647323608398438e+01 -4.256497859954833984e+00 2.385426044464111328e+00 9.635040283203125000e+00 3.606139898300170898e+00 1.223571419715881348e+00
9.230000000000000000e+02 5.570132064819335938e+01 -9.061787128448486328e-01 -7.957754731178283691e-01 5.595950603485107422e+00 1.440052509307861328e+00 -6.330598831176757812e+00
9.240000000000000000e+02 5.555551910400390625e+01 -2.668880462646484375e+00 -1.786848545074462891e+00 6.019600868225097656e+00 1.269825696945190430e+00 -4.352650165557861328e+00
9.250000000000000000e+02 6.318631744384765625e+01 -5.469870567321777344e+00 2.570522129535675049e-01 1.508819866180419922e+01 4.603575229644775391e+00 6.267399787902832031e-01
9.260000000000000000e+02 6.326013183593750000e+01 -4.118619918823242188e+00 2.414136171340942383e+00 1.618768310546875000e+01 5.580545902252197266e+00 3.294749975204467773e+00
9.270000000000000000e+02 6.019619369506835938e+01 1.690337657928466797e+00 -4.165255546569824219e+00 1.431282997131347656e+00 -8.201916813850402832e-01 -1.288045197725296021e-01
9.280000000000000000e+02 5.974481201171875000e+01 2.491402864456176758e+00 -3.572519779205322266e+00 -2.477798312902450562e-01 -1.146089911460876465e+00 -1.828987360000610352e+00
9.290000000000000000e+02 6.433361816406250000e+01 -2.275801658630371094e+00 -1.843185186386108398e+00 6.847445011138916016e+00 1.501277923583984375e+00 5.113122940063476562e+00
9.300000000000000000e+02 6.319255065917968750e+01 -2.693957090377807617e+00 1.256054639816284180e+00 1.213642406463623047e+01 4.017743587493896484e+00 2.627472162246704102e+00
9.310000000000000000e+02 6.941659545898437500e+01 -1.627077341079711914e+00 -3.242092132568359375e+00 5.056898593902587891e+00 5.444418787956237793e-01 -2.255504846572875977e+00
9.320000000000000000e+02 6.687887573242187500e+01 8.131151199340820312e+00 -3.905301690101623535e-01 1.159812450408935547e+01 3.362278223037719727e+00 -7.719774246215820312e-01
9.330000000000000000e+02 6.589810180664062500e+01 1.165509605407714844e+01 2.701930999755859375e+00 2.083868026733398438e+01 7.062183380126953125e+00 -9.147027730941772461e-01
9.340000000000000000e+02 6.583863830566406250e+01 1.032017993927001953e+01 1.352481842041015625e+00 1.883118629455566406e+01 6.055100440979003906e+00 2.637069463729858398e+00
9.350000000000000000e+02 6.276390457153320312e+01 1.625455665588378906e+01 1.101561784744262695e+00 2.789752960205078125e+00 1.167394399642944336e+00 -9.662148952484130859e-01
9.360000000000000000e+02 6.207058715820312500e+01 1.769859886169433594e+01 1.208214163780212402e+00 3.442522764205932617e+00 1.395221114158630371e+00 8.324569091200828552e-03
9.370000000000000000e+02 6.069668579101562500e+01 2.072432708740234375e+01 6.518599390983581543e-01 4.592072010040283203e+00 1.573179602622985840e+00 6.004390120506286621e-01
9.380000000000000000e+02 5.624984359741210938e+01 2.290374946594238281e+01 -3.929171562194824219e-01 5.516015052795410156e+00 1.536929368972778320e+00 6.392763853073120117e-01
9.390000000000000000e+02 5.355651092529296875e+01 2.635862159729003906e+01 -6.254544258117675781e-01 4.999380588531494141e+00 1.312177777290344238e+00 -1.499944478273391724e-01
9.400000000000000000e+02 4.957262420654296875e+01 3.068352317810058594e+01 -2.651752531528472900e-01 3.578760862350463867e+00 9.940757155418395996e-01 -4.326151311397552490e-01
9.410000000000000000e+02 4.885152435302734375e+01 2.819046211242675781e+01 -3.226777613162994385e-01 3.591795444488525391e+00 9.807353615760803223e-01 -6.166670918464660645e-01
9.420000000000000000e+02 4.226564788818359375e+01 8.334975838661193848e-01 1.577824652194976807e-01 1.924947977066040039e+00 6.248191595077514648e-01 1.110445857048034668e+00
9.430000000000000000e+02 2.576062965393066406e+01 1.120327758789062500e+01 -2.509306907653808594e+00 6.203855037689208984e+00 1.108364343643188477e+00 9.384782910346984863e-01
9.440000000000000000e+02 7.927400970458984375e+01 1.385765266418457031e+01 -1.706539886072278023e-03 7.291854381561279297e+00 2.187044382095336914e+00 -1.425589621067047119e-01
9.450000000000000000e+02 7.627877807617187500e+01 1.251103210449218750e+01 -2.305279225111007690e-01 7.205554008483886719e+00 2.092507839202880859e+00 -1.320657968521118164e+00
9.460000000000000000e+02 5.755340194702148438e+01 1.687909889221191406e+01 8.994381427764892578e-01 4.488199710845947266e+00 1.616291403770446777e+00 2.382670879364013672e+00
9.470000000000000000e+02 3.601823806762695312e+01 1.789364433288574219e+01 -1.231761574745178223e+00 -5.042585134506225586e-01 -5.208060145378112793e-01 -2.947784364223480225e-01
9.480000000000000000e+02 3.959093475341796875e+01 1.600640296936035156e+01 -1.880769014358520508e+00 5.724352598190307617e-01 -3.925001323223114014e-01 -8.089111000299453735e-02
9.490000000000000000e+02 3.081868362426757812e+01 1.627796936035156250e+01 -5.326879620552062988e-01 -3.581574559211730957e-01 -2.672536373138427734e-01 9.232791662216186523e-01
9.500000000000000000e+02 2.875115776062011719e+01 1.461675071716308594e+01 4.061755537986755371e-01 1.111133337020874023e+00 4.551926553249359131e-01 5.130404829978942871e-01
9.510000000000000000e+02 5.297798538208007812e+01 1.133838176727294922e+01 2.926494359970092773e+00 1.203198337554931641e+01 4.487543106079101562e+00 1.455101966857910156e+00
9.520000000000000000e+02 2.935931396484375000e+01 1.345055675506591797e+01 -9.390718340873718262e-01 -9.365714788436889648e-01 -5.626929998397827148e-01 -7.437496185302734375e-01
9.530000000000000000e+02 5.127107620239257812e+01 4.197621345520019531e+00 3.023564338684082031e+00 1.043788909912109375e+01 4.038435935974121094e+00 4.214667677879333496e-01
9.540000000000000000e+02 4.978440093994140625e+01 7.050281763076782227e-01 1.939736008644104004e+00 4.791697978973388672e+00 2.019430160522460938e+00 2.073121070861816406e+00
9.550000000000000000e+02 6.396166229248046875e+01 -8.827133774757385254e-01 -3.655511856079101562e+00 6.945722103118896484e+00 9.870631098747253418e-01 4.962996959686279297e+00
9.560000000000000000e+02 6.498586273193359375e+01 -3.811803162097930908e-01 -1.622993230819702148e+00 5.127439975738525391e+00 1.051334023475646973e+00 5.209403514862060547e+00
9.570000000000000000e+02 6.894499206542968750e+01 6.956420540809631348e-01 -1.689069628715515137e+00 8.672265052795410156e+00 2.094958543777465820e+00 -1.509536504745483398e+00
9.580000000000000000e+02 7.831431579589843750e+01 1.278835415840148926e+00 -7.581316232681274414e-01 1.165645122528076172e+01 3.269495725631713867e+00 -1.044307708740234375e+00
9.590000000000000000e+02 3.006806945800781250e+01 -2.602177858352661133e+00 -1.995082199573516846e-02 2.234540700912475586e+00 6.643769741058349609e-01 1.021399497985839844e+00
9.600000000000000000e+02 2.548687744140625000e+01 -3.780510902404785156e+00 3.450450897216796875e+00 8.050904273986816406e+00 3.450406789779663086e+00 -2.884582996368408203e+00
9.610000000000000000e+02 4.037496566772460938e+01 -2.144369602203369141e+00 9.940465092658996582e-01 4.369942843914031982e-01 4.293122589588165283e-01 -7.735443860292434692e-02
9.620000000000000000e+02 5.174659347534179688e+01 -3.772648096084594727e+00 -4.675228118896484375e+00 3.322242021560668945e+00 -4.058957993984222412e-01 -4.266240894794464111e-01
9.630000000000000000e+02 5.362060165405273438e+01 -4.231162548065185547e+00 -3.220818758010864258e+00 5.426311969757080078e+00 6.616480350494384766e-01 -1.921309828758239746e+00
9.640000000000000000e+02 5.442241287231445312e+01 -5.285777568817138672e+00 -2.085301637649536133e+00 5.580946922302246094e+00 1.048693656921386719e+00 -1.443489909172058105e+00
9.650000000000000000e+02 5.257649612426757812e+01 -6.719764709472656250e+00 -2.849726080894470215e-01 2.354614257812500000e+00 6.208924651145935059e-01 -8.116559386253356934e-01
9.660000000000000000e+02 5.912567138671875000e+01 -3.733780622482299805e+00 7.251834273338317871e-01 5.844698429107666016e+00 1.970964670181274414e+00 -7.557519674301147461e-01
9.670000000000000000e+02 6.996421051025390625e+01 -4.586833000183105469e+00 -1.684899926185607910e+00 3.150940895080566406e+00 4.398123025894165039e-01 -9.498541355133056641e-01
9.680000000000000000e+02 7.174341583251953125e+01 -4.830257415771484375e+00 -1.297090053558349609e+00 5.193469524383544922e+00 1.168913841247558594e+00 -9.544461965560913086e-01
9.690000000000000000e+02 7.421802520751953125e+01 -2.177392244338989258e+00 -5.087105035781860352e-01 4.736829757690429688e+00 1.268435835838317871e+00 1.810002177953720093e-01
9.700000000000000000e+02 7.803222656250000000e+01 -4.352499485015869141e+00 -9.336842224001884460e-03 9.809595108032226562e+00 2.940077304840087891e+00 1.285304903984069824e+00
9.710000000000000000e+02 7.341927337646484375e+01 -5.493436813354492188e+00 -5.813188552856445312e-01 6.693525314331054688e+00 1.833661913871765137e+00 3.766606748104095459e-01
9.720000000000000000e+02 3.864905166625976562e+01 4.869211673736572266e+00 6.022293120622634888e-02 -1.343681514263153076e-01 -2.224356867372989655e-02 4.132732003927230835e-02
9.730000000000000000e+02 3.918875122070312500e+01 6.027889251708984375e+00 -5.814637616276741028e-02 6.072829637560062110e-05 -1.742569357156753540e-02 2.901149727404117584e-02
9.740000000000000000e+02 8.985866546630859375e+00 1.981514811515808105e+00 -9.915940761566162109e-01 4.992051422595977783e-01 -1.477166861295700073e-01 9.887970089912414551e-01
9.750000000000000000e+02 5.807913303375244141e+00 1.869897723197937012e+00 -7.302733063697814941e-01 -4.229244291782379150e-01 -3.459593057632446289e-01 1.222036719322204590e+00
9.760000000000000000e+02 8.784078598022460938e+00 -1.833779454231262207e+00 -9.529107809066772461e-02 2.596284076571464539e-02 -2.079847082495689392e-02 -2.291733212769031525e-02
9.770000000000000000e+02 4.933118343353271484e+00 -5.998118400573730469e+00 -3.832508996129035950e-02 -4.364884644746780396e-02 -2.459217980504035950e-02 -8.031872659921646118e-02
9.780000000000000000e+02 9.567090988159179688e+00 -5.272098064422607422e+00 -1.286603063344955444e-01 2.586015127599239349e-02 -3.084004484117031097e-02 -9.993991255760192871e-02
9.790000000000000000e+02 1.636500549316406250e+01 -7.154017448425292969e+00 -4.813258647918701172e-01 1.283514946699142456e-01 -1.058923080563545227e-01 3.549270704388618469e-02
9.800000000000000000e+02 1.316077136993408203e+01 -5.502614498138427734e+00 -2.908238768577575684e-01 7.187242805957794189e-02 -6.568542867898941040e-02 -3.842414170503616333e-02
9.810000000000000000e+02 2.765434980392456055e+00 -2.660614967346191406e+00 -2.234695665538311005e-02 -9.978488087654113770e-03 -9.697633795440196991e-03 -1.925621554255485535e-02
9.820000000000000000e+02 4.348227977752685547e+00 -1.049960136413574219e+01 -2.569369785487651825e-02 -1.053249016404151917e-01 -3.930557891726493835e-02 -1.376695781946182251e-01
9.830000000000000000e+02 6.826063156127929688e+00 -8.890401840209960938e+00 -6.819459050893783569e-02 -2.153277769684791565e-02 -2.691821008920669556e-02 -1.514811962842941284e-01
9.840000000000000000e+02 1.695520401000976562e+01 -1.078547000885009766e+01 -2.287884801626205444e-01 1.303642690181732178e-01 -2.952726371586322784e-02 -2.041547298431396484e-01
9.850000000000000000e+02 1.258788776397705078e+01 -8.951362609863281250e+00 -1.952338814735412598e-01 1.824731528759002686e-01 -3.828218439593911171e-03 -1.307499408721923828e-01
9.860000000000000000e+02 1.715079665184020996e+00 -7.953148365020751953e+00 -8.982615545392036438e-03 -1.042157858610153198e-01 -3.395951911807060242e-02 -5.303768441081047058e-02
9.870000000000000000e+02 4.486126899719238281e+00 -1.185313129425048828e+01 -8.505516685545444489e-03 -1.428353339433670044e-01 -4.540225490927696228e-02 -1.461059153079986572e-01
9.880000000000000000e+02 9.383127212524414062e+00 -1.455066490173339844e+01 3.618898987770080566e-02 5.638862401247024536e-02 2.777328342199325562e-02 -1.978896856307983398e-01
9.890000000000000000e+02 1.590385913848876953e+01 -1.420276546478271484e+01 9.514190256595611572e-02 2.757008075714111328e-01 1.112528145313262939e-01 -1.680023223161697388e-01
9.900000000000000000e+02 1.157325839996337891e+01 -1.220105075836181641e+01 -4.487461224198341370e-02 1.731998175382614136e-01 3.849755972623825073e-02 -2.294847369194030762e-01
9.910000000000000000e+02 1.920630645751953125e+01 -1.110873031616210938e+01 -1.767938286066055298e-01 1.368044167757034302e-01 -1.199682336300611496e-02 -1.535975039005279541e-01
9.920000000000000000e+02 4.982343196868896484e+00 -1.756724548339843750e+01 2.466301806271076202e-02 -2.359229028224945068e-01 -6.337796896696090698e-02 -1.519101113080978394e-01
9.930000000000000000e+02 7.816631317138671875e+00 -1.727702713012695312e+01 5.942703410983085632e-02 -8.368690311908721924e-02 -7.277959957718849182e-03 -1.887033730745315552e-01
9.940000000000000000e+02 1.034176349639892578e+01 -1.759014129638671875e+01 7.875581085681915283e-02 7.641244679689407349e-02 4.655047878623008728e-02 -1.860559731721878052e-01
9.950000000000000000e+02 1.917374420166015625e+01 -1.434278202056884766e+01 2.613389492034912109e-01 6.875162124633789062e-01 2.846565544605255127e-01 1.421348750591278076e-01
9.960000000000000000e+02 2.154013061523437500e+01 -1.231686687469482422e+01 1.981837749481201172e-01 7.944526076316833496e-01 2.977909147739410400e-01 4.932428598403930664e-01
9.970000000000000000e+02 3.041289138793945312e+01 -1.350375461578369141e+01 3.425372838973999023e-01 2.973036050796508789e+00 9.946720004081726074e-01 -1.416045904159545898e+00
9.980000000000000000e+02 5.095765590667724609e+00 -2.045379638671875000e+01 3.349323198199272156e-02 -2.576961815357208252e-01 -6.726088374853134155e-02 -1.257657706737518311e-01
9.990000000000000000e+02 1.573997688293457031e+01 -1.593029117584228516e+01 2.219790369272232056e-01 4.638386666774749756e-01 2.057453095912933350e-01 -3.944021090865135193e-02
1.000000000000000000e+03 1.848752403259277344e+01 -1.551992034912109375e+01 2.129689455032348633e-01 7.009476423263549805e-01 2.741749882698059082e-01 1.093147322535514832e-01
1.001000000000000000e+03 3.034701919555664062e+01 -1.660389328002929688e+01 2.410321235656738281e-01 2.638768434524536133e+00 8.639401197433471680e-01 -8.373301625251770020e-01
1.002000000000000000e+03 3.374347686767578125e+01 -1.641267395019531250e+01 7.563836574554443359e-01 2.025625467300415039e+00 8.346027135848999023e-01 -1.072271585464477539e+00
1.003000000000000000e+03 5.430367660522460938e+01 -2.006507873535156250e+01 -9.978620409965515137e-01 1.133500576019287109e+00 4.069154709577560425e-02 3.031853437423706055e+00
1.004000000000000000e+03 5.777812576293945312e+01 -2.444942283630371094e+01 -2.250841110944747925e-01 5.618490219116210938e+00 1.618021845817565918e+00 6.319484710693359375e-01
1.005000000000000000e+03 6.236999893188476562e+01 -2.664332962036132812e+01 -1.705488562583923340e-01 5.401608943939208984e+00 1.569318056106567383e+00 -2.969614267349243164e-01
1.006000000000000000e+03 6.607558441162109375e+01 -2.862903213500976562e+01 1.386814564466476440e-01 5.345426559448242188e+00 1.645232319831848145e+00 -1.216140836477279663e-01
1.007000000000000000e+03 6.765225982666015625e+01 -3.443231582641601562e+01 1.194410845637321472e-01 5.631262302398681641e+00 1.725211024284362793e+00 2.887923456728458405e-02
1.008000000000000000e+03 7.094667053222656250e+01 -3.771133422851562500e+01 6.341496855020523071e-02 5.987057685852050781e+00 1.815141797065734863e+00 2.901063300669193268e-02
1.009000000000000000e+03 7.356898498535156250e+01 -3.771971511840820312e+01 4.362700507044792175e-02 6.236843585968017578e+00 1.884141206741333008e+00 4.201499000191688538e-02
1.010000000000000000e+03 7.517017364501953125e+01 -3.730961608886718750e+01 2.420725487172603607e-02 6.468280315399169922e+00 1.947746276855468750e+00 5.802094005048274994e-03
1.011000000000000000e+03 7.484434509277343750e+01 -3.479637908935546875e+01 5.297895148396492004e-02 6.394632339477539062e+00 1.934283375740051270e+00 6.845720857381820679e-02
1.012000000000000000e+03 7.204901885986328125e+01 -3.207455825805664062e+01 1.165976822376251221e-01 6.020825862884521484e+00 1.841227054595947266e+00 1.118745207786560059e-01
1.013000000000000000e+03 6.824728393554687500e+01 -2.937352180480957031e+01 2.478626817464828491e-01 5.496652126312255859e+00 1.723354458808898926e+00 1.249107252806425095e-02
1.014000000000000000e+03 6.600118255615234375e+01 -2.462744140625000000e+01 2.510191798210144043e-01 5.023530006408691406e+00 1.582364797592163086e+00 -4.118433296680450439e-01
1.015000000000000000e+03 6.044792938232421875e+01 -1.910794448852539062e+01 4.142189025878906250e-01 6.826570510864257812e+00 2.172236919403076172e+00 -1.165095329284667969e+00
1.016000000000000000e+03 5.540298461914062500e+01 -1.920271682739257812e+01 -1.691149771213531494e-01 7.018196582794189453e+00 2.054724454879760742e+00 3.388950586318969727e+00
1.017000000000000000e+03 6.168529510498046875e+01 -1.255761432647705078e+01 -1.110594812780618668e-02 7.607105255126953125e+00 2.278799772262573242e+00 3.747024238109588623e-01
1.018000000000000000e+03 6.122710800170898438e+01 -1.015805625915527344e+01 2.109467685222625732e-01 8.683678627014160156e+00 2.668387651443481445e+00 8.636248707771301270e-01
1.019000000000000000e+03 6.248456954956054688e+01 -9.850626945495605469e+00 1.290603429079055786e-01 8.449748039245605469e+00 2.573642492294311523e+00 2.705335617065429688e-01
1.020000000000000000e+03 6.167780303955078125e+01 -1.848730087280273438e+01 6.401553153991699219e-01 6.467653751373291016e+00 2.132342576980590820e+00 -1.300890326499938965e+00
1.021000000000000000e+03 6.730702972412109375e+01 -2.080477714538574219e+01 9.348931312561035156e-01 3.735350847244262695e+00 1.401073217391967773e+00 -2.129938602447509766e-01
1.022000000000000000e+03 6.595517730712890625e+01 -1.936924362182617188e+01 6.351684927940368652e-01 3.707937002182006836e+00 1.302931666374206543e+00 -9.930418133735656738e-01
1.023000000000000000e+03 7.025246429443359375e+01 -2.049084854125976562e+01 5.425556302070617676e-01 4.501711845397949219e+00 1.513280272483825684e+00 9.901691079139709473e-01
1.024000000000000000e+03 7.480935668945312500e+01 -1.975360679626464844e+01 -4.621770083904266357e-01 7.437682151794433594e+00 2.092651605606079102e+00 2.518406212329864502e-01
1.025000000000000000e+03 6.153042602539062500e+01 -1.483387279510498047e+01 2.734924554824829102e-01 6.826517105102539062e+00 2.130002737045288086e+00 -3.045454323291778564e-01
1.026000000000000000e+03 6.748014831542968750e+01 -1.613965225219726562e+01 -1.258467555046081543e+00 1.145769596099853516e+00 -3.380937501788139343e-02 -2.694330811500549316e-01
1.027000000000000000e+03 5.262985229492187500e+00 -2.198845863342285156e+01 4.057658463716506958e-02 -2.519446611404418945e-01 -6.341042369604110718e-02 -9.991651028394699097e-02
1.028000000000000000e+03 1.240193653106689453e+01 -2.553882026672363281e+01 8.625575900077819824e-02 3.860349655151367188e-01 1.416872143745422363e-01 -5.120203271508216858e-02
1.029000000000000000e+03 1.505652236938476562e+01 -1.999615478515625000e+01 1.588475704193115234e-01 4.673358500003814697e-01 1.878550201654434204e-01 -3.657552227377891541e-02
1.030000000000000000e+03 1.856915664672851562e+01 -1.746026420593261719e+01 2.673681080341339111e-01 8.176841139793395996e-01 3.255156576633453369e-01 8.996842056512832642e-02
1.031000000000000000e+03 2.746268463134765625e+01 -2.335885810852050781e+01 1.664542704820632935e-01 2.113804817199707031e+00 6.840777397155761719e-01 -7.237981259822845459e-02
1.032000000000000000e+03 3.280923080444335938e+01 -2.158367347717285156e+01 5.048491358757019043e-01 2.469223976135253906e+00 8.922219276428222656e-01 -2.666600942611694336e-01
1.033000000000000000e+03 4.207392883300781250e+01 -2.087429809570312500e+01 2.247575074434280396e-01 4.259934425354003906e+00 1.345407605171203613e+00 -2.382455468177795410e-01
1.034000000000000000e+03 4.596589279174804688e+01 -1.956148147583007812e+01 1.156708449125289917e-01 2.714540004730224609e+00 8.490632772445678711e-01 -9.569186568260192871e-01
1.035000000000000000e+03 5.995255661010742188e+01 -2.326263809204101562e+01 -3.620623052120208740e-01 6.005917072296142578e+00 1.693156480789184570e+00 -3.866641223430633545e-01
1.036000000000000000e+03 6.108857345581054688e+01 -2.262950515747070312e+01 6.886263191699981689e-02 6.160697460174560547e+00 1.868868112564086914e+00 -6.973062157630920410e-01
1.037000000000000000e+03 6.556710815429687500e+01 -2.276216316223144531e+01 6.521666049957275391e-01 4.714276790618896484e+00 1.609933018684387207e+00 -6.452266573905944824e-01
1.038000000000000000e+03 7.077195739746093750e+01 -2.456421089172363281e+01 2.203569114208221436e-01 5.499382019042968750e+00 1.715921640396118164e+00 3.731780350208282471e-01
1.039000000000000000e+03 5.828482151031494141e+00 -2.578010177612304688e+01 3.184668719768524170e-02 -2.531346380710601807e-01 -6.638638675212860107e-02 -6.645479798316955566e-02
1.040000000000000000e+03 1.299702930450439453e+01 -2.874271965026855469e+01 7.405327260494232178e-02 4.834974408149719238e-01 1.672652214765548706e-01 -2.058858610689640045e-02
1.041000000000000000e+03 9.707190513610839844e+00 -2.594319725036621094e+01 6.171657517552375793e-02 1.325167715549468994e-01 5.827000737190246582e-02 -6.379479914903640747e-02
1.042000000000000000e+03 1.720754051208496094e+01 -2.602836608886718750e+01 1.126786544919013977e-01 8.569368720054626465e-01 2.908846437931060791e-01 2.774829976260662079e-02
1.043000000000000000e+03 2.026952362060546875e+01 -2.512773513793945312e+01 9.944728761911392212e-02 1.268550157546997070e+00 4.103992283344268799e-01 7.718506455421447754e-02
1.044000000000000000e+03 2.303945541381835938e+01 -2.793943214416503906e+01 8.817622065544128418e-02 1.601221680641174316e+00 5.068193674087524414e-01 1.683341711759567261e-02
1.045000000000000000e+03 2.738926315307617188e+01 -2.514153099060058594e+01 3.034453466534614563e-02 2.142409801483154297e+00 6.518262624740600586e-01 -1.179721131920814514e-01
1.046000000000000000e+03 2.808062171936035156e+01 -2.675342750549316406e+01 1.553026437759399414e-01 2.145527362823486328e+00 6.902490258216857910e-01 -2.857487276196479797e-02
1.047000000000000000e+03 3.455729293823242188e+01 -2.352522277832031250e+01 5.160421729087829590e-01 2.613368511199951172e+00 9.388231635093688965e-01 3.119007498025894165e-02
1.048000000000000000e+03 4.853954315185546875e+01 -2.530410194396972656e+01 4.380327463150024414e-01 2.320308446884155273e+00 8.275023698806762695e-01 -2.901802659034729004e-01
1.049000000000000000e+03 5.126736068725585938e+01 -2.445855903625488281e+01 5.828293561935424805e-01 2.221888542175292969e+00 8.414153456687927246e-01 4.267814755439758301e-01
1.050000000000000000e+03 5.586895370483398438e+01 -2.404859924316406250e+01 -5.615077614784240723e-01 5.733457088470458984e+00 1.551584720611572266e+00 1.446579813957214355e+00
1.051000000000000000e+03 7.431071472167968750e+01 -2.612234878540039062e+01 8.527599275112152100e-02 6.382904529571533203e+00 1.940454125404357910e+00 3.077953755855560303e-01
1.052000000000000000e+03 7.486808013916015625e+01 -2.785378074645996094e+01 6.444054096937179565e-02 6.483817577362060547e+00 1.964477419853210449e+00 2.318775355815887451e-01
1.053000000000000000e+03 7.331735610961914062e+00 -3.158262443542480469e+01 3.400315344333648682e-02 -6.545561552047729492e-02 -9.435738436877727509e-03 -2.355500869452953339e-02
1.054000000000000000e+03 1.018077373504638672e+01 -3.258091735839843750e+01 4.243581369519233704e-02 2.196878194808959961e-01 7.863709330558776855e-02 -1.196914073079824448e-02
1.055000000000000000e+03 2.817884445190429688e+01 -2.960240364074707031e+01 1.055627241730690002e-01 2.112388372421264648e+00 6.653853654861450195e-01 -2.065833657979965210e-02
1.056000000000000000e+03 4.218001174926757812e+01 -2.691438102722167969e+01 -7.269781827926635742e-02 3.169252395629882812e+00 9.289664030075073242e-01 -4.966951608657836914e-01
1.057000000000000000e+03 4.432954025268554688e+01 -2.859289550781250000e+01 3.103835880756378174e-01 3.062138319015502930e+00 1.011756539344787598e+00 -3.889053463935852051e-01
1.058000000000000000e+03 4.719337081909179688e+01 -2.996587181091308594e+01 3.142157495021820068e-01 2.975736618041992188e+00 9.869856834411621094e-01 -2.068343311548233032e-01
1.059000000000000000e+03 5.376679992675781250e+01 -2.803425407409667969e+01 2.279989421367645264e-01 3.641129255294799805e+00 1.160738468170166016e+00 6.460632085800170898e-01
1.060000000000000000e+03 6.119161224365234375e+01 -2.825523185729980469e+01 -5.253384634852409363e-02 5.246707439422607422e+00 1.558252096176147461e+00 -2.271221019327640533e-02
1.061000000000000000e+03 6.783425903320312500e+01 -3.179238510131835938e+01 1.242660880088806152e-01 5.557851314544677734e+00 1.704635143280029297e+00 9.008376859128475189e-03
1.062000000000000000e+03 7.197998046875000000e+01 -3.008780670166015625e+01 1.690745800733566284e-01 5.988727092742919922e+00 1.847340583801269531e+00 1.490978151559829712e-01
1.063000000000000000e+03 2.559282302856445312e+00 -2.907021522521972656e+01 8.594535291194915771e-03 -5.857165455818176270e-01 -1.731366068124771118e-01 -2.998691424727439880e-02
1.064000000000000000e+03 4.337011814117431641e+00 -3.365121841430664062e+01 2.402099221944808960e-02 -4.179081916809082031e-01 -1.181661561131477356e-01 -3.132696449756622314e-02
1.065000000000000000e+03 1.381116104125976562e+01 -3.217129135131835938e+01 3.720796480774879456e-02 5.615797042846679688e-01 1.796362996101379395e-01 -7.566639222204685211e-03
1.066000000000000000e+03 2.486624526977539062e+01 -3.049097633361816406e+01 3.709457069635391235e-02 1.753676772117614746e+00 5.372313857078552246e-01 6.237884983420372009e-03
1.067000000000000000e+03 6.532331085205078125e+01 -3.104319190979003906e+01 1.418070346117019653e-01 5.368750095367431641e+00 1.653167128562927246e+00 -3.455714508891105652e-02
1.068000000000000000e+03 7.010159301757812500e+01 -3.213804244995117188e+01 1.567831933498382568e-01 5.819684028625488281e+00 1.792940139770507812e+00 8.363500982522964478e-02
1.069000000000000000e+03 7.520928955078125000e+01 -3.355530929565429688e+01 3.798553720116615295e-02 6.481595516204833984e+00 1.955874323844909668e+00 8.945275843143463135e-02
1.070000000000000000e+03 2.577840805053710938e+00 -3.054261398315429688e+01 3.604652127251029015e-03 -5.935938358306884766e-01 -1.769967526197433472e-01 -2.032594010233879089e-02
1.071000000000000000e+03 6.246085166931152344e+00 -3.591432189941406250e+01 2.250811830163002014e-02 -2.402322292327880859e-01 -6.531722843647003174e-02 -2.113109454512596130e-02
1.072000000000000000e+03 2.757052612304687500e+01 -3.280544281005859375e+01 4.006841033697128296e-02 2.039559841156005859e+00 6.238884925842285156e-01 -2.430250495672225952e-02
1.073000000000000000e+03 2.157069921493530273e+00 -3.546097564697265625e+01 1.807257160544395447e-02 -6.390658020973205566e-01 -1.862979829311370850e-01 9.369725361466407776e-03
1.074000000000000000e+03 7.831053161621093750e+01 -1.135653495788574219e+01 2.565354108810424805e-01 7.185003757476806641e+00 2.232461690902709961e+00 5.033438205718994141e-01
1.075000000000000000e+03 7.351889801025390625e+01 -1.055100631713867188e+01 1.208352208137512207e+00 1.109419059753417969e+01 3.690762758255004883e+00 3.296829462051391602e-01
1.076000000000000000e+03 7.248794555664062500e+01 -7.845548629760742188e+00 4.314274787902832031e-01 8.450400352478027344e+00 2.664548397064208984e+00 -2.758713960647583008e-01
1.077000000000000000e+03 7.163623809814453125e+01 -6.724124431610107422e+00 -1.391352266073226929e-01 6.009977817535400391e+00 1.761252760887145996e+00 -1.270904541015625000e+00
1.078000000000000000e+03 7.800058746337890625e+01 -5.874877452850341797e+00 1.602393947541713715e-02 9.296218872070312500e+00 2.793672800064086914e+00 1.361574649810791016e+00
1.079000000000000000e+03 7.322615051269531250e+01 -6.751348018646240234e+00 -1.381302773952484131e-01 7.578457355499267578e+00 2.232098102569580078e+00 3.548696041107177734e-01
1.080000000000000000e+03 5.684787368774414062e+01 -6.602941989898681641e+00 -7.419277727603912354e-02 6.359704971313476562e+00 1.885653614997863770e+00 -7.928915023803710938e-01
1.081000000000000000e+03 5.745007705688476562e+01 -7.363306999206542969e+00 1.841249763965606689e-01 7.074621200561523438e+00 2.177623987197875977e+00 -9.481764584779739380e-02
1.082000000000000000e+03 5.549312973022460938e+01 -1.167300796508789062e+01 1.035516619682312012e+00 9.921910285949707031e+00 3.287228107452392578e+00 -1.979093432426452637e+00
1.083000000000000000e+03 5.708286666870117188e+01 -9.909781455993652344e+00 4.363481402397155762e-01 8.207760810852050781e+00 2.593232631683349609e+00 -9.812077134847640991e-02
1.084000000000000000e+03 6.205020141601562500e+01 -5.601404190063476562e+00 1.672377824783325195e+00 1.135843563079833984e+01 3.909244060516357422e+00 1.663655161857604980e+00
1.085000000000000000e+03 5.067109680175781250e+01 -4.530543327331542969e+00 -5.108207702636718750e+00 -7.593123912811279297e-01 -1.760256052017211914e+00 1.993678927421569824e+00
1.086000000000000000e+03 7.582509613037109375e+01 3.490391492843627930e+00 2.710565328598022461e-01 1.084911823272705078e+01 3.336052417755126953e+00 3.530619144439697266e-01
1.087000000000000000e+03 7.702326965332031250e+01 2.353273153305053711e+00 -1.342751979827880859e+00 1.091287326812744141e+01 2.871036291122436523e+00 -1.784968018531799316e+00
1.088000000000000000e+03 7.666471099853515625e+01 6.906659126281738281e+00 2.550964117050170898e+00 1.515993309020996094e+01 5.313269138336181641e+00 -2.342889308929443359e+00
1.089000000000000000e+03 6.706380462646484375e+01 1.054348850250244141e+01 2.534641981124877930e+00 1.346826744079589844e+01 4.800872802734375000e+00 -5.094658136367797852e-01
1.090000000000000000e+03 6.795937347412109375e+01 8.698869705200195312e+00 -2.002764791250228882e-01 1.156522274017333984e+01 3.409483909606933594e+00 -8.468005061149597168e-01
1.091000000000000000e+03 7.148314666748046875e+01 9.003657341003417969e+00 -3.149068355560302734e+00 -1.540596336126327515e-01 -9.909384250640869141e-01 -8.704586029052734375e-01
1.092000000000000000e+03 7.837330627441406250e+01 1.097259616851806641e+01 -4.445155560970306396e-01 7.775623798370361328e+00 2.199332475662231445e+00 2.080852538347244263e-01
1.093000000000000000e+03 7.920960998535156250e+01 1.678657341003417969e+01 3.513802587985992432e-02 6.860008239746093750e+00 2.068543910980224609e+00 -9.195588529109954834e-02
1.094000000000000000e+03 6.586944580078125000e+01 2.170163917541503906e+01 8.269115537405014038e-02 5.970216274261474609e+00 1.815872192382812500e+00 -1.301928609609603882e-01
1.095000000000000000e+03 6.428964996337890625e+01 2.080939483642578125e+01 3.194114267826080322e-01 5.443292140960693359e+00 1.728811144828796387e+00 -2.739453911781311035e-01
1.096000000000000000e+03 5.548810958862304688e+01 1.990705108642578125e+01 -3.779204785823822021e-01 6.068588733673095703e+00 1.707200407981872559e+00 1.353565335273742676e+00
1.097000000000000000e+03 4.912785720825195312e+01 1.951329231262207031e+01 -1.029603481292724609e+00 4.174006938934326172e+00 9.433211088180541992e-01 -2.096550703048706055e+00
1.098000000000000000e+03 4.550861740112304688e+01 1.849984359741210938e+01 -5.852053761482238770e-01 1.197838187217712402e+00 1.837898492813110352e-01 -1.005270004272460938e+00
1.099000000000000000e+03 4.200859832763671875e+01 1.835458374023437500e+01 -1.127984642982482910e+00 8.074122071266174316e-01 -9.617173671722412109e-02 -2.921425104141235352e-01
1.100000000000000000e+03 4.044704818725585938e+01 1.896104812622070312e+01 -1.110797047615051270e+00 6.392238736152648926e-01 -1.414719372987747192e-01 -2.686588466167449951e-01
1.101000000000000000e+03 3.280892944335937500e+01 1.975506019592285156e+01 -4.429192841053009033e-01 6.185055524110794067e-02 -1.143206134438514709e-01 8.882507085800170898e-01
1.102000000000000000e+03 2.704076194763183594e+01 2.152306175231933594e+01 -1.555394649505615234e+00 2.257377147674560547e+00 2.105947732925415039e-01 5.898088216781616211e-01
1.103000000000000000e+03 7.773905944824218750e+01 2.085186576843261719e+01 3.000925667583942413e-02 6.762049674987792969e+00 2.037617683410644531e+00 7.989714294672012329e-02
1.104000000000000000e+03 7.478057861328125000e+01 2.247137832641601562e+01 5.841348692774772644e-02 6.717237472534179688e+00 2.032695293426513672e+00 2.467040568590164185e-01
1.105000000000000000e+03 7.132320404052734375e+01 2.144150733947753906e+01 5.653564259409904480e-02 6.665471076965332031e+00 2.016602039337158203e+00 3.172014355659484863e-01
1.106000000000000000e+03 5.706980895996093750e+01 2.102506446838378906e+01 -1.465002149343490601e-01 5.412874221801757812e+00 1.579912185668945312e+00 1.179405450820922852e+00
1.107000000000000000e+03 6.142812347412109375e+01 2.551129531860351562e+01 5.839966703206300735e-03 5.361052513122558594e+00 1.610067725181579590e+00 2.960824370384216309e-01
1.108000000000000000e+03 6.262671661376953125e+01 2.387074851989746094e+01 1.926369518041610718e-01 5.325630187988281250e+00 1.655480146408081055e+00 2.037938237190246582e-01
1.109000000000000000e+03 4.554970550537109375e+01 2.376355934143066406e+01 -3.237314224243164062e-01 2.312612056732177734e+00 5.966641902923583984e-01 -9.024764299392700195e-01
1.110000000000000000e+03 3.743769836425781250e+01 2.481484794616699219e+01 -3.343898430466651917e-02 8.117201924324035645e-01 2.334843724966049194e-01 -2.697333227843046188e-03
1.111000000000000000e+03 3.145684242248535156e+01 2.424743461608886719e+01 -4.115932285785675049e-01 9.837895035743713379e-01 1.716588735580444336e-01 5.747544765472412109e-01
1.112000000000000000e+03 2.470204925537109375e+01 2.418117141723632812e+01 -7.758212089538574219e-01 1.368554711341857910e+00 1.778200715780258179e-01 -2.829858958721160889e-01
1.113000000000000000e+03 2.737301635742187500e+01 2.389944648742675781e+01 -1.041065812110900879e+00 1.734044075012207031e+00 2.078934907913208008e-01 3.550693988800048828e-01
1.114000000000000000e+03 2.214195442199707031e+01 1.907436752319335938e+01 -1.146274328231811523e+00 2.523748278617858887e-01 -2.681698501110076904e-01 -9.573948383331298828e-01
1.115000000000000000e+03 2.021167755126953125e+01 2.157767486572265625e+01 -7.193420529365539551e-01 1.006495431065559387e-01 -1.856077611446380615e-01 -4.824695289134979248e-01
1.116000000000000000e+03 1.620158386230468750e+01 2.162172126770019531e+01 -6.020504832267761230e-01 1.498896926641464233e-01 -1.356482356786727905e-01 -6.215136870741844177e-02
1.117000000000000000e+03 1.172040748596191406e+01 2.062965393066406250e+01 -5.745369195938110352e-01 5.621982812881469727e-01 -3.701595356687903404e-03 2.490673959255218506e-02
1.118000000000000000e+03 9.514005661010742188e+00 2.235712623596191406e+01 -3.082611262798309326e-01 7.749152183532714844e-01 1.399962157011032104e-01 8.645357191562652588e-02
1.119000000000000000e+03 6.403226256370544434e-01 2.058090209960937500e+01 -5.062914639711380005e-02 1.991881012916564941e+00 5.823755860328674316e-01 -7.742648012936115265e-03
1.120000000000000000e+03 7.928604888916015625e+01 2.366160583496093750e+01 2.793040685355663300e-02 6.907303333282470703e+00 2.080570220947265625e+00 5.307738482952117920e-02
1.121000000000000000e+03 7.638496398925781250e+01 2.363106346130371094e+01 2.325470373034477234e-02 6.813426494598388672e+00 2.051004409790039062e+00 1.883975416421890259e-01
1.122000000000000000e+03 5.530686187744140625e+01 2.857079887390136719e+01 -4.438176155090332031e-01 4.907306194305419922e+00 1.339046597480773926e+00 -1.627367734909057617e-02
1.123000000000000000e+03 4.579822540283203125e+01 2.628865432739257812e+01 -1.723373532295227051e-01 2.670192718505859375e+00 7.493566274642944336e-01 -7.872328162193298340e-01
1.124000000000000000e+03 4.305353164672851562e+01 2.666005134582519531e+01 -5.289532989263534546e-02 1.810494065284729004e+00 5.272796154022216797e-01 -5.515249967575073242e-01
1.125000000000000000e+03 3.390809249877929688e+01 2.779749870300292969e+01 -5.957420170307159424e-02 9.427550435066223145e-01 2.649542689323425293e-01 2.425695657730102539e-01
1.126000000000000000e+03 4.002677536010742188e+01 2.707311058044433594e+01 7.746318727731704712e-02 1.315773129463195801e+00 4.179709255695343018e-01 -2.924593091011047363e-01
1.127000000000000000e+03 2.416014099121093750e+01 2.888308143615722656e+01 -2.275635600090026855e-01 8.988893628120422363e-01 2.013977319002151489e-01 -7.568187266588211060e-02
1.128000000000000000e+03 2.272647857666015625e+01 2.430362319946289062e+01 -6.682624220848083496e-01 1.089289546012878418e+00 1.263081431388854980e-01 -4.856701493263244629e-01
1.129000000000000000e+03 1.875359535217285156e+01 2.271023178100585938e+01 -4.943151772022247314e-01 1.434821039438247681e-01 -1.052499264478683472e-01 -2.400877922773361206e-01
1.130000000000000000e+03 1.236876296997070312e+01 2.631943321228027344e+01 -1.183985546231269836e-01 6.048762798309326172e-01 1.459433138370513916e-01 1.290718168020248413e-01
1.131000000000000000e+03 4.817326545715332031e+00 2.464304161071777344e+01 -7.409317791461944580e-02 1.298967838287353516e+00 3.674624264240264893e-01 1.277280300855636597e-01
1.132000000000000000e+03 6.514612436294555664e-01 2.340547943115234375e+01 -3.300561383366584778e-02 1.932899475097656250e+00 5.699681639671325684e-01 2.273241430521011353e-02
1.133000000000000000e+03 7.921552276611328125e+01 2.784142684936523438e+01 -2.014156244695186615e-02 7.164509773254394531e+00 2.143310546875000000e+00 4.683179780840873718e-02
1.134000000000000000e+03 7.401729583740234375e+01 2.746923828125000000e+01 -5.487298965454101562e-02 6.770310401916503906e+00 2.014631271362304688e+00 1.966863125562667847e-01
1.135000000000000000e+03 6.293943023681640625e+01 2.829419326782226562e+01 -9.880855679512023926e-02 5.600846767425537109e+00 1.650611400604248047e+00 1.729287952184677124e-01
1.136000000000000000e+03 5.341060256958007812e+01 3.241003799438476562e+01 -3.225445449352264404e-01 4.349436759948730469e+00 1.208067655563354492e+00 -1.761672496795654297e-01
1.137000000000000000e+03 3.176717185974121094e+01 2.988215637207031250e+01 2.852463535964488983e-02 9.693436026573181152e-01 2.993604540824890137e-01 1.846778988838195801e-01
1.138000000000000000e+03 2.784103584289550781e+01 2.973375701904296875e+01 -1.462441533803939819e-01 9.825752973556518555e-01 2.508993446826934814e-01 1.089322343468666077e-01
1.139000000000000000e+03 1.891637039184570312e+01 2.654957580566406250e+01 -1.966576874256134033e-01 4.458955824375152588e-01 7.477135956287384033e-02 -1.465959250926971436e-01
1.140000000000000000e+03 1.634039497375488281e+01 2.718700027465820312e+01 -6.137705594301223755e-02 4.287236034870147705e-01 1.102039664983749390e-01 -6.788980681449174881e-03
1.141000000000000000e+03 8.165311813354492188e+00 2.751164436340332031e+01 -3.018693998456001282e-02 9.363332390785217285e-01 2.718438804149627686e-01 1.810482144355773926e-01
1.142000000000000000e+03 5.057923793792724609e+00 2.910283279418945312e+01 1.664090529084205627e-02 1.208667397499084473e+00 3.675924837589263916e-01 1.938043534755706787e-01
1.143000000000000000e+03 6.962240338325500488e-01 2.762236785888671875e+01 1.064892485737800598e-02 1.711584329605102539e+00 5.166699886322021484e-01 4.200976714491844177e-02
1.144000000000000000e+03 7.922617340087890625e+01 3.198938179016113281e+01 8.977077901363372803e-03 7.358614921569824219e+00 2.210277557373046875e+00 3.671597689390182495e-02
1.145000000000000000e+03 7.599633789062500000e+01 3.057973861694335938e+01 -3.155884146690368652e-02 6.975814342498779297e+00 2.083276748657226562e+00 1.364556103944778442e-01
1.146000000000000000e+03 6.939775085449218750e+01 3.122864532470703125e+01 -1.112366542220115662e-01 6.352854728698730469e+00 1.872485518455505371e+00 1.671007871627807617e-01
1.147000000000000000e+03 4.419367599487304688e+01 3.469629287719726562e+01 9.887213259935379028e-02 2.528011083602905273e+00 7.880649566650390625e-01 -2.892547547817230225e-01
1.148000000000000000e+03 4.083222961425781250e+01 3.281394577026367188e+01 1.870411187410354614e-01 1.830046772956848145e+00 6.051263809204101562e-01 -2.242354303598403931e-01
1.149000000000000000e+03 3.558292388916015625e+01 3.326080322265625000e+01 2.263692170381546021e-01 1.218697428703308105e+00 4.335200190544128418e-01 -2.572081796824932098e-02
1.150000000000000000e+03 2.348014450073242188e+01 3.438854217529296875e+01 1.092990711331367493e-01 7.941846847534179688e-01 2.710451185703277588e-01 2.373924478888511658e-02
1.151000000000000000e+03 1.171860313415527344e+01 3.145112609863281250e+01 9.448306262493133545e-02 7.400326728820800781e-01 2.503547072410583496e-01 1.449565887451171875e-01
1.152000000000000000e+03 4.423775672912597656e+00 3.206892013549804688e+01 2.421254478394985199e-02 1.232861995697021484e+00 3.771223425865173340e-01 1.569844335317611694e-01
1.153000000000000000e+03 6.813052892684936523e-01 3.042361450195312500e+01 4.433589987456798553e-03 1.556565165519714355e+00 4.682996273040771484e-01 3.695918247103691101e-02
1.154000000000000000e+03 4.380707550048828125e+01 3.740143203735351562e+01 1.355953961610794067e-01 2.419544458389282227e+00 7.665419578552246094e-01 -1.465173363685607910e-01
1.155000000000000000e+03 3.402120971679687500e+01 3.642737960815429688e+01 2.750687301158905029e-01 1.171923041343688965e+00 4.340975582599639893e-01 4.435279965400695801e-02
1.156000000000000000e+03 3.103266334533691406e+01 3.459218597412109375e+01 2.185210138559341431e-01 9.792163968086242676e-01 3.593212068080902100e-01 5.239459499716758728e-02
1.157000000000000000e+03 3.503118753433227539e+00 3.408768844604492188e+01 2.164351381361484528e-02 1.233118295669555664e+00 3.764285445213317871e-01 1.121123507618904114e-01
1.158000000000000000e+03 6.890140175819396973e-01 3.459459304809570312e+01 2.011428819969296455e-03 1.363236665725708008e+00 4.095744192600250244e-01 2.518929541110992432e-02
1.159000000000000000e+03 7.914699554443359375e+01 3.751739883422851562e+01 1.409063581377267838e-03 7.473576068878173828e+00 2.242495536804199219e+00 -6.535746157169342041e-03
1.160000000000000000e+03 7.188973236083984375e+01 3.747055435180664062e+01 -8.615383505821228027e-02 6.603790283203125000e+00 1.955290913581848145e+00 7.792182266712188721e-02
1.161000000000000000e+03 5.759801101684570312e+01 3.794481658935546875e+01 -2.144259959459304810e-01 4.804458141326904297e+00 1.377009749412536621e+00 -2.091088518500328064e-02
1.162000000000000000e+03 7.888041138648986816e-01 3.733597183227539062e+01 8.894954808056354523e-04 1.265029072761535645e+00 3.797755837440490723e-01 2.396659180521965027e-02
1.163000000000000000e+03 3.537061929702758789e+00 1.471249866485595703e+01 -3.024827241897583008e-01 1.278742194175720215e+00 2.928778231143951416e-01 -5.926423072814941406e-01
1.164000000000000000e+03 8.264266014099121094e+00 1.028074169158935547e+01 -8.201268911361694336e-01 2.142570018768310547e+00 3.967329263687133789e-01 -1.320988893508911133e+00
1.165000000000000000e+03 9.401192665100097656e+00 1.436347484588623047e+01 -1.089356541633605957e+00 1.037407279014587402e+00 -1.558476686477661133e-02 -3.808162510395050049e-01
1.166000000000000000e+03 6.275178527832031250e+01 5.172664642333984375e+00 4.557954370975494385e-01 2.618124723434448242e+00 9.221760630607604980e-01 1.290922045707702637e+00
1.167000000000000000e+03 6.908667755126953125e+01 3.740937232971191406e+00 2.669415712356567383e+00 1.596907043457031250e+01 5.591546058654785156e+00 -2.066831350326538086e+00
1.168000000000000000e+03 6.811449432373046875e+01 6.691150188446044922e+00 -3.973339200019836426e-01 1.103674125671386719e+01 3.191822290420532227e+00 -1.831770896911621094e+00
1.169000000000000000e+03 6.354433059692382812e+01 4.111980438232421875e+00 1.220628768205642700e-01 4.224441051483154297e+00 1.303951263427734375e+00 1.614010095596313477e+00
1.170000000000000000e+03 4.303811264038085938e+01 -1.028125762939453125e+01 -1.929676294326782227e+00 6.297534942626953125e+00 1.310357570648193359e+00 2.126767873764038086e+00
1.171000000000000000e+03 4.567660903930664062e+01 -9.681428909301757812e+00 -2.297176271677017212e-01 5.264410018920898438e+00 1.510407686233520508e+00 -6.945240497589111328e-01
1.172000000000000000e+03 6.438532257080078125e+01 1.381399917602539062e+01 9.358161091804504395e-01 3.172698020935058594e+00 1.232554316520690918e+00 -3.152802944183349609e+00
1.173000000000000000e+03 2.423862838745117188e+01 6.176463127136230469e+00 3.103166103363037109e+00 4.795546054840087891e+00 2.369613647460937500e+00 4.040501117706298828e+00
1.174000000000000000e+03 2.496422767639160156e+01 8.042367935180664062e+00 1.817359924316406250e-01 4.542352199554443359e+00 1.417226433753967285e+00 2.296975374221801758e+00
1.175000000000000000e+03 2.588279724121093750e+01 8.531342506408691406e+00 -1.521836668252944946e-01 2.737445592880249023e+00 7.755786180496215820e-01 1.349118232727050781e+00
1.176000000000000000e+03 2.777464294433593750e+01 1.043115615844726562e+01 -2.865654230117797852e+00 -5.725622773170471191e-01 -1.031464934349060059e+00 -1.719632744789123535e+00
1.177000000000000000e+03 2.999707794189453125e+01 1.228875255584716797e+01 -3.095731496810913086e+00 -2.185925245285034180e+00 -1.584496974945068359e+00 -2.700290918350219727e+00
1.178000000000000000e+03 3.233041000366210938e+01 1.401955032348632812e+01 -3.889745473861694336e+00 -1.423362851142883301e+00 -1.593932509422302246e+00 -1.748822808265686035e+00
1.179000000000000000e+03 3.665369415283203125e+01 1.325238800048828125e+01 -1.408049345016479492e+00 -5.202590227127075195e-01 -5.784925222396850586e-01 9.661174416542053223e-01
1.180000000000000000e+03 3.774224853515625000e+01 1.315430068969726562e+01 -1.829456090927124023e+00 1.382254213094711304e-01 -5.073692202568054199e-01 6.655544042587280273e-01
1.181000000000000000e+03 3.992940902709960938e+01 1.283090209960937500e+01 -1.423584103584289551e+00 2.935762703418731689e-01 -3.390023410320281982e-01 2.148054242134094238e-01
1.182000000000000000e+03 4.073061752319335938e+01 1.271590518951416016e+01 -1.418832302093505859e+00 3.055838644504547119e-01 -3.339745104312896729e-01 3.800886496901512146e-02
1.183000000000000000e+03 4.237449264526367188e+01 1.235498237609863281e+01 -1.267990469932556152e+00 2.476555407047271729e-01 -3.061004579067230225e-01 -2.466138005256652832e-01
1.184000000000000000e+03 4.311267089843750000e+01 1.211831378936767578e+01 -1.158225297927856445e+00 1.534542143344879150e-01 -3.014313280582427979e-01 -3.799500465393066406e-01
1.185000000000000000e+03 4.531108474731445312e+01 1.359173202514648438e+01 -1.808555245399475098e+00 -5.991600751876831055e-01 -7.223145961761474609e-01 -1.045524477958679199e+00
1.186000000000000000e+03 4.906679916381835938e+01 8.174530029296875000e+00 2.755273580551147461e+00 8.751483917236328125e+00 3.452027320861816406e+00 4.174438953399658203e+00
1.187000000000000000e+03 4.631435775756835938e+01 4.873993873596191406e+00 2.620159864425659180e+00 3.110959053039550781e+00 1.719335675239562988e+00 3.095955133438110352e+00
1.188000000000000000e+03 4.447371673583984375e+01 2.701492547988891602e+00 2.302555084228515625e+00 3.732381343841552734e+00 1.810480952262878418e+00 3.175307035446166992e+00
1.189000000000000000e+03 4.102357482910156250e+01 8.888377249240875244e-02 -9.248046278953552246e-01 4.483207166194915771e-01 -1.429451853036880493e-01 -1.855234205722808838e-01
1.190000000000000000e+03 4.033909606933593750e+01 7.562181949615478516e+00 1.986471004784107208e-03 -1.014329213649034500e-02 -2.447046339511871338e-03 1.159922964870929718e-02
1.191000000000000000e+03 4.109714126586914062e+01 8.473484039306640625e+00 -5.211160518229007721e-03 8.488579653203487396e-03 9.832256473600864410e-04 -5.796375218778848648e-03
1.192000000000000000e+03 3.988097381591796875e+01 8.946320533752441406e+00 -3.530570864677429199e-02 9.139806963503360748e-03 -7.849770598113536835e-03 -3.675112500786781311e-02
1.193000000000000000e+03 3.910311889648437500e+01 9.015931129455566406e+00 2.064011804759502411e-02 7.954575703479349613e-04 6.430672481656074524e-03 5.690290126949548721e-03
1.194000000000000000e+03 3.836468124389648438e+01 9.251791954040527344e+00 -2.260995469987392426e-02 7.104641757905483246e-03 -4.651593510061502457e-03 -2.685100212693214417e-02
1.195000000000000000e+03 3.617036437988281250e+01 9.590786933898925781e+00 4.690932109951972961e-02 9.167636930942535400e-02 4.157570749521255493e-02 -3.105559386312961578e-03
1.196000000000000000e+03 3.235935974121093750e+01 6.194119930267333984e+00 -1.098891854286193848e+00 2.890772186219692230e-02 -3.209952414035797119e-01 -3.824747800827026367e-01
1.197000000000000000e+03 2.939315414428710938e+01 2.808349609375000000e+00 -4.187919139862060547e+00 7.077712416648864746e-01 -1.044044256210327148e+00 -8.140854835510253906e-01
1.198000000000000000e+03 2.518905258178710938e+01 2.398340225219726562e+00 -1.075002479553222656e+01 -7.241657972335815430e-01 -3.442257404327392578e+00 -2.782064437866210938e+00
1.199000000000000000e+03 2.474563598632812500e+01 1.883516073226928711e+00 -7.435027122497558594e+00 -8.878098130226135254e-01 -2.496850967407226562e+00 -2.081291437149047852e+00
1.200000000000000000e+03 2.647980690002441406e+01 2.184312582015991211e+00 -7.045606136322021484e+00 -1.304152846336364746e+00 -2.504927635192871094e+00 -2.214130163192749023e+00
1.201000000000000000e+03 2.573478507995605469e+01 2.306313276290893555e+00 -8.710927963256835938e+00 -9.420562386512756348e-01 -2.895895481109619141e+00 -2.617460250854492188e+00
1.202000000000000000e+03 2.329948425292968750e+01 2.246152400970458984e+00 -8.873088955879211426e-01 4.764379024505615234e+00 1.163120985031127930e+00 -3.050155878067016602e+00
1.203000000000000000e+03 2.169923400878906250e+01 2.458790540695190430e+00 -3.993891775608062744e-01 1.149866104125976562e+01 3.329781532287597656e+00 -5.963109016418457031e+00
1.204000000000000000e+03 2.190783691406250000e+01 2.399445056915283203e+00 -8.546926081180572510e-02 1.002161788940429688e+01 2.980844497680664062e+00 -5.936625957489013672e+00
1.205000000000000000e+03 2.079251861572265625e+01 5.704971790313720703e+00 1.908019304275512695e+00 1.224067592620849609e+01 4.244608402252197266e+00 1.020401358604431152e+00
1.206000000000000000e+03 1.994763565063476562e+01 3.213744163513183594e+00 7.726440429687500000e+00 7.670897006988525391e+00 4.619201183319091797e+00 2.280361652374267578e+00
1.207000000000000000e+03 1.975604438781738281e+01 3.812065601348876953e+00 1.177163791656494141e+01 5.160206317901611328e+00 5.079553127288818359e+00 1.127471208572387695e+00
1.208000000000000000e+03 2.004560279846191406e+01 2.986858606338500977e+00 6.372953414916992188e+00 8.095022201538085938e+00 4.340392589569091797e+00 1.649085044860839844e+00
1.209000000000000000e+03 2.046808242797851562e+01 2.721397399902343750e+00 1.678610801696777344e+00 1.174457359313964844e+01 4.026955604553222656e+00 -5.383950471878051758e-01
1.210000000000000000e+03 2.379622459411621094e+01 5.688642501831054688e+00 3.059267520904541016e+00 4.378533840179443359e+00 2.231340408325195312e+00 3.443609476089477539e+00
1.211000000000000000e+03 2.358018875122070312e+01 5.615100860595703125e+00 3.411372661590576172e+00 3.156862497329711914e+00 1.970470547676086426e+00 3.631845712661743164e+00
1.212000000000000000e+03 2.302301025390625000e+01 5.599258422851562500e+00 3.981848478317260742e+00 3.168790817260742188e+00 2.145191907882690430e+00 4.730687141418457031e+00
1.213000000000000000e+03 2.258410453796386719e+01 5.762956619262695312e+00 3.750139951705932617e+00 4.868730545043945312e+00 2.585661172866821289e+00 6.011910438537597656e+00
1.214000000000000000e+03 1.336424446105957031e+01 -1.989060878753662109e+00 -1.105299070477485657e-01 4.777006432414054871e-02 -1.882795244455337524e-02 5.209540575742721558e-02
1.215000000000000000e+03 1.257316780090332031e+01 -1.976665854454040527e+00 -1.206919103860855103e-01 -1.248369086533784866e-02 -3.995268046855926514e-02 1.762561127543449402e-02
1.216000000000000000e+03 1.028884410858154297e+01 -1.867394089698791504e+00 -1.074200496077537537e-01 3.668474033474922180e-02 -2.122059278190135956e-02 -5.098100285977125168e-03
1.217000000000000000e+03 1.165575599670410156e+01 -2.662621974945068359e+00 -1.366298496723175049e-01 -7.528012502007186413e-04 -4.121479392051696777e-02 2.301568165421485901e-03
1.218000000000000000e+03 8.028905868530273438e+00 -1.832723498344421387e+00 -7.511801272630691528e-02 -9.850245900452136993e-03 -2.549047768115997314e-02 -2.111097797751426697e-02
1.219000000000000000e+03 6.518195629119873047e+00 -1.858531594276428223e+00 -5.097950249910354614e-02 -1.185301225632429123e-02 -1.884975470602512360e-02 -2.893213368952274323e-02
1.220000000000000000e+03 5.756343364715576172e+00 -1.881491899490356445e+00 -6.123860925436019897e-02 9.233484044671058655e-03 -1.560153719037771225e-02 -2.703225053846836090e-02
1.221000000000000000e+03 4.990801334381103516e+00 -1.901325106620788574e+00 -2.945836447179317474e-02 -1.143170241266489029e-02 -1.226702053099870682e-02 -2.688263170421123505e-02
1.222000000000000000e+03 3.474235534667968750e+00 -2.724483489990234375e+00 -2.212508954107761383e-02 -1.098284311592578888e-02 -9.932380169630050659e-03 -2.670207433402538300e-02
1.223000000000000000e+03 1.960560679435729980e+00 -1.957702398300170898e+00 -8.034061640501022339e-03 -6.723624654114246368e-03 -4.427305888384580612e-03 -3.225049935281276703e-03
1.224000000000000000e+03 1.795334696769714355e+00 -5.237354755401611328e+00 -6.680711638182401657e-03 -3.832757100462913513e-02 -1.350248418748378754e-02 -3.438615798950195312e-02
1.225000000000000000e+03 1.201613545417785645e+00 -2.078823566436767578e+00 -6.964467931538820267e-03 -6.412632297724485397e-03 -4.013129975646734238e-03 -9.698931127786636353e-03
1.226000000000000000e+03 4.075432419776916504e-01 -2.176976680755615234e+00 -1.171949901618063450e-03 -2.340926788747310638e-03 -1.053862972185015678e-03 -5.690340185537934303e-04
1.227000000000000000e+03 4.903736114501953125e+00 -4.038632202148437500e+01 -1.249170629307627678e-03 -3.635522127151489258e-01 -1.094404086470603943e-01 -3.958270326256752014e-02
1.228000000000000000e+03 1.022790431976318359e+00 -3.869686126708984375e+01 -9.348510764539241791e-03 -7.495142221450805664e-01 -2.276588231325149536e-01 1.458744052797555923e-02
1.229000000000000000e+03 6.832525134086608887e-01 -3.340847396850585938e+01 3.872451139613986015e-03 -8.022090196609497070e-01 -2.395009696483612061e-01 -5.170041229575872421e-03
1.230000000000000000e+03 8.693348765373229980e-01 -3.201688385009765625e+01 -4.546329844743013382e-03 -7.959647178649902344e-01 -2.401533126831054688e-01 -2.045868430286645889e-03
1.231000000000000000e+03 8.468416929244995117e-01 -2.907709503173828125e+01 -7.876597344875335693e-03 -7.728631496429443359e-01 -2.342219352722167969e-01 -8.053681813180446625e-03
1.232000000000000000e+03 8.081868886947631836e-01 -2.623399734497070312e+01 -1.000782847404479980e-02 -7.364417314529418945e-01 -2.239348739385604858e-01 -1.091400347650051117e-02
1.233000000000000000e+03 2.206384181976318359e+00 -2.199055862426757812e+01 -1.887303893454372883e-03 -5.140385627746582031e-01 -1.547777503728866577e-01 -5.065804719924926758e-02
1.234000000000000000e+03 7.203274965286254883e-01 -1.916683387756347656e+01 1.406020577996969223e-02 -5.644437670707702637e-01 -1.651150733232498169e-01 -2.511407621204853058e-02
1.235000000000000000e+03 6.940976977348327637e-01 -1.633207702636718750e+01 1.291625201702117920e-02 -4.548251628875732422e-01 -1.325726807117462158e-01 -2.887717448174953461e-02
1.236000000000000000e+03 2.035326957702636719e+00 -1.487201786041259766e+01 9.788901545107364655e-03 -3.256258368492126465e-01 -9.475107491016387939e-02 -8.222869038581848145e-02
1.237000000000000000e+03 1.907631635665893555e+00 -1.205394840240478516e+01 4.389903042465448380e-03 -2.323531359434127808e-01 -6.838896870613098145e-02 -7.495988905429840088e-02
1.238000000000000000e+03 5.857979059219360352e-01 -9.287499427795410156e+00 -7.505566347390413284e-03 -1.565380990505218506e-01 -4.921309649944305420e-02 -2.202104963362216949e-02
1.239000000000000000e+03 7.886125946044921875e+01 3.876650238037109375e+01 -1.931508630514144897e-02 7.440446853637695312e+00 2.226339578628540039e+00 -2.540223859250545502e-02
1.240000000000000000e+03 7.750032806396484375e+01 3.770336532592773438e+01 -5.162319913506507874e-02 7.294514179229736328e+00 2.172867298126220703e+00 3.620201349258422852e-02
1.241000000000000000e+03 7.915452575683593750e+01 3.478233337402343750e+01 8.323184214532375336e-03 7.451848983764648438e+00 2.238051652908325195e+00 2.403931133449077606e-02
1.242000000000000000e+03 7.920989227294921875e+01 2.922028541564941406e+01 1.192361768335103989e-02 7.233723640441894531e+00 2.173694133758544922e+00 4.080312699079513550e-02
1.243000000000000000e+03 7.760937500000000000e+01 2.778252410888671875e+01 7.096854969859123230e-04 7.036972045898437500e+00 2.111304521560668945e+00 1.136584505438804626e-01
1.244000000000000000e+03 7.780330657958984375e+01 2.499927902221679688e+01 9.370265528559684753e-03 6.926862239837646484e+00 2.080869913101196289e+00 1.325628906488418579e-01
1.245000000000000000e+03 7.782722473144531250e+01 2.225943565368652344e+01 3.375298157334327698e-02 6.804399490356445312e+00 2.051445722579956055e+00 1.236221790313720703e-01
1.246000000000000000e+03 7.930391693115234375e+01 1.952783966064453125e+01 -2.830211073160171509e-03 6.708482265472412109e+00 2.011695623397827148e+00 1.278853416442871094e-02
1.247000000000000000e+03 7.808946228027343750e+01 1.827065658569335938e+01 7.658916711807250977e-02 6.726883411407470703e+00 2.041041851043701172e+00 -6.314678490161895752e-02
1.248000000000000000e+03 7.764762115478515625e+01 1.509373855590820312e+01 8.871691673994064331e-02 6.856703281402587891e+00 2.083626031875610352e+00 -4.215432405471801758e-01
1.249000000000000000e+03 7.808824920654296875e+01 1.219681262969970703e+01 -9.910262376070022583e-02 7.526939392089843750e+00 2.228351116180419922e+00 -3.255385160446166992e-01
1.250000000000000000e+03 7.943650054931640625e+01 9.764510154724121094e+00 -3.663972318172454834e-01 7.122937679290771484e+00 2.026962041854858398e+00 3.065605759620666504e-01
1.251000000000000000e+03 7.810003662109375000e+01 8.666444778442382812e+00 -1.844412386417388916e-01 9.166418075561523438e+00 2.694593191146850586e+00 4.600582420825958252e-01
1.252000000000000000e+03 7.721701812744140625e+01 5.293218135833740234e+00 8.912333250045776367e-01 1.209287738800048828e+01 3.895233154296875000e+00 -2.460115671157836914e+00
1.253000000000000000e+03 7.814261627197265625e+01 2.641556024551391602e+00 -5.256031751632690430e-01 1.091977787017822266e+01 3.118252277374267578e+00 -1.933545827865600586e+00
1.254000000000000000e+03 7.943804168701171875e+01 -2.860602736473083496e-02 -2.292209863662719727e-01 1.384464550018310547e+01 4.084627151489257812e+00 -5.145642533898353577e-02
1.255000000000000000e+03 7.835762786865234375e+01 -6.114582717418670654e-02 -7.824355363845825195e-01 1.163493442535400391e+01 3.255749702453613281e+00 1.153428405523300171e-01
1.256000000000000000e+03 7.936472320556640625e+01 -7.076437473297119141e+00 -3.544542938470840454e-02 9.077677726745605469e+00 2.712669610977172852e+00 5.016098022460937500e-01
1.257000000000000000e+03 7.821304321289062500e+01 -8.687343597412109375e+00 1.169063746929168701e-01 8.155878067016601562e+00 2.481835365295410156e+00 1.086691498756408691e+00
1.258000000000000000e+03 7.685670471191406250e+01 -1.235013198852539062e+01 6.142878532409667969e-01 8.100349426269531250e+00 2.614391088485717773e+00 4.372411072254180908e-01
1.259000000000000000e+03 7.933667755126953125e+01 -1.664717483520507812e+01 -7.780428230762481689e-02 6.593914031982421875e+00 1.954833030700683594e+00 -2.009057849645614624e-01
1.260000000000000000e+03 7.795596313476562500e+01 -2.221695899963378906e+01 -1.928134635090827942e-02 7.322247982025146484e+00 2.190890073776245117e+00 3.144812583923339844e-02
1.261000000000000000e+03 7.932917785644531250e+01 -2.643790435791015625e+01 3.380966186523437500e-02 7.310366153717041016e+00 2.203252792358398438e+00 4.802430048584938049e-02
1.262000000000000000e+03 7.801877593994140625e+01 -2.912979698181152344e+01 -1.091358624398708344e-02 6.953689575195312500e+00 2.082832813262939453e+00 1.065214648842811584e-01
1.263000000000000000e+03 7.693523406982421875e+01 -3.045556068420410156e+01 1.965513080358505249e-02 6.746647357940673828e+00 2.029890775680541992e+00 1.130826920270919800e-01
1.264000000000000000e+03 7.935298919677734375e+01 -3.331171798706054688e+01 -1.750136911869049072e-02 6.949420928955078125e+00 2.079576015472412109e+00 1.691496931016445160e-02
1.265000000000000000e+03 7.926966857910156250e+01 -3.604282760620117188e+01 -3.712376113981008530e-03 6.867307186126708984e+00 2.059078454971313477e+00 1.763339340686798096e-02
1.266000000000000000e+03 7.864511108398437500e+01 -4.006133270263671875e+01 -3.222876694053411484e-03 6.738764762878417969e+00 2.020662546157836914e+00 3.453898057341575623e-02
1.267000000000000000e+03 4.060190320014953613e-01 2.190965414047241211e+00 -2.521563507616519928e-02 -3.364226818084716797e-01 -1.084914878010749817e-01 1.178051754832267761e-01
1.268000000000000000e+03 6.179156303405761719e-01 4.983645915985107422e+00 3.745128959417343140e-02 -1.037676095962524414e+00 -3.000674247741699219e-01 6.808461248874664307e-02
1.269000000000000000e+03 1.900772452354431152e+00 6.613216400146484375e+00 2.155791074037551880e-01 -5.874313116073608398e-01 -1.115556731820106506e-01 -2.692238688468933105e-01
1.270000000000000000e+03 1.805853724479675293e+00 9.155808448791503906e+00 8.724169433116912842e-02 -5.198787897825241089e-02 1.057614479213953018e-02 -6.112922430038452148e-01
1.271000000000000000e+03 6.575435996055603027e-01 1.203288745880126953e+01 -6.201966479420661926e-02 6.320489645004272461e-01 1.710087805986404419e-01 -2.160810679197311401e-01
1.272000000000000000e+03 1.974373936653137207e+00 1.185792732238769531e+01 -2.256536856293678284e-02 6.894189119338989258e-01 2.000560611486434937e-01 -6.413025259971618652e-01
1.273000000000000000e+03 6.932759881019592285e-01 1.631655120849609375e+01 3.508896380662918091e-02 1.679330825805664062e+00 5.143259167671203613e-01 -1.099914461374282837e-01
1.274000000000000000e+03 6.515238881111145020e-01 1.916411972045898438e+01 3.390042111277580261e-02 1.955287933349609375e+00 5.967565178871154785e-01 -2.657391130924224854e-02
1.275000000000000000e+03 6.406246423721313477e-01 2.199478912353515625e+01 2.799632027745246887e-02 1.977043151855468750e+00 6.015118360519409180e-01 1.729975827038288116e-02
1.276000000000000000e+03 6.675364971160888672e-01 2.481305313110351562e+01 1.999785564839839935e-02 1.866164088249206543e+00 5.658485889434814453e-01 3.646408021450042725e-02
1.277000000000000000e+03 6.853210330009460449e-01 2.621911430358886719e+01 -1.810767874121665955e-02 1.792096257209777832e+00 5.321965813636779785e-01 3.477486595511436462e-02
1.278000000000000000e+03 6.942291259765625000e-01 2.902363777160644531e+01 -4.952564835548400879e-03 1.633163213729858398e+00 4.884631931781768799e-01 3.632539138197898865e-02
1.279000000000000000e+03 2.057546377182006836e+00 3.034812736511230469e+01 1.978862099349498749e-03 1.449233412742614746e+00 4.353637099266052246e-01 9.564231336116790771e-02
1.280000000000000000e+03 6.743383407592773438e-01 3.320652389526367188e+01 1.918129273690283298e-03 1.419263005256652832e+00 4.263543486595153809e-01 3.016861155629158020e-02
1.281000000000000000e+03 7.188722491264343262e-01 3.597169113159179688e+01 -7.537445635534822941e-04 1.311183810234069824e+00 3.931289911270141602e-01 2.534821070730686188e-02
1.282000000000000000e+03 3.543007850646972656e+00 3.667761230468750000e+01 1.761754229664802551e-02 1.189816474914550781e+00 3.622301816940307617e-01 7.758888602256774902e-02
1.283000000000000000e+03 1.355148434638977051e+00 4.002608108520507812e+01 -5.972203332930803299e-03 1.191816926002502441e+00 3.557534217834472656e-01 2.773709036409854889e-02
1.284000000000000000e+03 1.047989368438720703e+01 1.797560811042785645e+00 -1.485671281814575195e+00 1.299120306968688965e+00 -5.596528947353363037e-02 -1.093506291508674622e-01
1.285000000000000000e+03 7.398159027099609375e+00 2.822898626327514648e+00 1.354502320289611816e+00 -2.545269951224327087e-02 3.987148702144622803e-01 1.170644283294677734e+00
1.286000000000000000e+03 4.295208454132080078e+00 1.886432170867919922e+00 -4.970291852951049805e-01 -3.461521565914154053e-01 -2.529543936252593994e-01 9.319330453872680664e-01
1.287000000000000000e+03 4.414072513580322266e+00 2.656078100204467773e+00 7.624193280935287476e-02 -2.724998891353607178e-01 -5.887738615274429321e-02 9.134849905967712402e-01
1.288000000000000000e+03 2.004557847976684570e+00 2.062958955764770508e+00 -1.465543508529663086e-01 -2.588988244533538818e-01 -1.216359511017799377e-01 4.686608314514160156e-01
1.289000000000000000e+03 1.212509036064147949e+00 2.139771461486816406e+00 -8.585228770971298218e-02 -3.520283401012420654e-01 -1.313641816377639771e-01 3.258687555789947510e-01
1.290000000000000000e+03 1.245526218414306641e+01 2.632155895233154297e+00 2.639961719512939453e+00 1.894233584403991699e+00 1.360258579254150391e+00 -4.148758411407470703e+00
1.291000000000000000e+03 1.322537803649902344e+01 1.874417662620544434e+00 1.386988520622253418e+00 6.459327996708452702e-04 4.162903428077697754e-01 -2.275036096572875977e+00
1.292000000000000000e+03 1.384699440002441406e+01 1.949976205825805664e+00 2.784976363182067871e-01 -6.420899033546447754e-01 -1.090776845812797546e-01 -1.381229877471923828e+00
1.293000000000000000e+03 1.491827678680419922e+01 2.832924365997314453e+00 5.423229217529296875e+00 -2.312233209609985352e+00 9.332987666130065918e-01 2.884565107524394989e-02
1.294000000000000000e+03 2.116333007812500000e+01 -3.198425769805908203e-01 3.490488767623901367e+00 8.235203742980957031e+00 3.517707824707031250e+00 -5.326123237609863281e+00
1.295000000000000000e+03 2.293992996215820312e+01 -2.433283090591430664e+00 5.243852138519287109e+00 9.198713302612304688e+00 4.332769870758056641e+00 -6.659185886383056641e+00
1.296000000000000000e+03 2.523572540283203125e+01 -5.978345394134521484e+00 2.439130067825317383e+00 1.435851097106933594e+01 5.039292335510253906e+00 -4.629858016967773438e+00
1.297000000000000000e+03 1.746472167968750000e+01 -4.602507591247558594e+00 -1.814973950386047363e-01 -6.129722297191619873e-02 -7.283838838338851929e-02 2.611022889614105225e-01
1.298000000000000000e+03 6.513275909423828125e+01 8.444090843200683594e+00 1.795845389366149902e+00 1.176546573638916016e+01 4.068393230438232422e+00 3.276617050170898438e+00
1.299000000000000000e+03 6.360467529296875000e+01 6.285738945007324219e+00 8.910125494003295898e-01 4.058344841003417969e+00 1.484807252883911133e+00 1.746533036231994629e+00
1.300000000000000000e+03 6.459276580810546875e+01 5.348083019256591797e+00 4.133955240249633789e-01 5.946479320526123047e+00 1.907962441444396973e+00 1.498794555664062500e+00
1.301000000000000000e+03 6.080157470703125000e+01 3.280204534530639648e+00 -1.733473539352416992e+00 3.251062631607055664e-01 -4.225101768970489502e-01 -1.269998699426651001e-01
1.302000000000000000e+03 5.848473739624023438e+01 -1.501670922152698040e-03 -1.481811046600341797e+00 7.857980132102966309e-01 -2.088039070367813110e-01 -1.464266657829284668e+00
1.303000000000000000e+03 5.523391342163085938e+01 7.386866569519042969e+00 8.026477098464965820e-01 7.596628189086914062e+00 2.519782781600952148e+00 2.401300668716430664e+00
1.304000000000000000e+03 2.149321556091308594e+01 1.065268325805664062e+01 -2.749704599380493164e+00 6.446449756622314453e-01 -6.315178871154785156e-01 -5.992985367774963379e-01
1.305000000000000000e+03 1.598097610473632812e+01 6.469768047332763672e+00 -6.003201007843017578e+00 -4.261275768280029297e+00 -3.079343080520629883e+00 -4.932231426239013672e+00
1.306000000000000000e+03 1.440981483459472656e+01 1.194475364685058594e+01 -1.516958236694335938e+00 -8.796764016151428223e-01 -7.189903855323791504e-01 -1.067458629608154297e+00
1.307000000000000000e+03 1.779956436157226562e+01 1.435876941680908203e+01 -2.335084915161132812e+00 -6.681015491485595703e-01 -9.009559154510498047e-01 -1.209841728210449219e+00
1.308000000000000000e+03 1.898891258239746094e+01 1.503418827056884766e+01 -2.500670671463012695e+00 -6.649689078330993652e-01 -9.496918320655822754e-01 -1.301826000213623047e+00
1.309000000000000000e+03 2.343817710876464844e+01 1.791827964782714844e+01 -1.883819580078125000e+00 3.607858717441558838e-01 -4.569101333618164062e-01 -1.653862714767456055e+00
1.310000000000000000e+03 3.793652725219726562e+01 -6.319738864898681641e+00 -7.320326566696166992e-01 -3.178493499755859375e+00 -1.173157811164855957e+00 1.854044079780578613e+00
1.311000000000000000e+03 3.996364593505859375e+01 -9.945279121398925781e+00 -1.165413737297058105e+00 2.802410423755645752e-01 -2.655517756938934326e-01 1.415730714797973633e+00
1.312000000000000000e+03 4.099315643310546875e+01 -1.267509365081787109e+01 -8.895233273506164551e-02 7.148638248443603516e+00 2.117905855178833008e+00 5.793249607086181641e-01
1.313000000000000000e+03 3.575683212280273438e+01 -1.360426330566406250e+01 7.045838236808776855e-01 1.210384726524353027e+00 5.744905471801757812e-01 -9.816558957099914551e-01
1.314000000000000000e+03 3.313365173339843750e+01 -1.041743469238281250e+01 1.045159578323364258e+00 1.810195207595825195e+00 8.566064834594726562e-01 -1.409432291984558105e+00
1.315000000000000000e+03 3.169399642944335938e+01 -8.023009300231933594e+00 5.701456665992736816e-01 6.474251151084899902e-01 3.652712404727935791e-01 -8.396981358528137207e-01
1.316000000000000000e+03 3.023549461364746094e+01 -4.036867141723632812e+00 1.532778143882751465e-01 -9.116730839014053345e-02 1.863315142691135406e-02 6.010876297950744629e-01
1.317000000000000000e+03 5.412066650390625000e+01 -9.069178581237792969e+00 9.084947109222412109e-01 5.063084125518798828e+00 1.791473627090454102e+00 -1.985422611236572266e+00
1.318000000000000000e+03 5.624206924438476562e+01 -1.595281410217285156e+01 7.944560050964355469e-02 1.472408962249755859e+01 4.441060543060302734e+00 -3.854600787162780762e-01
1.319000000000000000e+03 5.099324035644531250e+01 -1.666053390502929688e+01 -1.998499989509582520e+00 -1.655128836631774902e+00 -1.096088647842407227e+00 1.524177074432373047e+00
1.320000000000000000e+03 4.903033447265625000e+01 -1.453411102294921875e+01 -1.515859365463256836e+00 -1.279894948005676270e+00 -8.387262821197509766e-01 1.345069050788879395e+00
1.321000000000000000e+03 4.629795074462890625e+01 -1.095559692382812500e+01 -5.274952650070190430e-01 2.344601869583129883e+00 5.451319813728332520e-01 1.917074024677276611e-01
1.322000000000000000e+03 6.996167755126953125e+01 -6.401475906372070312e+00 5.024356842041015625e-01 2.417058467864990234e+00 8.758482336997985840e-01 -1.364409565925598145e+00
1.323000000000000000e+03 7.083165740966796875e+01 -7.470504760742187500e+00 1.313233494758605957e+00 4.687376499176025391e+00 1.800183057785034180e+00 -2.278538465499877930e+00
1.324000000000000000e+03 7.208759307861328125e+01 -9.919116973876953125e+00 1.150962233543395996e+00 1.293748378753662109e+01 4.226533889770507812e+00 -1.584457397460937500e+00
1.325000000000000000e+03 6.422252655029296875e+01 -1.225058460235595703e+01 2.565459534525871277e-02 4.389731884002685547e+00 1.324615955352783203e+00 -7.972829341888427734e-01
1.326000000000000000e+03 6.417252349853515625e+01 -1.083539009094238281e+01 1.392680108547210693e-01 5.444012165069580078e+00 1.674984097480773926e+00 -1.452369570732116699e+00
1.327000000000000000e+03 6.341330337524414062e+01 -8.240724563598632812e+00 3.292975127696990967e-01 1.112924766540527344e+01 3.437563657760620117e+00 -1.236003398895263672e+00
1.328000000000000000e+03 6.982842254638671875e+01 7.055795669555664062e+00 -3.828830644488334656e-02 8.030220031738281250e+00 2.397579431533813477e+00 1.149605274200439453e+00
1.329000000000000000e+03 3.640830230712890625e+01 1.332664585113525391e+01 -1.991455674171447754e+00 -1.014675498008728027e+00 -9.018393754959106445e-01 1.333344697952270508e+00
1.330000000000000000e+03 2.067000198364257812e+01 2.639986276626586914e+00 1.043612718582153320e+00 1.288103008270263672e+01 4.177392959594726562e+00 -1.360731959342956543e+00
1.331000000000000000e+03 2.000606536865234375e+01 2.349862813949584961e+00 8.965139389038085938e-01 7.513753414154052734e+00 2.523080110549926758e+00 -4.759301543235778809e-01
1.332000000000000000e+03 1.986479949951171875e+01 3.414979457855224609e+00 9.668462753295898438e+00 6.354028701782226562e+00 4.806747436523437500e+00 1.669517040252685547e+00
1.333000000000000000e+03 1.910242652893066406e+01 3.891249656677246094e+00 1.043029689788818359e+01 4.951151013374328613e-01 3.277623653411865234e+00 4.309259951114654541e-01
1.334000000000000000e+03 1.944984245300292969e+01 4.495882987976074219e+00 1.102782821655273438e+01 2.943671464920043945e+00 4.191450119018554688e+00 -1.105418682098388672e+00
1.335000000000000000e+03 2.009519577026367188e+01 5.186663627624511719e+00 7.263316631317138672e+00 8.680974006652832031e+00 4.783287048339843750e+00 -2.457809686660766602e+00
1.336000000000000000e+03 2.057317924499511719e+01 5.623156547546386719e+00 2.688152074813842773e+00 1.146733570098876953e+01 4.246646404266357422e+00 -1.368230283260345459e-01
1.337000000000000000e+03 1.941579437255859375e+01 4.967094898223876953e+00 9.112033843994140625e+00 3.607118844985961914e+00 3.815745592117309570e+00 -1.938663959503173828e+00
1.338000000000000000e+03 1.970488929748535156e+01 5.048530101776123047e+00 8.554874420166015625e+00 5.030545234680175781e+00 4.075625896453857422e+00 -2.216949701309204102e+00
1.339000000000000000e+03 1.988566970825195312e+01 4.844159603118896484e+00 1.021341419219970703e+01 6.189401149749755859e+00 4.920844554901123047e+00 -2.321116685867309570e+00
1.340000000000000000e+03 1.979498291015625000e+01 4.652403831481933594e+00 1.116503810882568359e+01 5.538768768310546875e+00 5.011141777038574219e+00 -2.064091205596923828e+00
1.341000000000000000e+03 1.972548675537109375e+01 4.226827144622802734e+00 1.259550762176513672e+01 4.634184837341308594e+00 5.168907642364501953e+00 -6.275181770324707031e-01
1.342000000000000000e+03 2.100883483886718750e+01 5.762220382690429688e+00 1.222131967544555664e+00 1.219849205017089844e+01 4.026187419891357422e+00 2.304479837417602539e+00
1.343000000000000000e+03 2.033628463745117188e+01 2.409203052520751953e+00 1.092526793479919434e+00 9.989476203918457031e+00 3.324600934982299805e+00 -8.585265278816223145e-01
1.344000000000000000e+03 2.073890304565429688e+01 2.284095764160156250e+00 -1.329647004604339600e-01 1.202266311645507812e+01 3.566909313201904297e+00 -2.298402309417724609e+00
1.345000000000000000e+03 2.122498893737792969e+01 5.799340248107910156e+00 1.309632658958435059e+00 1.227586841583251953e+01 4.075650215148925781e+00 3.539649486541748047e+00
1.346000000000000000e+03 2.189137840270996094e+01 5.782247066497802734e+00 2.564819574356079102e+00 8.725270271301269531e+00 3.387027025222778320e+00 6.340485095977783203e+00
1.347000000000000000e+03 2.144435882568359375e+01 5.819849014282226562e+00 1.519655108451843262e+00 1.120834922790527344e+01 3.818401336669921875e+00 4.777890682220458984e+00
1.348000000000000000e+03 2.130381202697753906e+01 2.437375307083129883e+00 -7.211049199104309082e-01 1.342386913299560547e+01 3.810829401016235352e+00 -4.885255813598632812e+00
1.349000000000000000e+03 2.236223220825195312e+01 6.142638683319091797e+00 2.651659965515136719e+00 6.079289913177490234e+00 2.619284868240356445e+00 5.750276088714599609e+00
1.350000000000000000e+03 2.206764602661132812e+01 6.031407833099365234e+00 2.054713964462280273e+00 7.589407444000244141e+00 2.893236398696899414e+00 5.815212726593017578e+00
1.351000000000000000e+03 2.211595726013183594e+01 2.399663925170898438e+00 1.068143695592880249e-01 9.062392234802246094e+00 2.750761985778808594e+00 -6.054844856262207031e+00
1.352000000000000000e+03 2.151530265808105469e+01 2.473972558975219727e+00 -4.680425524711608887e-01 1.247890949249267578e+01 3.603260040283203125e+00 -5.417281150817871094e+00
1.353000000000000000e+03 2.298297309875488281e+01 5.899135112762451172e+00 3.823132514953613281e+00 3.788546085357666016e+00 2.283503532409667969e+00 5.119960308074951172e+00
1.354000000000000000e+03 2.229625129699707031e+01 5.696435928344726562e+00 3.554485559463500977e+00 6.137726306915283203e+00 2.907663583755493164e+00 6.529422760009765625e+00
1.355000000000000000e+03 2.248030281066894531e+01 2.385318279266357422e+00 7.521017789840698242e-01 6.947657585144042969e+00 2.309927701950073242e+00 -5.155238151550292969e+00
1.356000000000000000e+03 2.216345787048339844e+01 1.546165227890014648e+00 -1.727666854858398438e+00 9.010130882263183594e+00 2.184739112854003906e+00 -5.081981182098388672e+00
1.357000000000000000e+03 2.275963973999023438e+01 5.850085735321044922e+00 3.621020078659057617e+00 4.426810264587402344e+00 2.414349079132080078e+00 5.365246295928955078e+00
1.358000000000000000e+03 2.265224647521972656e+01 2.318602800369262695e+00 1.888487637042999268e-01 5.853968620300292969e+00 1.812845110893249512e+00 -4.764132022857666016e+00
1.359000000000000000e+03 2.209153747558593750e+01 5.736836433410644531e+00 3.523997783660888672e+00 7.141490936279296875e+00 3.199646711349487305e+00 6.537740230560302734e+00
1.360000000000000000e+03 2.308353805541992188e+01 2.235387086868286133e+00 -1.608979105949401855e-01 4.717298507690429688e+00 1.366920232772827148e+00 -3.313874483108520508e+00
1.361000000000000000e+03 2.349809455871582031e+01 2.200163125991821289e+00 -1.234965205192565918e+00 3.952776432037353516e+00 8.153433799743652344e-01 -2.740568399429321289e+00
1.362000000000000000e+03 2.422416305541992188e+01 1.422710180282592773e+00 -2.724326610565185547e+00 6.062876582145690918e-01 -6.354116797447204590e-01 -4.215100765228271484e+00
1.363000000000000000e+03 2.285111045837402344e+01 2.245637655258178711e+00 -1.234632730484008789e-01 5.909740924835205078e+00 1.735883235931396484e+00 -4.097228527069091797e+00
1.364000000000000000e+03 2.276168823242187500e+01 1.769496202468872070e+00 -1.372544765472412109e+00 6.820737838745117188e+00 1.634457945823669434e+00 -4.741546154022216797e+00
1.365000000000000000e+03 2.335503959655761719e+01 1.957706570625305176e+00 -2.015203237533569336e+00 4.872399330139160156e+00 8.571588993072509766e-01 -2.956168651580810547e+00
1.366000000000000000e+03 3.604233169555664062e+01 6.793869972229003906e+00 -2.378088086843490601e-01 -1.271610558032989502e-01 -1.094909608364105225e-01 1.318428516387939453e-01
1.367000000000000000e+03 1.162750625610351562e+01 2.636665105819702148e+00 1.611244797706604004e+00 2.458929061889648438e+00 1.221052169799804688e+00 -2.065718889236450195e+00
1.368000000000000000e+03 1.444650363922119141e+01 1.945072054862976074e+00 6.241900324821472168e-01 -1.997186303138732910e+00 -4.118988811969757080e-01 -1.199107885360717773e+00
1.369000000000000000e+03 1.513318443298339844e+01 2.093940734863281250e+00 1.340892314910888672e+00 -2.172896385192871094e+00 -2.496012151241302490e-01 -6.144477725028991699e-01
1.370000000000000000e+03 1.534339332580566406e+01 3.803515672683715820e+00 9.683588981628417969e+00 -1.678949594497680664e+00 2.401391983032226562e+00 -1.921521663665771484e+00
1.371000000000000000e+03 1.263076686859130859e+01 3.345786809921264648e+00 6.714263439178466797e+00 -3.675892353057861328e-01 1.904002189636230469e+00 -4.149153709411621094e+00
1.372000000000000000e+03 3.633610153198242188e+01 1.438261127471923828e+01 -3.210418939590454102e+00 -2.489833682775497437e-01 -1.037820696830749512e+00 8.184524625539779663e-02
1.373000000000000000e+03 3.781679153442382812e+01 1.386402893066406250e+01 -2.191904783248901367e+00 2.015252709388732910e-01 -5.971138477325439453e-01 5.100010633468627930e-01
1.374000000000000000e+03 3.915090560913085938e+01 1.295944786071777344e+01 -1.551305532455444336e+00 2.415689677000045776e-01 -3.929209709167480469e-01 3.889588415622711182e-01
1.375000000000000000e+03 2.609679985046386719e+01 -3.927457332611083984e-01 1.627797245979309082e+00 9.251143932342529297e-01 7.658734917640686035e-01 -1.384100317955017090e+00
1.376000000000000000e+03 2.477206230163574219e+01 1.112137436866760254e+00 -1.981284022331237793e+00 4.058461189270019531e-01 -4.726313948631286621e-01 -2.797096252441406250e+00
1.377000000000000000e+03 1.180919742584228516e+01 1.817613363265991211e+00 -7.084409594535827637e-01 1.075426459312438965e+00 1.100956574082374573e-01 -2.200605869293212891e+00
1.378000000000000000e+03 1.164523410797119141e+01 3.510274887084960938e+00 5.271687507629394531e+00 4.235079288482666016e+00 2.852030038833618164e+00 -4.218183040618896484e+00
1.379000000000000000e+03 1.014914703369140625e+01 2.787976264953613281e+00 1.574682712554931641e+00 2.377033233642578125e+00 1.185514688491821289e+00 -4.337682723999023438e-01
1.380000000000000000e+03 1.399429035186767578e+01 -2.852213859558105469e+00 -1.406815946102142334e-01 5.878943204879760742e-02 -2.456764876842498779e-02 7.387838512659072876e-02
1.381000000000000000e+03 9.537053108215332031e+00 -1.843019962310791016e+00 -9.522157907485961914e-02 -8.794868364930152893e-03 -3.120493516325950623e-02 -1.116370130330324173e-02
1.382000000000000000e+03 1.090400028228759766e+01 -2.616444826126098633e+00 -1.206113249063491821e-01 5.447121337056159973e-02 -1.984203234314918518e-02 2.603019587695598602e-03
1.383000000000000000e+03 1.104416656494140625e+01 -1.903454661369323730e+00 -1.104400604963302612e-01 -1.034362241625785828e-02 -3.623510524630546570e-02 2.044139429926872253e-03
1.384000000000000000e+03 4.244910240173339844e+00 -2.766517877578735352e+00 -2.915243431925773621e-02 -1.485663000494241714e-02 -1.320271939039230347e-02 -3.725095093250274658e-02
1.385000000000000000e+03 3.465147733688354492e+00 -1.902109861373901367e+00 -2.328142151236534119e-02 -4.818873014301061630e-03 -8.430087938904762268e-03 -1.977427862584590912e-02
1.386000000000000000e+03 2.709377050399780273e+00 -1.900099396705627441e+00 -1.342078577727079391e-02 -9.961239993572235107e-03 -7.014607544988393784e-03 -1.805797033011913300e-02
1.387000000000000000e+03 7.274313449859619141e+00 -1.840643882751464844e+00 -7.841081172227859497e-02 1.647372730076313019e-02 -1.858112402260303497e-02 -2.949921786785125732e-02
1.388000000000000000e+03 5.319236516952514648e-01 -3.571583032608032227e+00 -3.565115621313452721e-03 -1.529744919389486313e-02 -5.658769514411687851e-03 -7.678009103983640671e-03
1.389000000000000000e+03 6.025207638740539551e-01 -5.034056186676025391e+00 1.121538807637989521e-03 -3.708121925592422485e-02 -1.078790426254272461e-02 -1.071483548730611801e-02
1.390000000000000000e+03 8.719488143920898438e+00 -2.502527475357055664e+00 -8.952799439430236816e-02 -4.432068206369876862e-03 -2.818801999092102051e-02 -2.608190104365348816e-02
1.391000000000000000e+03 7.995470046997070312e+00 -2.499706745147705078e+00 -9.270986169576644897e-02 2.414996176958084106e-02 -2.056797035038471222e-02 -3.740824386477470398e-02
1.392000000000000000e+03 6.545531749725341797e+00 -2.584661006927490234e+00 -7.680424302816390991e-02 1.251664571464061737e-02 -1.928628049790859222e-02 -4.010383412241935730e-02
1.393000000000000000e+03 5.796403884887695312e+00 -2.659320592880249023e+00 -4.041233286261558533e-02 -1.314421836286783218e-02 -1.606696471571922302e-02 -3.963243961334228516e-02
1.394000000000000000e+03 8.177960395812988281e+00 1.982525110244750977e+00 -9.170074462890625000e-01 5.398449897766113281e-01 -1.131487414240837097e-01 1.400468826293945312e+00
1.395000000000000000e+03 6.582054138183593750e+00 1.895206570625305176e+00 -6.704159975051879883e-01 -1.228834018111228943e-01 -2.379898130893707275e-01 1.303459167480468750e+00
1.396000000000000000e+03 2.220952272415161133e+00 3.146628618240356445e+00 4.221659526228904724e-02 -5.120129585266113281e-01 -1.409389078617095947e-01 5.677514076232910156e-01
1.397000000000000000e+03 2.779856920242309570e+00 1.985372424125671387e+00 -2.690566778182983398e-01 -2.957427501678466797e-01 -1.694398373365402222e-01 6.600275635719299316e-01
1.398000000000000000e+03 8.285750389099121094e+00 2.975225210189819336e+00 2.174876928329467773e+00 3.076134026050567627e-01 7.447471022605895996e-01 1.428137540817260742e+00
1.399000000000000000e+03 5.112238407135009766e+00 2.598677873611450195e+00 1.164380386471748352e-01 -5.000545382499694824e-01 -1.150849461555480957e-01 1.089999198913574219e+00
1.400000000000000000e+03 5.048181056976318359e+00 1.867425084114074707e+00 -6.225044131278991699e-01 -1.506363898515701294e-01 -2.319422364234924316e-01 1.016682386398315430e+00
1.401000000000000000e+03 3.714272737503051758e+00 2.756434679031372070e+00 9.944599866867065430e-02 -4.858016371726989746e-01 -1.159066930413246155e-01 8.415588736534118652e-01
1.402000000000000000e+03 3.283895254135131836e+00 3.717208385467529297e+00 3.814905881881713867e-01 -6.024726033210754395e-01 -6.629459559917449951e-02 5.893242359161376953e-01
1.403000000000000000e+03 4.001221466064453125e+01 1.369433784484863281e+01 -1.735592365264892578e+00 4.447292089462280273e-01 -3.872589468955993652e-01 1.577750593423843384e-01
1.404000000000000000e+03 4.172158813476562500e+01 1.374026393890380859e+01 -1.693197131156921387e+00 4.976898729801177979e-01 -3.586521744728088379e-01 -1.348502337932586670e-01
1.405000000000000000e+03 4.159023666381835938e+01 1.261157512664794922e+01 -1.369997620582580566e+00 3.631748557090759277e-01 -3.020468354225158691e-01 -1.269588321447372437e-01
1.406000000000000000e+03 4.082378387451171875e+01 1.369105529785156250e+01 -1.664496421813964844e+00 5.292240381240844727e-01 -3.405817151069641113e-01 8.355427533388137817e-03
1.407000000000000000e+03 4.306472015380859375e+01 1.296882057189941406e+01 -1.466972947120666504e+00 2.765716016292572021e-01 -3.571203947067260742e-01 -3.257183730602264404e-01
1.408000000000000000e+03 4.075582885742187500e+01 1.463919162750244141e+01 -1.843534588813781738e+00 6.105559468269348145e-01 -3.698935806751251221e-01 -1.199499890208244324e-02
1.409000000000000000e+03 1.417594337463378906e+01 -1.986076474189758301e+00 -1.087363660335540771e-01 -3.050000779330730438e-02 -4.177091270685195923e-02 3.210778534412384033e-02
1.410000000000000000e+03 1.447958564758300781e+01 -3.868048667907714844e+00 -1.913337558507919312e-01 9.546291828155517578e-02 -2.876125089824199677e-02 1.238479837775230408e-01
1.411000000000000000e+03 1.242244625091552734e+01 -2.713582992553710938e+00 -1.271787285804748535e-01 6.185845285654067993e-02 -1.959608308970928192e-02 3.730783984065055847e-02
1.412000000000000000e+03 3.678532409667968750e+01 9.528235435485839844e+00 -1.533831655979156494e-02 -2.191674429923295975e-03 -5.258997436612844467e-03 -5.879057105630636215e-03
1.413000000000000000e+03 2.543859100341796875e+01 -1.167131423950195312e+01 -6.961212158203125000e-01 6.045149803161621094e+00 1.604708671569824219e+00 8.318116068840026855e-01
1.414000000000000000e+03 2.625626182556152344e+01 -1.064052295684814453e+01 -1.030180573463439941e+00 6.694384574890136719e+00 1.699261188507080078e+00 -1.151526451110839844e+00
1.415000000000000000e+03 2.546100807189941406e+01 1.491597175598144531e+01 3.477114915847778320e+00 1.460953903198242188e+01 5.425996303558349609e+00 2.357672691345214844e+00
1.416000000000000000e+03 2.714639472961425781e+01 1.945548820495605469e+01 -1.557595491409301758e+00 3.440568923950195312e+00 5.648920536041259766e-01 7.843076586723327637e-01
1.417000000000000000e+03 6.638394165039062500e+01 1.378445148468017578e+01 1.624807417392730713e-01 1.186945343017578125e+01 3.609580039978027344e+00 3.928087949752807617e-01
1.418000000000000000e+03 6.548820495605468750e+01 1.477001571655273438e+01 -5.414496064186096191e-01 9.863994598388671875e+00 2.796763420104980469e+00 -2.449676036834716797e+00
1.419000000000000000e+03 7.060140228271484375e+01 -1.703997421264648438e+01 -5.425103902816772461e-01 3.230800867080688477e+00 8.064871430397033691e-01 2.715254783630371094e+00
1.420000000000000000e+03 6.825683593750000000e+01 -1.522372531890869141e+01 -2.047649383544921875e+00 -8.553988337516784668e-01 -8.709144592285156250e-01 9.301813244819641113e-01
1.421000000000000000e+03 1.081370067596435547e+01 4.678787708282470703e+00 1.348917770385742188e+01 8.515023231506347656e+00 6.601260185241699219e+00 -6.502485752105712891e+00
1.422000000000000000e+03 4.365008544921875000e+01 -2.856369018554687500e+00 6.013794541358947754e-01 7.547615528106689453e+00 2.444698572158813477e+00 3.736957609653472900e-01
1.423000000000000000e+03 5.411244583129882812e+01 1.106794834136962891e+01 1.745690107345581055e+00 9.674944877624511719e+00 3.426190614700317383e+00 1.604207754135131836e+00
1.424000000000000000e+03 5.559176254272460938e+01 8.822915554046630859e-01 4.716803729534149170e-01 4.058366298675537109e+00 1.359013915061950684e+00 -5.748515605926513672e+00
1.425000000000000000e+03 5.458560562133789062e+01 1.545596122741699219e+00 5.853268623352050781e+00 1.627058410644531250e+01 6.637155532836914062e+00 -6.372602939605712891e+00
1.426000000000000000e+03 3.992626190185546875e+01 8.280449867248535156e+00 -5.096181295812129974e-03 6.532701104879379272e-02 1.806924864649772644e-02 9.845553897321224213e-03
1.427000000000000000e+03 5.385835266113281250e+01 4.402592182159423828e-01 -1.926726222038269043e+00 1.167333889007568359e+01 2.923983812332153320e+00 -1.911314964294433594e+00
1.428000000000000000e+03 6.698636627197265625e+01 7.130986690521240234e+00 -2.691861987113952637e-01 1.117522907257080078e+01 3.271812915802001953e+00 -5.483429431915283203e-01
1.429000000000000000e+03 7.176441955566406250e+01 -7.965326309204101562e-02 -2.104794502258300781e+00 3.656055450439453125e+00 4.653782844543457031e-01 -4.717842578887939453e+00
1.430000000000000000e+03 2.706843948364257812e+01 4.750737845897674561e-01 8.482750505208969116e-02 -5.137432813644409180e-01 -1.286747455596923828e-01 -1.552161872386932373e-01
1.431000000000000000e+03 3.692121505737304688e+01 8.716748237609863281e+00 1.829659752547740936e-02 -3.980563953518867493e-03 4.294809885323047638e-03 9.468998759984970093e-03
1.432000000000000000e+03 6.148334503173828125e+01 1.544986057281494141e+01 1.352339625358581543e+00 1.511707186698913574e+00 8.592140078544616699e-01 3.367009758949279785e-01
1.433000000000000000e+03 6.347908782958984375e+01 1.484589481353759766e+01 5.858726501464843750e-01 2.276444673538208008e+00 8.586951494216918945e-01 -1.500549316406250000e+00
1.434000000000000000e+03 7.323413848876953125e+01 9.747797966003417969e+00 -1.453553318977355957e+00 1.173572421073913574e+00 -8.399426192045211792e-02 -1.891066312789916992e+00
1.435000000000000000e+03 7.451683044433593750e+01 1.007336711883544922e+01 -2.612663507461547852e-01 4.858245849609375000e+00 1.379093766212463379e+00 -2.710420370101928711e+00
1.436000000000000000e+03 6.776969909667968750e+01 3.233725070953369141e+00 2.315230131149291992e+00 7.686024665832519531e+00 3.000376462936401367e+00 2.455760911107063293e-02
1.437000000000000000e+03 5.871049499511718750e+01 1.705904364585876465e+00 -6.136936187744140625e+00 -1.653174161911010742e+00 -2.337033271789550781e+00 -2.727152824401855469e+00
1.438000000000000000e+03 5.741329193115234375e+01 -8.525966405868530273e-01 -9.087257981300354004e-01 1.784972906112670898e+00 2.628741264343261719e-01 -3.839560508728027344e+00
1.439000000000000000e+03 7.744806671142578125e+01 1.046395206451416016e+01 -3.439921438694000244e-01 8.380730628967285156e+00 2.411021471023559570e+00 3.486049547791481018e-02
1.440000000000000000e+03 7.578239440917968750e+01 1.078166770935058594e+01 -6.520004868507385254e-01 8.405706405639648438e+00 2.326111793518066406e+00 -2.462119817733764648e+00
1.441000000000000000e+03 7.534314727783203125e+01 5.077586770057678223e-01 -3.431344747543334961e+00 5.998097419738769531e+00 7.700257897377014160e-01 8.757065534591674805e-01
1.442000000000000000e+03 5.688568878173828125e+01 1.159933185577392578e+01 1.132359385490417480e+00 3.169577598571777344e+00 1.290581107139587402e+00 1.880524158477783203e+00
1.443000000000000000e+03 6.240074539184570312e+01 3.063946485519409180e+00 -1.584684610366821289e+00 3.299132108688354492e+00 5.143342614173889160e-01 1.632757663726806641e+00
1.444000000000000000e+03 6.381127929687500000e+01 1.854897379875183105e+00 -1.332718014717102051e+00 5.219226360321044922e+00 1.165952563285827637e+00 3.046446800231933594e+00
1.445000000000000000e+03 5.416265487670898438e+01 8.067885398864746094e+00 2.471359074115753174e-01 1.102586364746093750e+01 3.381899833679199219e+00 1.058967590332031250e+00
1.446000000000000000e+03 5.897303390502929688e+01 1.385893535614013672e+01 6.245359778404235840e-01 1.883878946304321289e+00 7.525244951248168945e-01 1.626115560531616211e+00
1.447000000000000000e+03 6.124027252197265625e+01 2.316143989562988281e+00 -2.960714101791381836e+00 2.628681182861328125e+00 -9.960986673831939697e-02 3.597031831741333008e-01
1.448000000000000000e+03 6.024380874633789062e+01 1.468612098693847656e+01 6.880170106887817383e-01 1.581450223922729492e+00 6.808401346206665039e-01 1.141683816909790039e+00
1.449000000000000000e+03 6.541580963134765625e+01 6.532124519348144531e+00 5.249653384089469910e-02 9.486460685729980469e+00 2.861687183380126953e+00 1.028660535812377930e+00
1.450000000000000000e+03 7.014572906494140625e+01 -4.148025065660476685e-02 -3.251997232437133789e+00 6.122234344482421875e+00 8.610710501670837402e-01 -2.739987611770629883e+00
1.451000000000000000e+03 7.200979614257812500e+01 1.001054382324218750e+01 -1.209833264350891113e+00 1.663462370634078979e-01 -3.130461275577545166e-01 -3.436074852943420410e-01
1.452000000000000000e+03 4.003072357177734375e+01 -1.264490008354187012e+00 5.350494980812072754e-01 -3.807596266269683838e-01 4.628695547580718994e-02 -2.578986883163452148e-01
1.453000000000000000e+03 1.193632411956787109e+01 4.414828777313232422e+00 1.334576606750488281e+01 1.434956669807434082e+00 4.434216976165771484e+00 -1.663119912147521973e+00
1.454000000000000000e+03 7.925140380859375000e+00 7.570157527923583984e+00 1.118220925331115723e+00 2.031364917755126953e+00 9.448757767677307129e-01 -2.060191154479980469e+00
1.455000000000000000e+03 9.065832138061523438e+00 7.053952217102050781e+00 1.581183433532714844e+00 3.444149017333984375e+00 1.507599711418151855e+00 -3.045570373535156250e+00
1.456000000000000000e+03 6.725454711914062500e+01 4.190473556518554688e+00 2.590755224227905273e+00 9.100946426391601562e+00 3.507510423660278320e+00 -8.598455190658569336e-01
1.457000000000000000e+03 6.883541870117187500e+01 7.774327278137207031e+00 -1.110153198242187500e+00 1.044073486328125000e+01 2.799174547195434570e+00 -9.658387303352355957e-01
1.458000000000000000e+03 6.549034881591796875e+01 -1.471596002578735352e+00 -3.772964715957641602e+00 6.596122868359088898e-03 -1.129910588264465332e+00 3.943213462829589844e+00
1.459000000000000000e+03 2.683479499816894531e+01 1.477381515502929688e+01 2.733129262924194336e+00 3.796953678131103516e+00 1.959024906158447266e+00 1.122661471366882324e+00
1.460000000000000000e+03 3.909556198120117188e+01 -2.073644256591796875e+01 1.520848087966442108e-02 3.939385175704956055e+00 1.186378002166748047e+00 3.563907146453857422e-01
1.461000000000000000e+03 3.970708084106445312e+01 -1.693252754211425781e+01 3.083315134048461914e+00 3.868109226226806641e+00 2.085427284240722656e+00 1.777402162551879883e+00
1.462000000000000000e+03 4.983440780639648438e+01 1.543241786956787109e+01 2.175694555044174194e-01 9.160344123840332031e+00 2.813374042510986328e+00 -3.851391315460205078e+00
1.463000000000000000e+03 5.107447052001953125e+01 1.688032722473144531e+01 -2.784075260162353516e+00 1.016342067718505859e+01 2.213803529739379883e+00 -4.671293497085571289e-01
1.464000000000000000e+03 5.842204666137695312e+01 -1.826611137390136719e+01 1.092392086982727051e+00 8.657049179077148438e+00 2.924832344055175781e+00 -7.750820517539978027e-01
1.465000000000000000e+03 2.480138397216796875e+01 1.215691852569580078e+01 -1.131971478462219238e+00 8.141699790954589844e+00 2.102918386459350586e+00 1.650039315223693848e+00
1.466000000000000000e+03 2.694754981994628906e+01 1.239509105682373047e+01 -7.550015449523925781e-01 4.368190288543701172e+00 1.083956718444824219e+00 -9.485424309968948364e-02
1.467000000000000000e+03 2.900849723815917969e+01 -2.677097558975219727e+00 1.540525197982788086e+00 3.358128309249877930e+00 1.469596028327941895e+00 2.862684965133666992e+00
1.468000000000000000e+03 2.913155746459960938e+01 -4.260745048522949219e+00 8.087521791458129883e-01 2.553763628005981445e+00 1.008754730224609375e+00 2.013322263956069946e-01
1.469000000000000000e+03 3.636414337158203125e+01 -1.773196339607238770e+00 8.866872787475585938e-01 -1.519104480743408203e+00 -1.897251754999160767e-01 6.233337894082069397e-02
1.470000000000000000e+03 6.220859909057617188e+01 -8.461978912353515625e+00 7.899504303932189941e-01 9.776533126831054688e+00 3.169945001602172852e+00 3.526377379894256592e-01
1.471000000000000000e+03 6.275682449340820312e+01 -1.365520095825195312e+01 -1.502533257007598877e-01 6.034496784210205078e+00 1.765273094177246094e+00 -4.358317852020263672e-01
1.472000000000000000e+03 2.141825103759765625e+01 1.812954711914062500e+01 -1.289616346359252930e+00 -1.857645213603973389e-01 -4.426142573356628418e-01 -7.240779399871826172e-01
1.473000000000000000e+03 6.662026214599609375e+01 -1.524124526977539062e+01 -1.165815711021423340e+00 1.519991874694824219e+00 1.062528491020202637e-01 -2.543181180953979492e-01
1.474000000000000000e+03 3.281861495971679688e+01 -1.221167278289794922e+01 9.069903492927551270e-01 1.993455648422241211e+00 8.701338171958923340e-01 -1.358174443244934082e+00
1.475000000000000000e+03 6.480994415283203125e+01 -1.403883457183837891e+01 -7.426774501800537109e-01 3.791415452957153320e+00 9.146214127540588379e-01 -7.579582333564758301e-01
1.476000000000000000e+03 6.828581237792968750e+01 -2.354200839996337891e+00 -4.595443725585937500e+00 3.438913583755493164e+00 -3.469590842723846436e-01 -5.596874952316284180e-01
1.477000000000000000e+03 6.570309448242187500e+01 -1.456068611145019531e+01 -5.250871181488037109e-01 2.667125225067138672e+00 6.426113843917846680e-01 -6.146820783615112305e-01
1.478000000000000000e+03 1.140175437927246094e+01 1.099771213531494141e+01 -1.138108134269714355e+00 5.868461728096008301e-01 -1.653785854578018188e-01 -5.118571519851684570e-01
1.479000000000000000e+03 1.037611007690429688e+01 9.834405899047851562e+00 -9.202026128768920898e-01 1.186439394950866699e+00 7.987102121114730835e-02 -4.879864752292633057e-01
1.480000000000000000e+03 1.300816726684570312e+01 4.202714920043945312e+00 6.607075214385986328e+00 -1.386121273040771484e+00 1.566286206245422363e+00 -1.525337457656860352e+00
1.481000000000000000e+03 6.077756881713867188e+01 -7.126038074493408203e+00 1.118303418159484863e+00 9.038550376892089844e+00 3.047056198120117188e+00 1.120442628860473633e+00
1.482000000000000000e+03 6.911177062988281250e+01 -3.503114223480224609e+00 -2.951388359069824219e+00 2.987789630889892578e+00 1.092038955539464951e-02 -5.322932600975036621e-01
1.483000000000000000e+03 3.455607604980468750e+01 -1.086330413818359375e-01 1.730812072753906250e+00 -8.165013790130615234e-01 2.742932140827178955e-01 4.111101627349853516e-01
1.484000000000000000e+03 3.391907119750976562e+01 8.942978382110595703e-01 1.389467120170593262e+00 2.021490186452865601e-01 4.774848520755767822e-01 1.697196483612060547e+00
1.485000000000000000e+03 3.657882308959960938e+01 -1.818713378906250000e+01 1.263926506042480469e+00 2.082302808761596680e+00 1.003868818283081055e+00 -3.140757977962493896e-01
1.486000000000000000e+03 1.808812141418457031e+01 1.636821937561035156e+01 -2.063716173171997070e+00 -3.933816552162170410e-01 -7.371293306350708008e-01 -6.912310123443603516e-01
1.487000000000000000e+03 1.673270225524902344e+01 4.335712909698486328e+00 6.887311935424804688e+00 -1.400728940963745117e+00 1.645974874496459961e+00 3.241800963878631592e-01
1.488000000000000000e+03 1.488574695587158203e+01 5.637114524841308594e+00 -1.746056079864501953e+00 -2.992957830429077148e+00 -1.421704173088073730e+00 -3.892240524291992188e+00
1.489000000000000000e+03 9.566339492797851562e+00 8.467792510986328125e+00 -8.838061690330505371e-01 3.354502916336059570e+00 7.412090301513671875e-01 -1.069234609603881836e+00
1.490000000000000000e+03 2.050979042053222656e+01 1.743196868896484375e+01 -2.295618534088134766e+00 -3.758546411991119385e-01 -8.014419674873352051e-01 -5.405098199844360352e-01
1.491000000000000000e+03 2.140739250183105469e+01 1.629350090026855469e+01 -3.234105110168457031e+00 -5.672963857650756836e-01 -1.140420436859130859e+00 -1.403158783912658691e+00
1.492000000000000000e+03 3.636385726928710938e+01 -3.938436031341552734e+00 1.627957681193947792e-03 -2.087264537811279297e+00 -6.256909966468811035e-01 8.249335885047912598e-01
1.493000000000000000e+03 2.037694358825683594e+01 9.809576988220214844e+00 -5.097285747528076172e+00 -6.002576947212219238e-01 -1.709263086318969727e+00 -2.383951902389526367e+00
1.494000000000000000e+03 2.247140502929687500e+01 1.001114273071289062e+01 -3.420966148376464844e+00 4.182730674743652344e+00 2.285293936729431152e-01 1.283338785171508789e+00
1.495000000000000000e+03 2.352819061279296875e+01 9.513195991516113281e+00 -2.860573291778564453e+00 5.758126735687255859e+00 8.692659735679626465e-01 2.050792932510375977e+00
1.496000000000000000e+03 1.668064117431640625e+01 5.701783657073974609e+00 5.045340061187744141e-01 -3.388245820999145508e+00 -8.651135563850402832e-01 -2.268049478530883789e+00
1.497000000000000000e+03 1.818504142761230469e+01 8.193018913269042969e+00 -7.507855892181396484e+00 -3.963527679443359375e+00 -3.441415071487426758e+00 -5.660953521728515625e+00
1.498000000000000000e+03 1.980040168762207031e+01 8.445206642150878906e+00 -5.805640220642089844e+00 7.071061134338378906e-01 -1.529560208320617676e+00 -2.211483001708984375e+00
1.499000000000000000e+03 3.517065811157226562e+01 -1.560420036315917969e+01 5.728632807731628418e-01 1.755370020866394043e+00 6.984699964523315430e-01 -1.027267098426818848e+00
1.500000000000000000e+03 3.132226562500000000e+01 -9.861722946166992188e+00 1.287029147148132324e+00 1.814789295196533203e+00 9.305455088615417480e-01 -1.677680015563964844e+00
1.501000000000000000e+03 3.361228942871093750e+01 -1.334952449798583984e+01 6.406797766685485840e-01 1.970898985862731934e+00 7.834736108779907227e-01 -1.234526634216308594e+00
1.502000000000000000e+03 3.440205383300781250e+01 -1.447248458862304688e+01 6.851007938385009766e-01 1.764972209930419922e+00 7.350218892097473145e-01 -1.116166472434997559e+00
1.503000000000000000e+03 3.795680999755859375e+01 -1.220146059989929199e+00 8.334001898765563965e-01 -1.953718900680541992e+00 -3.360956013202667236e-01 -4.048259928822517395e-02
1.504000000000000000e+03 4.050074005126953125e+01 -8.172510147094726562e+00 -1.144081711769104004e+00 1.934029936790466309e+00 2.369844615459442139e-01 1.686058759689331055e+00
1.505000000000000000e+03 5.213326644897460938e+01 1.298477840423583984e+01 3.162995338439941406e+00 1.388816452026367188e+01 5.115347862243652344e+00 2.026544809341430664e+00
1.506000000000000000e+03 1.662011337280273438e+01 3.424836874008178711e+00 1.311046218872070312e+01 3.815139532089233398e-01 4.047593116760253906e+00 -5.446367263793945312e-01
1.507000000000000000e+03 1.772276687622070312e+01 3.459067106246948242e+00 1.041849422454833984e+01 -1.349128127098083496e+00 2.720809698104858398e+00 2.809171676635742188e-01
1.508000000000000000e+03 3.478750991821289062e+01 1.642259025573730469e+01 -2.027179479598999023e+00 -1.175507068634033203e+00 -9.608060121536254883e-01 -3.880800604820251465e-01
1.509000000000000000e+03 3.654447555541992188e+01 2.689667701721191406e+00 -2.406468242406845093e-01 -9.473797082901000977e-01 -3.564079701900482178e-01 1.082360982894897461e+00
1.510000000000000000e+03 3.046910858154296875e+01 1.426281356811523438e+01 -1.618362307548522949e+00 -1.100319623947143555e+00 -8.156045675277709961e-01 -8.678409457206726074e-01
1.511000000000000000e+03 2.809826660156250000e+01 3.279497623443603516e-01 1.259828090667724609e+00 3.033821582794189453e-01 4.689630568027496338e-01 7.977290749549865723e-01
1.512000000000000000e+03 2.697536468505859375e+01 1.578115820884704590e+00 -3.825870275497436523e+00 -9.814727306365966797e-01 -1.442202925682067871e+00 -1.322701811790466309e+00
1.513000000000000000e+03 4.803427505493164062e+01 -3.180280923843383789e+00 -7.563246250152587891e+00 -9.741250276565551758e-01 -2.561211347579956055e+00 2.440484523773193359e+00
1.514000000000000000e+03 4.726409912109375000e+01 -1.354566812515258789e+00 -3.046566434204578400e-02 2.263192415237426758e+00 6.698179841041564941e-01 5.578884601593017578e+00
1.515000000000000000e+03 2.487446212768554688e+01 7.071242332458496094e+00 2.273258447647094727e+00 4.433912754058837891e+00 2.012151479721069336e+00 3.199192762374877930e+00
1.516000000000000000e+03 2.477440452575683594e+01 1.121310806274414062e+01 -2.311356544494628906e+00 6.338843822479248047e+00 1.208246231079101562e+00 1.072507143020629883e+00
1.517000000000000000e+03 7.804679870605468750e+01 -3.302384567260742188e+01 2.942339889705181122e-02 6.811138629913330078e+00 2.052168607711791992e+00 5.731773376464843750e-02
1.518000000000000000e+03 7.938140106201171875e+01 -3.194610214233398438e+01 2.797562256455421448e-02 6.994050025939941406e+00 2.106607675552368164e+00 2.038427814841270447e-02
1.519000000000000000e+03 7.932676696777343750e+01 -2.782366943359375000e+01 -2.430133707821369171e-02 7.211691856384277344e+00 2.156217098236083984e+00 4.174185171723365784e-02
1.520000000000000000e+03 7.813465118408203125e+01 -3.045731163024902344e+01 3.452754765748977661e-02 6.903589248657226562e+00 2.081435203552246094e+00 8.635646104812622070e-02
1.521000000000000000e+03 7.644537353515625000e+01 -3.895157623291015625e+01 3.504991764202713966e-03 6.658212661743164062e+00 1.998515248298645020e+00 2.571316994726657867e-02
1.522000000000000000e+03 7.901573181152343750e+01 -3.871852111816406250e+01 -5.841596983373165131e-03 6.780952453613281250e+00 2.032533168792724609e+00 2.941320650279521942e-02
1.523000000000000000e+03 7.781605529785156250e+01 -3.565643692016601562e+01 5.851104389876127243e-03 6.757404804229736328e+00 2.028976678848266602e+00 5.377892777323722839e-02
1.524000000000000000e+03 7.932949829101562500e+01 -2.365443420410156250e+01 3.766751661896705627e-02 7.481859207153320312e+00 2.255857944488525391e+00 2.177534066140651703e-02
1.525000000000000000e+03 7.797407531738281250e+01 -2.637106323242187500e+01 -3.366897627711296082e-02 7.079032897949218750e+00 2.113609313964843750e+00 1.189520582556724548e-01
1.526000000000000000e+03 7.933166503906250000e+01 -2.087282562255859375e+01 2.057551406323909760e-02 7.467345237731933594e+00 2.246376276016235352e+00 -5.498887971043586731e-02
1.527000000000000000e+03 7.795801544189453125e+01 -2.360641860961914062e+01 -9.408137947320938110e-02 7.255270481109619141e+00 2.148356676101684570e+00 8.733513951301574707e-02
1.528000000000000000e+03 7.911882781982421875e+01 3.617518615722656250e+01 -2.388422004878520966e-02 7.475091457366943359e+00 2.235362291336059570e+00 9.787732735276222229e-03
1.529000000000000000e+03 7.663295745849609375e+01 -2.920015144348144531e+01 5.366330966353416443e-02 6.740976810455322266e+00 2.038392066955566406e+00 1.644812524318695068e-01
1.530000000000000000e+03 7.773567199707031250e+01 -3.691108703613281250e+01 -2.633529948070645332e-03 6.723425388336181641e+00 2.016237497329711914e+00 4.796312376856803894e-02
1.531000000000000000e+03 7.944292449951171875e+01 1.110161399841308594e+01 1.287994235754013062e-01 7.512979984283447266e+00 2.292533874511718750e+00 1.327303517609834671e-02
1.532000000000000000e+03 7.936341094970703125e+01 1.245844078063964844e+01 -1.331904083490371704e-01 7.488147258758544922e+00 2.206487178802490234e+00 -2.334837801754474640e-02
1.533000000000000000e+03 7.787252807617187500e+01 1.361813545227050781e+01 -1.064060628414154053e-01 7.210775375366210938e+00 2.131310701370239258e+00 -3.340309262275695801e-01
1.534000000000000000e+03 7.927812194824218750e+01 2.088900756835937500e+01 2.852922491729259491e-02 6.749517917633056641e+00 2.033414125442504883e+00 3.820046782493591309e-02
1.535000000000000000e+03 7.928527832031250000e+01 2.227205848693847656e+01 -2.065471932291984558e-02 6.820754051208496094e+00 2.040029764175415039e+00 4.398188740015029907e-02
1.536000000000000000e+03 7.932975006103515625e+01 1.817593765258789062e+01 3.273139894008636475e-02 6.727179050445556641e+00 2.027973175048828125e+00 -2.019986324012279510e-02
1.537000000000000000e+03 7.926792907714843750e+01 2.505487060546875000e+01 -2.618859894573688507e-02 7.001169204711914062e+00 2.092494249343872070e+00 5.233282968401908875e-02
1.538000000000000000e+03 7.923973083496093750e+01 2.645147705078125000e+01 2.005079947412014008e-02 7.086311817169189453e+00 2.131908655166625977e+00 4.816342145204544067e-02
1.539000000000000000e+03 7.763822937011718750e+01 3.052000236511230469e+01 1.108129043132066727e-03 7.132585048675537109e+00 2.140108108520507812e+00 9.740222990512847900e-02
1.540000000000000000e+03 7.758176422119140625e+01 2.915389442443847656e+01 -1.965111494064331055e-02 7.083211898803710938e+00 2.119068145751953125e+00 1.123102232813835144e-01
1.541000000000000000e+03 7.920228576660156250e+01 3.338608932495117188e+01 -1.567079871892929077e-02 7.412087917327880859e+00 2.218925237655639648e+00 2.893678843975067139e-02
1.542000000000000000e+03 7.702156829833984375e+01 1.635474967956542969e+01 2.247744649648666382e-01 6.706321239471435547e+00 2.079328775405883789e+00 -2.570239901542663574e-01
1.543000000000000000e+03 7.931265258789062500e+01 -1.804890823364257812e+01 5.410073697566986084e-02 6.977435588836669922e+00 2.109460830688476562e+00 -1.920645385980606079e-01
1.544000000000000000e+03 7.671880340576171875e+01 -2.073831939697265625e+01 -1.485346555709838867e-01 7.342149257659912109e+00 2.158084392547607422e+00 3.626552596688270569e-02
1.545000000000000000e+03 7.939430236816406250e+01 -1.526062870025634766e+01 1.122247725725173950e-01 6.173246860504150391e+00 1.885641455650329590e+00 -1.873997449874877930e-01
1.546000000000000000e+03 7.945844268798828125e+01 -1.389912986755371094e+01 -7.527743000537157059e-03 5.881799697875976562e+00 1.762281656265258789e+00 -4.575231671333312988e-02
1.547000000000000000e+03 7.947486114501953125e+01 -1.255638980865478516e+01 9.583419561386108398e-02 5.909478664398193359e+00 1.801593899726867676e+00 7.060768455266952515e-02
1.548000000000000000e+03 7.944617462158203125e+01 -1.120363807678222656e+01 5.171921476721763611e-02 6.336875915527343750e+00 1.916578531265258789e+00 2.594163119792938232e-01
1.549000000000000000e+03 7.942718505859375000e+01 -9.835556030273437500e+00 1.165318302810192108e-02 7.054734230041503906e+00 2.119916200637817383e+00 3.293192684650421143e-01
1.550000000000000000e+03 7.940140533447265625e+01 -8.461462020874023438e+00 9.026634693145751953e-02 8.004533767700195312e+00 2.428440093994140625e+00 4.654381275177001953e-01
1.551000000000000000e+03 7.933275604248046875e+01 -5.669890403747558594e+00 6.795858591794967651e-02 1.018300724029541016e+01 3.075289726257324219e+00 5.536175370216369629e-01
1.552000000000000000e+03 7.933699035644531250e+01 -4.243618011474609375e+00 -2.864530868828296661e-02 1.132491970062255859e+01 3.388882398605346680e+00 5.795060396194458008e-01
1.553000000000000000e+03 7.936145782470703125e+01 -2.820190191268920898e+00 -3.582305461168289185e-02 1.248552036285400391e+01 3.734909057617187500e+00 5.095933079719543457e-01
1.554000000000000000e+03 7.940000152587890625e+01 -1.419683575630187988e+00 -9.804611653089523315e-02 1.344380664825439453e+01 4.003728389739990234e+00 3.571979701519012451e-01
1.555000000000000000e+03 7.942626190185546875e+01 1.368968367576599121e+00 -1.284410357475280762e-01 1.319870185852050781e+01 3.921078205108642578e+00 -5.022699236869812012e-01
1.556000000000000000e+03 7.935456085205078125e+01 2.810682773590087891e+00 -2.539025545120239258e-01 1.155330657958984375e+01 3.389821290969848633e+00 -9.636820554733276367e-01
1.557000000000000000e+03 7.938304901123046875e+01 4.255354881286621094e+00 1.588149964809417725e-01 9.565945625305175781e+00 2.917428255081176758e+00 -1.107977986335754395e+00
1.558000000000000000e+03 7.947336578369140625e+01 5.630294799804687500e+00 1.833636760711669922e-01 7.261571884155273438e+00 2.233480691909790039e+00 -6.698753237724304199e-01
1.559000000000000000e+03 7.824187469482421875e+01 4.659158706665039062e+00 4.268426597118377686e-01 9.838774681091308594e+00 3.079685211181640625e+00 -1.988202810287475586e+00
1.560000000000000000e+03 7.939586639404296875e+01 6.999592304229736328e+00 2.067444175481796265e-01 6.169535636901855469e+00 1.912883996963500977e+00 -1.514217257499694824e-01
1.561000000000000000e+03 7.521411895751953125e+01 3.797597885131835938e+01 -5.588138848543167114e-02 7.008642196655273438e+00 2.085828304290771484e+00 5.740633234381675720e-02
1.562000000000000000e+03 7.804065704345703125e+01 4.171317672729492188e+01 5.900132656097412109e-02 7.371985912322998047e+00 2.229296207427978516e+00 -1.642780564725399017e-02
1.563000000000000000e+03 7.770182800292968750e+01 3.188465118408203125e+01 -2.022057026624679565e-02 7.171359539031982422e+00 2.145341634750366211e+00 8.518492430448532104e-02
1.564000000000000000e+03 7.731549072265625000e+01 3.611730194091796875e+01 -2.289053983986377716e-02 7.224357604980468750e+00 2.160440206527709961e+00 5.204415321350097656e-02
1.565000000000000000e+03 7.745174407958984375e+01 3.463937377929687500e+01 -3.004895336925983429e-02 7.204333782196044922e+00 2.152285337448120117e+00 6.560774892568588257e-02
1.566000000000000000e+03 7.762297821044921875e+01 6.174379825592041016e+00 1.418292880058288574e+00 1.051367378234863281e+01 3.579590082168579102e+00 -1.467987060546875000e+00
1.567000000000000000e+03 7.819663238525390625e+01 -1.419781208038330078e+00 -3.593402802944183350e-01 1.087105941772460938e+01 3.153515577316284180e+00 8.169918656349182129e-01
1.568000000000000000e+03 7.791619873046875000e+01 -1.792079544067382812e+01 -1.957458555698394775e-01 7.369888782501220703e+00 2.152242898941040039e+00 -4.165830314159393311e-01
1.569000000000000000e+03 2.611987686157226562e+01 -5.091856002807617188e+00 3.063392400741577148e+00 9.975055694580078125e+00 3.911534547805786133e+00 -1.883209228515625000e+00
1.570000000000000000e+03 4.341730117797851562e+01 -1.161537408828735352e+00 -2.104361504316329956e-01 5.322731971740722656e+00 1.533688664436340332e+00 1.355196237564086914e+00
1.571000000000000000e+03 4.243838119506835938e+01 -7.780561447143554688e+00 -3.871680796146392822e-01 5.691888332366943359e+00 1.591416001319885254e+00 1.945163607597351074e+00
1.572000000000000000e+03 4.543391799926757812e+01 1.616086721420288086e+00 1.239067554473876953e+00 3.999675273895263672e+00 1.571622848510742188e+00 3.542095899581909180e+00
1.573000000000000000e+03 4.139921188354492188e+01 -8.184099793434143066e-01 -5.815936625003814697e-02 1.825005650520324707e+00 5.300538539886474609e-01 4.934556186199188232e-01
1.574000000000000000e+03 4.280587768554687500e+01 -1.761740595102310181e-01 -5.216255784034729004e-01 4.469260692596435547e+00 1.184290528297424316e+00 1.605575442314147949e+00
1.575000000000000000e+03 3.740597152709960938e+01 5.232089042663574219e+00 -6.012390553951263428e-02 -3.251522481441497803e-01 -1.155828386545181274e-01 1.918750107288360596e-01
1.576000000000000000e+03 4.920588302612304688e+01 6.214700222015380859e+00 2.400228261947631836e+00 7.982783317565917969e+00 3.114903450012207031e+00 2.549932956695556641e+00
1.577000000000000000e+03 4.539704895019531250e+01 3.795726299285888672e+00 2.598824262619018555e+00 3.568321943283081055e+00 1.850143909454345703e+00 3.037179470062255859e+00
1.578000000000000000e+03 4.728706359863281250e+01 3.955114126205444336e+00 3.027348756790161133e+00 4.127388954162597656e+00 2.146421194076538086e+00 3.180214405059814453e+00
1.579000000000000000e+03 5.030048370361328125e+01 5.611165046691894531e+00 2.071486949920654297e+00 9.673718452453613281e+00 3.523561477661132812e+00 1.726864218711853027e+00
1.580000000000000000e+03 7.407270050048828125e+01 -1.467275238037109375e+01 2.067413091659545898e+00 9.309146881103515625e+00 3.412967920303344727e+00 2.760163247585296631e-01
1.581000000000000000e+03 5.098076248168945312e+01 8.721187591552734375e+00 8.116083145141601562e-01 1.519437503814697266e+01 4.801795005798339844e+00 1.564397096633911133e+00
1.582000000000000000e+03 5.687342453002929688e+01 -1.133468151092529297e+01 4.843294322490692139e-01 9.344899177551269531e+00 2.948768615722656250e+00 -4.601547420024871826e-01
1.583000000000000000e+03 5.596786117553710938e+01 -9.282229423522949219e+00 2.850185632705688477e-01 7.699816703796386719e+00 2.395450592041015625e+00 -7.367205023765563965e-01
1.584000000000000000e+03 5.606540298461914062e+01 -1.455352973937988281e+01 8.596213459968566895e-01 1.396657752990722656e+01 4.447859764099121094e+00 -1.046732783317565918e+00
1.585000000000000000e+03 5.815790557861328125e+01 -1.125615024566650391e+01 4.452107250690460205e-01 9.173781394958496094e+00 2.885697603225708008e+00 6.627537608146667480e-01
1.586000000000000000e+03 4.503882980346679688e+01 -1.137427616119384766e+01 -1.470773220062255859e+00 4.660292148590087891e+00 9.568556547164916992e-01 1.238729476928710938e+00
1.587000000000000000e+03 5.707398605346679688e+01 -1.280005645751953125e+01 8.048746585845947266e-01 1.073578929901123047e+01 3.462199211120605469e+00 -2.714517712593078613e-01
1.588000000000000000e+03 4.857757186889648438e+01 -1.853430390357971191e+00 -7.225595712661743164e-01 -2.986635565757751465e-01 -3.063669502735137939e-01 2.908245801925659180e+00
1.589000000000000000e+03 5.260139465332031250e+01 -4.920616149902343750e+00 -3.393353939056396484e+00 3.712312936782836914e+00 9.568771719932556152e-02 -3.595733344554901123e-01
1.590000000000000000e+03 5.129516220092773438e+01 -2.558589458465576172e+00 -3.762869596481323242e+00 3.702612876892089844e+00 -1.807706244289875031e-02 -7.627201676368713379e-01
1.591000000000000000e+03 4.399991226196289062e+01 -8.710938453674316406e+00 -1.029700636863708496e+00 8.003931999206542969e+00 2.092269420623779297e+00 9.437256455421447754e-01
1.592000000000000000e+03 4.480596160888671875e+01 -7.039665222167968750e+00 9.848833084106445312e-02 1.215543270111083984e+01 3.676176309585571289e+00 -1.777606010437011719e+00
1.593000000000000000e+03 5.765137863159179688e+01 -1.557202148437500000e+01 1.367520451545715332e+00 1.171799659729003906e+01 3.925655126571655273e+00 6.270011663436889648e-01
1.594000000000000000e+03 4.262634658813476562e+01 -8.982675552368164062e+00 -1.355787992477416992e+00 6.670452594757080078e+00 1.594399452209472656e+00 2.439949750900268555e+00
1.595000000000000000e+03 4.696671295166015625e+01 -1.450227260589599609e+01 -8.700562715530395508e-01 9.452199935913085938e-01 2.254912070930004120e-02 4.763624370098114014e-01
1.596000000000000000e+03 5.520896148681640625e+01 -6.355288982391357422e+00 -8.790338635444641113e-01 5.651599407196044922e+00 1.431769728660583496e+00 -1.432831168174743652e+00
1.597000000000000000e+03 5.427636337280273438e+01 -7.143905162811279297e+00 -3.922854363918304443e-01 4.896755218505859375e+00 1.351341009140014648e+00 -1.197120189666748047e+00
1.598000000000000000e+03 5.092409896850585938e+01 -1.906241607666015625e+01 -1.425102114677429199e+00 -1.682098507881164551e-01 -4.779935777187347412e-01 2.578456699848175049e-01
1.599000000000000000e+03 4.522016143798828125e+01 -1.472455978393554688e+01 -3.662582039833068848e-01 2.866458892822265625e+00 7.500602006912231445e-01 5.086934566497802734e-01
1.600000000000000000e+03 5.508020401000976562e+01 -8.241175651550292969e+00 2.074653953313827515e-01 5.993476390838623047e+00 1.860282540321350098e+00 -1.465955734252929688e+00
1.601000000000000000e+03 1.972932624816894531e+01 4.018863677978515625e+00 1.202774620056152344e+01 4.380842208862304688e+00 4.922576904296875000e+00 3.624558150768280029e-01
1.602000000000000000e+03 1.831969833374023438e+01 2.620693922042846680e+00 3.763597249984741211e+00 -1.645273566246032715e+00 6.354971528053283691e-01 6.145548820495605469e-01
1.603000000000000000e+03 2.644123649597167969e+01 -8.504746437072753906e+00 3.003037452697753906e+00 9.814067840576171875e+00 3.845131635665893555e+00 -9.071364998817443848e-01
1.604000000000000000e+03 1.915672683715820312e+01 1.837852001190185547e+00 -2.310125350952148438e+00 4.227367341518402100e-01 -5.662165284156799316e-01 1.609859585762023926e+00
1.605000000000000000e+03 2.055444145202636719e+01 1.749477624893188477e+00 -2.530533313751220703e+00 8.545874595642089844e+00 1.804602384567260742e+00 -2.732141494750976562e+00
1.606000000000000000e+03 1.521108627319335938e+01 -4.173070907592773438e+00 -2.950234711170196533e-01 -6.265150755643844604e-02 -1.073024943470954895e-01 3.376943245530128479e-02
1.607000000000000000e+03 2.457736206054687500e+01 -2.584808111190795898e+00 3.973798990249633789e+00 7.400897502899169922e+00 3.412408828735351562e+00 -4.218163967132568359e+00
1.608000000000000000e+03 2.381132507324218750e+01 -3.530866861343383789e+00 4.745861530303955078e+00 9.588855743408203125e+00 4.300415039062500000e+00 -6.682624816894531250e+00
1.609000000000000000e+03 2.016417312622070312e+01 1.927013516426086426e+00 -1.804504513740539551e+00 7.324987411499023438e+00 1.656144857406616211e+00 -8.844028115272521973e-01
1.610000000000000000e+03 2.086764144897460938e+01 1.554343461990356445e+00 -2.375230550765991211e+00 1.122042560577392578e+01 2.653558492660522461e+00 -3.009711265563964844e+00
1.611000000000000000e+03 1.807207870483398438e+01 -7.720746040344238281e+00 -6.468570828437805176e-01 1.184613034129142761e-01 -1.585187315940856934e-01 9.289033710956573486e-02
1.612000000000000000e+03 2.078982591629028320e+00 2.617572402954101562e+01 8.486757986247539520e-03 1.604847311973571777e+00 4.840002059936523438e-01 1.092620939016342163e-01
1.613000000000000000e+03 2.106065034866333008e+00 2.897007369995117188e+01 9.532369673252105713e-03 1.500085592269897461e+00 4.528853893280029297e-01 1.125185266137123108e-01
1.614000000000000000e+03 2.025882720947265625e+00 3.301520538330078125e+01 6.409909576177597046e-03 1.352831602096557617e+00 4.077724516391754150e-01 7.980588078498840332e-02
1.615000000000000000e+03 6.707754731178283691e-01 3.181671333312988281e+01 1.354631967842578888e-04 1.485592961311340332e+00 4.457185268402099609e-01 3.171776980161666870e-02
1.616000000000000000e+03 2.140649318695068359e+00 3.562926864624023438e+01 5.492584779858589172e-03 1.272569894790649414e+00 3.834187388420104980e-01 6.483927369117736816e-02
1.617000000000000000e+03 3.558369636535644531e+00 3.888277435302734375e+01 1.683677174150943756e-02 1.179502010345458984e+00 3.589016199111938477e-01 6.119265034794807434e-02
1.618000000000000000e+03 9.782748222351074219e-01 3.867045974731445312e+01 1.023378688842058182e-03 1.224913954734802246e+00 3.677811920642852783e-01 2.311049215495586395e-02
1.619000000000000000e+03 2.797217369079589844e+00 -3.808444595336914062e+01 2.482309378683567047e-02 -6.220147609710693359e-01 -1.791575103998184204e-01 4.696197807788848877e-02
1.620000000000000000e+03 1.966153502464294434e+00 2.338469886779785156e+01 2.427600091323256493e-03 1.703674912452697754e+00 5.118307471275329590e-01 7.475528866052627563e-02
1.621000000000000000e+03 8.567122817039489746e-01 -3.051876258850097656e+01 9.488879702985286713e-03 -7.877187132835388184e-01 -2.334689646959304810e-01 -8.013417944312095642e-03
1.622000000000000000e+03 7.445412278175354004e-01 -2.341666984558105469e+01 -6.297873798757791519e-03 -6.863717436790466309e-01 -2.078008949756622314e-01 -1.638474501669406891e-02
1.623000000000000000e+03 2.449855566024780273e+00 -2.616746139526367188e+01 1.031576748937368393e-02 -5.698637366294860840e-01 -1.678643822669982910e-01 -3.567938879132270813e-02
1.624000000000000000e+03 1.643564939498901367e+00 -3.416278839111328125e+01 8.068151655606925488e-04 -7.176256179809570312e-01 -2.150456309318542480e-01 2.020288724452257156e-03
1.625000000000000000e+03 2.542023897171020508e+00 -3.677435684204101562e+01 1.434518862515687943e-02 -6.563683152198791504e-01 -1.926069408655166626e-01 -7.595484144985675812e-03
1.626000000000000000e+03 5.683915615081787109e-01 -6.486205577850341797e+00 -5.043488461524248123e-03 -6.672395765781402588e-02 -2.153023332357406616e-02 -1.446910388767719269e-02
1.627000000000000000e+03 6.092114448547363281e-01 -1.068757629394531250e+01 6.767297163605690002e-03 -2.125177830457687378e-01 -6.172514334321022034e-02 -2.371754869818687439e-02
1.628000000000000000e+03 6.338974833488464355e-01 -1.209300041198730469e+01 -1.066346373409032822e-02 -2.700888514518737793e-01 -8.422569185495376587e-02 -2.771639265120029449e-02
1.629000000000000000e+03 6.572567224502563477e-01 -1.350329113006591797e+01 1.075559575110673904e-02 -3.329866826534271240e-01 -9.666933119297027588e-02 -2.791501395404338837e-02
1.630000000000000000e+03 7.084785103797912598e-01 -1.774800109863281250e+01 -1.150338817387819290e-02 -5.105310082435607910e-01 -1.566103249788284302e-01 -2.715060301125049591e-02
1.631000000000000000e+03 2.079612255096435547e+00 1.628009414672851562e+01 -1.466427296400070190e-01 1.478076696395874023e+00 3.994301855564117432e-01 -2.925226688385009766e-01
1.632000000000000000e+03 7.031013369560241699e-01 1.488371944427490234e+01 -8.304563909769058228e-02 1.422011971473693848e+00 4.016899168491363525e-01 -1.521682292222976685e-01
1.633000000000000000e+03 6.231536865234375000e-01 1.062951278686523438e+01 4.774453118443489075e-02 1.255587339401245117e-01 5.199098214507102966e-02 -2.451741248369216919e-01
1.634000000000000000e+03 5.990030169486999512e-01 7.857496261596679688e+00 3.837009519338607788e-02 -8.258562088012695312e-01 -2.362458258867263794e-01 -1.650364249944686890e-01
1.635000000000000000e+03 1.957567453384399414e+00 1.916505241394042969e+01 -9.660657495260238647e-02 1.695592164993286133e+00 4.796956777572631836e-01 -9.059523791074752808e-02
1.636000000000000000e+03 1.726847648620605469e+00 4.639694690704345703e+00 1.642190217971801758e-01 -7.468574643135070801e-01 -1.747915297746658325e-01 2.753817439079284668e-01
1.637000000000000000e+03 1.931291818618774414e+00 2.198666954040527344e+01 -5.705155059695243835e-02 1.734791994094848633e+00 5.033221244812011719e-01 2.415731735527515411e-02
1.638000000000000000e+03 3.401893377304077148e+00 -3.920754623413085938e+01 -5.249366164207458496e-03 -6.246492862701416016e-01 -1.889695972204208374e-01 -6.807034835219383240e-03
1.639000000000000000e+03 2.615804433822631836e+00 -3.207666015625000000e+01 9.869507513940334320e-03 -6.082597374916076660e-01 -1.795170754194259644e-01 -1.862708479166030884e-02
1.640000000000000000e+03 2.313049793243408203e+00 -2.476957893371582031e+01 5.455809645354747772e-03 -5.558590888977050781e-01 -1.651209890842437744e-01 -4.261807352304458618e-02
1.641000000000000000e+03 7.711638808250427246e-01 -2.482426071166992188e+01 1.125386822968721390e-02 -7.158477902412414551e-01 -2.113781720399856567e-01 -1.268655899912118912e-02
1.642000000000000000e+03 2.161528110504150391e+00 -1.914035797119140625e+01 1.273791771382093430e-03 -4.478251039981842041e-01 -1.339653879404067993e-01 -6.969823688268661499e-02
1.643000000000000000e+03 6.774309277534484863e-01 -1.491700077056884766e+01 -1.222724001854658127e-02 -3.927167654037475586e-01 -1.214831992983818054e-01 -2.930964902043342590e-02
1.644000000000000000e+03 2.839517593383789062e+00 -6.764328479766845703e+00 -1.887864433228969574e-02 -6.402442604303359985e-02 -2.487092092633247375e-02 -6.824961304664611816e-02
1.645000000000000000e+03 5.692918896675109863e-01 -7.891294956207275391e+00 3.333997214213013649e-03 -1.086611822247505188e-01 -3.159815445542335510e-02 -1.792952418327331543e-02
1.646000000000000000e+03 2.157766580581665039e+00 -4.110946655273437500e+00 -1.894447952508926392e-02 -4.114354029297828674e-02 -1.802640594542026520e-02 -3.196735680103302002e-02
1.647000000000000000e+03 2.072009801864624023e+00 1.330314826965332031e+01 -1.393048912286758423e-01 1.026907801628112793e+00 2.662808597087860107e-01 -5.279447436332702637e-01
1.648000000000000000e+03 3.494232177734375000e+01 8.296485900878906250e+00 -9.165050834417343140e-02 4.951971024274826050e-02 -1.263923943042755127e-02 -2.388815581798553467e-02
1.649000000000000000e+03 3.716710662841796875e+01 6.932704448699951172e+00 -7.066145539283752441e-02 1.924443058669567108e-02 -1.542510837316513062e-02 1.136221364140510559e-01
1.650000000000000000e+03 3.062983131408691406e+01 3.473494768142700195e+00 -3.499786615371704102e+00 1.052677273750305176e+00 -7.341327667236328125e-01 -1.026049032807350159e-01
1.651000000000000000e+03 3.170564842224121094e+01 4.294791221618652344e+00 -2.323571681976318359e+00 9.833122491836547852e-01 -4.020778536796569824e-01 -2.607368119060993195e-02
1.652000000000000000e+03 3.482827377319335938e+01 5.547020912170410156e+00 -7.783736586570739746e-01 1.279936134815216064e-01 -1.951140165328979492e-01 3.866969048976898193e-01
1.653000000000000000e+03 3.126561737060546875e+01 5.400562763214111328e+00 -2.149535179138183594e+00 -3.621439933776855469e-01 -7.535037398338317871e-01 -9.119879603385925293e-01
1.654000000000000000e+03 3.374186706542968750e+01 5.387745380401611328e+00 -1.142613887786865234e+00 5.985686779022216797e-01 -1.632135510444641113e-01 3.472410142421722412e-01
1.655000000000000000e+03 5.199170684814453125e+01 -1.771373748779296875e+01 -2.314057111740112305e+00 -1.458868980407714844e+00 -1.131877899169921875e+00 1.954109311103820801e+00
1.656000000000000000e+03 4.561962127685546875e+01 1.590744495391845703e+01 -2.013926506042480469e+00 2.063475102186203003e-01 -5.422736406326293945e-01 -3.305310904979705811e-01
1.657000000000000000e+03 4.373760604858398438e+01 1.438951492309570312e+01 -2.022031545639038086e+00 3.480171859264373779e-01 -5.022042989730834961e-01 -4.865747690200805664e-01
1.658000000000000000e+03 2.805265998840332031e+01 2.520843982696533203e+00 -4.860694408416748047e+00 -8.986504673957824707e-01 -1.727803468704223633e+00 -1.849366307258605957e+00
1.659000000000000000e+03 2.307804679870605469e+01 8.795812606811523438e+00 -2.608042955398559570e+00 5.496500492095947266e+00 8.665372133255004883e-01 2.361131429672241211e+00
1.660000000000000000e+03 4.304935836791992188e+01 -1.735145759582519531e+01 7.065081000328063965e-01 4.691011905670166016e+00 1.619256019592285156e+00 -7.211482524871826172e-01
1.661000000000000000e+03 6.755663299560546875e+01 2.212579011917114258e+00 1.143179297447204590e+00 7.084126472473144531e+00 2.468191623687744141e+00 1.041064262390136719e+00
1.662000000000000000e+03 1.464683628082275391e+01 1.385930919647216797e+01 -1.619085073471069336e+00 -4.630222320556640625e-01 -6.246321797370910645e-01 -7.097961306571960449e-01
1.663000000000000000e+03 3.698379898071289062e+01 1.555535602569580078e+01 -2.506390810012817383e+00 -2.593295834958553314e-02 -7.596971392631530762e-01 -1.119645163416862488e-01
1.664000000000000000e+03 3.495301437377929688e+01 1.497900867462158203e+01 -4.095550060272216797e+00 -1.013543128967285156e+00 -1.532727956771850586e+00 1.141800805926322937e-01
1.665000000000000000e+03 5.202506256103515625e+01 -2.020804786682128906e+01 -6.885994970798492432e-02 1.397377997636795044e-01 2.126335538923740387e-02 6.476485729217529297e-01
1.666000000000000000e+03 5.328231430053710938e+01 -2.142341041564941406e+01 4.406532049179077148e-01 1.454749226570129395e+00 5.686207413673400879e-01 1.579091072082519531e+00
1.667000000000000000e+03 2.035047721862792969e+01 5.951395988464355469e+00 1.449734449386596680e+00 9.295183181762695312e+00 3.223475217819213867e+00 -4.221758246421813965e-01
1.668000000000000000e+03 2.229828453063964844e+01 2.411090612411499023e+00 4.399901926517486572e-01 7.324763298034667969e+00 2.329426050186157227e+00 -5.409175872802734375e+00
1.669000000000000000e+03 2.176190567016601562e+01 1.474264383316040039e+00 -2.051404953002929688e+00 9.932346343994140625e+00 2.364282369613647461e+00 -4.763405323028564453e+00
1.670000000000000000e+03 2.107559585571289062e+01 2.465671300888061523e+00 -4.112607538700103760e-01 1.336329269409179688e+01 3.885609626770019531e+00 -3.632634639739990234e+00
1.671000000000000000e+03 2.167644309997558594e+01 5.829936027526855469e+00 2.083696365356445312e+00 1.014583587646484375e+01 3.668859720230102539e+00 5.665182113647460938e+00
1.672000000000000000e+03 2.089889717102050781e+01 6.081235408782958984e+00 5.552061200141906738e-01 1.073954582214355469e+01 3.388425827026367188e+00 1.874423623085021973e+00
1.673000000000000000e+03 1.937095260620117188e+01 4.267133235931396484e+00 1.125908470153808594e+01 2.041374206542968750e+00 3.990137815475463867e+00 -2.350298315286636353e-01
1.674000000000000000e+03 1.947907066345214844e+01 2.432533740997314453e+00 3.468872785568237305e+00 4.082352161407470703e+00 2.265367507934570312e+00 -3.989119827747344971e-01
1.675000000000000000e+03 1.956061172485351562e+01 2.852702379226684570e+00 5.871688842773437500e+00 5.244794368743896484e+00 3.334944963455200195e+00 1.701242923736572266e+00
1.676000000000000000e+03 2.086741447448730469e+01 2.556297063827514648e+00 -1.003555953502655029e-01 1.359411907196044922e+01 4.048129081726074219e+00 -2.310287475585937500e+00
1.677000000000000000e+03 2.028207778930664062e+01 7.851434707641601562e+00 -3.930851936340332031e+00 3.772303819656372070e+00 -4.756439104676246643e-02 -2.657908499240875244e-01
1.678000000000000000e+03 1.919466972351074219e+01 5.885582923889160156e+00 3.113838434219360352e+00 2.689453125000000000e+00 1.740987420082092285e+00 -1.585314035415649414e+00
1.679000000000000000e+03 2.014723014831542969e+01 6.642863273620605469e+00 -8.766534328460693359e-01 6.912927150726318359e+00 1.810882210731506348e+00 -2.855392694473266602e-01
1.680000000000000000e+03 1.892835998535156250e+01 3.549388885498046875e+00 9.308899879455566406e+00 -9.861571788787841797e-01 2.496822834014892578e+00 9.075592160224914551e-01
1.681000000000000000e+03 2.314865303039550781e+01 6.328068256378173828e+00 2.911081790924072266e+00 4.303448677062988281e+00 2.164359092712402344e+00 4.699032783508300781e+00
1.682000000000000000e+03 2.385403442382812500e+01 8.445005416870117188e+00 -1.172021627426147461e+00 5.475392818450927734e+00 1.291011333465576172e+00 2.498535633087158203e+00
1.683000000000000000e+03 1.313487529754638672e+01 2.783169269561767578e+00 4.293656349182128906e+00 -2.152592420578002930e+00 6.423190832138061523e-01 -3.385917425155639648e+00
1.684000000000000000e+03 2.426153182983398438e+01 1.983970046043395996e+00 -7.293262481689453125e+00 -4.886678755283355713e-01 -2.334579229354858398e+00 -1.756360650062561035e+00
1.685000000000000000e+03 2.372354888916015625e+01 2.028483152389526367e+00 -2.929774522781372070e+00 3.525403261184692383e+00 1.786886453628540039e-01 -3.145375967025756836e+00
1.686000000000000000e+03 3.716722488403320312e+01 1.386251068115234375e+01 -2.823181390762329102e+00 2.129339128732681274e-01 -7.830742597579956055e-01 5.027399063110351562e-01
1.687000000000000000e+03 3.707954406738281250e+01 1.462133407592773438e+01 -2.571404218673706055e+00 -3.101917356252670288e-02 -7.807269692420959473e-01 1.359402388334274292e-01
1.688000000000000000e+03 3.855514144897460938e+01 1.461158084869384766e+01 -2.119892358779907227e+00 4.248836040496826172e-01 -5.085026025772094727e-01 1.453276425600051880e-01
1.689000000000000000e+03 1.074948215484619141e+01 -3.343455553054809570e+00 -1.386781930923461914e-01 9.343639016151428223e-03 -3.880036622285842896e-02 -2.212177589535713196e-02
1.690000000000000000e+03 9.439638137817382812e+00 -2.531058788299560547e+00 -1.076155900955200195e-01 3.944576159119606018e-02 -2.045094780623912811e-02 -2.212782204151153564e-02
1.691000000000000000e+03 1.051594352722167969e+01 3.733687639236450195e+00 5.506166934967041016e+00 4.907896041870117188e+00 3.124218940734863281e+00 -4.442797601222991943e-01
1.692000000000000000e+03 9.207247734069824219e+00 2.960850238800048828e+00 2.031051158905029297e+00 1.990920662879943848e+00 1.206591486930847168e+00 1.039190053939819336e+00
1.693000000000000000e+03 1.297528362274169922e+01 -3.585690259933471680e+00 -1.529898345470428467e-01 7.721793651580810547e-02 -2.273157052695751190e-02 5.390807986259460449e-02
1.694000000000000000e+03 6.132583618164062500e+00 -4.248022079467773438e+00 -4.366711899638175964e-02 -9.278984740376472473e-03 -1.588383130729198456e-02 -6.373538821935653687e-02
1.695000000000000000e+03 4.253278732299804688e+00 -3.728594064712524414e+00 -3.776407986879348755e-02 -1.120222173631191254e-02 -1.468989066779613495e-02 -4.315306991338729858e-02
1.696000000000000000e+03 2.140093564987182617e+00 -2.802242755889892578e+00 -1.074553653597831726e-02 -2.672668173909187317e-02 -1.124166604131460190e-02 -2.259414456784725189e-02
1.697000000000000000e+03 3.152288675308227539e+00 -4.520840167999267578e+00 -2.214797399938106537e-02 -2.073796093463897705e-02 -1.286577992141246796e-02 -4.061321169137954712e-02
1.698000000000000000e+03 9.881866455078125000e+00 -3.989414215087890625e+00 -1.307017356157302856e-01 1.505782827734947205e-02 -3.469317033886909485e-02 -4.859690740704536438e-02
1.699000000000000000e+03 7.273184776306152344e+00 -2.528191328048706055e+00 -6.253647804260253906e-02 -8.730566129088401794e-03 -2.138011343777179718e-02 -3.416103497147560120e-02
1.700000000000000000e+03 5.431288719177246094e+00 -4.469652175903320312e+00 -7.408285140991210938e-02 -1.176085788756608963e-02 -2.575311437249183655e-02 -6.536777317523956299e-02
1.701000000000000000e+03 7.985703468322753906e+00 -3.161585807800292969e+00 -7.781251519918441772e-02 -1.487349509261548519e-03 -2.378996089100837708e-02 -3.909580782055854797e-02
1.702000000000000000e+03 8.654490470886230469e+00 -3.170483589172363281e+00 -1.033298522233963013e-01 3.575101122260093689e-02 -2.027365192770957947e-02 -4.037243872880935669e-02
1.703000000000000000e+03 6.583881378173828125e+00 2.651614904403686523e+00 4.117639064788818359e-01 -4.627856910228729248e-01 -1.530653145164251328e-02 1.334963917732238770e+00
1.704000000000000000e+03 6.581554889678955078e+00 3.932568788528442383e+00 2.189257621765136719e+00 -4.503377974033355713e-01 5.216759443283081055e-01 4.588274955749511719e-01
1.705000000000000000e+03 6.512088298797607422e+00 3.325207710266113281e+00 1.538717746734619141e+00 -4.746336340904235840e-01 3.192252218723297119e-01 9.830206632614135742e-01
1.706000000000000000e+03 2.602423429489135742e+00 4.118461608886718750e+00 3.633662462234497070e-01 -4.484843909740447998e-01 -2.553544193506240845e-02 4.165759086608886719e-01
1.707000000000000000e+03 2.986974954605102539e+00 2.912031888961791992e+00 8.163362741470336914e-02 -3.156358599662780762e-01 -7.020066678524017334e-02 6.316632628440856934e-01
1.708000000000000000e+03 7.595178127288818359e+00 4.168449878692626953e+00 3.197818040847778320e+00 -3.082014620304107666e-01 8.668850064277648926e-01 3.540489971637725830e-01
1.709000000000000000e+03 5.830143928527832031e+00 3.332192897796630859e+00 9.980010390281677246e-01 -5.467623472213745117e-01 1.353716105222702026e-01 9.880681633949279785e-01
1.710000000000000000e+03 4.575131416320800781e+00 4.766201972961425781e+00 1.172384023666381836e+00 -5.893467664718627930e-01 1.749111860990524292e-01 1.287363171577453613e-01
1.711000000000000000e+03 8.057607650756835938e+00 4.895427227020263672e+00 4.877553939819335938e+00 1.110438704490661621e+00 1.796397805213928223e+00 -1.169846057891845703e+00
1.712000000000000000e+03 9.395572662353515625e+00 4.042778968811035156e+00 6.341192722320556641e+00 1.935804247856140137e+00 2.483099222183227539e+00 -7.071515172719955444e-02
1.713000000000000000e+03 4.156448364257812500e+01 1.483408832550048828e+01 -1.835338950157165527e+00 6.990470886230468750e-01 -3.408875763416290283e-01 -1.185177862644195557e-01
1.714000000000000000e+03 4.272567367553710938e+01 1.397821235656738281e+01 -1.760782003402709961e+00 4.819701313972473145e-01 -3.836435675621032715e-01 -3.389688432216644287e-01
1.715000000000000000e+03 3.990920639038085938e+01 1.532938480377197266e+01 -1.918550610542297363e+00 6.134136915206909180e-01 -3.915410637855529785e-01 3.376191016286611557e-03
1.716000000000000000e+03 3.924080657958984375e+01 1.374399089813232422e+01 -1.802215576171875000e+00 4.137740135192871094e-01 -4.165324866771697998e-01 2.725189626216888428e-01
1.717000000000000000e+03 4.000044250488281250e+01 1.454065227508544922e+01 -1.870737552642822266e+00 5.987005233764648438e-01 -3.816111087799072266e-01 5.514414235949516296e-02
1.718000000000000000e+03 1.570912361145019531e+01 -2.019515275955200195e+00 -2.279106900095939636e-02 -6.186703592538833618e-02 -2.539743110537528992e-02 1.008930802345275879e-01
1.719000000000000000e+03 2.458323478698730469e+01 2.359104901552200317e-01 -9.700731188058853149e-02 2.253883600234985352e+00 6.470628976821899414e-01 -3.408945322036743164e+00
1.720000000000000000e+03 1.222723197937011719e+01 -3.489633798599243164e+00 -1.740606427192687988e-01 1.363651733845472336e-02 -4.812723770737648010e-02 2.231561957160010934e-04
1.721000000000000000e+03 1.269792079925537109e+01 -4.437548160552978516e+00 -2.280335128307342529e-01 3.746110200881958008e-02 -5.717172473669052124e-02 -9.609417058527469635e-03
1.722000000000000000e+03 2.689414215087890625e+01 -7.566002011299133301e-01 2.224020481109619141e+00 1.461906671524047852e+00 1.105778098106384277e+00 2.813418805599212646e-01
1.723000000000000000e+03 7.089433288574218750e+01 1.144219779968261719e+01 1.236581325531005859e+00 3.341546297073364258e+00 1.373438239097595215e+00 1.247837185859680176e+00
1.724000000000000000e+03 6.988969421386718750e+01 1.030023002624511719e+01 5.756698250770568848e-01 5.869214057922363281e+00 1.933465242385864258e+00 1.136522054672241211e+00
1.725000000000000000e+03 3.813314056396484375e+01 7.106785297393798828e+00 -4.408792406320571899e-02 -1.221271455287933350e-01 -4.986452311277389526e-02 2.428024448454380035e-02
1.726000000000000000e+03 3.778020477294921875e+01 8.799147605895996094e+00 -5.453063175082206726e-02 -4.521578177809715271e-02 -2.992392331361770630e-02 -2.727598324418067932e-02
1.727000000000000000e+03 2.392451477050781250e+01 6.619501113891601562e+00 2.480149269104003906e+00 4.211858272552490234e+00 2.007602214813232422e+00 3.621065855026245117e+00
1.728000000000000000e+03 2.419919013977050781e+01 7.252423286437988281e+00 7.674129605293273926e-01 4.817255973815917969e+00 1.675400614738464355e+00 3.016905784606933594e+00
1.729000000000000000e+03 7.740026092529296875e+01 -4.627462476491928101e-02 -1.327428460121154785e+00 1.000772285461425781e+01 2.604088306427001953e+00 2.734172940254211426e-01
1.730000000000000000e+03 7.626065826416015625e+01 8.777283430099487305e-01 -2.974340200424194336e+00 7.851825714111328125e+00 1.463245630264282227e+00 -2.074132412672042847e-01
1.731000000000000000e+03 6.076077651977539062e+01 1.691222763061523438e+01 1.202079296112060547e+00 2.910605907440185547e+00 1.233805537223815918e+00 6.461396813392639160e-01
1.732000000000000000e+03 2.437755393981933594e+01 8.914001464843750000e+00 -2.136040449142456055e+00 5.483187198638916016e+00 1.004144072532653809e+00 1.947998046875000000e+00
1.733000000000000000e+03 2.513918304443359375e+01 9.565820693969726562e+00 -2.704569339752197266e+00 5.315781593322753906e+00 7.833636403083801270e-01 1.064944267272949219e+00
1.734000000000000000e+03 6.822002410888671875e+01 -2.151671499013900757e-01 -2.557413578033447266e+00 5.737539291381835938e+00 9.540377259254455566e-01 6.896322220563888550e-02
1.735000000000000000e+03 6.914740753173828125e+01 -3.953445851802825928e-01 -2.661796569824218750e+00 6.243710517883300781e+00 1.074574112892150879e+00 -1.828261494636535645e+00
1.736000000000000000e+03 3.235650634765625000e+01 1.817488098144531250e+01 -5.515256524085998535e-01 -5.681880712509155273e-01 -3.359141349792480469e-01 9.188912510871887207e-01
1.737000000000000000e+03 6.151628494262695312e+01 1.151755571365356445e+00 -2.954387426376342773e+00 4.238891601562500000e+00 3.853513002395629883e-01 1.715057134628295898e+00
1.738000000000000000e+03 6.293677520751953125e+01 -1.216141581535339355e+00 -4.264666080474853516e+00 7.649878501892089844e+00 1.015563607215881348e+00 2.784283876419067383e+00
1.739000000000000000e+03 4.737695693969726562e+01 -1.966386795043945312e+01 -1.214987412095069885e-01 1.527213692665100098e+00 4.217144846916198730e-01 -8.989419341087341309e-01
1.740000000000000000e+03 7.507511901855468750e+01 -1.388064384460449219e+01 1.201434016227722168e+00 9.301505088806152344e+00 3.150881767272949219e+00 1.655128449201583862e-01
1.741000000000000000e+03 5.313656997680664062e+01 8.872547149658203125e+00 3.199885189533233643e-01 1.287029266357421875e+01 3.957084417343139648e+00 4.315262734889984131e-01
1.742000000000000000e+03 5.498899078369140625e+01 9.303678512573242188e+00 6.291003227233886719e-01 7.808830738067626953e+00 2.531379461288452148e+00 1.646755695343017578e+00
1.743000000000000000e+03 6.619380187988281250e+01 3.521895647048950195e+00 6.816211342811584473e-01 6.570428371429443359e+00 2.175614833831787109e+00 1.367102384567260742e+00
1.744000000000000000e+03 6.836013793945312500e+01 1.604092359542846680e+00 -2.387479990720748901e-01 8.749571800231933594e+00 2.553247213363647461e+00 5.665438175201416016e-01
1.745000000000000000e+03 4.801318740844726562e+01 -1.762445640563964844e+01 -5.143818259239196777e-01 7.148465514183044434e-01 6.013942882418632507e-02 -1.969860643148422241e-01
1.746000000000000000e+03 3.034251785278320312e+01 -1.051538085937500000e+01 1.181649208068847656e+00 2.202281236648559570e+00 1.015179157257080078e+00 -2.171380758285522461e+00
1.747000000000000000e+03 2.946044921875000000e+01 1.570798277854919434e+00 -8.054452538490295410e-01 2.100875139236450195e+00 3.886289298534393311e-01 1.131565347313880920e-01
1.748000000000000000e+03 3.713616180419921875e+01 1.089909315109252930e+00 -4.824059605598449707e-01 -2.128222942352294922e+00 -7.831886410713195801e-01 7.185508608818054199e-01
1.749000000000000000e+03 3.538064193725585938e+01 -9.617994427680969238e-01 8.479271531105041504e-01 -1.275015830993652344e+00 -1.281266063451766968e-01 8.224325254559516907e-03
1.750000000000000000e+03 2.680485916137695312e+01 1.113703441619873047e+01 -2.603446960449218750e+00 3.337528467178344727e+00 2.202244699001312256e-01 -4.836333692073822021e-01
1.751000000000000000e+03 2.402587890625000000e+01 1.167554378509521484e+01 -1.120880842208862305e+00 7.175626277923583984e+00 1.816423654556274414e+00 2.871411323547363281e+00
1.752000000000000000e+03 4.477292633056640625e+01 -1.384615039825439453e+01 -5.117740035057067871e-01 3.842237949371337891e+00 9.991391301155090332e-01 8.962435722351074219e-01
1.753000000000000000e+03 4.123965072631835938e+01 -9.389232635498046875e+00 -1.573069214820861816e+00 3.879532098770141602e+00 6.919388771057128906e-01 2.010732889175415039e+00
1.754000000000000000e+03 4.241972351074218750e+01 -1.271384334564208984e+01 -7.423474192619323730e-01 6.444860458374023438e+00 1.710753917694091797e+00 1.836252450942993164e+00
1.755000000000000000e+03 4.905562973022460938e+01 4.109997749328613281e+00 2.931180477142333984e+00 6.476765632629394531e+00 2.822383880615234375e+00 2.414964914321899414e+00
1.756000000000000000e+03 9.711193084716796875e+00 5.227176189422607422e+00 6.961792469024658203e+00 6.130865573883056641e+00 3.927797317504882812e+00 -3.675131559371948242e+00
1.757000000000000000e+03 2.770626449584960938e+01 1.754085922241210938e+01 -3.982034921646118164e-01 4.187495231628417969e+00 1.136787414550781250e+00 2.436027288436889648e+00
1.758000000000000000e+03 2.588407325744628906e+01 1.642070007324218750e+01 5.752751827239990234e-01 9.511561393737792969e+00 3.026050806045532227e+00 1.225624680519104004e+00
1.759000000000000000e+03 2.416853904724121094e+01 -1.043493843078613281e+01 -2.188737839460372925e-01 2.178581237792968750e+00 5.879122018814086914e-01 2.102859735488891602e+00
1.760000000000000000e+03 6.201997375488281250e+01 -2.901939868927001953e+00 6.695635318756103516e-01 8.944363594055175781e+00 2.884178161621093750e+00 5.975289940834045410e-01
1.761000000000000000e+03 3.305370330810546875e+01 -1.524229240417480469e+01 4.639634788036346436e-01 2.243938446044921875e+00 8.123705983161926270e-01 -1.145340800285339355e+00
1.762000000000000000e+03 3.047364807128906250e+01 5.115063488483428955e-02 6.470731735229492188e+00 5.304726600646972656e+00 3.532637596130371094e+00 1.977785706520080566e+00
1.763000000000000000e+03 7.348746490478515625e+01 1.360525989532470703e+01 1.213014602661132812e+00 5.037884712219238281e+00 1.875269770622253418e+00 -4.856800436973571777e-01
1.764000000000000000e+03 4.260962677001953125e+01 -2.137069702148437500e+00 2.452373802661895752e-01 5.188055515289306641e+00 1.629987955093383789e+00 1.111682534217834473e+00
1.765000000000000000e+03 6.827695465087890625e+01 -1.730047988891601562e+01 1.340112090110778809e-01 1.413312911987304688e+00 4.641972184181213379e-01 -1.641987450420856476e-02
1.766000000000000000e+03 7.162689971923828125e+01 -1.900885772705078125e+01 -5.135043263435363770e-01 5.737638950347900391e+00 1.567240357398986816e+00 2.202821016311645508e+00
1.767000000000000000e+03 6.741265869140625000e+01 -1.334803938865661621e+00 -2.677453517913818359e+00 3.500873804092407227e+00 2.470261007547378540e-01 -2.193471342325210571e-01
1.768000000000000000e+03 6.594278717041015625e+01 3.556990623474121094e-01 -9.661000967025756836e-01 2.820332288742065430e+00 5.562696456909179688e-01 3.073907136917114258e+00
1.769000000000000000e+03 6.546839904785156250e+01 4.412598133087158203e+00 1.021194458007812500e+00 6.942231655120849609e+00 2.389027833938598633e+00 1.016357302665710449e+00
1.770000000000000000e+03 7.332540893554687500e+01 -1.556180763244628906e+01 6.557484865188598633e-01 9.189209938049316406e+00 2.953487634658813477e+00 -1.591114848852157593e-01
1.771000000000000000e+03 1.895766830444335938e+01 7.702684402465820312e+00 -4.729472160339355469e+00 -1.549335867166519165e-01 -1.465321779251098633e+00 -3.221119880676269531e+00
1.772000000000000000e+03 1.768025970458984375e+01 6.484251499176025391e+00 -1.780269622802734375e+00 -2.310194492340087891e+00 -1.227139234542846680e+00 -3.212281465530395508e+00
1.773000000000000000e+03 3.590097427368164062e+01 4.232452392578125000e+00 -4.199895560741424561e-01 -2.522946000099182129e-01 -2.016852498054504395e-01 8.857262730598449707e-01
1.774000000000000000e+03 6.384544372558593750e+01 -1.373005962371826172e+01 -6.278336048126220703e-01 5.111815452575683594e+00 1.345194578170776367e+00 -4.915744364261627197e-01
1.775000000000000000e+03 6.427617645263671875e+01 -1.527680110931396484e+01 -2.958884537220001221e-01 4.509777545928955078e+00 1.264166712760925293e+00 -8.615849018096923828e-01
1.776000000000000000e+03 5.667300033569335938e+01 1.363571739196777344e+01 1.433439493179321289e+00 4.368824481964111328e+00 1.740679144859313965e+00 2.651383638381958008e+00
1.777000000000000000e+03 5.664463043212890625e+01 -2.091526222229003906e+01 -1.870265483856201172e+00 8.185754776000976562e+00 1.894646763801574707e+00 1.340163350105285645e+00
1.778000000000000000e+03 6.007119369506835938e+01 -2.112314033508300781e+01 -7.804217934608459473e-01 6.899838447570800781e+00 1.835824966430664062e+00 -9.271890521049499512e-01
1.779000000000000000e+03 1.875479125976562500e+01 1.809251022338867188e+01 -1.616637587547302246e+00 -3.239777088165283203e-01 -5.821845531463623047e-01 -4.149948656558990479e-01
1.780000000000000000e+03 1.939410972595214844e+01 1.686200714111328125e+01 -2.156084060668945312e+00 -3.753849565982818604e-01 -7.594406604766845703e-01 -7.629423737525939941e-01
1.781000000000000000e+03 5.197842407226562500e+01 1.595252227783203125e+01 -1.116775989532470703e+00 1.024017524719238281e+01 2.737019777297973633e+00 1.371824502944946289e+00
1.782000000000000000e+03 6.845644378662109375e+01 1.147640609741210938e+01 1.913280367851257324e+00 8.635541915893554688e+00 3.164646863937377930e+00 1.345275521278381348e+00
1.783000000000000000e+03 6.035205459594726562e+01 7.063016295433044434e-01 -3.548239946365356445e+00 3.083293914794921875e+00 -1.394838094711303711e-01 8.544963002204895020e-01
1.784000000000000000e+03 3.887712478637695312e+01 -1.476935863494873047e+00 4.972332715988159180e-01 -1.110344409942626953e+00 -1.839333474636077881e-01 -3.755727112293243408e-01
1.785000000000000000e+03 7.695708465576171875e+01 -3.151155853271484375e+01 4.424375295639038086e-02 6.718165397644042969e+00 2.028722763061523438e+00 1.045094206929206848e-01
1.786000000000000000e+03 7.671455383300781250e+01 -3.264717483520507812e+01 1.862490549683570862e-02 6.688720226287841797e+00 2.012203454971313477e+00 8.174079656600952148e-02
1.787000000000000000e+03 7.650589752197265625e+01 -2.363944625854492188e+01 -5.737509578466415405e-02 7.040095329284667969e+00 2.094816207885742188e+00 2.109231650829315186e-01
1.788000000000000000e+03 7.642401885986328125e+01 -2.767477226257324219e+01 1.251866202801465988e-02 6.750347137451171875e+00 2.028859615325927734e+00 1.816818565130233765e-01
1.789000000000000000e+03 7.641636657714843750e+01 -3.676654815673828125e+01 1.053383573889732361e-03 6.614530086517333984e+00 1.984675049781799316e+00 5.633937567472457886e-02
1.790000000000000000e+03 7.659602355957031250e+01 -2.624193000793457031e+01 4.974978417158126831e-02 6.835738658905029297e+00 2.065646648406982422e+00 2.188815772533416748e-01
1.791000000000000000e+03 7.477152252197265625e+01 2.111903953552246094e+01 1.098326221108436584e-01 6.696901321411132812e+00 2.042020082473754883e+00 2.204119563102722168e-01
1.792000000000000000e+03 7.635876464843750000e+01 2.494014549255371094e+01 -2.032869681715965271e-02 6.866548061370849609e+00 2.053865909576416016e+00 1.937934458255767822e-01
1.793000000000000000e+03 7.642242431640625000e+01 1.471023845672607422e+01 2.368783950805664062e-01 6.610942840576171875e+00 2.054346323013305664e+00 -5.884735584259033203e-01
1.794000000000000000e+03 7.650355529785156250e+01 -2.214989852905273438e+01 -2.491913288831710815e-01 7.141829013824462891e+00 2.067791223526000977e+00 9.884116798639297485e-02
1.795000000000000000e+03 7.590348815917968750e+01 2.770772552490234375e+01 -3.889975696802139282e-02 6.917838096618652344e+00 2.063681602478027344e+00 1.769351214170455933e-01
1.796000000000000000e+03 7.617567443847656250e+01 2.629540824890136719e+01 -2.216631360352039337e-02 6.888756275177001953e+00 2.059977054595947266e+00 1.791221350431442261e-01
1.797000000000000000e+03 7.669557189941406250e+01 1.350277233123779297e+01 -1.375363171100616455e-01 7.208108425140380859e+00 2.121171712875366211e+00 -8.656935095787048340e-01
1.798000000000000000e+03 7.830287933349609375e+01 9.859347343444824219e+00 -1.043119803071022034e-01 8.135797500610351562e+00 2.409445762634277344e+00 2.640077471733093262e-01
1.799000000000000000e+03 7.679985809326171875e+01 -1.606236457824707031e+01 8.224451541900634766e-02 7.800039291381835938e+00 2.364685058593750000e+00 -4.477870464324951172e-01
1.800000000000000000e+03 7.693666076660156250e+01 8.585368156433105469e+00 5.870845913887023926e-01 9.858563423156738281e+00 3.133694648742675781e+00 4.529749453067779541e-01
1.801000000000000000e+03 7.702199554443359375e+01 -1.490581989288330078e+01 3.777841031551361084e-01 7.590584278106689453e+00 2.390510559082031250e+00 -4.388040900230407715e-01
1.802000000000000000e+03 7.671144866943359375e+01 -6.282115936279296875e+00 5.309302941896021366e-04 8.498001098632812500e+00 2.549559593200683594e+00 1.611244440078735352e+00
1.803000000000000000e+03 7.671740722656250000e+01 -1.391125679016113281e+01 7.360820174217224121e-01 8.000811576843261719e+00 2.621068000793457031e+00 2.681484632194042206e-02
1.804000000000000000e+03 7.754769897460937500e+01 -1.316490936279296875e+01 5.450730323791503906e-01 7.412990093231201172e+00 2.387418985366821289e+00 1.816409677267074585e-01
1.805000000000000000e+03 7.687628936767578125e+01 -7.663327217102050781e+00 1.790855079889297485e-01 8.536110877990722656e+00 2.614558935165405273e+00 1.610323190689086914e+00
1.806000000000000000e+03 7.784106445312500000e+01 1.948499488830566406e+01 8.268941193819046021e-02 6.739184379577636719e+00 2.046562194824218750e+00 3.923272341489791870e-02
1.807000000000000000e+03 7.633501434326171875e+01 2.233876991271972656e+01 3.269903734326362610e-02 6.788125991821289062e+00 2.046247482299804688e+00 1.680004745721817017e-01
1.808000000000000000e+03 7.760182189941406250e+01 7.688042640686035156e+00 1.688792943954467773e+00 9.454166412353515625e+00 3.342887878417968750e+00 -2.516963779926300049e-01
1.809000000000000000e+03 7.681349182128906250e+01 3.455351591110229492e+00 -6.177324652671813965e-01 1.098295021057128906e+01 3.109565258026123047e+00 -1.778203010559082031e+00
1.810000000000000000e+03 7.808861541748046875e+01 -2.846551418304443359e+00 -1.807926446199417114e-01 1.033459281921386719e+01 3.046140193939208984e+00 1.140055060386657715e+00
1.811000000000000000e+03 7.692852783203125000e+01 -3.022640943527221680e+00 -3.019542396068572998e-01 8.708775520324707031e+00 2.522046566009521484e+00 1.278947114944458008e+00
1.812000000000000000e+03 7.702130126953125000e+01 -8.982607841491699219e+00 3.333275020122528076e-01 8.213256835937500000e+00 2.563975334167480469e+00 1.440071940422058105e+00
1.813000000000000000e+03 7.828978729248046875e+01 -1.001274108886718750e+01 1.990362703800201416e-01 7.598375797271728516e+00 2.339223623275756836e+00 9.286884665489196777e-01
1.814000000000000000e+03 7.582725524902343750e+01 -9.379255294799804688e+00 6.422003507614135742e-01 8.630926132202148438e+00 2.781937837600708008e+00 1.380994796752929688e+00
1.815000000000000000e+03 7.843094635009765625e+01 -1.262217235565185547e+01 1.966418027877807617e-01 6.905099868774414062e+00 2.130522489547729492e+00 3.143714666366577148e-01
1.816000000000000000e+03 7.656668090820312500e+01 -1.799434661865234375e+01 -1.210638210177421570e-01 7.786048889160156250e+00 2.299495458602905273e+00 -3.286764025688171387e-01
1.817000000000000000e+03 7.799979400634765625e+01 -1.939129257202148438e+01 -6.271614879369735718e-02 7.385011672973632812e+00 2.196688652038574219e+00 -2.386398166418075562e-01
1.818000000000000000e+03 7.676148986816406250e+01 -1.938311958312988281e+01 -4.392448961734771729e-01 7.544441699981689453e+00 2.131559133529663086e+00 -2.140835821628570557e-01
1.819000000000000000e+03 7.725389099121093750e+01 1.125894188880920410e+00 -1.885106563568115234e+00 1.019622707366943359e+01 2.493336200714111328e+00 -7.166847586631774902e-01
1.820000000000000000e+03 7.627176666259765625e+01 3.185609245300292969e+01 -1.809324137866497040e-02 7.020777702331542969e+00 2.100805282592773438e+00 1.136867478489875793e-01
1.821000000000000000e+03 7.627669525146484375e+01 1.737178039550781250e+01 2.921830713748931885e-01 6.477427959442138672e+00 2.030883312225341797e+00 -1.826719939708709717e-01
1.822000000000000000e+03 7.688780975341796875e+01 4.386703968048095703e+00 5.853226184844970703e-01 1.195566844940185547e+01 3.762297391891479492e+00 -1.899038076400756836e+00
1.823000000000000000e+03 5.109975433349609375e+01 6.635184764862060547e+00 9.635573625564575195e-01 1.246970558166503906e+01 4.029978752136230469e+00 5.413869619369506836e-01
1.824000000000000000e+03 3.761148834228515625e+01 -3.245543003082275391e+00 9.145516157150268555e-01 -2.092860460281372070e+00 -3.534926474094390869e-01 -7.027827948331832886e-02
1.825000000000000000e+03 3.713494873046875000e+01 -6.503368020057678223e-01 7.111961841583251953e-01 -1.885876536369323730e+00 -3.524041175842285156e-01 -2.237293720245361328e-01
1.826000000000000000e+03 5.938082504272460938e+01 9.103724360466003418e-01 -4.331714153289794922e+00 1.586929440498352051e+00 -8.234354257583618164e-01 -5.093494057655334473e-01
1.827000000000000000e+03 6.072069168090820312e+01 -1.812039375305175781e+00 -6.056081056594848633e-01 5.799094200134277344e+00 1.558045864105224609e+00 1.365298125892877579e-02
1.828000000000000000e+03 2.045781326293945312e+01 1.902874755859375000e+01 -1.218793392181396484e+00 -2.093456685543060303e-01 -4.284417331218719482e-01 -6.825473308563232422e-01
1.829000000000000000e+03 2.360552406311035156e+01 -1.638082027435302734e+00 3.823002099990844727e+00 6.628381252288818359e+00 3.135414838790893555e+00 -5.423122882843017578e+00
1.830000000000000000e+03 1.666518974304199219e+01 -5.473350048065185547e+00 -4.178542494773864746e-01 -5.905152484774589539e-02 -1.430717259645462036e-01 1.202417090535163879e-01
1.831000000000000000e+03 3.292189121246337891e+00 3.166389656066894531e+01 1.389626134186983109e-02 1.309131264686584473e+00 3.969082832336425781e-01 1.297390609979629517e-01
1.832000000000000000e+03 3.407964706420898438e+00 3.283371734619140625e+01 2.304101549088954926e-02 1.261255383491516113e+00 3.852888941764831543e-01 1.273833215236663818e-01
1.833000000000000000e+03 3.299619197845458984e+00 2.334936714172363281e+01 -6.878592073917388916e-02 1.510275721549987793e+00 4.324469566345214844e-01 7.563734799623489380e-02
1.834000000000000000e+03 3.406855821609497070e+00 2.472841835021972656e+01 -1.780260726809501648e-02 1.466121077537536621e+00 4.344955384731292725e-01 1.333619654178619385e-01
1.835000000000000000e+03 3.566151142120361328e+00 2.899822807312011719e+01 -4.734384419862180948e-04 1.354223728179931641e+00 4.061250984668731689e-01 1.400984227657318115e-01
1.836000000000000000e+03 3.576220512390136719e+00 2.755947685241699219e+01 5.610345397144556046e-03 1.386844396591186523e+00 4.177364110946655273e-01 1.626285612583160400e-01
1.837000000000000000e+03 3.467321395874023438e+00 3.039021110534667969e+01 1.469712238758802414e-02 1.336517930030822754e+00 4.053645133972167969e-01 1.521580815315246582e-01
1.838000000000000000e+03 4.282814025878906250e+00 -2.751110839843750000e+01 1.601078547537326813e-02 -3.996130526065826416e-01 -1.150806844234466553e-01 -5.061933025717735291e-02
1.839000000000000000e+03 4.301512241363525391e+00 -3.054055595397949219e+01 1.677962206304073334e-02 -4.054963290691375732e-01 -1.166150122880935669e-01 -3.585207089781761169e-02
1.840000000000000000e+03 3.656599998474121094e+00 -2.053464889526367188e+01 2.029435522854328156e-02 -3.646394610404968262e-01 -1.033035293221473694e-01 -9.322317689657211304e-02
1.841000000000000000e+03 3.600315809249877930e+00 -1.908447456359863281e+01 2.085582725703716278e-02 -3.466753363609313965e-01 -9.774585813283920288e-02 -1.128953322768211365e-01
1.842000000000000000e+03 3.641840457916259766e+00 -2.331285476684570312e+01 1.189946662634611130e-02 -4.162656962871551514e-01 -1.213098689913749695e-01 -6.509192287921905518e-02
1.843000000000000000e+03 3.699760913848876953e+00 -2.196860313415527344e+01 1.905450969934463501e-02 -4.003988504409790039e-01 -1.144033074378967285e-01 -8.535687625408172607e-02
1.844000000000000000e+03 1.836266398429870605e+00 -1.066724872589111328e+01 -1.021946966648101807e-02 -1.828776448965072632e-01 -5.792913213372230530e-02 -7.193888723850250244e-02
1.845000000000000000e+03 1.707647442817687988e+00 -6.605295181274414062e+00 -6.189151667058467865e-03 -7.443609833717346191e-02 -2.418757416307926178e-02 -4.101457074284553528e-02
1.846000000000000000e+03 2.127308607101440430e+00 -1.771169662475585938e+01 1.346531417220830917e-02 -4.123485684394836426e-01 -1.196649745106697083e-01 -7.949922233819961548e-02
1.847000000000000000e+03 3.301433324813842773e+00 -1.337374877929687500e+01 4.114565905183553696e-03 -2.236096262931823730e-01 -6.584852188825607300e-02 -1.216533333063125610e-01
1.848000000000000000e+03 3.194176673889160156e+00 -1.197525978088378906e+01 -1.217783521860837936e-02 -1.792340129613876343e-01 -5.742355436086654663e-02 -1.181665807962417603e-01
1.849000000000000000e+03 3.455996751785278320e+00 1.310033321380615234e+01 -2.149866521358489990e-01 1.077463865280151367e+00 2.587431669235229492e-01 -7.985991239547729492e-01
1.850000000000000000e+03 3.461282253265380859e+00 1.629230308532714844e+01 -2.090733796358108521e-01 1.352455019950866699e+00 3.430144786834716797e-01 -3.830048739910125732e-01
1.851000000000000000e+03 3.358721256256103516e+00 1.777476882934570312e+01 -2.140004187822341919e-01 1.455168724060058594e+00 3.723504841327667236e-01 -2.546543776988983154e-01
1.852000000000000000e+03 2.944149255752563477e+00 6.886765956878662109e+00 5.243986248970031738e-01 -2.381436973810195923e-01 8.587647974491119385e-02 -4.307850003242492676e-01
1.853000000000000000e+03 2.952521562576293945e+00 7.865974903106689453e+00 3.325533270835876465e-01 -2.498089149594306946e-02 9.227173030376434326e-02 -7.576763629913330078e-01
1.854000000000000000e+03 2.928807258605957031e+00 -5.572478294372558594e+00 -1.689320616424083710e-02 -5.587108060717582703e-02 -2.182928659021854401e-02 -5.552863329648971558e-02
1.855000000000000000e+03 3.082352876663208008e+00 -1.060821723937988281e+01 -6.261331029236316681e-03 -1.548778116703033447e-01 -4.834174364805221558e-02 -1.035563424229621887e-01
1.856000000000000000e+03 3.581383228302001953e+00 -3.480999374389648438e+01 5.782812368124723434e-03 -5.138352513313293457e-01 -1.524157226085662842e-01 -4.443854559212923050e-03
1.857000000000000000e+03 3.401907444000244141e+00 -1.479264640808105469e+01 -2.732815220952033997e-03 -2.467503398656845093e-01 -7.484494894742965698e-02 -1.241837590932846069e-01
1.858000000000000000e+03 2.872131109237670898e+00 -8.006391525268554688e+00 -1.289467979222536087e-02 -9.432576596736907959e-02 -3.216613456606864929e-02 -7.774931937456130981e-02
1.859000000000000000e+03 3.926082372665405273e+00 -6.885316848754882812e+00 -2.439978905022144318e-02 -6.173840165138244629e-02 -2.584145776927471161e-02 -8.581623435020446777e-02
1.860000000000000000e+03 2.428015708923339844e+00 5.581979274749755859e+00 5.127962827682495117e-01 -5.167596340179443359e-01 -1.189012429676949978e-03 2.569838194176554680e-03
1.861000000000000000e+03 3.149109840393066406e+00 1.025675201416015625e+01 5.930187553167343140e-02 5.230536460876464844e-01 1.747066527605056763e-01 -9.920014142990112305e-01
1.862000000000000000e+03 3.551339149475097656e+00 -1.764865303039550781e+01 7.191530428826808929e-03 -3.094274997711181641e-01 -9.067079424858093262e-02 -1.127405986189842224e-01
1.863000000000000000e+03 3.275787115097045898e+00 1.160800647735595703e+01 -1.623745411634445190e-01 8.514360785484313965e-01 2.067184597253799438e-01 -8.998731374740600586e-01
1.864000000000000000e+03 3.040463924407958984e+00 9.005659103393554688e+00 1.721205115318298340e-01 2.273254394531250000e-01 1.198337897658348083e-01 -8.133091926574707031e-01
1.865000000000000000e+03 3.216495752334594727e+00 2.059718894958496094e+01 -1.225393712520599365e-01 1.528585076332092285e+00 4.218136966228485107e-01 -3.775456920266151428e-02
1.866000000000000000e+03 3.229329109191894531e+00 2.197587776184082031e+01 -5.443002656102180481e-02 1.524494409561157227e+00 4.410193264484405518e-01 5.426658689975738525e-02
1.867000000000000000e+03 3.262922763824462891e+00 1.920204162597656250e+01 -1.232819706201553345e-01 1.496835708618164062e+00 4.120661318302154541e-01 -9.804514050483703613e-02
1.868000000000000000e+03 3.481665039062500000e+01 2.381919384002685547e+00 9.028873592615127563e-02 5.513830576092004776e-03 2.874077111482620239e-02 1.398543953895568848e+00
1.869000000000000000e+03 5.333287811279296875e+01 6.799054622650146484e+00 -1.351970061659812927e-02 1.340230083465576172e+01 4.016634464263916016e+00 4.397523105144500732e-01
1.870000000000000000e+03 1.748176002502441406e+01 4.252577781677246094e+00 9.821983337402343750e+00 -6.782565712928771973e-01 2.743118047714233398e+00 1.508018016815185547e+00
1.871000000000000000e+03 5.015214538574218750e+01 1.805080604553222656e+01 -1.417916774749755859e+00 7.852211475372314453e+00 1.930288434028625488e+00 -2.482259511947631836e+00
1.872000000000000000e+03 4.783255767822265625e+01 1.824403762817382812e+01 -4.518407583236694336e-01 2.454540491104125977e+00 6.008099317550659180e-01 -2.033504247665405273e+00
1.873000000000000000e+03 5.941125106811523438e+01 -1.214650154113769531e+01 3.501164317131042480e-01 9.080421447753906250e+00 2.829161405563354492e+00 8.835719823837280273e-01
1.874000000000000000e+03 6.530574798583984375e+01 2.623811006546020508e+00 -1.378988176584243774e-01 6.308665752410888672e+00 1.851230144500732422e+00 2.536078929901123047e+00
1.875000000000000000e+03 5.290680694580078125e+01 -3.191742658615112305e+00 -3.462163209915161133e+00 6.008581638336181641e+00 7.639256119728088379e-01 -2.049618959426879883e+00
1.876000000000000000e+03 5.345886230468750000e+01 -6.028041362762451172e+00 -1.367555499076843262e+00 3.974427938461303711e+00 7.820617556571960449e-01 -9.267584085464477539e-01
1.877000000000000000e+03 5.592722702026367188e+01 1.242527580261230469e+01 1.662590622901916504e+00 5.377560615539550781e+00 2.112045288085937500e+00 2.264596700668334961e+00
1.878000000000000000e+03 4.012558746337890625e+01 -1.900598907470703125e+01 3.467302322387695312e-01 4.999814987182617188e+00 1.603963613510131836e+00 1.006765604019165039e+00
1.879000000000000000e+03 9.377720832824707031e+00 1.092896366119384766e+01 -1.139832496643066406e+00 1.727929711341857910e+00 1.764291524887084961e-01 -7.064746022224426270e-01
1.880000000000000000e+03 2.616930961608886719e+01 -1.549958705902099609e+00 2.994865179061889648e+00 2.997673749923706055e+00 1.797761678695678711e+00 -9.472919106483459473e-01
1.881000000000000000e+03 4.441025924682617188e+01 -1.006824207305908203e+01 -1.392714500427246094e+00 6.588794231414794922e+00 1.558823943138122559e+00 1.405943274497985840e+00
1.882000000000000000e+03 6.659505462646484375e+01 -4.897687435150146484e-01 -1.808916926383972168e+00 3.080061674118041992e+00 3.813434243202209473e-01 1.631611704826354980e+00
1.883000000000000000e+03 3.593863296508789062e+01 1.656788444519042969e+01 -2.248908281326293945e+00 -5.022282004356384277e-01 -8.253409266471862793e-01 -2.975824773311614990e-01
1.884000000000000000e+03 2.280226325988769531e+01 -6.850478649139404297e-01 2.383850812911987305e+00 7.599303245544433594e+00 2.994946241378784180e+00 -5.368018627166748047e+00
1.885000000000000000e+03 3.239847183227539062e+01 2.117859125137329102e+00 -5.700734257698059082e-02 1.718596577644348145e+00 4.984767735004425049e-01 1.945453882217407227e+00
1.886000000000000000e+03 4.365238189697265625e+01 -7.460399150848388672e+00 -1.299798339605331421e-01 9.900779724121093750e+00 2.931240081787109375e+00 1.802660584449768066e+00
1.887000000000000000e+03 6.973191070556640625e+01 8.773004531860351562e+00 -1.454385519027709961e+00 6.901615619659423828e+00 1.634169101715087891e+00 5.010450482368469238e-01
1.888000000000000000e+03 6.715396118164062500e+01 1.174470520019531250e+01 3.872005701065063477e+00 1.212191963195800781e+01 4.798177719116210938e+00 6.180214285850524902e-01
1.889000000000000000e+03 7.087278747558593750e+01 -3.832300186157226562e+00 -1.858909845352172852e+00 4.385890960693359375e+00 7.580943107604980469e-01 -1.332306146621704102e+00
1.890000000000000000e+03 7.009081268310546875e+01 -2.783923149108886719e+00 -3.282926559448242188e+00 4.306391716003417969e+00 3.070395290851593018e-01 -1.827703833580017090e+00
1.891000000000000000e+03 5.823834991455078125e+01 1.533878517150878906e+01 1.200533866882324219e+00 3.461515903472900391e+00 1.398614883422851562e+00 2.305257558822631836e+00
1.892000000000000000e+03 5.700648880004882812e+01 1.496523284912109375e+01 1.252480149269104004e+00 4.302297592163085938e+00 1.666433334350585938e+00 2.669488906860351562e+00
1.893000000000000000e+03 3.801693725585937500e+01 7.999360084533691406e+00 -4.186345613561570644e-04 2.942836470901966095e-02 8.702918887138366699e-03 1.087039522826671600e-02
1.894000000000000000e+03 1.627889633178710938e+01 1.818290519714355469e+01 -1.177792072296142578e+00 -1.744051724672317505e-01 -4.056591689586639404e-01 -2.720887362957000732e-01
1.895000000000000000e+03 5.865760803222656250e+01 -1.378092670440673828e+01 7.789815068244934082e-01 9.832715034484863281e+00 3.183508872985839844e+00 5.004931688308715820e-01
1.896000000000000000e+03 5.829199981689453125e+01 -1.250277328491210938e+01 5.443833470344543457e-01 9.418572425842285156e+00 2.988886833190917969e+00 3.655488193035125732e-01
1.897000000000000000e+03 6.651358795166015625e+01 6.093261718750000000e+00 5.196300148963928223e-02 9.461660385131835938e+00 2.854087114334106445e+00 -8.191209435462951660e-01
1.898000000000000000e+03 1.683785820007324219e+01 1.567803096771240234e+01 -1.816616058349609375e+00 -4.512359797954559326e-01 -6.803556084632873535e-01 -7.830854058265686035e-01
1.899000000000000000e+03 1.373910903930664062e+01 1.490560340881347656e+01 -1.449449777603149414e+00 -1.244188286364078522e-03 -4.352081716060638428e-01 -4.369173049926757812e-01
1.900000000000000000e+03 7.640264892578125000e+01 9.674795150756835938e+00 -1.137834191322326660e+00 1.077708721160888672e+01 2.891776084899902344e+00 -8.244013786315917969e-01
1.901000000000000000e+03 2.327286338806152344e+01 1.089403343200683594e+01 -1.975664973258972168e+00 4.826866149902343750e+00 8.553603291511535645e-01 1.834504246711730957e+00
1.902000000000000000e+03 1.145528030395507812e+01 1.318183135986328125e+01 -1.308440923690795898e+00 6.201502680778503418e-01 -2.064872086048126221e-01 -4.106581807136535645e-01
1.903000000000000000e+03 5.763350296020507812e+01 -8.726660728454589844e+00 3.072255253791809082e-01 7.868793010711669922e+00 2.452805519104003906e+00 2.900771796703338623e-01
1.904000000000000000e+03 5.902024841308593750e+01 -1.513784313201904297e+01 1.215594768524169922e+00 8.693211555480957031e+00 2.972641706466674805e+00 1.614380627870559692e-01
1.905000000000000000e+03 6.750553894042968750e+01 5.704062938690185547e+00 9.666082859039306641e-01 1.038976860046386719e+01 3.406913042068481445e+00 -1.206744551658630371e+00
1.906000000000000000e+03 8.281764984130859375e+00 8.934646606445312500e+00 -2.102355957031250000e-01 2.087138891220092773e+00 5.630709528923034668e-01 -1.826260328292846680e+00
1.907000000000000000e+03 3.363018798828125000e+01 2.132691860198974609e+00 -2.899870276451110840e-01 5.832033753395080566e-01 8.796489983797073364e-02 1.811930894851684570e+00
1.908000000000000000e+03 2.817754173278808594e+01 -7.812056541442871094e+00 2.410888910293579102e+00 5.238406181335449219e+00 2.294788599014282227e+00 -2.246484279632568359e+00
1.909000000000000000e+03 4.611623382568359375e+01 -1.555862617492675781e+01 -2.111428081989288330e-01 2.045669317245483398e+00 5.503579378128051758e-01 1.754257082939147949e-01
1.910000000000000000e+03 7.562262725830078125e+01 -8.075107574462890625e+00 3.483849167823791504e-01 8.325789451599121094e+00 2.602252244949340820e+00 1.546811699867248535e+00
1.911000000000000000e+03 7.315303802490234375e+01 -9.150254249572753906e+00 1.006374001502990723e+00 9.588169097900390625e+00 3.178362846374511719e+00 4.618502780795097351e-02
1.912000000000000000e+03 5.560862731933593750e+01 -2.169937515258789062e+01 -2.534190714359283447e-01 6.677531719207763672e+00 1.927233815193176270e+00 2.791974782943725586e+00
1.913000000000000000e+03 5.917937469482421875e+01 -1.058816194534301758e+00 -1.196471214294433594e+00 3.019901752471923828e+00 5.470291376113891602e-01 -1.150938630104064941e+00
1.914000000000000000e+03 2.799721527099609375e+01 -4.424693584442138672e+00 2.142826795578002930e+00 5.118633270263671875e+00 2.178437948226928711e+00 2.274789363145828247e-01
1.915000000000000000e+03 6.809271240234375000e+01 1.035086822509765625e+01 2.148884534835815430e+00 9.954839706420898438e+00 3.631117343902587891e+00 5.277236551046371460e-02
1.916000000000000000e+03 4.242920684814453125e+01 1.513331317901611328e+01 -1.974272012710571289e+00 6.731460094451904297e-01 -3.903377950191497803e-01 -1.502991318702697754e-01
1.917000000000000000e+03 6.602644348144531250e+01 7.553891181945800781e+00 -6.190230846405029297e-01 1.111383914947509766e+01 3.148444890975952148e+00 -1.660172343254089355e-01
1.918000000000000000e+03 5.596632003784179688e+01 -7.364585399627685547e+00 -2.546428442001342773e-01 6.563885211944580078e+00 1.892772674560546875e+00 -7.505782246589660645e-01
1.919000000000000000e+03 4.326789474487304688e+01 -6.335772991180419922e+00 1.635090351104736328e+00 7.853370189666748047e+00 2.846538066864013672e+00 2.083729982376098633e+00
1.920000000000000000e+03 4.070977020263671875e+01 -6.555041790008544922e+00 4.441798031330108643e-01 1.853323221206665039e+00 6.892508864402770996e-01 1.054488062858581543e+00
1.921000000000000000e+03 6.510417175292968750e+01 -1.576416587829589844e+01 -7.423329353332519531e-01 3.692272901535034180e+00 8.849819898605346680e-01 -9.698602557182312012e-01
1.922000000000000000e+03 6.707391357421875000e+01 -1.786465644836425781e+01 4.173641502857208252e-01 2.481556892395019531e+00 8.696763515472412109e-01 -5.854465365409851074e-01
1.923000000000000000e+03 5.390027999877929688e+01 9.890143394470214844e+00 1.327521681785583496e+00 1.008186340332031250e+01 3.422815561294555664e+00 1.143187403678894043e+00
1.924000000000000000e+03 4.634100341796875000e+01 -1.730126380920410156e+01 -2.581901103258132935e-02 1.848507642745971680e+00 5.468066334724426270e-01 -5.251856446266174316e-01
1.925000000000000000e+03 3.212694168090820312e+01 1.647931861877441406e+01 -1.187592387199401855e+00 -1.066344261169433594e+00 -6.761809587478637695e-01 5.446594357490539551e-01
1.926000000000000000e+03 5.217924118041992188e+01 -2.831445932388305664e-01 -1.096801280975341797e+00 7.959036350250244141e+00 2.058670520782470703e+00 -7.756742238998413086e-01
1.927000000000000000e+03 4.996667480468750000e+01 -2.360057830810546875e+00 -3.287036418914794922e+00 1.034815430641174316e+00 -6.756662726402282715e-01 5.067630410194396973e-01
1.928000000000000000e+03 3.379581832885742188e+01 3.283562660217285156e+00 -8.411204218864440918e-01 8.360455036163330078e-01 -1.522470382042229176e-03 1.364745259284973145e+00
1.929000000000000000e+03 3.701064682006835938e+01 3.959628105163574219e+00 1.597649045288562775e-02 -7.333474159240722656e-01 -2.152112722396850586e-01 5.569560527801513672e-01
1.930000000000000000e+03 2.671195793151855469e+01 1.365876865386962891e+01 2.035831928253173828e+00 5.534330368041992188e+00 2.271048784255981445e+00 -5.155568718910217285e-01
1.931000000000000000e+03 5.236409759521484375e+01 -2.142160415649414062e+00 -3.238501548767089844e+00 5.786376953125000000e+00 7.643626928329467773e-01 -1.581429004669189453e+00
1.932000000000000000e+03 3.724267196655273438e+01 -1.979419517517089844e+01 1.339639663696289062e+00 2.015644550323486328e+00 1.006585240364074707e+00 2.012484371662139893e-01
1.933000000000000000e+03 7.101261901855468750e+01 -2.139389514923095703e+00 -2.166128158569335938e+00 4.540730476379394531e+00 7.123807072639465332e-01 -2.554510593414306641e+00
1.934000000000000000e+03 3.485254287719726562e+01 4.325071811676025391e+00 -7.622101902961730957e-01 4.061067700386047363e-01 -1.068310216069221497e-01 9.007115364074707031e-01
1.935000000000000000e+03 1.579310798645019531e+01 -6.237332344055175781e+00 -3.248267173767089844e-01 1.067487746477127075e-01 -6.542338430881500244e-02 6.827563792467117310e-02
1.936000000000000000e+03 1.592661666870117188e+01 -4.691674232482910156e+00 -1.927772909402847290e-01 5.576385557651519775e-02 -4.110403358936309814e-02 1.453744024038314819e-01
1.937000000000000000e+03 3.442665100097656250e+01 -1.763043975830078125e+01 8.413448929786682129e-01 2.087694406509399414e+00 8.787117600440979004e-01 -7.063060998916625977e-01
1.938000000000000000e+03 3.510774230957031250e+01 -1.903976631164550781e+01 9.541812539100646973e-01 1.970716595649719238e+00 8.774693608283996582e-01 -4.539563655853271484e-01
1.939000000000000000e+03 7.498628234863281250e+01 -1.109558105468750000e+01 1.278387069702148438e+00 9.402200698852539062e+00 3.204176187515258789e+00 7.219162583351135254e-01
1.940000000000000000e+03 7.484140014648437500e+01 -1.705507659912109375e+01 -1.518058329820632935e-01 8.529028892517089844e+00 2.513166904449462891e+00 7.327397912740707397e-02
1.941000000000000000e+03 7.269868469238281250e+01 -1.660612678527832031e+01 -1.209388375282287598e+00 9.877077102661132812e+00 2.600306510925292969e+00 9.796971082687377930e-01
1.942000000000000000e+03 2.577036094665527344e+01 1.234163379669189453e+01 -5.340052247047424316e-01 6.521778583526611328e+00 1.796332001686096191e+00 4.927740097045898438e-01
1.943000000000000000e+03 5.645505523681640625e+01 -1.757090806961059570e+00 -9.047294855117797852e-01 4.166073322296142578e+00 9.784030914306640625e-01 -4.541275501251220703e+00
1.944000000000000000e+03 5.041322708129882812e+01 -1.027260541915893555e+00 -4.417388737201690674e-01 3.832120418548583984e+00 1.017114400863647461e+00 7.015547156333923340e-01
1.945000000000000000e+03 6.085316848754882812e+01 -5.665356636047363281e+00 1.741699337959289551e+00 8.329587936401367188e+00 3.021386146545410156e+00 8.092262148857116699e-01
1.946000000000000000e+03 5.957302093505859375e+01 -5.532177448272705078e+00 1.141776800155639648e+00 7.243782043457031250e+00 2.515667676925659180e+00 1.245471015572547913e-01
1.947000000000000000e+03 4.129491043090820312e+01 -3.878032445907592773e+00 2.186234712600708008e+00 2.613616466522216797e+00 1.439955353736877441e+00 -3.921316564083099365e-02
1.948000000000000000e+03 1.966892051696777344e+01 -9.454061508178710938e+00 -5.755997896194458008e-01 2.961667180061340332e-01 -8.382992446422576904e-02 1.079417690634727478e-01
1.949000000000000000e+03 7.250364685058593750e+01 -6.668499708175659180e-01 -9.493951797485351562e-01 2.029409885406494141e+00 3.240043818950653076e-01 -2.901160955429077148e+00
1.950000000000000000e+03 7.468474578857421875e+01 -9.581809639930725098e-01 -1.593939900398254395e+00 4.931427478790283203e+00 1.001246333122253418e+00 4.994979500770568848e-01
1.951000000000000000e+03 6.719569396972656250e+01 1.479090595245361328e+01 3.130323290824890137e-01 9.050801277160644531e+00 2.809149980545043945e+00 6.594163179397583008e-01
1.952000000000000000e+03 4.984897232055664062e+01 3.423328638076782227e+00 3.514930009841918945e+00 6.625344276428222656e+00 3.042082309722900391e+00 1.815629243850708008e+00
1.953000000000000000e+03 5.211308288574218750e+01 2.633994102478027344e+00 4.083568572998046875e+00 1.050286006927490234e+01 4.375928401947021484e+00 4.951178431510925293e-01
1.954000000000000000e+03 4.141544342041015625e+01 -7.448772430419921875e+00 -3.345405757427215576e-01 4.023455142974853516e+00 1.106674432754516602e+00 1.998613119125366211e+00
1.955000000000000000e+03 6.750579071044921875e+01 1.306227016448974609e+01 2.030402421951293945e+00 1.038028240203857422e+01 3.723205327987670898e+00 1.969000697135925293e+00
1.956000000000000000e+03 2.157039070129394531e+01 3.283180296421051025e-01 -3.195381164550781250e-01 8.659195899963378906e+00 2.501897335052490234e+00 -4.474640369415283203e+00
1.957000000000000000e+03 2.213144302368164062e+01 1.930387258529663086e+00 -1.049113988876342773e+00 9.040681838989257812e+00 2.397470474243164062e+00 -5.484536170959472656e+00
1.958000000000000000e+03 2.112520217895507812e+01 1.861554265022277832e+00 -1.989500045776367188e+00 1.127117443084716797e+01 2.784502267837524414e+00 -3.991354465484619141e+00
1.959000000000000000e+03 2.106837654113769531e+01 6.435099601745605469e+00 -3.629203140735626221e-01 9.377411842346191406e+00 2.704347610473632812e+00 2.560117959976196289e+00
1.960000000000000000e+03 2.065610122680664062e+01 2.040067672729492188e+00 -1.508843898773193359e+00 1.098331356048583984e+01 2.842340946197509766e+00 -2.931689739227294922e+00
1.961000000000000000e+03 2.020996284484863281e+01 6.298909664154052734e+00 1.358676999807357788e-01 7.657985210418701172e+00 2.338155984878540039e+00 -3.577495515346527100e-01
1.962000000000000000e+03 2.035260581970214844e+01 5.509351730346679688e+00 4.515647888183593750e+00 1.034559154510498047e+01 4.458372116088867188e+00 -1.330513000488281250e+00
1.963000000000000000e+03 1.919529724121093750e+01 4.647677421569824219e+00 9.963822364807128906e+00 1.742576718330383301e+00 3.511919736862182617e+00 -1.205764889717102051e+00
1.964000000000000000e+03 1.991995429992675781e+01 5.389782905578613281e+00 5.883038520812988281e+00 7.038082122802734375e+00 3.876336097717285156e+00 -2.046655654907226562e+00
1.965000000000000000e+03 1.924977111816406250e+01 5.236735343933105469e+00 6.952920913696289062e+00 2.555462360382080078e+00 2.852514982223510742e+00 -1.946521759033203125e+00
1.966000000000000000e+03 2.285288238525390625e+01 6.224235057830810547e+00 2.727382421493530273e+00 4.798524379730224609e+00 2.257771968841552734e+00 4.953357219696044922e+00
1.967000000000000000e+03 2.223824882507324219e+01 2.209693670272827148e+00 -2.076217830181121826e-01 8.855725288391113281e+00 2.594430923461914062e+00 -5.560122966766357422e+00
1.968000000000000000e+03 2.323300933837890625e+01 5.815113067626953125e+00 3.556375503540039062e+00 3.526317834854125977e+00 2.124808073043823242e+00 4.640425682067871094e+00
1.969000000000000000e+03 1.953142547607421875e+01 3.134417533874511719e+00 7.411779403686523438e+00 4.368794441223144531e+00 3.534172058105468750e+00 9.898205399513244629e-01
1.970000000000000000e+03 1.908847808837890625e+01 3.232841968536376953e+00 8.717080116271972656e+00 1.417531166225671768e-02 2.619376659393310547e+00 9.228754043579101562e-01
1.971000000000000000e+03 1.938479614257812500e+01 4.023773670196533203e+00 1.154165744781494141e+01 2.192752599716186523e+00 4.120323181152343750e+00 -5.516430828720331192e-03
1.972000000000000000e+03 2.395668411254882812e+01 7.654259204864501953e-01 -1.292614102363586426e+00 3.565358638763427734e+00 6.818233132362365723e-01 -4.554382801055908203e+00
1.973000000000000000e+03 2.338494873046875000e+01 6.008446693420410156e+00 3.435014963150024414e+00 3.931615352630615234e+00 2.209989070892333984e+00 4.286107063293457031e+00
1.974000000000000000e+03 2.532110214233398438e+01 -1.694773882627487183e-01 9.994964003562927246e-01 1.437335133552551270e+00 7.310494780540466309e-01 -2.221690416336059570e+00
1.975000000000000000e+03 9.329498291015625000e+00 -3.226202249526977539e+00 -1.090926751494407654e-01 4.185553174465894699e-03 -3.147213533520698547e-02 -3.557087108492851257e-02
1.976000000000000000e+03 1.126993942260742188e+01 -4.179439544677734375e+00 -1.729467958211898804e-01 2.505587041378021240e-02 -4.436727985739707947e-02 -3.335708007216453552e-02
1.977000000000000000e+03 7.054446697235107422e+00 -4.868134975433349609e+00 -6.336306035518646240e-02 7.824397645890712738e-03 -1.666159927845001221e-02 -7.485931366682052612e-02
1.978000000000000000e+03 3.863892364501953125e+01 1.547720241546630859e+01 -2.158256292343139648e+00 4.373868703842163086e-01 -5.162608623504638672e-01 -9.822718799114227295e-03
1.979000000000000000e+03 3.927185058593750000e+01 1.454208374023437500e+01 -2.013813972473144531e+00 4.999841749668121338e-01 -4.541489481925964355e-01 1.553508639335632324e-01
1.980000000000000000e+03 3.783016204833984375e+01 1.466324901580810547e+01 -2.492650747299194336e+00 3.310770988464355469e-01 -6.484721302986145020e-01 1.528136581182479858e-01
1.981000000000000000e+03 1.098550987243652344e+01 -4.949371337890625000e+00 -1.528300344944000244e-01 9.901306778192520142e-02 -1.614509150385856628e-02 -2.660404145717620850e-02
1.982000000000000000e+03 1.197817325592041016e+01 -4.304049015045166016e+00 -1.656000167131423950e-01 9.978176653385162354e-02 -1.974547468125820160e-02 8.847366087138652802e-03
1.983000000000000000e+03 3.798447036743164062e+01 1.660428237915039062e+01 -1.944724917411804199e+00 2.323138862848281860e-01 -5.137233138084411621e-01 -1.909013241529464722e-01
1.984000000000000000e+03 1.057260704040527344e+01 -4.071576118469238281e+00 -1.397657543420791626e-01 7.789988815784454346e-02 -1.855975948274135590e-02 -1.988402940332889557e-02
1.985000000000000000e+03 4.134679317474365234e+00 -4.760981082916259766e+00 -3.289954736828804016e-02 -3.959815949201583862e-02 -2.174931205809116364e-02 -6.335121393203735352e-02
1.986000000000000000e+03 3.966490983963012695e+00 -5.804632186889648438e+00 -3.609218075871467590e-02 -3.201855719089508057e-02 -2.043322101235389709e-02 -7.156396657228469849e-02
1.987000000000000000e+03 5.123201847076416016e+00 -3.654312610626220703e+00 -3.296902775764465332e-02 -1.673053391277790070e-02 -1.490986905992031097e-02 -5.110740289092063904e-02
1.988000000000000000e+03 9.735888481140136719e+00 -4.661194801330566406e+00 -1.323229521512985229e-01 6.840561330318450928e-02 -1.917520165443420410e-02 -3.968327119946479797e-02
1.989000000000000000e+03 6.633542060852050781e+00 -3.325701713562011719e+00 -5.141608044505119324e-02 -7.966198958456516266e-03 -1.781468279659748077e-02 -4.796933382749557495e-02
1.990000000000000000e+03 7.431600570678710938e+00 -3.928261995315551758e+00 -6.462601572275161743e-02 3.494353732094168663e-03 -1.833949796855449677e-02 -5.391581356525421143e-02
1.991000000000000000e+03 5.912466526031494141e+00 -3.458114385604858398e+00 -7.261410355567932129e-02 2.951395232230424881e-03 -2.089881338179111481e-02 -5.121784657239913940e-02
1.992000000000000000e+03 6.801073551177978516e+00 -4.083599090576171875e+00 -9.301917999982833862e-02 9.008644148707389832e-03 -2.520316094160079956e-02 -6.473052501678466797e-02
1.993000000000000000e+03 8.390536308288574219e+00 4.031382083892822266e+00 4.481709003448486328e+00 1.050654053688049316e+00 1.659708857536315918e+00 -1.044460535049438477e-01
1.994000000000000000e+03 6.865029811859130859e+00 4.601369857788085938e+00 3.170572519302368164e+00 -1.662748157978057861e-01 9.012893438339233398e-01 -6.016911938786506653e-03
1.995000000000000000e+03 3.932441711425781250e+00 3.562459230422973633e+00 5.182373523712158203e-01 -4.189208447933197021e-01 2.979494258761405945e-02 6.329329013824462891e-01
1.996000000000000000e+03 3.198526620864868164e+00 4.881340980529785156e+00 5.917231440544128418e-01 -6.156255602836608887e-01 -7.170738186687231064e-03 2.210315316915512085e-01
1.997000000000000000e+03 3.798833131790161133e+00 4.269794464111328125e+00 8.058846592903137207e-01 -4.649280011653900146e-01 1.022870019078254700e-01 4.437305331230163574e-01
1.998000000000000000e+03 4.570036888122558594e+00 3.434257984161376953e+00 6.915712952613830566e-01 -6.389487981796264648e-01 1.578676141798496246e-02 7.902857065200805664e-01
1.999000000000000000e+03 6.233949661254882812e+00 5.732020854949951172e+00 2.220581054687500000e+00 6.478599458932876587e-02 6.856100559234619141e-01 -1.046995639801025391e+00
2.000000000000000000e+03 5.169049263000488281e+00 3.314551115036010742e+00 8.586524724960327148e-01 -4.106038510799407959e-01 1.344145834445953369e-01 9.098030924797058105e-01
2.001000000000000000e+03 6.036804676055908203e+00 4.889680862426757812e+00 2.291815280914306641e+00 -4.881808757781982422e-01 5.410903096199035645e-01 -3.563600480556488037e-01
2.002000000000000000e+03 7.551229000091552734e+00 6.399721145629882812e+00 2.393525362014770508e+00 1.336499333381652832e+00 1.119007468223571777e+00 -2.186457633972167969e+00
2.003000000000000000e+03 2.418715858459472656e+01 -7.271740436553955078e-01 1.951609730720520020e+00 5.012940406799316406e+00 2.089365005493164062e+00 -4.241137027740478516e+00
2.004000000000000000e+03 2.509751892089843750e+01 -1.391724228858947754e+00 2.814755678176879883e+00 4.186224937438964844e+00 2.100294113159179688e+00 -2.569075107574462891e+00
2.005000000000000000e+03 4.128641510009765625e+01 1.584824371337890625e+01 -1.832398891448974609e+00 7.359550595283508301e-01 -3.289331495761871338e-01 -7.856277376413345337e-02
2.006000000000000000e+03 4.055319213867187500e+01 1.553907108306884766e+01 -1.856323480606079102e+00 7.040758132934570312e-01 -3.456743061542510986e-01 -5.611214414238929749e-02
2.007000000000000000e+03 3.930671691894531250e+01 1.531876468658447266e+01 -1.990203022956848145e+00 5.723785161972045898e-01 -4.253473579883575439e-01 -2.262306772172451019e-02
2.008000000000000000e+03 2.349692344665527344e+01 -2.456249110400676727e-02 5.027998685836791992e-01 5.332277297973632812e+00 1.750523090362548828e+00 -5.013173580169677734e+00
2.009000000000000000e+03 1.342140293121337891e+01 -4.557116508483886719e+00 -1.922430098056793213e-01 9.569715708494186401e-02 -2.896375395357608795e-02 7.318937778472900391e-02
2.010000000000000000e+03 2.306383705139160156e+01 7.028642654418945312e+00 8.676678538322448730e-01 5.175367832183837891e+00 1.812910676002502441e+00 4.224443912506103516e+00
2.011000000000000000e+03 1.412098407745361328e+01 -4.663459777832031250e+00 -2.630215883255004883e-01 2.371087856590747833e-02 -7.179321348667144775e-02 -2.541333064436912537e-02
2.012000000000000000e+03 1.372498321533203125e+01 -3.697182178497314453e+00 -1.913637518882751465e-01 -5.304465536028146744e-03 -5.900046601891517639e-02 7.969215512275695801e-03
2.013000000000000000e+03 1.909420585632324219e+01 4.942977905273437500e+00 8.541769027709960938e+00 1.305722832679748535e+00 2.954247713088989258e+00 -1.431201457977294922e+00
2.014000000000000000e+03 1.842099571228027344e+01 3.811379671096801758e+00 9.431137084960937500e+00 -2.146909236907958984e+00 2.185268402099609375e+00 1.069069147109985352e+00
2.015000000000000000e+03 1.469065666198730469e+01 -4.957084178924560547e+00 -2.055246680974960327e-01 9.882427752017974854e-02 -3.201011940836906433e-02 8.951716870069503784e-02
2.016000000000000000e+03 2.304878234863281250e+01 6.644491672515869141e+00 1.536403536796569824e+00 5.002399444580078125e+00 1.961640834808349609e+00 4.335183620452880859e+00
2.017000000000000000e+03 5.961732101440429688e+01 -2.210991859436035156e+00 1.573002934455871582e-01 5.013576507568359375e+00 1.551263093948364258e+00 -8.252035975456237793e-01
2.018000000000000000e+03 2.605792617797851562e+01 1.025864887237548828e+01 -2.997373580932617188e+00 4.121750831604003906e+00 3.373131155967712402e-01 4.529430866241455078e-01
2.019000000000000000e+03 1.861965942382812500e+01 6.887490749359130859e+00 -2.581365823745727539e+00 -3.674509227275848389e-01 -8.846450448036193848e-01 -2.817790269851684570e+00
2.020000000000000000e+03 1.967722511291503906e+01 5.636723518371582031e+00 4.640298843383789062e+00 5.166087150573730469e+00 2.941915750503540039e+00 -1.764016270637512207e+00
2.021000000000000000e+03 6.580567169189453125e+01 -1.705999755859375000e+01 2.144612139090895653e-03 3.174761533737182617e+00 9.530718326568603516e-01 -1.041445851325988770e+00
2.022000000000000000e+03 6.591568756103515625e+01 -1.811151313781738281e+01 3.747635185718536377e-01 3.313625335693359375e+00 1.106516599655151367e+00 -1.106763124465942383e+00
2.023000000000000000e+03 5.149501037597656250e+01 5.495156288146972656e+00 2.011366367340087891e+00 1.164752197265625000e+01 4.097666263580322266e+00 -1.296613067388534546e-01
2.024000000000000000e+03 1.810663414001464844e+01 4.425342082977294922e+00 9.188877105712890625e+00 -1.617291212081909180e+00 2.271475791931152344e+00 6.530923247337341309e-01
2.025000000000000000e+03 7.482846069335937500e+01 1.291188240051269531e+01 5.932922959327697754e-01 5.454185485839843750e+00 1.814243316650390625e+00 -1.480916380882263184e+00
2.026000000000000000e+03 1.264438915252685547e+01 1.403081512451171875e+01 -1.316385984420776367e+00 1.087650209665298462e-01 -3.622862994670867920e-01 -4.342380166053771973e-01
2.027000000000000000e+03 1.723865318298339844e+01 4.971946239471435547e+00 4.499596118927001953e+00 -1.712725400924682617e+00 8.360611796379089355e-01 -8.929261565208435059e-01
2.028000000000000000e+03 3.092053985595703125e+01 -1.166706371307373047e+01 9.105596542358398438e-01 2.622307538986206055e+00 1.059860229492187500e+00 -1.823235392570495605e+00
2.029000000000000000e+03 7.609389495849609375e+01 -3.673960447311401367e+00 -3.540736436843872070e-01 7.892786502838134766e+00 2.261613845825195312e+00 1.387158989906311035e+00
2.030000000000000000e+03 7.441426849365234375e+01 -5.574617385864257812e+00 -3.606446981430053711e-01 7.202791690826416016e+00 2.052644014358520508e+00 8.699916601181030273e-01
2.031000000000000000e+03 7.247779846191406250e+01 -5.886088371276855469e+00 -5.158808231353759766e-01 6.577280044555664062e+00 1.818419814109802246e+00 -2.886456251144409180e-01
2.032000000000000000e+03 2.037662887573242188e+01 -1.158903503417968750e+01 2.739870846271514893e-01 4.172694385051727295e-01 2.073769569396972656e-01 2.513007223606109619e-01
2.033000000000000000e+03 2.783610534667968750e+01 -2.744100809097290039e+00 2.690109014511108398e+00 2.860869407653808594e+00 1.665293574333190918e+00 1.336270928382873535e+00
2.034000000000000000e+03 2.697012329101562500e+01 -4.562736034393310547e+00 2.570916891098022461e+00 5.984314918518066406e+00 2.566569566726684570e+00 -5.209690332412719727e-01
2.035000000000000000e+03 4.430963516235351562e+01 -1.834058880805969238e+00 -1.300913929939270020e+00 9.047218322753906250e+00 2.323891162872314453e+00 2.678041934967041016e+00
2.036000000000000000e+03 4.460813903808593750e+01 -6.285336613655090332e-01 -9.449341893196105957e-01 7.120999813079833984e+00 1.852819681167602539e+00 4.062668323516845703e+00
2.037000000000000000e+03 6.051385498046875000e+01 -1.373313140869140625e+01 4.091195166110992432e-01 7.972736835479736328e+00 2.514556884765625000e+00 2.099209725856781006e-01
2.038000000000000000e+03 6.277019500732421875e+01 2.034626007080078125e-01 -2.593558073043823242e+00 6.122238636016845703e+00 1.058604240417480469e+00 3.530007600784301758e+00
2.039000000000000000e+03 6.375448989868164062e+01 4.431085288524627686e-01 -2.540483713150024414e+00 5.479671478271484375e+00 8.817563056945800781e-01 3.428218364715576172e+00
2.040000000000000000e+03 7.310093688964843750e+01 -2.251948928833007812e+01 1.104302238672971725e-02 6.345646858215332031e+00 1.907006859779357910e+00 7.172189950942993164e-01
2.041000000000000000e+03 3.612514495849609375e+01 1.545804023742675781e+00 -3.667707368731498718e-02 -6.293725371360778809e-01 -1.998148858547210693e-01 8.158475160598754883e-01
2.042000000000000000e+03 1.739757537841796875e+01 -6.482118129730224609e+00 -4.002040922641754150e-01 4.509957972913980484e-03 -1.187082454562187195e-01 2.063087970018386841e-01
2.043000000000000000e+03 1.701338577270507812e+01 -9.470043182373046875e+00 -3.874902427196502686e-01 3.297129869461059570e-01 -1.733317598700523376e-02 -9.801792353391647339e-02
2.044000000000000000e+03 2.304877662658691406e+01 6.131495833396911621e-01 -7.770477533340454102e-01 6.752438068389892578e+00 1.792617082595825195e+00 -5.137492179870605469e+00
2.045000000000000000e+03 3.509093475341796875e+01 1.465553641319274902e+00 1.194225102663040161e-01 -5.852642655372619629e-01 -1.397525221109390259e-01 1.307307243347167969e+00
2.046000000000000000e+03 4.643568515777587891e+00 2.328530311584472656e+01 -8.310848474502563477e-02 1.324088692665100098e+00 3.722940683364868164e-01 1.156864687800407410e-01
2.047000000000000000e+03 7.088865661621093750e+01 1.277305984497070312e+01 2.377742767333984375e+00 4.792348861694335938e+00 2.151027441024780273e+00 1.148657679557800293e+00
2.048000000000000000e+03 6.971012878417968750e+01 1.265664577484130859e+01 1.961601376533508301e+00 6.186862468719482422e+00 2.444539308547973633e+00 1.631098866462707520e+00
2.049000000000000000e+03 3.945680999755859375e+01 -4.946159362792968750e+00 9.681611061096191406e-01 -8.310538530349731445e-01 4.113217815756797791e-02 4.072440266609191895e-01
2.050000000000000000e+03 7.716794586181640625e+01 -1.022433853149414062e+01 4.526263773441314697e-01 8.044969558715820312e+00 2.549278974533081055e+00 1.069993019104003906e+00
2.051000000000000000e+03 7.435800933837890625e+01 -8.493760108947753906e+00 5.769131183624267578e-01 8.851902961730957031e+00 2.828644752502441406e+00 1.136467218399047852e+00
2.052000000000000000e+03 4.197748565673828125e+01 -3.106208562850952148e+00 1.285452961921691895e+00 4.135941028594970703e+00 1.626418232917785645e+00 -1.460464745759963989e-01
2.053000000000000000e+03 4.289350891113281250e+01 -3.765454292297363281e+00 2.852857589721679688e+00 6.135551929473876953e+00 2.696522712707519531e+00 7.844237685203552246e-01
2.054000000000000000e+03 3.172667694091796875e+01 -1.595586490631103516e+01 4.277687370777130127e-01 2.438991785049438477e+00 8.600281476974487305e-01 -1.108025908470153809e+00
2.055000000000000000e+03 5.543576431274414062e+01 1.424162197113037109e+01 1.662248373031616211e+00 6.764440536499023438e+00 2.528006792068481445e+00 2.960548400878906250e+00
2.056000000000000000e+03 5.253345108032226562e+01 1.418891525268554688e+01 1.774834036827087402e+00 1.246078109741210938e+01 4.270684719085693359e+00 2.301208496093750000e+00
2.057000000000000000e+03 7.538663482666015625e+01 1.434557914733886719e+01 5.207815170288085938e-01 6.087389469146728516e+00 1.982451200485229492e+00 -8.979774117469787598e-01
2.058000000000000000e+03 6.816155242919921875e+01 1.424822330474853516e+01 5.909896492958068848e-01 8.922961235046386719e+00 2.854185342788696289e+00 1.380387902259826660e+00
2.059000000000000000e+03 7.539916992187500000e+01 -1.215050220489501953e+01 9.788911342620849609e-01 9.123812675476074219e+00 3.030811071395874023e+00 7.042081356048583984e-01
2.060000000000000000e+03 4.200037765502929688e+01 -4.546074390411376953e+00 2.869509220123291016e+00 5.035011291503906250e+00 2.371356010437011719e+00 6.685485839843750000e-01
2.061000000000000000e+03 2.896476364135742188e+01 1.718869590759277344e+01 1.149015277624130249e-01 1.649174213409423828e+00 5.292227268218994141e-01 2.310326576232910156e+00
2.062000000000000000e+03 5.238882446289062500e+01 1.798121643066406250e+01 -9.968689084053039551e-01 8.142620086669921875e+00 2.143725395202636719e+00 3.146692812442779541e-01
2.063000000000000000e+03 7.532857513427734375e+01 1.700756645202636719e+01 4.626596868038177490e-01 6.385786533355712891e+00 2.054533958435058594e+00 -5.825006589293479919e-02
2.064000000000000000e+03 4.335661888122558594e+00 -2.903879356384277344e+01 8.069692179560661316e-03 -3.982680141925811768e-01 -1.170594990253448486e-01 -3.506424650549888611e-02
2.065000000000000000e+03 2.789983940124511719e+01 -1.108176708221435547e+00 2.985644817352294922e+00 1.427058815956115723e+00 1.323811054229736328e+00 1.573910713195800781e+00
2.066000000000000000e+03 7.194738388061523438e+00 5.418691158294677734e+00 3.219660520553588867e+00 1.665510982275009155e-01 1.015863537788391113e+00 -1.293214797973632812e+00
2.067000000000000000e+03 4.327405929565429688e+01 1.545768928527832031e+01 -2.049244403839111328e+00 7.117906212806701660e-01 -4.012361168861389160e-01 -2.553464770317077637e-01
2.068000000000000000e+03 3.935736656188964844e+00 5.508587837219238281e+00 1.063798546791076660e+00 -3.553636074066162109e-01 2.125304937362670898e-01 -1.633800864219665527e-01
2.069000000000000000e+03 7.352606201171875000e+01 -4.193302154541015625e+00 -7.061752080917358398e-01 5.879545688629150391e+00 1.552011132240295410e+00 2.578919567167758942e-02
2.070000000000000000e+03 7.253044891357421875e+01 -3.897434711456298828e+00 -1.120882034301757812e+00 5.369974136352539062e+00 1.274727582931518555e+00 -8.985434770584106445e-01
2.071000000000000000e+03 7.466664123535156250e+01 -9.889990806579589844e+00 1.077393651008605957e+00 9.066457748413085938e+00 3.043155431747436523e+00 1.065409898757934570e+00
2.072000000000000000e+03 1.833297157287597656e+01 1.941441917419433594e+01 -9.010664224624633789e-01 -1.349830329418182373e-01 -3.108148574829101562e-01 -3.525444567203521729e-01
2.073000000000000000e+03 1.948158645629882812e+01 1.950112915039062500e+01 -1.172868132591247559e+00 -1.417677402496337891e-01 -3.943907618522644043e-01 -4.568090736865997314e-01
2.074000000000000000e+03 4.463666152954101562e+01 1.713952064514160156e+01 -9.090601205825805664e-01 6.303726434707641602e-01 -8.360624313354492188e-02 -3.989287912845611572e-01
2.075000000000000000e+03 6.747547912597656250e+01 5.236579179763793945e-01 -1.196088671684265137e+00 5.249620437622070312e+00 1.216059446334838867e+00 6.254360675811767578e-01
2.076000000000000000e+03 2.744728088378906250e+01 -1.169664382934570312e+01 8.069308847188949585e-02 4.582768917083740234e+00 1.399038553237915039e+00 -1.161162614822387695e+00
2.077000000000000000e+03 7.183052825927734375e+01 -1.466984868049621582e+00 -2.323682308197021484e+00 4.110992908477783203e+00 5.361931920051574707e-01 -2.977288961410522461e+00
2.078000000000000000e+03 4.361201858520507812e+01 -1.293504333496093750e+01 -4.975372254848480225e-01 5.642194747924804688e+00 1.543397307395935059e+00 2.247165679931640625e+00
2.079000000000000000e+03 4.457708740234375000e+01 -1.286426258087158203e+01 -6.242134571075439453e-01 4.352215766906738281e+00 1.118400692939758301e+00 1.310602307319641113e+00
2.080000000000000000e+03 4.283204650878906250e+01 -1.145029926300048828e+01 -1.360057115554809570e+00 6.023847579956054688e+00 1.399137139320373535e+00 2.214655637741088867e+00
2.081000000000000000e+03 2.649074363708496094e+01 1.804087257385253906e+01 -2.375917911529541016e+00 4.395635604858398438e+00 6.059152483940124512e-01 1.254104018211364746e+00
2.082000000000000000e+03 6.269577789306640625e+01 1.685665488243103027e+00 -2.457564115524291992e+00 4.629293918609619141e+00 6.515190005302429199e-01 2.139143466949462891e+00
2.083000000000000000e+03 6.677021789550781250e+01 1.238262772560119629e+00 -5.191455483436584473e-01 6.096101760864257812e+00 1.673086881637573242e+00 1.734926939010620117e+00
2.084000000000000000e+03 4.773237705230712891e+00 -1.467430210113525391e+01 1.055980101227760315e-02 -1.923215836286544800e-01 -5.452853441238403320e-02 -1.580926626920700073e-01
2.085000000000000000e+03 3.487438964843750000e+01 1.789801406860351562e+01 -1.059512972831726074e+00 -7.763634920120239258e-01 -5.507629513740539551e-01 8.593040704727172852e-02
2.086000000000000000e+03 4.744745254516601562e+01 1.980875015258789062e+00 2.355866193771362305e+00 3.684669733047485352e+00 1.812160849571228027e+00 3.457508087158203125e+00
2.087000000000000000e+03 4.823717498779296875e+01 3.120181560516357422e+00 3.293916225433349609e+00 4.384652137756347656e+00 2.303570508956909180e+00 3.035356521606445312e+00
2.088000000000000000e+03 3.946016693115234375e+01 -3.060611724853515625e+00 1.451491475105285645e+00 -7.029104828834533691e-01 2.245742976665496826e-01 -2.328350543975830078e-01
2.089000000000000000e+03 2.133849906921386719e+01 7.672778129577636719e+00 -2.918214321136474609e+00 6.085098743438720703e+00 9.500653147697448730e-01 1.965490102767944336e+00
2.090000000000000000e+03 7.395440673828125000e+01 -2.448854064941406250e+01 5.024779960513114929e-02 6.370200157165527344e+00 1.926134467124938965e+00 4.561084210872650146e-01
2.091000000000000000e+03 7.562611389160156250e+01 -2.547036743164062500e+01 -1.321589853614568710e-02 6.734039306640625000e+00 2.016247034072875977e+00 2.688401937484741211e-01
2.092000000000000000e+03 4.752607822418212891e+00 1.262830066680908203e+01 -4.387382566928863525e-01 1.224271297454833984e+00 2.356599271297454834e-01 -9.490360021591186523e-01
2.093000000000000000e+03 7.378062438964843750e+01 -3.187318420410156250e+01 8.522227406501770020e-02 6.299093246459960938e+00 1.915294647216796875e+00 1.157089471817016602e-01
2.094000000000000000e+03 7.832518005371093750e+01 6.809609889984130859e+00 1.204637050628662109e+00 9.501219749450683594e+00 3.211756944656372070e+00 -7.563045024871826172e-01
2.095000000000000000e+03 3.868261718750000000e+01 -1.919636535644531250e+01 1.755121231079101562e+00 3.662180423736572266e+00 1.625190496444702148e+00 1.346966385841369629e+00
2.096000000000000000e+03 4.419845199584960938e+01 6.162102818489074707e-01 -1.772795915603637695e-01 4.698052883148193359e+00 1.356232047080993652e+00 3.062608718872070312e+00
2.097000000000000000e+03 4.594898986816406250e+01 -8.148869276046752930e-01 -1.084729909896850586e+00 3.938316583633422852e+00 8.560760021209716797e-01 5.123633384704589844e+00
2.098000000000000000e+03 4.858987045288085938e+01 1.284750103950500488e+00 2.706524610519409180e+00 3.723049879074096680e+00 1.928872346878051758e+00 3.268304109573364258e+00
2.099000000000000000e+03 7.653364562988281250e+01 -3.396010971069335938e+01 3.269184380769729614e-02 6.619500637054443359e+00 1.995657682418823242e+00 8.212276548147201538e-02
2.100000000000000000e+03 7.606693267822265625e+01 -1.678435516357421875e+01 -2.695721387863159180e-01 8.120688438415527344e+00 2.355334997177124023e+00 -5.231468081474304199e-01
2.101000000000000000e+03 4.789570331573486328e+00 3.450367355346679688e+01 3.574043884873390198e-02 1.174116730690002441e+00 3.629571497440338135e-01 1.301858872175216675e-01
2.102000000000000000e+03 3.578789710998535156e+00 3.534851455688476562e+01 2.783275581896305084e-02 1.196485280990600586e+00 3.672954142093658447e-01 9.625833481550216675e-02
2.103000000000000000e+03 4.554568767547607422e+00 1.927844238281250000e+01 -2.453141361474990845e-01 1.353186845779418945e+00 3.323618173599243164e-01 -1.375392228364944458e-01
2.104000000000000000e+03 3.133578300476074219e+01 2.536813735961914062e+00 -1.466484904289245605e+00 2.247778415679931641e+00 2.343880236148834229e-01 1.216073751449584961e+00
2.105000000000000000e+03 1.036497402191162109e+01 1.211286830902099609e+01 -1.147485852241516113e+00 9.141198992729187012e-01 -7.000979036092758179e-02 -5.051288008689880371e-01
2.106000000000000000e+03 5.249979019165039062e+01 3.901485443115234375e+00 4.235777854919433594e+00 1.203609848022460938e+01 4.881562709808349609e+00 -1.224967718124389648e+00
2.107000000000000000e+03 1.710324668884277344e+01 1.905285644531250000e+01 -1.084868550300598145e+00 -1.168494448065757751e-01 -3.605153858661651611e-01 -1.777795553207397461e-01
2.108000000000000000e+03 1.564075374603271484e+01 1.693010330200195312e+01 -1.445617914199829102e+00 -1.266930550336837769e-01 -4.716932773590087891e-01 -3.515426516532897949e-01
2.109000000000000000e+03 6.605894470214843750e+01 1.946076273918151855e+00 3.678313791751861572e-01 4.985428810119628906e+00 1.605978012084960938e+00 2.385107994079589844e+00
2.110000000000000000e+03 2.141298294067382812e+01 1.575309276580810547e+00 -2.133460760116577148e+00 1.108136463165283203e+01 2.684371232986450195e+00 -4.516852378845214844e+00
2.111000000000000000e+03 2.121071052551269531e+01 1.222543478012084961e+00 -1.732308626174926758e+00 9.881419181823730469e+00 2.444732904434204102e+00 -3.851808071136474609e+00
2.112000000000000000e+03 7.124198150634765625e+01 -7.131894826889038086e-01 -2.099666833877563477e+00 4.203012943267822266e+00 6.310039162635803223e-01 -3.008515834808349609e+00
2.113000000000000000e+03 5.098738098144531250e+01 2.038533389568328857e-01 8.547791838645935059e-01 5.893354892730712891e+00 2.024440288543701172e+00 1.480028867721557617e+00
2.114000000000000000e+03 5.487673187255859375e+01 1.311745071411132812e+01 2.037052869796752930e+00 7.465152263641357422e+00 2.850661516189575195e+00 2.881406068801879883e+00
2.115000000000000000e+03 2.936047172546386719e+01 -5.832470417022705078e+00 1.224746108055114746e+00 2.763261556625366211e+00 1.196402311325073242e+00 -8.845026493072509766e-01
2.116000000000000000e+03 2.800155639648437500e+01 -6.125066757202148438e+00 2.054145812988281250e+00 4.858952045440673828e+00 2.073929309844970703e+00 -1.607416749000549316e+00
2.117000000000000000e+03 6.873320007324218750e+01 -1.885485076904296875e+01 9.221285581588745117e-01 2.635261774063110352e+00 1.067217111587524414e+00 6.913802027702331543e-01
2.118000000000000000e+03 5.157656097412109375e+01 1.414647698402404785e+00 3.115848302841186523e+00 8.605132102966308594e+00 3.516294002532958984e+00 6.213281154632568359e-01
2.119000000000000000e+03 4.334432983398437500e+01 1.803304100036621094e+01 -9.633517265319824219e-01 8.951110243797302246e-01 -2.047221362590789795e-02 -4.367806315422058105e-01
2.120000000000000000e+03 4.087668228149414062e+01 1.669149398803710938e+01 -1.597552895545959473e+00 7.397811412811279297e-01 -2.573315501213073730e-01 -1.059402897953987122e-01
2.121000000000000000e+03 7.023556518554687500e+01 -1.875653457641601562e+01 2.483537495136260986e-01 3.561966419219970703e+00 1.143096089363098145e+00 1.787061929702758789e+00
2.122000000000000000e+03 7.301033782958984375e+01 -1.824905014038085938e+01 -1.078381419181823730e+00 8.116630554199218750e+00 2.111474514007568359e+00 7.349169254302978516e-01
2.123000000000000000e+03 4.311960697174072266e+00 -3.206450653076171875e+01 1.706205494701862335e-02 -3.877889513969421387e-01 -1.112180724740028381e-01 -1.719897612929344177e-02
2.124000000000000000e+03 5.425699996948242188e+01 1.495664978027343750e+01 9.512628316879272461e-01 8.494027137756347656e+00 2.833586931228637695e+00 3.230302095413208008e+00
2.125000000000000000e+03 4.789785385131835938e+01 2.687246352434158325e-02 9.396662116050720215e-01 2.583502531051635742e+00 1.056950569152832031e+00 3.833906650543212891e+00
2.126000000000000000e+03 2.840312385559082031e+01 -9.294517517089843750e+00 1.683499813079833984e+00 4.841687679290771484e+00 1.957556247711181641e+00 -2.829503536224365234e+00
2.127000000000000000e+03 2.814631271362304688e+01 -1.058674716949462891e+01 2.803655713796615601e-02 4.692604541778564453e+00 1.416192293167114258e+00 -1.718915104866027832e+00
2.128000000000000000e+03 5.675186920166015625e+01 -8.193243980407714844e+00 2.500768303871154785e-01 6.944180011749267578e+00 2.158277034759521484e+00 -3.680827021598815918e-01
2.129000000000000000e+03 5.679388046264648438e+01 -2.313807296752929688e+01 -1.192648887634277344e+00 5.853959560394287109e+00 1.398393154144287109e+00 6.140598654747009277e-01
2.130000000000000000e+03 6.865292358398437500e+01 1.266467380523681641e+01 2.402399778366088867e+00 8.311172485351562500e+00 3.214071750640869141e+00 1.848292708396911621e+00
2.131000000000000000e+03 2.658539962768554688e+01 -3.022728204727172852e+00 3.192101001739501953e+00 5.097952365875244141e+00 2.487015962600708008e+00 -4.144633710384368896e-01
2.132000000000000000e+03 2.276135635375976562e+01 2.035793113708496094e+01 -1.048689246177673340e+00 4.585222899913787842e-01 -1.770500838756561279e-01 -1.044765233993530273e+00
2.133000000000000000e+03 3.394877243041992188e+01 1.947020912170410156e+01 -4.586525857448577881e-01 -3.810774981975555420e-01 -2.519190311431884766e-01 5.204910039901733398e-01
2.134000000000000000e+03 3.110721969604492188e+01 1.875996589660644531e+01 -4.416249990463256836e-01 3.221207857131958008e-01 -3.585126623511314392e-02 1.453541159629821777e+00
2.135000000000000000e+03 4.105602264404296875e+01 -5.150097370147705078e+00 1.576191782951354980e+00 2.214075803756713867e+00 1.137080311775207520e+00 8.286582827568054199e-01
2.136000000000000000e+03 3.918340682983398438e+01 -5.969826698303222656e+00 3.154300451278686523e-01 -1.144589543342590332e+00 -2.487478554248809814e-01 9.634167551994323730e-01
2.137000000000000000e+03 6.734700012207031250e+01 1.709915924072265625e+01 -1.167500168085098267e-01 7.568317890167236328e+00 2.235470294952392578e+00 1.927016079425811768e-01
2.138000000000000000e+03 6.651869964599609375e+01 1.553973674774169922e+01 -2.725895345211029053e-01 8.790757179260253906e+00 2.555450201034545898e+00 -3.112606890499591827e-02
2.139000000000000000e+03 5.544999313354492188e+01 -4.496435642242431641e+00 -1.720925927162170410e+00 5.869502067565917969e+00 1.244572758674621582e+00 -2.593658447265625000e+00
2.140000000000000000e+03 6.350543975830078125e+01 -1.492010784149169922e+01 -1.771574914455413818e-01 5.147390842437744141e+00 1.491069912910461426e+00 -8.679940700531005859e-01
2.141000000000000000e+03 5.483378219604492188e+01 -1.812008023262023926e+00 -2.863590240478515625e+00 8.098597526550292969e+00 1.570502042770385742e+00 -4.392124176025390625e+00
2.142000000000000000e+03 5.328287506103515625e+01 -6.279328465461730957e-01 -1.604539275169372559e+00 8.433036804199218750e+00 2.048549175262451172e+00 -2.655339956283569336e+00
2.143000000000000000e+03 5.331600570678710938e+01 -1.626855254173278809e+00 -2.991322278976440430e+00 7.945318698883056641e+00 1.486198902130126953e+00 -2.826990365982055664e+00
2.144000000000000000e+03 4.814801216125488281e+00 3.716679763793945312e+01 2.937100827693939209e-02 1.180004119873046875e+00 3.628125190734863281e-01 8.413248509168624878e-02
2.145000000000000000e+03 8.462429046630859375e+00 1.200499439239501953e+01 -9.977949261665344238e-01 1.475016713142395020e+00 1.431665569543838501e-01 -8.980529308319091797e-01
2.146000000000000000e+03 7.089128971099853516e+00 1.043692398071289062e+01 -4.131094515323638916e-01 1.619898200035095215e+00 3.620366156101226807e-01 -1.527288436889648438e+00
2.147000000000000000e+03 3.195070457458496094e+01 9.237340092658996582e-01 1.539986014366149902e+00 2.959974527359008789e+00 1.349988102912902832e+00 3.401010513305664062e+00
2.148000000000000000e+03 6.092085266113281250e+01 -3.103445053100585938e+00 1.007571101188659668e+00 7.107590198516845703e+00 2.434548377990722656e+00 1.064606159925460815e-01
2.149000000000000000e+03 5.726527786254882812e+01 -5.164415359497070312e+00 -3.400195538997650146e-01 5.855070114135742188e+00 1.654515147209167480e+00 -1.680723667144775391e+00
2.150000000000000000e+03 5.830502700805664062e+01 -1.007365989685058594e+01 2.921494245529174805e-01 8.766492843627929688e+00 2.717592716217041016e+00 5.934600830078125000e-01
2.151000000000000000e+03 6.155246734619140625e+01 -1.139129638671875000e+01 -1.093375235795974731e-01 8.137158393859863281e+00 2.408346414566040039e+00 5.074293613433837891e-01
2.152000000000000000e+03 5.943298339843750000e+01 -1.014100933074951172e+01 4.102264344692230225e-01 8.593202590942382812e+00 2.701028823852539062e+00 1.035609483718872070e+00
2.153000000000000000e+03 2.271666717529296875e+01 -1.330141544342041016e+01 1.305361241102218628e-01 1.514253973960876465e+00 4.934370517730712891e-01 8.009048104286193848e-01
2.154000000000000000e+03 6.102197647094726562e+00 -3.382998657226562500e+01 1.333972997963428497e-02 -2.173502743244171143e-01 -6.120316311717033386e-02 -1.191585045307874680e-02
2.155000000000000000e+03 4.166698837280273438e+01 -5.975023746490478516e+00 1.342951774597167969e+00 4.403507709503173828e+00 1.723937749862670898e+00 1.562340497970581055e+00
2.156000000000000000e+03 4.025691509246826172e+00 -8.009204864501953125e+00 -3.229464963078498840e-02 -7.216916233301162720e-02 -3.133914247155189514e-02 -1.043799817562103271e-01
2.157000000000000000e+03 5.853167533874511719e+00 -7.202751159667968750e+00 -5.973553657531738281e-02 -4.882596060633659363e-02 -3.256845101714134216e-02 -1.162742525339126587e-01
2.158000000000000000e+03 4.087207794189453125e+00 7.656370162963867188e+00 6.364218592643737793e-01 1.042717173695564270e-01 2.222080677747726440e-01 -8.396423459053039551e-01
2.159000000000000000e+03 4.175261974334716797e+00 -2.592857551574707031e+01 1.524349767714738846e-02 -3.849739730358123779e-01 -1.109191402792930603e-01 -5.789523571729660034e-02
2.160000000000000000e+03 6.088140106201171875e+01 -8.704846382141113281e+00 5.453001260757446289e-01 8.829252243041992188e+00 2.812365531921386719e+00 1.090817928314208984e+00
2.161000000000000000e+03 4.876831436157226562e+01 -1.892548751831054688e+01 -7.420786619186401367e-01 9.554913640022277832e-01 6.402380019426345825e-02 -3.635270297527313232e-01
2.162000000000000000e+03 4.420413970947265625e+01 -1.537727642059326172e+01 3.972980082035064697e-01 3.811442136764526367e+00 1.262622117996215820e+00 1.676916331052780151e-01
2.163000000000000000e+03 5.156871795654296875e+01 1.021270751953125000e+01 2.202234029769897461e+00 1.641189384460449219e+01 5.584238529205322266e+00 1.173700332641601562e+00
2.164000000000000000e+03 5.275202178955078125e+01 1.002357482910156250e+01 1.799635529518127441e+00 1.348522758483886719e+01 4.585458755493164062e+00 5.508889555931091309e-01
2.165000000000000000e+03 2.720451354980468750e+01 -9.736598968505859375e+00 3.423264324665069580e-01 5.617702007293701172e+00 1.788008451461791992e+00 -2.209227561950683594e+00
2.166000000000000000e+03 5.620552444458007812e+01 -5.592216491699218750e+00 -7.466793656349182129e-01 6.087940692901611328e+00 1.602378368377685547e+00 -1.425067663192749023e+00
2.167000000000000000e+03 7.716036224365234375e+01 -1.098825573921203613e+00 -8.143237829208374023e-01 9.051510810852050781e+00 2.471156120300292969e+00 9.937697649002075195e-01
2.168000000000000000e+03 2.975828552246093750e+01 1.533555507659912109e+01 -2.713630795478820801e-01 -3.223738968372344971e-01 -1.781210899353027344e-01 9.545229077339172363e-01
2.169000000000000000e+03 3.019453620910644531e+01 1.752232742309570312e+01 -1.117689087986946106e-01 2.231325060129165649e-01 3.340907767415046692e-02 1.607223391532897949e+00
2.170000000000000000e+03 7.449271392822265625e+01 1.197964549064636230e-01 -1.920923113822937012e+00 3.042209148406982422e+00 3.363858461380004883e-01 1.166037559509277344e+00
2.171000000000000000e+03 7.328926849365234375e+01 -1.405906915664672852e+00 -1.374881982803344727e+00 2.462060213088989258e+00 3.261534869670867920e-01 -1.188656330108642578e+00
2.172000000000000000e+03 5.590937805175781250e+01 1.049618339538574219e+01 1.199952363967895508e+00 5.212520122528076172e+00 1.923741698265075684e+00 1.650173902511596680e+00
2.173000000000000000e+03 6.196717071533203125e+01 -1.676806068420410156e+01 5.160820484161376953e-01 6.445414543151855469e+00 2.088449001312255859e+00 -9.735975861549377441e-01
2.174000000000000000e+03 5.931840133666992188e+01 -1.650231361389160156e+01 1.084374547004699707e+00 8.707593917846679688e+00 2.937590599060058594e+00 -5.315884351730346680e-01
2.175000000000000000e+03 5.158860778808593750e+01 -1.429465889930725098e+00 -2.015304088592529297e+00 5.051430225372314453e+00 9.108378291130065918e-01 -8.573923707008361816e-01
2.176000000000000000e+03 5.013414382934570312e+00 -1.900295639038085938e+01 2.994480915367603302e-02 -2.382086366415023804e-01 -6.247914955019950867e-02 -1.244826838374137878e-01
2.177000000000000000e+03 5.462428665161132812e+01 -3.498048305511474609e+00 -2.647580385208129883e+00 6.555243015289306641e+00 1.172298789024353027e+00 -2.959203004837036133e+00
2.178000000000000000e+03 2.231092453002929688e+01 6.497225761413574219e+00 1.150056838989257812e+00 6.390694618225097656e+00 2.262225389480590820e+00 4.995842933654785156e+00
2.179000000000000000e+03 2.058978080749511719e+01 7.376904010772705078e+00 -2.621365785598754883e+00 6.035945892333984375e+00 1.024374127388000488e+00 7.197350859642028809e-01
2.180000000000000000e+03 1.966008377075195312e+01 7.355166435241699219e+00 -2.881954669952392578e+00 3.087476730346679688e+00 6.165662780404090881e-02 -1.518496394157409668e+00
2.181000000000000000e+03 2.183517265319824219e+01 2.058084011077880859e+00 -1.021094679832458496e+00 1.059088420867919922e+01 2.870937108993530273e+00 -5.531180381774902344e+00
2.182000000000000000e+03 2.362163352966308594e+01 7.416173458099365234e+00 3.040643930435180664e-01 5.102189064025878906e+00 1.621876120567321777e+00 3.585857868194580078e+00
2.183000000000000000e+03 2.162882804870605469e+01 1.806148290634155273e+00 -1.906896233558654785e+00 1.051968574523925781e+01 2.583836793899536133e+00 -4.809759616851806641e+00
2.184000000000000000e+03 2.243495559692382812e+01 1.825742006301879883e+00 -1.097484230995178223e+00 8.230212211608886719e+00 2.139818429946899414e+00 -5.087203502655029297e+00
2.185000000000000000e+03 2.348984527587890625e+01 1.149355530738830566e+00 -2.128492593765258789e+00 4.300436973571777344e+00 6.515833139419555664e-01 -4.934494018554687500e+00
2.186000000000000000e+03 2.152800559997558594e+01 6.593884468078613281e+00 -3.976245224475860596e-01 8.276048660278320312e+00 2.363527297973632812e+00 3.754806518554687500e+00
2.187000000000000000e+03 2.165364837646484375e+01 6.238470554351806641e+00 6.460580229759216309e-01 8.832358360290527344e+00 2.843524932861328125e+00 4.805250167846679688e+00
2.188000000000000000e+03 1.932866859436035156e+01 6.300726890563964844e+00 2.959205508232116699e-01 2.913158178329467773e+00 9.627236127853393555e-01 -1.563083410263061523e+00
2.189000000000000000e+03 2.001177787780761719e+01 5.842481613159179688e+00 2.489906311035156250e+00 7.193309307098388672e+00 2.904964685440063477e+00 -1.158490538597106934e+00
2.190000000000000000e+03 2.139570617675781250e+01 2.086494922637939453e+00 -1.588063359260559082e+00 1.212385654449462891e+01 3.160737991333007812e+00 -4.750251770019531250e+00
2.191000000000000000e+03 2.298736000061035156e+01 8.119755744934082031e+00 -1.537962675094604492e+00 5.440864086151123047e+00 1.170870423316955566e+00 3.056134700775146484e+00
2.192000000000000000e+03 1.798401260375976562e+01 5.144508838653564453e+00 5.698956489562988281e+00 -1.262554526329040527e+00 1.330920577049255371e+00 -2.839901447296142578e-01
2.193000000000000000e+03 1.935145378112792969e+01 6.812397956848144531e+00 -1.751947760581970215e+00 2.949652910232543945e+00 3.593115210533142090e-01 -1.913168907165527344e+00
2.194000000000000000e+03 1.884979057312011719e+01 5.497495174407958984e+00 5.970783710479736328e+00 1.234456658363342285e+00 2.161572217941284180e+00 -1.545217037200927734e+00
2.195000000000000000e+03 2.335237693786621094e+01 6.528144836425781250e+00 2.432068824768066406e+00 4.329252719879150391e+00 2.028396368026733398e+00 4.005916595458984375e+00
2.196000000000000000e+03 1.035615158081054688e+01 -4.776038646697998047e+00 -1.590448319911956787e-01 2.761215902864933014e-02 -3.942980244755744934e-02 -6.535317003726959229e-02
2.197000000000000000e+03 9.187130928039550781e+00 -3.941703796386718750e+00 -1.158916652202606201e-01 4.892020672559738159e-02 -2.009143680334091187e-02 -3.947807848453521729e-02
2.198000000000000000e+03 8.564562797546386719e+00 -3.827738523483276367e+00 -1.077742874622344971e-01 6.528353784233331680e-03 -3.037378005683422089e-02 -5.152334272861480713e-02
2.199000000000000000e+03 9.121520996093750000e+00 -4.607465267181396484e+00 -1.179239004850387573e-01 2.408584393560886383e-02 -2.815141715109348297e-02 -7.287050783634185791e-02
2.200000000000000000e+03 1.237124633789062500e+01 -5.328549861907958984e+00 -1.912324875593185425e-01 1.298859566450119019e-01 -1.840395852923393250e-02 -5.531795788556337357e-03
2.201000000000000000e+03 6.399280548095703125e+00 -5.062596321105957031e+00 -8.962098509073257446e-02 3.938912050216458738e-05 -2.687447890639305115e-02 -8.439103513956069946e-02
2.202000000000000000e+03 7.670154571533203125e+00 -4.630959033966064453e+00 -1.151234060525894165e-01 1.585024967789649963e-02 -2.978194691240787506e-02 -7.538536190986633301e-02
2.203000000000000000e+03 8.234034538269042969e+00 -4.321876049041748047e+00 -8.048951625823974609e-02 2.800876460969448090e-02 -1.574422605335712433e-02 -5.595956742763519287e-02
2.204000000000000000e+03 3.699624633789062500e+01 1.664521789550781250e+01 -1.886103272438049316e+00 -7.250572741031646729e-02 -5.875827074050903320e-01 -2.759754955768585205e-01
2.205000000000000000e+03 5.368348121643066406e+00 5.457031726837158203e+00 1.799729466438293457e+00 -9.080919623374938965e-02 5.126760601997375488e-01 -4.378173649311065674e-01
2.206000000000000000e+03 5.824369907379150391e+00 4.114200592041015625e+00 1.933361172676086426e+00 -4.703229963779449463e-01 4.389114677906036377e-01 4.545177817344665527e-01
2.207000000000000000e+03 5.031817913055419922e+00 4.009912014007568359e+00 1.382877826690673828e+00 -5.089133381843566895e-01 2.621893286705017090e-01 5.378458499908447266e-01
2.208000000000000000e+03 1.165208911895751953e+01 -5.139785289764404297e+00 -2.124399244785308838e-01 4.811580479145050049e-02 -4.929723218083381653e-02 -5.712092667818069458e-02
2.209000000000000000e+03 4.213224029541015625e+01 1.633656501770019531e+01 -1.591453790664672852e+00 7.613031268119812012e-01 -2.490451782941818237e-01 -1.148682460188865662e-01
2.210000000000000000e+03 5.153112888336181641e+00 -7.867817878723144531e+00 -3.036031685769557953e-02 -4.171579331159591675e-02 -2.162283286452293396e-02 -1.182776913046836853e-01
2.211000000000000000e+03 5.003309249877929688e+00 -5.059692382812500000e+00 -4.512304812669754028e-02 -8.326113224029541016e-03 -1.603474840521812439e-02 -7.168068736791610718e-02
2.212000000000000000e+03 5.205800533294677734e+00 7.217717170715332031e+00 1.101698637008666992e+00 3.680561482906341553e-01 4.409264624118804932e-01 -1.281130313873291016e+00
2.213000000000000000e+03 3.889990997314453125e+01 1.643047332763671875e+01 -1.834025859832763672e+00 4.862217307090759277e-01 -4.043412506580352783e-01 -1.642650663852691650e-01
2.214000000000000000e+03 2.084726524353027344e+01 9.002748489379882812e+00 -4.850655078887939453e+00 2.485363721847534180e+00 -7.095874547958374023e-01 -5.118648409843444824e-01
2.215000000000000000e+03 1.399835395812988281e+01 -5.442024230957031250e+00 -2.974503338336944580e-01 1.143281906843185425e-01 -5.493663996458053589e-02 4.852096736431121826e-02
2.216000000000000000e+03 5.413795471191406250e+01 -1.061715126037597656e+00 -2.361525058746337891e+00 8.210227966308593750e+00 1.754610776901245117e+00 -3.221811056137084961e+00
2.217000000000000000e+03 6.463927459716796875e+01 6.415070295333862305e-01 -2.325824260711669922e+00 5.393090248107910156e+00 9.201797842979431152e-01 3.705076217651367188e+00
2.218000000000000000e+03 6.471702575683593750e+01 1.627438664436340332e+00 -9.078769683837890625e-01 4.938677310943603516e+00 1.209240198135375977e+00 3.152355670928955078e+00
2.219000000000000000e+03 3.110528755187988281e+01 -1.473827171325683594e+01 3.140216469764709473e-01 2.628004550933837891e+00 8.826078176498413086e-01 -1.203509569168090820e+00
2.220000000000000000e+03 5.973560333251953125e+01 -1.319571781158447266e+01 5.623605847358703613e-01 8.555590629577636719e+00 2.735385417938232422e+00 6.827444434165954590e-01
2.221000000000000000e+03 6.344390106201171875e+01 -1.596139907836914062e+01 -1.888707131147384644e-01 5.198083400726318359e+00 1.502763867378234863e+00 -1.012655973434448242e+00
2.222000000000000000e+03 7.173236083984375000e+01 -3.053554773330688477e+00 -2.085518121719360352e+00 4.762129783630371094e+00 8.029834628105163574e-01 -1.737086415290832520e+00
2.223000000000000000e+03 7.537207031250000000e+01 -5.581391811370849609e+00 -1.611689031124114990e-01 7.635024070739746094e+00 2.242156505584716797e+00 1.351409673690795898e+00
2.224000000000000000e+03 2.201778602600097656e+01 9.089106559753417969e+00 -3.552145957946777344e+00 4.367425918579101562e+00 2.445840388536453247e-01 1.418413281440734863e+00
2.225000000000000000e+03 2.130087280273437500e+01 6.749622344970703125e+00 -8.056041002273559570e-01 8.145600318908691406e+00 2.201998710632324219e+00 2.992377042770385742e+00
2.226000000000000000e+03 1.272338771820068359e+01 -6.486125946044921875e+00 -1.835390776395797729e-01 1.457832157611846924e-01 -1.132676005363464355e-02 -3.329874947667121887e-02
2.227000000000000000e+03 1.487530994415283203e+01 -6.903949737548828125e+00 -3.878970146179199219e-01 1.244445443153381348e-01 -7.903574407100677490e-02 -8.574695326387882233e-03
2.228000000000000000e+03 9.198304176330566406e+00 1.302547931671142578e+01 -1.163438677787780762e+00 1.359479784965515137e+00 5.881234258413314819e-02 -6.066585183143615723e-01
2.229000000000000000e+03 4.044442367553710938e+01 -4.357395172119140625e+00 1.965244174003601074e+00 1.019717812538146973e+00 8.954885601997375488e-01 1.809171140193939209e-01
2.230000000000000000e+03 5.783049011230468750e+01 -3.344993591308593750e+00 3.634047508239746094e-02 4.815356254577636719e+00 1.455509066581726074e+00 -2.204200506210327148e+00
2.231000000000000000e+03 5.808706283569335938e+01 -1.793968915939331055e+00 -9.266914427280426025e-02 3.179776191711425781e+00 9.261320829391479492e-01 -2.472478628158569336e+00
2.232000000000000000e+03 6.682254028320312500e+01 2.750632286071777344e+00 7.940739393234252930e-01 7.492993354797363281e+00 2.486120223999023438e+00 1.150256752967834473e+00
2.233000000000000000e+03 6.052404403686523438e+01 -1.615947341918945312e+01 8.732563853263854980e-01 7.414569854736328125e+00 2.486347913742065430e+00 -4.105386435985565186e-01
2.234000000000000000e+03 6.064610290527343750e+01 -1.274385261535644531e+01 7.828968763351440430e-02 8.286898612976074219e+00 2.509556531906127930e+00 4.861442446708679199e-01
2.235000000000000000e+03 3.601218032836914062e+01 7.913782596588134766e+00 -7.880259305238723755e-02 1.391080021858215332e-02 -1.946753636002540588e-02 6.803444027900695801e-02
2.236000000000000000e+03 1.535702610015869141e+01 -7.720911502838134766e+00 -3.534042239189147949e-01 1.757024675607681274e-01 -5.331052467226982117e-02 -4.929581657052040100e-02
2.237000000000000000e+03 1.367064476013183594e+01 1.683613204956054688e+01 -1.233779191970825195e+00 1.829954981803894043e-01 -3.152351081371307373e-01 -2.090397626161575317e-01
2.238000000000000000e+03 1.681031036376953125e+01 -8.233078002929687500e+00 -4.338299930095672607e-01 1.291613429784774780e-01 -9.140059351921081543e-02 -4.031550139188766479e-03
2.239000000000000000e+03 6.537586212158203125e+01 1.138246774673461914e+00 -1.155977606773376465e+00 5.987662792205810547e+00 1.449505567550659180e+00 3.829338788986206055e+00
2.240000000000000000e+03 6.893488311767578125e+01 9.607722282409667969e+00 2.289932370185852051e-01 8.867502212524414062e+00 2.728948593139648438e+00 4.286045432090759277e-01
2.241000000000000000e+03 6.185079193115234375e+01 -1.504621028900146484e+00 -1.332221388816833496e+00 7.959359645843505859e+00 1.988141417503356934e+00 9.149369597434997559e-01
2.242000000000000000e+03 6.167303085327148438e+01 -1.442165970802307129e-01 -3.535190105438232422e+00 5.719930648803710938e+00 6.554220914840698242e-01 2.097595453262329102e+00
2.243000000000000000e+03 5.917850971221923828e+00 1.207831668853759766e+01 -5.466631054878234863e-01 1.341942667961120605e+00 2.385838925838470459e-01 -1.118436217308044434e+00
2.244000000000000000e+03 2.926856613159179688e+01 2.165539264678955078e-01 2.425163269042968750e+00 1.306238412857055664e+00 1.119420528411865234e+00 9.175886511802673340e-01
2.245000000000000000e+03 7.440675354003906250e+01 -2.309931564331054688e+01 -2.187764346599578857e-01 6.648203372955322266e+00 1.928828120231628418e+00 4.395607113838195801e-01
2.246000000000000000e+03 2.144574165344238281e+01 2.114855766296386719e+01 -7.741835117340087891e-01 5.219817161560058594e-01 -7.566052675247192383e-02 -7.397489547729492188e-01
2.247000000000000000e+03 3.731967163085937500e+01 1.916791152954101562e+01 -8.977203965187072754e-01 2.215418592095375061e-02 -2.626698613166809082e-01 -2.343582659959793091e-01
2.248000000000000000e+03 7.443066406250000000e+01 1.393925189971923828e+01 1.003100275993347168e+00 5.504335880279541016e+00 1.952230811119079590e+00 -6.862319707870483398e-01
2.249000000000000000e+03 4.627102851867675781e+00 -1.324803829193115234e+01 -8.432039059698581696e-03 -1.520086377859115601e-01 -4.813220351934432983e-02 -1.552553623914718628e-01
2.250000000000000000e+03 5.625286102294921875e+00 -1.034583663940429688e+01 -3.011123277246952057e-02 -7.789546996355056763e-02 -3.240200877189636230e-02 -1.553179472684860229e-01
2.251000000000000000e+03 4.277934074401855469e+00 8.744031906127929688e+00 4.055683314800262451e-01 4.785937666893005371e-01 2.652486264705657959e-01 -1.232092022895812988e+00
2.252000000000000000e+03 7.537614440917968750e+01 -1.826539421081542969e+01 -5.804364681243896484e-01 7.922002315521240234e+00 2.202469825744628906e+00 -1.598358750343322754e-01
2.253000000000000000e+03 4.399679565429687500e+01 -1.198978519439697266e+01 -1.431178450584411621e+00 5.841491699218750000e+00 1.323094010353088379e+00 1.917361378669738770e+00
2.254000000000000000e+03 5.907051849365234375e+01 -8.114160537719726562e+00 6.510868072509765625e-01 8.125110626220703125e+00 2.632859230041503906e+00 8.688263297080993652e-01
2.255000000000000000e+03 5.835407257080078125e+01 -5.249234676361083984e+00 6.984108090400695801e-01 6.017329692840576172e+00 2.014722108840942383e+00 -6.653265357017517090e-01
2.256000000000000000e+03 5.993180847167968750e+01 -3.293283939361572266e+00 7.537086606025695801e-01 5.976718902587890625e+00 2.019128322601318359e+00 -5.443006157875061035e-01
2.257000000000000000e+03 7.202416992187500000e+01 1.249638748168945312e+01 1.638130307197570801e+00 3.903536796569824219e+00 1.662500143051147461e+00 -3.907310217618942261e-02
2.258000000000000000e+03 4.524851322174072266e+00 2.195284080505371094e+01 -1.423799395561218262e-01 1.358647823333740234e+00 3.648803830146789551e-01 2.927908673882484436e-02
2.259000000000000000e+03 5.987966060638427734e+00 2.315969657897949219e+01 -1.618673652410507202e-01 1.179523825645446777e+00 3.052969276905059814e-01 9.881553798913955688e-02
2.260000000000000000e+03 5.707204818725585938e+00 3.287431335449218750e+01 5.059398710727691650e-02 1.096166610717773438e+00 3.440281748771667480e-01 1.480114459991455078e-01
2.261000000000000000e+03 7.599381256103515625e+01 -1.464535713195800781e+01 8.896605968475341797e-01 8.348906517028808594e+00 2.771570205688476562e+00 -1.136173233389854431e-01
2.262000000000000000e+03 2.968479156494140625e+01 -1.219603443145751953e+01 2.898375689983367920e-01 3.231683492660522461e+00 1.056456327438354492e+00 -1.722410678863525391e+00
2.263000000000000000e+03 2.927236747741699219e+01 -1.417436599731445312e+01 1.148223131895065308e-01 3.085375308990478516e+00 9.600592851638793945e-01 -1.148181438446044922e+00
2.264000000000000000e+03 6.046296691894531250e+01 -1.174178409576416016e+01 1.870556622743606567e-01 8.386759757995605469e+00 2.572144746780395508e+00 8.196970224380493164e-01
2.265000000000000000e+03 7.485951232910156250e+01 1.542298889160156250e+01 7.654483914375305176e-01 6.003850460052490234e+00 2.030789613723754883e+00 -3.509493172168731689e-01
2.266000000000000000e+03 7.399207305908203125e+01 1.491129589080810547e+01 9.216328859329223633e-01 5.658977031707763672e+00 1.974182963371276855e+00 -4.011422097682952881e-01
2.267000000000000000e+03 4.373881912231445312e+01 -1.408430194854736328e+01 4.728891253471374512e-01 4.542551994323730469e+00 1.504632353782653809e+00 1.419307708740234375e+00
2.268000000000000000e+03 5.091773223876953125e+01 3.022042512893676758e+00 3.688621997833251953e+00 8.211096763610839844e+00 3.569915771484375000e+00 6.458693742752075195e-01
2.269000000000000000e+03 7.383152770996093750e+01 -3.592934417724609375e+01 3.009066917002201080e-02 6.291555404663085938e+00 1.896493792533874512e+00 5.357639119029045105e-02
2.270000000000000000e+03 7.630847167968750000e+01 -3.534026336669921875e+01 -7.568859029561281204e-03 6.589743137359619141e+00 1.974652290344238281e+00 4.303682595491409302e-02
2.271000000000000000e+03 7.439067840576171875e+01 -1.862199401855468750e+01 -6.807567477226257324e-01 8.129200935363769531e+00 2.234533309936523438e+00 3.693479597568511963e-01
2.272000000000000000e+03 6.945406436920166016e+00 9.228240966796875000e+00 5.993803963065147400e-02 1.603624224662780762e+00 4.990686774253845215e-01 -1.615651488304138184e+00
2.273000000000000000e+03 7.709819030761718750e+01 1.799866485595703125e+01 1.998310536146163940e-01 6.683469772338867188e+00 2.064990282058715820e+00 -6.395370513200759888e-02
2.274000000000000000e+03 7.412658691406250000e+01 1.661371421813964844e+01 6.935433149337768555e-01 6.104738712310791016e+00 2.039484500885009766e+00 3.939371556043624878e-02
2.275000000000000000e+03 5.963171005249023438e+01 -8.984870910644531250e+00 4.360094070434570312e-01 8.569407463073730469e+00 2.701624870300292969e+00 9.798526763916015625e-01
2.276000000000000000e+03 5.924167633056640625e+01 -1.112542724609375000e+01 3.084176480770111084e-01 8.792078971862792969e+00 2.730149030685424805e+00 7.783442139625549316e-01
2.277000000000000000e+03 5.593189239501953125e+01 1.532373142242431641e+01 1.006880760192871094e+00 5.997870445251464844e+00 2.101425409317016602e+00 3.147578001022338867e+00
2.278000000000000000e+03 5.433471679687500000e+01 1.209889793395996094e+01 2.506457567214965820e+00 8.629649162292480469e+00 3.340832233428955078e+00 2.057779788970947266e+00
2.279000000000000000e+03 6.094623565673828125e+01 -4.365906715393066406e+00 1.482956528663635254e+00 8.254043579101562500e+00 2.921099901199340820e+00 4.446413218975067139e-01
2.280000000000000000e+03 5.305566406250000000e+01 1.543275642395019531e+01 1.044492721557617188e+00 1.038255691528320312e+01 3.428114891052246094e+00 2.627382755279541016e+00
2.281000000000000000e+03 6.475892639160156250e+01 1.584173488616943359e+01 4.858562350273132324e-01 5.849439620971679688e+00 1.900588750839233398e+00 -2.513751506805419922e+00
2.282000000000000000e+03 4.466776657104492188e+01 -1.771249961853027344e+01 5.114046931266784668e-01 3.431431055068969727e+00 1.182850718498229980e+00 -5.850300192832946777e-01
2.283000000000000000e+03 3.472869873046875000e+01 3.281088113784790039e+00 -6.194958090782165527e-01 2.852390408515930176e-01 -1.002770289778709412e-01 1.322830796241760254e+00
2.284000000000000000e+03 3.391487503051757812e+01 4.255742073059082031e+00 -1.268891453742980957e+00 4.803136289119720459e-01 -2.365733385086059570e-01 8.206272125244140625e-01
2.285000000000000000e+03 7.597753047943115234e+00 1.130302524566650391e+01 -9.077491760253906250e-01 1.622680783271789551e+00 2.144794911146163940e-01 -1.060823917388916016e+00
2.286000000000000000e+03 1.805983352661132812e+01 -1.086283493041992188e+01 -1.678744852542877197e-01 3.729262650012969971e-01 6.151553615927696228e-02 -5.562045425176620483e-02
2.287000000000000000e+03 5.295810699462890625e+00 1.366463565826416016e+01 -4.647279679775238037e-01 1.303303599357604980e+00 2.515726983547210693e-01 -8.393178582191467285e-01
2.288000000000000000e+03 6.136307239532470703e+00 -1.450777435302734375e+01 3.292187349870800972e-03 -1.041739284992218018e-01 -3.026452288031578064e-02 -1.804914623498916626e-01
2.289000000000000000e+03 5.764169692993164062e+00 -1.169226551055908203e+01 -2.646770328283309937e-02 -7.490351051092147827e-02 -3.041136264801025391e-02 -1.715193688869476318e-01
2.290000000000000000e+03 5.814170074462890625e+01 -7.798128128051757812e+00 6.020865440368652344e-01 7.284138679504394531e+00 2.365867614746093750e+00 2.605050802230834961e-01
2.291000000000000000e+03 6.444978237152099609e+00 -2.020522117614746094e+01 5.085428059101104736e-02 -1.593995541334152222e-01 -3.256358206272125244e-02 -1.230103895068168640e-01
2.292000000000000000e+03 7.527024841308593750e+01 1.186210346221923828e+01 -1.495216935873031616e-01 6.281377792358398438e+00 1.839556813240051270e+00 -1.958804845809936523e+00
2.293000000000000000e+03 7.575317382812500000e+01 1.333288097381591797e+01 2.477348893880844116e-01 6.343851089477539062e+00 1.977475881576538086e+00 -1.244256138801574707e+00
2.294000000000000000e+03 2.587028503417968750e+01 -1.393447017669677734e+01 -6.395099163055419922e-01 4.104151725769042969e+00 1.039392590522766113e+00 4.047151282429695129e-02
2.295000000000000000e+03 7.434772491455078125e+01 -1.285329532623291016e+01 1.488075256347656250e+00 9.943340301513671875e+00 3.429424762725830078e+00 5.993807911872863770e-01
2.296000000000000000e+03 7.598821258544921875e+01 -1.307108402252197266e+01 9.629964232444763184e-01 8.438038825988769531e+00 2.820310592651367188e+00 3.922029435634613037e-01
2.297000000000000000e+03 7.255271148681640625e+01 -2.262423992156982422e+00 -9.423162937164306641e-01 4.082159519195556641e+00 9.419529438018798828e-01 -1.895810604095458984e+00
2.298000000000000000e+03 6.336529731750488281e+00 3.106798553466796875e+01 4.153982549905776978e-02 1.083515524864196777e+00 3.375166058540344238e-01 2.000935375690460205e-01
2.299000000000000000e+03 7.306662750244140625e+01 2.106781578063964844e+01 1.164568141102790833e-01 6.628917694091796875e+00 2.023612499237060547e+00 3.083189725875854492e-01
2.300000000000000000e+03 7.488768005371093750e+01 2.375563430786132812e+01 -2.152989618480205536e-03 6.793712615966796875e+00 2.037467956542968750e+00 2.313201427459716797e-01
2.301000000000000000e+03 7.533101654052734375e+01 -3.211050033569335938e+01 6.660670787096023560e-02 6.500181674957275391e+00 1.970036506652832031e+00 1.274530291557312012e-01
2.302000000000000000e+03 3.796276092529296875e+01 -2.117403030395507812e+01 6.203660368919372559e-01 3.695211410522460938e+00 1.294673204421997070e+00 7.692552804946899414e-01
2.303000000000000000e+03 6.096192932128906250e+01 -1.733123779296875000e+01 6.481769084930419922e-01 6.816260337829589844e+00 2.239331245422363281e+00 -1.064588427543640137e+00
2.304000000000000000e+03 4.899491786956787109e+00 -1.611953544616699219e+01 1.014041341841220856e-02 -1.953215599060058594e-01 -5.555434525012969971e-02 -1.502580791711807251e-01
2.305000000000000000e+03 4.926044082641601562e+01 2.423166513442993164e+00 2.949498176574707031e+00 5.553324222564697266e+00 2.550846815109252930e+00 2.258413791656494141e+00
2.306000000000000000e+03 6.282674312591552734e+00 -2.427677917480468750e+01 4.057899862527847290e-02 -2.061857879161834717e-01 -4.968203604221343994e-02 -8.374565839767456055e-02
2.307000000000000000e+03 7.562938690185546875e+00 1.285002613067626953e+01 -9.388710260391235352e-01 1.430310606956481934e+00 1.474318653345108032e-01 -7.944447994232177734e-01
2.308000000000000000e+03 3.512838363647460938e+00 2.612731933593750000e+01 -2.918159216642379761e-02 1.431002497673034668e+00 4.205462634563446045e-01 1.296571791172027588e-01
2.309000000000000000e+03 7.168822479248046875e+01 -2.053984069824218750e+01 -2.241624705493450165e-02 5.611807823181152344e+00 1.676817417144775391e+00 1.346449851989746094e+00
2.310000000000000000e+03 7.272675323486328125e+01 -1.916468238830566406e+01 -8.457831740379333496e-01 7.656308174133300781e+00 2.043157577514648438e+00 1.232229590415954590e+00
2.311000000000000000e+03 5.484444618225097656e+00 8.387753486633300781e+00 5.954034924507141113e-01 7.827106714248657227e-01 4.134342372417449951e-01 -1.375223994255065918e+00
2.312000000000000000e+03 5.815646648406982422e+00 1.940365791320800781e+01 -3.259761035442352295e-01 1.219755411148071289e+00 2.681337893009185791e-01 -8.921150863170623779e-02
2.313000000000000000e+03 4.704637527465820312e+00 1.787287139892578125e+01 -3.178102672100067139e-01 1.325790286064147949e+00 3.023940026760101318e-01 -2.381559163331985474e-01
2.314000000000000000e+03 2.851208496093750000e+01 -1.286032676696777344e+01 -1.163740903139114380e-01 3.895419836044311523e+00 1.133713722229003906e+00 -1.396195054054260254e+00
2.315000000000000000e+03 7.519273376464843750e+01 -2.408006095886230469e+01 -6.030708923935890198e-02 6.729970932006835938e+00 2.000899076461791992e+00 3.244218528270721436e-01
2.316000000000000000e+03 7.281961822509765625e+01 -2.687228202819824219e+01 1.151758283376693726e-01 6.055150032043457031e+00 1.851097702980041504e+00 2.710008621215820312e-01
2.317000000000000000e+03 4.890186309814453125e+00 1.481538867950439453e+01 -4.528082013130187988e-01 1.256936311721801758e+00 2.412384301424026489e-01 -6.429279446601867676e-01
2.318000000000000000e+03 6.787742614746093750e+00 1.525794601440429688e+01 -6.963620781898498535e-01 1.313771963119506836e+00 1.852229684591293335e-01 -5.953396558761596680e-01
2.319000000000000000e+03 7.366567993164062500e+01 -3.001347732543945312e+01 1.020668447017669678e-01 6.268006801605224609e+00 1.911022067070007324e+00 1.777820438146591187e-01
2.320000000000000000e+03 6.266986846923828125e+01 -1.765192413330078125e+01 3.402133285999298096e-01 5.528290748596191406e+00 1.760551214218139648e+00 -1.235883116722106934e+00
2.321000000000000000e+03 1.114930343627929688e+01 1.641925621032714844e+01 -1.042187690734863281e+00 6.330996155738830566e-01 -1.227264106273651123e-01 -2.164291888475418091e-01
2.322000000000000000e+03 1.182759952545166016e+01 1.519740295410156250e+01 -1.252678513526916504e+00 4.989775419235229492e-01 -2.261102944612503052e-01 -2.459066361188888550e-01
2.323000000000000000e+03 7.428508758544921875e+01 -6.983996391296386719e+00 -2.983765862882137299e-02 8.017855644226074219e+00 2.396405458450317383e+00 9.864273071289062500e-01
2.324000000000000000e+03 7.378938293457031250e+01 2.535977172851562500e+01 -2.727598138153553009e-02 6.768854141235351562e+00 2.022473573684692383e+00 2.428981959819793701e-01
2.325000000000000000e+03 2.932760429382324219e+01 1.833446121215820312e+01 -5.036990642547607422e-01 2.032227993011474609e+00 4.585586786270141602e-01 2.186227560043334961e+00
2.326000000000000000e+03 2.825179481506347656e+01 1.885315132141113281e+01 -1.627221107482910156e+00 2.688943386077880859e+00 3.185167014598846436e-01 1.680629611015319824e+00
2.327000000000000000e+03 7.692317962646484375e+01 -4.211957931518554688e+00 -8.733757585287094116e-02 8.773155212402343750e+00 2.605745077133178711e+00 1.481679558753967285e+00
2.328000000000000000e+03 7.523226165771484375e+01 -2.942211151123046875e+00 -6.868131756782531738e-01 6.456048488616943359e+00 1.730770707130432129e+00 9.085594415664672852e-01
2.329000000000000000e+03 4.798950576782226562e+01 2.123756980895996094e+01 -5.620431303977966309e-01 3.318625211715698242e+00 8.269746303558349609e-01 -1.453476667404174805e+00
2.330000000000000000e+03 4.496527862548828125e+01 2.152821731567382812e+01 -2.605754435062408447e-01 1.906062960624694824e+00 4.936462640762329102e-01 -9.283301234245300293e-01
2.331000000000000000e+03 6.389120101928710938e+00 -1.893936538696289062e+01 3.952460363507270813e-02 -1.600950658321380615e-01 -3.617113828659057617e-02 -1.662324219942092896e-01
2.332000000000000000e+03 7.547897338867187500e+01 -6.747640132904052734e+00 3.335820138454437256e-02 8.208000183105468750e+00 2.472407579421997070e+00 1.575877547264099121e+00
2.333000000000000000e+03 4.495677947998046875e+00 2.062609291076660156e+01 -1.630946695804595947e-01 1.355148673057556152e+00 3.576162159442901611e-01 -1.242346409708261490e-02
2.334000000000000000e+03 2.604441261291503906e+01 2.025053405761718750e+01 -1.460482358932495117e+00 2.780090808868408203e+00 3.958825469017028809e-01 1.247917395085096359e-02
2.335000000000000000e+03 5.911010742187500000e+00 -3.209680175781250000e+01 2.865853533148765564e-02 -2.531802952289581299e-01 -6.735652685165405273e-02 -2.103726565837860107e-02
2.336000000000000000e+03 4.713278198242187500e+01 -1.650980567932128906e+01 -4.854635000228881836e-01 1.301650762557983398e+00 2.448561787605285645e-01 -6.191731989383697510e-02
2.337000000000000000e+03 6.879232788085937500e+01 1.550452899932861328e+01 5.564247369766235352e-01 7.604065418243408203e+00 2.448147058486938477e+00 1.133626341819763184e+00
2.338000000000000000e+03 6.918000030517578125e+01 1.362656307220458984e+01 1.854233384132385254e+00 7.345384120941162109e+00 2.759885311126708984e+00 2.069561004638671875e+00
2.339000000000000000e+03 6.965402984619140625e+01 1.679515075683593750e+01 4.411395192146301270e-01 7.041465282440185547e+00 2.244781494140625000e+00 8.459900617599487305e-01
2.340000000000000000e+03 7.444218444824218750e+01 1.890752410888671875e+01 3.441121280193328857e-01 6.426197528839111328e+00 2.031092882156372070e+00 1.646899729967117310e-01
2.341000000000000000e+03 2.084381294250488281e+01 -1.368578815460205078e+01 2.425982356071472168e-01 9.072778820991516113e-01 3.449628353118896484e-01 3.818713724613189697e-01
2.342000000000000000e+03 2.010556030273437500e+01 -1.497016716003417969e+01 2.579708099365234375e-01 9.138399362564086914e-01 3.515432178974151611e-01 2.701890766620635986e-01
2.343000000000000000e+03 6.729103851318359375e+01 -1.922470664978027344e+01 6.373997330665588379e-01 2.997905492782592773e+00 1.090591549873352051e+00 -4.997635483741760254e-01
2.344000000000000000e+03 3.509004592895507812e+01 1.938041496276855469e+01 -6.320244073867797852e-01 -3.362090885639190674e-01 -2.904700338840484619e-01 1.423069983720779419e-01
2.345000000000000000e+03 2.269645690917968750e+01 6.593220233917236328e+00 1.720061063766479492e+00 5.408949851989746094e+00 2.138703107833862305e+00 4.875091075897216797e+00
2.346000000000000000e+03 2.073584556579589844e+01 6.711370944976806641e+00 -1.323869347572326660e+00 8.121718406677246094e+00 2.039354801177978516e+00 1.288959383964538574e+00
2.347000000000000000e+03 2.305990982055664062e+01 7.520034790039062500e+00 -5.167553424835205078e-01 5.440057754516601562e+00 1.476990699768066406e+00 3.652193307876586914e+00
2.348000000000000000e+03 2.238246536254882812e+01 2.374986261129379272e-01 -2.838217653334140778e-02 8.154740333557128906e+00 2.437907457351684570e+00 -5.172146797180175781e+00
2.349000000000000000e+03 2.365933418273925781e+01 7.969356536865234375e+00 -8.304383158683776855e-01 5.291130065917968750e+00 1.338207602500915527e+00 3.064527034759521484e+00
2.350000000000000000e+03 9.989494323730468750e+00 -6.341851234436035156e+00 -1.088855192065238953e-01 7.248800247907638550e-02 -1.091925613582134247e-02 -7.456041127443313599e-02
2.351000000000000000e+03 1.207123661041259766e+01 -7.376253128051757812e+00 -2.770142853260040283e-01 1.061878353357315063e-01 -5.124793574213981628e-02 -1.213616877794265747e-01
2.352000000000000000e+03 7.368992328643798828e+00 -6.537975311279296875e+00 -1.013899073004722595e-01 -4.000723361968994141e-03 -3.161719068884849548e-02 -1.268697828054428101e-01
2.353000000000000000e+03 7.397106647491455078e+00 -5.685733318328857422e+00 -1.066024005413055420e-01 1.467716600745916367e-02 -2.757756970822811127e-02 -8.388812839984893799e-02
2.354000000000000000e+03 4.677976608276367188e+00 6.234815597534179688e+00 1.193189144134521484e+00 -2.536732852458953857e-01 2.818547487258911133e-01 -6.720537543296813965e-01
2.355000000000000000e+03 3.818074417114257812e+01 1.773823165893554688e+01 -1.458521842956542969e+00 2.610777318477630615e-01 -3.592332303524017334e-01 -2.907772064208984375e-01
2.356000000000000000e+03 1.343602371215820312e+01 -6.936891078948974609e+00 -3.321189582347869873e-01 1.121438518166542053e-01 -6.599253416061401367e-02 -6.580872833728790283e-02
2.357000000000000000e+03 2.187530326843261719e+01 8.350188255310058594e+00 -3.522213697433471680e+00 5.223543167114257812e+00 5.103988647460937500e-01 1.930402278900146484e+00
2.358000000000000000e+03 2.106130790710449219e+01 8.237895965576171875e+00 -3.981576919555664062e+00 4.730484962463378906e+00 2.246724516153335571e-01 1.033730864524841309e+00
2.359000000000000000e+03 1.995259857177734375e+01 1.392575502395629883e+00 -1.762405991554260254e+00 3.670671939849853516e+00 5.724797248840332031e-01 -7.080004811286926270e-01
2.360000000000000000e+03 4.023402023315429688e+01 1.724250030517578125e+01 -1.489852905273437500e+00 6.513031721115112305e-01 -2.515649199485778809e-01 -1.639844924211502075e-01
2.361000000000000000e+03 6.441716003417968750e+01 3.250120639801025391e+00 -7.794881463050842285e-01 5.106230258941650391e+00 1.298022627830505371e+00 2.163105726242065430e+00
2.362000000000000000e+03 1.006536579132080078e+01 -5.409147262573242188e+00 -1.313558369874954224e-01 8.683495223522186279e-02 -1.335626468062400818e-02 -5.027499794960021973e-02
2.363000000000000000e+03 4.159761428833007812e+01 1.728292846679687500e+01 -1.405996441841125488e+00 7.611901164054870605e-01 -1.934418827295303345e-01 -1.755214333534240723e-01
2.364000000000000000e+03 4.015936279296875000e+01 -5.679042339324951172e+00 1.179345846176147461e+00 9.075352549552917480e-01 6.260643601417541504e-01 9.537255764007568359e-01
2.365000000000000000e+03 1.462131309509277344e+01 -1.001471805572509766e+01 -2.316401898860931396e-01 2.792492508888244629e-01 1.428271643817424774e-02 -1.818239986896514893e-01
2.366000000000000000e+03 6.860993862152099609e+00 1.219188117980957031e+01 -7.454006671905517578e-01 1.543456315994262695e+00 2.394166886806488037e-01 -1.069340348243713379e+00
2.367000000000000000e+03 5.828232574462890625e+01 -6.893773078918457031e+00 3.982565701007843018e-01 7.097621440887451172e+00 2.248763322830200195e+00 -3.884816169738769531e-02
2.368000000000000000e+03 6.479772186279296875e+01 -1.697130584716796875e+01 1.039003953337669373e-01 4.039446830749511719e+00 1.243004202842712402e+00 -1.241439938545227051e+00
2.369000000000000000e+03 1.461196517944335938e+01 -9.012187004089355469e+00 -2.649777829647064209e-01 1.237477064132690430e-01 -4.236902296543121338e-02 -1.342283487319946289e-01
2.370000000000000000e+03 1.432592773437500000e+01 -6.187951087951660156e+00 -2.571703791618347168e-01 1.356709599494934082e-01 -3.644982352852821350e-02 -1.657018624246120453e-02
2.371000000000000000e+03 4.916372776031494141e+00 -6.941484451293945312e+00 -5.753465741872787476e-02 -2.583559043705463409e-02 -2.501107566058635712e-02 -9.921658784151077271e-02
2.372000000000000000e+03 7.386291503906250000e+01 1.256817054748535156e+01 1.373422861099243164e+00 4.533881664276123047e+00 1.772191286087036133e+00 -1.151074171066284180e+00
2.373000000000000000e+03 6.973196029663085938e+00 -7.598059177398681641e+00 -7.007815688848495483e-02 1.469537895172834396e-02 -1.661483384668827057e-02 -1.224535629153251648e-01
2.374000000000000000e+03 7.390092468261718750e+01 -2.008183860778808594e+01 -5.984622240066528320e-01 7.559464454650878906e+00 2.088300704956054688e+00 5.859617590904235840e-01
2.375000000000000000e+03 7.568917846679687500e+01 -1.942737579345703125e+01 -3.121039569377899170e-01 7.681171894073486328e+00 2.210720300674438477e+00 2.880480326712131500e-02
2.376000000000000000e+03 6.185599803924560547e+00 1.296813201904296875e+01 -6.871901154518127441e-01 1.331777334213256836e+00 1.933761686086654663e-01 -8.920924663543701172e-01
2.377000000000000000e+03 1.978897476196289062e+01 -1.301615619659423828e+01 1.355323493480682373e-01 5.535553693771362305e-01 2.067263126373291016e-01 1.887844800949096680e-01
2.378000000000000000e+03 5.873746490478515625e+01 1.766403961181640625e+01 9.128251075744628906e-01 4.143809318542480469e+00 1.516990303993225098e+00 1.749534130096435547e+00
2.379000000000000000e+03 2.306538581848144531e+01 -1.588597011566162109e+01 9.452490136027336121e-03 1.771862030029296875e+00 5.343943834304809570e-01 4.171842038631439209e-01
2.380000000000000000e+03 2.397070312500000000e+01 -1.447076416015625000e+01 -9.715507924556732178e-02 2.492562532424926758e+00 7.186222672462463379e-01 4.711279571056365967e-01
2.381000000000000000e+03 4.467013549804687500e+01 -1.917214775085449219e+01 2.025763392448425293e-01 3.216677665710449219e+00 1.025776147842407227e+00 -1.074392914772033691e+00
2.382000000000000000e+03 4.702990722656250000e+01 -1.824853706359863281e+01 -3.891216218471527100e-01 1.847261667251586914e+00 4.374420046806335449e-01 -5.415436029434204102e-01
2.383000000000000000e+03 7.461799621582031250e+01 -4.254476070404052734e+00 -4.104647040367126465e-01 6.578201770782470703e+00 1.850321173667907715e+00 7.786150574684143066e-01
2.384000000000000000e+03 6.365771102905273438e+01 -1.702875518798828125e+01 1.281230598688125610e-01 5.043387413024902344e+00 1.551453113555908203e+00 -1.245077252388000488e+00
2.385000000000000000e+03 1.067351150512695312e+01 1.457505798339843750e+01 -1.148394107818603516e+00 7.686804533004760742e-01 -1.139141097664833069e-01 -3.834545016288757324e-01
2.386000000000000000e+03 5.864765930175781250e+01 -2.745666980743408203e+00 1.192739233374595642e-01 4.243558883666992188e+00 1.308849930763244629e+00 -1.806999206542968750e+00
2.387000000000000000e+03 8.614995956420898438e+00 5.805410385131835938e+00 4.030550003051757812e+00 1.803475975990295410e+00 1.750207901000976562e+00 -2.249191522598266602e+00
2.388000000000000000e+03 7.253717041015625000e+01 1.327917861938476562e+01 1.982307791709899902e+00 4.460068702697753906e+00 1.932713031768798828e+00 -1.255940943956375122e-01
2.389000000000000000e+03 7.064796447753906250e+01 1.559346389770507812e+01 9.741514921188354492e-01 6.493270397186279297e+00 2.240226507186889648e+00 9.702689647674560547e-01
2.390000000000000000e+03 1.432775783538818359e+01 1.792132949829101562e+01 -1.033028721809387207e+00 3.963002562522888184e-02 -2.980196177959442139e-01 -1.455822139978408813e-01
2.391000000000000000e+03 6.257351684570312500e+01 -1.483357143402099609e+01 -2.414117753505706787e-01 6.199225425720214844e+00 1.787344098091125488e+00 -6.013742089271545410e-01
2.392000000000000000e+03 6.163586425781250000e+01 -1.370945453643798828e+01 -9.692061692476272583e-02 7.511848449707031250e+00 2.224478244781494141e+00 6.131388712674379349e-03
2.393000000000000000e+03 6.256975173950195312e+00 2.448519706726074219e+01 -8.732708543539047241e-02 1.120986104011535645e+00 3.100976943969726562e-01 1.651656180620193481e-01
2.394000000000000000e+03 3.194362258911132812e+01 -1.903909301757812500e+01 4.958781003952026367e-01 2.393105506896972656e+00 8.666950464248657227e-01 -5.376113057136535645e-01
2.395000000000000000e+03 3.309697341918945312e+01 -1.834638786315917969e+01 5.760447978973388672e-01 2.205387830734252930e+00 8.344298005104064941e-01 -7.682331204414367676e-01
2.396000000000000000e+03 4.582859802246093750e+01 -1.383962345123291016e+01 -7.660074234008789062e-01 2.327452182769775391e+00 4.684333801269531250e-01 5.967657566070556641e-01
2.397000000000000000e+03 7.370908355712890625e+01 -2.120656394958496094e+01 -5.286427736282348633e-01 6.783650398254394531e+00 1.876502275466918945e+00 7.074706554412841797e-01
2.398000000000000000e+03 7.289942932128906250e+01 -2.034696769714355469e+01 -4.741238951683044434e-01 6.737996101379394531e+00 1.879161715507507324e+00 1.226482510566711426e+00
2.399000000000000000e+03 5.716073226928710938e+01 -2.601603746414184570e+00 -3.532401919364929199e-01 4.049033641815185547e+00 1.108738064765930176e+00 -3.369301319122314453e+00
2.400000000000000000e+03 4.309011840820312500e+01 1.656471252441406250e+01 -1.512122035026550293e+00 6.420580744743347168e-01 -2.610192000865936279e-01 -1.714607886970043182e-02
2.401000000000000000e+03 7.641745567321777344e+00 1.674627113342285156e+01 -7.361607551574707031e-01 1.181463599205017090e+00 1.335908770561218262e-01 -3.285023570060729980e-01
2.402000000000000000e+03 6.310973644256591797e+00 -1.598094749450683594e+01 2.757982537150382996e-02 -1.443459093570709229e-01 -3.502982482314109802e-02 -1.818225830793380737e-01
2.403000000000000000e+03 6.602450561523437500e+01 1.660691261291503906e+01 -5.192324519157409668e-01 8.083166122436523438e+00 2.269180059432983398e+00 -8.106153011322021484e-01
2.404000000000000000e+03 6.551826477050781250e+01 1.787506866455078125e+01 2.790158987045288086e-02 6.413902759552001953e+00 1.932541370391845703e+00 -1.039300084114074707e+00
2.405000000000000000e+03 6.410704040527343750e+01 1.710865402221679688e+01 6.335139870643615723e-01 4.740188598632812500e+00 1.612110733985900879e+00 -1.281628489494323730e+00
2.406000000000000000e+03 6.155639266967773438e+01 -1.589550209045410156e+01 3.055801987648010254e-01 6.909110546112060547e+00 2.164407253265380859e+00 -8.327890634536743164e-01
2.407000000000000000e+03 1.665642547607421875e+01 2.036691093444824219e+01 -7.543700933456420898e-01 7.379614398814737797e-04 -2.260896414518356323e-01 -2.109108567237854004e-01
2.408000000000000000e+03 7.028836059570312500e+01 -2.205843734741210938e+01 3.638733029365539551e-01 4.979437351226806641e+00 1.602993130683898926e+00 7.087615132331848145e-01
2.409000000000000000e+03 6.880754852294921875e+01 -2.059482765197753906e+01 6.065115928649902344e-01 3.928614139556884766e+00 1.360537767410278320e+00 4.636501371860504150e-01
2.410000000000000000e+03 4.978716850280761719e+00 2.606419372558593750e+01 -2.193052694201469421e-02 1.253075003623962402e+00 3.693433403968811035e-01 1.790570020675659180e-01
2.411000000000000000e+03 5.073825836181640625e+00 2.756116485595703125e+01 -1.792718283832073212e-02 1.230676770210266113e+00 3.638248741626739502e-01 1.648840159177780151e-01
2.412000000000000000e+03 7.546207427978515625e+01 1.999235343933105469e+01 2.047727704048156738e-01 6.659858703613281250e+00 2.059389352798461914e+00 1.771695315837860107e-01
2.413000000000000000e+03 4.049914169311523438e+01 -2.078925323486328125e+01 1.191005408763885498e-01 3.927151679992675781e+00 1.213875651359558105e+00 -1.903813332319259644e-01
2.414000000000000000e+03 4.369384765625000000e+01 -2.084256935119628906e+01 -3.444654345512390137e-01 3.652359724044799805e+00 9.923683404922485352e-01 -8.125174045562744141e-01
2.415000000000000000e+03 7.314721679687500000e+01 1.461425304412841797e+01 1.303586840629577637e+00 5.375492095947265625e+00 2.003723621368408203e+00 -3.292429074645042419e-02
2.416000000000000000e+03 7.548429870605468750e+01 1.810631752014160156e+01 3.589260578155517578e-01 6.537054061889648438e+00 2.068794012069702148e+00 4.947118461132049561e-02
2.417000000000000000e+03 2.105140876770019531e+01 -1.580723857879638672e+01 1.420184224843978882e-01 1.183853983879089355e+00 3.977617323398590088e-01 3.171647489070892334e-01
2.418000000000000000e+03 6.128365325927734375e+01 -2.048409652709960938e+01 3.767839372158050537e-01 6.570103645324707031e+00 2.084066152572631836e+00 -1.315060377120971680e+00
2.419000000000000000e+03 6.365657806396484375e+01 -1.931752395629882812e+01 4.844525754451751709e-01 5.127130985260009766e+00 1.683475017547607422e+00 -1.355174303054809570e+00
2.420000000000000000e+03 2.658324050903320312e+01 -1.273742198944091797e+01 -5.836459994316101074e-01 4.093683242797851562e+00 1.053011059761047363e+00 -7.877488136291503906e-01
2.421000000000000000e+03 2.887290382385253906e+01 2.010776901245117188e+01 -9.796630144119262695e-01 2.161714076995849609e+00 3.546153008937835693e-01 1.210683107376098633e+00
2.422000000000000000e+03 2.643858146667480469e+01 2.267546463012695312e+01 -1.094234347343444824e+00 2.008155345916748047e+00 2.741762995719909668e-01 4.593079537153244019e-02
2.423000000000000000e+03 7.196350860595703125e+01 1.596495819091796875e+01 9.918350577354431152e-01 6.096028327941894531e+00 2.126358985900878906e+00 6.135468482971191406e-01
2.424000000000000000e+03 5.817679977416992188e+01 -2.580954170227050781e+01 -5.994663834571838379e-01 5.878096103668212891e+00 1.583588957786560059e+00 4.345232248306274414e-01
2.425000000000000000e+03 5.299097442626953125e+01 2.045393562316894531e+01 -1.082559823989868164e+00 6.597912788391113281e+00 1.654605865478515625e+00 1.247009336948394775e-01
2.426000000000000000e+03 5.195730209350585938e+01 2.196073722839355469e+01 -1.207721948623657227e+00 5.593131542205810547e+00 1.315622925758361816e+00 -2.922141253948211670e-01
2.427000000000000000e+03 7.581349182128906250e+01 2.915762519836425781e+01 -2.109002694487571716e-02 6.944821357727050781e+00 2.077119350433349609e+00 1.510856449604034424e-01
2.428000000000000000e+03 8.228915214538574219e+00 -2.885981750488281250e+01 5.440274998545646667e-02 -1.106319762766361237e-02 1.300186570733785629e-02 -2.213280834257602692e-02
2.429000000000000000e+03 3.903815841674804688e+01 -2.200918006896972656e+01 2.651627361774444580e-01 3.276058912277221680e+00 1.062366485595703125e+00 -1.619316637516021729e-01
2.430000000000000000e+03 3.377215194702148438e+01 -1.970609092712402344e+01 7.638128995895385742e-01 2.362887620925903320e+00 9.380102157592773438e-01 -3.768882453441619873e-01
2.431000000000000000e+03 3.435758972167968750e+01 -2.144374656677246094e+01 5.614425539970397949e-01 2.348846435546875000e+00 8.730866909027099609e-01 -2.663101553916931152e-01
2.432000000000000000e+03 3.053575325012207031e+01 2.089672470092773438e+01 -6.167952418327331543e-01 1.059471607208251953e+00 1.328029036521911621e-01 1.189727425575256348e+00
2.433000000000000000e+03 5.506806945800781250e+01 -2.518364143371582031e+01 3.873259760439395905e-03 3.901701211929321289e+00 1.171672344207763672e+00 1.306892633438110352e+00
2.434000000000000000e+03 3.816912889480590820e+00 6.765051841735839844e+00 7.957509160041809082e-01 -2.646767161786556244e-02 2.307849675416946411e-01 -7.170013189315795898e-01
2.435000000000000000e+03 4.936876296997070312e+01 2.237082290649414062e+01 -8.134122490882873535e-01 4.173705577850341797e+00 1.008087873458862305e+00 -1.241775751113891602e+00
2.436000000000000000e+03 7.210544586181640625e+01 1.441934204101562500e+01 1.608740806579589844e+00 5.321707725524902344e+00 2.079134464263916016e+00 5.773382186889648438e-01
2.437000000000000000e+03 5.676156997680664062e+00 9.612148284912109375e+00 1.299894303083419800e-01 1.078161954879760742e+00 3.624454140663146973e-01 -1.554160118103027344e+00
2.438000000000000000e+03 5.859279632568359375e+01 -9.017732620239257812e+00 4.091111719608306885e-01 8.125726699829101562e+00 2.560451269149780273e+00 6.587749123573303223e-01
2.439000000000000000e+03 1.567198848724365234e+01 -8.670579910278320312e+00 -3.581874072551727295e-01 2.548775672912597656e-01 -3.099295124411582947e-02 -1.158759370446205139e-01
2.440000000000000000e+03 1.759278678894042969e+01 -1.237033367156982422e+01 -3.169143944978713989e-02 2.386433333158493042e-01 6.208556517958641052e-02 -1.950741708278656006e-01
2.441000000000000000e+03 7.396699523925781250e+01 -3.358383178710937500e+01 6.724702566862106323e-02 6.310632705688476562e+00 1.913363814353942871e+00 1.054685413837432861e-01
2.442000000000000000e+03 7.039852905273437500e+01 -3.472357940673828125e+01 9.582778066396713257e-02 5.872470855712890625e+00 1.790489673614501953e+00 6.814350187778472900e-02
2.443000000000000000e+03 7.368077278137207031e+00 3.383472061157226562e+01 8.219649642705917358e-02 1.008508801460266113e+00 3.272115886211395264e-01 1.669044941663742065e-01
2.444000000000000000e+03 5.084124374389648438e+01 -2.168481445312500000e+01 4.422855079174041748e-01 9.561111927032470703e-01 4.195190072059631348e-01 2.494593709707260132e-01
2.445000000000000000e+03 4.522598648071289062e+01 -2.055327415466308594e+01 1.507813036441802979e-01 3.066880226135253906e+00 9.652984738349914551e-01 -1.079629182815551758e+00
2.446000000000000000e+03 7.505490875244140625e+01 -2.176852607727050781e+01 -1.982820183038711548e-01 7.054680347442626953e+00 2.056919336318969727e+00 3.792853653430938721e-01
2.447000000000000000e+03 6.767957687377929688e+00 1.365633392333984375e+01 -7.150868177413940430e-01 1.363122344017028809e+00 1.944106519222259521e-01 -8.095613718032836914e-01
2.448000000000000000e+03 5.482102870941162109e+00 -9.007087707519531250e+00 -4.935850575566291809e-02 -4.943416267633438110e-02 -2.963780052959918976e-02 -1.408196538686752319e-01
2.449000000000000000e+03 7.263063049316406250e+01 -2.413520240783691406e+01 5.348095297813415527e-02 6.011773109436035156e+00 1.819576263427734375e+00 5.051802396774291992e-01
2.450000000000000000e+03 6.476965332031250000e+01 -1.926890563964843750e+01 5.357362031936645508e-01 4.230797767639160156e+00 1.429960131645202637e+00 -1.223822593688964844e+00
2.451000000000000000e+03 6.887091827392578125e+01 -2.221773147583007812e+01 7.569362521171569824e-01 4.496748924255371094e+00 1.576105475425720215e+00 3.070397078990936279e-01
2.452000000000000000e+03 2.994255256652832031e+01 -1.536035919189453125e+01 1.135743632912635803e-01 2.952157974243164062e+00 9.197196960449218750e-01 -1.122508049011230469e+00
2.453000000000000000e+03 1.871059226989746094e+01 -1.258867454528808594e+01 2.429403513669967651e-01 4.453923106193542480e-01 2.064998000860214233e-01 8.620465546846389771e-02
2.454000000000000000e+03 7.486718177795410156e+00 -1.427334499359130859e+01 1.631369814276695251e-02 -6.678243726491928101e-02 -1.514062099158763885e-02 -2.003860026597976685e-01
2.455000000000000000e+03 7.183507442474365234e+00 -1.285228919982910156e+01 -1.937846466898918152e-02 -3.105346672236919403e-02 -1.512957923114299774e-02 -1.971881836652755737e-01
2.456000000000000000e+03 7.676622390747070312e+00 -2.295958137512207031e+01 5.751894041895866394e-02 -7.059461623430252075e-02 -3.922702744603157043e-03 -9.938678145408630371e-02
2.457000000000000000e+03 7.517921447753906250e+00 -1.944268226623535156e+01 7.847436517477035522e-02 -9.102860093116760254e-02 -3.766272217035293579e-03 -1.483854502439498901e-01
2.458000000000000000e+03 2.261889457702636719e+01 7.015285015106201172e+00 1.438935846090316772e-01 5.752034664154052734e+00 1.768778443336486816e+00 4.224264144897460938e+00
2.459000000000000000e+03 2.253266716003417969e+01 7.487012386322021484e+00 -8.102877736091613770e-01 5.742861270904541016e+00 1.479772090911865234e+00 3.823605537414550781e+00
2.460000000000000000e+03 2.237850379943847656e+01 8.020341873168945312e+00 -2.232612371444702148e+00 5.329142093658447266e+00 9.289589524269104004e-01 2.819643259048461914e+00
2.461000000000000000e+03 2.044668960571289062e+01 6.685815811157226562e+00 -1.221102952957153320e+00 7.403598308563232422e+00 1.854748606681823730e+00 4.094335436820983887e-01
2.462000000000000000e+03 9.443696022033691406e+00 -7.050004482269287109e+00 -1.537170559167861938e-01 4.339826852083206177e-02 -3.309563547372817993e-02 -1.459088772535324097e-01
2.463000000000000000e+03 1.058019924163818359e+01 -5.683291435241699219e+00 -1.954366564750671387e-01 5.289622023701667786e-02 -4.276213049888610840e-02 -8.927722275257110596e-02
2.464000000000000000e+03 1.269281578063964844e+01 -7.775325298309326172e+00 -1.831686943769454956e-01 1.758812665939331055e-01 -2.186226425692439079e-03 -1.108887866139411926e-01
2.465000000000000000e+03 1.400254821777343750e+01 -7.561679840087890625e+00 -2.768309414386749268e-01 1.997088491916656494e-01 -2.313662879168987274e-02 -7.243487983942031860e-02
2.466000000000000000e+03 4.093766784667968750e+01 1.802580451965332031e+01 -1.251919388771057129e+00 7.562670111656188965e-01 -1.486957222223281860e-01 -2.495100349187850952e-01
2.467000000000000000e+03 3.927221679687500000e+01 1.754615783691406250e+01 -1.537391424179077148e+00 4.734791517257690430e-01 -3.191736936569213867e-01 -2.102501094341278076e-01
2.468000000000000000e+03 6.388500213623046875e+00 6.794227123260498047e+00 1.726223111152648926e+00 5.375771522521972656e-01 6.791400909423828125e-01 -1.467367529869079590e+00
2.469000000000000000e+03 8.746119499206542969e+00 -5.868117809295654297e+00 -1.327486187219619751e-01 2.711190097033977509e-02 -3.169101476669311523e-02 -1.158569678664207458e-01
2.470000000000000000e+03 5.890265941619873047e+00 -6.136983871459960938e+00 -7.102952152490615845e-02 -8.168895728886127472e-03 -2.375952526926994324e-02 -1.030844748020172119e-01
2.471000000000000000e+03 8.451248168945312500e+00 -6.776815414428710938e+00 -1.014107465744018555e-01 4.866128414869308472e-02 -1.582483761012554169e-02 -8.937355130910873413e-02
2.472000000000000000e+03 1.069146919250488281e+01 -6.714752197265625000e+00 -2.147486507892608643e-01 7.392883300781250000e-02 -4.224594682455062866e-02 -1.276720315217971802e-01
2.473000000000000000e+03 5.828611755371093750e+01 -4.181036949157714844e+00 4.332737624645233154e-01 5.518794536590576172e+00 1.785620450973510742e+00 -1.356616258621215820e+00
2.474000000000000000e+03 7.357381439208984375e+01 -1.902232742309570312e+01 -5.520910620689392090e-01 7.545373916625976562e+00 2.097984790802001953e+00 6.451230645179748535e-01
2.475000000000000000e+03 6.361849212646484375e+01 -1.813969993591308594e+01 4.048296213150024414e-01 4.991905212402343750e+00 1.619020462036132812e+00 -1.325194001197814941e+00
2.476000000000000000e+03 5.039317703247070312e+01 1.880602598190307617e+00 3.337017536163330078e+00 6.115575790405273438e+00 2.835777997970581055e+00 1.863080978393554688e+00
2.477000000000000000e+03 3.418443298339843750e+01 2.084828758239746094e+01 -3.890746533870697021e-01 1.258810609579086304e-01 -7.895807921886444092e-02 5.198324918746948242e-01
2.478000000000000000e+03 3.621492004394531250e+01 1.931520271301269531e+01 -8.128519654273986816e-01 -2.233061790466308594e-01 -3.108474612236022949e-01 -8.989115245640277863e-03
2.479000000000000000e+03 2.758213615417480469e+01 -1.370893764495849609e+01 -2.375036478042602539e-01 3.923748016357421875e+00 1.105873227119445801e+00 -6.320170760154724121e-01
2.480000000000000000e+03 2.819102096557617188e+01 -1.489873027801513672e+01 -2.279047966003417969e-01 3.330779314041137695e+00 9.308623671531677246e-01 -9.687296152114868164e-01
2.481000000000000000e+03 3.711233901977539062e+01 1.785626983642578125e+01 -1.531003236770629883e+00 -5.991934984922409058e-02 -4.772768020629882812e-01 -2.682333886623382568e-01
2.482000000000000000e+03 3.840055465698242188e+01 1.894212722778320312e+01 -1.156376600265502930e+00 2.862579226493835449e-01 -2.610355913639068604e-01 -2.250051200389862061e-01
2.483000000000000000e+03 5.562137985229492188e+01 1.714281272888183594e+01 7.293487340211868286e-02 6.150017738342285156e+00 1.866885781288146973e+00 2.648129701614379883e+00
2.484000000000000000e+03 7.144599914550781250e+01 -2.353820037841796875e+01 3.204434216022491455e-01 5.605507850646972656e+00 1.777785420417785645e+00 5.645800232887268066e-01
2.485000000000000000e+03 1.205146026611328125e+01 1.689041519165039062e+01 -1.091438651084899902e+00 4.845013320446014404e-01 -1.820812076330184937e-01 -1.209584772586822510e-01
2.486000000000000000e+03 7.310584545135498047e+00 2.286790466308593750e+01 -2.113471031188964844e-01 9.947225451469421387e-01 2.350126355886459351e-01 1.264390647411346436e-01
2.487000000000000000e+03 7.021004676818847656e+00 2.180574035644531250e+01 -2.692888975143432617e-01 1.080190062522888184e+00 2.432703673839569092e-01 3.664725646376609802e-02
2.488000000000000000e+03 1.473474788665771484e+01 -1.107365798950195312e+01 -1.305732727050781250e-01 1.612543016672134399e-01 9.204310365021228790e-03 -1.957934498786926270e-01
2.489000000000000000e+03 7.629374694824218750e+01 -5.185375213623046875e+00 -8.096261322498321533e-02 8.520830154418945312e+00 2.531960248947143555e+00 1.638930320739746094e+00
2.490000000000000000e+03 2.527552413940429688e+01 -1.531423091888427734e+01 -2.040295302867889404e-01 2.731600284576416016e+00 7.582712173461914062e-01 3.546504378318786621e-01
2.491000000000000000e+03 2.705537605285644531e+01 -1.481971740722656250e+01 -2.056579291820526123e-01 3.155918598175048828e+00 8.850781917572021484e-01 -4.369728267192840576e-01
2.492000000000000000e+03 1.538021850585937500e+01 2.065016174316406250e+01 -6.489021182060241699e-01 2.882654219865798950e-02 -1.860226839780807495e-01 -5.338716134428977966e-02
2.493000000000000000e+03 1.490984535217285156e+01 1.919977378845214844e+01 -9.428970217704772949e-01 1.168591901659965515e-01 -2.478113472461700439e-01 -1.056551858782768250e-01
2.494000000000000000e+03 2.804678535461425781e+01 -1.773727416992187500e+01 -1.565770246088504791e-02 2.615193367004394531e+00 7.798606753349304199e-01 -4.703728556632995605e-01
2.495000000000000000e+03 5.888910675048828125e+01 -2.176921081542968750e+01 -6.426493525505065918e-01 7.368327617645263672e+00 2.017703533172607422e+00 4.773480072617530823e-02
2.496000000000000000e+03 2.188117980957031250e+01 2.276558685302734375e+01 -6.825775504112243652e-01 5.315967202186584473e-01 -4.529424756765365601e-02 -5.200372338294982910e-01
2.497000000000000000e+03 6.574124145507812500e+01 -2.088983726501464844e+01 5.653308629989624023e-01 4.302639484405517578e+00 1.460391044616699219e+00 -8.499249815940856934e-01
2.498000000000000000e+03 2.476452636718750000e+01 2.105065155029296875e+01 -1.783861637115478516e+00 2.338659524917602539e+00 1.664393991231918335e-01 -3.466956913471221924e-01
2.499000000000000000e+03 3.094889450073242188e+01 -1.794699478149414062e+01 2.585665583610534668e-01 2.482409000396728516e+00 8.222926855087280273e-01 -7.889389395713806152e-01
2.500000000000000000e+03 7.331449890136718750e+01 -3.094206094741821289e+00 -1.062255382537841797e+00 4.910255432128906250e+00 1.154399991035461426e+00 -4.857040047645568848e-01
2.501000000000000000e+03 3.323860549926757812e+01 2.110361289978027344e+01 -3.708696663379669189e-01 1.549747139215469360e-01 -6.476848572492599487e-02 7.142765522003173828e-01
2.502000000000000000e+03 3.300381469726562500e+01 2.319155502319335938e+01 -2.863918244838714600e-01 5.345029234886169434e-01 7.443332672119140625e-02 6.030504107475280762e-01
2.503000000000000000e+03 8.451420783996582031e+00 -1.838928604125976562e+01 4.318403452634811401e-02 -1.509413495659828186e-02 8.426970802247524261e-03 -1.749930679798126221e-01
2.504000000000000000e+03 7.016188621520996094e+00 -1.151060199737548828e+01 -3.118952922523021698e-02 -5.315614864230155945e-02 -2.530370280146598816e-02 -1.854675710201263428e-01
2.505000000000000000e+03 6.245729446411132812e+00 -2.906142807006835938e+01 1.967137865722179413e-02 -2.109724879264831543e-01 -5.739033222198486328e-02 -4.638585075736045837e-02
2.506000000000000000e+03 1.825598716735839844e+01 -1.388317966461181641e+01 1.154650300741195679e-01 4.623284637928009033e-01 1.733380407094955444e-01 2.795012854039669037e-02
2.507000000000000000e+03 7.271425724029541016e+00 -2.537234115600585938e+01 5.060927569866180420e-02 -7.915161550045013428e-02 -8.562703616917133331e-03 -7.081051170825958252e-02
2.508000000000000000e+03 5.454845809936523438e+01 2.164063262939453125e+01 -8.939034342765808105e-01 5.937406063079833984e+00 1.513050794601440430e+00 6.831709146499633789e-01
2.509000000000000000e+03 5.389680099487304688e+01 1.887520599365234375e+01 -1.245610713958740234e+00 7.270005702972412109e+00 1.807318568229675293e+00 1.329767823219299316e+00
2.510000000000000000e+03 8.398138046264648438e+00 2.061741447448730469e+01 -4.296917319297790527e-01 9.466522336006164551e-01 1.550881415605545044e-01 -8.351705037057399750e-03
2.511000000000000000e+03 7.029014110565185547e+00 2.067298507690429688e+01 -3.142459988594055176e-01 1.081130266189575195e+00 2.300652712583541870e-01 5.240838974714279175e-03
2.512000000000000000e+03 4.951702499389648438e+01 -2.327262687683105469e+01 5.304811000823974609e-01 1.832580327987670898e+00 7.089184522628784180e-01 -2.799988985061645508e-01
2.513000000000000000e+03 2.975934028625488281e+01 2.283941459655761719e+01 -6.660441160202026367e-01 1.299840927124023438e+00 1.901390552520751953e-01 8.221690058708190918e-01
2.514000000000000000e+03 5.986875152587890625e+01 -4.319700241088867188e+00 1.287825107574462891e+00 6.394083023071289062e+00 2.304572582244873047e+00 -2.307976037263870239e-01
2.515000000000000000e+03 7.020854949951171875e+01 -2.993593215942382812e+01 1.710710972547531128e-01 5.763169288635253906e+00 1.780272126197814941e+00 9.932984411716461182e-02
2.516000000000000000e+03 7.164424896240234375e+01 2.482382774353027344e+01 -6.470664590597152710e-02 6.658431529998779297e+00 1.978117465972900391e+00 2.575696408748626709e-01
2.517000000000000000e+03 3.695733642578125000e+01 -2.225717544555664062e+01 5.867193937301635742e-01 2.689743041992187500e+00 9.829387664794921875e-01 1.064114123582839966e-01
2.518000000000000000e+03 6.936895751953125000e+01 1.922599601745605469e+01 7.241017371416091919e-02 6.868992328643798828e+00 2.082420825958251953e+00 4.065429568290710449e-01
2.519000000000000000e+03 5.222600936889648438e+01 2.462078285217285156e+01 -8.241335153579711914e-01 4.986372470855712891e+00 1.248671650886535645e+00 -2.406440675258636475e-01
2.520000000000000000e+03 2.409914970397949219e+01 -1.755564498901367188e+01 -2.719974517822265625e-02 2.258003473281860352e+00 6.692411303520202637e-01 2.039369493722915649e-01
2.521000000000000000e+03 7.324385070800781250e+01 1.569930553436279297e+01 1.043747186660766602e+00 5.878795623779296875e+00 2.076762914657592773e+00 1.938089728355407715e-01
2.522000000000000000e+03 7.192589569091796875e+01 1.756709671020507812e+01 5.827336907386779785e-01 6.514001369476318359e+00 2.129020452499389648e+00 5.527336597442626953e-01
2.523000000000000000e+03 8.799017906188964844e+00 -3.066102600097656250e+01 2.668672427535057068e-02 2.688527107238769531e-02 1.607159897685050964e-02 -3.029097802937030792e-02
2.524000000000000000e+03 8.248834609985351562e+00 1.447335433959960938e+01 -9.501732587814331055e-01 1.323421359062194824e+00 1.119744330644607544e-01 -6.081466674804687500e-01
2.525000000000000000e+03 2.180322265625000000e+01 6.774522304534912109e+00 -4.196282625198364258e-01 7.380228042602539062e+00 2.088179826736450195e+00 4.004819393157958984e+00
2.526000000000000000e+03 9.548686027526855469e+00 -5.851972103118896484e+00 -1.791584342718124390e-01 7.288337498903274536e-02 -3.188251703977584839e-02 -8.482759445905685425e-02
2.527000000000000000e+03 9.324546813964843750e+00 -7.868591785430908203e+00 -1.349740922451019287e-01 6.337810307741165161e-02 -2.147879451513290405e-02 -1.211145594716072083e-01
2.528000000000000000e+03 6.692451000213623047e+00 -5.960419654846191406e+00 -6.108992919325828552e-02 1.328721363097429276e-02 -1.434081513434648514e-02 -8.693724870681762695e-02
2.529000000000000000e+03 1.079010581970214844e+01 -7.840726375579833984e+00 -2.056333869695663452e-01 8.671908080577850342e-02 -3.567428886890411377e-02 -1.646051257848739624e-01
2.530000000000000000e+03 1.139044952392578125e+01 -7.042787075042724609e+00 -1.528870910406112671e-01 1.260507553815841675e-01 -8.050902746617794037e-03 -7.247221469879150391e-02
2.531000000000000000e+03 6.248223495483398438e+01 -1.980817413330078125e+01 2.961063683032989502e-01 5.575583457946777344e+00 1.761506915092468262e+00 -1.352957010269165039e+00
2.532000000000000000e+03 6.336731338500976562e+01 -2.119814109802246094e+01 5.558024048805236816e-01 5.214792251586914062e+00 1.731178402900695801e+00 -1.269373893737792969e+00
2.533000000000000000e+03 1.202543354034423828e+01 -8.558840751647949219e+00 -2.427259832620620728e-01 1.118303611874580383e-01 -3.926868364214897156e-02 -1.568024754524230957e-01
2.534000000000000000e+03 7.767241954803466797e+00 2.415750312805175781e+01 -1.571998298168182373e-01 9.729667901992797852e-01 2.447300851345062256e-01 1.350522637367248535e-01
2.535000000000000000e+03 8.168541908264160156e+00 2.199458503723144531e+01 -3.201319575309753418e-01 9.350030422210693359e-01 1.844613254070281982e-01 1.019970774650573730e-01
2.536000000000000000e+03 1.306906604766845703e+01 -9.575558662414550781e+00 -2.014067173004150391e-01 1.521808505058288574e-01 -1.476775947958230972e-02 -1.922758519649505615e-01
2.537000000000000000e+03 1.577592849731445312e+01 -1.193089580535888672e+01 -8.763705939054489136e-02 1.883742511272430420e-01 3.022115863859653473e-02 -2.390020489692687988e-01
2.538000000000000000e+03 9.006332397460937500e+00 -5.189809322357177734e+00 -1.056389883160591125e-01 4.282744601368904114e-02 -1.884346269071102142e-02 -4.618473723530769348e-02
2.539000000000000000e+03 1.988723945617675781e+01 2.493588066101074219e+01 -3.809239864349365234e-01 4.982660114765167236e-01 3.520260006189346313e-02 -2.799663841724395752e-01
2.540000000000000000e+03 1.823965454101562500e+01 2.415510559082031250e+01 -3.034622371196746826e-01 2.386254817247390747e-01 -1.945103146135807037e-02 -2.347855120897293091e-01
2.541000000000000000e+03 4.402892684936523438e+01 1.972029113769531250e+01 -6.431844830513000488e-01 1.231773257255554199e+00 1.765766441822052002e-01 -6.790384650230407715e-01
2.542000000000000000e+03 4.149798583984375000e+01 1.970487022399902344e+01 -7.557830810546875000e-01 8.500663638114929199e-01 2.828497812151908875e-02 -3.492759168148040771e-01
2.543000000000000000e+03 1.301953887939453125e+01 1.869136238098144531e+01 -8.987904191017150879e-01 3.553637266159057617e-01 -1.630280017852783203e-01 -7.077460736036300659e-02
2.544000000000000000e+03 1.165821933746337891e+01 1.788986396789550781e+01 -8.989910483360290527e-01 5.649179816246032715e-01 -1.002219170331954956e-01 -1.088735982775688171e-01
2.545000000000000000e+03 6.901715755462646484e+00 -1.020537471771240234e+01 -4.844041541218757629e-02 -1.670211926102638245e-02 -1.954276114702224731e-02 -1.741814762353897095e-01
2.546000000000000000e+03 1.581721973419189453e+01 -9.730457305908203125e+00 -2.636298239231109619e-01 1.312016397714614868e-01 -3.972845524549484253e-02 -1.306746900081634521e-01
2.547000000000000000e+03 1.446559619903564453e+01 -8.211945533752441406e+00 -3.060413002967834473e-01 1.540734916925430298e-01 -4.559033736586570740e-02 -1.053142994642257690e-01
2.548000000000000000e+03 9.734308242797851562e+00 3.173726844787597656e+01 8.199833333492279053e-02 8.333515524864196777e-01 2.746049761772155762e-01 1.786541789770126343e-01
2.549000000000000000e+03 9.578714370727539062e+00 3.437731552124023438e+01 1.075351685285568237e-01 8.788265585899353027e-01 2.959085106849670410e-01 1.345825642347335815e-01
2.550000000000000000e+03 1.745697784423828125e+01 2.213287925720214844e+01 -4.556586444377899170e-01 1.229221746325492859e-01 -9.982094168663024902e-02 -2.192810773849487305e-01
2.551000000000000000e+03 3.542172241210937500e+01 -2.540852928161621094e+01 1.421597152948379517e-01 2.732235193252563477e+00 8.623184561729431152e-01 -9.908295422792434692e-02
2.552000000000000000e+03 1.583125305175781250e+01 -1.290674304962158203e+01 1.916678622364997864e-02 3.435015678405761719e-01 1.088005080819129944e-01 -1.225999295711517334e-01
2.553000000000000000e+03 1.664031028747558594e+01 -1.208783149719238281e+01 1.945962198078632355e-02 3.276097178459167480e-01 1.041208058595657349e-01 -9.572091698646545410e-02
2.554000000000000000e+03 1.014558506011962891e+01 1.600848960876464844e+01 -1.033455014228820801e+00 8.414305448532104492e-01 -5.760733410716056824e-02 -2.124289125204086304e-01
2.555000000000000000e+03 8.669802665710449219e+00 1.688385963439941406e+01 -8.223456144332885742e-01 1.008631944656372070e+00 5.588591843843460083e-02 -2.127221971750259399e-01
2.556000000000000000e+03 7.173307037353515625e+01 -2.564910697937011719e+01 3.209031820297241211e-01 5.795052528381347656e+00 1.834786653518676758e+00 3.277311325073242188e-01
2.557000000000000000e+03 6.279376602172851562e+01 1.997517204284667969e+01 6.853057742118835449e-01 4.707146644592285156e+00 1.617735743522644043e+00 -5.062171444296836853e-02
2.558000000000000000e+03 6.002688598632812500e+01 1.844094085693359375e+01 1.104222536087036133e+00 3.752783775329589844e+00 1.457101941108703613e+00 1.082071185111999512e+00
2.559000000000000000e+03 3.945361709594726562e+01 1.870641517639160156e+01 -1.141388297080993652e+00 5.411139726638793945e-01 -1.800823062658309937e-01 -3.046364784240722656e-01
2.560000000000000000e+03 7.136990356445312500e+01 2.310434913635253906e+01 -1.940096728503704071e-02 6.606822490692138672e+00 1.976226449012756348e+00 2.829059064388275146e-01
2.561000000000000000e+03 7.058980560302734375e+01 1.803649520874023438e+01 3.545404374599456787e-01 6.680646896362304688e+00 2.110556364059448242e+00 5.761756300926208496e-01
2.562000000000000000e+03 6.831573486328125000e+01 2.079328918457031250e+01 -1.121259406208992004e-01 6.727659702301025391e+00 1.984660148620605469e+00 1.277029365301132202e-01
2.563000000000000000e+03 6.665798187255859375e+01 2.000654792785644531e+01 -5.396266654133796692e-02 6.463224887847900391e+00 1.922778606414794922e+00 -2.318085283041000366e-01
2.564000000000000000e+03 3.366297912597656250e+01 1.795803070068359375e+01 -8.878219127655029297e-01 -7.553476095199584961e-01 -4.929508566856384277e-01 3.595172464847564697e-01
2.565000000000000000e+03 1.018634414672851562e+01 -2.310762214660644531e+01 8.473011851310729980e-02 1.511161923408508301e-01 7.075389474630355835e-02 -9.856778383255004883e-02
2.566000000000000000e+03 9.272874832153320312e+00 -2.173262023925781250e+01 9.153389185667037964e-02 2.490662969648838043e-02 3.493215516209602356e-02 -1.162509694695472717e-01
2.567000000000000000e+03 2.333435440063476562e+01 2.184436607360839844e+01 -1.014665246009826660e+00 1.534528255462646484e+00 1.559589058160781860e-01 -9.917885661125183105e-01
2.568000000000000000e+03 4.417584896087646484e+00 9.962453842163085938e+00 2.504329942166805267e-02 8.169018626213073730e-01 2.525835335254669189e-01 -1.169561147689819336e+00
2.569000000000000000e+03 1.934078979492187500e+01 -1.619023895263671875e+01 1.764262765645980835e-01 9.190415740013122559e-01 3.286403417587280273e-01 1.826186180114746094e-01
2.570000000000000000e+03 4.772949218750000000e+01 2.330861663818359375e+01 -4.750996530055999756e-01 3.338243722915649414e+00 8.589432239532470703e-01 -1.092069387435913086e+00
2.571000000000000000e+03 2.532725143432617188e+01 1.866481399536132812e+01 -2.672436237335205078e+00 4.625589370727539062e+00 5.859459638595581055e-01 -3.425913751125335693e-01
2.572000000000000000e+03 2.662341499328613281e+01 -1.891316413879394531e+01 -2.274387888610363007e-02 2.519645214080810547e+00 7.490704059600830078e-01 -1.282728463411331177e-01
2.573000000000000000e+03 2.270485687255859375e+01 -1.843552780151367188e+01 7.548040151596069336e-02 1.580560207366943359e+00 4.968121647834777832e-01 2.244366705417633057e-01
2.574000000000000000e+03 1.063268661499023438e+01 1.769200515747070312e+01 -8.769989013671875000e-01 7.062364816665649414e-01 -5.122872814536094666e-02 -7.887201011180877686e-02
2.575000000000000000e+03 6.598331451416015625e+00 2.754796600341796875e+01 -8.453673683106899261e-03 1.066840171813964844e+00 3.175159394741058350e-01 2.073266655206680298e-01
2.576000000000000000e+03 2.979251861572265625e+01 -1.929555702209472656e+01 1.556552946567535400e-01 2.563738107681274414e+00 8.158180117607116699e-01 -5.021629333496093750e-01
2.577000000000000000e+03 7.170112609863281250e+01 -2.211286163330078125e+01 9.412132203578948975e-02 5.671888351440429688e+00 1.729802846908569336e+00 7.951313257217407227e-01
2.578000000000000000e+03 1.075468063354492188e+01 -9.642783164978027344e+00 -1.357977390289306641e-01 1.083170473575592041e-01 -8.244206197559833527e-03 -1.839389652013778687e-01
2.579000000000000000e+03 8.356906890869140625e+00 -1.258985805511474609e+01 -1.876509189605712891e-02 -1.757995784282684326e-02 -1.090351492166519165e-02 -2.045926451683044434e-01
2.580000000000000000e+03 1.162773418426513672e+01 1.911663818359375000e+01 -7.374975085258483887e-01 5.206283330917358398e-01 -6.506075710058212280e-02 1.548631861805915833e-02
2.581000000000000000e+03 4.614653396606445312e+01 -2.235516929626464844e+01 4.564487561583518982e-02 2.533731222152709961e+00 7.738128900527954102e-01 -8.572066426277160645e-01
2.582000000000000000e+03 4.807043838500976562e+01 -2.154951858520507812e+01 2.975554466247558594e-01 1.788459539413452148e+00 6.258044838905334473e-01 -7.340492010116577148e-01
2.583000000000000000e+03 1.389664840698242188e+01 2.150241088867187500e+01 -5.586404204368591309e-01 3.178512752056121826e-01 -7.223673909902572632e-02 2.874186262488365173e-03
2.584000000000000000e+03 8.144520759582519531e+00 -8.916516304016113281e+00 -7.911436259746551514e-02 3.177469968795776367e-02 -1.420189812779426575e-02 -1.633729636669158936e-01
2.585000000000000000e+03 8.038088798522949219e+00 2.577061653137207031e+01 -7.618865370750427246e-02 9.274147152900695801e-01 2.553678154945373535e-01 1.918692439794540405e-01
2.586000000000000000e+03 1.326105499267578125e+01 -8.278397560119628906e+00 -2.551090121269226074e-01 1.176399290561676025e-01 -4.124072566628456116e-02 -1.520917862653732300e-01
2.587000000000000000e+03 1.110778045654296875e+01 -1.050043869018554688e+01 -1.196833848953247070e-01 1.011189371347427368e-01 -5.569334607571363449e-03 -1.916330456733703613e-01
2.588000000000000000e+03 1.366544818878173828e+01 -1.146026325225830078e+01 -1.299454867839813232e-01 2.578501105308532715e-01 3.837139159440994263e-02 -2.141185551881790161e-01
2.589000000000000000e+03 4.275682830810546875e+01 -2.497038269042968750e+01 1.146470010280609131e-01 3.408969879150390625e+00 1.057085037231445312e+00 -5.075284242630004883e-01
2.590000000000000000e+03 4.123335647583007812e+01 -2.520417594909667969e+01 1.726551353931427002e-01 3.311880111694335938e+00 1.045360565185546875e+00 -2.526852190494537354e-01
2.591000000000000000e+03 5.653810119628906250e+01 1.831537437438964844e+01 1.169695183634757996e-01 5.761289119720458984e+00 1.763477683067321777e+00 1.997924447059631348e+00
2.592000000000000000e+03 3.926582336425781250e+01 2.131771469116210938e+01 -5.325982570648193359e-01 5.650600194931030273e-01 9.738530963659286499e-03 -2.858254015445709229e-01
2.593000000000000000e+03 1.414339351654052734e+01 -2.654605674743652344e+01 1.113991364836692810e-01 5.188035368919372559e-01 1.890608072280883789e-01 -4.492099862545728683e-03
2.594000000000000000e+03 1.054652881622314453e+01 -1.466428661346435547e+01 1.988248713314533234e-02 5.567799136042594910e-02 2.266814373433589935e-02 -2.234905064105987549e-01
2.595000000000000000e+03 6.980713653564453125e+01 2.149597549438476562e+01 -1.965968869626522064e-02 6.619872093200683594e+00 1.980063676834106445e+00 2.808775603771209717e-01
2.596000000000000000e+03 4.248608779907226562e+01 2.084692573547363281e+01 -4.711041450500488281e-01 1.188547968864440918e+00 2.152331322431564331e-01 -5.295305252075195312e-01
2.597000000000000000e+03 7.033704376220703125e+01 -2.344268035888671875e+01 4.824331104755401611e-01 5.213032245635986328e+00 1.708639502525329590e+00 4.482545852661132812e-01
2.598000000000000000e+03 6.907406616210937500e+01 -2.378188705444335938e+01 4.129309058189392090e-01 4.982297897338867188e+00 1.618568658828735352e+00 2.019696384668350220e-01
2.599000000000000000e+03 7.206384277343750000e+01 -2.827438163757324219e+01 1.890823543071746826e-01 5.948551177978515625e+00 1.841290116310119629e+00 2.118171006441116333e-01
2.600000000000000000e+03 6.208453750610351562e+01 2.146125984191894531e+01 4.512929022312164307e-01 4.939152240753173828e+00 1.617133617401123047e+00 2.077862471342086792e-01
2.601000000000000000e+03 6.245452880859375000e+01 -1.592443275451660156e+01 1.267168968915939331e-01 5.867266178131103516e+00 1.798195004463195801e+00 -7.746272683143615723e-01
2.602000000000000000e+03 2.027987289428710938e+01 2.311560630798339844e+01 -4.872918725013732910e-01 4.320597946643829346e-01 -1.656963117420673370e-02 -4.703458249568939209e-01
2.603000000000000000e+03 9.716448783874511719e+00 2.950870704650878906e+01 4.051974043250083923e-02 8.186762332916259766e-01 2.577587962150573730e-01 1.765191853046417236e-01
2.604000000000000000e+03 4.060373306274414062e+01 -2.253178787231445312e+01 8.366433531045913696e-02 3.931084632873535156e+00 1.204424619674682617e+00 -1.111972797662019730e-02
2.605000000000000000e+03 2.898941802978515625e+01 -1.625728034973144531e+01 -8.580903522670269012e-03 3.007265567779541016e+00 8.996053934097290039e-01 -7.322447896003723145e-01
2.606000000000000000e+03 2.494083595275878906e+01 -1.950832176208496094e+01 -2.417220547795295715e-02 2.031765460968017578e+00 6.022779345512390137e-01 5.797138903290033340e-03
2.607000000000000000e+03 2.124357795715332031e+01 -1.916635894775390625e+01 1.284071803092956543e-01 1.488160252571105957e+00 4.849702119827270508e-01 1.802947968244552612e-01
2.608000000000000000e+03 1.778619575500488281e+01 -1.656156921386718750e+01 2.042725980281829834e-01 6.897345781326293945e-01 2.682021558284759521e-01 8.016727119684219360e-02
2.609000000000000000e+03 6.344174385070800781e+00 1.660940551757812500e+01 -5.757005214691162109e-01 1.216075539588928223e+00 1.921125054359436035e-01 -3.758204877376556396e-01
2.610000000000000000e+03 7.932077884674072266e+00 1.556294250488281250e+01 -8.414258360862731934e-01 1.170489788055419922e+00 9.871916472911834717e-02 -3.825973272323608398e-01
2.611000000000000000e+03 1.483145332336425781e+01 -1.207260990142822266e+01 -6.077999621629714966e-02 2.749386429786682129e-01 6.424759328365325928e-02 -1.794643551111221313e-01
2.612000000000000000e+03 1.345511245727539062e+01 -1.042676925659179688e+01 -1.435894817113876343e-01 1.433516144752502441e-01 -7.136006024666130543e-05 -1.701505333185195923e-01
2.613000000000000000e+03 4.104800415039062500e+01 2.195332336425781250e+01 -4.133513569831848145e-01 9.271450042724609375e-01 1.541381031274795532e-01 -4.069250226020812988e-01
2.614000000000000000e+03 1.012826824188232422e+01 -7.464462280273437500e+00 -1.159191355109214783e-01 9.957080334424972534e-02 -4.904499743133783340e-03 -1.084799766540527344e-01
2.615000000000000000e+03 1.055829524993896484e+01 -1.126003265380859375e+01 -5.820951610803604126e-02 1.443404108285903931e-01 2.583926543593406677e-02 -2.272756397724151611e-01
2.616000000000000000e+03 8.184690475463867188e+00 -1.009555816650390625e+01 -7.604076713323593140e-02 7.348780520260334015e-03 -2.060759626328945160e-02 -1.789043098688125610e-01
2.617000000000000000e+03 1.142975330352783203e+01 -8.194237709045410156e+00 -1.437580734491348267e-01 1.503706127405166626e-01 1.983758993446826935e-03 -1.344497650861740112e-01
2.618000000000000000e+03 1.180288314819335938e+01 -9.325761795043945312e+00 -1.345719397068023682e-01 1.302205622196197510e-01 -1.305414247326552868e-03 -1.778744459152221680e-01
2.619000000000000000e+03 8.212193489074707031e+00 -7.815814495086669922e+00 -1.124420687556266785e-01 2.524752542376518250e-02 -2.615836262702941895e-02 -1.534607410430908203e-01
2.620000000000000000e+03 1.064886093139648438e+01 2.321697998046875000e+01 -3.117010295391082764e-01 6.971929669380187988e-01 1.156475767493247986e-01 1.234683543443679810e-01
2.621000000000000000e+03 9.708539962768554688e+00 2.552155113220214844e+01 -1.171533316373825073e-01 7.954332232475280762e-01 2.034839689731597900e-01 1.561029702425003052e-01
2.622000000000000000e+03 6.998141288757324219e+00 1.956432723999023438e+01 -3.986712396144866943e-01 1.118258953094482422e+00 2.158763259649276733e-01 -8.437148481607437134e-02
2.623000000000000000e+03 7.279710769653320312e+00 1.854538345336914062e+01 -5.512607097625732422e-01 1.103320956230163574e+00 1.656180620193481445e-01 -1.460093408823013306e-01
2.624000000000000000e+03 9.971480369567871094e+00 2.071877098083496094e+01 -4.944737553596496582e-01 7.350527048110961914e-01 7.217367738485336304e-02 6.966135650873184204e-02
2.625000000000000000e+03 1.417768287658691406e+01 -2.284304428100585938e+01 1.523090302944183350e-01 4.379028081893920898e-01 1.770635545253753662e-01 -3.674379363656044006e-02
2.626000000000000000e+03 6.810324859619140625e+01 -2.604324340820312500e+01 2.853189110755920410e-01 5.246569633483886719e+00 1.659566640853881836e+00 -5.573586001992225647e-02
2.627000000000000000e+03 6.906697845458984375e+01 -2.753810501098632812e+01 3.056791722774505615e-01 5.494972705841064453e+00 1.740195631980895996e+00 8.488789945840835571e-02
2.628000000000000000e+03 2.520998573303222656e+01 2.247250366210937500e+01 -1.056572198867797852e+00 1.726183652877807617e+00 2.008834481239318848e-01 -1.892000436782836914e-01
2.629000000000000000e+03 2.399989700317382812e+01 2.516411399841308594e+01 -6.498912572860717773e-01 1.047277808189392090e+00 1.192159652709960938e-01 -1.800894141197204590e-01
2.630000000000000000e+03 3.979813385009765625e+01 2.445509338378906250e+01 -1.299890577793121338e-01 9.394181370735168457e-01 2.428287118673324585e-01 -2.965968847274780273e-01
2.631000000000000000e+03 3.765759277343750000e+01 2.057226371765136719e+01 -6.078599095344543457e-01 2.272288352251052856e-01 -1.141893193125724792e-01 -8.920989185571670532e-02
2.632000000000000000e+03 7.064601898193359375e+01 2.021356582641601562e+01 8.063320815563201904e-02 6.673636436462402344e+00 2.026280879974365234e+00 3.614820837974548340e-01
2.633000000000000000e+03 6.224436950683593750e+01 -2.194204521179199219e+01 -1.651155501604080200e-01 5.756587982177734375e+00 1.677441716194152832e+00 -1.095784425735473633e+00
2.634000000000000000e+03 2.556620788574218750e+01 -2.139412689208984375e+01 2.927992492914199829e-02 2.161781072616577148e+00 6.573182940483093262e-01 7.756310515105724335e-04
2.635000000000000000e+03 6.346607971191406250e+01 1.851053047180175781e+01 7.345615029335021973e-01 4.565145015716552734e+00 1.589912056922912598e+00 -6.632813811302185059e-01
2.636000000000000000e+03 1.616594314575195312e+01 2.435367202758789062e+01 -2.544716000556945801e-01 2.594105005264282227e-01 1.481672050431370735e-03 -2.354629524052143097e-02
2.637000000000000000e+03 1.579549026489257812e+01 2.293147850036621094e+01 -3.739760220050811768e-01 2.287684828042984009e-01 -4.356226697564125061e-02 -9.730908274650573730e-02
2.638000000000000000e+03 9.113178253173828125e+00 -1.581826686859130859e+01 4.360224679112434387e-02 -8.674363489262759686e-04 1.282044313848018646e-02 -2.128034234046936035e-01
2.639000000000000000e+03 1.058589267730712891e+01 -1.346668243408203125e+01 1.105826534330844879e-02 1.213559359312057495e-01 3.972426056861877441e-02 -2.211457937955856323e-01
2.640000000000000000e+03 1.170987701416015625e+01 -1.333163738250732422e+01 -5.933754146099090576e-03 1.001199260354042053e-01 2.825585007667541504e-02 -2.185555994510650635e-01
2.641000000000000000e+03 1.262815666198730469e+01 -1.188996028900146484e+01 -5.866464227437973022e-02 1.194926872849464417e-01 1.824841462075710297e-02 -2.146858125925064087e-01
2.642000000000000000e+03 1.134484291076660156e+01 2.482625961303710938e+01 -1.614484488964080811e-01 5.775744915008544922e-01 1.248378157615661621e-01 1.596106588840484619e-01
2.643000000000000000e+03 1.057920265197753906e+01 -8.672862052917480469e+00 -1.447323858737945557e-01 9.443492442369461060e-02 -1.508923713117837906e-02 -1.419294327497482300e-01
2.644000000000000000e+03 9.415459632873535156e+00 -8.830937385559082031e+00 -1.246447861194610596e-01 6.359943747520446777e-02 -1.831360347568988800e-02 -1.723707914352416992e-01
2.645000000000000000e+03 9.490326881408691406e+00 -9.964124679565429688e+00 -8.120411634445190430e-02 7.231845706701278687e-02 -2.665698062628507614e-03 -1.925239115953445435e-01
2.646000000000000000e+03 9.473367691040039062e+00 -1.240348625183105469e+01 -1.902247592806816101e-02 7.527209073305130005e-02 1.687488332390785217e-02 -2.254458963871002197e-01
2.647000000000000000e+03 9.497115135192871094e+00 -1.118571662902832031e+01 -7.757449150085449219e-02 3.812574967741966248e-02 -1.183462236076593399e-02 -2.021993100643157959e-01
2.648000000000000000e+03 1.374404048919677734e+01 2.759048080444335938e+01 -1.435383688658475876e-02 4.991526007652282715e-01 1.454396247863769531e-01 1.026238873600959778e-01
2.649000000000000000e+03 1.260321617126464844e+01 2.882937240600585938e+01 5.380503367632627487e-03 6.356973052024841309e-01 1.923233419656753540e-01 1.235284730792045593e-01
2.650000000000000000e+03 9.014125823974609375e+00 1.853824996948242188e+01 -6.593661308288574219e-01 9.166009426116943359e-01 7.717045396566390991e-02 -6.832467764616012573e-02
2.651000000000000000e+03 4.174720001220703125e+01 2.350414276123046875e+01 -1.873331069946289062e-01 1.305613040924072266e+00 3.354839980602264404e-01 -4.556106626987457275e-01
2.652000000000000000e+03 1.176081657409667969e+01 -1.460199928283691406e+01 4.567044600844383240e-02 1.899939179420471191e-01 7.069931179285049438e-02 -1.961858719587326050e-01
2.653000000000000000e+03 1.286839485168457031e+01 -1.612318611145019531e+01 1.261686384677886963e-01 2.698713243007659912e-01 1.188119873404502869e-01 -1.430317461490631104e-01
2.654000000000000000e+03 1.043450355529785156e+01 -1.600896263122558594e+01 7.711522281169891357e-02 1.245547309517860413e-01 6.050098687410354614e-02 -1.843546181917190552e-01
2.655000000000000000e+03 7.312548065185546875e+01 2.270729446411132812e+01 1.381566002964973450e-02 6.718003273010253906e+00 2.019545555114746094e+00 2.766504287719726562e-01
2.656000000000000000e+03 6.478402137756347656e+00 2.595135307312011719e+01 -6.376189738512039185e-02 1.101770043373107910e+00 3.114024400711059570e-01 1.651079207658767700e-01
2.657000000000000000e+03 5.947422027587890625e+01 -2.565332031250000000e+01 -2.367891222238540649e-01 5.297147750854492188e+00 1.518107652664184570e+00 -1.698444634675979614e-01
2.658000000000000000e+03 6.133347702026367188e+01 -2.417030334472656250e+01 -5.954463481903076172e-01 5.878197193145751953e+00 1.584825277328491211e+00 -6.221508383750915527e-01
2.659000000000000000e+03 1.216355514526367188e+01 2.226016044616699219e+01 -3.912485241889953613e-01 4.733375012874603271e-01 2.462669648230075836e-02 1.027494817972183228e-01
2.660000000000000000e+03 6.761104583740234375e+01 -2.420907402038574219e+01 6.457582116127014160e-01 4.878118515014648438e+00 1.657162904739379883e+00 -1.282760798931121826e-01
2.661000000000000000e+03 1.733176994323730469e+01 2.556435012817382812e+01 -2.236616909503936768e-01 4.102272987365722656e-01 5.596968159079551697e-02 -1.146110370755195618e-01
2.662000000000000000e+03 6.939264678955078125e+01 2.334349632263183594e+01 -8.136457204818725586e-02 6.545110225677490234e+00 1.939123630523681641e+00 1.925331205129623413e-01
2.663000000000000000e+03 6.750209808349609375e+01 2.276479721069335938e+01 -5.257348716259002686e-02 6.290359973907470703e+00 1.871335864067077637e+00 4.899392277002334595e-02
2.664000000000000000e+03 1.360370731353759766e+01 2.524592018127441406e+01 -1.441304236650466919e-01 4.087059199810028076e-01 7.937265187501907349e-02 9.483962506055831909e-02
2.665000000000000000e+03 8.031474113464355469e+00 1.773582077026367188e+01 -6.279181241989135742e-01 1.048262238502502441e+00 1.261032521724700928e-01 -2.196438759565353394e-01
2.666000000000000000e+03 1.144212818145751953e+01 -1.124531555175781250e+01 -7.968387007713317871e-02 9.151919931173324585e-02 3.550599794834852219e-03 -2.061580419540405273e-01
2.667000000000000000e+03 1.581452751159667969e+01 -1.760436820983886719e+01 1.582191139459609985e-01 4.677729308605194092e-01 1.877976059913635254e-01 -4.309317469596862793e-02
2.668000000000000000e+03 1.695450973510742188e+01 -1.720963478088378906e+01 2.772032022476196289e-01 6.379103660583496094e-01 2.745340764522552490e-01 -1.576255448162555695e-02
2.669000000000000000e+03 1.053445529937744141e+01 -1.233567333221435547e+01 -5.097226798534393311e-02 6.151795387268066406e-02 3.163706278428435326e-03 -2.044649422168731689e-01
2.670000000000000000e+03 6.617420196533203125e+01 2.443680953979492188e+01 -3.963801264762878418e-02 5.998023033142089844e+00 1.787515521049499512e+00 7.366541028022766113e-02
2.671000000000000000e+03 6.088010025024414062e+01 -2.574390792846679688e+01 -5.894860625267028809e-02 5.610754489898681641e+00 1.665541768074035645e+00 -1.632216870784759521e-01
2.672000000000000000e+03 5.889271163940429688e+01 -2.397912597656250000e+01 -9.288294911384582520e-01 6.477376461029052734e+00 1.664564013481140137e+00 1.746114343404769897e-01
2.673000000000000000e+03 1.082514858245849609e+01 -2.033938980102539062e+01 1.007481589913368225e-01 1.779810786247253418e-01 8.361876755952835083e-02 -1.335612684488296509e-01
2.674000000000000000e+03 1.434269523620605469e+01 -1.814150238037109375e+01 1.817954331636428833e-01 4.240462481975555420e-01 1.817525029182434082e-01 -7.573872804641723633e-02
2.675000000000000000e+03 1.173997688293457031e+01 -2.192940330505371094e+01 1.306376755237579346e-01 2.266841232776641846e-01 1.071965396404266357e-01 -8.881586790084838867e-02
2.676000000000000000e+03 6.368000411987304688e+01 -2.279329681396484375e+01 7.702971994876861572e-02 5.323903083801269531e+00 1.620279788970947266e+00 -8.184630274772644043e-01
2.677000000000000000e+03 6.481532287597656250e+01 -2.576436996459960938e+01 1.988051235675811768e-01 5.232593536376953125e+00 1.629419565200805664e+00 -4.031030535697937012e-01
2.678000000000000000e+03 9.683743476867675781e+00 -1.918903160095214844e+01 1.140248030424118042e-01 6.022729352116584778e-02 5.227562785148620605e-02 -1.420241594314575195e-01
2.679000000000000000e+03 1.188963890075683594e+01 -1.738021469116210938e+01 1.104127988219261169e-01 2.171588689088821411e-01 9.827150404453277588e-02 -1.473288536071777344e-01
2.680000000000000000e+03 6.956137847900390625e+01 2.552297592163085938e+01 -1.071442663669586182e-01 6.429503917694091797e+00 1.896708011627197266e+00 1.664930880069732666e-01
2.681000000000000000e+03 1.444072246551513672e+01 -1.439867115020751953e+01 1.072511151432991028e-01 3.214102089405059814e-01 1.285984069108963013e-01 -1.489939689636230469e-01
2.682000000000000000e+03 1.957544517517089844e+01 -1.966546249389648438e+01 1.564676910638809204e-01 1.016889810562133789e+00 3.520072400569915771e-01 1.294624656438827515e-01
2.683000000000000000e+03 2.010696220397949219e+01 -2.135359382629394531e+01 1.632922142744064331e-01 1.268594145774841309e+00 4.295659065246582031e-01 7.874941080808639526e-02
2.684000000000000000e+03 2.179342460632324219e+01 -2.085867118835449219e+01 7.644255459308624268e-02 1.413135170936584473e+00 4.468733370304107666e-01 1.375963836908340454e-01
2.685000000000000000e+03 3.394960784912109375e+01 2.205709648132324219e+01 -2.849177718162536621e-01 3.372222185134887695e-01 1.569133065640926361e-02 5.691890120506286621e-01
2.686000000000000000e+03 3.649002456665039062e+01 2.088523292541503906e+01 -4.221690893173217773e-01 8.097204566001892090e-02 -1.023591086268424988e-01 1.641802303493022919e-02
2.687000000000000000e+03 5.657646179199218750e+01 1.616054725646972656e+01 8.699134588241577148e-01 5.337191104888916016e+00 1.862131357192993164e+00 2.654109716415405273e+00
2.688000000000000000e+03 5.305271911621093750e+01 1.671142768859863281e+01 -1.579886794090270996e+00 9.554780960083007812e+00 2.392468214035034180e+00 1.515135169029235840e+00
2.689000000000000000e+03 7.618273162841796875e+01 3.300379943847656250e+01 -2.743281237781047821e-02 7.022553443908691406e+00 2.098536252975463867e+00 1.000346839427947998e-01
2.690000000000000000e+03 7.053645324707031250e+01 2.771974754333496094e+01 -9.392406046390533447e-02 6.495957374572753906e+00 1.920610070228576660e+00 1.955432742834091187e-01
2.691000000000000000e+03 4.648127365112304688e+01 -2.459502792358398438e+01 4.411411583423614502e-01 2.706168174743652344e+00 9.441927671432495117e-01 -7.048103213310241699e-01
2.692000000000000000e+03 2.937897491455078125e+01 2.141855621337890625e+01 -9.840847849845886230e-01 1.468148708343505859e+00 1.452191770076751709e-01 1.120229959487915039e+00
2.693000000000000000e+03 2.970055580139160156e+01 2.443852233886718750e+01 -6.781087517738342285e-01 1.168789982795715332e+00 1.472043842077255249e-01 6.321271061897277832e-01
2.694000000000000000e+03 3.138168525695800781e+01 -2.175767326354980469e+01 3.189653754234313965e-01 2.306759119033813477e+00 7.877173423767089844e-01 -3.963516056537628174e-01
2.695000000000000000e+03 5.929619216918945312e+01 2.005810356140136719e+01 4.891799986362457275e-01 4.676040649414062500e+00 1.549566149711608887e+00 1.071177959442138672e+00
2.696000000000000000e+03 5.865462112426757812e+01 2.184238433837890625e+01 2.148864120244979858e-01 5.065966606140136719e+00 1.584255933761596680e+00 8.502768874168395996e-01
2.697000000000000000e+03 2.410581970214843750e+01 -2.208849716186523438e+01 5.273447185754776001e-02 1.734540462493896484e+00 5.361824631690979004e-01 1.798616349697113037e-02
2.698000000000000000e+03 2.548892021179199219e+01 -2.316199493408203125e+01 -2.554045431315898895e-02 2.023977279663085938e+00 5.995310544967651367e-01 -5.858017876744270325e-02
2.699000000000000000e+03 2.714791107177734375e+01 2.531237220764160156e+01 -8.032234907150268555e-01 1.337808012962341309e+00 1.603753417730331421e-01 3.827831149101257324e-01
2.700000000000000000e+03 1.336689472198486328e+01 -2.089234352111816406e+01 1.396779865026473999e-01 4.151791334152221680e-01 1.664571315050125122e-01 -6.940437108278274536e-02
2.701000000000000000e+03 6.432064819335937500e+01 2.470628738403320312e+01 7.843552529811859131e-02 5.677206039428710938e+00 1.726692438125610352e+00 1.397613137960433960e-01
2.702000000000000000e+03 3.423677062988281250e+01 2.446444702148437500e+01 -1.682780981063842773e-01 6.609429121017456055e-01 1.477994620800018311e-01 3.860118389129638672e-01
2.703000000000000000e+03 5.575366592407226562e+01 -2.743080711364746094e+01 -6.942930817604064941e-02 4.259766578674316406e+00 1.257101178169250488e+00 7.248225808143615723e-01
2.704000000000000000e+03 6.016535949707031250e+01 -2.697683334350585938e+01 -4.870262145996093750e-01 5.457403659820556641e+00 1.491113185882568359e+00 1.532886084169149399e-02
2.705000000000000000e+03 3.191399002075195312e+01 -2.519506072998046875e+01 2.412547916173934937e-01 2.374390363693237305e+00 7.846935391426086426e-01 -1.071121320128440857e-01
2.706000000000000000e+03 1.366012382507324219e+01 3.049037742614746094e+01 6.815509498119354248e-02 5.977336168289184570e-01 1.997666209936141968e-01 1.132332384586334229e-01
2.707000000000000000e+03 1.490893840789794922e+01 -3.007474708557128906e+01 7.108083367347717285e-02 6.207767128944396973e-01 2.075572609901428223e-01 4.024298395961523056e-03
2.708000000000000000e+03 1.821522521972656250e+01 -2.420422935485839844e+01 1.203326284885406494e-01 9.623880982398986816e-01 3.248162269592285156e-01 1.452889200299978256e-02
2.709000000000000000e+03 6.012334060668945312e+01 2.400317382812500000e+01 7.061611115932464600e-02 5.240193843841552734e+00 1.593243002891540527e+00 4.380476772785186768e-01
2.710000000000000000e+03 6.132666397094726562e+01 2.290603637695312500e+01 2.881251871585845947e-01 5.105721473693847656e+00 1.618154048919677734e+00 3.442012965679168701e-01
2.711000000000000000e+03 3.518525695800781250e+01 2.268664360046386719e+01 -2.020279467105865479e-01 4.361374974250793457e-01 7.023286074399948120e-02 3.024718761444091797e-01
2.712000000000000000e+03 7.252571868896484375e+01 -3.427168655395507812e+01 9.019610285758972168e-02 6.133386611938476562e+00 1.867074847221374512e+00 6.864092499017715454e-02
2.713000000000000000e+03 6.505059051513671875e+01 2.773200607299804688e+01 -8.209791034460067749e-02 5.819410324096679688e+00 1.721193790435791016e+00 1.216325312852859497e-01
2.714000000000000000e+03 6.824517059326171875e+01 2.885737800598144531e+01 -1.144949421286582947e-01 6.232968330383300781e+00 1.835542082786560059e+00 1.645676195621490479e-01
2.715000000000000000e+03 2.647833824157714844e+01 -2.749233245849609375e+01 5.147367250174283981e-03 1.944442391395568848e+00 5.848768949508666992e-01 -3.728735446929931641e-02
2.716000000000000000e+03 5.230916213989257812e+01 -2.702072906494140625e+01 4.045660495758056641e-01 3.075705528259277344e+00 1.044081449508666992e+00 5.030286312103271484e-01
2.717000000000000000e+03 4.789455795288085938e+01 -2.761541938781738281e+01 4.983056783676147461e-01 2.889297485351562500e+00 1.016280889511108398e+00 -2.853874266147613525e-01
2.718000000000000000e+03 5.136024856567382812e+01 2.745719718933105469e+01 -5.223470926284790039e-01 4.251676082611083984e+00 1.118798732757568359e+00 -4.531129002571105957e-01
2.719000000000000000e+03 2.369658470153808594e+01 2.680444335937500000e+01 -4.984248280525207520e-01 1.042461037635803223e+00 1.632108539342880249e-01 -1.229200065135955811e-01
2.720000000000000000e+03 4.269094467163085938e+00 -3.783974456787109375e+01 2.376013062894344330e-02 -4.603561460971832275e-01 -1.309788078069686890e-01 -6.090544536709785461e-02
2.721000000000000000e+03 1.739225578308105469e+01 -2.159853744506835938e+01 1.709040552377700806e-01 7.942178249359130859e-01 2.895365655422210693e-01 1.855015754699707031e-02
2.722000000000000000e+03 7.378049468994140625e+01 2.925797462463378906e+01 -5.957294628024101257e-02 6.766674995422363281e+00 2.012130737304687500e+00 1.840514391660690308e-01
2.723000000000000000e+03 7.507154846191406250e+01 3.229707717895507812e+01 -3.538785874843597412e-02 6.894215106964111328e+00 2.057648181915283203e+00 1.225982978940010071e-01
2.724000000000000000e+03 7.261971282958984375e+01 3.193673133850097656e+01 -6.681800633668899536e-02 6.669672012329101562e+00 1.980856180191040039e+00 1.440580785274505615e-01
2.725000000000000000e+03 6.011259078979492188e+01 2.228267478942871094e+01 2.106084227561950684e-01 4.999000072479248047e+00 1.562882661819458008e+00 6.344066262245178223e-01
2.726000000000000000e+03 1.666160392761230469e+01 -2.315742301940917969e+01 1.392742991447448730e-01 7.649469971656799316e-01 2.712664008140563965e-01 2.071650326251983643e-02
2.727000000000000000e+03 7.569960784912109375e+01 3.428373336791992188e+01 -3.184127807617187500e-02 6.984568119049072266e+00 2.085818052291870117e+00 9.624364972114562988e-02
2.728000000000000000e+03 2.285048103332519531e+01 -2.543536186218261719e+01 4.080335423350334167e-02 1.598129391670227051e+00 4.916798472404479980e-01 1.184977311640977859e-02
2.729000000000000000e+03 1.894451332092285156e+01 -2.243726921081542969e+01 1.329342573881149292e-01 1.052115201950073242e+00 3.555148243904113770e-01 1.063782498240470886e-01
2.730000000000000000e+03 2.908441162109375000e+01 -2.565986251831054688e+01 1.548998802900314331e-01 2.161413192749023438e+00 6.948939561843872070e-01 -9.145165979862213135e-02
2.731000000000000000e+03 4.573278808593750000e+01 -2.654010963439941406e+01 1.825776398181915283e-01 2.868866682052612305e+00 9.154332876205444336e-01 -4.452542364597320557e-01
2.732000000000000000e+03 5.437691116333007812e+01 -2.649567413330078125e+01 1.246753484010696411e-01 3.999354600906372070e+00 1.237208962440490723e+00 8.805587887763977051e-01
2.733000000000000000e+03 5.823329925537109375e+01 2.396903991699218750e+01 -1.574676036834716797e-01 5.240900516510009766e+00 1.525029897689819336e+00 5.656436681747436523e-01
2.734000000000000000e+03 5.518592834472656250e+01 2.476036834716796875e+01 -6.230974197387695312e-01 5.264897823333740234e+00 1.392540097236633301e+00 2.837177813053131104e-01
2.735000000000000000e+03 6.023078918457031250e+01 2.781406593322753906e+01 -1.889167279005050659e-01 5.310005664825439453e+00 1.536326646804809570e+00 2.079157829284667969e-01
2.736000000000000000e+03 1.807506752014160156e+01 -2.948317718505859375e+01 7.035446912050247192e-02 1.001175165176391602e+00 3.214588761329650879e-01 1.718127913773059845e-02
2.737000000000000000e+03 6.402130126953125000e+01 -2.774092674255371094e+01 1.336817890405654907e-01 5.329510211944580078e+00 1.638957619667053223e+00 -2.379048466682434082e-01
2.738000000000000000e+03 1.821295356750488281e+01 2.826513481140136719e+01 -7.645861804485321045e-02 5.486695766448974609e-01 1.416632831096649170e-01 -4.020201787352561951e-02
2.739000000000000000e+03 3.736340332031250000e+01 2.704165458679199219e+01 2.545727789402008057e-02 9.977566599845886230e-01 3.069641888141632080e-01 -1.433975435793399811e-02
2.740000000000000000e+03 1.574844360351562500e+01 -2.177285575866699219e+01 1.634986698627471924e-01 6.972750425338745117e-01 2.582321166992187500e-01 9.094757959246635437e-03
2.741000000000000000e+03 6.314117813110351562e+01 -2.473322105407714844e+01 1.854066401720046997e-01 5.341948986053466797e+00 1.658206701278686523e+00 -5.955719351768493652e-01
2.742000000000000000e+03 1.755931854248046875e+01 -1.835265541076660156e+01 1.292106062173843384e-01 7.575153112411499023e-01 2.660177648067474365e-01 1.027070134878158569e-01
2.743000000000000000e+03 2.120971870422363281e+01 -2.884641647338867188e+01 7.625117152929306030e-02 1.346745610237121582e+00 4.268990457057952881e-01 3.534945845603942871e-02
2.744000000000000000e+03 6.642870330810546875e+01 -2.644690322875976562e+01 4.094046652317047119e-01 5.200136661529541016e+00 1.682862401008605957e+00 -1.507473289966583252e-01
2.745000000000000000e+03 2.621450042724609375e+01 2.650579690933227539e+00 -1.032517719268798828e+01 -1.025603890419006348e+00 -3.405234336853027344e+00 -3.162884712219238281e+00
2.746000000000000000e+03 2.339905166625976562e+01 5.565798282623291016e+00 3.597088098526000977e+00 3.009090185165405273e+00 1.981853485107421875e+00 3.835251092910766602e+00
2.747000000000000000e+03 2.322074699401855469e+01 5.568045139312744141e+00 3.973929166793823242e+00 2.845289707183837891e+00 2.045765638351440430e+00 4.383880138397216797e+00
2.748000000000000000e+03 2.282697677612304688e+01 5.604139804840087891e+00 4.375489234924316406e+00 3.422540426254272461e+00 2.339408874511718750e+00 5.352859020233154297e+00
2.749000000000000000e+03 2.264484786987304688e+01 5.595407485961914062e+00 4.351798534393310547e+00 4.114192962646484375e+00 2.539797544479370117e+00 5.745582103729248047e+00
2.750000000000000000e+03 2.247673797607421875e+01 5.619679927825927734e+00 4.312454223632812500e+00 5.045506000518798828e+00 2.807388067245483398e+00 6.217278003692626953e+00
2.751000000000000000e+03 2.139407348632812500e+01 6.173367500305175781e+00 4.374260008335113525e-01 1.012576484680175781e+01 3.168957233428955078e+00 3.888595104217529297e+00
2.752000000000000000e+03 2.114648818969726562e+01 6.127288818359375000e+00 2.527838051319122314e-01 1.045571708679199219e+01 3.212550401687622070e+00 2.984577655792236328e+00
2.753000000000000000e+03 2.063853073120117188e+01 6.025159358978271484e+00 6.907225251197814941e-01 1.016705036163330078e+01 3.257331609725952148e+00 7.592687010765075684e-01
2.754000000000000000e+03 1.998486709594726562e+01 5.019929409027099609e+00 8.408356666564941406e+00 7.420531272888183594e+00 4.748666286468505859e+00 -2.336436510086059570e+00
2.755000000000000000e+03 1.975456237792968750e+01 4.434938907623291016e+00 1.185563564300537109e+01 4.700346469879150391e+00 4.966794490814208984e+00 -1.064776659011840820e+00
2.756000000000000000e+03 1.941377639770507812e+01 3.580708742141723633e+00 1.024798107147216797e+01 3.539866685867309570e+00 4.136354446411132812e+00 1.001886725425720215e+00
2.757000000000000000e+03 1.948189544677734375e+01 3.357642650604248047e+00 9.032293319702148438e+00 3.572287082672119141e+00 3.781374216079711914e+00 1.501412391662597656e+00
2.758000000000000000e+03 2.091721534729003906e+01 2.134351015090942383e+00 -1.601591467857360840e+00 1.193875694274902344e+01 3.101149559020996094e+00 -3.305762529373168945e+00
2.759000000000000000e+03 2.160697364807128906e+01 2.244405031204223633e+00 -8.288682103157043457e-01 1.148961925506591797e+01 3.198225259780883789e+00 -5.590492725372314453e+00
2.760000000000000000e+03 2.247649192810058594e+01 2.162825584411621094e+00 -5.195505619049072266e-01 7.169078350067138672e+00 1.994858264923095703e+00 -4.928110122680664062e+00
2.761000000000000000e+03 2.309207153320312500e+01 1.840476751327514648e+00 -2.097577810287475586e+00 6.128869533538818359e+00 1.209387540817260742e+00 -4.301276683807373047e+00
2.762000000000000000e+03 1.480993461608886719e+01 -2.985446929931640625e+00 -1.299610882997512817e-01 -6.881186366081237793e-02 -5.963188409805297852e-02 6.026060134172439575e-02
2.763000000000000000e+03 2.087143707275390625e+01 8.467617630958557129e-01 -9.820864796638488770e-01 9.708824157714843750e+00 2.618021249771118164e+00 -3.478224039077758789e+00
2.764000000000000000e+03 3.849544143676757812e+01 -4.178445816040039062e+00 1.141169548034667969e+00 -1.602874279022216797e+00 -1.385114192962646484e-01 2.231247276067733765e-01
2.765000000000000000e+03 2.244350051879882812e+01 5.913796901702880859e+00 3.318677425384521484e+00 5.821571350097656250e+00 2.742074728012084961e+00 5.889512062072753906e+00
2.766000000000000000e+03 2.195124816894531250e+01 6.363873004913330078e+00 1.096022725105285645e+00 7.715271472930908203e+00 2.643388271331787109e+00 5.173824787139892578e+00
2.767000000000000000e+03 1.320245456695556641e+01 -2.773011922836303711e+00 -1.486251652240753174e-01 -9.327072650194168091e-03 -4.738567396998405457e-02 1.764806918799877167e-02
2.768000000000000000e+03 1.454632639884948730e+00 -3.248303174972534180e+00 -8.055673679336905479e-04 -7.849226705729961395e-03 -2.596438396722078323e-03 -7.839100435376167297e-03
2.769000000000000000e+03 1.959888267517089844e+01 5.341104507446289062e+00 6.484574794769287109e+00 4.473685741424560547e+00 3.287478208541870117e+00 -1.991922855377197266e+00
2.770000000000000000e+03 2.320738410949707031e+01 1.441637754440307617e+00 -1.830862760543823242e+00 6.113797187805175781e+00 1.284880280494689941e+00 -4.388528347015380859e+00
2.771000000000000000e+03 1.861744499206542969e+01 4.525107860565185547e+00 9.046095848083496094e+00 -1.226932525634765625e+00 2.345748901367187500e+00 -1.603686958551406860e-01
2.772000000000000000e+03 2.261536979675292969e+01 6.082434654235839844e+00 2.805244207382202148e+00 5.174170494079589844e+00 2.393824577331542969e+00 5.651035785675048828e+00
2.773000000000000000e+03 2.054641151428222656e+01 2.374314069747924805e+00 -1.148366928100585938e-02 1.175492763519287109e+01 3.523033380508422852e+00 -1.574727892875671387e+00
2.774000000000000000e+03 1.902629661560058594e+01 2.844796657562255859e+00 7.204103469848632812e+00 1.948067545890808105e-01 2.219672918319702148e+00 1.213506087660789490e-01
2.775000000000000000e+03 1.941995429992675781e+01 3.803348541259765625e+00 1.043429756164550781e+01 2.424433469772338867e+00 3.857619285583496094e+00 5.700521469116210938e-01
2.776000000000000000e+03 1.947759628295898438e+01 4.711188316345214844e+00 9.969402313232421875e+00 3.295778989791870117e+00 3.979554414749145508e+00 -1.532853126525878906e+00
2.777000000000000000e+03 2.131327438354492188e+01 6.475256919860839844e+00 -4.961110651493072510e-01 9.090372085571289062e+00 2.578278303146362305e+00 3.365537881851196289e+00
2.778000000000000000e+03 2.052680969238281250e+01 6.349053382873535156e+00 -1.306261271238327026e-01 8.891510963439941406e+00 2.628265380859375000e+00 4.891734421253204346e-01
2.779000000000000000e+03 2.862525939941406250e+00 -3.357127761840820312e+01 1.245618518441915512e-02 -5.815536975860595703e-01 -1.707292497158050537e-01 4.403859842568635941e-03
2.780000000000000000e+03 3.746931457519531250e+01 -2.214465141296386719e+00 8.073524236679077148e-01 -2.206585645675659180e+00 -4.197699725627899170e-01 -2.877809405326843262e-01
2.781000000000000000e+03 3.607948303222656250e+01 5.499803066253662109e+00 -2.551153600215911865e-01 -7.148671150207519531e-02 -9.798062592744827271e-02 4.275545775890350342e-01
2.782000000000000000e+03 7.657326507568359375e+01 -2.741133272647857666e-01 -1.670075654983520508e+00 8.399696350097656250e+00 2.018886089324951172e+00 8.637054562568664551e-01
2.783000000000000000e+03 2.619792461395263672e+00 -3.347674846649169922e+00 -8.044783025979995728e-03 -1.145448349416255951e-02 -5.849780049175024033e-03 -2.649058029055595398e-02
2.784000000000000000e+03 6.730812072753906250e+01 9.627459526062011719e+00 6.579415798187255859e-01 1.308396530151367188e+01 4.122571945190429688e+00 -3.161681890487670898e-01
2.785000000000000000e+03 5.780934143066406250e+01 -2.243656921386718750e+01 -3.622017502784729004e-01 6.243340969085693359e+00 1.764341711997985840e+00 3.743238151073455811e-01
2.786000000000000000e+03 2.422818946838378906e+01 7.916028499603271484e+00 -1.969905942678451538e-01 5.357646942138671875e+00 1.548196911811828613e+00 2.859721183776855469e+00
2.787000000000000000e+03 6.970954132080078125e+01 1.140019226074218750e+01 1.696352362632751465e+00 6.386960029602050781e+00 2.424993753433227539e+00 1.594640493392944336e+00
2.788000000000000000e+03 7.044303131103515625e+01 -1.152892231941223145e+00 -2.850197076797485352e+00 4.929790496826171875e+00 6.238780021667480469e-01 -3.203394412994384766e+00
2.789000000000000000e+03 2.353448104858398438e+01 1.641023516654968262e+00 -3.097147226333618164e+00 4.154600620269775391e+00 3.172360658645629883e-01 -4.253857135772705078e+00
2.790000000000000000e+03 6.659172821044921875e+01 5.102153301239013672e+00 9.797690510749816895e-01 9.064375877380371094e+00 3.013243436813354492e+00 -3.587752878665924072e-01
2.791000000000000000e+03 3.904927825927734375e+01 8.101778984069824219e+00 -5.350564420223236084e-02 -3.453175351023674011e-02 -2.641121856868267059e-02 -2.080850303173065186e-02
2.792000000000000000e+03 2.219147109985351562e+01 6.918128490447998047e+00 6.059174612164497375e-02 6.518164157867431641e+00 1.973626732826232910e+00 4.378369331359863281e+00
2.793000000000000000e+03 4.221525573730468750e+01 -6.820518016815185547e+00 8.789680004119873047e-01 5.660808086395263672e+00 1.961932897567749023e+00 1.631729245185852051e+00
2.794000000000000000e+03 2.041107559204101562e+01 2.166426658630371094e+00 2.761765718460083008e-01 9.739842414855957031e+00 3.004805564880371094e+00 -2.013608694076538086e+00
2.795000000000000000e+03 2.097953033447265625e+01 7.045393943786621094e+00 -1.784472465515136719e+00 7.429907798767089844e+00 1.693630576133728027e+00 1.589220762252807617e+00
2.796000000000000000e+03 2.080669403076171875e+01 6.394316673278808594e+00 -4.713276624679565430e-01 9.103965759277343750e+00 2.589791536331176758e+00 1.527054071426391602e+00
2.797000000000000000e+03 1.981924057006835938e+01 6.670221328735351562e+00 -1.082422137260437012e+00 4.611661434173583984e+00 1.058771848678588867e+00 -1.091143012046813965e+00
2.798000000000000000e+03 1.981902122497558594e+01 6.253707885742187500e+00 6.260950565338134766e-01 5.763393402099609375e+00 1.916846632957458496e+00 -1.195108890533447266e+00
2.799000000000000000e+03 2.233337402343750000e+00 3.686143875122070312e+01 7.354363799095153809e-03 1.242531061172485352e+00 3.749656081199645996e-01 6.287100911140441895e-02
2.800000000000000000e+03 7.385259246826171875e+01 -4.980310499668121338e-01 -1.069231510162353516e+00 1.821176528930664062e+00 2.255835086107254028e-01 -3.115313053131103516e-01
2.801000000000000000e+03 2.053400802612304688e+01 1.358532547950744629e+00 -1.615846753120422363e+00 8.580483436584472656e+00 2.089390993118286133e+00 -3.185757160186767578e+00
2.802000000000000000e+03 1.879236221313476562e+01 6.252226352691650391e+00 5.666374564170837402e-01 7.672356367111206055e-01 4.001619219779968262e-01 -2.079781055450439453e+00
2.803000000000000000e+03 2.171818161010742188e+01 9.884862303733825684e-01 -1.511082649230957031e+00 9.683194160461425781e+00 2.451633453369140625e+00 -4.847813606262207031e+00
2.804000000000000000e+03 4.044161224365234375e+01 -3.504572629928588867e+00 1.665562987327575684e+00 1.047516942024230957e+00 8.139240145683288574e-01 -1.215492039918899536e-01
2.805000000000000000e+03 4.149927902221679688e+01 -1.804084658622741699e+00 6.895586848258972168e-01 2.398936748504638672e+00 9.265486598014831543e-01 3.710771203041076660e-01
2.806000000000000000e+03 1.863817405700683594e+01 5.021415233612060547e+00 7.479554176330566406e+00 -4.145784676074981689e-02 2.231428861618041992e+00 -9.658526778221130371e-01
2.807000000000000000e+03 3.786003112792968750e+01 1.557508087158203125e+01 -2.165740013122558594e+00 2.634965479373931885e-01 -5.706729888916015625e-01 -1.058734804391860962e-01
2.808000000000000000e+03 2.501773643493652344e+01 -3.277959823608398438e+01 4.212246090173721313e-02 1.750180840492248535e+00 5.376909971237182617e-01 -1.883266121149063110e-02
2.809000000000000000e+03 3.850300979614257812e+01 -2.328365707397460938e+01 1.894335597753524780e-01 3.615206718444824219e+00 1.141391992568969727e+00 1.824037283658981323e-01
2.810000000000000000e+03 5.700203323364257812e+01 -2.517576980590820312e+01 -3.045116066932678223e-01 4.746544361114501953e+00 1.332609772682189941e+00 5.520753860473632812e-01
2.811000000000000000e+03 2.958297348022460938e+01 -9.631232261657714844e+00 1.575109958648681641e+00 3.596821784973144531e+00 1.551579475402832031e+00 -2.431901216506958008e+00
2.812000000000000000e+03 3.748891830444335938e+01 3.112015724182128906e+01 1.759106814861297607e-01 1.314422607421875000e+00 4.471000134944915771e-01 -9.235607832670211792e-02
2.813000000000000000e+03 4.107632827758789062e+01 -2.666871786117553711e+00 1.224553704261779785e+00 2.053817510604858398e+00 9.835113883018493652e-01 1.181586310267448425e-01
2.814000000000000000e+03 5.391724014282226562e+01 -2.555777311325073242e+00 -2.954905033111572266e+00 6.583442211151123047e+00 1.088561177253723145e+00 -2.929354190826416016e+00
2.815000000000000000e+03 1.823810386657714844e+01 5.835188865661621094e+00 2.485690593719482422e+00 -3.323056101799011230e-01 6.460154652595520020e-01 -1.643957614898681641e+00
2.816000000000000000e+03 2.350898361206054688e+01 6.900290012359619141e+00 1.171349048614501953e+00 4.865300655364990234e+00 1.810994863510131836e+00 3.795905113220214844e+00
2.817000000000000000e+03 1.901589393615722656e+01 4.419111728668212891e+00 9.819949150085449219e+00 8.707144260406494141e-01 3.207198858261108398e+00 -2.739252746105194092e-01
2.818000000000000000e+03 3.222117996215820312e+01 3.260720014572143555e+00 -2.381729125976562500e+00 1.274488806724548340e+00 -3.321721255779266357e-01 1.145680427551269531e+00
2.819000000000000000e+03 6.602086639404296875e+01 -1.615117073059082031e+01 -6.515875458717346191e-01 2.880241632461547852e+00 6.685962677001953125e-01 -1.058576345443725586e+00
2.820000000000000000e+03 1.879180717468261719e+01 4.137070655822753906e+00 1.070994186401367188e+01 -6.643951535224914551e-01 3.013664007186889648e+00 2.651705741882324219e-01
2.821000000000000000e+03 7.725379180908203125e+01 -1.140068817138671875e+01 5.566767454147338867e-01 7.755319595336914062e+00 2.493598937988281250e+00 8.498615026473999023e-01
2.822000000000000000e+03 2.286494064331054688e+01 3.217513656616210938e+01 3.298263996839523315e-02 7.708228826522827148e-01 2.411416620016098022e-01 -1.723774150013923645e-02
2.823000000000000000e+03 2.204740524291992188e+01 7.370913982391357422e+00 -1.428931832313537598e+00 6.162466049194335938e+00 1.420060276985168457e+00 3.388201713562011719e+00
2.824000000000000000e+03 2.160852432250976562e+01 7.213085174560546875e+00 -1.545300960540771484e+00 7.128543376922607422e+00 1.674972772598266602e+00 3.124761581420898438e+00
2.825000000000000000e+03 2.126630592346191406e+01 7.072526931762695312e+00 -1.755951762199401855e+00 7.143738269805908203e+00 1.616335868835449219e+00 2.662268638610839844e+00
2.826000000000000000e+03 2.101673316955566406e+01 6.735412597656250000e+00 -1.355677127838134766e+00 8.126176834106445312e+00 2.031149864196777344e+00 2.004889488220214844e+00
2.827000000000000000e+03 2.003634643554687500e+01 6.989870071411132812e+00 -2.121183872222900391e+00 5.054146289825439453e+00 8.798887729644775391e-01 -6.577157974243164062e-01
2.828000000000000000e+03 2.038361167907714844e+01 7.061596870422363281e+00 -2.126420974731445312e+00 6.007967472076416016e+00 1.164463877677917480e+00 3.261590003967285156e-01
2.829000000000000000e+03 2.069078826904296875e+01 7.036843299865722656e+00 -2.100765943527221680e+00 7.428073883056640625e+00 1.598192453384399414e+00 1.100291013717651367e+00
2.830000000000000000e+03 2.101222038269042969e+01 7.373963356018066406e+00 -2.679088354110717773e+00 6.335834503173828125e+00 1.097023844718933105e+00 1.710297465324401855e+00
2.831000000000000000e+03 2.548861122131347656e+01 -1.693455696105957031e+01 -1.691952645778656006e-01 2.464789152145385742e+00 6.886781454086303711e-01 2.081267535686492920e-02
2.832000000000000000e+03 1.575449943542480469e+01 -3.353166961669921875e+01 4.818187281489372253e-02 7.247838973999023438e-01 2.318897247314453125e-01 2.061812672764062881e-03
2.833000000000000000e+03 4.420677947998046875e+01 -2.270348358154296875e+01 1.322813332080841064e-01 3.457493066787719727e+00 1.076932311058044434e+00 -7.974033951759338379e-01
2.834000000000000000e+03 3.846992015838623047e+00 -2.453457260131835938e+01 2.255865372717380524e-02 -4.050105214118957520e-01 -1.147355586290359497e-01 -6.307692825794219971e-02
2.835000000000000000e+03 2.192406845092773438e+01 -1.464180374145507812e+01 1.913625597953796387e-01 1.459545493125915527e+00 4.952724277973175049e-01 4.448350071907043457e-01
2.836000000000000000e+03 3.167889022827148438e+01 2.028662872314453125e+01 -5.341858267784118652e-01 3.638764917850494385e-01 -5.109281092882156372e-02 1.135142326354980469e+00
2.837000000000000000e+03 7.647928619384765625e+01 1.901799011230468750e+01 1.776197403669357300e-01 6.580589771270751953e+00 2.027462720870971680e+00 7.995486259460449219e-03
2.838000000000000000e+03 2.291353225708007812e+01 -2.997674369812011719e+01 5.619612336158752441e-02 1.591661930084228516e+00 4.943574070930480957e-01 1.430946029722690582e-02
2.839000000000000000e+03 6.016764068603515625e+01 -1.069395446777343750e+01 2.247238606214523315e-01 8.722782135009765625e+00 2.684251785278320312e+00 1.083834767341613770e+00
2.840000000000000000e+03 3.799274063110351562e+01 -2.486673164367675781e+01 9.329364448785781860e-02 3.115227699279785156e+00 9.625563621520996094e-01 -7.705788314342498779e-02
2.841000000000000000e+03 5.605031585693359375e+01 -3.136672401428222656e+01 1.033009812235832214e-01 4.383277893066406250e+00 1.345973610877990723e+00 3.146898746490478516e-01
2.842000000000000000e+03 2.188167381286621094e+01 7.838050842285156250e+00 -2.600684165954589844e+00 5.854042530059814453e+00 9.760074615478515625e-01 2.675305128097534180e+00
2.843000000000000000e+03 5.728923416137695312e+01 -4.143329620361328125e+00 -1.400861591100692749e-01 5.283852100372314453e+00 1.543129801750183105e+00 -2.053992748260498047e+00
2.844000000000000000e+03 5.852343368530273438e+01 -3.035440444946289062e+01 -6.890148669481277466e-02 4.719598770141601562e+00 1.395209193229675293e+00 2.124891877174377441e-01
2.845000000000000000e+03 5.950648880004882812e+01 -2.836521720886230469e+01 -9.969434887170791626e-02 5.299205303192138672e+00 1.559853315353393555e+00 1.097453385591506958e-01
2.846000000000000000e+03 4.000749969482421875e+01 -2.751619148254394531e+01 3.564494848251342773e-02 3.106251001358032227e+00 9.425688385963439941e-01 -2.914501130580902100e-01
2.847000000000000000e+03 7.307244873046875000e+01 1.941137504577636719e+01 2.558443248271942139e-01 6.629365921020507812e+00 2.065563201904296875e+00 3.799749016761779785e-01
2.848000000000000000e+03 5.944041061401367188e+01 -6.968280315399169922e+00 9.033008813858032227e-01 7.546745777130126953e+00 2.535013914108276367e+00 5.997310280799865723e-01
2.849000000000000000e+03 2.957099342346191406e+01 -2.389821243286132812e+01 1.262735724449157715e-01 2.346716642379760742e+00 7.418970465660095215e-01 -1.903892457485198975e-01
2.850000000000000000e+03 5.694626998901367188e+01 -2.854926681518554688e+01 -1.031773611903190613e-01 4.843148231506347656e+00 1.421991229057312012e+00 4.972993135452270508e-01
2.851000000000000000e+03 1.760570907592773438e+01 -1.488610267639160156e+01 2.587787806987762451e-01 4.902711212635040283e-01 2.247149646282196045e-01 -2.914662100374698639e-02
2.852000000000000000e+03 3.527738952636718750e+01 2.093830490112304688e+01 -3.967941403388977051e-01 -3.694587619975209236e-03 -1.201466172933578491e-01 2.712582051753997803e-01
2.853000000000000000e+03 3.101189231872558594e+01 2.245245170593261719e+01 -6.222183704376220703e-01 8.780742287635803223e-01 7.675676047801971436e-02 9.566820263862609863e-01
2.854000000000000000e+03 5.241376495361328125e+01 -2.882620239257812500e+01 4.071722924709320068e-01 3.507259130477905273e+00 1.174329400062561035e+00 3.418464958667755127e-01
2.855000000000000000e+03 5.055882263183593750e+01 -2.631637001037597656e+01 5.936185717582702637e-01 2.671131372451782227e+00 9.794250130653381348e-01 1.823534667491912842e-01
2.856000000000000000e+03 2.631447410583496094e+01 2.447248840332031250e+01 -8.275869488716125488e-01 1.515602946281433105e+00 2.064048051834106445e-01 -7.319808751344680786e-02
2.857000000000000000e+03 1.381437683105468750e+01 -8.853631019592285156e+00 -2.501615285873413086e-01 2.663626074790954590e-01 4.860319662839174271e-03 -1.157933622598648071e-01
2.858000000000000000e+03 2.822065544128417969e+01 2.183723449707031250e+01 -1.138826847076416016e+00 2.055510759353637695e+00 2.750051617622375488e-01 5.807529687881469727e-01
2.859000000000000000e+03 2.855501556396484375e+01 2.332692909240722656e+01 -7.836645841598510742e-01 1.417953491210937500e+00 1.902866959571838379e-01 5.897057652473449707e-01
2.860000000000000000e+03 1.121920013427734375e+01 -5.955258369445800781e+00 -1.548019945621490479e-01 1.112480908632278442e-01 -1.306616980582475662e-02 -4.293287917971611023e-02
2.861000000000000000e+03 2.570083999633789062e+01 2.636061477661132812e+01 -4.946117401123046875e-01 1.152325630187988281e+00 1.973141580820083618e-01 -2.177121583372354507e-03
2.862000000000000000e+03 2.524667167663574219e+01 2.513256072998046875e+01 -8.470608592033386230e-01 1.369459509849548340e+00 1.567195951938629150e-01 -4.278881009668111801e-03
2.863000000000000000e+03 5.779315567016601562e+01 -6.043715000152587891e+00 3.897905051708221436e-01 6.577159881591796875e+00 2.090085029602050781e+00 -3.870566487312316895e-01
2.864000000000000000e+03 8.014768600463867188e+00 -3.790003776550292969e+00 -1.086020767688751221e-01 2.667740359902381897e-02 -2.457740157842636108e-02 -5.998834595084190369e-02
2.865000000000000000e+03 1.694592666625976562e+01 -1.597015571594238281e+01 1.302476078271865845e-01 5.147453546524047852e-01 1.934978961944580078e-01 -2.201491594314575195e-02
2.866000000000000000e+03 1.962577819824218750e+01 -1.803426361083984375e+01 1.748384833335876465e-01 1.081199884414672852e+00 3.768115043640136719e-01 1.392391771078109741e-01
2.867000000000000000e+03 4.547727584838867188e+00 1.126286792755126953e+01 -1.592616885900497437e-01 9.997139573097229004e-01 2.521356642246246338e-01 -1.181699156761169434e+00
2.868000000000000000e+03 1.488619422912597656e+01 2.476006507873535156e+01 -2.054531574249267578e-01 3.983399569988250732e-01 5.786604434251785278e-02 -8.381506428122520447e-03
2.869000000000000000e+03 4.041121292114257812e+01 2.071164512634277344e+01 -5.266959667205810547e-01 7.142552733421325684e-01 5.626779794692993164e-02 -3.777968883514404297e-01
2.870000000000000000e+03 3.949649429321289062e+01 2.259763717651367188e+01 -2.297353893518447876e-01 7.388455867767333984e-01 1.527330577373504639e-01 -2.894516289234161377e-01
2.871000000000000000e+03 3.975567245483398438e+01 1.971177291870117188e+01 -8.732670545578002930e-01 5.498241186141967773e-01 -9.703287482261657715e-02 -2.550981044769287109e-01
2.872000000000000000e+03 3.874715042114257812e+01 2.015864372253417969e+01 -6.697682142257690430e-01 4.391706585884094238e-01 -6.917927414178848267e-02 -2.840267419815063477e-01
2.873000000000000000e+03 2.956726074218750000e+01 -2.154919433593750000e+01 1.868461072444915771e-01 2.384191274642944336e+00 7.713112235069274902e-01 -2.488142997026443481e-01
2.874000000000000000e+03 7.411686420440673828e+00 1.425657272338867188e+01 -8.391376137733459473e-01 1.299616575241088867e+00 1.381436884403228760e-01 -5.980421304702758789e-01
2.875000000000000000e+03 7.343893432617187500e+01 -2.828474998474121094e+01 1.404955983161926270e-01 6.230924129486083984e+00 1.911425948143005371e+00 2.412677109241485596e-01
2.876000000000000000e+03 7.055997467041015625e+01 -2.806300735473632812e+01 2.611795663833618164e-01 5.698784828186035156e+00 1.787989258766174316e+00 1.298023611307144165e-01
2.877000000000000000e+03 1.394813060760498047e+01 -1.251558113098144531e+01 -4.005794413387775421e-03 1.905837357044219971e-01 5.597338452935218811e-02 -1.861784011125564575e-01
2.878000000000000000e+03 1.469266128540039062e+01 -1.305901527404785156e+01 -3.744509443640708923e-02 2.131355553865432739e-01 5.270713567733764648e-02 -2.372939139604568481e-01
2.879000000000000000e+03 3.130435752868652344e+01 -2.007760810852050781e+01 3.969233036041259766e-01 2.365921735763549805e+00 8.288534879684448242e-01 -4.363695979118347168e-01
2.880000000000000000e+03 1.438771057128906250e+01 2.313446807861328125e+01 -3.601879179477691650e-01 2.625279128551483154e-01 -2.929800376296043396e-02 5.621510371565818787e-02
2.881000000000000000e+03 8.576611518859863281e+00 -4.831824302673339844e+00 -1.315407454967498779e-01 2.519709616899490356e-02 -3.190309554338455200e-02 -7.388759404420852661e-02
2.882000000000000000e+03 7.960119724273681641e+00 -2.697280311584472656e+01 4.531489685177803040e-02 -6.187922134995460510e-02 -4.969297442585229874e-03 -6.752278655767440796e-02
2.883000000000000000e+03 1.021358871459960938e+01 1.908903121948242188e+01 -6.658374667167663574e-01 7.499625682830810547e-01 2.523753419518470764e-02 -6.140382960438728333e-02
2.884000000000000000e+03 1.208661556243896484e+01 -1.007633781433105469e+01 -1.504738628864288330e-01 1.570479273796081543e-01 1.972220139577984810e-03 -1.898475587368011475e-01
2.885000000000000000e+03 1.168237972259521484e+01 -1.597507286071777344e+01 7.475082576274871826e-02 1.072007268667221069e-01 5.458546802401542664e-02 -2.132831811904907227e-01
2.886000000000000000e+03 1.111017608642578125e+01 -2.454623413085937500e+01 1.031746938824653625e-01 1.928769648075103760e-01 8.881549537181854248e-02 -6.069577485322952271e-02
2.887000000000000000e+03 1.775956916809082031e+01 -1.981134414672851562e+01 1.901689171791076660e-01 8.789399862289428711e-01 3.207326829433441162e-01 5.917059630155563354e-02
2.888000000000000000e+03 9.017271995544433594e+00 -1.723923492431640625e+01 7.101143151521682739e-02 3.270348161458969116e-02 3.111447393894195557e-02 -1.739962846040725708e-01
2.889000000000000000e+03 8.614877700805664062e+00 -1.382895183563232422e+01 -4.434068221598863602e-03 1.917114667594432831e-02 4.421123769134283066e-03 -2.264607399702072144e-01
2.890000000000000000e+03 4.037366485595703125e+01 1.113951778411865234e+01 -9.387595653533935547e-01 -1.112067606300115585e-02 -2.849640846252441406e-01 1.453363448381423950e-01
2.891000000000000000e+03 3.962160873413085938e+01 1.131359195709228516e+01 -1.012190699577331543e+00 -4.437342751771211624e-03 -3.049884140491485596e-01 2.230945825576782227e-01
2.892000000000000000e+03 4.275807952880859375e+01 1.133976268768310547e+01 -7.896277904510498047e-01 -4.296431317925453186e-03 -2.381772696971893311e-01 -2.860641181468963623e-01
2.893000000000000000e+03 3.886851119995117188e+01 1.148583889007568359e+01 -9.821390509605407715e-01 -5.682677775621414185e-02 -3.116897344589233398e-01 2.600001692771911621e-01
2.894000000000000000e+03 4.112229919433593750e+01 1.096372222900390625e+01 -7.666804194450378418e-01 6.948072463274002075e-02 -2.091598957777023315e-01 6.068045273423194885e-02
2.895000000000000000e+03 4.054919052124023438e+01 1.186267280578613281e+01 -1.112236261367797852e+00 1.651498228311538696e-01 -2.841259241104125977e-01 5.735097452998161316e-02
2.896000000000000000e+03 4.185790634155273438e+01 1.078891849517822266e+01 -5.014330744743347168e-01 5.231386981904506683e-03 -1.488605141639709473e-01 -4.238214716315269470e-02
2.897000000000000000e+03 4.253778457641601562e+01 1.062180137634277344e+01 -2.140391469001770020e-01 7.250596582889556885e-02 -4.245995357632637024e-02 -7.670716941356658936e-02
2.898000000000000000e+03 4.325923919677734375e+01 1.099616241455078125e+01 -3.075993955135345459e-01 -1.348814517259597778e-01 -1.327442526817321777e-01 -1.602830886840820312e-01
2.899000000000000000e+03 3.901419448852539062e+01 1.221245574951171875e+01 -1.119331240653991699e+00 6.572309881448745728e-02 -3.160824477672576904e-01 4.013315141201019287e-01
2.900000000000000000e+03 4.131274795532226562e+01 1.168514633178710938e+01 -1.011405944824218750e+00 1.347616016864776611e-01 -2.629933059215545654e-01 -5.554365739226341248e-02
2.901000000000000000e+03 4.206327819824218750e+01 1.150861167907714844e+01 -9.405613541603088379e-01 2.176947295665740967e-01 -2.168599963188171387e-01 -1.541556119918823242e-01
2.902000000000000000e+03 3.978221511840820312e+01 1.203847694396972656e+01 -1.182291150093078613e+00 7.997623831033706665e-02 -3.306944966316223145e-01 1.986782848834991455e-01
2.903000000000000000e+03 3.674169540405273438e+01 1.212182044982910156e+01 1.377116423100233078e-02 -4.461331963539123535e-01 -1.297086179256439209e-01 3.287585675716400146e-01
2.904000000000000000e+03 3.698434829711914062e+01 1.262278556823730469e+01 -1.016010403633117676e+00 -2.256671488285064697e-01 -3.725032508373260498e-01 6.020124554634094238e-01
2.905000000000000000e+03 3.825864791870117188e+01 1.234777259826660156e+01 -1.163559556007385254e+00 1.517115905880928040e-02 -3.445165157318115234e-01 5.341716408729553223e-01
2.906000000000000000e+03 3.804425811767578125e+01 1.163198184967041016e+01 -6.207624077796936035e-01 -1.005609985440969467e-02 -1.892455667257308960e-01 3.328935205936431885e-01
2.907000000000000000e+03 3.756306838989257812e+01 1.246899890899658203e+01 -1.077936649322509766e+00 -1.795870959758758545e-01 -3.772571384906768799e-01 7.760611176490783691e-01
2.908000000000000000e+03 3.719634628295898438e+01 1.177657890319824219e+01 -2.023188620805740356e-01 -1.485467702150344849e-01 -1.052596867084503174e-01 1.388198584318161011e-01
2.909000000000000000e+03 3.663000488281250000e+01 1.268585968017578125e+01 -9.660917520523071289e-01 -7.236437201499938965e-01 -5.069206357002258301e-01 7.872005105018615723e-01
2.910000000000000000e+03 3.645061874389648438e+01 1.246910285949707031e+01 -2.517695128917694092e-01 -5.930904150009155273e-01 -2.534579932689666748e-01 4.355657696723937988e-01
2.911000000000000000e+03 3.871810150146484375e+01 1.072134113311767578e+01 1.409558393061161041e-02 -1.734765246510505676e-03 3.708245698362588882e-03 -7.411911152303218842e-03
2.912000000000000000e+03 3.946144485473632812e+01 1.055411434173583984e+01 1.766264066100120544e-02 1.603396085556596518e-04 5.346894264221191406e-03 -2.589861396700143814e-03
2.913000000000000000e+03 4.214028167724609375e+01 9.757813453674316406e+00 1.002199947834014893e-03 -6.205548997968435287e-03 -1.561004668474197388e-03 5.688264718628488481e-05
2.914000000000000000e+03 3.857750320434570312e+01 9.993584632873535156e+00 1.978385262191295624e-02 -2.107400912791490555e-03 5.302935373038053513e-03 6.186083192005753517e-04
2.915000000000000000e+03 4.160499191284179688e+01 1.006451320648193359e+01 -4.938241094350814819e-03 4.360384773463010788e-03 -1.733568497002124786e-04 -1.379895955324172974e-03
2.916000000000000000e+03 4.144534683227539062e+01 9.334435462951660156e+00 7.651998661458492279e-03 2.022783085703849792e-02 8.363949134945869446e-03 7.727482821792364120e-03
2.917000000000000000e+03 4.092973709106445312e+01 1.022012138366699219e+01 2.561072120442986488e-03 7.644737488590180874e-04 9.976638248190283775e-04 9.508707444183528423e-05
2.918000000000000000e+03 4.020204162597656250e+01 1.038670063018798828e+01 3.047059290111064911e-03 3.241289407014846802e-03 1.886504585854709148e-03 -9.429535828530788422e-03
2.919000000000000000e+03 4.077485275268554688e+01 9.490621566772460938e+00 -3.669522935524582863e-03 -3.879330586642026901e-03 -2.264656126499176025e-03 -2.055669948458671570e-02
2.920000000000000000e+03 4.005191802978515625e+01 9.657777786254882812e+00 1.089833676815032959e-02 6.716865114867687225e-03 5.284560378640890121e-03 9.987171739339828491e-03
2.921000000000000000e+03 3.931608200073242188e+01 9.825769424438476562e+00 -1.516271848231554031e-02 1.918606925755739212e-03 -3.973233513534069061e-03 -2.091115340590476990e-02
2.922000000000000000e+03 1.463219356536865234e+01 1.208772420883178711e+00 -3.667698860168457031e+00 -2.998523473739624023e+00 -1.999866724014282227e+00 -1.947739005088806152e+00
2.923000000000000000e+03 1.413865852355957031e+01 3.089686632156372070e-01 -1.146115541458129883e+00 5.100222229957580566e-01 -1.908279955387115479e-01 -7.603428363800048828e-01
2.924000000000000000e+03 1.413591098785400391e+01 8.441513180732727051e-01 -5.856514573097229004e-01 -1.624512374401092529e-01 -2.244308143854141235e-01 -2.999374866485595703e+00
2.925000000000000000e+03 1.324289608001708984e+01 1.113969683647155762e+00 -2.923905611038208008e+00 1.095402911305427551e-01 -8.443096280097961426e-01 -2.201965093612670898e+00
2.926000000000000000e+03 1.484628582000732422e+01 5.796153545379638672e-01 -1.616611927747726440e-01 -9.277706146240234375e-01 -3.268295526504516602e-01 -3.813384175300598145e-01
2.927000000000000000e+03 1.338759136199951172e+01 2.497024983167648315e-01 -2.878843784332275391e+00 -5.406244993209838867e-01 -1.025840520858764648e+00 -8.242219090461730957e-01
2.928000000000000000e+03 1.422421169281005859e+01 1.250681281089782715e+00 -1.822988986968994141e+00 -7.441558688879013062e-02 -5.692213773727416992e-01 -4.697207212448120117e-01
2.929000000000000000e+03 1.355335903167724609e+01 8.086416125297546387e-01 -9.374041557312011719e-01 5.283042788505554199e-01 -1.227299720048904419e-01 -8.811784982681274414e-01
2.930000000000000000e+03 1.374464988708496094e+01 1.230049014091491699e+00 -1.137239933013916016e+00 4.290955364704132080e-01 -2.124433368444442749e-01 -2.850035905838012695e+00
2.931000000000000000e+03 1.038163661956787109e+01 3.719484806060791016e-01 -7.167736530303955078e+00 -3.537729382514953613e-01 -2.256452798843383789e+00 2.244706153869628906e-01
2.932000000000000000e+03 1.112833786010742188e+01 3.352923989295959473e-01 -6.621929168701171875e+00 6.750876903533935547e-01 -1.784052491188049316e+00 -7.594601809978485107e-02
2.933000000000000000e+03 1.187404060363769531e+01 3.023687005043029785e-01 -5.639218807220458984e+00 -5.019242167472839355e-01 -1.842342972755432129e+00 -2.701864540576934814e-01
2.934000000000000000e+03 1.187335777282714844e+01 1.043116807937622070e+00 -2.909717082977294922e+00 6.942874789237976074e-01 -6.646289229393005371e-01 -1.434023857116699219e+00
2.935000000000000000e+03 1.261872673034667969e+01 2.733090519905090332e-01 -4.295408725738525391e+00 8.148580789566040039e-01 -1.044165253639221191e+00 -5.247733592987060547e-01
2.936000000000000000e+03 1.261125278472900391e+01 1.014356493949890137e+00 -2.199725627899169922e+00 1.467413604259490967e-01 -6.158952713012695312e-01 -1.635803461074829102e+00
2.937000000000000000e+03 1.039453697204589844e+01 1.112098097801208496e+00 -3.697500467300415039e+00 9.062431454658508301e-01 -8.373771905899047852e-01 -1.624225974082946777e-01
2.938000000000000000e+03 1.113444709777832031e+01 1.075741291046142578e+00 -3.535212278366088867e+00 4.174977242946624756e-01 -9.353143572807312012e-01 -8.078774213790893555e-01
2.939000000000000000e+03 9.623786926269531250e+00 3.900898993015289307e-01 -6.973727703094482422e+00 3.997145295143127441e-01 -1.972203969955444336e+00 3.258813321590423584e-01
2.940000000000000000e+03 8.869092941284179688e+00 1.130121707916259766e+00 -3.713090896606445312e+00 3.965380787849426270e-01 -9.949658513069152832e-01 8.713551163673400879e-01
2.941000000000000000e+03 9.639455795288085938e+00 1.130089879035949707e+00 -3.788591146469116211e+00 4.072467237710952759e-02 -1.124359965324401855e+00 5.785111188888549805e-01
2.942000000000000000e+03 6.556201934814453125e+00 1.130103111267089844e+00 -2.231945276260375977e+00 -2.458140701055526733e-01 -7.433277964591979980e-01 1.170487880706787109e+00
2.943000000000000000e+03 7.314821243286132812e+00 3.901119828224182129e-01 -4.536714553833007812e+00 -2.313822656869888306e-01 -1.430429100990295410e+00 4.679425656795501709e-01
2.944000000000000000e+03 4.234930038452148438e+00 3.901281952857971191e-01 -1.441959619522094727e+00 -1.071854606270790100e-01 -4.647435247898101807e-01 2.696093320846557617e-01
2.945000000000000000e+03 5.005080699920654297e+00 3.903138041496276855e-01 -2.042884349822998047e+00 7.620086520910263062e-02 -5.900050401687622070e-01 3.102659285068511963e-01
2.946000000000000000e+03 2.698928356170654297e+00 1.130043506622314453e+00 -4.744893312454223633e-01 -5.506469309329986572e-02 -1.588662117719650269e-01 4.152102470397949219e-01
2.947000000000000000e+03 2.694541215896606445e+00 3.900435268878936768e-01 -5.565019249916076660e-01 -5.689919367432594299e-02 -1.840203404426574707e-01 1.754482984542846680e-01
2.948000000000000000e+03 1.927357912063598633e+00 1.130177497863769531e+00 -2.918895184993743896e-01 -1.439365744590759277e-01 -1.307478249073028564e-01 3.317068219184875488e-01
2.949000000000000000e+03 1.924224138259887695e+00 3.901774585247039795e-01 -2.593930661678314209e-01 -1.088276505470275879e-02 -8.108274638652801514e-02 1.109162271022796631e-01
2.950000000000000000e+03 1.154332518577575684e+00 3.901924192905426025e-01 -8.533197641372680664e-02 -3.645083308219909668e-02 -3.653484210371971130e-02 5.597771704196929932e-02
2.951000000000000000e+03 3.854947686195373535e-01 1.130104899406433105e+00 -2.311429940164089203e-02 -7.689538598060607910e-02 -3.000290505588054657e-02 5.087947100400924683e-02
2.952000000000000000e+03 3.848679959774017334e-01 3.901049494743347168e-01 -1.454535592347383499e-02 -1.007620804011821747e-02 -7.386469282209873199e-03 1.329260040074586868e-02
2.953000000000000000e+03 3.464860916137695312e+00 3.899480998516082764e-01 -9.502848982810974121e-01 3.632441908121109009e-02 -2.741881310939788818e-01 2.034359574317932129e-01
2.954000000000000000e+03 4.241824626922607422e+00 1.130128264427185059e+00 -1.028225779533386230e+00 -1.602060534060001373e-02 -3.132739067077636719e-01 6.492682695388793945e-01
2.955000000000000000e+03 5.775665760040283203e+00 3.902668058872222900e-01 -2.778612375259399414e+00 -1.726315319538116455e-01 -8.853731155395507812e-01 3.997068405151367188e-01
2.956000000000000000e+03 5.785067081451416016e+00 1.130266785621643066e+00 -1.738515734672546387e+00 -1.570405252277851105e-02 -5.262659192085266113e-01 9.334827661514282227e-01
2.957000000000000000e+03 6.545547008514404297e+00 3.901031017303466797e-01 -3.623018026351928711e+00 1.677096486091613770e-01 -1.036592483520507812e+00 4.182105362415313721e-01
2.958000000000000000e+03 8.084894180297851562e+00 3.901273906230926514e-01 -5.439982891082763672e+00 2.966705560684204102e-01 -1.542993783950805664e+00 4.182892143726348877e-01
2.959000000000000000e+03 7.326729297637939453e+00 1.130111932754516602e+00 -2.769806385040283203e+00 2.005612403154373169e-01 -7.707735300064086914e-01 1.114388942718505859e+00
2.960000000000000000e+03 8.854677200317382812e+00 3.901217579841613770e-01 -6.266499042510986328e+00 -3.039484918117523193e-01 -1.971134305000305176e+00 3.993856906890869141e-01
2.961000000000000000e+03 8.098055839538574219e+00 1.130127429962158203e+00 -3.292774438858032227e+00 -1.187053918838500977e-01 -1.023443937301635742e+00 1.135408282279968262e+00
2.962000000000000000e+03 5.013228416442871094e+00 1.130313754081726074e+00 -1.371074080467224121e+00 -2.465217113494873047e-01 -4.852787554264068604e-01 8.386550545692443848e-01
2.963000000000000000e+03 3.470501661300659180e+00 1.129948139190673828e+00 -7.283275723457336426e-01 -1.672087758779525757e-01 -2.686609029769897461e-01 5.862275362014770508e-01
2.964000000000000000e+03 1.156212806701660156e+00 1.130192399024963379e+00 -1.156966388225555420e-01 -1.183350309729576111e-01 -7.020950317382812500e-02 1.735991984605789185e-01
2.965000000000000000e+03 7.947788715362548828e+00 -3.796155154705047607e-01 -7.712790369987487793e-02 -9.398443624377250671e-03 -2.595790475606918335e-02 -2.645178465172648430e-03
2.966000000000000000e+03 8.799200057983398438e+00 -1.121476769447326660e+00 -8.545707911252975464e-02 -5.295491311699151993e-03 -2.722577191889286041e-02 -6.773665081709623337e-03
2.967000000000000000e+03 9.582886695861816406e+00 -3.863955438137054443e-01 -9.306538850069046021e-02 -4.626711830496788025e-03 -2.930763177573680878e-02 6.770752370357513428e-04
2.968000000000000000e+03 7.128690242767333984e+00 -3.785993754863739014e-01 -6.529057770967483521e-02 1.115375664085149765e-02 -1.624104753136634827e-02 -8.558404631912708282e-03
2.969000000000000000e+03 6.303002834320068359e+00 -3.777079284191131592e-01 -4.953051730990409851e-02 -1.075635664165019989e-02 -1.808606274425983429e-02 -4.249735269695520401e-03
2.970000000000000000e+03 5.439651966094970703e+00 -3.838033080101013184e-01 -3.934397175908088684e-02 8.152699097990989685e-03 -9.357381612062454224e-03 -5.726234987378120422e-03
2.971000000000000000e+03 4.550192832946777344e+00 -3.404171466827392578e-01 -2.394483424723148346e-02 -6.155836861580610275e-03 -9.030201472342014313e-03 -6.827595178037881851e-03
2.972000000000000000e+03 4.366222858428955078e+00 -8.724825382232666016e-01 -1.382770761847496033e-02 3.888822859153151512e-03 -2.981665311381220818e-03 -2.264131326228380203e-03
2.973000000000000000e+03 2.784379720687866211e+00 -7.812200784683227539e-01 -8.840032853186130524e-03 -4.328934941440820694e-03 -3.950690384954214096e-03 -8.377503254450857639e-04
2.974000000000000000e+03 1.180937051773071289e+00 -3.614223301410675049e-01 2.480210096109658480e-04 3.448476549237966537e-03 1.108949305489659309e-03 1.599893439561128616e-03
2.975000000000000000e+03 4.100893437862396240e-01 -5.529974699020385742e-01 -1.137199695222079754e-03 -2.648209920153021812e-03 -1.135622849687933922e-03 -1.731047290377318859e-03
2.976000000000000000e+03 7.476370930671691895e-01 -1.101422309875488281e+00 5.737421568483114243e-03 6.966674700379371643e-03 3.811229020357131958e-03 5.209342110902070999e-03
2.977000000000000000e+03 9.583242416381835938e+00 -1.126395583152770996e+00 -9.753853082656860352e-02 1.558760367333889008e-02 -2.458527684211730957e-02 -1.065873075276613235e-02
2.978000000000000000e+03 8.014751434326171875e+00 -1.119615554809570312e+00 -8.062763512134552002e-02 1.057513803243637085e-02 -2.101574838161468506e-02 -1.944046281278133392e-02
2.979000000000000000e+03 7.228956699371337891e+00 -1.118599414825439453e+00 -6.490381062030792236e-02 -5.572802852839231491e-03 -2.114298380911350250e-02 -1.420253049582242966e-02
2.980000000000000000e+03 6.436572551727294922e+00 -1.117707967758178711e+00 -6.054105982184410095e-02 4.582789260894060135e-03 -1.678748242557048798e-02 -1.896274462342262268e-02
2.981000000000000000e+03 5.606524944305419922e+00 -1.123803257942199707e+00 -3.522785007953643799e-02 -3.102994291111826897e-03 -1.149925310164690018e-02 -1.843776553869247437e-02
2.982000000000000000e+03 4.871310234069824219e+00 -1.221886396408081055e+00 -5.038468539714813232e-02 -7.122358307242393494e-03 -1.725211180746555328e-02 -2.151163853704929352e-02
2.983000000000000000e+03 4.215992450714111328e+00 -1.292065382003784180e+00 -2.784682065248489380e-02 3.407162148505449295e-03 -7.331897504627704620e-03 -1.808949932456016541e-02
2.984000000000000000e+03 3.483979225158691406e+00 -1.264481186866760254e+00 -1.639469712972640991e-02 -5.742497742176055908e-03 -6.641158368438482285e-03 -8.836550638079643250e-03
2.985000000000000000e+03 2.720374822616577148e+00 -1.259622693061828613e+00 -9.439365938305854797e-03 -6.150748115032911301e-03 -4.677033983170986176e-03 -1.169612258672714233e-02
2.986000000000000000e+03 1.356143712997436523e+00 -1.203356504440307617e+00 -5.118593573570251465e-03 -1.532531157135963440e-02 -6.133171729743480682e-03 -1.182115986011922359e-03
2.987000000000000000e+03 3.578934192657470703e+00 -7.873688340187072754e-01 -1.682822220027446747e-02 -3.840700257569551468e-03 -6.200676783919334412e-03 -1.412941049784421921e-02
2.988000000000000000e+03 3.694924592971801758e+00 -2.828876674175262451e-01 -1.208149176090955734e-02 2.372608985751867294e-03 -2.912665018811821938e-03 -1.455375691875815392e-03
2.989000000000000000e+03 2.863981246948242188e+00 -2.815973162651062012e-01 -3.811945905908942223e-03 -6.301706889644265175e-04 -1.332634943537414074e-03 -2.570407465100288391e-03
2.990000000000000000e+03 1.994186639785766602e+00 -3.323911726474761963e-01 -3.884130273945629597e-04 -2.401714213192462921e-03 -8.370381547138094902e-04 -6.037201383151113987e-04
2.991000000000000000e+03 1.979022502899169922e+00 -1.275412678718566895e+00 -1.141019631177186966e-02 4.419799428433179855e-03 -2.097118878737092018e-03 -6.628404837101697922e-03
2.992000000000000000e+03 8.765540122985839844e+00 -3.814768195152282715e-01 -8.861987292766571045e-02 8.840284310281276703e-03 -2.393387816846370697e-02 -6.134522613137960434e-03
2.993000000000000000e+03 1.973226070404052734e+00 -8.478038311004638672e-01 4.007295239716768265e-03 3.976335283368825912e-03 2.395089017227292061e-03 -7.496742997318506241e-03
2.994000000000000000e+03 1.112103080749511719e+01 -4.428110718727111816e-01 -9.743592888116836548e-02 -2.313692122697830200e-03 -2.992488630115985870e-02 6.365251727402210236e-03
2.995000000000000000e+03 1.187371921539306641e+01 -4.752737879753112793e-01 -9.300001710653305054e-02 5.374535918235778809e-03 -2.628764323890209198e-02 8.415298536419868469e-03
2.996000000000000000e+03 1.111492252349853516e+01 -1.183259963989257812e+00 -1.019100993871688843e-01 1.900990493595600128e-02 -2.487005665898323059e-02 4.479089751839637756e-03
2.997000000000000000e+03 1.262644767761230469e+01 -5.069373250007629395e-01 -7.979806512594223022e-02 -6.553709972649812698e-03 -2.590553276240825653e-02 9.805781766772270203e-03
2.998000000000000000e+03 1.035515594482421875e+01 -1.148333072662353516e+00 -9.818328171968460083e-02 -4.798721987754106522e-03 -3.089460171759128571e-02 3.245017258450388908e-03
2.999000000000000000e+03 1.036805534362792969e+01 -4.081833958625793457e-01 -9.788278490304946899e-02 6.320433225482702255e-03 -2.746870554983615875e-02 4.731242370326071978e-04
3.000000000000000000e+03 1.263392257690429688e+01 -1.248021602630615234e+00 -8.886322379112243652e-02 2.474521100521087646e-02 -1.923540420830249786e-02 2.998017892241477966e-02
3.001000000000000000e+03 1.187440204620361328e+01 -1.216021895408630371e+00 -9.754233807325363159e-02 -7.305512670427560806e-03 -3.145435452461242676e-02 1.500517223030328751e-02
3.002000000000000000e+03 3.787689590454101562e+01 1.088152790069580078e+01 2.115781977772712708e-02 4.085932858288288116e-03 7.573125883936882019e-03 -8.308453107019886374e-05
3.003000000000000000e+03 3.687048339843750000e+01 1.029800510406494141e+01 5.715955793857574463e-02 -7.441028021275997162e-03 1.491555850952863693e-02 3.814808791503310204e-03
3.004000000000000000e+03 3.774330520629882812e+01 1.015336227416992188e+01 1.674843952059745789e-03 -1.309918798506259918e-02 -3.427303163334727287e-03 -4.511435516178607941e-03
3.005000000000000000e+03 3.632341003417968750e+01 1.056402301788330078e+01 2.046170085668563843e-02 4.311411455273628235e-02 1.907274499535560608e-02 -6.314311176538467407e-04
3.006000000000000000e+03 3.699481582641601562e+01 1.102758884429931641e+01 -8.495649322867393494e-03 -2.674480341374874115e-02 -1.057213544845581055e-02 1.712531037628650665e-02
3.007000000000000000e+03 1.483313274383544922e+01 -3.616165518760681152e-01 2.688240446150302887e-02 7.384810596704483032e-02 3.021915443241596222e-02 4.180073738098144531e-02
3.008000000000000000e+03 1.534506702423095703e+01 -8.866766691207885742e-01 -3.692140057682991028e-02 -8.586038649082183838e-02 -3.683453798294067383e-02 -2.545712701976299286e-02
3.009000000000000000e+03 1.413932895660400391e+01 -4.292643368244171143e-01 -1.820118352770805359e-02 -3.375042229890823364e-02 -1.558548118919134140e-02 5.349627695977687836e-03
3.010000000000000000e+03 1.338562393188476562e+01 -4.926638007164001465e-01 -5.228745937347412109e-02 1.874624192714691162e-02 -1.006236579269170761e-02 1.901894249022006989e-02
3.011000000000000000e+03 1.341033267974853516e+01 -1.234521746635437012e+00 -8.155289292335510254e-02 -1.107015740126371384e-02 -2.778691425919532776e-02 2.578060701489448547e-02
3.012000000000000000e+03 1.419171237945556641e+01 -1.172296047210693359e+00 -6.634577363729476929e-02 1.656146906316280365e-02 -1.493529137223958969e-02 4.890377447009086609e-02
3.013000000000000000e+03 1.491319084167480469e+01 -1.105822205543518066e+00 -6.624481081962585449e-02 -3.055069223046302795e-02 -2.903865091502666473e-02 1.778327627107501030e-03
3.014000000000000000e+03 2.148392486572265625e+01 4.135982036590576172e+00 3.372035980224609375e+01 3.362755775451660156e+00 1.112493419647216797e+01 7.031874656677246094e+00
3.015000000000000000e+03 2.148214721679687500e+01 4.155348300933837891e+00 3.366447830200195312e+01 1.132221794128417969e+01 1.349600887298583984e+01 1.753812599182128906e+01
3.016000000000000000e+03 2.147663879394531250e+01 4.173999309539794922e+00 3.253583908081054688e+01 2.044613838195800781e+01 1.589459323883056641e+01 2.205882263183593750e+01
3.017000000000000000e+03 2.146760749816894531e+01 4.191222667694091797e+00 2.976002120971679688e+01 3.078732681274414062e+01 1.816420364379882812e+01 2.447145462036132812e+01
3.018000000000000000e+03 2.145539855957031250e+01 4.206361293792724609e+00 2.635080146789550781e+01 4.026792144775390625e+01 1.998561668395996094e+01 2.442977142333984375e+01
3.019000000000000000e+03 2.144047927856445312e+01 4.218836307525634766e+00 2.331110000610351562e+01 4.967396163940429688e+01 2.189551925659179688e+01 2.184028244018554688e+01
3.020000000000000000e+03 2.142341804504394531e+01 4.228171348571777344e+00 2.015803527832031250e+01 5.648375701904296875e+01 2.299253845214843750e+01 1.761307716369628906e+01
3.021000000000000000e+03 2.140486717224121094e+01 4.234010219573974609e+00 1.952093696594238281e+01 6.163387680053710938e+01 2.434644317626953125e+01 1.169380664825439453e+01
3.022000000000000000e+03 2.138553619384765625e+01 4.236130237579345703e+00 1.925639533996582031e+01 6.336459732055664062e+01 2.478629875183105469e+01 5.445432186126708984e+00
3.023000000000000000e+03 2.136616134643554688e+01 4.234450340270996094e+00 2.214772987365722656e+01 6.302871322631835938e+01 2.555293273925781250e+01 -4.638663530349731445e-01
3.024000000000000000e+03 2.134748268127441406e+01 4.229034423828125000e+00 2.524993705749511719e+01 5.990206909179687500e+01 2.554560089111328125e+01 -5.318574428558349609e+00
3.025000000000000000e+03 2.133021354675292969e+01 4.220088958740234375e+00 3.011694526672363281e+01 5.580538940429687500e+01 2.577670097351074219e+01 -8.268530845642089844e+00
3.026000000000000000e+03 2.131501388549804688e+01 4.207956314086914062e+00 3.469588470458984375e+01 5.075332260131835938e+01 2.563476181030273438e+01 -9.450110435485839844e+00
3.027000000000000000e+03 2.130246543884277344e+01 4.193099498748779297e+00 3.904648590087890625e+01 4.605758666992187500e+01 2.553122138977050781e+01 -8.751693725585937500e+00
3.028000000000000000e+03 2.129304504394531250e+01 4.176085472106933594e+00 4.264495468139648438e+01 4.241736984252929688e+01 2.551869583129882812e+01 -6.499648571014404297e+00
3.029000000000000000e+03 2.128711318969726562e+01 4.157564640045166016e+00 4.468337249755859375e+01 3.946635818481445312e+01 2.524491882324218750e+01 -3.330437660217285156e+00
3.030000000000000000e+03 2.128489685058593750e+01 4.138243675231933594e+00 4.588414001464843750e+01 3.927204132080078125e+01 2.554685592651367188e+01 5.181120038032531738e-01
3.031000000000000000e+03 2.128647994995117188e+01 4.118860244750976562e+00 4.497419738769531250e+01 3.932870483398437500e+01 2.529087066650390625e+01 4.581409931182861328e+00
3.032000000000000000e+03 2.129180335998535156e+01 4.100155353546142578e+00 4.333059692382812500e+01 4.239031600952148438e+01 2.571627426147460938e+01 7.869559288024902344e+00
3.033000000000000000e+03 2.130066108703613281e+01 4.082842350006103516e+00 3.949020004272460938e+01 4.594405746459960938e+01 2.563027763366699219e+01 1.063305950164794922e+01
3.034000000000000000e+03 2.131271743774414062e+01 4.067582607269287109e+00 3.530888748168945312e+01 5.099162673950195312e+01 2.589015388488769531e+01 1.158115673065185547e+01
3.035000000000000000e+03 2.132751083374023438e+01 4.054959297180175781e+00 2.995151710510253906e+01 5.617701721191406250e+01 2.583856010437011719e+01 1.081859207153320312e+01
3.036000000000000000e+03 2.134447860717773438e+01 4.045454025268554688e+00 2.487696075439453125e+01 6.084899139404296875e+01 2.571778488159179688e+01 7.997206687927246094e+00
3.037000000000000000e+03 2.136296844482421875e+01 4.039429664611816406e+00 2.063124847412109375e+01 6.412223052978515625e+01 2.542604446411132812e+01 3.306631326675415039e+00
3.038000000000000000e+03 2.138227844238281250e+01 4.037116527557373047e+00 1.740658187866210938e+01 6.502117156982421875e+01 2.472832489013671875e+01 -2.749143362045288086e+00
3.039000000000000000e+03 2.140167045593261719e+01 4.038602828979492188e+00 1.656467247009277344e+01 6.343584060668945312e+01 2.400015449523925781e+01 -9.232532501220703125e+00
3.040000000000000000e+03 2.142040061950683594e+01 4.043831825256347656e+00 1.680723190307617188e+01 5.856750869750976562e+01 2.261242294311523438e+01 -1.556727027893066406e+01
3.041000000000000000e+03 2.143775939941406250e+01 4.052603721618652344e+00 1.940484428405761719e+01 5.169417953491210938e+01 2.132970619201660156e+01 -2.036221122741699219e+01
3.042000000000000000e+03 2.145307731628417969e+01 4.064583778381347656e+00 2.211717605590820312e+01 4.204467010498046875e+01 1.924855422973632812e+01 -2.356352424621582031e+01
3.043000000000000000e+03 2.146577453613281250e+01 4.079314708709716797e+00 2.625899314880371094e+01 3.201508331298828125e+01 1.748222351074218750e+01 -2.396457481384277344e+01
3.044000000000000000e+03 2.147536468505859375e+01 4.096233367919921875e+00 2.919668960571289062e+01 2.044404411315917969e+01 1.489222049713134766e+01 -2.198617935180664062e+01
3.045000000000000000e+03 2.148148155212402344e+01 4.114694118499755859e+00 3.384074783325195312e+01 8.642206192016601562e+00 1.274488639831542969e+01 -1.417805671691894531e+01
